# vtk DataFile Version 3.0
vtk output
ASCII
DATASET UNSTRUCTURED_GRID
POINTS       186 double 
  0.00000000E+00  1.00000000E+01  0.00000000E+00
  0.00000000E+00  8.00000000E+00  0.00000000E+00
  0.00000000E+00  6.00000000E+00  0.00000000E+00
  0.00000000E+00  4.00000000E+00  0.00000000E+00
  0.00000000E+00  2.00000000E+00  0.00000000E+00
  0.00000000E+00  0.00000000E+00  0.00000000E+00
  3.33333333E+00  1.00000000E+01  0.00000000E+00
  3.33333333E+00  8.00000000E+00  0.00000000E+00
  3.33333333E+00  6.00000000E+00  0.00000000E+00
  3.33333333E+00  4.00000000E+00  0.00000000E+00
  3.33333333E+00  2.00000000E+00  0.00000000E+00
  3.33333333E+00  0.00000000E+00  0.00000000E+00
  6.66666667E+00  1.00000000E+01  0.00000000E+00
  6.66666667E+00  8.00000000E+00  0.00000000E+00
  6.66666667E+00  6.00000000E+00  0.00000000E+00
  6.66666667E+00  4.00000000E+00  0.00000000E+00
  6.66666667E+00  2.00000000E+00  0.00000000E+00
  6.66666667E+00  0.00000000E+00  0.00000000E+00
  1.00000000E+01  1.00000000E+01  0.00000000E+00
  1.00000000E+01  8.00000000E+00  0.00000000E+00
  1.00000000E+01  6.00000000E+00  0.00000000E+00
  1.00000000E+01  4.00000000E+00  0.00000000E+00
  1.00000000E+01  2.00000000E+00  0.00000000E+00
  1.00000000E+01  0.00000000E+00  0.00000000E+00
  1.33333333E+01  1.00000000E+01  0.00000000E+00
  1.33333333E+01  8.00000000E+00  0.00000000E+00
  1.33333333E+01  6.00000000E+00  0.00000000E+00
  1.33333333E+01  4.00000000E+00  0.00000000E+00
  1.33333333E+01  2.00000000E+00  0.00000000E+00
  1.33333333E+01  0.00000000E+00  0.00000000E+00
  1.66666667E+01  1.00000000E+01  0.00000000E+00
  1.66666667E+01  8.00000000E+00  0.00000000E+00
  1.66666667E+01  6.00000000E+00  0.00000000E+00
  1.66666667E+01  4.00000000E+00  0.00000000E+00
  1.66666667E+01  2.00000000E+00  0.00000000E+00
  1.66666667E+01  0.00000000E+00  0.00000000E+00
  2.00000000E+01  1.00000000E+01  0.00000000E+00
  2.00000000E+01  8.00000000E+00  0.00000000E+00
  2.00000000E+01  6.00000000E+00  0.00000000E+00
  2.00000000E+01  4.00000000E+00  0.00000000E+00
  2.00000000E+01  2.00000000E+00  0.00000000E+00
  2.00000000E+01  0.00000000E+00  0.00000000E+00
  2.33333333E+01  1.00000000E+01  0.00000000E+00
  2.33333333E+01  8.00000000E+00  0.00000000E+00
  2.33333333E+01  6.00000000E+00  0.00000000E+00
  2.33333333E+01  4.00000000E+00  0.00000000E+00
  2.33333333E+01  2.00000000E+00  0.00000000E+00
  2.33333333E+01  0.00000000E+00  0.00000000E+00
  2.66666667E+01  1.00000000E+01  0.00000000E+00
  2.66666667E+01  8.00000000E+00  0.00000000E+00
  2.66666667E+01  6.00000000E+00  0.00000000E+00
  2.66666667E+01  4.00000000E+00  0.00000000E+00
  2.66666667E+01  2.00000000E+00  0.00000000E+00
  2.66666667E+01  0.00000000E+00  0.00000000E+00
  3.00000000E+01  1.00000000E+01  0.00000000E+00
  3.00000000E+01  8.00000000E+00  0.00000000E+00
  3.00000000E+01  6.00000000E+00  0.00000000E+00
  3.00000000E+01  4.00000000E+00  0.00000000E+00
  3.00000000E+01  2.00000000E+00  0.00000000E+00
  3.00000000E+01  0.00000000E+00  0.00000000E+00
  3.33333333E+01  1.00000000E+01  0.00000000E+00
  3.33333333E+01  8.00000000E+00  0.00000000E+00
  3.33333333E+01  6.00000000E+00  0.00000000E+00
  3.33333333E+01  4.00000000E+00  0.00000000E+00
  3.33333333E+01  2.00000000E+00  0.00000000E+00
  3.33333333E+01  0.00000000E+00  0.00000000E+00
  3.66666667E+01  1.00000000E+01  0.00000000E+00
  3.66666667E+01  8.00000000E+00  0.00000000E+00
  3.66666667E+01  6.00000000E+00  0.00000000E+00
  3.66666667E+01  4.00000000E+00  0.00000000E+00
  3.66666667E+01  2.00000000E+00  0.00000000E+00
  3.66666667E+01  0.00000000E+00  0.00000000E+00
  4.00000000E+01  1.00000000E+01  0.00000000E+00
  4.00000000E+01  8.00000000E+00  0.00000000E+00
  4.00000000E+01  6.00000000E+00  0.00000000E+00
  4.00000000E+01  4.00000000E+00  0.00000000E+00
  4.00000000E+01  2.00000000E+00  0.00000000E+00
  4.00000000E+01  0.00000000E+00  0.00000000E+00
  4.33333333E+01  1.00000000E+01  0.00000000E+00
  4.33333333E+01  8.00000000E+00  0.00000000E+00
  4.33333333E+01  6.00000000E+00  0.00000000E+00
  4.33333333E+01  4.00000000E+00  0.00000000E+00
  4.33333333E+01  2.00000000E+00  0.00000000E+00
  4.33333333E+01  0.00000000E+00  0.00000000E+00
  4.66666667E+01  1.00000000E+01  0.00000000E+00
  4.66666667E+01  8.00000000E+00  0.00000000E+00
  4.66666667E+01  6.00000000E+00  0.00000000E+00
  4.66666667E+01  4.00000000E+00  0.00000000E+00
  4.66666667E+01  2.00000000E+00  0.00000000E+00
  4.66666667E+01  0.00000000E+00  0.00000000E+00
  5.00000000E+01  1.00000000E+01  0.00000000E+00
  5.00000000E+01  8.00000000E+00  0.00000000E+00
  5.00000000E+01  6.00000000E+00  0.00000000E+00
  5.00000000E+01  4.00000000E+00  0.00000000E+00
  5.00000000E+01  2.00000000E+00  0.00000000E+00
  5.00000000E+01  0.00000000E+00  0.00000000E+00
  5.33333333E+01  1.00000000E+01  0.00000000E+00
  5.33333333E+01  8.00000000E+00  0.00000000E+00
  5.33333333E+01  6.00000000E+00  0.00000000E+00
  5.33333333E+01  4.00000000E+00  0.00000000E+00
  5.33333333E+01  2.00000000E+00  0.00000000E+00
  5.33333333E+01  0.00000000E+00  0.00000000E+00
  5.66666667E+01  1.00000000E+01  0.00000000E+00
  5.66666667E+01  8.00000000E+00  0.00000000E+00
  5.66666667E+01  6.00000000E+00  0.00000000E+00
  5.66666667E+01  4.00000000E+00  0.00000000E+00
  5.66666667E+01  2.00000000E+00  0.00000000E+00
  5.66666667E+01  0.00000000E+00  0.00000000E+00
  6.00000000E+01  1.00000000E+01  0.00000000E+00
  6.00000000E+01  8.00000000E+00  0.00000000E+00
  6.00000000E+01  6.00000000E+00  0.00000000E+00
  6.00000000E+01  4.00000000E+00  0.00000000E+00
  6.00000000E+01  2.00000000E+00  0.00000000E+00
  6.00000000E+01  0.00000000E+00  0.00000000E+00
  6.33333333E+01  1.00000000E+01  0.00000000E+00
  6.33333333E+01  8.00000000E+00  0.00000000E+00
  6.33333333E+01  6.00000000E+00  0.00000000E+00
  6.33333333E+01  4.00000000E+00  0.00000000E+00
  6.33333333E+01  2.00000000E+00  0.00000000E+00
  6.33333333E+01  0.00000000E+00  0.00000000E+00
  6.66666667E+01  1.00000000E+01  0.00000000E+00
  6.66666667E+01  8.00000000E+00  0.00000000E+00
  6.66666667E+01  6.00000000E+00  0.00000000E+00
  6.66666667E+01  4.00000000E+00  0.00000000E+00
  6.66666667E+01  2.00000000E+00  0.00000000E+00
  6.66666667E+01  0.00000000E+00  0.00000000E+00
  7.00000000E+01  1.00000000E+01  0.00000000E+00
  7.00000000E+01  8.00000000E+00  0.00000000E+00
  7.00000000E+01  6.00000000E+00  0.00000000E+00
  7.00000000E+01  4.00000000E+00  0.00000000E+00
  7.00000000E+01  2.00000000E+00  0.00000000E+00
  7.00000000E+01  0.00000000E+00  0.00000000E+00
  7.33333333E+01  1.00000000E+01  0.00000000E+00
  7.33333333E+01  8.00000000E+00  0.00000000E+00
  7.33333333E+01  6.00000000E+00  0.00000000E+00
  7.33333333E+01  4.00000000E+00  0.00000000E+00
  7.33333333E+01  2.00000000E+00  0.00000000E+00
  7.33333333E+01  0.00000000E+00  0.00000000E+00
  7.66666667E+01  1.00000000E+01  0.00000000E+00
  7.66666667E+01  8.00000000E+00  0.00000000E+00
  7.66666667E+01  6.00000000E+00  0.00000000E+00
  7.66666667E+01  4.00000000E+00  0.00000000E+00
  7.66666667E+01  2.00000000E+00  0.00000000E+00
  7.66666667E+01  0.00000000E+00  0.00000000E+00
  8.00000000E+01  1.00000000E+01  0.00000000E+00
  8.00000000E+01  8.00000000E+00  0.00000000E+00
  8.00000000E+01  6.00000000E+00  0.00000000E+00
  8.00000000E+01  4.00000000E+00  0.00000000E+00
  8.00000000E+01  2.00000000E+00  0.00000000E+00
  8.00000000E+01  0.00000000E+00  0.00000000E+00
  8.33333333E+01  1.00000000E+01  0.00000000E+00
  8.33333333E+01  8.00000000E+00  0.00000000E+00
  8.33333333E+01  6.00000000E+00  0.00000000E+00
  8.33333333E+01  4.00000000E+00  0.00000000E+00
  8.33333333E+01  2.00000000E+00  0.00000000E+00
  8.33333333E+01  0.00000000E+00  0.00000000E+00
  8.66666667E+01  1.00000000E+01  0.00000000E+00
  8.66666667E+01  8.00000000E+00  0.00000000E+00
  8.66666667E+01  6.00000000E+00  0.00000000E+00
  8.66666667E+01  4.00000000E+00  0.00000000E+00
  8.66666667E+01  2.00000000E+00  0.00000000E+00
  8.66666667E+01  0.00000000E+00  0.00000000E+00
  9.00000000E+01  1.00000000E+01  0.00000000E+00
  9.00000000E+01  8.00000000E+00  0.00000000E+00
  9.00000000E+01  6.00000000E+00  0.00000000E+00
  9.00000000E+01  4.00000000E+00  0.00000000E+00
  9.00000000E+01  2.00000000E+00  0.00000000E+00
  9.00000000E+01  0.00000000E+00  0.00000000E+00
  9.33333333E+01  1.00000000E+01  0.00000000E+00
  9.33333333E+01  8.00000000E+00  0.00000000E+00
  9.33333333E+01  6.00000000E+00  0.00000000E+00
  9.33333333E+01  4.00000000E+00  0.00000000E+00
  9.33333333E+01  2.00000000E+00  0.00000000E+00
  9.33333333E+01  0.00000000E+00  0.00000000E+00
  9.66666667E+01  1.00000000E+01  0.00000000E+00
  9.66666667E+01  8.00000000E+00  0.00000000E+00
  9.66666667E+01  6.00000000E+00  0.00000000E+00
  9.66666667E+01  4.00000000E+00  0.00000000E+00
  9.66666667E+01  2.00000000E+00  0.00000000E+00
  9.66666667E+01  0.00000000E+00  0.00000000E+00
  1.00000000E+02  1.00000000E+01  0.00000000E+00
  1.00000000E+02  8.00000000E+00  0.00000000E+00
  1.00000000E+02  6.00000000E+00  0.00000000E+00
  1.00000000E+02  4.00000000E+00  0.00000000E+00
  1.00000000E+02  2.00000000E+00  0.00000000E+00
  1.00000000E+02  0.00000000E+00  0.00000000E+00
CELLS       150       750
         4           0           1           7           6
         4           1           2           8           7
         4           2           3           9           8
         4           3           4          10           9
         4           4           5          11          10
         4           6           7          13          12
         4           7           8          14          13
         4           8           9          15          14
         4           9          10          16          15
         4          10          11          17          16
         4          12          13          19          18
         4          13          14          20          19
         4          14          15          21          20
         4          15          16          22          21
         4          16          17          23          22
         4          18          19          25          24
         4          19          20          26          25
         4          20          21          27          26
         4          21          22          28          27
         4          22          23          29          28
         4          24          25          31          30
         4          25          26          32          31
         4          26          27          33          32
         4          27          28          34          33
         4          28          29          35          34
         4          30          31          37          36
         4          31          32          38          37
         4          32          33          39          38
         4          33          34          40          39
         4          34          35          41          40
         4          36          37          43          42
         4          37          38          44          43
         4          38          39          45          44
         4          39          40          46          45
         4          40          41          47          46
         4          42          43          49          48
         4          43          44          50          49
         4          44          45          51          50
         4          45          46          52          51
         4          46          47          53          52
         4          48          49          55          54
         4          49          50          56          55
         4          50          51          57          56
         4          51          52          58          57
         4          52          53          59          58
         4          54          55          61          60
         4          55          56          62          61
         4          56          57          63          62
         4          57          58          64          63
         4          58          59          65          64
         4          60          61          67          66
         4          61          62          68          67
         4          62          63          69          68
         4          63          64          70          69
         4          64          65          71          70
         4          66          67          73          72
         4          67          68          74          73
         4          68          69          75          74
         4          69          70          76          75
         4          70          71          77          76
         4          72          73          79          78
         4          73          74          80          79
         4          74          75          81          80
         4          75          76          82          81
         4          76          77          83          82
         4          78          79          85          84
         4          79          80          86          85
         4          80          81          87          86
         4          81          82          88          87
         4          82          83          89          88
         4          84          85          91          90
         4          85          86          92          91
         4          86          87          93          92
         4          87          88          94          93
         4          88          89          95          94
         4          90          91          97          96
         4          91          92          98          97
         4          92          93          99          98
         4          93          94         100          99
         4          94          95         101         100
         4          96          97         103         102
         4          97          98         104         103
         4          98          99         105         104
         4          99         100         106         105
         4         100         101         107         106
         4         102         103         109         108
         4         103         104         110         109
         4         104         105         111         110
         4         105         106         112         111
         4         106         107         113         112
         4         108         109         115         114
         4         109         110         116         115
         4         110         111         117         116
         4         111         112         118         117
         4         112         113         119         118
         4         114         115         121         120
         4         115         116         122         121
         4         116         117         123         122
         4         117         118         124         123
         4         118         119         125         124
         4         120         121         127         126
         4         121         122         128         127
         4         122         123         129         128
         4         123         124         130         129
         4         124         125         131         130
         4         126         127         133         132
         4         127         128         134         133
         4         128         129         135         134
         4         129         130         136         135
         4         130         131         137         136
         4         132         133         139         138
         4         133         134         140         139
         4         134         135         141         140
         4         135         136         142         141
         4         136         137         143         142
         4         138         139         145         144
         4         139         140         146         145
         4         140         141         147         146
         4         141         142         148         147
         4         142         143         149         148
         4         144         145         151         150
         4         145         146         152         151
         4         146         147         153         152
         4         147         148         154         153
         4         148         149         155         154
         4         150         151         157         156
         4         151         152         158         157
         4         152         153         159         158
         4         153         154         160         159
         4         154         155         161         160
         4         156         157         163         162
         4         157         158         164         163
         4         158         159         165         164
         4         159         160         166         165
         4         160         161         167         166
         4         162         163         169         168
         4         163         164         170         169
         4         164         165         171         170
         4         165         166         172         171
         4         166         167         173         172
         4         168         169         175         174
         4         169         170         176         175
         4         170         171         177         176
         4         171         172         178         177
         4         172         173         179         178
         4         174         175         181         180
         4         175         176         182         181
         4         176         177         183         182
         4         177         178         184         183
         4         178         179         185         184
CELL_TYPES        150
9
9
9
9
9
9
9
9
9
9
9
9
9
9
9
9
9
9
9
9
9
9
9
9
9
9
9
9
9
9
9
9
9
9
9
9
9
9
9
9
9
9
9
9
9
9
9
9
9
9
9
9
9
9
9
9
9
9
9
9
9
9
9
9
9
9
9
9
9
9
9
9
9
9
9
9
9
9
9
9
9
9
9
9
9
9
9
9
9
9
9
9
9
9
9
9
9
9
9
9
9
9
9
9
9
9
9
9
9
9
9
9
9
9
9
9
9
9
9
9
9
9
9
9
9
9
9
9
9
9
9
9
9
9
9
9
9
9
9
9
9
9
9
9
9
9
9
9
9
9
POINT_DATA       186
SCALARS p double 
LOOKUP_TABLE default
   84813.9053970342     
   84813.9053970341     
   84813.9053970341     
   84813.9053970341     
   84813.9053970341     
   84813.9053970341     
   84705.4126375687     
   84705.4126375687     
   84705.4126375687     
   84705.4126375687     
   84705.4126375687     
   84705.4126375687     
   84380.1339104279     
   84380.1339104279     
   84380.1339104279     
   84380.1339104279     
   84380.1339104279     
   84380.1339104279     
   83838.6675635158     
   83838.6675635158     
   83838.6675635158     
   83838.6675635158     
   83838.6675635158     
   83838.6675635158     
   83082.0098233165     
   83082.0098233165     
   83082.0098233165     
   83082.0098233165     
   83082.0098233165     
   83082.0098233165     
   82111.5532631961     
   82111.5532631961     
   82111.5532631961     
   82111.5532631961     
   82111.5532631961     
   82111.5532631961     
   80929.0846557805     
   80929.0846557805     
   80929.0846557806     
   80929.0846557805     
   80929.0846557805     
   80929.0846557805     
   79536.7822063503     
   79536.7822063503     
   79536.7822063503     
   79536.7822063503     
   79536.7822063503     
   79536.7822063503     
   77937.2121635849     
   77937.2121635849     
   77937.2121635849     
   77937.2121635849     
   77937.2121635849     
   77937.2121635849     
   76133.3248035702     
   76133.3248035701     
   76133.3248035701     
   76133.3248035701     
   76133.3248035701     
   76133.3248035701     
   74128.4497827847     
   74128.4497827847     
   74128.4497827846     
   74128.4497827847     
   74128.4497827847     
   74128.4497827846     
   71926.2908558387     
   71926.2908558387     
   71926.2908558387     
   71926.2908558387     
   71926.2908558387     
   71926.2908558387     
   69530.9199540690     
   69530.9199540690     
   69530.9199540690     
   69530.9199540690     
   69530.9199540690     
   69530.9199540690     
   66946.7706217173     
   66946.7706217173     
   66946.7706217173     
   66946.7706217173     
   66946.7706217173     
   66946.7706217173     
   64178.6308073452     
   64178.6308073452     
   64178.6308073451     
   64178.6308073452     
   64178.6308073452     
   64178.6308073452     
   61231.6350093646     
   61231.6350093646     
   61231.6350093646     
   61231.6350093646     
   61231.6350093647     
   61231.6350093647     
   58111.2557760963     
   58111.2557760963     
   58111.2557760964     
   58111.2557760964     
   58111.2557760964     
   58111.2557760964     
   54823.2945625806     
   54823.2945625806     
   54823.2945625806     
   54823.2945625806     
   54823.2945625806     
   54823.2945625806     
   51373.8719484522     
   51373.8719484522     
   51373.8719484522     
   51373.8719484522     
   51373.8719484523     
   51373.8719484523     
   47769.4172235177     
   47769.4172235177     
   47769.4172235177     
   47769.4172235177     
   47769.4172235177     
   47769.4172235177     
   44016.6573502064     
   44016.6573502064     
   44016.6573502064     
   44016.6573502064     
   44016.6573502065     
   44016.6573502064     
   40122.6053147755     
   40122.6053147755     
   40122.6053147755     
   40122.6053147755     
   40122.6053147755     
   40122.6053147755     
   36094.5478819763     
   36094.5478819763     
   36094.5478819763     
   36094.5478819763     
   36094.5478819763     
   36094.5478819763     
   31940.0327708020     
   31940.0327708020     
   31940.0327708020     
   31940.0327708020     
   31940.0327708020     
   31940.0327708020     
   27666.8552718703     
   27666.8552718703     
   27666.8552718703     
   27666.8552718703     
   27666.8552718703     
   27666.8552718703     
   23283.0443299031     
   23283.0443299031     
   23283.0443299031     
   23283.0443299031     
   23283.0443299031     
   23283.0443299031     
   18796.8481175945     
   18796.8481175944     
   18796.8481175945     
   18796.8481175945     
   18796.8481175944     
   18796.8481175945     
   14216.7191298530     
   14216.7191298530     
   14216.7191298530     
   14216.7191298530     
   14216.7191298530     
   14216.7191298530     
   9551.29882991468     
   9551.29882991468     
   9551.29882991468     
   9551.29882991468     
   9551.29882991468     
   9551.29882991468     
   4809.40188110102     
   4809.40188110102     
   4809.40188110102     
   4809.40188110102     
   4809.40188110102     
   4809.40188110102     
  0.000000000000000E+000
  0.000000000000000E+000
  0.000000000000000E+000
  0.000000000000000E+000
  0.000000000000000E+000
  0.000000000000000E+000
VECTORS u double 
    0.00000E+00        -0.44694E-01         0.00000E+00
    0.00000E+00        -0.35755E-01         0.00000E+00
    0.00000E+00        -0.26817E-01         0.00000E+00
    0.00000E+00        -0.17878E-01         0.00000E+00
    0.00000E+00        -0.89389E-02         0.00000E+00
    0.00000E+00         0.00000E+00         0.00000E+00
    0.62673E-02        -0.44694E-01         0.00000E+00
    0.62673E-02        -0.35755E-01         0.00000E+00
    0.62673E-02        -0.26817E-01         0.00000E+00
    0.62673E-02        -0.17878E-01         0.00000E+00
    0.62673E-02        -0.89389E-02         0.00000E+00
    0.62673E-02         0.00000E+00         0.00000E+00
    0.12528E-01        -0.44694E-01         0.00000E+00
    0.12528E-01        -0.35755E-01         0.00000E+00
    0.12528E-01        -0.26817E-01         0.00000E+00
    0.12528E-01        -0.17878E-01         0.00000E+00
    0.12528E-01        -0.89389E-02         0.00000E+00
    0.12528E-01         0.00000E+00         0.00000E+00
    0.18776E-01        -0.44694E-01         0.00000E+00
    0.18776E-01        -0.35755E-01         0.00000E+00
    0.18776E-01        -0.26817E-01         0.00000E+00
    0.18776E-01        -0.17878E-01         0.00000E+00
    0.18776E-01        -0.89389E-02         0.00000E+00
    0.18776E-01         0.00000E+00         0.00000E+00
    0.25004E-01        -0.44694E-01         0.00000E+00
    0.25004E-01        -0.35755E-01         0.00000E+00
    0.25004E-01        -0.26817E-01         0.00000E+00
    0.25004E-01        -0.17878E-01         0.00000E+00
    0.25004E-01        -0.89389E-02         0.00000E+00
    0.25004E-01         0.00000E+00         0.00000E+00
    0.31207E-01        -0.44694E-01         0.00000E+00
    0.31207E-01        -0.35755E-01         0.00000E+00
    0.31207E-01        -0.26817E-01         0.00000E+00
    0.31207E-01        -0.17878E-01         0.00000E+00
    0.31207E-01        -0.89389E-02         0.00000E+00
    0.31207E-01         0.00000E+00         0.00000E+00
    0.37377E-01        -0.44694E-01         0.00000E+00
    0.37377E-01        -0.35755E-01         0.00000E+00
    0.37377E-01        -0.26817E-01         0.00000E+00
    0.37377E-01        -0.17878E-01         0.00000E+00
    0.37377E-01        -0.89389E-02         0.00000E+00
    0.37377E-01         0.00000E+00         0.00000E+00
    0.43508E-01        -0.44694E-01         0.00000E+00
    0.43508E-01        -0.35755E-01         0.00000E+00
    0.43508E-01        -0.26817E-01         0.00000E+00
    0.43508E-01        -0.17878E-01         0.00000E+00
    0.43508E-01        -0.89389E-02         0.00000E+00
    0.43508E-01         0.00000E+00         0.00000E+00
    0.49595E-01        -0.44694E-01         0.00000E+00
    0.49595E-01        -0.35755E-01         0.00000E+00
    0.49595E-01        -0.26817E-01         0.00000E+00
    0.49595E-01        -0.17878E-01         0.00000E+00
    0.49595E-01        -0.89389E-02         0.00000E+00
    0.49595E-01         0.00000E+00         0.00000E+00
    0.55631E-01        -0.44694E-01         0.00000E+00
    0.55631E-01        -0.35755E-01         0.00000E+00
    0.55631E-01        -0.26817E-01         0.00000E+00
    0.55631E-01        -0.17878E-01         0.00000E+00
    0.55631E-01        -0.89389E-02         0.00000E+00
    0.55631E-01         0.00000E+00         0.00000E+00
    0.61609E-01        -0.44694E-01         0.00000E+00
    0.61609E-01        -0.35755E-01         0.00000E+00
    0.61609E-01        -0.26817E-01         0.00000E+00
    0.61609E-01        -0.17878E-01         0.00000E+00
    0.61609E-01        -0.89389E-02         0.00000E+00
    0.61609E-01         0.00000E+00         0.00000E+00
    0.67524E-01        -0.44694E-01         0.00000E+00
    0.67524E-01        -0.35755E-01         0.00000E+00
    0.67524E-01        -0.26817E-01         0.00000E+00
    0.67524E-01        -0.17878E-01         0.00000E+00
    0.67524E-01        -0.89389E-02         0.00000E+00
    0.67524E-01         0.00000E+00         0.00000E+00
    0.73371E-01        -0.44694E-01         0.00000E+00
    0.73371E-01        -0.35755E-01         0.00000E+00
    0.73371E-01        -0.26817E-01         0.00000E+00
    0.73371E-01        -0.17878E-01         0.00000E+00
    0.73371E-01        -0.89389E-02         0.00000E+00
    0.73371E-01         0.00000E+00         0.00000E+00
    0.79142E-01        -0.44694E-01         0.00000E+00
    0.79142E-01        -0.35755E-01         0.00000E+00
    0.79142E-01        -0.26817E-01         0.00000E+00
    0.79142E-01        -0.17878E-01         0.00000E+00
    0.79142E-01        -0.89389E-02         0.00000E+00
    0.79142E-01         0.00000E+00         0.00000E+00
    0.84834E-01        -0.44694E-01         0.00000E+00
    0.84834E-01        -0.35755E-01         0.00000E+00
    0.84834E-01        -0.26817E-01         0.00000E+00
    0.84834E-01        -0.17878E-01         0.00000E+00
    0.84834E-01        -0.89389E-02         0.00000E+00
    0.84834E-01         0.00000E+00         0.00000E+00
    0.90439E-01        -0.44694E-01         0.00000E+00
    0.90439E-01        -0.35755E-01         0.00000E+00
    0.90439E-01        -0.26817E-01         0.00000E+00
    0.90439E-01        -0.17878E-01         0.00000E+00
    0.90439E-01        -0.89389E-02         0.00000E+00
    0.90439E-01         0.00000E+00         0.00000E+00
    0.95954E-01        -0.44694E-01         0.00000E+00
    0.95954E-01        -0.35755E-01         0.00000E+00
    0.95954E-01        -0.26817E-01         0.00000E+00
    0.95954E-01        -0.17878E-01         0.00000E+00
    0.95954E-01        -0.89389E-02         0.00000E+00
    0.95954E-01         0.00000E+00         0.00000E+00
    0.10137E+00        -0.44694E-01         0.00000E+00
    0.10137E+00        -0.35755E-01         0.00000E+00
    0.10137E+00        -0.26817E-01         0.00000E+00
    0.10137E+00        -0.17878E-01         0.00000E+00
    0.10137E+00        -0.89389E-02         0.00000E+00
    0.10137E+00         0.00000E+00         0.00000E+00
    0.10669E+00        -0.44694E-01         0.00000E+00
    0.10669E+00        -0.35755E-01         0.00000E+00
    0.10669E+00        -0.26817E-01         0.00000E+00
    0.10669E+00        -0.17878E-01         0.00000E+00
    0.10669E+00        -0.89389E-02         0.00000E+00
    0.10669E+00         0.00000E+00         0.00000E+00
    0.11190E+00        -0.44694E-01         0.00000E+00
    0.11190E+00        -0.35755E-01         0.00000E+00
    0.11190E+00        -0.26817E-01         0.00000E+00
    0.11190E+00        -0.17878E-01         0.00000E+00
    0.11190E+00        -0.89389E-02         0.00000E+00
    0.11190E+00         0.00000E+00         0.00000E+00
    0.11700E+00        -0.44694E-01         0.00000E+00
    0.11700E+00        -0.35755E-01         0.00000E+00
    0.11700E+00        -0.26817E-01         0.00000E+00
    0.11700E+00        -0.17878E-01         0.00000E+00
    0.11700E+00        -0.89389E-02         0.00000E+00
    0.11700E+00         0.00000E+00         0.00000E+00
    0.12199E+00        -0.44694E-01         0.00000E+00
    0.12199E+00        -0.35755E-01         0.00000E+00
    0.12199E+00        -0.26817E-01         0.00000E+00
    0.12199E+00        -0.17878E-01         0.00000E+00
    0.12199E+00        -0.89389E-02         0.00000E+00
    0.12199E+00         0.00000E+00         0.00000E+00
    0.12686E+00        -0.44694E-01         0.00000E+00
    0.12686E+00        -0.35755E-01         0.00000E+00
    0.12686E+00        -0.26817E-01         0.00000E+00
    0.12686E+00        -0.17878E-01         0.00000E+00
    0.12686E+00        -0.89389E-02         0.00000E+00
    0.12686E+00         0.00000E+00         0.00000E+00
    0.13160E+00        -0.44694E-01         0.00000E+00
    0.13160E+00        -0.35755E-01         0.00000E+00
    0.13160E+00        -0.26817E-01         0.00000E+00
    0.13160E+00        -0.17878E-01         0.00000E+00
    0.13160E+00        -0.89389E-02         0.00000E+00
    0.13160E+00         0.00000E+00         0.00000E+00
    0.13622E+00        -0.44694E-01         0.00000E+00
    0.13622E+00        -0.35755E-01         0.00000E+00
    0.13622E+00        -0.26817E-01         0.00000E+00
    0.13622E+00        -0.17878E-01         0.00000E+00
    0.13622E+00        -0.89389E-02         0.00000E+00
    0.13622E+00         0.00000E+00         0.00000E+00
    0.14071E+00        -0.44694E-01         0.00000E+00
    0.14071E+00        -0.35755E-01         0.00000E+00
    0.14071E+00        -0.26817E-01         0.00000E+00
    0.14071E+00        -0.17878E-01         0.00000E+00
    0.14071E+00        -0.89389E-02         0.00000E+00
    0.14071E+00         0.00000E+00         0.00000E+00
    0.14507E+00        -0.44694E-01         0.00000E+00
    0.14507E+00        -0.35755E-01         0.00000E+00
    0.14507E+00        -0.26817E-01         0.00000E+00
    0.14507E+00        -0.17878E-01         0.00000E+00
    0.14507E+00        -0.89389E-02         0.00000E+00
    0.14507E+00         0.00000E+00         0.00000E+00
    0.14929E+00        -0.44694E-01         0.00000E+00
    0.14929E+00        -0.35755E-01         0.00000E+00
    0.14929E+00        -0.26817E-01         0.00000E+00
    0.14929E+00        -0.17878E-01         0.00000E+00
    0.14929E+00        -0.89389E-02         0.00000E+00
    0.14929E+00         0.00000E+00         0.00000E+00
    0.15337E+00        -0.44694E-01         0.00000E+00
    0.15337E+00        -0.35755E-01         0.00000E+00
    0.15337E+00        -0.26817E-01         0.00000E+00
    0.15337E+00        -0.17878E-01         0.00000E+00
    0.15337E+00        -0.89389E-02         0.00000E+00
    0.15337E+00         0.00000E+00         0.00000E+00
    0.15731E+00        -0.44694E-01         0.00000E+00
    0.15731E+00        -0.35755E-01         0.00000E+00
    0.15731E+00        -0.26817E-01         0.00000E+00
    0.15731E+00        -0.17878E-01         0.00000E+00
    0.15731E+00        -0.89389E-02         0.00000E+00
    0.15731E+00         0.00000E+00         0.00000E+00
    0.16110E+00        -0.44694E-01         0.00000E+00
    0.16110E+00        -0.35755E-01         0.00000E+00
    0.16110E+00        -0.26817E-01         0.00000E+00
    0.16110E+00        -0.17878E-01         0.00000E+00
    0.16110E+00        -0.89389E-02         0.00000E+00
    0.16110E+00         0.00000E+00         0.00000E+00
CELL_DATA        150
VECTORS vDarcy double 
    0.32548E-08         0.45475E-21         0.00000E+00
    0.32548E-08        -0.50022E-21         0.00000E+00
    0.32548E-08         0.90949E-22         0.00000E+00
    0.32548E-08        -0.12733E-20         0.00000E+00
    0.32548E-08        -0.27285E-21         0.00000E+00
    0.97584E-08        -0.54570E-21         0.00000E+00
    0.97584E-08         0.10004E-20         0.00000E+00
    0.97584E-08        -0.45475E-21         0.00000E+00
    0.97584E-08        -0.10914E-20         0.00000E+00
    0.97584E-08        -0.45475E-21         0.00000E+00
    0.16244E-07        -0.72760E-21         0.00000E+00
    0.16244E-07         0.45475E-21         0.00000E+00
    0.16244E-07         0.13642E-21         0.00000E+00
    0.16244E-07         0.00000E+00         0.00000E+00
    0.16244E-07        -0.36380E-21         0.00000E+00
    0.22700E-07        -0.90949E-22         0.00000E+00
    0.22700E-07        -0.45475E-22         0.00000E+00
    0.22700E-07         0.54570E-21         0.00000E+00
    0.22700E-07        -0.72760E-21         0.00000E+00
    0.22700E-07         0.00000E+00         0.00000E+00
    0.29114E-07         0.54570E-21         0.00000E+00
    0.29114E-07         0.27285E-21         0.00000E+00
    0.29114E-07         0.90949E-21         0.00000E+00
    0.29114E-07        -0.86402E-21         0.00000E+00
    0.29114E-07         0.90949E-22         0.00000E+00
    0.35474E-07         0.90949E-21         0.00000E+00
    0.35474E-07         0.36380E-21         0.00000E+00
    0.35474E-07        -0.63665E-21         0.00000E+00
    0.35474E-07         0.45475E-22         0.00000E+00
    0.35474E-07         0.40927E-21         0.00000E+00
    0.41769E-07         0.00000E+00         0.00000E+00
    0.41769E-07        -0.90949E-22         0.00000E+00
    0.41769E-07        -0.27285E-21         0.00000E+00
    0.41769E-07        -0.72760E-21         0.00000E+00
    0.41769E-07         0.18190E-21         0.00000E+00
    0.47987E-07        -0.45475E-21         0.00000E+00
    0.47987E-07        -0.90949E-21         0.00000E+00
    0.47987E-07         0.45475E-21         0.00000E+00
    0.47987E-07        -0.72760E-21         0.00000E+00
    0.47987E-07        -0.27285E-21         0.00000E+00
    0.54117E-07        -0.10459E-20         0.00000E+00
    0.54117E-07        -0.54570E-21         0.00000E+00
    0.54117E-07         0.18190E-21         0.00000E+00
    0.54117E-07        -0.54570E-21         0.00000E+00
    0.54117E-07        -0.59117E-21         0.00000E+00
    0.60146E-07        -0.43201E-21         0.00000E+00
    0.60146E-07        -0.12960E-20         0.00000E+00
    0.60146E-07         0.11141E-20         0.00000E+00
    0.60146E-07        -0.70486E-21         0.00000E+00
    0.60146E-07        -0.61391E-21         0.00000E+00
    0.66065E-07         0.63665E-21         0.00000E+00
    0.66065E-07        -0.11823E-20         0.00000E+00
    0.66065E-07         0.72760E-21         0.00000E+00
    0.66065E-07        -0.36380E-21         0.00000E+00
    0.66065E-07        -0.68212E-21         0.00000E+00
    0.71861E-07        -0.90949E-22         0.00000E+00
    0.71861E-07        -0.77307E-21         0.00000E+00
    0.71861E-07         0.00000E+00         0.00000E+00
    0.71861E-07         0.00000E+00         0.00000E+00
    0.71861E-07         0.22737E-21         0.00000E+00
    0.77524E-07        -0.25011E-21         0.00000E+00
    0.77524E-07        -0.18190E-21         0.00000E+00
    0.77524E-07        -0.45475E-21         0.00000E+00
    0.77524E-07         0.00000E+00         0.00000E+00
    0.77524E-07         0.77307E-21         0.00000E+00
    0.83044E-07         0.18190E-21         0.00000E+00
    0.83044E-07        -0.22737E-21         0.00000E+00
    0.83044E-07        -0.45475E-22         0.00000E+00
    0.83044E-07         0.00000E+00         0.00000E+00
    0.83044E-07         0.45475E-21         0.00000E+00
    0.88410E-07         0.40927E-21         0.00000E+00
    0.88410E-07         0.31832E-21         0.00000E+00
    0.88410E-07         0.47748E-21         0.00000E+00
    0.88410E-07         0.40927E-21         0.00000E+00
    0.88410E-07        -0.18190E-21         0.00000E+00
    0.93611E-07         0.18190E-21         0.00000E+00
    0.93611E-07         0.77307E-21         0.00000E+00
    0.93611E-07         0.18190E-21         0.00000E+00
    0.93611E-07         0.54570E-21         0.00000E+00
    0.93611E-07         0.45475E-22         0.00000E+00
    0.98639E-07        -0.45475E-22         0.00000E+00
    0.98639E-07         0.15916E-21         0.00000E+00
    0.98639E-07         0.47748E-21         0.00000E+00
    0.98639E-07         0.22737E-21         0.00000E+00
    0.98639E-07         0.45475E-22         0.00000E+00
    0.10348E-06        -0.29559E-21         0.00000E+00
    0.10348E-06         0.63665E-21         0.00000E+00
    0.10348E-06         0.18190E-21         0.00000E+00
    0.10348E-06         0.40927E-21         0.00000E+00
    0.10348E-06        -0.18190E-21         0.00000E+00
    0.10813E-06        -0.31832E-21         0.00000E+00
    0.10813E-06         0.50022E-21         0.00000E+00
    0.10813E-06         0.22737E-21         0.00000E+00
    0.10813E-06         0.18190E-21         0.00000E+00
    0.10813E-06         0.90949E-22         0.00000E+00
    0.11258E-06        -0.18190E-21         0.00000E+00
    0.11258E-06        -0.90949E-22         0.00000E+00
    0.11258E-06         0.59117E-21         0.00000E+00
    0.11258E-06         0.22737E-21         0.00000E+00
    0.11258E-06         0.27285E-21         0.00000E+00
    0.11682E-06        -0.22737E-21         0.00000E+00
    0.11682E-06        -0.45475E-22         0.00000E+00
    0.11682E-06         0.29559E-21         0.00000E+00
    0.11682E-06        -0.29559E-21         0.00000E+00
    0.11682E-06        -0.90949E-22         0.00000E+00
    0.12084E-06         0.68212E-22         0.00000E+00
    0.12084E-06        -0.45475E-22         0.00000E+00
    0.12084E-06        -0.20464E-21         0.00000E+00
    0.12084E-06        -0.69349E-21         0.00000E+00
    0.12084E-06         0.00000E+00         0.00000E+00
    0.12464E-06         0.00000E+00         0.00000E+00
    0.12464E-06        -0.18190E-21         0.00000E+00
    0.12464E-06         0.00000E+00         0.00000E+00
    0.12464E-06        -0.68212E-21         0.00000E+00
    0.12464E-06         0.34106E-21         0.00000E+00
    0.12820E-06        -0.13642E-21         0.00000E+00
    0.12820E-06        -0.34106E-21         0.00000E+00
    0.12820E-06        -0.22737E-21         0.00000E+00
    0.12820E-06        -0.68212E-22         0.00000E+00
    0.12820E-06         0.15916E-21         0.00000E+00
    0.13151E-06         0.32969E-21         0.00000E+00
    0.13151E-06        -0.36380E-21         0.00000E+00
    0.13151E-06        -0.22737E-21         0.00000E+00
    0.13151E-06        -0.12506E-21         0.00000E+00
    0.13151E-06        -0.90949E-22         0.00000E+00
    0.13459E-06         0.35243E-21         0.00000E+00
    0.13459E-06         0.11369E-21         0.00000E+00
    0.13459E-06        -0.79581E-22         0.00000E+00
    0.13459E-06        -0.34106E-21         0.00000E+00
    0.13459E-06        -0.22737E-22         0.00000E+00
    0.13740E-06        -0.11937E-21         0.00000E+00
    0.13740E-06         0.20464E-21         0.00000E+00
    0.13740E-06         0.00000E+00         0.00000E+00
    0.13740E-06        -0.28422E-21         0.00000E+00
    0.13740E-06         0.51159E-22         0.00000E+00
    0.13996E-06        -0.62528E-22         0.00000E+00
    0.13996E-06         0.39790E-22         0.00000E+00
    0.13996E-06        -0.51159E-22         0.00000E+00
    0.13996E-06        -0.34106E-22         0.00000E+00
    0.13996E-06         0.11369E-21         0.00000E+00
    0.14226E-06         0.28422E-23         0.00000E+00
    0.14226E-06         0.88107E-22         0.00000E+00
    0.14226E-06        -0.17337E-21         0.00000E+00
    0.14226E-06         0.10516E-21         0.00000E+00
    0.14226E-06        -0.28422E-23         0.00000E+00
    0.14428E-06         0.54712E-21         0.00000E+00
    0.14428E-06        -0.51585E-21         0.00000E+00
    0.14428E-06         0.53291E-21         0.00000E+00
    0.14428E-06        -0.57554E-21         0.00000E+00
    0.14428E-06        -0.25580E-22         0.00000E+00
POINT_DATA        186
VECTORS vDarcyNodal double 
    0.32548E-08        -0.72760E-21         0.00000E+00
    0.32548E-08        -0.72760E-21         0.00000E+00
    0.32548E-08         0.00000E+00         0.00000E+00
    0.32548E-08         0.00000E+00         0.00000E+00
    0.32548E-08        -0.72760E-21         0.00000E+00
    0.32548E-08        -0.72760E-21         0.00000E+00
    0.65066E-08         0.14552E-20         0.00000E+00
    0.65066E-08         0.68622E-21         0.00000E+00
    0.65066E-08        -0.36380E-21         0.00000E+00
    0.65066E-08        -0.10500E-20         0.00000E+00
    0.65066E-08        -0.36380E-21         0.00000E+00
    0.65066E-08         0.72760E-21         0.00000E+00
    0.13001E-07        -0.21828E-20         0.00000E+00
    0.13001E-07        -0.63026E-21         0.00000E+00
    0.13001E-07         0.72760E-21         0.00000E+00
    0.13001E-07         0.26646E-21         0.00000E+00
    0.13001E-07        -0.36380E-21         0.00000E+00
    0.13001E-07        -0.72760E-21         0.00000E+00
    0.19472E-07         0.72760E-21         0.00000E+00
    0.19472E-07         0.36380E-21         0.00000E+00
    0.19472E-07         0.00000E+00         0.00000E+00
    0.19472E-07         0.00000E+00         0.00000E+00
    0.19472E-07         0.00000E+00         0.00000E+00
    0.19472E-07         0.00000E+00         0.00000E+00
    0.25907E-07        -0.72760E-21         0.00000E+00
    0.25907E-07        -0.36252E-21         0.00000E+00
    0.25907E-07         0.90949E-21         0.00000E+00
    0.25907E-07        -0.18317E-21         0.00000E+00
    0.25907E-07        -0.72760E-21         0.00000E+00
    0.25907E-07         0.00000E+00         0.00000E+00
    0.32294E-07         0.14552E-20         0.00000E+00
    0.32294E-07         0.10914E-20         0.00000E+00
    0.32294E-07         0.36380E-21         0.00000E+00
    0.32294E-07        -0.13202E-22         0.00000E+00
    0.32294E-07        -0.18190E-21         0.00000E+00
    0.32294E-07         0.39020E-21         0.00000E+00
    0.38622E-07         0.00000E+00         0.00000E+00
    0.38622E-07         0.36380E-21         0.00000E+00
    0.38622E-07        -0.36380E-21         0.00000E+00
    0.38622E-07        -0.72760E-21         0.00000E+00
    0.38622E-07         0.36380E-21         0.00000E+00
    0.38622E-07         0.72760E-21         0.00000E+00
    0.44878E-07         0.00000E+00         0.00000E+00
    0.44878E-07        -0.36380E-21         0.00000E+00
    0.44878E-07         0.00000E+00         0.00000E+00
    0.44878E-07        -0.36380E-21         0.00000E+00
    0.44878E-07        -0.72760E-21         0.00000E+00
    0.44878E-07         0.00000E+00         0.00000E+00
    0.51052E-07        -0.72760E-21         0.00000E+00
    0.51052E-07        -0.80469E-21         0.00000E+00
    0.51052E-07        -0.36380E-21         0.00000E+00
    0.51052E-07         0.77094E-22         0.00000E+00
    0.51052E-07        -0.36380E-21         0.00000E+00
    0.51052E-07        -0.72760E-21         0.00000E+00
    0.57131E-07        -0.12476E-20         0.00000E+00
    0.57131E-07        -0.10914E-20         0.00000E+00
    0.57131E-07         0.00000E+00         0.00000E+00
    0.57131E-07        -0.14106E-36         0.00000E+00
    0.57131E-07        -0.83140E-21         0.00000E+00
    0.57131E-07        -0.72760E-21         0.00000E+00
    0.63106E-07         0.72760E-21         0.00000E+00
    0.63106E-07        -0.36380E-21         0.00000E+00
    0.63106E-07         0.00000E+00         0.00000E+00
    0.63106E-07         0.27941E-21         0.00000E+00
    0.63106E-07        -0.72760E-21         0.00000E+00
    0.63106E-07        -0.55882E-21         0.00000E+00
    0.68963E-07         0.72760E-21         0.00000E+00
    0.68963E-07         0.00000E+00         0.00000E+00
    0.68963E-07        -0.36380E-21         0.00000E+00
    0.68963E-07         0.00000E+00         0.00000E+00
    0.68963E-07        -0.36380E-21         0.00000E+00
    0.68963E-07        -0.72760E-21         0.00000E+00
    0.74693E-07        -0.72760E-21         0.00000E+00
    0.74693E-07        -0.72760E-21         0.00000E+00
    0.74693E-07        -0.36380E-21         0.00000E+00
    0.74693E-07         0.00000E+00         0.00000E+00
    0.74693E-07         0.36380E-21         0.00000E+00
    0.74693E-07         0.72760E-21         0.00000E+00
    0.80284E-07         0.21785E-21         0.00000E+00
    0.80284E-07         0.10893E-21         0.00000E+00
    0.80284E-07        -0.36380E-21         0.00000E+00
    0.80284E-07        -0.36380E-21         0.00000E+00
    0.80284E-07         0.61867E-21         0.00000E+00
    0.80284E-07         0.12373E-20         0.00000E+00
    0.85727E-07        -0.36380E-21         0.00000E+00
    0.85727E-07        -0.36380E-21         0.00000E+00
    0.85727E-07         0.36380E-21         0.00000E+00
    0.85727E-07         0.54570E-21         0.00000E+00
    0.85727E-07        -0.18190E-21         0.00000E+00
    0.85727E-07        -0.36380E-21         0.00000E+00
    0.91011E-07         0.54119E-21         0.00000E+00
    0.91011E-07         0.90949E-21         0.00000E+00
    0.91011E-07         0.36380E-21         0.00000E+00
    0.91011E-07         0.36380E-21         0.00000E+00
    0.91011E-07         0.63890E-21         0.00000E+00
    0.91011E-07         0.00000E+00         0.00000E+00
    0.96125E-07         0.00000E+00         0.00000E+00
    0.96125E-07         0.96544E-22         0.00000E+00
    0.96125E-07         0.54570E-21         0.00000E+00
    0.96125E-07         0.44915E-21         0.00000E+00
    0.96125E-07         0.18190E-21         0.00000E+00
    0.96125E-07         0.36380E-21         0.00000E+00
    0.10106E-06        -0.36380E-21         0.00000E+00
    0.10106E-06         0.00000E+00         0.00000E+00
    0.10106E-06         0.36380E-21         0.00000E+00
    0.10106E-06         0.36380E-21         0.00000E+00
    0.10106E-06         0.36380E-21         0.00000E+00
    0.10106E-06         0.36380E-21         0.00000E+00
    0.10581E-06        -0.54478E-21         0.00000E+00
    0.10581E-06         0.36380E-21         0.00000E+00
    0.10581E-06         0.54570E-21         0.00000E+00
    0.10581E-06         0.27285E-21         0.00000E+00
    0.10581E-06         0.36334E-21         0.00000E+00
    0.10581E-06        -0.36380E-21         0.00000E+00
    0.11036E-06        -0.36380E-21         0.00000E+00
    0.11036E-06        -0.10045E-21         0.00000E+00
    0.11036E-06         0.44524E-21         0.00000E+00
    0.11036E-06        -0.81446E-22         0.00000E+00
    0.11036E-06         0.28235E-21         0.00000E+00
    0.11036E-06         0.72760E-21         0.00000E+00
    0.11470E-06         0.00000E+00         0.00000E+00
    0.11470E-06        -0.36380E-21         0.00000E+00
    0.11470E-06         0.00000E+00         0.00000E+00
    0.11470E-06         0.59202E-21         0.00000E+00
    0.11470E-06        -0.18190E-21         0.00000E+00
    0.11470E-06        -0.92648E-22         0.00000E+00
    0.11883E-06        -0.36380E-21         0.00000E+00
    0.11883E-06         0.00000E+00         0.00000E+00
    0.11883E-06         0.25928E-21         0.00000E+00
    0.11883E-06        -0.36380E-21         0.00000E+00
    0.11883E-06        -0.44118E-21         0.00000E+00
    0.11883E-06         0.00000E+00         0.00000E+00
    0.12274E-06         0.72760E-21         0.00000E+00
    0.12274E-06         0.18190E-21         0.00000E+00
    0.12274E-06        -0.18190E-21         0.00000E+00
    0.12274E-06        -0.54570E-21         0.00000E+00
    0.12274E-06        -0.54570E-21         0.00000E+00
    0.12274E-06         0.00000E+00         0.00000E+00
    0.12642E-06        -0.72760E-21         0.00000E+00
    0.12642E-06        -0.36380E-21         0.00000E+00
    0.12642E-06         0.00000E+00         0.00000E+00
    0.12642E-06        -0.18190E-21         0.00000E+00
    0.12642E-06         0.90949E-22         0.00000E+00
    0.12642E-06         0.54570E-21         0.00000E+00
    0.12985E-06         0.36380E-21         0.00000E+00
    0.12985E-06        -0.90949E-22         0.00000E+00
    0.12985E-06        -0.54570E-21         0.00000E+00
    0.12985E-06        -0.18190E-21         0.00000E+00
    0.12985E-06        -0.90949E-22         0.00000E+00
    0.12985E-06        -0.36380E-21         0.00000E+00
    0.13305E-06         0.73010E-21         0.00000E+00
    0.13305E-06         0.36505E-21         0.00000E+00
    0.13305E-06        -0.92203E-22         0.00000E+00
    0.13305E-06        -0.18190E-21         0.00000E+00
    0.13305E-06        -0.18190E-21         0.00000E+00
    0.13305E-06        -0.18441E-21         0.00000E+00
    0.13599E-06        -0.15100E-21         0.00000E+00
    0.13599E-06         0.15452E-22         0.00000E+00
    0.13599E-06         0.90949E-22         0.00000E+00
    0.13599E-06        -0.27285E-21         0.00000E+00
    0.13599E-06        -0.10640E-21         0.00000E+00
    0.13599E-06         0.33289E-21         0.00000E+00
    0.13868E-06        -0.29040E-21         0.00000E+00
    0.13868E-06        -0.54248E-22         0.00000E+00
    0.13868E-06         0.90949E-22         0.00000E+00
    0.13868E-06        -0.90949E-22         0.00000E+00
    0.13868E-06        -0.36701E-22         0.00000E+00
    0.13868E-06         0.10850E-21         0.00000E+00
    0.14111E-06         0.18190E-21         0.00000E+00
    0.14111E-06         0.45475E-22         0.00000E+00
    0.14111E-06        -0.90949E-22         0.00000E+00
    0.14111E-06         0.00000E+00         0.00000E+00
    0.14111E-06         0.90949E-22         0.00000E+00
    0.14111E-06         0.90949E-22         0.00000E+00
    0.14327E-06        -0.18190E-21         0.00000E+00
    0.14327E-06         0.45475E-22         0.00000E+00
    0.14327E-06         0.22737E-22         0.00000E+00
    0.14327E-06        -0.45475E-22         0.00000E+00
    0.14327E-06         0.45475E-22         0.00000E+00
    0.14327E-06        -0.45475E-22         0.00000E+00
    0.14428E-06         0.10252E-20         0.00000E+00
    0.14428E-06         0.18808E-36         0.00000E+00
    0.14428E-06         0.94040E-37         0.00000E+00
    0.14428E-06        -0.94040E-37         0.00000E+00
    0.14428E-06        -0.51259E-21         0.00000E+00
    0.14428E-06         0.00000E+00         0.00000E+00
CELL_DATA        150
TENSORS stressef double 
    0.84760E+05         0.90350E-11         0.00000E+00
    0.90350E-11        -0.44438E+06         0.00000E+00
    0.00000E+00         0.00000E+00        -0.71923E+05
 
    0.84760E+05         0.27105E-10         0.00000E+00
    0.27105E-10        -0.44438E+06         0.00000E+00
    0.00000E+00         0.00000E+00        -0.71923E+05
 
    0.84760E+05         0.22588E-11         0.00000E+00
    0.22588E-11        -0.44438E+06         0.00000E+00
    0.00000E+00         0.00000E+00        -0.71923E+05
 
    0.84760E+05         0.10164E-10         0.00000E+00
    0.10164E-10        -0.44438E+06         0.00000E+00
    0.00000E+00         0.00000E+00        -0.71923E+05
 
    0.84760E+05         0.13553E-10         0.00000E+00
    0.13553E-10        -0.44438E+06         0.00000E+00
    0.00000E+00         0.00000E+00        -0.71923E+05
 
    0.84543E+05         0.67763E-11         0.00000E+00
    0.67763E-11        -0.44443E+06         0.00000E+00
    0.00000E+00         0.00000E+00        -0.71977E+05
 
    0.84543E+05        -0.45175E-10         0.00000E+00
   -0.45175E-10        -0.44443E+06         0.00000E+00
    0.00000E+00         0.00000E+00        -0.71977E+05
 
    0.84543E+05        -0.18070E-10         0.00000E+00
   -0.18070E-10        -0.44443E+06         0.00000E+00
    0.00000E+00         0.00000E+00        -0.71977E+05
 
    0.84543E+05        -0.36140E-10         0.00000E+00
   -0.36140E-10        -0.44443E+06         0.00000E+00
    0.00000E+00         0.00000E+00        -0.71977E+05
 
    0.84543E+05        -0.33881E-11         0.00000E+00
   -0.33881E-11        -0.44443E+06         0.00000E+00
    0.00000E+00         0.00000E+00        -0.71977E+05
 
    0.84109E+05        -0.67763E-10         0.00000E+00
   -0.67763E-10        -0.44454E+06         0.00000E+00
    0.00000E+00         0.00000E+00        -0.72086E+05
 
    0.84109E+05         0.90350E-11         0.00000E+00
    0.90350E-11        -0.44454E+06         0.00000E+00
    0.00000E+00         0.00000E+00        -0.72086E+05
 
    0.84109E+05        -0.29364E-10         0.00000E+00
   -0.29364E-10        -0.44454E+06         0.00000E+00
    0.00000E+00         0.00000E+00        -0.72086E+05
 
    0.84109E+05         0.51951E-10         0.00000E+00
    0.51951E-10        -0.44454E+06         0.00000E+00
    0.00000E+00         0.00000E+00        -0.72086E+05
 
    0.84109E+05         0.45175E-11         0.00000E+00
    0.45175E-11        -0.44454E+06         0.00000E+00
    0.00000E+00         0.00000E+00        -0.72086E+05
 
    0.83460E+05         0.12197E-09         0.00000E+00
    0.12197E-09        -0.44470E+06         0.00000E+00
    0.00000E+00         0.00000E+00        -0.72248E+05
 
    0.83460E+05         0.22588E-10         0.00000E+00
    0.22588E-10        -0.44470E+06         0.00000E+00
    0.00000E+00         0.00000E+00        -0.72248E+05
 
    0.83460E+05        -0.83574E-10         0.00000E+00
   -0.83574E-10        -0.44470E+06         0.00000E+00
    0.00000E+00         0.00000E+00        -0.72248E+05
 
    0.83460E+05         0.18070E-10         0.00000E+00
    0.18070E-10        -0.44470E+06         0.00000E+00
    0.00000E+00         0.00000E+00        -0.72248E+05
 
    0.83460E+05        -0.45175E-11         0.00000E+00
   -0.45175E-11        -0.44470E+06         0.00000E+00
    0.00000E+00         0.00000E+00        -0.72248E+05
 
    0.82597E+05        -0.18070E-10         0.00000E+00
   -0.18070E-10        -0.44492E+06         0.00000E+00
    0.00000E+00         0.00000E+00        -0.72464E+05
 
    0.82597E+05         0.49693E-10         0.00000E+00
    0.49693E-10        -0.44492E+06         0.00000E+00
    0.00000E+00         0.00000E+00        -0.72464E+05
 
    0.82597E+05         0.38399E-10         0.00000E+00
    0.38399E-10        -0.44492E+06         0.00000E+00
    0.00000E+00         0.00000E+00        -0.72464E+05
 
    0.82597E+05         0.90350E-11         0.00000E+00
    0.90350E-11        -0.44492E+06         0.00000E+00
    0.00000E+00         0.00000E+00        -0.72464E+05
 
    0.82597E+05        -0.31623E-10         0.00000E+00
   -0.31623E-10        -0.44492E+06         0.00000E+00
    0.00000E+00         0.00000E+00        -0.72464E+05
 
    0.81520E+05        -0.49693E-10         0.00000E+00
   -0.49693E-10        -0.44519E+06         0.00000E+00
    0.00000E+00         0.00000E+00        -0.72733E+05
 
    0.81520E+05        -0.40658E-10         0.00000E+00
   -0.40658E-10        -0.44519E+06         0.00000E+00
    0.00000E+00         0.00000E+00        -0.72733E+05
 
    0.81520E+05         0.76798E-10         0.00000E+00
    0.76798E-10        -0.44519E+06         0.00000E+00
    0.00000E+00         0.00000E+00        -0.72733E+05
 
    0.81520E+05        -0.13553E-10         0.00000E+00
   -0.13553E-10        -0.44519E+06         0.00000E+00
    0.00000E+00         0.00000E+00        -0.72733E+05
 
    0.81520E+05        -0.22588E-10         0.00000E+00
   -0.22588E-10        -0.44519E+06         0.00000E+00
    0.00000E+00         0.00000E+00        -0.72733E+05
 
    0.80233E+05        -0.22588E-10         0.00000E+00
   -0.22588E-10        -0.44551E+06         0.00000E+00
    0.00000E+00         0.00000E+00        -0.73055E+05
 
    0.80233E+05         0.36140E-10         0.00000E+00
    0.36140E-10        -0.44551E+06         0.00000E+00
    0.00000E+00         0.00000E+00        -0.73055E+05
 
    0.80233E+05         0.45175E-10         0.00000E+00
    0.45175E-10        -0.44551E+06         0.00000E+00
    0.00000E+00         0.00000E+00        -0.73055E+05
 
    0.80233E+05         0.90350E-11         0.00000E+00
    0.90350E-11        -0.44551E+06         0.00000E+00
    0.00000E+00         0.00000E+00        -0.73055E+05
 
    0.80233E+05        -0.85833E-10         0.00000E+00
   -0.85833E-10        -0.44551E+06         0.00000E+00
    0.00000E+00         0.00000E+00        -0.73055E+05
 
    0.78737E+05         0.45175E-11         0.00000E+00
    0.45175E-11        -0.44588E+06         0.00000E+00
    0.00000E+00         0.00000E+00        -0.73429E+05
 
    0.78737E+05         0.99385E-10         0.00000E+00
    0.99385E-10        -0.44588E+06         0.00000E+00
    0.00000E+00         0.00000E+00        -0.73429E+05
 
    0.78737E+05         0.18070E-10         0.00000E+00
    0.18070E-10        -0.44588E+06         0.00000E+00
    0.00000E+00         0.00000E+00        -0.73429E+05
 
    0.78737E+05         0.18070E-10         0.00000E+00
    0.18070E-10        -0.44588E+06         0.00000E+00
    0.00000E+00         0.00000E+00        -0.73429E+05
 
    0.78737E+05         0.90350E-11         0.00000E+00
    0.90350E-11        -0.44588E+06         0.00000E+00
    0.00000E+00         0.00000E+00        -0.73429E+05
 
    0.77035E+05        -0.54210E-10         0.00000E+00
   -0.54210E-10        -0.44631E+06         0.00000E+00
    0.00000E+00         0.00000E+00        -0.73854E+05
 
    0.77035E+05         0.18070E-10         0.00000E+00
    0.18070E-10        -0.44631E+06         0.00000E+00
    0.00000E+00         0.00000E+00        -0.73854E+05
 
    0.77035E+05        -0.15360E-09         0.00000E+00
   -0.15360E-09        -0.44631E+06         0.00000E+00
    0.00000E+00         0.00000E+00        -0.73854E+05
 
    0.77035E+05         0.90350E-11         0.00000E+00
    0.90350E-11        -0.44631E+06         0.00000E+00
    0.00000E+00         0.00000E+00        -0.73854E+05
 
    0.77035E+05         0.76798E-10         0.00000E+00
    0.76798E-10        -0.44631E+06         0.00000E+00
    0.00000E+00         0.00000E+00        -0.73854E+05
 
    0.75131E+05         0.49693E-10         0.00000E+00
    0.49693E-10        -0.44678E+06         0.00000E+00
    0.00000E+00         0.00000E+00        -0.74330E+05
 
    0.75131E+05        -0.18070E-10         0.00000E+00
   -0.18070E-10        -0.44678E+06         0.00000E+00
    0.00000E+00         0.00000E+00        -0.74330E+05
 
    0.75131E+05        -0.63245E-10         0.00000E+00
   -0.63245E-10        -0.44678E+06         0.00000E+00
    0.00000E+00         0.00000E+00        -0.74330E+05
 
    0.75131E+05         0.17167E-09         0.00000E+00
    0.17167E-09        -0.44678E+06         0.00000E+00
    0.00000E+00         0.00000E+00        -0.74330E+05
 
    0.75131E+05        -0.45175E-10         0.00000E+00
   -0.45175E-10        -0.44678E+06         0.00000E+00
    0.00000E+00         0.00000E+00        -0.74330E+05
 
    0.73027E+05         0.11746E-09         0.00000E+00
    0.11746E-09        -0.44731E+06         0.00000E+00
    0.00000E+00         0.00000E+00        -0.74856E+05
 
    0.73027E+05        -0.22588E-09         0.00000E+00
   -0.22588E-09        -0.44731E+06         0.00000E+00
    0.00000E+00         0.00000E+00        -0.74856E+05
 
    0.73027E+05         0.63245E-10         0.00000E+00
    0.63245E-10        -0.44731E+06         0.00000E+00
    0.00000E+00         0.00000E+00        -0.74856E+05
 
    0.73027E+05        -0.63245E-10         0.00000E+00
   -0.63245E-10        -0.44731E+06         0.00000E+00
    0.00000E+00         0.00000E+00        -0.74856E+05
 
    0.73027E+05         0.36140E-10         0.00000E+00
    0.36140E-10        -0.44731E+06         0.00000E+00
    0.00000E+00         0.00000E+00        -0.74856E+05
 
    0.70729E+05         0.72280E-10         0.00000E+00
    0.72280E-10        -0.44788E+06         0.00000E+00
    0.00000E+00         0.00000E+00        -0.75431E+05
 
    0.70729E+05        -0.13553E-09         0.00000E+00
   -0.13553E-09        -0.44788E+06         0.00000E+00
    0.00000E+00         0.00000E+00        -0.75431E+05
 
    0.70729E+05        -0.36140E-10         0.00000E+00
   -0.36140E-10        -0.44788E+06         0.00000E+00
    0.00000E+00         0.00000E+00        -0.75431E+05
 
    0.70729E+05        -0.11746E-09         0.00000E+00
   -0.11746E-09        -0.44788E+06         0.00000E+00
    0.00000E+00         0.00000E+00        -0.75431E+05
 
    0.70729E+05         0.23491E-09         0.00000E+00
    0.23491E-09        -0.44788E+06         0.00000E+00
    0.00000E+00         0.00000E+00        -0.75431E+05
 
    0.68239E+05        -0.54210E-10         0.00000E+00
   -0.54210E-10        -0.44851E+06         0.00000E+00
    0.00000E+00         0.00000E+00        -0.76053E+05
 
    0.68239E+05         0.16263E-09         0.00000E+00
    0.16263E-09        -0.44851E+06         0.00000E+00
    0.00000E+00         0.00000E+00        -0.76053E+05
 
    0.68239E+05         0.45175E-10         0.00000E+00
    0.45175E-10        -0.44851E+06         0.00000E+00
    0.00000E+00         0.00000E+00        -0.76053E+05
 
    0.68239E+05        -0.21684E-09         0.00000E+00
   -0.21684E-09        -0.44851E+06         0.00000E+00
    0.00000E+00         0.00000E+00        -0.76053E+05
 
    0.68239E+05         0.18070E-09         0.00000E+00
    0.18070E-09        -0.44851E+06         0.00000E+00
    0.00000E+00         0.00000E+00        -0.76053E+05
 
    0.65563E+05        -0.18070E-10         0.00000E+00
   -0.18070E-10        -0.44917E+06         0.00000E+00
    0.00000E+00         0.00000E+00        -0.76722E+05
 
    0.65563E+05         0.00000E+00         0.00000E+00
    0.00000E+00        -0.44917E+06         0.00000E+00
    0.00000E+00         0.00000E+00        -0.76722E+05
 
    0.65563E+05         0.13553E-09         0.00000E+00
    0.13553E-09        -0.44917E+06         0.00000E+00
    0.00000E+00         0.00000E+00        -0.76722E+05
 
    0.65563E+05        -0.27105E-10         0.00000E+00
   -0.27105E-10        -0.44917E+06         0.00000E+00
    0.00000E+00         0.00000E+00        -0.76722E+05
 
    0.65563E+05         0.10842E-09         0.00000E+00
    0.10842E-09        -0.44917E+06         0.00000E+00
    0.00000E+00         0.00000E+00        -0.76722E+05
 
    0.62705E+05         0.23491E-09         0.00000E+00
    0.23491E-09        -0.44989E+06         0.00000E+00
    0.00000E+00         0.00000E+00        -0.77437E+05
 
    0.62705E+05        -0.14456E-09         0.00000E+00
   -0.14456E-09        -0.44989E+06         0.00000E+00
    0.00000E+00         0.00000E+00        -0.77437E+05
 
    0.62705E+05         0.16263E-09         0.00000E+00
    0.16263E-09        -0.44989E+06         0.00000E+00
    0.00000E+00         0.00000E+00        -0.77437E+05
 
    0.62705E+05        -0.26202E-09         0.00000E+00
   -0.26202E-09        -0.44989E+06         0.00000E+00
    0.00000E+00         0.00000E+00        -0.77437E+05
 
    0.62705E+05        -0.14456E-09         0.00000E+00
   -0.14456E-09        -0.44989E+06         0.00000E+00
    0.00000E+00         0.00000E+00        -0.77437E+05
 
    0.59671E+05         0.64623E-26         0.00000E+00
    0.64623E-26        -0.45065E+06         0.00000E+00
    0.00000E+00         0.00000E+00        -0.78195E+05
 
    0.59671E+05         0.23491E-09         0.00000E+00
    0.23491E-09        -0.45065E+06         0.00000E+00
    0.00000E+00         0.00000E+00        -0.78195E+05
 
    0.59671E+05        -0.27105E-09         0.00000E+00
   -0.27105E-09        -0.45065E+06         0.00000E+00
    0.00000E+00         0.00000E+00        -0.78195E+05
 
    0.59671E+05        -0.18070E-10         0.00000E+00
   -0.18070E-10        -0.45065E+06         0.00000E+00
    0.00000E+00         0.00000E+00        -0.78195E+05
 
    0.59671E+05        -0.36140E-10         0.00000E+00
   -0.36140E-10        -0.45065E+06         0.00000E+00
    0.00000E+00         0.00000E+00        -0.78195E+05
 
    0.56467E+05         0.19877E-09         0.00000E+00
    0.19877E-09        -0.45145E+06         0.00000E+00
    0.00000E+00         0.00000E+00        -0.78996E+05
 
    0.56467E+05         0.00000E+00         0.00000E+00
    0.00000E+00        -0.45145E+06         0.00000E+00
    0.00000E+00         0.00000E+00        -0.78996E+05
 
    0.56467E+05        -0.13553E-09         0.00000E+00
   -0.13553E-09        -0.45145E+06         0.00000E+00
    0.00000E+00         0.00000E+00        -0.78996E+05
 
    0.56467E+05        -0.16263E-09         0.00000E+00
   -0.16263E-09        -0.45145E+06         0.00000E+00
    0.00000E+00         0.00000E+00        -0.78996E+05
 
    0.56467E+05         0.18070E-10         0.00000E+00
    0.18070E-10        -0.45145E+06         0.00000E+00
    0.00000E+00         0.00000E+00        -0.78996E+05
 
    0.53099E+05         0.10842E-09         0.00000E+00
    0.10842E-09        -0.45229E+06         0.00000E+00
    0.00000E+00         0.00000E+00        -0.79838E+05
 
    0.53099E+05        -0.18070E-09         0.00000E+00
   -0.18070E-09        -0.45229E+06         0.00000E+00
    0.00000E+00         0.00000E+00        -0.79838E+05
 
    0.53099E+05        -0.14456E-09         0.00000E+00
   -0.14456E-09        -0.45229E+06         0.00000E+00
    0.00000E+00         0.00000E+00        -0.79838E+05
 
    0.53099E+05        -0.81315E-10         0.00000E+00
   -0.81315E-10        -0.45229E+06         0.00000E+00
    0.00000E+00         0.00000E+00        -0.79838E+05
 
    0.53099E+05        -0.16263E-09         0.00000E+00
   -0.16263E-09        -0.45229E+06         0.00000E+00
    0.00000E+00         0.00000E+00        -0.79838E+05
 
    0.49572E+05        -0.54210E-10         0.00000E+00
   -0.54210E-10        -0.45317E+06         0.00000E+00
    0.00000E+00         0.00000E+00        -0.80720E+05
 
    0.49572E+05         0.12649E-09         0.00000E+00
    0.12649E-09        -0.45317E+06         0.00000E+00
    0.00000E+00         0.00000E+00        -0.80720E+05
 
    0.49572E+05         0.45175E-10         0.00000E+00
    0.45175E-10        -0.45317E+06         0.00000E+00
    0.00000E+00         0.00000E+00        -0.80720E+05
 
    0.49572E+05         0.12649E-09         0.00000E+00
    0.12649E-09        -0.45317E+06         0.00000E+00
    0.00000E+00         0.00000E+00        -0.80720E+05
 
    0.49572E+05        -0.18070E-10         0.00000E+00
   -0.18070E-10        -0.45317E+06         0.00000E+00
    0.00000E+00         0.00000E+00        -0.80720E+05
 
    0.45893E+05        -0.18070E-10         0.00000E+00
   -0.18070E-10        -0.45409E+06         0.00000E+00
    0.00000E+00         0.00000E+00        -0.81640E+05
 
    0.45893E+05         0.18070E-10         0.00000E+00
    0.18070E-10        -0.45409E+06         0.00000E+00
    0.00000E+00         0.00000E+00        -0.81640E+05
 
    0.45893E+05         0.46982E-09         0.00000E+00
    0.46982E-09        -0.45409E+06         0.00000E+00
    0.00000E+00         0.00000E+00        -0.81640E+05
 
    0.45893E+05        -0.16263E-09         0.00000E+00
   -0.16263E-09        -0.45409E+06         0.00000E+00
    0.00000E+00         0.00000E+00        -0.81640E+05
 
    0.45893E+05         0.18070E-10         0.00000E+00
    0.18070E-10        -0.45409E+06         0.00000E+00
    0.00000E+00         0.00000E+00        -0.81640E+05
 
    0.42070E+05        -0.72280E-10         0.00000E+00
   -0.72280E-10        -0.45505E+06         0.00000E+00
    0.00000E+00         0.00000E+00        -0.82596E+05
 
    0.42070E+05        -0.18070E-09         0.00000E+00
   -0.18070E-09        -0.45505E+06         0.00000E+00
    0.00000E+00         0.00000E+00        -0.82596E+05
 
    0.42070E+05         0.81315E-10         0.00000E+00
    0.81315E-10        -0.45505E+06         0.00000E+00
    0.00000E+00         0.00000E+00        -0.82596E+05
 
    0.42070E+05        -0.25298E-09         0.00000E+00
   -0.25298E-09        -0.45505E+06         0.00000E+00
    0.00000E+00         0.00000E+00        -0.82596E+05
 
    0.42070E+05         0.10842E-09         0.00000E+00
    0.10842E-09        -0.45505E+06         0.00000E+00
    0.00000E+00         0.00000E+00        -0.82596E+05
 
    0.38109E+05        -0.18070E-10         0.00000E+00
   -0.18070E-10        -0.45604E+06         0.00000E+00
    0.00000E+00         0.00000E+00        -0.83586E+05
 
    0.38109E+05        -0.36140E-10         0.00000E+00
   -0.36140E-10        -0.45604E+06         0.00000E+00
    0.00000E+00         0.00000E+00        -0.83586E+05
 
    0.38109E+05        -0.54210E-10         0.00000E+00
   -0.54210E-10        -0.45604E+06         0.00000E+00
    0.00000E+00         0.00000E+00        -0.83586E+05
 
    0.38109E+05        -0.36140E-10         0.00000E+00
   -0.36140E-10        -0.45604E+06         0.00000E+00
    0.00000E+00         0.00000E+00        -0.83586E+05
 
    0.38109E+05         0.18070E-10         0.00000E+00
    0.18070E-10        -0.45604E+06         0.00000E+00
    0.00000E+00         0.00000E+00        -0.83586E+05
 
    0.34017E+05         0.36140E-10         0.00000E+00
    0.36140E-10        -0.45706E+06         0.00000E+00
    0.00000E+00         0.00000E+00        -0.84609E+05
 
    0.34017E+05         0.10842E-09         0.00000E+00
    0.10842E-09        -0.45706E+06         0.00000E+00
    0.00000E+00         0.00000E+00        -0.84609E+05
 
    0.34017E+05        -0.18070E-10         0.00000E+00
   -0.18070E-10        -0.45706E+06         0.00000E+00
    0.00000E+00         0.00000E+00        -0.84609E+05
 
    0.34017E+05        -0.72280E-10         0.00000E+00
   -0.72280E-10        -0.45706E+06         0.00000E+00
    0.00000E+00         0.00000E+00        -0.84609E+05
 
    0.34017E+05        -0.18070E-10         0.00000E+00
   -0.18070E-10        -0.45706E+06         0.00000E+00
    0.00000E+00         0.00000E+00        -0.84609E+05
 
    0.29803E+05         0.36140E-09         0.00000E+00
    0.36140E-09        -0.45811E+06         0.00000E+00
    0.00000E+00         0.00000E+00        -0.85662E+05
 
    0.29803E+05        -0.28912E-09         0.00000E+00
   -0.28912E-09        -0.45811E+06         0.00000E+00
    0.00000E+00         0.00000E+00        -0.85662E+05
 
    0.29803E+05         0.18070E-10         0.00000E+00
    0.18070E-10        -0.45811E+06         0.00000E+00
    0.00000E+00         0.00000E+00        -0.85662E+05
 
    0.29803E+05         0.14456E-09         0.00000E+00
    0.14456E-09        -0.45811E+06         0.00000E+00
    0.00000E+00         0.00000E+00        -0.85662E+05
 
    0.29803E+05         0.39754E-09         0.00000E+00
    0.39754E-09        -0.45811E+06         0.00000E+00
    0.00000E+00         0.00000E+00        -0.85662E+05
 
    0.25475E+05         0.18070E-09         0.00000E+00
    0.18070E-09        -0.45920E+06         0.00000E+00
    0.00000E+00         0.00000E+00        -0.86744E+05
 
    0.25475E+05        -0.90350E-10         0.00000E+00
   -0.90350E-10        -0.45920E+06         0.00000E+00
    0.00000E+00         0.00000E+00        -0.86744E+05
 
    0.25475E+05        -0.10842E-09         0.00000E+00
   -0.10842E-09        -0.45920E+06         0.00000E+00
    0.00000E+00         0.00000E+00        -0.86744E+05
 
    0.25475E+05         0.18070E-10         0.00000E+00
    0.18070E-10        -0.45920E+06         0.00000E+00
    0.00000E+00         0.00000E+00        -0.86744E+05
 
    0.25475E+05         0.37947E-09         0.00000E+00
    0.37947E-09        -0.45920E+06         0.00000E+00
    0.00000E+00         0.00000E+00        -0.86744E+05
 
    0.21040E+05         0.72280E-10         0.00000E+00
    0.72280E-10        -0.46031E+06         0.00000E+00
    0.00000E+00         0.00000E+00        -0.87853E+05
 
    0.21040E+05         0.18070E-10         0.00000E+00
    0.18070E-10        -0.46031E+06         0.00000E+00
    0.00000E+00         0.00000E+00        -0.87853E+05
 
    0.21040E+05         0.18070E-10         0.00000E+00
    0.18070E-10        -0.46031E+06         0.00000E+00
    0.00000E+00         0.00000E+00        -0.87853E+05
 
    0.21040E+05        -0.28912E-09         0.00000E+00
   -0.28912E-09        -0.46031E+06         0.00000E+00
    0.00000E+00         0.00000E+00        -0.87853E+05
 
    0.21040E+05         0.30719E-09         0.00000E+00
    0.30719E-09        -0.46031E+06         0.00000E+00
    0.00000E+00         0.00000E+00        -0.87853E+05
 
    0.16507E+05         0.56017E-09         0.00000E+00
    0.56017E-09        -0.46144E+06         0.00000E+00
    0.00000E+00         0.00000E+00        -0.88986E+05
 
    0.16507E+05        -0.32526E-09         0.00000E+00
   -0.32526E-09        -0.46144E+06         0.00000E+00
    0.00000E+00         0.00000E+00        -0.88986E+05
 
    0.16507E+05        -0.52403E-09         0.00000E+00
   -0.52403E-09        -0.46144E+06         0.00000E+00
    0.00000E+00         0.00000E+00        -0.88986E+05
 
    0.16507E+05        -0.14456E-09         0.00000E+00
   -0.14456E-09        -0.46144E+06         0.00000E+00
    0.00000E+00         0.00000E+00        -0.88986E+05
 
    0.16507E+05        -0.21684E-09         0.00000E+00
   -0.21684E-09        -0.46144E+06         0.00000E+00
    0.00000E+00         0.00000E+00        -0.88986E+05
 
    0.11884E+05         0.37947E-09         0.00000E+00
    0.37947E-09        -0.46259E+06         0.00000E+00
    0.00000E+00         0.00000E+00        -0.90142E+05
 
    0.11884E+05        -0.16263E-09         0.00000E+00
   -0.16263E-09        -0.46259E+06         0.00000E+00
    0.00000E+00         0.00000E+00        -0.90142E+05
 
    0.11884E+05        -0.72280E-10         0.00000E+00
   -0.72280E-10        -0.46259E+06         0.00000E+00
    0.00000E+00         0.00000E+00        -0.90142E+05
 
    0.11884E+05         0.41561E-09         0.00000E+00
    0.41561E-09        -0.46259E+06         0.00000E+00
    0.00000E+00         0.00000E+00        -0.90142E+05
 
    0.11884E+05        -0.14456E-09         0.00000E+00
   -0.14456E-09        -0.46259E+06         0.00000E+00
    0.00000E+00         0.00000E+00        -0.90142E+05
 
    0.71804E+04         0.41561E-09         0.00000E+00
    0.41561E-09        -0.46377E+06         0.00000E+00
    0.00000E+00         0.00000E+00        -0.91318E+05
 
    0.71804E+04        -0.18070E-09         0.00000E+00
   -0.18070E-09        -0.46377E+06         0.00000E+00
    0.00000E+00         0.00000E+00        -0.91318E+05
 
    0.71804E+04         0.32526E-09         0.00000E+00
    0.32526E-09        -0.46377E+06         0.00000E+00
    0.00000E+00         0.00000E+00        -0.91318E+05
 
    0.71804E+04         0.14456E-09         0.00000E+00
    0.14456E-09        -0.46377E+06         0.00000E+00
    0.00000E+00         0.00000E+00        -0.91318E+05
 
    0.71804E+04         0.18070E-10         0.00000E+00
    0.18070E-10        -0.46377E+06         0.00000E+00
    0.00000E+00         0.00000E+00        -0.91318E+05
 
    0.24047E+04        -0.18070E-09         0.00000E+00
   -0.18070E-09        -0.46496E+06         0.00000E+00
    0.00000E+00         0.00000E+00        -0.92512E+05
 
    0.24047E+04         0.39754E-09         0.00000E+00
    0.39754E-09        -0.46496E+06         0.00000E+00
    0.00000E+00         0.00000E+00        -0.92512E+05
 
    0.24047E+04         0.14456E-09         0.00000E+00
    0.14456E-09        -0.46496E+06         0.00000E+00
    0.00000E+00         0.00000E+00        -0.92512E+05
 
    0.24047E+04        -0.90350E-09         0.00000E+00
   -0.90350E-09        -0.46496E+06         0.00000E+00
    0.00000E+00         0.00000E+00        -0.92512E+05
 
    0.24047E+04        -0.21684E-09         0.00000E+00
   -0.21684E-09        -0.46496E+06         0.00000E+00
    0.00000E+00         0.00000E+00        -0.92512E+05
 
TENSORS stresstot double 
    0.20373E-09         0.90350E-11         0.00000E+00
    0.90350E-11        -0.52914E+06         0.00000E+00
    0.00000E+00         0.00000E+00        -0.15668E+06
 
    0.18554E-09         0.27105E-10         0.00000E+00
    0.27105E-10        -0.52914E+06         0.00000E+00
    0.00000E+00         0.00000E+00        -0.15668E+06
 
    0.14916E-09         0.22588E-11         0.00000E+00
    0.22588E-11        -0.52914E+06         0.00000E+00
    0.00000E+00         0.00000E+00        -0.15668E+06
 
    0.17826E-09         0.10164E-10         0.00000E+00
    0.10164E-10        -0.52914E+06         0.00000E+00
    0.00000E+00         0.00000E+00        -0.15668E+06
 
    0.20373E-09         0.13553E-10         0.00000E+00
    0.13553E-10        -0.52914E+06         0.00000E+00
    0.00000E+00         0.00000E+00        -0.15668E+06
 
    0.18554E-09         0.67763E-11         0.00000E+00
    0.67763E-11        -0.52897E+06         0.00000E+00
    0.00000E+00         0.00000E+00        -0.15652E+06
 
    0.22555E-09        -0.45175E-10         0.00000E+00
   -0.45175E-10        -0.52897E+06         0.00000E+00
    0.00000E+00         0.00000E+00        -0.15652E+06
 
    0.12733E-09        -0.18070E-10         0.00000E+00
   -0.18070E-10        -0.52897E+06         0.00000E+00
    0.00000E+00         0.00000E+00        -0.15652E+06
 
    0.18554E-09        -0.36140E-10         0.00000E+00
   -0.36140E-10        -0.52897E+06         0.00000E+00
    0.00000E+00         0.00000E+00        -0.15652E+06
 
    0.18917E-09        -0.33881E-11         0.00000E+00
   -0.33881E-11        -0.52897E+06         0.00000E+00
    0.00000E+00         0.00000E+00        -0.15652E+06
 
    0.26193E-09        -0.67763E-10         0.00000E+00
   -0.67763E-10        -0.52865E+06         0.00000E+00
    0.00000E+00         0.00000E+00        -0.15620E+06
 
    0.19281E-09         0.90350E-11         0.00000E+00
    0.90350E-11        -0.52865E+06         0.00000E+00
    0.00000E+00         0.00000E+00        -0.15620E+06
 
    0.17462E-09        -0.29364E-10         0.00000E+00
   -0.29364E-10        -0.52865E+06         0.00000E+00
    0.00000E+00         0.00000E+00        -0.15620E+06
 
    0.17462E-09         0.51951E-10         0.00000E+00
    0.51951E-10        -0.52865E+06         0.00000E+00
    0.00000E+00         0.00000E+00        -0.15620E+06
 
    0.90949E-10         0.45175E-11         0.00000E+00
    0.45175E-11        -0.52865E+06         0.00000E+00
    0.00000E+00         0.00000E+00        -0.15620E+06
 
    0.21464E-09         0.12197E-09         0.00000E+00
    0.12197E-09        -0.52816E+06         0.00000E+00
    0.00000E+00         0.00000E+00        -0.15571E+06
 
    0.13097E-09         0.22588E-10         0.00000E+00
    0.22588E-10        -0.52816E+06         0.00000E+00
    0.00000E+00         0.00000E+00        -0.15571E+06
 
    0.18190E-09        -0.83574E-10         0.00000E+00
   -0.83574E-10        -0.52816E+06         0.00000E+00
    0.00000E+00         0.00000E+00        -0.15571E+06
 
    0.23647E-09         0.18070E-10         0.00000E+00
    0.18070E-10        -0.52816E+06         0.00000E+00
    0.00000E+00         0.00000E+00        -0.15571E+06
 
    0.29104E-09        -0.45175E-11         0.00000E+00
   -0.45175E-11        -0.52816E+06         0.00000E+00
    0.00000E+00         0.00000E+00        -0.15571E+06
 
    0.16371E-09        -0.18070E-10         0.00000E+00
   -0.18070E-10        -0.52751E+06         0.00000E+00
    0.00000E+00         0.00000E+00        -0.15506E+06
 
    0.30195E-09         0.49693E-10         0.00000E+00
    0.49693E-10        -0.52751E+06         0.00000E+00
    0.00000E+00         0.00000E+00        -0.15506E+06
 
    0.22555E-09         0.38399E-10         0.00000E+00
    0.38399E-10        -0.52751E+06         0.00000E+00
    0.00000E+00         0.00000E+00        -0.15506E+06
 
    0.30195E-09         0.90350E-11         0.00000E+00
    0.90350E-11        -0.52751E+06         0.00000E+00
    0.00000E+00         0.00000E+00        -0.15506E+06
 
    0.24011E-09        -0.31623E-10         0.00000E+00
   -0.31623E-10        -0.52751E+06         0.00000E+00
    0.00000E+00         0.00000E+00        -0.15506E+06
 
    0.29468E-09        -0.49693E-10         0.00000E+00
   -0.49693E-10        -0.52671E+06         0.00000E+00
    0.00000E+00         0.00000E+00        -0.15425E+06
 
    0.94587E-10        -0.40658E-10         0.00000E+00
   -0.40658E-10        -0.52671E+06         0.00000E+00
    0.00000E+00         0.00000E+00        -0.15425E+06
 
    0.18554E-09         0.76798E-10         0.00000E+00
    0.76798E-10        -0.52671E+06         0.00000E+00
    0.00000E+00         0.00000E+00        -0.15425E+06
 
    0.12005E-09        -0.13553E-10         0.00000E+00
   -0.13553E-10        -0.52671E+06         0.00000E+00
    0.00000E+00         0.00000E+00        -0.15425E+06
 
    0.10550E-09        -0.22588E-10         0.00000E+00
   -0.22588E-10        -0.52671E+06         0.00000E+00
    0.00000E+00         0.00000E+00        -0.15425E+06
 
    0.16007E-09        -0.22588E-10         0.00000E+00
   -0.22588E-10        -0.52574E+06         0.00000E+00
    0.00000E+00         0.00000E+00        -0.15329E+06
 
    0.17826E-09         0.36140E-10         0.00000E+00
    0.36140E-10        -0.52574E+06         0.00000E+00
    0.00000E+00         0.00000E+00        -0.15329E+06
 
    0.36016E-09         0.45175E-10         0.00000E+00
    0.45175E-10        -0.52574E+06         0.00000E+00
    0.00000E+00         0.00000E+00        -0.15329E+06
 
    0.42564E-09         0.90350E-11         0.00000E+00
    0.90350E-11        -0.52574E+06         0.00000E+00
    0.00000E+00         0.00000E+00        -0.15329E+06
 
    0.21100E-09        -0.85833E-10         0.00000E+00
   -0.85833E-10        -0.52574E+06         0.00000E+00
    0.00000E+00         0.00000E+00        -0.15329E+06
 
    0.40018E-09         0.45175E-11         0.00000E+00
    0.45175E-11        -0.52462E+06         0.00000E+00
    0.00000E+00         0.00000E+00        -0.15217E+06
 
    0.29104E-09         0.99385E-10         0.00000E+00
    0.99385E-10        -0.52462E+06         0.00000E+00
    0.00000E+00         0.00000E+00        -0.15217E+06
 
    0.26921E-09         0.18070E-10         0.00000E+00
    0.18070E-10        -0.52462E+06         0.00000E+00
    0.00000E+00         0.00000E+00        -0.15217E+06
 
    0.29831E-09         0.18070E-10         0.00000E+00
    0.18070E-10        -0.52462E+06         0.00000E+00
    0.00000E+00         0.00000E+00        -0.15217E+06
 
    0.21100E-09         0.90350E-11         0.00000E+00
    0.90350E-11        -0.52462E+06         0.00000E+00
    0.00000E+00         0.00000E+00        -0.15217E+06
 
    0.69122E-10        -0.54210E-10         0.00000E+00
   -0.54210E-10        -0.52334E+06         0.00000E+00
    0.00000E+00         0.00000E+00        -0.15089E+06
 
    0.22919E-09         0.18070E-10         0.00000E+00
    0.18070E-10        -0.52334E+06         0.00000E+00
    0.00000E+00         0.00000E+00        -0.15089E+06
 
    0.16371E-09        -0.15360E-09         0.00000E+00
   -0.15360E-09        -0.52334E+06         0.00000E+00
    0.00000E+00         0.00000E+00        -0.15089E+06
 
    0.19645E-09         0.90350E-11         0.00000E+00
    0.90350E-11        -0.52334E+06         0.00000E+00
    0.00000E+00         0.00000E+00        -0.15089E+06
 
    0.23283E-09         0.76798E-10         0.00000E+00
    0.76798E-10        -0.52334E+06         0.00000E+00
    0.00000E+00         0.00000E+00        -0.15089E+06
 
    0.17826E-09         0.49693E-10         0.00000E+00
    0.49693E-10        -0.52191E+06         0.00000E+00
    0.00000E+00         0.00000E+00        -0.14946E+06
 
   -0.21828E-10        -0.18070E-10         0.00000E+00
   -0.18070E-10        -0.52191E+06         0.00000E+00
    0.00000E+00         0.00000E+00        -0.14946E+06
 
    0.31650E-09        -0.63245E-10         0.00000E+00
   -0.63245E-10        -0.52191E+06         0.00000E+00
    0.00000E+00         0.00000E+00        -0.14946E+06
 
    0.98225E-10         0.17167E-09         0.00000E+00
    0.17167E-09        -0.52191E+06         0.00000E+00
    0.00000E+00         0.00000E+00        -0.14946E+06
 
    0.25830E-09        -0.45175E-10         0.00000E+00
   -0.45175E-10        -0.52191E+06         0.00000E+00
    0.00000E+00         0.00000E+00        -0.14946E+06
 
   -0.24374E-09         0.11746E-09         0.00000E+00
    0.11746E-09        -0.52034E+06         0.00000E+00
    0.00000E+00         0.00000E+00        -0.14788E+06
 
    0.24374E-09        -0.22588E-09         0.00000E+00
   -0.22588E-09        -0.52034E+06         0.00000E+00
    0.00000E+00         0.00000E+00        -0.14788E+06
 
    0.13824E-09         0.63245E-10         0.00000E+00
    0.63245E-10        -0.52034E+06         0.00000E+00
    0.00000E+00         0.00000E+00        -0.14788E+06
 
    0.38199E-09        -0.63245E-10         0.00000E+00
   -0.63245E-10        -0.52034E+06         0.00000E+00
    0.00000E+00         0.00000E+00        -0.14788E+06
 
    0.48021E-09         0.36140E-10         0.00000E+00
    0.36140E-10        -0.52034E+06         0.00000E+00
    0.00000E+00         0.00000E+00        -0.14788E+06
 
    0.57480E-09         0.72280E-10         0.00000E+00
    0.72280E-10        -0.51861E+06         0.00000E+00
    0.00000E+00         0.00000E+00        -0.14616E+06
 
    0.38926E-09        -0.13553E-09         0.00000E+00
   -0.13553E-09        -0.51861E+06         0.00000E+00
    0.00000E+00         0.00000E+00        -0.14616E+06
 
    0.14188E-09        -0.36140E-10         0.00000E+00
   -0.36140E-10        -0.51861E+06         0.00000E+00
    0.00000E+00         0.00000E+00        -0.14616E+06
 
    0.90949E-10        -0.11746E-09         0.00000E+00
   -0.11746E-09        -0.51861E+06         0.00000E+00
    0.00000E+00         0.00000E+00        -0.14616E+06
 
    0.13461E-09         0.23491E-09         0.00000E+00
    0.23491E-09        -0.51861E+06         0.00000E+00
    0.00000E+00         0.00000E+00        -0.14616E+06
 
   -0.83674E-10        -0.54210E-10         0.00000E+00
   -0.54210E-10        -0.51674E+06         0.00000E+00
    0.00000E+00         0.00000E+00        -0.14429E+06
 
    0.10550E-09         0.16263E-09         0.00000E+00
    0.16263E-09        -0.51674E+06         0.00000E+00
    0.00000E+00         0.00000E+00        -0.14429E+06
 
    0.29104E-10         0.45175E-10         0.00000E+00
    0.45175E-10        -0.51674E+06         0.00000E+00
    0.00000E+00         0.00000E+00        -0.14429E+06
 
    0.31287E-09        -0.21684E-09         0.00000E+00
   -0.21684E-09        -0.51674E+06         0.00000E+00
    0.00000E+00         0.00000E+00        -0.14429E+06
 
    0.36016E-09         0.18070E-09         0.00000E+00
    0.18070E-09        -0.51674E+06         0.00000E+00
    0.00000E+00         0.00000E+00        -0.14429E+06
 
    0.37835E-09        -0.18070E-10         0.00000E+00
   -0.18070E-10        -0.51474E+06         0.00000E+00
    0.00000E+00         0.00000E+00        -0.14229E+06
 
    0.16007E-09         0.00000E+00         0.00000E+00
    0.00000E+00        -0.51474E+06         0.00000E+00
    0.00000E+00         0.00000E+00        -0.14229E+06
 
    0.35288E-09         0.13553E-09         0.00000E+00
    0.13553E-09        -0.51474E+06         0.00000E+00
    0.00000E+00         0.00000E+00        -0.14229E+06
 
   -0.94587E-10        -0.27105E-10         0.00000E+00
   -0.27105E-10        -0.51474E+06         0.00000E+00
    0.00000E+00         0.00000E+00        -0.14229E+06
 
    0.43474E-09         0.10842E-09         0.00000E+00
    0.10842E-09        -0.51474E+06         0.00000E+00
    0.00000E+00         0.00000E+00        -0.14229E+06
 
    0.30377E-09         0.23491E-09         0.00000E+00
    0.23491E-09        -0.51259E+06         0.00000E+00
    0.00000E+00         0.00000E+00        -0.14014E+06
 
    0.10550E-09        -0.14456E-09         0.00000E+00
   -0.14456E-09        -0.51259E+06         0.00000E+00
    0.00000E+00         0.00000E+00        -0.14014E+06
 
   -0.69122E-10         0.16263E-09         0.00000E+00
    0.16263E-09        -0.51259E+06         0.00000E+00
    0.00000E+00         0.00000E+00        -0.14014E+06
 
   -0.20009E-09        -0.26202E-09         0.00000E+00
   -0.26202E-09        -0.51259E+06         0.00000E+00
    0.00000E+00         0.00000E+00        -0.14014E+06
 
   -0.52023E-09        -0.14456E-09         0.00000E+00
   -0.14456E-09        -0.51259E+06         0.00000E+00
    0.00000E+00         0.00000E+00        -0.14014E+06
 
    0.57662E-09         0.64623E-26         0.00000E+00
    0.64623E-26        -0.51032E+06         0.00000E+00
    0.00000E+00         0.00000E+00        -0.13787E+06
 
    0.53660E-09         0.23491E-09         0.00000E+00
    0.23491E-09        -0.51032E+06         0.00000E+00
    0.00000E+00         0.00000E+00        -0.13787E+06
 
    0.31105E-09        -0.27105E-09         0.00000E+00
   -0.27105E-09        -0.51032E+06         0.00000E+00
    0.00000E+00         0.00000E+00        -0.13787E+06
 
    0.61846E-10        -0.18070E-10         0.00000E+00
   -0.18070E-10        -0.51032E+06         0.00000E+00
    0.00000E+00         0.00000E+00        -0.13787E+06
 
    0.74215E-09        -0.36140E-10         0.00000E+00
   -0.36140E-10        -0.51032E+06         0.00000E+00
    0.00000E+00         0.00000E+00        -0.13787E+06
 
   -0.63483E-09         0.19877E-09         0.00000E+00
    0.19877E-09        -0.50792E+06         0.00000E+00
    0.00000E+00         0.00000E+00        -0.13546E+06
 
   -0.96406E-10         0.00000E+00         0.00000E+00
    0.00000E+00        -0.50792E+06         0.00000E+00
    0.00000E+00         0.00000E+00        -0.13546E+06
 
    0.12005E-09        -0.13553E-09         0.00000E+00
   -0.13553E-09        -0.50792E+06         0.00000E+00
    0.00000E+00         0.00000E+00        -0.13546E+06
 
    0.27285E-10        -0.16263E-09         0.00000E+00
   -0.16263E-09        -0.50792E+06         0.00000E+00
    0.00000E+00         0.00000E+00        -0.13546E+06
 
    0.14734E-09         0.18070E-10         0.00000E+00
    0.18070E-10        -0.50792E+06         0.00000E+00
    0.00000E+00         0.00000E+00        -0.13546E+06
 
    0.51477E-09         0.10842E-09         0.00000E+00
    0.10842E-09        -0.50539E+06         0.00000E+00
    0.00000E+00         0.00000E+00        -0.13294E+06
 
    0.78762E-09        -0.18070E-09         0.00000E+00
   -0.18070E-09        -0.50539E+06         0.00000E+00
    0.00000E+00         0.00000E+00        -0.13294E+06
 
    0.66575E-09        -0.14456E-09         0.00000E+00
   -0.14456E-09        -0.50539E+06         0.00000E+00
    0.00000E+00         0.00000E+00        -0.13294E+06
 
    0.41291E-09        -0.81315E-10         0.00000E+00
   -0.81315E-10        -0.50539E+06         0.00000E+00
    0.00000E+00         0.00000E+00        -0.13294E+06
 
    0.16553E-09        -0.16263E-09         0.00000E+00
   -0.16263E-09        -0.50539E+06         0.00000E+00
    0.00000E+00         0.00000E+00        -0.13294E+06
 
    0.50022E-09        -0.54210E-10         0.00000E+00
   -0.54210E-10        -0.50274E+06         0.00000E+00
    0.00000E+00         0.00000E+00        -0.13029E+06
 
    0.18917E-09         0.12649E-09         0.00000E+00
    0.12649E-09        -0.50274E+06         0.00000E+00
    0.00000E+00         0.00000E+00        -0.13029E+06
 
    0.61846E-10         0.45175E-10         0.00000E+00
    0.45175E-10        -0.50274E+06         0.00000E+00
    0.00000E+00         0.00000E+00        -0.13029E+06
 
   -0.23465E-09         0.12649E-09         0.00000E+00
    0.12649E-09        -0.50274E+06         0.00000E+00
    0.00000E+00         0.00000E+00        -0.13029E+06
 
    0.27285E-10        -0.18070E-10         0.00000E+00
   -0.18070E-10        -0.50274E+06         0.00000E+00
    0.00000E+00         0.00000E+00        -0.13029E+06
 
   -0.45475E-10        -0.18070E-10         0.00000E+00
   -0.18070E-10        -0.49999E+06         0.00000E+00
    0.00000E+00         0.00000E+00        -0.12753E+06
 
    0.78217E-10         0.18070E-10         0.00000E+00
    0.18070E-10        -0.49999E+06         0.00000E+00
    0.00000E+00         0.00000E+00        -0.12753E+06
 
    0.49113E-10         0.46982E-09         0.00000E+00
    0.46982E-09        -0.49999E+06         0.00000E+00
    0.00000E+00         0.00000E+00        -0.12753E+06
 
    0.54570E-09        -0.16263E-09         0.00000E+00
   -0.16263E-09        -0.49999E+06         0.00000E+00
    0.00000E+00         0.00000E+00        -0.12753E+06
 
   -0.25466E-10         0.18070E-10         0.00000E+00
    0.18070E-10        -0.49999E+06         0.00000E+00
    0.00000E+00         0.00000E+00        -0.12753E+06
 
    0.41837E-09        -0.72280E-10         0.00000E+00
   -0.72280E-10        -0.49712E+06         0.00000E+00
    0.00000E+00         0.00000E+00        -0.12467E+06
 
    0.12551E-09        -0.18070E-09         0.00000E+00
   -0.18070E-09        -0.49712E+06         0.00000E+00
    0.00000E+00         0.00000E+00        -0.12467E+06
 
    0.12733E-09         0.81315E-10         0.00000E+00
    0.81315E-10        -0.49712E+06         0.00000E+00
    0.00000E+00         0.00000E+00        -0.12467E+06
 
    0.27467E-09        -0.25298E-09         0.00000E+00
   -0.25298E-09        -0.49712E+06         0.00000E+00
    0.00000E+00         0.00000E+00        -0.12467E+06
 
   -0.33469E-09         0.10842E-09         0.00000E+00
    0.10842E-09        -0.49712E+06         0.00000E+00
    0.00000E+00         0.00000E+00        -0.12467E+06
 
    0.16189E-09        -0.18070E-10         0.00000E+00
   -0.18070E-10        -0.49415E+06         0.00000E+00
    0.00000E+00         0.00000E+00        -0.12169E+06
 
    0.15643E-09        -0.36140E-10         0.00000E+00
   -0.36140E-10        -0.49415E+06         0.00000E+00
    0.00000E+00         0.00000E+00        -0.12169E+06
 
    0.15643E-09        -0.54210E-10         0.00000E+00
   -0.54210E-10        -0.49415E+06         0.00000E+00
    0.00000E+00         0.00000E+00        -0.12169E+06
 
    0.65484E-10        -0.36140E-10         0.00000E+00
   -0.36140E-10        -0.49415E+06         0.00000E+00
    0.00000E+00         0.00000E+00        -0.12169E+06
 
    0.16007E-09         0.18070E-10         0.00000E+00
    0.18070E-10        -0.49415E+06         0.00000E+00
    0.00000E+00         0.00000E+00        -0.12169E+06
 
    0.54024E-09         0.36140E-10         0.00000E+00
    0.36140E-10        -0.49108E+06         0.00000E+00
    0.00000E+00         0.00000E+00        -0.11863E+06
 
    0.51659E-09         0.10842E-09         0.00000E+00
    0.10842E-09        -0.49108E+06         0.00000E+00
    0.00000E+00         0.00000E+00        -0.11863E+06
 
    0.43656E-09        -0.18070E-10         0.00000E+00
   -0.18070E-10        -0.49108E+06         0.00000E+00
    0.00000E+00         0.00000E+00        -0.11863E+06
 
    0.43292E-09        -0.72280E-10         0.00000E+00
   -0.72280E-10        -0.49108E+06         0.00000E+00
    0.00000E+00         0.00000E+00        -0.11863E+06
 
    0.50204E-09        -0.18070E-10         0.00000E+00
   -0.18070E-10        -0.49108E+06         0.00000E+00
    0.00000E+00         0.00000E+00        -0.11863E+06
 
   -0.43747E-09         0.36140E-09         0.00000E+00
    0.36140E-09        -0.48792E+06         0.00000E+00
    0.00000E+00         0.00000E+00        -0.11547E+06
 
   -0.33106E-09        -0.28912E-09         0.00000E+00
   -0.28912E-09        -0.48792E+06         0.00000E+00
    0.00000E+00         0.00000E+00        -0.11547E+06
 
    0.25648E-09         0.18070E-10         0.00000E+00
    0.18070E-10        -0.48792E+06         0.00000E+00
    0.00000E+00         0.00000E+00        -0.11547E+06
 
    0.12096E-09         0.14456E-09         0.00000E+00
    0.14456E-09        -0.48792E+06         0.00000E+00
    0.00000E+00         0.00000E+00        -0.11547E+06
 
   -0.39472E-09         0.39754E-09         0.00000E+00
    0.39754E-09        -0.48792E+06         0.00000E+00
    0.00000E+00         0.00000E+00        -0.11547E+06
 
    0.37835E-09         0.18070E-09         0.00000E+00
    0.18070E-09        -0.48467E+06         0.00000E+00
    0.00000E+00         0.00000E+00        -0.11222E+06
 
   -0.49022E-09        -0.90350E-10         0.00000E+00
   -0.90350E-10        -0.48467E+06         0.00000E+00
    0.00000E+00         0.00000E+00        -0.11222E+06
 
   -0.35561E-09        -0.10842E-09         0.00000E+00
   -0.10842E-09        -0.48467E+06         0.00000E+00
    0.00000E+00         0.00000E+00        -0.11222E+06
 
   -0.15461E-10         0.18070E-10         0.00000E+00
    0.18070E-10        -0.48467E+06         0.00000E+00
    0.00000E+00         0.00000E+00        -0.11222E+06
 
    0.42019E-09         0.37947E-09         0.00000E+00
    0.37947E-09        -0.48467E+06         0.00000E+00
    0.00000E+00         0.00000E+00        -0.11222E+06
 
   -0.10041E-08         0.72280E-10         0.00000E+00
    0.72280E-10        -0.48135E+06         0.00000E+00
    0.00000E+00         0.00000E+00        -0.10889E+06
 
   -0.81400E-09         0.18070E-10         0.00000E+00
    0.18070E-10        -0.48135E+06         0.00000E+00
    0.00000E+00         0.00000E+00        -0.10889E+06
 
    0.42746E-09         0.18070E-10         0.00000E+00
    0.18070E-10        -0.48135E+06         0.00000E+00
    0.00000E+00         0.00000E+00        -0.10889E+06
 
   -0.29650E-09        -0.28912E-09         0.00000E+00
   -0.28912E-09        -0.48135E+06         0.00000E+00
    0.00000E+00         0.00000E+00        -0.10889E+06
 
   -0.38563E-09         0.30719E-09         0.00000E+00
    0.30719E-09        -0.48135E+06         0.00000E+00
    0.00000E+00         0.00000E+00        -0.10889E+06
 
    0.34106E-09         0.56017E-09         0.00000E+00
    0.56017E-09        -0.47795E+06         0.00000E+00
    0.00000E+00         0.00000E+00        -0.10549E+06
 
   -0.43019E-09        -0.32526E-09         0.00000E+00
   -0.32526E-09        -0.47795E+06         0.00000E+00
    0.00000E+00         0.00000E+00        -0.10549E+06
 
   -0.19145E-09        -0.52403E-09         0.00000E+00
   -0.52403E-09        -0.47795E+06         0.00000E+00
    0.00000E+00         0.00000E+00        -0.10549E+06
 
    0.16189E-09        -0.14456E-09         0.00000E+00
   -0.14456E-09        -0.47795E+06         0.00000E+00
    0.00000E+00         0.00000E+00        -0.10549E+06
 
    0.30150E-09        -0.21684E-09         0.00000E+00
   -0.21684E-09        -0.47795E+06         0.00000E+00
    0.00000E+00         0.00000E+00        -0.10549E+06
 
    0.41700E-09         0.37947E-09         0.00000E+00
    0.37947E-09        -0.47448E+06         0.00000E+00
    0.00000E+00         0.00000E+00        -0.10203E+06
 
    0.16053E-09        -0.16263E-09         0.00000E+00
   -0.16263E-09        -0.47448E+06         0.00000E+00
    0.00000E+00         0.00000E+00        -0.10203E+06
 
   -0.66211E-09        -0.72280E-10         0.00000E+00
   -0.72280E-10        -0.47448E+06         0.00000E+00
    0.00000E+00         0.00000E+00        -0.10203E+06
 
    0.18281E-09         0.41561E-09         0.00000E+00
    0.41561E-09        -0.47448E+06         0.00000E+00
    0.00000E+00         0.00000E+00        -0.10203E+06
 
    0.14143E-09        -0.14456E-09         0.00000E+00
   -0.14456E-09        -0.47448E+06         0.00000E+00
    0.00000E+00         0.00000E+00        -0.10203E+06
 
   -0.11551E-09         0.41561E-09         0.00000E+00
    0.41561E-09        -0.47095E+06         0.00000E+00
    0.00000E+00         0.00000E+00        -0.98498E+05
 
    0.55297E-09        -0.18070E-09         0.00000E+00
   -0.18070E-09        -0.47095E+06         0.00000E+00
    0.00000E+00         0.00000E+00        -0.98498E+05
 
    0.87766E-10         0.32526E-09         0.00000E+00
    0.32526E-09        -0.47095E+06         0.00000E+00
    0.00000E+00         0.00000E+00        -0.98498E+05
 
   -0.25329E-09         0.14456E-09         0.00000E+00
    0.14456E-09        -0.47095E+06         0.00000E+00
    0.00000E+00         0.00000E+00        -0.98498E+05
 
   -0.13824E-09         0.18070E-10         0.00000E+00
    0.18070E-10        -0.47095E+06         0.00000E+00
    0.00000E+00         0.00000E+00        -0.98498E+05
 
    0.58583E-09        -0.18070E-09         0.00000E+00
   -0.18070E-09        -0.46737E+06         0.00000E+00
    0.00000E+00         0.00000E+00        -0.94917E+05
 
    0.20685E-09         0.39754E-09         0.00000E+00
    0.39754E-09        -0.46737E+06         0.00000E+00
    0.00000E+00         0.00000E+00        -0.94917E+05
 
    0.90324E-10         0.14456E-09         0.00000E+00
    0.14456E-09        -0.46737E+06         0.00000E+00
    0.00000E+00         0.00000E+00        -0.94917E+05
 
    0.62204E-09        -0.90350E-09         0.00000E+00
   -0.90350E-09        -0.46737E+06         0.00000E+00
    0.00000E+00         0.00000E+00        -0.94917E+05
 
    0.57054E-09        -0.21684E-09         0.00000E+00
   -0.21684E-09        -0.46737E+06         0.00000E+00
    0.00000E+00         0.00000E+00        -0.94917E+05
 
SCALARS stressS double 
LOOKUP_TABLE default
  -228605.978591984     
  -228605.978591984     
  -228605.978591984     
  -228605.978591984     
  -228605.978591984     
  -228497.535720332     
  -228497.535720332     
  -228497.535720332     
  -228497.535720332     
  -228497.535720332     
  -228280.849451819     
  -228280.849451819     
  -228280.849451819     
  -228280.849451819     
  -228280.849451819     
  -227956.318430041     
  -227956.318430041     
  -227956.318430041     
  -227956.318430041     
  -227956.318430041     
  -227524.539854961     
  -227524.539854961     
  -227524.539854961     
  -227524.539854961     
  -227524.539854961     
  -226986.308563077     
  -226986.308563077     
  -226986.308563077     
  -226986.308563078     
  -226986.308563078     
  -226342.615798866     
  -226342.615798866     
  -226342.615798866     
  -226342.615798866     
  -226342.615798866     
  -225594.647675817     
  -225594.647675817     
  -225594.647675817     
  -225594.647675817     
  -225594.647675817     
  -224743.783325122     
  -224743.783325122     
  -224743.783325122     
  -224743.783325122     
  -224743.783325122     
  -223791.592729922     
  -223791.592729922     
  -223791.592729922     
  -223791.592729922     
  -223791.592729922     
  -222739.834242989     
  -222739.834242989     
  -222739.834242989     
  -222739.834242989     
  -222739.834242989     
  -221590.451785810     
  -221590.451785810     
  -221590.451785810     
  -221590.451785810     
  -221590.451785810     
  -220345.571727280     
  -220345.571727280     
  -220345.571727280     
  -220345.571727280     
  -220345.571727280     
  -219007.499440599     
  -219007.499440599     
  -219007.499440599     
  -219007.499440599     
  -219007.499440599     
  -217578.715537511     
  -217578.715537511     
  -217578.715537511     
  -217578.715537511     
  -217578.715537511     
  -216061.871779698     
  -216061.871779698     
  -216061.871779698     
  -216061.871779699     
  -216061.871779698     
  -214459.786668003     
  -214459.786668003     
  -214459.786668002     
  -214459.786668003     
  -214459.786668003     
  -212775.440711091     
  -212775.440711091     
  -212775.440711091     
  -212775.440711091     
  -212775.440711092     
  -211011.971376326     
  -211011.971376326     
  -211011.971376326     
  -211011.971376326     
  -211011.971376326     
  -209172.667726764     
  -209172.667726764     
  -209172.667726764     
  -209172.667726764     
  -209172.667726764     
  -207260.964749579     
  -207260.964749579     
  -207260.964749579     
  -207260.964749579     
  -207260.964749579     
  -205280.437382521     
  -205280.437382521     
  -205280.437382521     
  -205280.437382521     
  -205280.437382521     
  -203234.794246528     
  -203234.794246528     
  -203234.794246528     
  -203234.794246528     
  -203234.794246528     
  -201127.871094002     
  -201127.871094002     
  -201127.871094001     
  -201127.871094001     
  -201127.871094002     
  -198963.623983777     
  -198963.623983777     
  -198963.623983777     
  -198963.623983777     
  -198963.623983776     
  -196746.122195208     
  -196746.122195208     
  -196746.122195207     
  -196746.122195208     
  -196746.122195208     
  -194479.540895195     
  -194479.540895195     
  -194479.540895195     
  -194479.540895195     
  -194479.540895195     
  -192168.153573275     
  -192168.153573275     
  -192168.153573275     
  -192168.153573275     
  -192168.153573275     
  -189816.324261087     
  -189816.324261087     
  -189816.324261087     
  -189816.324261087     
  -189816.324261087     
  -187428.499553608     
  -187428.499553608     
  -187428.499553608     
  -187428.499553608     
  -187428.499553609     
SCALARS 2waySource double 
LOOKUP_TABLE default
 -5.628179273300801E-005
 -5.628179273300740E-005
 -5.628179273300714E-005
 -5.628179273300662E-005
 -5.628179273300755E-005
 -5.598252585684842E-005
 -5.598252585684862E-005
 -5.598252585684772E-005
 -5.598252585684817E-005
 -5.598252585684779E-005
 -5.545930339859927E-005
 -5.545930339859783E-005
 -5.545930339859821E-005
 -5.545930339859787E-005
 -5.545930339859705E-005
 -5.471292895363994E-005
 -5.471292895363960E-005
 -5.471292895363746E-005
 -5.471292895363826E-005
 -5.471292895363744E-005
 -5.374455218457005E-005
 -5.374455218456948E-005
 -5.374455218456990E-005
 -5.374455218456796E-005
 -5.374455218456909E-005
 -5.255567049096918E-005
 -5.255567049096927E-005
 -5.255567049096737E-005
 -5.255567049096781E-005
 -5.255567049096817E-005
 -5.114813104199054E-005
 -5.114813104198994E-005
 -5.114813104198899E-005
 -5.114813104199123E-005
 -5.114813104198939E-005
 -4.952413306788300E-005
 -4.952413306788045E-005
 -4.952413306788043E-005
 -4.952413306787991E-005
 -4.952413306788104E-005
 -4.768623028708912E-005
 -4.768623028708977E-005
 -4.768623028708892E-005
 -4.768623028708902E-005
 -4.768623028708877E-005
 -4.563733332898277E-005
 -4.563733332898193E-005
 -4.563733332898300E-005
 -4.563733332898064E-005
 -4.563733332898109E-005
 -4.338071199865114E-005
 -4.338071199865085E-005
 -4.338071199865499E-005
 -4.338071199865377E-005
 -4.338071199865377E-005
 -4.091999722033136E-005
 -4.091999722032934E-005
 -4.091999722032799E-005
 -4.091999722032655E-005
 -4.091999722032259E-005
 -3.825918248957329E-005
 -3.825918248957400E-005
 -3.825918248957259E-005
 -3.825918248957613E-005
 -3.825918248957653E-005
 -3.540262466234808E-005
 -3.540262466234407E-005
 -3.540262466234470E-005
 -3.540262466234459E-005
 -3.540262466234119E-005
 -3.235504391077760E-005
 -3.235504391077681E-005
 -3.235504391078010E-005
 -3.235504391078050E-005
 -3.235504391077904E-005
 -2.912152268183836E-005
 -2.912152268183605E-005
 -2.912152268183580E-005
 -2.912152268183420E-005
 -2.912152268183438E-005
 -2.570750350492213E-005
 -2.570750350491965E-005
 -2.570750350492154E-005
 -2.570750350492165E-005
 -2.570750350492283E-005
 -2.211878550924218E-005
 -2.211878550924356E-005
 -2.211878550924365E-005
 -2.211878550924105E-005
 -2.211878550924228E-005
 -1.836151952926612E-005
 -1.836151952926019E-005
 -1.836151952926131E-005
 -1.836151952925888E-005
 -1.836151952926205E-005
 -1.444220169840312E-005
 -1.444220169840283E-005
 -1.444220169840088E-005
 -1.444220169840191E-005
 -1.444220169840466E-005
 -1.036766545532379E-005
 -1.036766545531401E-005
 -1.036766545531951E-005
 -1.036766545532290E-005
 -1.036766545532116E-005
 -6.145071914112767E-006
 -6.145071914112013E-006
 -6.145071914113319E-006
 -6.145071914111199E-006
 -6.145071914106431E-006
 -1.781898578417678E-006
 -1.781898578417925E-006
 -1.781898578419294E-006
 -1.781898578419845E-006
 -1.781898578415856E-006
  2.714073590668972E-006
  2.714073590670275E-006
  2.714073590668409E-006
  2.714073590667452E-006
  2.714073590670948E-006
  7.334774712579926E-006
  7.334774712586499E-006
  7.334774712584820E-006
  7.334774712586567E-006
  7.334774712585159E-006
  1.207186206091749E-005
  1.207186206091635E-005
  1.207186206091483E-005
  1.207186206091270E-005
  1.207186206091636E-005
  1.691673757321064E-005
  1.691673757320282E-005
  1.691673757320608E-005
  1.691673757320738E-005
  1.691673757320653E-005
  2.186056667033931E-005
  2.186056667034230E-005
  2.186056667034540E-005
  2.186056667034561E-005
  2.186056667033696E-005
  2.689429823382428E-005
  2.689429823382327E-005
  2.689429823382530E-005
  2.689429823382447E-005
  2.689429823382684E-005
  3.200868556746713E-005
  3.200868556746590E-005
  3.200868556746675E-005
  3.200868556747415E-005
  3.200868556746860E-005
SCALARS poroP double 
LOOKUP_TABLE default
  0.000000000000000E+000
  0.000000000000000E+000
  0.000000000000000E+000
  0.000000000000000E+000
  0.000000000000000E+000
  0.000000000000000E+000
  0.000000000000000E+000
  0.000000000000000E+000
  0.000000000000000E+000
  0.000000000000000E+000
  0.000000000000000E+000
  0.000000000000000E+000
  0.000000000000000E+000
  0.000000000000000E+000
  0.000000000000000E+000
  0.000000000000000E+000
  0.000000000000000E+000
  0.000000000000000E+000
  0.000000000000000E+000
  0.000000000000000E+000
  0.000000000000000E+000
  0.000000000000000E+000
  0.000000000000000E+000
  0.000000000000000E+000
  0.000000000000000E+000
  0.000000000000000E+000
  0.000000000000000E+000
  0.000000000000000E+000
  0.000000000000000E+000
  0.000000000000000E+000
  0.000000000000000E+000
  0.000000000000000E+000
  0.000000000000000E+000
  0.000000000000000E+000
  0.000000000000000E+000
  0.000000000000000E+000
  0.000000000000000E+000
  0.000000000000000E+000
  0.000000000000000E+000
  0.000000000000000E+000
  0.000000000000000E+000
  0.000000000000000E+000
  0.000000000000000E+000
  0.000000000000000E+000
  0.000000000000000E+000
  0.000000000000000E+000
  0.000000000000000E+000
  0.000000000000000E+000
  0.000000000000000E+000
  0.000000000000000E+000
  0.000000000000000E+000
  0.000000000000000E+000
  0.000000000000000E+000
  0.000000000000000E+000
  0.000000000000000E+000
  0.000000000000000E+000
  0.000000000000000E+000
  0.000000000000000E+000
  0.000000000000000E+000
  0.000000000000000E+000
  0.000000000000000E+000
  0.000000000000000E+000
  0.000000000000000E+000
  0.000000000000000E+000
  0.000000000000000E+000
  0.000000000000000E+000
  0.000000000000000E+000
  0.000000000000000E+000
  0.000000000000000E+000
  0.000000000000000E+000
  0.000000000000000E+000
  0.000000000000000E+000
  0.000000000000000E+000
  0.000000000000000E+000
  0.000000000000000E+000
  0.000000000000000E+000
  0.000000000000000E+000
  0.000000000000000E+000
  0.000000000000000E+000
  0.000000000000000E+000
  0.000000000000000E+000
  0.000000000000000E+000
  0.000000000000000E+000
  0.000000000000000E+000
  0.000000000000000E+000
  0.000000000000000E+000
  0.000000000000000E+000
  0.000000000000000E+000
  0.000000000000000E+000
  0.000000000000000E+000
  0.000000000000000E+000
  0.000000000000000E+000
  0.000000000000000E+000
  0.000000000000000E+000
  0.000000000000000E+000
  0.000000000000000E+000
  0.000000000000000E+000
  0.000000000000000E+000
  0.000000000000000E+000
  0.000000000000000E+000
  0.000000000000000E+000
  0.000000000000000E+000
  0.000000000000000E+000
  0.000000000000000E+000
  0.000000000000000E+000
  0.000000000000000E+000
  0.000000000000000E+000
  0.000000000000000E+000
  0.000000000000000E+000
  0.000000000000000E+000
  0.000000000000000E+000
  0.000000000000000E+000
  0.000000000000000E+000
  0.000000000000000E+000
  0.000000000000000E+000
  0.000000000000000E+000
  0.000000000000000E+000
  0.000000000000000E+000
  0.000000000000000E+000
  0.000000000000000E+000
  0.000000000000000E+000
  0.000000000000000E+000
  0.000000000000000E+000
  0.000000000000000E+000
  0.000000000000000E+000
  0.000000000000000E+000
  0.000000000000000E+000
  0.000000000000000E+000
  0.000000000000000E+000
  0.000000000000000E+000
  0.000000000000000E+000
  0.000000000000000E+000
  0.000000000000000E+000
  0.000000000000000E+000
  0.000000000000000E+000
  0.000000000000000E+000
  0.000000000000000E+000
  0.000000000000000E+000
  0.000000000000000E+000
  0.000000000000000E+000
  0.000000000000000E+000
  0.000000000000000E+000
  0.000000000000000E+000
  0.000000000000000E+000
  0.000000000000000E+000
  0.000000000000000E+000
  0.000000000000000E+000
  0.000000000000000E+000
  0.000000000000000E+000
  0.000000000000000E+000
SCALARS elementIsPlast double 
LOOKUP_TABLE default
  0.000000000000000E+000
  0.000000000000000E+000
  0.000000000000000E+000
  0.000000000000000E+000
  0.000000000000000E+000
  0.000000000000000E+000
  0.000000000000000E+000
  0.000000000000000E+000
  0.000000000000000E+000
  0.000000000000000E+000
  0.000000000000000E+000
  0.000000000000000E+000
  0.000000000000000E+000
  0.000000000000000E+000
  0.000000000000000E+000
  0.000000000000000E+000
  0.000000000000000E+000
  0.000000000000000E+000
  0.000000000000000E+000
  0.000000000000000E+000
  0.000000000000000E+000
  0.000000000000000E+000
  0.000000000000000E+000
  0.000000000000000E+000
  0.000000000000000E+000
  0.000000000000000E+000
  0.000000000000000E+000
  0.000000000000000E+000
  0.000000000000000E+000
  0.000000000000000E+000
  0.000000000000000E+000
  0.000000000000000E+000
  0.000000000000000E+000
  0.000000000000000E+000
  0.000000000000000E+000
  0.000000000000000E+000
  0.000000000000000E+000
  0.000000000000000E+000
  0.000000000000000E+000
  0.000000000000000E+000
  0.000000000000000E+000
  0.000000000000000E+000
  0.000000000000000E+000
  0.000000000000000E+000
  0.000000000000000E+000
  0.000000000000000E+000
  0.000000000000000E+000
  0.000000000000000E+000
  0.000000000000000E+000
  0.000000000000000E+000
  0.000000000000000E+000
  0.000000000000000E+000
  0.000000000000000E+000
  0.000000000000000E+000
  0.000000000000000E+000
  0.000000000000000E+000
  0.000000000000000E+000
  0.000000000000000E+000
  0.000000000000000E+000
  0.000000000000000E+000
  0.000000000000000E+000
  0.000000000000000E+000
  0.000000000000000E+000
  0.000000000000000E+000
  0.000000000000000E+000
  0.000000000000000E+000
  0.000000000000000E+000
  0.000000000000000E+000
  0.000000000000000E+000
  0.000000000000000E+000
  0.000000000000000E+000
  0.000000000000000E+000
  0.000000000000000E+000
  0.000000000000000E+000
  0.000000000000000E+000
  0.000000000000000E+000
  0.000000000000000E+000
  0.000000000000000E+000
  0.000000000000000E+000
  0.000000000000000E+000
  0.000000000000000E+000
  0.000000000000000E+000
  0.000000000000000E+000
  0.000000000000000E+000
  0.000000000000000E+000
  0.000000000000000E+000
  0.000000000000000E+000
  0.000000000000000E+000
  0.000000000000000E+000
  0.000000000000000E+000
  0.000000000000000E+000
  0.000000000000000E+000
  0.000000000000000E+000
  0.000000000000000E+000
  0.000000000000000E+000
  0.000000000000000E+000
  0.000000000000000E+000
  0.000000000000000E+000
  0.000000000000000E+000
  0.000000000000000E+000
  0.000000000000000E+000
  0.000000000000000E+000
  0.000000000000000E+000
  0.000000000000000E+000
  0.000000000000000E+000
  0.000000000000000E+000
  0.000000000000000E+000
  0.000000000000000E+000
  0.000000000000000E+000
  0.000000000000000E+000
  0.000000000000000E+000
  0.000000000000000E+000
  0.000000000000000E+000
  0.000000000000000E+000
  0.000000000000000E+000
  0.000000000000000E+000
  0.000000000000000E+000
  0.000000000000000E+000
  0.000000000000000E+000
  0.000000000000000E+000
  0.000000000000000E+000
  0.000000000000000E+000
  0.000000000000000E+000
  0.000000000000000E+000
  0.000000000000000E+000
  0.000000000000000E+000
  0.000000000000000E+000
  0.000000000000000E+000
  0.000000000000000E+000
  0.000000000000000E+000
  0.000000000000000E+000
  0.000000000000000E+000
  0.000000000000000E+000
  0.000000000000000E+000
  0.000000000000000E+000
  0.000000000000000E+000
  0.000000000000000E+000
  0.000000000000000E+000
  0.000000000000000E+000
  0.000000000000000E+000
  0.000000000000000E+000
  0.000000000000000E+000
  0.000000000000000E+000
  0.000000000000000E+000
  0.000000000000000E+000
  0.000000000000000E+000
  0.000000000000000E+000
  0.000000000000000E+000
  0.000000000000000E+000
  0.000000000000000E+000
SCALARS poroL double 
LOOKUP_TABLE default
  0.197410766247656     
  0.197410766247656     
  0.197410766247656     
  0.197410766247656     
  0.197410766247656     
  0.197408814275966     
  0.197408814275966     
  0.197408814275966     
  0.197408814275966     
  0.197408814275966     
  0.197404913923133     
  0.197404913923133     
  0.197404913923133     
  0.197404913923133     
  0.197404913923133     
  0.197399072364741     
  0.197399072364741     
  0.197399072364741     
  0.197399072364741     
  0.197399072364741     
  0.197391300350389     
  0.197391300350389     
  0.197391300350389     
  0.197391300350389     
  0.197391300350389     
  0.197381612187135     
  0.197381612187135     
  0.197381612187135     
  0.197381612187135     
  0.197381612187135     
  0.197370025717380     
  0.197370025717380     
  0.197370025717380     
  0.197370025717380     
  0.197370025717380     
  0.197356562291165     
  0.197356562291165     
  0.197356562291165     
  0.197356562291165     
  0.197356562291165     
  0.197341246732852     
  0.197341246732852     
  0.197341246732852     
  0.197341246732852     
  0.197341246732852     
  0.197324107302139     
  0.197324107302139     
  0.197324107302139     
  0.197324107302139     
  0.197324107302139     
  0.197305175649374     
  0.197305175649374     
  0.197305175649374     
  0.197305175649374     
  0.197305175649374     
  0.197284486765145     
  0.197284486765145     
  0.197284486765145     
  0.197284486765145     
  0.197284486765145     
  0.197262078924091     
  0.197262078924091     
  0.197262078924091     
  0.197262078924091     
  0.197262078924091     
  0.197237993622931     
  0.197237993622931     
  0.197237993622931     
  0.197237993622931     
  0.197237993622931     
  0.197212275512675     
  0.197212275512675     
  0.197212275512675     
  0.197212275512675     
  0.197212275512675     
  0.197184972325035     
  0.197184972325035     
  0.197184972325035     
  0.197184972325035     
  0.197184972325035     
  0.197156134793024     
  0.197156134793024     
  0.197156134793024     
  0.197156134793024     
  0.197156134793024     
  0.197125816565800     
  0.197125816565800     
  0.197125816565800     
  0.197125816565800     
  0.197125816565800     
  0.197094074117774     
  0.197094074117774     
  0.197094074117774     
  0.197094074117774     
  0.197094074117774     
  0.197060966652082     
  0.197060966652082     
  0.197060966652082     
  0.197060966652082     
  0.197060966652082     
  0.197026555998492     
  0.197026555998492     
  0.197026555998492     
  0.197026555998492     
  0.197026555998492     
  0.196990906505885     
  0.196990906505885     
  0.196990906505885     
  0.196990906505885     
  0.196990906505885     
  0.196954084929438     
  0.196954084929438     
  0.196954084929438     
  0.196954084929438     
  0.196954084929438     
  0.196916160312692     
  0.196916160312692     
  0.196916160312692     
  0.196916160312692     
  0.196916160312692     
  0.196877203864708     
  0.196877203864708     
  0.196877203864708     
  0.196877203864708     
  0.196877203864708     
  0.196837288832514     
  0.196837288832514     
  0.196837288832514     
  0.196837288832514     
  0.196837288832514     
  0.196796490369114     
  0.196796490369114     
  0.196796490369114     
  0.196796490369114     
  0.196796490369114     
  0.196754885397319     
  0.196754885397319     
  0.196754885397319     
  0.196754885397319     
  0.196754885397319     
  0.196712552469700     
  0.196712552469700     
  0.196712552469700     
  0.196712552469700     
  0.196712552469700     
  0.196669571624965     
  0.196669571624965     
  0.196669571624965     
  0.196669571624965     
  0.196669571624965     
POINT_DATA        186
SCALARS solMandel double 
LOOKUP_TABLE default
   70951.7370370930     
   70951.7370370930     
   70951.7370370930     
   70951.7370370930     
   70951.7370370930     
   70951.7370370930     
   70861.0630829900     
   70861.0630829900     
   70861.0630829900     
   70861.0630829900     
   70861.0630829900     
   70861.0630829900     
   70589.2081610196     
   70589.2081610196     
   70589.2081610196     
   70589.2081610196     
   70589.2081610196     
   70589.2081610196     
   70136.6727848434     
   70136.6727848434     
   70136.6727848434     
   70136.6727848434     
   70136.6727848434     
   70136.6727848434     
   69504.2901199507     
   69504.2901199507     
   69504.2901199507     
   69504.2901199507     
   69504.2901199507     
   69504.2901199507     
   68693.2244497174     
   68693.2244497174     
   68693.2244497174     
   68693.2244497174     
   68693.2244497174     
   68693.2244497174     
   67704.9690318440     
   67704.9690318440     
   67704.9690318440     
   67704.9690318440     
   67704.9690318440     
   67704.9690318440     
   66541.3433491181     
   66541.3433491181     
   66541.3433491181     
   66541.3433491181     
   66541.3433491181     
   66541.3433491181     
   65204.4897595642     
   65204.4897595642     
   65204.4897595642     
   65204.4897595642     
   65204.4897595642     
   65204.4897595642     
   63696.8695521466     
   63696.8695521466     
   63696.8695521466     
   63696.8695521466     
   63696.8695521466     
   63696.8695521466     
   62021.2584152877     
   62021.2584152877     
   62021.2584152877     
   62021.2584152877     
   62021.2584152877     
   62021.2584152877     
   60180.7413265441     
   60180.7413265441     
   60180.7413265441     
   60180.7413265441     
   60180.7413265441     
   60180.7413265441     
   58178.7068728494     
   58178.7068728494     
   58178.7068728494     
   58178.7068728494     
   58178.7068728494     
   58178.7068728494     
   56018.8410117794     
   56018.8410117794     
   56018.8410117794     
   56018.8410117794     
   56018.8410117794     
   56018.8410117794     
   53705.1202853262     
   53705.1202853262     
   53705.1202853262     
   53705.1202853262     
   53705.1202853262     
   53705.1202853262     
   51241.8044986752     
   51241.8044986752     
   51241.8044986752     
   51241.8044986752     
   51241.8044986752     
   51241.8044986752     
   48633.4288774632     
   48633.4288774632     
   48633.4288774632     
   48633.4288774632     
   48633.4288774632     
   48633.4288774632     
   45884.7957179570     
   45884.7957179570     
   45884.7957179570     
   45884.7957179570     
   45884.7957179570     
   45884.7957179570     
   43000.9655455258     
   43000.9655455258     
   43000.9655455258     
   43000.9655455258     
   43000.9655455258     
   43000.9655455258     
   39987.2477976833     
   39987.2477976833     
   39987.2477976833     
   39987.2477976833     
   39987.2477976833     
   39987.2477976833     
   36849.1910488558     
   36849.1910488558     
   36849.1910488558     
   36849.1910488558     
   36849.1910488558     
   36849.1910488558     
   33592.5727948706     
   33592.5727948706     
   33592.5727948706     
   33592.5727948706     
   33592.5727948706     
   33592.5727948706     
   30223.3888159745     
   30223.3888159745     
   30223.3888159745     
   30223.3888159745     
   30223.3888159745     
   30223.3888159745     
   26747.8421379644     
   26747.8421379644     
   26747.8421379644     
   26747.8421379644     
   26747.8421379644     
   26747.8421379644     
   23172.3316117562     
   23172.3316117562     
   23172.3316117562     
   23172.3316117562     
   23172.3316117562     
   23172.3316117562     
   19503.4401324146     
   19503.4401324146     
   19503.4401324146     
   19503.4401324146     
   19503.4401324146     
   19503.4401324146     
   15747.9225193383     
   15747.9225193382     
   15747.9225193382     
   15747.9225193382     
   15747.9225193382     
   15747.9225193383     
   11912.6930799107     
   11912.6930799107     
   11912.6930799107     
   11912.6930799107     
   11912.6930799107     
   11912.6930799107     
   8004.81287951578     
   8004.81287951578     
   8004.81287951578     
   8004.81287951578     
   8004.81287951578     
   8004.81287951578     
   4031.47674135483     
   4031.47674135483     
   4031.47674135483     
   4031.47674135483     
   4031.47674135483     
   4031.47674135483     
  2.187126666760126E-011
  2.187126666760126E-011
  2.187126666760126E-011
  2.187126666760126E-011
  2.187126666760126E-011
  2.187126666760126E-011
