# vtk DataFile Version 3.0
vtk output
ASCII
DATASET UNSTRUCTURED_GRID
POINTS       186 double 
  0.00000000E+00  1.00000000E+01  0.00000000E+00
  0.00000000E+00  8.00000000E+00  0.00000000E+00
  0.00000000E+00  6.00000000E+00  0.00000000E+00
  0.00000000E+00  4.00000000E+00  0.00000000E+00
  0.00000000E+00  2.00000000E+00  0.00000000E+00
  0.00000000E+00  0.00000000E+00  0.00000000E+00
  3.33333333E+00  1.00000000E+01  0.00000000E+00
  3.33333333E+00  8.00000000E+00  0.00000000E+00
  3.33333333E+00  6.00000000E+00  0.00000000E+00
  3.33333333E+00  4.00000000E+00  0.00000000E+00
  3.33333333E+00  2.00000000E+00  0.00000000E+00
  3.33333333E+00  0.00000000E+00  0.00000000E+00
  6.66666667E+00  1.00000000E+01  0.00000000E+00
  6.66666667E+00  8.00000000E+00  0.00000000E+00
  6.66666667E+00  6.00000000E+00  0.00000000E+00
  6.66666667E+00  4.00000000E+00  0.00000000E+00
  6.66666667E+00  2.00000000E+00  0.00000000E+00
  6.66666667E+00  0.00000000E+00  0.00000000E+00
  1.00000000E+01  1.00000000E+01  0.00000000E+00
  1.00000000E+01  8.00000000E+00  0.00000000E+00
  1.00000000E+01  6.00000000E+00  0.00000000E+00
  1.00000000E+01  4.00000000E+00  0.00000000E+00
  1.00000000E+01  2.00000000E+00  0.00000000E+00
  1.00000000E+01  0.00000000E+00  0.00000000E+00
  1.33333333E+01  1.00000000E+01  0.00000000E+00
  1.33333333E+01  8.00000000E+00  0.00000000E+00
  1.33333333E+01  6.00000000E+00  0.00000000E+00
  1.33333333E+01  4.00000000E+00  0.00000000E+00
  1.33333333E+01  2.00000000E+00  0.00000000E+00
  1.33333333E+01  0.00000000E+00  0.00000000E+00
  1.66666667E+01  1.00000000E+01  0.00000000E+00
  1.66666667E+01  8.00000000E+00  0.00000000E+00
  1.66666667E+01  6.00000000E+00  0.00000000E+00
  1.66666667E+01  4.00000000E+00  0.00000000E+00
  1.66666667E+01  2.00000000E+00  0.00000000E+00
  1.66666667E+01  0.00000000E+00  0.00000000E+00
  2.00000000E+01  1.00000000E+01  0.00000000E+00
  2.00000000E+01  8.00000000E+00  0.00000000E+00
  2.00000000E+01  6.00000000E+00  0.00000000E+00
  2.00000000E+01  4.00000000E+00  0.00000000E+00
  2.00000000E+01  2.00000000E+00  0.00000000E+00
  2.00000000E+01  0.00000000E+00  0.00000000E+00
  2.33333333E+01  1.00000000E+01  0.00000000E+00
  2.33333333E+01  8.00000000E+00  0.00000000E+00
  2.33333333E+01  6.00000000E+00  0.00000000E+00
  2.33333333E+01  4.00000000E+00  0.00000000E+00
  2.33333333E+01  2.00000000E+00  0.00000000E+00
  2.33333333E+01  0.00000000E+00  0.00000000E+00
  2.66666667E+01  1.00000000E+01  0.00000000E+00
  2.66666667E+01  8.00000000E+00  0.00000000E+00
  2.66666667E+01  6.00000000E+00  0.00000000E+00
  2.66666667E+01  4.00000000E+00  0.00000000E+00
  2.66666667E+01  2.00000000E+00  0.00000000E+00
  2.66666667E+01  0.00000000E+00  0.00000000E+00
  3.00000000E+01  1.00000000E+01  0.00000000E+00
  3.00000000E+01  8.00000000E+00  0.00000000E+00
  3.00000000E+01  6.00000000E+00  0.00000000E+00
  3.00000000E+01  4.00000000E+00  0.00000000E+00
  3.00000000E+01  2.00000000E+00  0.00000000E+00
  3.00000000E+01  0.00000000E+00  0.00000000E+00
  3.33333333E+01  1.00000000E+01  0.00000000E+00
  3.33333333E+01  8.00000000E+00  0.00000000E+00
  3.33333333E+01  6.00000000E+00  0.00000000E+00
  3.33333333E+01  4.00000000E+00  0.00000000E+00
  3.33333333E+01  2.00000000E+00  0.00000000E+00
  3.33333333E+01  0.00000000E+00  0.00000000E+00
  3.66666667E+01  1.00000000E+01  0.00000000E+00
  3.66666667E+01  8.00000000E+00  0.00000000E+00
  3.66666667E+01  6.00000000E+00  0.00000000E+00
  3.66666667E+01  4.00000000E+00  0.00000000E+00
  3.66666667E+01  2.00000000E+00  0.00000000E+00
  3.66666667E+01  0.00000000E+00  0.00000000E+00
  4.00000000E+01  1.00000000E+01  0.00000000E+00
  4.00000000E+01  8.00000000E+00  0.00000000E+00
  4.00000000E+01  6.00000000E+00  0.00000000E+00
  4.00000000E+01  4.00000000E+00  0.00000000E+00
  4.00000000E+01  2.00000000E+00  0.00000000E+00
  4.00000000E+01  0.00000000E+00  0.00000000E+00
  4.33333333E+01  1.00000000E+01  0.00000000E+00
  4.33333333E+01  8.00000000E+00  0.00000000E+00
  4.33333333E+01  6.00000000E+00  0.00000000E+00
  4.33333333E+01  4.00000000E+00  0.00000000E+00
  4.33333333E+01  2.00000000E+00  0.00000000E+00
  4.33333333E+01  0.00000000E+00  0.00000000E+00
  4.66666667E+01  1.00000000E+01  0.00000000E+00
  4.66666667E+01  8.00000000E+00  0.00000000E+00
  4.66666667E+01  6.00000000E+00  0.00000000E+00
  4.66666667E+01  4.00000000E+00  0.00000000E+00
  4.66666667E+01  2.00000000E+00  0.00000000E+00
  4.66666667E+01  0.00000000E+00  0.00000000E+00
  5.00000000E+01  1.00000000E+01  0.00000000E+00
  5.00000000E+01  8.00000000E+00  0.00000000E+00
  5.00000000E+01  6.00000000E+00  0.00000000E+00
  5.00000000E+01  4.00000000E+00  0.00000000E+00
  5.00000000E+01  2.00000000E+00  0.00000000E+00
  5.00000000E+01  0.00000000E+00  0.00000000E+00
  5.33333333E+01  1.00000000E+01  0.00000000E+00
  5.33333333E+01  8.00000000E+00  0.00000000E+00
  5.33333333E+01  6.00000000E+00  0.00000000E+00
  5.33333333E+01  4.00000000E+00  0.00000000E+00
  5.33333333E+01  2.00000000E+00  0.00000000E+00
  5.33333333E+01  0.00000000E+00  0.00000000E+00
  5.66666667E+01  1.00000000E+01  0.00000000E+00
  5.66666667E+01  8.00000000E+00  0.00000000E+00
  5.66666667E+01  6.00000000E+00  0.00000000E+00
  5.66666667E+01  4.00000000E+00  0.00000000E+00
  5.66666667E+01  2.00000000E+00  0.00000000E+00
  5.66666667E+01  0.00000000E+00  0.00000000E+00
  6.00000000E+01  1.00000000E+01  0.00000000E+00
  6.00000000E+01  8.00000000E+00  0.00000000E+00
  6.00000000E+01  6.00000000E+00  0.00000000E+00
  6.00000000E+01  4.00000000E+00  0.00000000E+00
  6.00000000E+01  2.00000000E+00  0.00000000E+00
  6.00000000E+01  0.00000000E+00  0.00000000E+00
  6.33333333E+01  1.00000000E+01  0.00000000E+00
  6.33333333E+01  8.00000000E+00  0.00000000E+00
  6.33333333E+01  6.00000000E+00  0.00000000E+00
  6.33333333E+01  4.00000000E+00  0.00000000E+00
  6.33333333E+01  2.00000000E+00  0.00000000E+00
  6.33333333E+01  0.00000000E+00  0.00000000E+00
  6.66666667E+01  1.00000000E+01  0.00000000E+00
  6.66666667E+01  8.00000000E+00  0.00000000E+00
  6.66666667E+01  6.00000000E+00  0.00000000E+00
  6.66666667E+01  4.00000000E+00  0.00000000E+00
  6.66666667E+01  2.00000000E+00  0.00000000E+00
  6.66666667E+01  0.00000000E+00  0.00000000E+00
  7.00000000E+01  1.00000000E+01  0.00000000E+00
  7.00000000E+01  8.00000000E+00  0.00000000E+00
  7.00000000E+01  6.00000000E+00  0.00000000E+00
  7.00000000E+01  4.00000000E+00  0.00000000E+00
  7.00000000E+01  2.00000000E+00  0.00000000E+00
  7.00000000E+01  0.00000000E+00  0.00000000E+00
  7.33333333E+01  1.00000000E+01  0.00000000E+00
  7.33333333E+01  8.00000000E+00  0.00000000E+00
  7.33333333E+01  6.00000000E+00  0.00000000E+00
  7.33333333E+01  4.00000000E+00  0.00000000E+00
  7.33333333E+01  2.00000000E+00  0.00000000E+00
  7.33333333E+01  0.00000000E+00  0.00000000E+00
  7.66666667E+01  1.00000000E+01  0.00000000E+00
  7.66666667E+01  8.00000000E+00  0.00000000E+00
  7.66666667E+01  6.00000000E+00  0.00000000E+00
  7.66666667E+01  4.00000000E+00  0.00000000E+00
  7.66666667E+01  2.00000000E+00  0.00000000E+00
  7.66666667E+01  0.00000000E+00  0.00000000E+00
  8.00000000E+01  1.00000000E+01  0.00000000E+00
  8.00000000E+01  8.00000000E+00  0.00000000E+00
  8.00000000E+01  6.00000000E+00  0.00000000E+00
  8.00000000E+01  4.00000000E+00  0.00000000E+00
  8.00000000E+01  2.00000000E+00  0.00000000E+00
  8.00000000E+01  0.00000000E+00  0.00000000E+00
  8.33333333E+01  1.00000000E+01  0.00000000E+00
  8.33333333E+01  8.00000000E+00  0.00000000E+00
  8.33333333E+01  6.00000000E+00  0.00000000E+00
  8.33333333E+01  4.00000000E+00  0.00000000E+00
  8.33333333E+01  2.00000000E+00  0.00000000E+00
  8.33333333E+01  0.00000000E+00  0.00000000E+00
  8.66666667E+01  1.00000000E+01  0.00000000E+00
  8.66666667E+01  8.00000000E+00  0.00000000E+00
  8.66666667E+01  6.00000000E+00  0.00000000E+00
  8.66666667E+01  4.00000000E+00  0.00000000E+00
  8.66666667E+01  2.00000000E+00  0.00000000E+00
  8.66666667E+01  0.00000000E+00  0.00000000E+00
  9.00000000E+01  1.00000000E+01  0.00000000E+00
  9.00000000E+01  8.00000000E+00  0.00000000E+00
  9.00000000E+01  6.00000000E+00  0.00000000E+00
  9.00000000E+01  4.00000000E+00  0.00000000E+00
  9.00000000E+01  2.00000000E+00  0.00000000E+00
  9.00000000E+01  0.00000000E+00  0.00000000E+00
  9.33333333E+01  1.00000000E+01  0.00000000E+00
  9.33333333E+01  8.00000000E+00  0.00000000E+00
  9.33333333E+01  6.00000000E+00  0.00000000E+00
  9.33333333E+01  4.00000000E+00  0.00000000E+00
  9.33333333E+01  2.00000000E+00  0.00000000E+00
  9.33333333E+01  0.00000000E+00  0.00000000E+00
  9.66666667E+01  1.00000000E+01  0.00000000E+00
  9.66666667E+01  8.00000000E+00  0.00000000E+00
  9.66666667E+01  6.00000000E+00  0.00000000E+00
  9.66666667E+01  4.00000000E+00  0.00000000E+00
  9.66666667E+01  2.00000000E+00  0.00000000E+00
  9.66666667E+01  0.00000000E+00  0.00000000E+00
  1.00000000E+02  1.00000000E+01  0.00000000E+00
  1.00000000E+02  8.00000000E+00  0.00000000E+00
  1.00000000E+02  6.00000000E+00  0.00000000E+00
  1.00000000E+02  4.00000000E+00  0.00000000E+00
  1.00000000E+02  2.00000000E+00  0.00000000E+00
  1.00000000E+02  0.00000000E+00  0.00000000E+00
CELLS       150       750
         4           0           1           7           6
         4           1           2           8           7
         4           2           3           9           8
         4           3           4          10           9
         4           4           5          11          10
         4           6           7          13          12
         4           7           8          14          13
         4           8           9          15          14
         4           9          10          16          15
         4          10          11          17          16
         4          12          13          19          18
         4          13          14          20          19
         4          14          15          21          20
         4          15          16          22          21
         4          16          17          23          22
         4          18          19          25          24
         4          19          20          26          25
         4          20          21          27          26
         4          21          22          28          27
         4          22          23          29          28
         4          24          25          31          30
         4          25          26          32          31
         4          26          27          33          32
         4          27          28          34          33
         4          28          29          35          34
         4          30          31          37          36
         4          31          32          38          37
         4          32          33          39          38
         4          33          34          40          39
         4          34          35          41          40
         4          36          37          43          42
         4          37          38          44          43
         4          38          39          45          44
         4          39          40          46          45
         4          40          41          47          46
         4          42          43          49          48
         4          43          44          50          49
         4          44          45          51          50
         4          45          46          52          51
         4          46          47          53          52
         4          48          49          55          54
         4          49          50          56          55
         4          50          51          57          56
         4          51          52          58          57
         4          52          53          59          58
         4          54          55          61          60
         4          55          56          62          61
         4          56          57          63          62
         4          57          58          64          63
         4          58          59          65          64
         4          60          61          67          66
         4          61          62          68          67
         4          62          63          69          68
         4          63          64          70          69
         4          64          65          71          70
         4          66          67          73          72
         4          67          68          74          73
         4          68          69          75          74
         4          69          70          76          75
         4          70          71          77          76
         4          72          73          79          78
         4          73          74          80          79
         4          74          75          81          80
         4          75          76          82          81
         4          76          77          83          82
         4          78          79          85          84
         4          79          80          86          85
         4          80          81          87          86
         4          81          82          88          87
         4          82          83          89          88
         4          84          85          91          90
         4          85          86          92          91
         4          86          87          93          92
         4          87          88          94          93
         4          88          89          95          94
         4          90          91          97          96
         4          91          92          98          97
         4          92          93          99          98
         4          93          94         100          99
         4          94          95         101         100
         4          96          97         103         102
         4          97          98         104         103
         4          98          99         105         104
         4          99         100         106         105
         4         100         101         107         106
         4         102         103         109         108
         4         103         104         110         109
         4         104         105         111         110
         4         105         106         112         111
         4         106         107         113         112
         4         108         109         115         114
         4         109         110         116         115
         4         110         111         117         116
         4         111         112         118         117
         4         112         113         119         118
         4         114         115         121         120
         4         115         116         122         121
         4         116         117         123         122
         4         117         118         124         123
         4         118         119         125         124
         4         120         121         127         126
         4         121         122         128         127
         4         122         123         129         128
         4         123         124         130         129
         4         124         125         131         130
         4         126         127         133         132
         4         127         128         134         133
         4         128         129         135         134
         4         129         130         136         135
         4         130         131         137         136
         4         132         133         139         138
         4         133         134         140         139
         4         134         135         141         140
         4         135         136         142         141
         4         136         137         143         142
         4         138         139         145         144
         4         139         140         146         145
         4         140         141         147         146
         4         141         142         148         147
         4         142         143         149         148
         4         144         145         151         150
         4         145         146         152         151
         4         146         147         153         152
         4         147         148         154         153
         4         148         149         155         154
         4         150         151         157         156
         4         151         152         158         157
         4         152         153         159         158
         4         153         154         160         159
         4         154         155         161         160
         4         156         157         163         162
         4         157         158         164         163
         4         158         159         165         164
         4         159         160         166         165
         4         160         161         167         166
         4         162         163         169         168
         4         163         164         170         169
         4         164         165         171         170
         4         165         166         172         171
         4         166         167         173         172
         4         168         169         175         174
         4         169         170         176         175
         4         170         171         177         176
         4         171         172         178         177
         4         172         173         179         178
         4         174         175         181         180
         4         175         176         182         181
         4         176         177         183         182
         4         177         178         184         183
         4         178         179         185         184
CELL_TYPES        150
9
9
9
9
9
9
9
9
9
9
9
9
9
9
9
9
9
9
9
9
9
9
9
9
9
9
9
9
9
9
9
9
9
9
9
9
9
9
9
9
9
9
9
9
9
9
9
9
9
9
9
9
9
9
9
9
9
9
9
9
9
9
9
9
9
9
9
9
9
9
9
9
9
9
9
9
9
9
9
9
9
9
9
9
9
9
9
9
9
9
9
9
9
9
9
9
9
9
9
9
9
9
9
9
9
9
9
9
9
9
9
9
9
9
9
9
9
9
9
9
9
9
9
9
9
9
9
9
9
9
9
9
9
9
9
9
9
9
9
9
9
9
9
9
9
9
9
9
9
9
POINT_DATA       186
SCALARS p double 
LOOKUP_TABLE default
   260612.009312361     
   260612.009312361     
   260612.009312361     
   260612.009312361     
   260612.009312361     
   260612.009312361     
   260612.005775001     
   260612.005775001     
   260612.005775001     
   260612.005775001     
   260612.005775001     
   260612.005775001     
   260611.993170203     
   260611.993170203     
   260611.993170202     
   260611.993170203     
   260611.993170203     
   260611.993170203     
   260611.964452405     
   260611.964452406     
   260611.964452406     
   260611.964452405     
   260611.964452406     
   260611.964452405     
   260611.903784498     
   260611.903784498     
   260611.903784498     
   260611.903784498     
   260611.903784498     
   260611.903784498     
   260611.778270842     
   260611.778270842     
   260611.778270842     
   260611.778270842     
   260611.778270842     
   260611.778270842     
   260611.521141261     
   260611.521141261     
   260611.521141261     
   260611.521141261     
   260611.521141261     
   260611.521141261     
   260610.998427649     
   260610.998427649     
   260610.998427649     
   260610.998427649     
   260610.998427649     
   260610.998427649     
   260609.943860017     
   260609.943860017     
   260609.943860017     
   260609.943860017     
   260609.943860017     
   260609.943860017     
   260607.833211790     
   260607.833211790     
   260607.833211790     
   260607.833211790     
   260607.833211790     
   260607.833211790     
   260603.644818358     
   260603.644818358     
   260603.644818358     
   260603.644818358     
   260603.644818358     
   260603.644818358     
   260595.409424976     
   260595.409424975     
   260595.409424975     
   260595.409424975     
   260595.409424975     
   260595.409424975     
   260579.377022654     
   260579.377022654     
   260579.377022655     
   260579.377022655     
   260579.377022655     
   260579.377022655     
   260548.501546303     
   260548.501546303     
   260548.501546303     
   260548.501546304     
   260548.501546304     
   260548.501546304     
   260489.739652948     
   260489.739652948     
   260489.739652948     
   260489.739652948     
   260489.739652948     
   260489.739652948     
   260379.346191679     
   260379.346191679     
   260379.346191679     
   260379.346191679     
   260379.346191679     
   260379.346191679     
   260174.902333357     
   260174.902333357     
   260174.902333357     
   260174.902333357     
   260174.902333357     
   260174.902333357     
   259802.245198541     
   259802.245198541     
   259802.245198541     
   259802.245198541     
   259802.245198541     
   259802.245198540     
   259134.891117092     
   259134.891117092     
   259134.891117092     
   259134.891117092     
   259134.891117092     
   259134.891117092     
   257963.275552856     
   257963.275552856     
   257963.275552856     
   257963.275552856     
   257963.275552856     
   257963.275552856     
   255951.846562534     
   255951.846562534     
   255951.846562534     
   255951.846562534     
   255951.846562534     
   255951.846562534     
   252584.915051421     
   252584.915051421     
   252584.915051421     
   252584.915051421     
   252584.915051421     
   252584.915051421     
   247108.775649007     
   247108.775649007     
   247108.775649007     
   247108.775649007     
   247108.775649007     
   247108.775649007     
   238489.287992186     
   238489.287992186     
   238489.287992186     
   238489.287992186     
   238489.287992186     
   238489.287992186     
   225419.997957873     
   225419.997957873     
   225419.997957873     
   225419.997957872     
   225419.997957872     
   225419.997957872     
   206429.609665894     
   206429.609665894     
   206429.609665894     
   206429.609665894     
   206429.609665894     
   206429.609665893     
   180134.179687534     
   180134.179687534     
   180134.179687534     
   180134.179687534     
   180134.179687534     
   180134.179687534     
   145638.044173747     
   145638.044173747     
   145638.044173747     
   145638.044173747     
   145638.044173747     
   145638.044173747     
   102999.120449969     
   102999.120449969     
   102999.120449969     
   102999.120449969     
   102999.120449969     
   102999.120449968     
   53571.0724418986     
   53571.0724418985     
   53571.0724418986     
   53571.0724418983     
   53571.0724418982     
   53571.0724418980     
  0.000000000000000E+000
  0.000000000000000E+000
  0.000000000000000E+000
  0.000000000000000E+000
  0.000000000000000E+000
  0.000000000000000E+000
VECTORS u double 
    0.00000E+00        -0.31275E-01         0.00000E+00
    0.00000E+00        -0.25020E-01         0.00000E+00
    0.00000E+00        -0.18765E-01         0.00000E+00
    0.00000E+00        -0.12510E-01         0.00000E+00
    0.00000E+00        -0.62549E-02         0.00000E+00
    0.00000E+00         0.00000E+00         0.00000E+00
    0.10425E-01        -0.31275E-01         0.00000E+00
    0.10425E-01        -0.25020E-01         0.00000E+00
    0.10425E-01        -0.18765E-01         0.00000E+00
    0.10425E-01        -0.12510E-01         0.00000E+00
    0.10425E-01        -0.62549E-02         0.00000E+00
    0.10425E-01         0.00000E+00         0.00000E+00
    0.20849E-01        -0.31275E-01         0.00000E+00
    0.20849E-01        -0.25020E-01         0.00000E+00
    0.20849E-01        -0.18765E-01         0.00000E+00
    0.20849E-01        -0.12510E-01         0.00000E+00
    0.20849E-01        -0.62549E-02         0.00000E+00
    0.20849E-01         0.00000E+00         0.00000E+00
    0.31274E-01        -0.31275E-01         0.00000E+00
    0.31274E-01        -0.25020E-01         0.00000E+00
    0.31274E-01        -0.18765E-01         0.00000E+00
    0.31274E-01        -0.12510E-01         0.00000E+00
    0.31274E-01        -0.62549E-02         0.00000E+00
    0.31274E-01         0.00000E+00         0.00000E+00
    0.41698E-01        -0.31275E-01         0.00000E+00
    0.41698E-01        -0.25020E-01         0.00000E+00
    0.41698E-01        -0.18765E-01         0.00000E+00
    0.41698E-01        -0.12510E-01         0.00000E+00
    0.41698E-01        -0.62549E-02         0.00000E+00
    0.41698E-01         0.00000E+00         0.00000E+00
    0.52123E-01        -0.31275E-01         0.00000E+00
    0.52123E-01        -0.25020E-01         0.00000E+00
    0.52123E-01        -0.18765E-01         0.00000E+00
    0.52123E-01        -0.12510E-01         0.00000E+00
    0.52123E-01        -0.62549E-02         0.00000E+00
    0.52123E-01         0.00000E+00         0.00000E+00
    0.62547E-01        -0.31275E-01         0.00000E+00
    0.62547E-01        -0.25020E-01         0.00000E+00
    0.62547E-01        -0.18765E-01         0.00000E+00
    0.62547E-01        -0.12510E-01         0.00000E+00
    0.62547E-01        -0.62549E-02         0.00000E+00
    0.62547E-01         0.00000E+00         0.00000E+00
    0.72972E-01        -0.31275E-01         0.00000E+00
    0.72972E-01        -0.25020E-01         0.00000E+00
    0.72972E-01        -0.18765E-01         0.00000E+00
    0.72972E-01        -0.12510E-01         0.00000E+00
    0.72972E-01        -0.62549E-02         0.00000E+00
    0.72972E-01         0.00000E+00         0.00000E+00
    0.83397E-01        -0.31275E-01         0.00000E+00
    0.83397E-01        -0.25020E-01         0.00000E+00
    0.83397E-01        -0.18765E-01         0.00000E+00
    0.83397E-01        -0.12510E-01         0.00000E+00
    0.83397E-01        -0.62549E-02         0.00000E+00
    0.83397E-01         0.00000E+00         0.00000E+00
    0.93821E-01        -0.31275E-01         0.00000E+00
    0.93821E-01        -0.25020E-01         0.00000E+00
    0.93821E-01        -0.18765E-01         0.00000E+00
    0.93821E-01        -0.12510E-01         0.00000E+00
    0.93821E-01        -0.62549E-02         0.00000E+00
    0.93821E-01         0.00000E+00         0.00000E+00
    0.10425E+00        -0.31275E-01         0.00000E+00
    0.10425E+00        -0.25020E-01         0.00000E+00
    0.10425E+00        -0.18765E-01         0.00000E+00
    0.10425E+00        -0.12510E-01         0.00000E+00
    0.10425E+00        -0.62549E-02         0.00000E+00
    0.10425E+00         0.00000E+00         0.00000E+00
    0.11467E+00        -0.31275E-01         0.00000E+00
    0.11467E+00        -0.25020E-01         0.00000E+00
    0.11467E+00        -0.18765E-01         0.00000E+00
    0.11467E+00        -0.12510E-01         0.00000E+00
    0.11467E+00        -0.62549E-02         0.00000E+00
    0.11467E+00         0.00000E+00         0.00000E+00
    0.12509E+00        -0.31275E-01         0.00000E+00
    0.12509E+00        -0.25020E-01         0.00000E+00
    0.12509E+00        -0.18765E-01         0.00000E+00
    0.12509E+00        -0.12510E-01         0.00000E+00
    0.12509E+00        -0.62549E-02         0.00000E+00
    0.12509E+00         0.00000E+00         0.00000E+00
    0.13552E+00        -0.31275E-01         0.00000E+00
    0.13552E+00        -0.25020E-01         0.00000E+00
    0.13552E+00        -0.18765E-01         0.00000E+00
    0.13552E+00        -0.12510E-01         0.00000E+00
    0.13552E+00        -0.62549E-02         0.00000E+00
    0.13552E+00         0.00000E+00         0.00000E+00
    0.14594E+00        -0.31275E-01         0.00000E+00
    0.14594E+00        -0.25020E-01         0.00000E+00
    0.14594E+00        -0.18765E-01         0.00000E+00
    0.14594E+00        -0.12510E-01         0.00000E+00
    0.14594E+00        -0.62549E-02         0.00000E+00
    0.14594E+00         0.00000E+00         0.00000E+00
    0.15636E+00        -0.31275E-01         0.00000E+00
    0.15636E+00        -0.25020E-01         0.00000E+00
    0.15636E+00        -0.18765E-01         0.00000E+00
    0.15636E+00        -0.12510E-01         0.00000E+00
    0.15636E+00        -0.62549E-02         0.00000E+00
    0.15636E+00         0.00000E+00         0.00000E+00
    0.16677E+00        -0.31275E-01         0.00000E+00
    0.16677E+00        -0.25020E-01         0.00000E+00
    0.16677E+00        -0.18765E-01         0.00000E+00
    0.16677E+00        -0.12510E-01         0.00000E+00
    0.16677E+00        -0.62549E-02         0.00000E+00
    0.16677E+00         0.00000E+00         0.00000E+00
    0.17718E+00        -0.31275E-01         0.00000E+00
    0.17718E+00        -0.25020E-01         0.00000E+00
    0.17718E+00        -0.18765E-01         0.00000E+00
    0.17718E+00        -0.12510E-01         0.00000E+00
    0.17718E+00        -0.62549E-02         0.00000E+00
    0.17718E+00         0.00000E+00         0.00000E+00
    0.18757E+00        -0.31275E-01         0.00000E+00
    0.18757E+00        -0.25020E-01         0.00000E+00
    0.18757E+00        -0.18765E-01         0.00000E+00
    0.18757E+00        -0.12510E-01         0.00000E+00
    0.18757E+00        -0.62549E-02         0.00000E+00
    0.18757E+00         0.00000E+00         0.00000E+00
    0.19793E+00        -0.31275E-01         0.00000E+00
    0.19793E+00        -0.25020E-01         0.00000E+00
    0.19793E+00        -0.18765E-01         0.00000E+00
    0.19793E+00        -0.12510E-01         0.00000E+00
    0.19793E+00        -0.62549E-02         0.00000E+00
    0.19793E+00         0.00000E+00         0.00000E+00
    0.20825E+00        -0.31275E-01         0.00000E+00
    0.20825E+00        -0.25020E-01         0.00000E+00
    0.20825E+00        -0.18765E-01         0.00000E+00
    0.20825E+00        -0.12510E-01         0.00000E+00
    0.20825E+00        -0.62549E-02         0.00000E+00
    0.20825E+00         0.00000E+00         0.00000E+00
    0.21848E+00        -0.31275E-01         0.00000E+00
    0.21848E+00        -0.25020E-01         0.00000E+00
    0.21848E+00        -0.18765E-01         0.00000E+00
    0.21848E+00        -0.12510E-01         0.00000E+00
    0.21848E+00        -0.62549E-02         0.00000E+00
    0.21848E+00         0.00000E+00         0.00000E+00
    0.22858E+00        -0.31275E-01         0.00000E+00
    0.22858E+00        -0.25020E-01         0.00000E+00
    0.22858E+00        -0.18765E-01         0.00000E+00
    0.22858E+00        -0.12510E-01         0.00000E+00
    0.22858E+00        -0.62549E-02         0.00000E+00
    0.22858E+00         0.00000E+00         0.00000E+00
    0.23847E+00        -0.31275E-01         0.00000E+00
    0.23847E+00        -0.25020E-01         0.00000E+00
    0.23847E+00        -0.18765E-01         0.00000E+00
    0.23847E+00        -0.12510E-01         0.00000E+00
    0.23847E+00        -0.62549E-02         0.00000E+00
    0.23847E+00         0.00000E+00         0.00000E+00
    0.24804E+00        -0.31275E-01         0.00000E+00
    0.24804E+00        -0.25020E-01         0.00000E+00
    0.24804E+00        -0.18765E-01         0.00000E+00
    0.24804E+00        -0.12510E-01         0.00000E+00
    0.24804E+00        -0.62549E-02         0.00000E+00
    0.24804E+00         0.00000E+00         0.00000E+00
    0.25712E+00        -0.31275E-01         0.00000E+00
    0.25712E+00        -0.25020E-01         0.00000E+00
    0.25712E+00        -0.18765E-01         0.00000E+00
    0.25712E+00        -0.12510E-01         0.00000E+00
    0.25712E+00        -0.62549E-02         0.00000E+00
    0.25712E+00         0.00000E+00         0.00000E+00
    0.26553E+00        -0.31275E-01         0.00000E+00
    0.26553E+00        -0.25020E-01         0.00000E+00
    0.26553E+00        -0.18765E-01         0.00000E+00
    0.26553E+00        -0.12510E-01         0.00000E+00
    0.26553E+00        -0.62549E-02         0.00000E+00
    0.26553E+00         0.00000E+00         0.00000E+00
    0.27302E+00        -0.31275E-01         0.00000E+00
    0.27302E+00        -0.25020E-01         0.00000E+00
    0.27302E+00        -0.18765E-01         0.00000E+00
    0.27302E+00        -0.12510E-01         0.00000E+00
    0.27302E+00        -0.62549E-02         0.00000E+00
    0.27302E+00         0.00000E+00         0.00000E+00
    0.27935E+00        -0.31275E-01         0.00000E+00
    0.27935E+00        -0.25020E-01         0.00000E+00
    0.27935E+00        -0.18765E-01         0.00000E+00
    0.27935E+00        -0.12510E-01         0.00000E+00
    0.27935E+00        -0.62549E-02         0.00000E+00
    0.27935E+00         0.00000E+00         0.00000E+00
    0.28431E+00        -0.31275E-01         0.00000E+00
    0.28431E+00        -0.25020E-01         0.00000E+00
    0.28431E+00        -0.18765E-01         0.00000E+00
    0.28431E+00        -0.12510E-01         0.00000E+00
    0.28431E+00        -0.62549E-02         0.00000E+00
    0.28431E+00         0.00000E+00         0.00000E+00
    0.28772E+00        -0.31275E-01         0.00000E+00
    0.28772E+00        -0.25020E-01         0.00000E+00
    0.28772E+00        -0.18765E-01         0.00000E+00
    0.28772E+00        -0.12510E-01         0.00000E+00
    0.28772E+00        -0.62549E-02         0.00000E+00
    0.28772E+00         0.00000E+00         0.00000E+00
CELL_DATA        150
VECTORS vDarcy double 
    0.10612E-12         0.16371E-20         0.00000E+00
    0.10612E-12         0.12733E-20         0.00000E+00
    0.10612E-12        -0.12733E-20         0.00000E+00
    0.10612E-12        -0.20009E-20         0.00000E+00
    0.10612E-12         0.72760E-21         0.00000E+00
    0.37814E-12        -0.18190E-21         0.00000E+00
    0.37814E-12         0.18190E-20         0.00000E+00
    0.37814E-12         0.27285E-20         0.00000E+00
    0.37814E-12        -0.47294E-20         0.00000E+00
    0.37814E-12        -0.90949E-21         0.00000E+00
    0.86153E-12         0.23647E-20         0.00000E+00
    0.86153E-12        -0.18190E-20         0.00000E+00
    0.86153E-12         0.21828E-20         0.00000E+00
    0.86153E-12        -0.54570E-21         0.00000E+00
    0.86153E-12        -0.23647E-20         0.00000E+00
    0.18200E-11         0.36380E-20         0.00000E+00
    0.18200E-11         0.00000E+00         0.00000E+00
    0.18200E-11        -0.36380E-21         0.00000E+00
    0.18200E-11         0.25466E-20         0.00000E+00
    0.18200E-11        -0.54570E-20         0.00000E+00
    0.37654E-11         0.90949E-21         0.00000E+00
    0.37654E-11         0.90949E-21         0.00000E+00
    0.37654E-11         0.40018E-20         0.00000E+00
    0.37654E-11         0.18190E-20         0.00000E+00
    0.37654E-11        -0.32742E-20         0.00000E+00
    0.77139E-11         0.27285E-20         0.00000E+00
    0.77139E-11         0.72760E-21         0.00000E+00
    0.77139E-11         0.32742E-20         0.00000E+00
    0.77139E-11        -0.10914E-20         0.00000E+00
    0.77139E-11         0.18190E-20         0.00000E+00
    0.15681E-10         0.21828E-20         0.00000E+00
    0.15681E-10         0.29104E-20         0.00000E+00
    0.15681E-10         0.10914E-20         0.00000E+00
    0.15681E-10         0.21828E-20         0.00000E+00
    0.15681E-10         0.54570E-21         0.00000E+00
    0.31637E-10         0.27285E-20         0.00000E+00
    0.31637E-10         0.34561E-20         0.00000E+00
    0.31637E-10         0.36380E-21         0.00000E+00
    0.31637E-10         0.10914E-20         0.00000E+00
    0.31637E-10        -0.90949E-21         0.00000E+00
    0.63319E-10         0.10914E-20         0.00000E+00
    0.63319E-10         0.42746E-20         0.00000E+00
    0.63319E-10         0.15461E-20         0.00000E+00
    0.63319E-10        -0.10914E-20         0.00000E+00
    0.63319E-10        -0.43656E-20         0.00000E+00
    0.12565E-09        -0.18190E-21         0.00000E+00
    0.12565E-09         0.25466E-20         0.00000E+00
    0.12565E-09         0.36380E-21         0.00000E+00
    0.12565E-09        -0.19099E-20         0.00000E+00
    0.12565E-09        -0.11823E-20         0.00000E+00
    0.24706E-09         0.54570E-21         0.00000E+00
    0.24706E-09        -0.25466E-20         0.00000E+00
    0.24706E-09        -0.10914E-20         0.00000E+00
    0.24706E-09        -0.54570E-20         0.00000E+00
    0.24706E-09         0.41837E-20         0.00000E+00
    0.48097E-09         0.18190E-20         0.00000E+00
    0.48097E-09         0.54570E-21         0.00000E+00
    0.48097E-09        -0.21828E-20         0.00000E+00
    0.48097E-09        -0.54570E-21         0.00000E+00
    0.48097E-09         0.45475E-20         0.00000E+00
    0.92626E-09         0.11823E-20         0.00000E+00
    0.92626E-09         0.56389E-20         0.00000E+00
    0.92626E-09         0.21828E-20         0.00000E+00
    0.92626E-09         0.69122E-20         0.00000E+00
    0.92626E-09         0.49113E-20         0.00000E+00
    0.17629E-08         0.10004E-20         0.00000E+00
    0.17629E-08         0.12733E-20         0.00000E+00
    0.17629E-08         0.47294E-20         0.00000E+00
    0.17629E-08         0.16371E-20         0.00000E+00
    0.17629E-08         0.40927E-20         0.00000E+00
    0.33118E-08         0.18190E-21         0.00000E+00
    0.33118E-08         0.36380E-21         0.00000E+00
    0.33118E-08        -0.25466E-20         0.00000E+00
    0.33118E-08        -0.58208E-20         0.00000E+00
    0.33118E-08        -0.14552E-20         0.00000E+00
    0.61333E-08        -0.15461E-20         0.00000E+00
    0.61333E-08         0.72760E-21         0.00000E+00
    0.61333E-08        -0.70941E-20         0.00000E+00
    0.61333E-08        -0.76398E-20         0.00000E+00
    0.61333E-08        -0.27285E-20         0.00000E+00
    0.11180E-07        -0.18190E-21         0.00000E+00
    0.11180E-07        -0.28194E-20         0.00000E+00
    0.11180E-07        -0.41837E-20         0.00000E+00
    0.11180E-07        -0.49113E-20         0.00000E+00
    0.11180E-07        -0.10914E-20         0.00000E+00
    0.20021E-07         0.18190E-21         0.00000E+00
    0.20021E-07        -0.29104E-20         0.00000E+00
    0.20021E-07        -0.54570E-21         0.00000E+00
    0.20021E-07        -0.20918E-20         0.00000E+00
    0.20021E-07        -0.72760E-21         0.00000E+00
    0.35148E-07         0.10914E-20         0.00000E+00
    0.35148E-07        -0.34561E-20         0.00000E+00
    0.35148E-07        -0.44565E-20         0.00000E+00
    0.35148E-07        -0.44565E-20         0.00000E+00
    0.35148E-07        -0.18190E-21         0.00000E+00
    0.60343E-07         0.14552E-20         0.00000E+00
    0.60343E-07        -0.30923E-20         0.00000E+00
    0.60343E-07        -0.43656E-20         0.00000E+00
    0.60343E-07        -0.48203E-20         0.00000E+00
    0.60343E-07        -0.10914E-20         0.00000E+00
    0.10101E-06         0.90949E-21         0.00000E+00
    0.10101E-06         0.18190E-21         0.00000E+00
    0.10101E-06        -0.72760E-21         0.00000E+00
    0.10101E-06        -0.61846E-20         0.00000E+00
    0.10101E-06        -0.90949E-21         0.00000E+00
    0.16428E-06         0.25466E-20         0.00000E+00
    0.16428E-06        -0.18190E-20         0.00000E+00
    0.16428E-06        -0.46384E-20         0.00000E+00
    0.16428E-06        -0.24556E-20         0.00000E+00
    0.16428E-06        -0.20009E-20         0.00000E+00
    0.25858E-06        -0.36380E-21         0.00000E+00
    0.25858E-06        -0.69122E-20         0.00000E+00
    0.25858E-06        -0.65484E-20         0.00000E+00
    0.25858E-06        -0.72760E-20         0.00000E+00
    0.25858E-06        -0.30923E-20         0.00000E+00
    0.39208E-06        -0.36380E-21         0.00000E+00
    0.39208E-06        -0.87311E-20         0.00000E+00
    0.39208E-06        -0.12187E-19         0.00000E+00
    0.39208E-06        -0.14734E-19         0.00000E+00
    0.39208E-06        -0.43656E-20         0.00000E+00
    0.56971E-06         0.15461E-20         0.00000E+00
    0.56971E-06        -0.72760E-20         0.00000E+00
    0.56971E-06        -0.13915E-19         0.00000E+00
    0.56971E-06        -0.15098E-19         0.00000E+00
    0.56971E-06        -0.69122E-20         0.00000E+00
    0.78886E-06        -0.56424E-37         0.00000E+00
    0.78886E-06        -0.52751E-20         0.00000E+00
    0.78886E-06        -0.65484E-20         0.00000E+00
    0.78886E-06        -0.92768E-20         0.00000E+00
    0.78886E-06        -0.25466E-20         0.00000E+00
    0.10349E-05        -0.23647E-20         0.00000E+00
    0.10349E-05        -0.90949E-22         0.00000E+00
    0.10349E-05        -0.37289E-20         0.00000E+00
    0.10349E-05        -0.33651E-20         0.00000E+00
    0.10349E-05        -0.17280E-20         0.00000E+00
    0.12792E-05        -0.50932E-20         0.00000E+00
    0.12792E-05        -0.90949E-21         0.00000E+00
    0.12792E-05        -0.60936E-20         0.00000E+00
    0.12792E-05        -0.89130E-20         0.00000E+00
    0.12792E-05        -0.75033E-20         0.00000E+00
    0.14828E-05        -0.30923E-20         0.00000E+00
    0.14828E-05        -0.13642E-20         0.00000E+00
    0.14828E-05        -0.11096E-19         0.00000E+00
    0.14828E-05        -0.11505E-19         0.00000E+00
    0.14828E-05        -0.10414E-19         0.00000E+00
    0.16071E-05         0.62300E-20         0.00000E+00
    0.16071E-05        -0.59799E-20         0.00000E+00
    0.16071E-05         0.11369E-20         0.00000E+00
    0.16071E-05        -0.10823E-19         0.00000E+00
    0.16071E-05        -0.53205E-20         0.00000E+00
POINT_DATA        186
VECTORS vDarcyNodal double 
    0.10612E-12         0.00000E+00         0.00000E+00
    0.10612E-12         0.00000E+00         0.00000E+00
    0.10612E-12        -0.21828E-20         0.00000E+00
    0.10612E-12        -0.14552E-20         0.00000E+00
    0.10612E-12         0.72760E-21         0.00000E+00
    0.10612E-12         0.00000E+00         0.00000E+00
    0.24213E-12         0.29104E-20         0.00000E+00
    0.24213E-12         0.26168E-20         0.00000E+00
    0.24213E-12         0.14552E-20         0.00000E+00
    0.24213E-12        -0.26168E-20         0.00000E+00
    0.24213E-12        -0.21828E-20         0.00000E+00
    0.24213E-12         0.14552E-20         0.00000E+00
    0.61984E-12        -0.29104E-20         0.00000E+00
    0.61984E-12        -0.27700E-20         0.00000E+00
    0.61984E-12         0.29104E-20         0.00000E+00
    0.61984E-12         0.27700E-20         0.00000E+00
    0.61984E-12        -0.29104E-20         0.00000E+00
    0.61984E-12        -0.29104E-20         0.00000E+00
    0.13408E-11         0.72760E-20         0.00000E+00
    0.13408E-11         0.36380E-20         0.00000E+00
    0.13408E-11        -0.14552E-20         0.00000E+00
    0.13408E-11        -0.72760E-21         0.00000E+00
    0.13408E-11         0.00000E+00         0.00000E+00
    0.13408E-11        -0.14552E-20         0.00000E+00
    0.27927E-11         0.00000E+00         0.00000E+00
    0.27927E-11        -0.44676E-21         0.00000E+00
    0.27927E-11         0.14552E-20         0.00000E+00
    0.27927E-11         0.33571E-20         0.00000E+00
    0.27927E-11        -0.29104E-20         0.00000E+00
    0.27927E-11        -0.87311E-20         0.00000E+00
    0.57396E-11         0.14552E-20         0.00000E+00
    0.57396E-11         0.21828E-20         0.00000E+00
    0.57396E-11         0.29104E-20         0.00000E+00
    0.57396E-11         0.12893E-20         0.00000E+00
    0.57396E-11         0.14552E-20         0.00000E+00
    0.57396E-11         0.32423E-20         0.00000E+00
    0.11698E-10         0.43656E-20         0.00000E+00
    0.11698E-10         0.21828E-20         0.00000E+00
    0.11698E-10         0.21828E-20         0.00000E+00
    0.11698E-10         0.72760E-21         0.00000E+00
    0.11698E-10        -0.72760E-21         0.00000E+00
    0.11698E-10         0.14552E-20         0.00000E+00
    0.23659E-10         0.00000E+00         0.00000E+00
    0.23659E-10         0.29104E-20         0.00000E+00
    0.23659E-10         0.14552E-20         0.00000E+00
    0.23659E-10         0.21828E-20         0.00000E+00
    0.23659E-10         0.29104E-20         0.00000E+00
    0.23659E-10        -0.14552E-20         0.00000E+00
    0.47478E-10         0.43656E-20         0.00000E+00
    0.47478E-10         0.34720E-20         0.00000E+00
    0.47478E-10         0.29104E-20         0.00000E+00
    0.47478E-10         0.16599E-21         0.00000E+00
    0.47478E-10        -0.21828E-20         0.00000E+00
    0.47478E-10        -0.14552E-20         0.00000E+00
    0.94486E-10        -0.25783E-20         0.00000E+00
    0.94486E-10         0.14552E-20         0.00000E+00
    0.94486E-10         0.29104E-20         0.00000E+00
    0.94486E-10         0.72760E-21         0.00000E+00
    0.94486E-10        -0.30764E-20         0.00000E+00
    0.94486E-10        -0.72760E-20         0.00000E+00
    0.18636E-09         0.14552E-20         0.00000E+00
    0.18636E-09         0.72760E-21         0.00000E+00
    0.18636E-09         0.00000E+00         0.00000E+00
    0.18636E-09        -0.32427E-20         0.00000E+00
    0.18636E-09        -0.72760E-21         0.00000E+00
    0.18636E-09         0.50302E-20         0.00000E+00
    0.36402E-09        -0.14552E-20         0.00000E+00
    0.36402E-09        -0.29104E-20         0.00000E+00
    0.36402E-09        -0.36380E-20         0.00000E+00
    0.36402E-09        -0.29104E-20         0.00000E+00
    0.36402E-09        -0.72760E-21         0.00000E+00
    0.36402E-09         0.14552E-20         0.00000E+00
    0.70362E-09         0.29104E-20         0.00000E+00
    0.70362E-09         0.43656E-20         0.00000E+00
    0.70362E-09         0.21828E-20         0.00000E+00
    0.70362E-09         0.72760E-21         0.00000E+00
    0.70362E-09         0.50932E-20         0.00000E+00
    0.70362E-09         0.72760E-20         0.00000E+00
    0.13446E-08        -0.22401E-20         0.00000E+00
    0.13446E-08         0.17903E-20         0.00000E+00
    0.13446E-08         0.58208E-20         0.00000E+00
    0.13446E-08         0.87311E-20         0.00000E+00
    0.13446E-08         0.62132E-20         0.00000E+00
    0.13446E-08         0.36953E-20         0.00000E+00
    0.25373E-08         0.29104E-20         0.00000E+00
    0.25373E-08         0.00000E+00         0.00000E+00
    0.25373E-08         0.00000E+00         0.00000E+00
    0.25373E-08        -0.14552E-20         0.00000E+00
    0.25373E-08        -0.14552E-20         0.00000E+00
    0.25373E-08         0.29104E-20         0.00000E+00
    0.47226E-08        -0.36786E-20         0.00000E+00
    0.47226E-08         0.72760E-21         0.00000E+00
    0.47226E-08        -0.21828E-20         0.00000E+00
    0.47226E-08        -0.65484E-20         0.00000E+00
    0.47226E-08        -0.54367E-20         0.00000E+00
    0.47226E-08        -0.72760E-20         0.00000E+00
    0.86565E-08         0.00000E+00         0.00000E+00
    0.86565E-08        -0.18086E-20         0.00000E+00
    0.86565E-08        -0.43656E-20         0.00000E+00
    0.86565E-08        -0.83777E-20         0.00000E+00
    0.86565E-08        -0.50932E-20         0.00000E+00
    0.86565E-08         0.14552E-20         0.00000E+00
    0.15600E-07        -0.14552E-20         0.00000E+00
    0.15600E-07        -0.21828E-20         0.00000E+00
    0.15600E-07        -0.21828E-20         0.00000E+00
    0.15600E-07         0.00000E+00         0.00000E+00
    0.15600E-07        -0.14552E-20         0.00000E+00
    0.15600E-07        -0.43656E-20         0.00000E+00
    0.27585E-07        -0.65032E-21         0.00000E+00
    0.27585E-07        -0.72760E-21         0.00000E+00
    0.27585E-07        -0.72760E-21         0.00000E+00
    0.27585E-07        -0.21828E-20         0.00000E+00
    0.27585E-07        -0.11300E-20         0.00000E+00
    0.27585E-07         0.14552E-20         0.00000E+00
    0.47746E-07         0.29104E-20         0.00000E+00
    0.47746E-07        -0.19112E-20         0.00000E+00
    0.47746E-07        -0.70044E-20         0.00000E+00
    0.47746E-07        -0.68199E-20         0.00000E+00
    0.47746E-07        -0.24544E-20         0.00000E+00
    0.47746E-07        -0.14552E-20         0.00000E+00
    0.80675E-07         0.00000E+00         0.00000E+00
    0.80675E-07         0.00000E+00         0.00000E+00
    0.80675E-07         0.00000E+00         0.00000E+00
    0.80675E-07        -0.32743E-20         0.00000E+00
    0.80675E-07        -0.36380E-20         0.00000E+00
    0.80675E-07        -0.72741E-21         0.00000E+00
    0.13265E-06         0.14552E-20         0.00000E+00
    0.13265E-06         0.14552E-20         0.00000E+00
    0.13265E-06        -0.43568E-21         0.00000E+00
    0.13265E-06        -0.36380E-20         0.00000E+00
    0.13265E-06        -0.32023E-20         0.00000E+00
    0.13265E-06        -0.14552E-20         0.00000E+00
    0.21143E-06         0.29104E-20         0.00000E+00
    0.21143E-06         0.00000E+00         0.00000E+00
    0.21143E-06        -0.58208E-20         0.00000E+00
    0.21143E-06        -0.43656E-20         0.00000E+00
    0.21143E-06        -0.21828E-20         0.00000E+00
    0.21143E-06        -0.43656E-20         0.00000E+00
    0.32533E-06        -0.43656E-20         0.00000E+00
    0.32533E-06        -0.72760E-20         0.00000E+00
    0.32533E-06        -0.80036E-20         0.00000E+00
    0.32533E-06        -0.10186E-19         0.00000E+00
    0.32533E-06        -0.80036E-20         0.00000E+00
    0.32533E-06        -0.14552E-20         0.00000E+00
    0.48090E-06         0.43656E-20         0.00000E+00
    0.48090E-06        -0.14552E-20         0.00000E+00
    0.48090E-06        -0.13097E-19         0.00000E+00
    0.48090E-06        -0.17462E-19         0.00000E+00
    0.48090E-06        -0.11642E-19         0.00000E+00
    0.48090E-06        -0.72760E-20         0.00000E+00
    0.67929E-06        -0.44613E-21         0.00000E+00
    0.67929E-06        -0.38610E-20         0.00000E+00
    0.67929E-06        -0.88719E-20         0.00000E+00
    0.67929E-06        -0.11278E-19         0.00000E+00
    0.67929E-06        -0.10550E-19         0.00000E+00
    0.67929E-06        -0.90126E-20         0.00000E+00
    0.91187E-06         0.48480E-21         0.00000E+00
    0.91187E-06        -0.12128E-20         0.00000E+00
    0.91187E-06        -0.36380E-20         0.00000E+00
    0.91187E-06        -0.43656E-20         0.00000E+00
    0.91187E-06        -0.97000E-21         0.00000E+00
    0.91187E-06         0.24256E-20         0.00000E+00
    0.11570E-05        -0.58846E-20         0.00000E+00
    0.11570E-05        -0.22147E-20         0.00000E+00
    0.11570E-05         0.72760E-21         0.00000E+00
    0.11570E-05        -0.14552E-20         0.00000E+00
    0.11570E-05        -0.25147E-20         0.00000E+00
    0.11570E-05        -0.35741E-20         0.00000E+00
    0.13810E-05        -0.43656E-20         0.00000E+00
    0.13810E-05        -0.47294E-20         0.00000E+00
    0.13810E-05        -0.76398E-20         0.00000E+00
    0.13810E-05        -0.13097E-19         0.00000E+00
    0.13810E-05        -0.13461E-19         0.00000E+00
    0.13810E-05        -0.10914E-19         0.00000E+00
    0.15450E-05        -0.18190E-20         0.00000E+00
    0.15450E-05         0.36380E-21         0.00000E+00
    0.15450E-05        -0.47294E-20         0.00000E+00
    0.15450E-05        -0.96406E-20         0.00000E+00
    0.15450E-05        -0.89130E-20         0.00000E+00
    0.15450E-05        -0.10550E-19         0.00000E+00
    0.16071E-05         0.11419E-19         0.00000E+00
    0.16071E-05         0.22569E-35         0.00000E+00
    0.16071E-05         0.22569E-35         0.00000E+00
    0.16071E-05        -0.15046E-35         0.00000E+00
    0.16071E-05        -0.57097E-20         0.00000E+00
    0.16071E-05         0.00000E+00         0.00000E+00
CELL_DATA        150
TENSORS stressef double 
    0.26061E+06        -0.31623E-10         0.00000E+00
   -0.31623E-10        -0.26062E+06         0.00000E+00
    0.00000E+00         0.00000E+00        -0.24647E+01
 
    0.26061E+06         0.27105E-10         0.00000E+00
    0.27105E-10        -0.26062E+06         0.00000E+00
    0.00000E+00         0.00000E+00        -0.24647E+01
 
    0.26061E+06        -0.22588E-11         0.00000E+00
   -0.22588E-11        -0.26062E+06         0.00000E+00
    0.00000E+00         0.00000E+00        -0.24647E+01
 
    0.26061E+06        -0.21458E-10         0.00000E+00
   -0.21458E-10        -0.26062E+06         0.00000E+00
    0.00000E+00         0.00000E+00        -0.24647E+01
 
    0.26061E+06        -0.56469E-11         0.00000E+00
   -0.56469E-11        -0.26062E+06         0.00000E+00
    0.00000E+00         0.00000E+00        -0.24647E+01
 
    0.26061E+06         0.22588E-10         0.00000E+00
    0.22588E-10        -0.26062E+06         0.00000E+00
    0.00000E+00         0.00000E+00        -0.24667E+01
 
    0.26061E+06         0.29364E-10         0.00000E+00
    0.29364E-10        -0.26062E+06         0.00000E+00
    0.00000E+00         0.00000E+00        -0.24667E+01
 
    0.26061E+06        -0.15811E-10         0.00000E+00
   -0.15811E-10        -0.26062E+06         0.00000E+00
    0.00000E+00         0.00000E+00        -0.24667E+01
 
    0.26061E+06        -0.29364E-10         0.00000E+00
   -0.29364E-10        -0.26062E+06         0.00000E+00
    0.00000E+00         0.00000E+00        -0.24667E+01
 
    0.26061E+06         0.36140E-10         0.00000E+00
    0.36140E-10        -0.26062E+06         0.00000E+00
    0.00000E+00         0.00000E+00        -0.24667E+01
 
    0.26061E+06         0.18070E-10         0.00000E+00
    0.18070E-10        -0.26062E+06         0.00000E+00
    0.00000E+00         0.00000E+00        -0.24719E+01
 
    0.26061E+06         0.58728E-10         0.00000E+00
    0.58728E-10        -0.26062E+06         0.00000E+00
    0.00000E+00         0.00000E+00        -0.24719E+01
 
    0.26061E+06        -0.40658E-10         0.00000E+00
   -0.40658E-10        -0.26062E+06         0.00000E+00
    0.00000E+00         0.00000E+00        -0.24719E+01
 
    0.26061E+06         0.90350E-11         0.00000E+00
    0.90350E-11        -0.26062E+06         0.00000E+00
    0.00000E+00         0.00000E+00        -0.24719E+01
 
    0.26061E+06         0.51951E-10         0.00000E+00
    0.51951E-10        -0.26062E+06         0.00000E+00
    0.00000E+00         0.00000E+00        -0.24719E+01
 
    0.26061E+06        -0.40658E-10         0.00000E+00
   -0.40658E-10        -0.26062E+06         0.00000E+00
    0.00000E+00         0.00000E+00        -0.24831E+01
 
    0.26061E+06        -0.36140E-10         0.00000E+00
   -0.36140E-10        -0.26062E+06         0.00000E+00
    0.00000E+00         0.00000E+00        -0.24831E+01
 
    0.26061E+06         0.22588E-10         0.00000E+00
    0.22588E-10        -0.26062E+06         0.00000E+00
    0.00000E+00         0.00000E+00        -0.24831E+01
 
    0.26061E+06        -0.22588E-10         0.00000E+00
   -0.22588E-10        -0.26062E+06         0.00000E+00
    0.00000E+00         0.00000E+00        -0.24831E+01
 
    0.26061E+06         0.00000E+00         0.00000E+00
    0.00000E+00        -0.26062E+06         0.00000E+00
    0.00000E+00         0.00000E+00        -0.24831E+01
 
    0.26061E+06        -0.13553E-10         0.00000E+00
   -0.13553E-10        -0.26062E+06         0.00000E+00
    0.00000E+00         0.00000E+00        -0.25063E+01
 
    0.26061E+06         0.81315E-10         0.00000E+00
    0.81315E-10        -0.26062E+06         0.00000E+00
    0.00000E+00         0.00000E+00        -0.25063E+01
 
    0.26061E+06         0.90350E-11         0.00000E+00
    0.90350E-11        -0.26062E+06         0.00000E+00
    0.00000E+00         0.00000E+00        -0.25063E+01
 
    0.26061E+06        -0.18070E-10         0.00000E+00
   -0.18070E-10        -0.26062E+06         0.00000E+00
    0.00000E+00         0.00000E+00        -0.25063E+01
 
    0.26061E+06         0.18070E-10         0.00000E+00
    0.18070E-10        -0.26062E+06         0.00000E+00
    0.00000E+00         0.00000E+00        -0.25063E+01
 
    0.26061E+06        -0.45175E-10         0.00000E+00
   -0.45175E-10        -0.26062E+06         0.00000E+00
    0.00000E+00         0.00000E+00        -0.25542E+01
 
    0.26061E+06         0.27105E-10         0.00000E+00
    0.27105E-10        -0.26062E+06         0.00000E+00
    0.00000E+00         0.00000E+00        -0.25542E+01
 
    0.26061E+06        -0.36140E-10         0.00000E+00
   -0.36140E-10        -0.26062E+06         0.00000E+00
    0.00000E+00         0.00000E+00        -0.25542E+01
 
    0.26061E+06        -0.76798E-10         0.00000E+00
   -0.76798E-10        -0.26062E+06         0.00000E+00
    0.00000E+00         0.00000E+00        -0.25542E+01
 
    0.26061E+06         0.45175E-10         0.00000E+00
    0.45175E-10        -0.26062E+06         0.00000E+00
    0.00000E+00         0.00000E+00        -0.25542E+01
 
    0.26061E+06         0.00000E+00         0.00000E+00
    0.00000E+00        -0.26062E+06         0.00000E+00
    0.00000E+00         0.00000E+00        -0.26517E+01
 
    0.26061E+06         0.36140E-10         0.00000E+00
    0.36140E-10        -0.26062E+06         0.00000E+00
    0.00000E+00         0.00000E+00        -0.26517E+01
 
    0.26061E+06         0.00000E+00         0.00000E+00
    0.00000E+00        -0.26062E+06         0.00000E+00
    0.00000E+00         0.00000E+00        -0.26517E+01
 
    0.26061E+06         0.72280E-10         0.00000E+00
    0.72280E-10        -0.26062E+06         0.00000E+00
    0.00000E+00         0.00000E+00        -0.26517E+01
 
    0.26061E+06         0.00000E+00         0.00000E+00
    0.00000E+00        -0.26062E+06         0.00000E+00
    0.00000E+00         0.00000E+00        -0.26517E+01
 
    0.26061E+06         0.26202E-09         0.00000E+00
    0.26202E-09        -0.26062E+06         0.00000E+00
    0.00000E+00         0.00000E+00        -0.28488E+01
 
    0.26061E+06        -0.45175E-10         0.00000E+00
   -0.45175E-10        -0.26062E+06         0.00000E+00
    0.00000E+00         0.00000E+00        -0.28488E+01
 
    0.26061E+06         0.13553E-09         0.00000E+00
    0.13553E-09        -0.26062E+06         0.00000E+00
    0.00000E+00         0.00000E+00        -0.28488E+01
 
    0.26061E+06        -0.18070E-10         0.00000E+00
   -0.18070E-10        -0.26062E+06         0.00000E+00
    0.00000E+00         0.00000E+00        -0.28488E+01
 
    0.26061E+06         0.27105E-10         0.00000E+00
    0.27105E-10        -0.26062E+06         0.00000E+00
    0.00000E+00         0.00000E+00        -0.28488E+01
 
    0.26061E+06         0.17167E-09         0.00000E+00
    0.17167E-09        -0.26063E+06         0.00000E+00
    0.00000E+00         0.00000E+00        -0.32445E+01
 
    0.26061E+06         0.27105E-10         0.00000E+00
    0.27105E-10        -0.26063E+06         0.00000E+00
    0.00000E+00         0.00000E+00        -0.32445E+01
 
    0.26061E+06         0.36140E-10         0.00000E+00
    0.36140E-10        -0.26063E+06         0.00000E+00
    0.00000E+00         0.00000E+00        -0.32445E+01
 
    0.26061E+06        -0.81315E-10         0.00000E+00
   -0.81315E-10        -0.26063E+06         0.00000E+00
    0.00000E+00         0.00000E+00        -0.32445E+01
 
    0.26061E+06        -0.54210E-10         0.00000E+00
   -0.54210E-10        -0.26063E+06         0.00000E+00
    0.00000E+00         0.00000E+00        -0.32445E+01
 
    0.26061E+06        -0.72280E-10         0.00000E+00
   -0.72280E-10        -0.26063E+06         0.00000E+00
    0.00000E+00         0.00000E+00        -0.40319E+01
 
    0.26061E+06         0.36140E-10         0.00000E+00
    0.36140E-10        -0.26063E+06         0.00000E+00
    0.00000E+00         0.00000E+00        -0.40319E+01
 
    0.26061E+06        -0.19877E-09         0.00000E+00
   -0.19877E-09        -0.26063E+06         0.00000E+00
    0.00000E+00         0.00000E+00        -0.40319E+01
 
    0.26061E+06        -0.16263E-09         0.00000E+00
   -0.16263E-09        -0.26063E+06         0.00000E+00
    0.00000E+00         0.00000E+00        -0.40319E+01
 
    0.26061E+06        -0.72280E-10         0.00000E+00
   -0.72280E-10        -0.26063E+06         0.00000E+00
    0.00000E+00         0.00000E+00        -0.40319E+01
 
    0.26060E+06         0.63245E-10         0.00000E+00
    0.63245E-10        -0.26063E+06         0.00000E+00
    0.00000E+00         0.00000E+00        -0.55848E+01
 
    0.26060E+06         0.36140E-10         0.00000E+00
    0.36140E-10        -0.26063E+06         0.00000E+00
    0.00000E+00         0.00000E+00        -0.55848E+01
 
    0.26060E+06         0.54210E-10         0.00000E+00
    0.54210E-10        -0.26063E+06         0.00000E+00
    0.00000E+00         0.00000E+00        -0.55848E+01
 
    0.26060E+06        -0.10842E-09         0.00000E+00
   -0.10842E-09        -0.26063E+06         0.00000E+00
    0.00000E+00         0.00000E+00        -0.55848E+01
 
    0.26060E+06        -0.10842E-09         0.00000E+00
   -0.10842E-09        -0.26063E+06         0.00000E+00
    0.00000E+00         0.00000E+00        -0.55848E+01
 
    0.26059E+06         0.00000E+00         0.00000E+00
    0.00000E+00        -0.26063E+06         0.00000E+00
    0.00000E+00         0.00000E+00        -0.86183E+01
 
    0.26059E+06         0.99385E-10         0.00000E+00
    0.99385E-10        -0.26063E+06         0.00000E+00
    0.00000E+00         0.00000E+00        -0.86183E+01
 
    0.26059E+06         0.90350E-10         0.00000E+00
    0.90350E-10        -0.26063E+06         0.00000E+00
    0.00000E+00         0.00000E+00        -0.86183E+01
 
    0.26059E+06        -0.32526E-09         0.00000E+00
   -0.32526E-09        -0.26063E+06         0.00000E+00
    0.00000E+00         0.00000E+00        -0.86183E+01
 
    0.26059E+06         0.16263E-09         0.00000E+00
    0.16263E-09        -0.26063E+06         0.00000E+00
    0.00000E+00         0.00000E+00        -0.86183E+01
 
    0.26056E+06        -0.99385E-10         0.00000E+00
   -0.99385E-10        -0.26064E+06         0.00000E+00
    0.00000E+00         0.00000E+00        -0.14482E+02
 
    0.26056E+06         0.14456E-09         0.00000E+00
    0.14456E-09        -0.26064E+06         0.00000E+00
    0.00000E+00         0.00000E+00        -0.14482E+02
 
    0.26056E+06         0.54210E-10         0.00000E+00
    0.54210E-10        -0.26064E+06         0.00000E+00
    0.00000E+00         0.00000E+00        -0.14482E+02
 
    0.26056E+06        -0.54210E-10         0.00000E+00
   -0.54210E-10        -0.26064E+06         0.00000E+00
    0.00000E+00         0.00000E+00        -0.14482E+02
 
    0.26056E+06         0.90350E-10         0.00000E+00
    0.90350E-10        -0.26064E+06         0.00000E+00
    0.00000E+00         0.00000E+00        -0.14482E+02
 
    0.26052E+06        -0.18070E-10         0.00000E+00
   -0.18070E-10        -0.26065E+06         0.00000E+00
    0.00000E+00         0.00000E+00        -0.25686E+02
 
    0.26052E+06        -0.10842E-09         0.00000E+00
   -0.10842E-09        -0.26065E+06         0.00000E+00
    0.00000E+00         0.00000E+00        -0.25686E+02
 
    0.26052E+06        -0.90350E-10         0.00000E+00
   -0.90350E-10        -0.26065E+06         0.00000E+00
    0.00000E+00         0.00000E+00        -0.25686E+02
 
    0.26052E+06         0.00000E+00         0.00000E+00
    0.00000E+00        -0.26065E+06         0.00000E+00
    0.00000E+00         0.00000E+00        -0.25686E+02
 
    0.26052E+06         0.16263E-09         0.00000E+00
    0.16263E-09        -0.26065E+06         0.00000E+00
    0.00000E+00         0.00000E+00        -0.25686E+02
 
    0.26043E+06         0.00000E+00         0.00000E+00
    0.00000E+00        -0.26067E+06         0.00000E+00
    0.00000E+00         0.00000E+00        -0.46831E+02
 
    0.26043E+06        -0.27105E-09         0.00000E+00
   -0.27105E-09        -0.26067E+06         0.00000E+00
    0.00000E+00         0.00000E+00        -0.46831E+02
 
    0.26043E+06         0.21684E-09         0.00000E+00
    0.21684E-09        -0.26067E+06         0.00000E+00
    0.00000E+00         0.00000E+00        -0.46831E+02
 
    0.26043E+06        -0.21684E-09         0.00000E+00
   -0.21684E-09        -0.26067E+06         0.00000E+00
    0.00000E+00         0.00000E+00        -0.46831E+02
 
    0.26043E+06         0.21684E-09         0.00000E+00
    0.21684E-09        -0.26067E+06         0.00000E+00
    0.00000E+00         0.00000E+00        -0.46831E+02
 
    0.26028E+06        -0.10842E-09         0.00000E+00
   -0.10842E-09        -0.26071E+06         0.00000E+00
    0.00000E+00         0.00000E+00        -0.86186E+02
 
    0.26028E+06         0.00000E+00         0.00000E+00
    0.00000E+00        -0.26071E+06         0.00000E+00
    0.00000E+00         0.00000E+00        -0.86186E+02
 
    0.26028E+06        -0.27105E-09         0.00000E+00
   -0.27105E-09        -0.26071E+06         0.00000E+00
    0.00000E+00         0.00000E+00        -0.86186E+02
 
    0.26028E+06        -0.43368E-09         0.00000E+00
   -0.43368E-09        -0.26071E+06         0.00000E+00
    0.00000E+00         0.00000E+00        -0.86186E+02
 
    0.26028E+06         0.10842E-09         0.00000E+00
    0.10842E-09        -0.26071E+06         0.00000E+00
    0.00000E+00         0.00000E+00        -0.86186E+02
 
    0.25999E+06         0.72280E-10         0.00000E+00
    0.72280E-10        -0.26078E+06         0.00000E+00
    0.00000E+00         0.00000E+00        -0.15832E+03
 
    0.25999E+06         0.18070E-10         0.00000E+00
    0.18070E-10        -0.26078E+06         0.00000E+00
    0.00000E+00         0.00000E+00        -0.15832E+03
 
    0.25999E+06        -0.25298E-09         0.00000E+00
   -0.25298E-09        -0.26078E+06         0.00000E+00
    0.00000E+00         0.00000E+00        -0.15832E+03
 
    0.25999E+06         0.00000E+00         0.00000E+00
    0.00000E+00        -0.26078E+06         0.00000E+00
    0.00000E+00         0.00000E+00        -0.15832E+03
 
    0.25999E+06         0.00000E+00         0.00000E+00
    0.00000E+00        -0.26078E+06         0.00000E+00
    0.00000E+00         0.00000E+00        -0.15832E+03
 
    0.25947E+06         0.00000E+00         0.00000E+00
    0.00000E+00        -0.26091E+06         0.00000E+00
    0.00000E+00         0.00000E+00        -0.28832E+03
 
    0.25947E+06         0.36140E-10         0.00000E+00
    0.36140E-10        -0.26091E+06         0.00000E+00
    0.00000E+00         0.00000E+00        -0.28832E+03
 
    0.25947E+06        -0.14456E-09         0.00000E+00
   -0.14456E-09        -0.26091E+06         0.00000E+00
    0.00000E+00         0.00000E+00        -0.28832E+03
 
    0.25947E+06         0.28912E-09         0.00000E+00
    0.28912E-09        -0.26091E+06         0.00000E+00
    0.00000E+00         0.00000E+00        -0.28832E+03
 
    0.25947E+06         0.00000E+00         0.00000E+00
    0.00000E+00        -0.26091E+06         0.00000E+00
    0.00000E+00         0.00000E+00        -0.28832E+03
 
    0.25855E+06        -0.10842E-09         0.00000E+00
   -0.10842E-09        -0.26114E+06         0.00000E+00
    0.00000E+00         0.00000E+00        -0.51820E+03
 
    0.25855E+06        -0.14456E-09         0.00000E+00
   -0.14456E-09        -0.26114E+06         0.00000E+00
    0.00000E+00         0.00000E+00        -0.51820E+03
 
    0.25855E+06         0.36140E-10         0.00000E+00
    0.36140E-10        -0.26114E+06         0.00000E+00
    0.00000E+00         0.00000E+00        -0.51820E+03
 
    0.25855E+06        -0.32526E-09         0.00000E+00
   -0.32526E-09        -0.26114E+06         0.00000E+00
    0.00000E+00         0.00000E+00        -0.51820E+03
 
    0.25855E+06         0.36140E-10         0.00000E+00
    0.36140E-10        -0.26114E+06         0.00000E+00
    0.00000E+00         0.00000E+00        -0.51820E+03
 
    0.25696E+06         0.36140E-10         0.00000E+00
    0.36140E-10        -0.26154E+06         0.00000E+00
    0.00000E+00         0.00000E+00        -0.91608E+03
 
    0.25696E+06         0.28912E-09         0.00000E+00
    0.28912E-09        -0.26154E+06         0.00000E+00
    0.00000E+00         0.00000E+00        -0.91608E+03
 
    0.25696E+06         0.68666E-09         0.00000E+00
    0.68666E-09        -0.26154E+06         0.00000E+00
    0.00000E+00         0.00000E+00        -0.91608E+03
 
    0.25696E+06        -0.10842E-09         0.00000E+00
   -0.10842E-09        -0.26154E+06         0.00000E+00
    0.00000E+00         0.00000E+00        -0.91608E+03
 
    0.25696E+06        -0.72280E-10         0.00000E+00
   -0.72280E-10        -0.26154E+06         0.00000E+00
    0.00000E+00         0.00000E+00        -0.91608E+03
 
    0.25427E+06         0.00000E+00         0.00000E+00
    0.00000E+00        -0.26221E+06         0.00000E+00
    0.00000E+00         0.00000E+00        -0.15884E+04
 
    0.25427E+06        -0.18070E-09         0.00000E+00
   -0.18070E-09        -0.26221E+06         0.00000E+00
    0.00000E+00         0.00000E+00        -0.15884E+04
 
    0.25427E+06        -0.28912E-09         0.00000E+00
   -0.28912E-09        -0.26221E+06         0.00000E+00
    0.00000E+00         0.00000E+00        -0.15884E+04
 
    0.25427E+06        -0.10842E-09         0.00000E+00
   -0.10842E-09        -0.26221E+06         0.00000E+00
    0.00000E+00         0.00000E+00        -0.15884E+04
 
    0.25427E+06         0.14456E-09         0.00000E+00
    0.14456E-09        -0.26221E+06         0.00000E+00
    0.00000E+00         0.00000E+00        -0.15884E+04
 
    0.24985E+06         0.00000E+00         0.00000E+00
    0.00000E+00        -0.26332E+06         0.00000E+00
    0.00000E+00         0.00000E+00        -0.26938E+04
 
    0.24985E+06        -0.21684E-09         0.00000E+00
   -0.21684E-09        -0.26332E+06         0.00000E+00
    0.00000E+00         0.00000E+00        -0.26938E+04
 
    0.24985E+06         0.18070E-09         0.00000E+00
    0.18070E-09        -0.26332E+06         0.00000E+00
    0.00000E+00         0.00000E+00        -0.26938E+04
 
    0.24985E+06        -0.32526E-09         0.00000E+00
   -0.32526E-09        -0.26332E+06         0.00000E+00
    0.00000E+00         0.00000E+00        -0.26938E+04
 
    0.24985E+06         0.36140E-10         0.00000E+00
    0.36140E-10        -0.26332E+06         0.00000E+00
    0.00000E+00         0.00000E+00        -0.26938E+04
 
    0.24280E+06         0.25298E-09         0.00000E+00
    0.25298E-09        -0.26508E+06         0.00000E+00
    0.00000E+00         0.00000E+00        -0.44557E+04
 
    0.24280E+06        -0.72280E-10         0.00000E+00
   -0.72280E-10        -0.26508E+06         0.00000E+00
    0.00000E+00         0.00000E+00        -0.44557E+04
 
    0.24280E+06         0.25298E-09         0.00000E+00
    0.25298E-09        -0.26508E+06         0.00000E+00
    0.00000E+00         0.00000E+00        -0.44557E+04
 
    0.24280E+06        -0.36140E-09         0.00000E+00
   -0.36140E-09        -0.26508E+06         0.00000E+00
    0.00000E+00         0.00000E+00        -0.44557E+04
 
    0.24280E+06        -0.36140E-10         0.00000E+00
   -0.36140E-10        -0.26508E+06         0.00000E+00
    0.00000E+00         0.00000E+00        -0.44557E+04
 
    0.23195E+06         0.39754E-09         0.00000E+00
    0.39754E-09        -0.26779E+06         0.00000E+00
    0.00000E+00         0.00000E+00        -0.71668E+04
 
    0.23195E+06        -0.32526E-09         0.00000E+00
   -0.32526E-09        -0.26779E+06         0.00000E+00
    0.00000E+00         0.00000E+00        -0.71668E+04
 
    0.23195E+06         0.28912E-09         0.00000E+00
    0.28912E-09        -0.26779E+06         0.00000E+00
    0.00000E+00         0.00000E+00        -0.71668E+04
 
    0.23195E+06        -0.28912E-09         0.00000E+00
   -0.28912E-09        -0.26779E+06         0.00000E+00
    0.00000E+00         0.00000E+00        -0.71668E+04
 
    0.23195E+06         0.39754E-09         0.00000E+00
    0.39754E-09        -0.26779E+06         0.00000E+00
    0.00000E+00         0.00000E+00        -0.71668E+04
 
    0.21592E+06         0.39754E-09         0.00000E+00
    0.39754E-09        -0.27180E+06         0.00000E+00
    0.00000E+00         0.00000E+00        -0.11174E+05
 
    0.21592E+06        -0.36140E-09         0.00000E+00
   -0.36140E-09        -0.27180E+06         0.00000E+00
    0.00000E+00         0.00000E+00        -0.11174E+05
 
    0.21592E+06         0.14456E-09         0.00000E+00
    0.14456E-09        -0.27180E+06         0.00000E+00
    0.00000E+00         0.00000E+00        -0.11174E+05
 
    0.21592E+06         0.14456E-09         0.00000E+00
    0.14456E-09        -0.27180E+06         0.00000E+00
    0.00000E+00         0.00000E+00        -0.11174E+05
 
    0.21592E+06         0.00000E+00         0.00000E+00
    0.00000E+00        -0.27180E+06         0.00000E+00
    0.00000E+00         0.00000E+00        -0.11174E+05
 
    0.19328E+06         0.72280E-09         0.00000E+00
    0.72280E-09        -0.27746E+06         0.00000E+00
    0.00000E+00         0.00000E+00        -0.16835E+05
 
    0.19328E+06        -0.61438E-09         0.00000E+00
   -0.61438E-09        -0.27746E+06         0.00000E+00
    0.00000E+00         0.00000E+00        -0.16835E+05
 
    0.19328E+06         0.36140E-10         0.00000E+00
    0.36140E-10        -0.27746E+06         0.00000E+00
    0.00000E+00         0.00000E+00        -0.16835E+05
 
    0.19328E+06         0.14456E-09         0.00000E+00
    0.14456E-09        -0.27746E+06         0.00000E+00
    0.00000E+00         0.00000E+00        -0.16835E+05
 
    0.19328E+06         0.72280E-10         0.00000E+00
    0.72280E-10        -0.27746E+06         0.00000E+00
    0.00000E+00         0.00000E+00        -0.16835E+05
 
    0.16289E+06         0.90350E-09         0.00000E+00
    0.90350E-09        -0.28506E+06         0.00000E+00
    0.00000E+00         0.00000E+00        -0.24434E+05
 
    0.16289E+06        -0.12288E-08         0.00000E+00
   -0.12288E-08        -0.28506E+06         0.00000E+00
    0.00000E+00         0.00000E+00        -0.24434E+05
 
    0.16289E+06         0.18070E-09         0.00000E+00
    0.18070E-09        -0.28506E+06         0.00000E+00
    0.00000E+00         0.00000E+00        -0.24434E+05
 
    0.16289E+06        -0.72280E-10         0.00000E+00
   -0.72280E-10        -0.28506E+06         0.00000E+00
    0.00000E+00         0.00000E+00        -0.24434E+05
 
    0.16289E+06         0.68666E-09         0.00000E+00
    0.68666E-09        -0.28506E+06         0.00000E+00
    0.00000E+00         0.00000E+00        -0.24434E+05
 
    0.12432E+06         0.21684E-09         0.00000E+00
    0.21684E-09        -0.29470E+06         0.00000E+00
    0.00000E+00         0.00000E+00        -0.34076E+05
 
    0.12432E+06        -0.90350E-09         0.00000E+00
   -0.90350E-09        -0.29470E+06         0.00000E+00
    0.00000E+00         0.00000E+00        -0.34076E+05
 
    0.12432E+06        -0.28912E-09         0.00000E+00
   -0.28912E-09        -0.29470E+06         0.00000E+00
    0.00000E+00         0.00000E+00        -0.34076E+05
 
    0.12432E+06        -0.14456E-09         0.00000E+00
   -0.14456E-09        -0.29470E+06         0.00000E+00
    0.00000E+00         0.00000E+00        -0.34076E+05
 
    0.12432E+06         0.25298E-09         0.00000E+00
    0.25298E-09        -0.29470E+06         0.00000E+00
    0.00000E+00         0.00000E+00        -0.34076E+05
 
    0.78285E+05        -0.28912E-09         0.00000E+00
   -0.28912E-09        -0.30621E+06         0.00000E+00
    0.00000E+00         0.00000E+00        -0.45584E+05
 
    0.78285E+05        -0.10842E-09         0.00000E+00
   -0.10842E-09        -0.30621E+06         0.00000E+00
    0.00000E+00         0.00000E+00        -0.45584E+05
 
    0.78285E+05         0.00000E+00         0.00000E+00
    0.00000E+00        -0.30621E+06         0.00000E+00
    0.00000E+00         0.00000E+00        -0.45584E+05
 
    0.78285E+05        -0.36140E-10         0.00000E+00
   -0.36140E-10        -0.30621E+06         0.00000E+00
    0.00000E+00         0.00000E+00        -0.45584E+05
 
    0.78285E+05        -0.72280E-10         0.00000E+00
   -0.72280E-10        -0.30621E+06         0.00000E+00
    0.00000E+00         0.00000E+00        -0.45584E+05
 
    0.26786E+05        -0.14456E-09         0.00000E+00
   -0.14456E-09        -0.31908E+06         0.00000E+00
    0.00000E+00         0.00000E+00        -0.58459E+05
 
    0.26786E+05        -0.36140E-10         0.00000E+00
   -0.36140E-10        -0.31908E+06         0.00000E+00
    0.00000E+00         0.00000E+00        -0.58459E+05
 
    0.26786E+05         0.72280E-10         0.00000E+00
    0.72280E-10        -0.31908E+06         0.00000E+00
    0.00000E+00         0.00000E+00        -0.58459E+05
 
    0.26786E+05        -0.32526E-09         0.00000E+00
   -0.32526E-09        -0.31908E+06         0.00000E+00
    0.00000E+00         0.00000E+00        -0.58459E+05
 
    0.26786E+05        -0.28912E-09         0.00000E+00
   -0.28912E-09        -0.31908E+06         0.00000E+00
    0.00000E+00         0.00000E+00        -0.58459E+05
 
TENSORS stresstot double 
    0.10186E-09        -0.31623E-10         0.00000E+00
   -0.31623E-10        -0.52124E+06         0.00000E+00
    0.00000E+00         0.00000E+00        -0.26061E+06
 
    0.43656E-10         0.27105E-10         0.00000E+00
    0.27105E-10        -0.52124E+06         0.00000E+00
    0.00000E+00         0.00000E+00        -0.26061E+06
 
    0.43656E-10        -0.22588E-11         0.00000E+00
   -0.22588E-11        -0.52124E+06         0.00000E+00
    0.00000E+00         0.00000E+00        -0.26061E+06
 
    0.10186E-09        -0.21458E-10         0.00000E+00
   -0.21458E-10        -0.52124E+06         0.00000E+00
    0.00000E+00         0.00000E+00        -0.26061E+06
 
    0.11642E-09        -0.56469E-11         0.00000E+00
   -0.56469E-11        -0.52124E+06         0.00000E+00
    0.00000E+00         0.00000E+00        -0.26061E+06
 
    0.20373E-09         0.22588E-10         0.00000E+00
    0.22588E-10        -0.52124E+06         0.00000E+00
    0.00000E+00         0.00000E+00        -0.26061E+06
 
    0.10186E-09         0.29364E-10         0.00000E+00
    0.29364E-10        -0.52124E+06         0.00000E+00
    0.00000E+00         0.00000E+00        -0.26061E+06
 
    0.50932E-10        -0.15811E-10         0.00000E+00
   -0.15811E-10        -0.52124E+06         0.00000E+00
    0.00000E+00         0.00000E+00        -0.26061E+06
 
    0.13097E-09        -0.29364E-10         0.00000E+00
   -0.29364E-10        -0.52124E+06         0.00000E+00
    0.00000E+00         0.00000E+00        -0.26061E+06
 
    0.94587E-10         0.36140E-10         0.00000E+00
    0.36140E-10        -0.52124E+06         0.00000E+00
    0.00000E+00         0.00000E+00        -0.26061E+06
 
    0.18917E-09         0.18070E-10         0.00000E+00
    0.18070E-10        -0.52124E+06         0.00000E+00
    0.00000E+00         0.00000E+00        -0.26061E+06
 
    0.10914E-09         0.58728E-10         0.00000E+00
    0.58728E-10        -0.52124E+06         0.00000E+00
    0.00000E+00         0.00000E+00        -0.26061E+06
 
    0.16007E-09        -0.40658E-10         0.00000E+00
   -0.40658E-10        -0.52124E+06         0.00000E+00
    0.00000E+00         0.00000E+00        -0.26061E+06
 
    0.13824E-09         0.90350E-11         0.00000E+00
    0.90350E-11        -0.52124E+06         0.00000E+00
    0.00000E+00         0.00000E+00        -0.26061E+06
 
    0.23283E-09         0.51951E-10         0.00000E+00
    0.51951E-10        -0.52124E+06         0.00000E+00
    0.00000E+00         0.00000E+00        -0.26061E+06
 
    0.28376E-09        -0.40658E-10         0.00000E+00
   -0.40658E-10        -0.52124E+06         0.00000E+00
    0.00000E+00         0.00000E+00        -0.26061E+06
 
    0.26193E-09        -0.36140E-10         0.00000E+00
   -0.36140E-10        -0.52124E+06         0.00000E+00
    0.00000E+00         0.00000E+00        -0.26061E+06
 
    0.65484E-10         0.22588E-10         0.00000E+00
    0.22588E-10        -0.52124E+06         0.00000E+00
    0.00000E+00         0.00000E+00        -0.26061E+06
 
    0.36380E-10        -0.22588E-10         0.00000E+00
   -0.22588E-10        -0.52124E+06         0.00000E+00
    0.00000E+00         0.00000E+00        -0.26061E+06
 
    0.24011E-09         0.00000E+00         0.00000E+00
    0.00000E+00        -0.52124E+06         0.00000E+00
    0.00000E+00         0.00000E+00        -0.26061E+06
 
    0.35652E-09        -0.13553E-10         0.00000E+00
   -0.13553E-10        -0.52124E+06         0.00000E+00
    0.00000E+00         0.00000E+00        -0.26061E+06
 
   -0.65484E-10         0.81315E-10         0.00000E+00
    0.81315E-10        -0.52124E+06         0.00000E+00
    0.00000E+00         0.00000E+00        -0.26061E+06
 
   -0.10914E-09         0.90350E-11         0.00000E+00
    0.90350E-11        -0.52124E+06         0.00000E+00
    0.00000E+00         0.00000E+00        -0.26061E+06
 
    0.23283E-09        -0.18070E-10         0.00000E+00
   -0.18070E-10        -0.52124E+06         0.00000E+00
    0.00000E+00         0.00000E+00        -0.26061E+06
 
    0.17462E-09         0.18070E-10         0.00000E+00
    0.18070E-10        -0.52124E+06         0.00000E+00
    0.00000E+00         0.00000E+00        -0.26061E+06
 
    0.25466E-09        -0.45175E-10         0.00000E+00
   -0.45175E-10        -0.52124E+06         0.00000E+00
    0.00000E+00         0.00000E+00        -0.26061E+06
 
    0.14552E-09         0.27105E-10         0.00000E+00
    0.27105E-10        -0.52124E+06         0.00000E+00
    0.00000E+00         0.00000E+00        -0.26061E+06
 
    0.29104E-10        -0.36140E-10         0.00000E+00
   -0.36140E-10        -0.52124E+06         0.00000E+00
    0.00000E+00         0.00000E+00        -0.26061E+06
 
   -0.11642E-09        -0.76798E-10         0.00000E+00
   -0.76798E-10        -0.52124E+06         0.00000E+00
    0.00000E+00         0.00000E+00        -0.26061E+06
 
    0.32014E-09         0.45175E-10         0.00000E+00
    0.45175E-10        -0.52124E+06         0.00000E+00
    0.00000E+00         0.00000E+00        -0.26061E+06
 
    0.34197E-09         0.00000E+00         0.00000E+00
    0.00000E+00        -0.52124E+06         0.00000E+00
    0.00000E+00         0.00000E+00        -0.26061E+06
 
    0.29831E-09         0.36140E-10         0.00000E+00
    0.36140E-10        -0.52124E+06         0.00000E+00
    0.00000E+00         0.00000E+00        -0.26061E+06
 
    0.21828E-09         0.00000E+00         0.00000E+00
    0.00000E+00        -0.52124E+06         0.00000E+00
    0.00000E+00         0.00000E+00        -0.26061E+06
 
    0.26921E-09         0.72280E-10         0.00000E+00
    0.72280E-10        -0.52124E+06         0.00000E+00
    0.00000E+00         0.00000E+00        -0.26061E+06
 
    0.18917E-09         0.00000E+00         0.00000E+00
    0.00000E+00        -0.52124E+06         0.00000E+00
    0.00000E+00         0.00000E+00        -0.26061E+06
 
   -0.94587E-10         0.26202E-09         0.00000E+00
    0.26202E-09        -0.52124E+06         0.00000E+00
    0.00000E+00         0.00000E+00        -0.26061E+06
 
   -0.22555E-09        -0.45175E-10         0.00000E+00
   -0.45175E-10        -0.52124E+06         0.00000E+00
    0.00000E+00         0.00000E+00        -0.26061E+06
 
    0.72760E-10         0.13553E-09         0.00000E+00
    0.13553E-09        -0.52124E+06         0.00000E+00
    0.00000E+00         0.00000E+00        -0.26061E+06
 
   -0.36380E-09        -0.18070E-10         0.00000E+00
   -0.18070E-10        -0.52124E+06         0.00000E+00
    0.00000E+00         0.00000E+00        -0.26061E+06
 
   -0.45839E-09         0.27105E-10         0.00000E+00
    0.27105E-10        -0.52124E+06         0.00000E+00
    0.00000E+00         0.00000E+00        -0.26061E+06
 
    0.34925E-09         0.17167E-09         0.00000E+00
    0.17167E-09        -0.52123E+06         0.00000E+00
    0.00000E+00         0.00000E+00        -0.26061E+06
 
    0.40745E-09         0.27105E-10         0.00000E+00
    0.27105E-10        -0.52123E+06         0.00000E+00
    0.00000E+00         0.00000E+00        -0.26061E+06
 
   -0.32014E-09         0.36140E-10         0.00000E+00
    0.36140E-10        -0.52123E+06         0.00000E+00
    0.00000E+00         0.00000E+00        -0.26061E+06
 
    0.31287E-09        -0.81315E-10         0.00000E+00
   -0.81315E-10        -0.52123E+06         0.00000E+00
    0.00000E+00         0.00000E+00        -0.26061E+06
 
    0.55297E-09        -0.54210E-10         0.00000E+00
   -0.54210E-10        -0.52123E+06         0.00000E+00
    0.00000E+00         0.00000E+00        -0.26061E+06
 
    0.16007E-09        -0.72280E-10         0.00000E+00
   -0.72280E-10        -0.52123E+06         0.00000E+00
    0.00000E+00         0.00000E+00        -0.26061E+06
 
   -0.13097E-09         0.36140E-10         0.00000E+00
    0.36140E-10        -0.52123E+06         0.00000E+00
    0.00000E+00         0.00000E+00        -0.26061E+06
 
    0.43656E-10        -0.19877E-09         0.00000E+00
   -0.19877E-09        -0.52123E+06         0.00000E+00
    0.00000E+00         0.00000E+00        -0.26061E+06
 
    0.10914E-09        -0.16263E-09         0.00000E+00
   -0.16263E-09        -0.52123E+06         0.00000E+00
    0.00000E+00         0.00000E+00        -0.26061E+06
 
    0.15280E-09        -0.72280E-10         0.00000E+00
   -0.72280E-10        -0.52123E+06         0.00000E+00
    0.00000E+00         0.00000E+00        -0.26061E+06
 
   -0.19645E-09         0.63245E-10         0.00000E+00
    0.63245E-10        -0.52123E+06         0.00000E+00
    0.00000E+00         0.00000E+00        -0.26061E+06
 
    0.18190E-09         0.36140E-10         0.00000E+00
    0.36140E-10        -0.52123E+06         0.00000E+00
    0.00000E+00         0.00000E+00        -0.26061E+06
 
    0.00000E+00         0.54210E-10         0.00000E+00
    0.54210E-10        -0.52123E+06         0.00000E+00
    0.00000E+00         0.00000E+00        -0.26061E+06
 
    0.12369E-09        -0.10842E-09         0.00000E+00
   -0.10842E-09        -0.52123E+06         0.00000E+00
    0.00000E+00         0.00000E+00        -0.26061E+06
 
    0.57480E-09        -0.10842E-09         0.00000E+00
   -0.10842E-09        -0.52123E+06         0.00000E+00
    0.00000E+00         0.00000E+00        -0.26061E+06
 
    0.74942E-09         0.00000E+00         0.00000E+00
    0.00000E+00        -0.52122E+06         0.00000E+00
    0.00000E+00         0.00000E+00        -0.26060E+06
 
    0.73487E-09         0.99385E-10         0.00000E+00
    0.99385E-10        -0.52122E+06         0.00000E+00
    0.00000E+00         0.00000E+00        -0.26060E+06
 
    0.41473E-09         0.90350E-10         0.00000E+00
    0.90350E-10        -0.52122E+06         0.00000E+00
    0.00000E+00         0.00000E+00        -0.26060E+06
 
   -0.13824E-09        -0.32526E-09         0.00000E+00
   -0.32526E-09        -0.52122E+06         0.00000E+00
    0.00000E+00         0.00000E+00        -0.26060E+06
 
   -0.30559E-09         0.16263E-09         0.00000E+00
    0.16263E-09        -0.52122E+06         0.00000E+00
    0.00000E+00         0.00000E+00        -0.26060E+06
 
   -0.87311E-10        -0.99385E-10         0.00000E+00
   -0.99385E-10        -0.52120E+06         0.00000E+00
    0.00000E+00         0.00000E+00        -0.26058E+06
 
   -0.80036E-10         0.14456E-09         0.00000E+00
    0.14456E-09        -0.52120E+06         0.00000E+00
    0.00000E+00         0.00000E+00        -0.26058E+06
 
    0.12369E-09         0.54210E-10         0.00000E+00
    0.54210E-10        -0.52120E+06         0.00000E+00
    0.00000E+00         0.00000E+00        -0.26058E+06
 
    0.94587E-10        -0.54210E-10         0.00000E+00
   -0.54210E-10        -0.52120E+06         0.00000E+00
    0.00000E+00         0.00000E+00        -0.26058E+06
 
   -0.36380E-10         0.90350E-10         0.00000E+00
    0.90350E-10        -0.52120E+06         0.00000E+00
    0.00000E+00         0.00000E+00        -0.26058E+06
 
    0.56752E-09        -0.18070E-10         0.00000E+00
   -0.18070E-10        -0.52117E+06         0.00000E+00
    0.00000E+00         0.00000E+00        -0.26054E+06
 
    0.64028E-09        -0.10842E-09         0.00000E+00
   -0.10842E-09        -0.52117E+06         0.00000E+00
    0.00000E+00         0.00000E+00        -0.26054E+06
 
    0.44383E-09        -0.90350E-10         0.00000E+00
   -0.90350E-10        -0.52117E+06         0.00000E+00
    0.00000E+00         0.00000E+00        -0.26054E+06
 
    0.50932E-09         0.00000E+00         0.00000E+00
    0.00000E+00        -0.52117E+06         0.00000E+00
    0.00000E+00         0.00000E+00        -0.26054E+06
 
    0.69849E-09         0.16263E-09         0.00000E+00
    0.16263E-09        -0.52117E+06         0.00000E+00
    0.00000E+00         0.00000E+00        -0.26054E+06
 
    0.58208E-10         0.00000E+00         0.00000E+00
    0.00000E+00        -0.52110E+06         0.00000E+00
    0.00000E+00         0.00000E+00        -0.26048E+06
 
    0.38563E-09        -0.27105E-09         0.00000E+00
   -0.27105E-09        -0.52110E+06         0.00000E+00
    0.00000E+00         0.00000E+00        -0.26048E+06
 
    0.14552E-10         0.21684E-09         0.00000E+00
    0.21684E-09        -0.52110E+06         0.00000E+00
    0.00000E+00         0.00000E+00        -0.26048E+06
 
   -0.35652E-09        -0.21684E-09         0.00000E+00
   -0.21684E-09        -0.52110E+06         0.00000E+00
    0.00000E+00         0.00000E+00        -0.26048E+06
 
    0.43656E-10         0.21684E-09         0.00000E+00
    0.21684E-09        -0.52110E+06         0.00000E+00
    0.00000E+00         0.00000E+00        -0.26048E+06
 
   -0.80036E-09        -0.10842E-09         0.00000E+00
   -0.10842E-09        -0.52099E+06         0.00000E+00
    0.00000E+00         0.00000E+00        -0.26036E+06
 
   -0.72760E-09         0.00000E+00         0.00000E+00
    0.00000E+00        -0.52099E+06         0.00000E+00
    0.00000E+00         0.00000E+00        -0.26036E+06
 
   -0.11642E-09        -0.27105E-09         0.00000E+00
   -0.27105E-09        -0.52099E+06         0.00000E+00
    0.00000E+00         0.00000E+00        -0.26036E+06
 
   -0.45111E-09        -0.43368E-09         0.00000E+00
   -0.43368E-09        -0.52099E+06         0.00000E+00
    0.00000E+00         0.00000E+00        -0.26036E+06
 
   -0.58935E-09         0.10842E-09         0.00000E+00
    0.10842E-09        -0.52099E+06         0.00000E+00
    0.00000E+00         0.00000E+00        -0.26036E+06
 
    0.86584E-09         0.72280E-10         0.00000E+00
    0.72280E-10        -0.52077E+06         0.00000E+00
    0.00000E+00         0.00000E+00        -0.26015E+06
 
    0.32742E-09         0.18070E-10         0.00000E+00
    0.18070E-10        -0.52077E+06         0.00000E+00
    0.00000E+00         0.00000E+00        -0.26015E+06
 
    0.72760E-11        -0.25298E-09         0.00000E+00
   -0.25298E-09        -0.52077E+06         0.00000E+00
    0.00000E+00         0.00000E+00        -0.26015E+06
 
    0.11860E-08         0.00000E+00         0.00000E+00
    0.00000E+00        -0.52077E+06         0.00000E+00
    0.00000E+00         0.00000E+00        -0.26015E+06
 
    0.10405E-08         0.00000E+00         0.00000E+00
    0.00000E+00        -0.52077E+06         0.00000E+00
    0.00000E+00         0.00000E+00        -0.26015E+06
 
   -0.14552E-10         0.00000E+00         0.00000E+00
    0.00000E+00        -0.52038E+06         0.00000E+00
    0.00000E+00         0.00000E+00        -0.25976E+06
 
    0.18917E-09         0.36140E-10         0.00000E+00
    0.36140E-10        -0.52038E+06         0.00000E+00
    0.00000E+00         0.00000E+00        -0.25976E+06
 
   -0.29831E-09        -0.14456E-09         0.00000E+00
   -0.14456E-09        -0.52038E+06         0.00000E+00
    0.00000E+00         0.00000E+00        -0.25976E+06
 
    0.50204E-09         0.28912E-09         0.00000E+00
    0.28912E-09        -0.52038E+06         0.00000E+00
    0.00000E+00         0.00000E+00        -0.25976E+06
 
   -0.45839E-09         0.00000E+00         0.00000E+00
    0.00000E+00        -0.52038E+06         0.00000E+00
    0.00000E+00         0.00000E+00        -0.25976E+06
 
    0.48749E-09        -0.10842E-09         0.00000E+00
   -0.10842E-09        -0.51969E+06         0.00000E+00
    0.00000E+00         0.00000E+00        -0.25907E+06
 
    0.46566E-09        -0.14456E-09         0.00000E+00
   -0.14456E-09        -0.51969E+06         0.00000E+00
    0.00000E+00         0.00000E+00        -0.25907E+06
 
    0.87311E-10         0.36140E-10         0.00000E+00
    0.36140E-10        -0.51969E+06         0.00000E+00
    0.00000E+00         0.00000E+00        -0.25907E+06
 
   -0.40745E-09        -0.32526E-09         0.00000E+00
   -0.32526E-09        -0.51969E+06         0.00000E+00
    0.00000E+00         0.00000E+00        -0.25907E+06
 
   -0.57480E-09         0.36140E-10         0.00000E+00
    0.36140E-10        -0.51969E+06         0.00000E+00
    0.00000E+00         0.00000E+00        -0.25907E+06
 
   -0.69849E-09         0.36140E-10         0.00000E+00
    0.36140E-10        -0.51850E+06         0.00000E+00
    0.00000E+00         0.00000E+00        -0.25787E+06
 
   -0.61118E-09         0.28912E-09         0.00000E+00
    0.28912E-09        -0.51850E+06         0.00000E+00
    0.00000E+00         0.00000E+00        -0.25787E+06
 
    0.87311E-10         0.68666E-09         0.00000E+00
    0.68666E-09        -0.51850E+06         0.00000E+00
    0.00000E+00         0.00000E+00        -0.25787E+06
 
    0.82946E-09        -0.10842E-09         0.00000E+00
   -0.10842E-09        -0.51850E+06         0.00000E+00
    0.00000E+00         0.00000E+00        -0.25787E+06
 
    0.87311E-10        -0.72280E-10         0.00000E+00
   -0.72280E-10        -0.51850E+06         0.00000E+00
    0.00000E+00         0.00000E+00        -0.25787E+06
 
    0.72760E-09         0.00000E+00         0.00000E+00
    0.00000E+00        -0.51648E+06         0.00000E+00
    0.00000E+00         0.00000E+00        -0.25586E+06
 
    0.43656E-10        -0.18070E-09         0.00000E+00
   -0.18070E-09        -0.51648E+06         0.00000E+00
    0.00000E+00         0.00000E+00        -0.25586E+06
 
   -0.72760E-11        -0.28912E-09         0.00000E+00
   -0.28912E-09        -0.51648E+06         0.00000E+00
    0.00000E+00         0.00000E+00        -0.25586E+06
 
    0.56025E-09        -0.10842E-09         0.00000E+00
   -0.10842E-09        -0.51648E+06         0.00000E+00
    0.00000E+00         0.00000E+00        -0.25586E+06
 
   -0.32742E-09         0.14456E-09         0.00000E+00
    0.14456E-09        -0.51648E+06         0.00000E+00
    0.00000E+00         0.00000E+00        -0.25586E+06
 
    0.17462E-08         0.00000E+00         0.00000E+00
    0.00000E+00        -0.51316E+06         0.00000E+00
    0.00000E+00         0.00000E+00        -0.25254E+06
 
    0.11787E-08        -0.21684E-09         0.00000E+00
   -0.21684E-09        -0.51316E+06         0.00000E+00
    0.00000E+00         0.00000E+00        -0.25254E+06
 
   -0.12369E-09         0.18070E-09         0.00000E+00
    0.18070E-09        -0.51316E+06         0.00000E+00
    0.00000E+00         0.00000E+00        -0.25254E+06
 
   -0.32014E-09        -0.32526E-09         0.00000E+00
   -0.32526E-09        -0.51316E+06         0.00000E+00
    0.00000E+00         0.00000E+00        -0.25254E+06
 
    0.18481E-08         0.36140E-10         0.00000E+00
    0.36140E-10        -0.51316E+06         0.00000E+00
    0.00000E+00         0.00000E+00        -0.25254E+06
 
   -0.45111E-09         0.25298E-09         0.00000E+00
    0.25298E-09        -0.50788E+06         0.00000E+00
    0.00000E+00         0.00000E+00        -0.24725E+06
 
   -0.98953E-09        -0.72280E-10         0.00000E+00
   -0.72280E-10        -0.50788E+06         0.00000E+00
    0.00000E+00         0.00000E+00        -0.24725E+06
 
   -0.61118E-09         0.25298E-09         0.00000E+00
    0.25298E-09        -0.50788E+06         0.00000E+00
    0.00000E+00         0.00000E+00        -0.24725E+06
 
   -0.68394E-09        -0.36140E-09         0.00000E+00
   -0.36140E-09        -0.50788E+06         0.00000E+00
    0.00000E+00         0.00000E+00        -0.24725E+06
 
   -0.43656E-09        -0.36140E-10         0.00000E+00
   -0.36140E-10        -0.50788E+06         0.00000E+00
    0.00000E+00         0.00000E+00        -0.24725E+06
 
   -0.12224E-08         0.39754E-09         0.00000E+00
    0.39754E-09        -0.49974E+06         0.00000E+00
    0.00000E+00         0.00000E+00        -0.23912E+06
 
   -0.43656E-10        -0.32526E-09         0.00000E+00
   -0.32526E-09        -0.49974E+06         0.00000E+00
    0.00000E+00         0.00000E+00        -0.23912E+06
 
    0.34925E-09         0.28912E-09         0.00000E+00
    0.28912E-09        -0.49974E+06         0.00000E+00
    0.00000E+00         0.00000E+00        -0.23912E+06
 
    0.50932E-09        -0.28912E-09         0.00000E+00
   -0.28912E-09        -0.49974E+06         0.00000E+00
    0.00000E+00         0.00000E+00        -0.23912E+06
 
    0.87311E-09         0.39754E-09         0.00000E+00
    0.39754E-09        -0.49974E+06         0.00000E+00
    0.00000E+00         0.00000E+00        -0.23912E+06
 
   -0.36380E-10         0.39754E-09         0.00000E+00
    0.39754E-09        -0.48772E+06         0.00000E+00
    0.00000E+00         0.00000E+00        -0.22710E+06
 
   -0.80763E-09        -0.36140E-09         0.00000E+00
   -0.36140E-09        -0.48772E+06         0.00000E+00
    0.00000E+00         0.00000E+00        -0.22710E+06
 
   -0.82218E-09         0.14456E-09         0.00000E+00
    0.14456E-09        -0.48772E+06         0.00000E+00
    0.00000E+00         0.00000E+00        -0.22710E+06
 
   -0.53114E-09         0.14456E-09         0.00000E+00
    0.14456E-09        -0.48772E+06         0.00000E+00
    0.00000E+00         0.00000E+00        -0.22710E+06
 
   -0.40745E-09         0.00000E+00         0.00000E+00
    0.00000E+00        -0.48772E+06         0.00000E+00
    0.00000E+00         0.00000E+00        -0.22710E+06
 
   -0.10914E-09         0.72280E-09         0.00000E+00
    0.72280E-09        -0.47074E+06         0.00000E+00
    0.00000E+00         0.00000E+00        -0.21012E+06
 
    0.11933E-08        -0.61438E-09         0.00000E+00
   -0.61438E-09        -0.47074E+06         0.00000E+00
    0.00000E+00         0.00000E+00        -0.21012E+06
 
    0.11714E-08         0.36140E-10         0.00000E+00
    0.36140E-10        -0.47074E+06         0.00000E+00
    0.00000E+00         0.00000E+00        -0.21012E+06
 
    0.72760E-09         0.14456E-09         0.00000E+00
    0.14456E-09        -0.47074E+06         0.00000E+00
    0.00000E+00         0.00000E+00        -0.21012E+06
 
    0.18044E-08         0.72280E-10         0.00000E+00
    0.72280E-10        -0.47074E+06         0.00000E+00
    0.00000E+00         0.00000E+00        -0.21012E+06
 
    0.68394E-09         0.90350E-09         0.00000E+00
    0.90350E-09        -0.44794E+06         0.00000E+00
    0.00000E+00         0.00000E+00        -0.18732E+06
 
   -0.10259E-08        -0.12288E-08         0.00000E+00
   -0.12288E-08        -0.44794E+06         0.00000E+00
    0.00000E+00         0.00000E+00        -0.18732E+06
 
   -0.18190E-09         0.18070E-09         0.00000E+00
    0.18070E-09        -0.44794E+06         0.00000E+00
    0.00000E+00         0.00000E+00        -0.18732E+06
 
    0.58208E-10        -0.72280E-10         0.00000E+00
   -0.72280E-10        -0.44794E+06         0.00000E+00
    0.00000E+00         0.00000E+00        -0.18732E+06
 
   -0.21828E-10         0.68666E-09         0.00000E+00
    0.68666E-09        -0.44794E+06         0.00000E+00
    0.00000E+00         0.00000E+00        -0.18732E+06
 
   -0.46930E-09         0.21684E-09         0.00000E+00
    0.21684E-09        -0.41902E+06         0.00000E+00
    0.00000E+00         0.00000E+00        -0.15839E+06
 
   -0.10805E-08        -0.90350E-09         0.00000E+00
   -0.90350E-09        -0.41902E+06         0.00000E+00
    0.00000E+00         0.00000E+00        -0.15839E+06
 
   -0.27721E-08        -0.28912E-09         0.00000E+00
   -0.28912E-09        -0.41902E+06         0.00000E+00
    0.00000E+00         0.00000E+00        -0.15839E+06
 
   -0.16807E-08        -0.14456E-09         0.00000E+00
   -0.14456E-09        -0.41902E+06         0.00000E+00
    0.00000E+00         0.00000E+00        -0.15839E+06
 
   -0.92768E-09         0.25298E-09         0.00000E+00
    0.25298E-09        -0.41902E+06         0.00000E+00
    0.00000E+00         0.00000E+00        -0.15839E+06
 
   -0.63665E-10        -0.28912E-09         0.00000E+00
   -0.28912E-09        -0.38449E+06         0.00000E+00
    0.00000E+00         0.00000E+00        -0.12387E+06
 
    0.15098E-09        -0.10842E-09         0.00000E+00
   -0.10842E-09        -0.38449E+06         0.00000E+00
    0.00000E+00         0.00000E+00        -0.12387E+06
 
    0.24556E-09         0.00000E+00         0.00000E+00
    0.00000E+00        -0.38449E+06         0.00000E+00
    0.00000E+00         0.00000E+00        -0.12387E+06
 
    0.19099E-09        -0.36140E-10         0.00000E+00
   -0.36140E-10        -0.38449E+06         0.00000E+00
    0.00000E+00         0.00000E+00        -0.12387E+06
 
    0.75670E-09        -0.72280E-10         0.00000E+00
   -0.72280E-10        -0.38449E+06         0.00000E+00
    0.00000E+00         0.00000E+00        -0.12387E+06
 
    0.50477E-10        -0.14456E-09         0.00000E+00
   -0.14456E-09        -0.34587E+06         0.00000E+00
    0.00000E+00         0.00000E+00        -0.85245E+05
 
   -0.30514E-09        -0.36140E-10         0.00000E+00
   -0.36140E-10        -0.34587E+06         0.00000E+00
    0.00000E+00         0.00000E+00        -0.85245E+05
 
    0.24011E-09         0.72280E-10         0.00000E+00
    0.72280E-10        -0.34587E+06         0.00000E+00
    0.00000E+00         0.00000E+00        -0.85245E+05
 
   -0.11323E-09        -0.32526E-09         0.00000E+00
   -0.32526E-09        -0.34587E+06         0.00000E+00
    0.00000E+00         0.00000E+00        -0.85245E+05
 
   -0.12601E-08        -0.28912E-09         0.00000E+00
   -0.28912E-09        -0.34587E+06         0.00000E+00
    0.00000E+00         0.00000E+00        -0.85245E+05
 
SCALARS stressS double 
LOOKUP_TABLE default
  -260616.936980174     
  -260616.936980174     
  -260616.936980174     
  -260616.936980174     
  -260616.936980174     
  -260616.932944634     
  -260616.932944634     
  -260616.932944634     
  -260616.932944634     
  -260616.932944634     
  -260616.922613985     
  -260616.922613985     
  -260616.922613985     
  -260616.922613985     
  -260616.922613985     
  -260616.900267559     
  -260616.900267559     
  -260616.900267559     
  -260616.900267559     
  -260616.900267559     
  -260616.853722168     
  -260616.853722169     
  -260616.853722169     
  -260616.853722168     
  -260616.853722168     
  -260616.758061359     
  -260616.758061359     
  -260616.758061359     
  -260616.758061359     
  -260616.758061359     
  -260616.563100561     
  -260616.563100561     
  -260616.563100561     
  -260616.563100561     
  -260616.563100561     
  -260616.168780250     
  -260616.168780250     
  -260616.168780250     
  -260616.168780250     
  -260616.168780250     
  -260615.377476285     
  -260615.377476285     
  -260615.377476285     
  -260615.377476285     
  -260615.377476285     
  -260613.802715870     
  -260613.802715870     
  -260613.802715870     
  -260613.802715870     
  -260613.802715870     
  -260610.696769167     
  -260610.696769167     
  -260610.696769167     
  -260610.696769167     
  -260610.696769166     
  -260604.629820240     
  -260604.629820240     
  -260604.629820241     
  -260604.629820241     
  -260604.629820241     
  -260592.902850573     
  -260592.902850573     
  -260592.902850573     
  -260592.902850573     
  -260592.902850573     
  -260570.493508146     
  -260570.493508146     
  -260570.493508146     
  -260570.493508146     
  -260570.493508146     
  -260528.204669490     
  -260528.204669490     
  -260528.204669490     
  -260528.204669490     
  -260528.204669490     
  -260449.495339593     
  -260449.495339593     
  -260449.495339592     
  -260449.495339593     
  -260449.495339593     
  -260305.220091307     
  -260305.220091308     
  -260305.220091308     
  -260305.220091307     
  -260305.220091307     
  -260045.217287242     
  -260045.217287241     
  -260045.217287242     
  -260045.217287241     
  -260045.217287242     
  -259585.474875820     
  -259585.474875820     
  -259585.474875820     
  -259585.474875821     
  -259585.474875821     
  -258789.713737181     
  -258789.713737181     
  -258789.713737181     
  -258789.713737181     
  -258789.713737181     
  -257445.123611822     
  -257445.123611822     
  -257445.123611822     
  -257445.123611822     
  -257445.123611822     
  -255234.355883439     
  -255234.355883440     
  -255234.355883440     
  -255234.355883440     
  -255234.355883439     
  -251710.449118632     
  -251710.449118632     
  -251710.449118632     
  -251710.449118632     
  -251710.449118632     
  -246288.254695849     
  -246288.254695848     
  -246288.254695848     
  -246288.254695848     
  -246288.254695847     
  -238273.335114275     
  -238273.335114276     
  -238273.335114275     
  -238273.335114275     
  -238273.335114275     
  -226951.880546690     
  -226951.880546690     
  -226951.880546690     
  -226951.880546690     
  -226951.880546689     
  -211753.989173653     
  -211753.989173654     
  -211753.989173653     
  -211753.989173653     
  -211753.989173654     
  -192470.224364263     
  -192470.224364263     
  -192470.224364264     
  -192470.224364263     
  -192470.224364263     
  -169453.481431300     
  -169453.481431300     
  -169453.481431300     
  -169453.481431300     
  -169453.481431300     
  -143703.701318808     
  -143703.701318808     
  -143703.701318808     
  -143703.701318808     
  -143703.701318809     
SCALARS 2waySource double 
LOOKUP_TABLE default
  7.583035993227247E-006
  7.583035993230005E-006
  7.583035993229918E-006
  7.583035993230455E-006
  7.583035993229557E-006
  7.583005798015859E-006
  7.583005798017624E-006
  7.583005798018488E-006
  7.583005798017933E-006
  7.583005798018315E-006
  7.582935628275025E-006
  7.582935628276225E-006
  7.582935628276427E-006
  7.582935628276355E-006
  7.582935628276806E-006
  7.582788334593503E-006
  7.582788334594992E-006
  7.582788334595827E-006
  7.582788334595371E-006
  7.582788334594600E-006
  7.582487490362195E-006
  7.582487490363796E-006
  7.582487490366221E-006
  7.582487490364187E-006
  7.582487490364223E-006
  7.581880587106708E-006
  7.581880587109566E-006
  7.581880587107482E-006
  7.581880587105918E-006
  7.581880587104477E-006
  7.580667817122939E-006
  7.580667817122974E-006
  7.580667817122932E-006
  7.580667817125088E-006
  7.580667817124265E-006
  7.578266891036547E-006
  7.578266891039019E-006
  7.578266891039243E-006
  7.578266891041680E-006
  7.578266891040820E-006
  7.573560686235296E-006
  7.573560686239237E-006
  7.573560686237465E-006
  7.573560686236124E-006
  7.573560686233078E-006
  7.564434454477223E-006
  7.564434454477615E-006
  7.564434454478053E-006
  7.564434454480843E-006
  7.564434454480188E-006
  7.546944017968851E-006
  7.546944017970409E-006
  7.546944017967614E-006
  7.546944017967108E-006
  7.546944017964015E-006
  7.513855457978955E-006
  7.513855457981532E-006
  7.513855457975718E-006
  7.513855457977612E-006
  7.513855457978368E-006
  7.452152376471037E-006
  7.452152376470812E-006
  7.452152376471279E-006
  7.452152376472814E-006
  7.452152376478454E-006
  7.338924757153560E-006
  7.338924757150559E-006
  7.338924757152123E-006
  7.338924757151056E-006
  7.338924757155929E-006
  7.134878282821382E-006
  7.134878282823665E-006
  7.134878282821596E-006
  7.134878282823528E-006
  7.134878282818938E-006
  6.774665301444394E-006
  6.774665301440709E-006
  6.774665301441032E-006
  6.774665301442645E-006
  6.774665301442025E-006
  6.153631902334645E-006
  6.153631902334544E-006
  6.153631902333904E-006
  6.153631902331471E-006
  6.153631902331193E-006
  5.111951382978353E-006
  5.111951382980574E-006
  5.111951382983160E-006
  5.111951382984062E-006
  5.111951382986132E-006
  3.420332134131285E-006
  3.420332134134072E-006
  3.420332134131726E-006
  3.420332134131152E-006
  3.420332134128855E-006
  7.775315417941124E-007
  7.775315417952541E-007
  7.775315417925822E-007
  7.775315417905487E-007
  7.775315417929609E-007
 -3.160926183423736E-006
 -3.160926183419138E-006
 -3.160926183417144E-006
 -3.160926183417281E-006
 -3.160926183416516E-006
 -8.693563354766407E-006
 -8.693563354764330E-006
 -8.693563354765255E-006
 -8.693563354766966E-006
 -8.693563354762543E-006
 -1.589216838405255E-005
 -1.589216838405270E-005
 -1.589216838405368E-005
 -1.589216838405185E-005
 -1.589216838404971E-005
 -2.432288036338343E-005
 -2.432288036337777E-005
 -2.432288036339012E-005
 -2.432288036339228E-005
 -2.432288036339657E-005
 -3.273795963437044E-005
 -3.273795963436405E-005
 -3.273795963436268E-005
 -3.273795963436636E-005
 -3.273795963437326E-005
 -3.893715172652106E-005
 -3.893715172652146E-005
 -3.893715172652830E-005
 -3.893715172652347E-005
 -3.893715172652893E-005
 -4.010743653568992E-005
 -4.010743653568880E-005
 -4.010743653568708E-005
 -4.010743653568327E-005
 -4.010743653567219E-005
 -3.384836492078701E-005
 -3.384836492079582E-005
 -3.384836492078913E-005
 -3.384836492079404E-005
 -3.384836492079069E-005
 -1.961338798565348E-005
 -1.961338798565201E-005
 -1.961338798565263E-005
 -1.961338798565856E-005
 -1.961338798566905E-005
  3.262990855054408E-007
  3.262990855071425E-007
  3.262990855100181E-007
  3.262990855084291E-007
  3.262990855107860E-007
SCALARS poroP double 
LOOKUP_TABLE default
  0.000000000000000E+000
  0.000000000000000E+000
  0.000000000000000E+000
  0.000000000000000E+000
  0.000000000000000E+000
  0.000000000000000E+000
  0.000000000000000E+000
  0.000000000000000E+000
  0.000000000000000E+000
  0.000000000000000E+000
  0.000000000000000E+000
  0.000000000000000E+000
  0.000000000000000E+000
  0.000000000000000E+000
  0.000000000000000E+000
  0.000000000000000E+000
  0.000000000000000E+000
  0.000000000000000E+000
  0.000000000000000E+000
  0.000000000000000E+000
  0.000000000000000E+000
  0.000000000000000E+000
  0.000000000000000E+000
  0.000000000000000E+000
  0.000000000000000E+000
  0.000000000000000E+000
  0.000000000000000E+000
  0.000000000000000E+000
  0.000000000000000E+000
  0.000000000000000E+000
  0.000000000000000E+000
  0.000000000000000E+000
  0.000000000000000E+000
  0.000000000000000E+000
  0.000000000000000E+000
  0.000000000000000E+000
  0.000000000000000E+000
  0.000000000000000E+000
  0.000000000000000E+000
  0.000000000000000E+000
  0.000000000000000E+000
  0.000000000000000E+000
  0.000000000000000E+000
  0.000000000000000E+000
  0.000000000000000E+000
  0.000000000000000E+000
  0.000000000000000E+000
  0.000000000000000E+000
  0.000000000000000E+000
  0.000000000000000E+000
  0.000000000000000E+000
  0.000000000000000E+000
  0.000000000000000E+000
  0.000000000000000E+000
  0.000000000000000E+000
  0.000000000000000E+000
  0.000000000000000E+000
  0.000000000000000E+000
  0.000000000000000E+000
  0.000000000000000E+000
  0.000000000000000E+000
  0.000000000000000E+000
  0.000000000000000E+000
  0.000000000000000E+000
  0.000000000000000E+000
  0.000000000000000E+000
  0.000000000000000E+000
  0.000000000000000E+000
  0.000000000000000E+000
  0.000000000000000E+000
  0.000000000000000E+000
  0.000000000000000E+000
  0.000000000000000E+000
  0.000000000000000E+000
  0.000000000000000E+000
  0.000000000000000E+000
  0.000000000000000E+000
  0.000000000000000E+000
  0.000000000000000E+000
  0.000000000000000E+000
  0.000000000000000E+000
  0.000000000000000E+000
  0.000000000000000E+000
  0.000000000000000E+000
  0.000000000000000E+000
  0.000000000000000E+000
  0.000000000000000E+000
  0.000000000000000E+000
  0.000000000000000E+000
  0.000000000000000E+000
  0.000000000000000E+000
  0.000000000000000E+000
  0.000000000000000E+000
  0.000000000000000E+000
  0.000000000000000E+000
  0.000000000000000E+000
  0.000000000000000E+000
  0.000000000000000E+000
  0.000000000000000E+000
  0.000000000000000E+000
  0.000000000000000E+000
  0.000000000000000E+000
  0.000000000000000E+000
  0.000000000000000E+000
  0.000000000000000E+000
  0.000000000000000E+000
  0.000000000000000E+000
  0.000000000000000E+000
  0.000000000000000E+000
  0.000000000000000E+000
  0.000000000000000E+000
  0.000000000000000E+000
  0.000000000000000E+000
  0.000000000000000E+000
  0.000000000000000E+000
  0.000000000000000E+000
  0.000000000000000E+000
  0.000000000000000E+000
  0.000000000000000E+000
  0.000000000000000E+000
  0.000000000000000E+000
  0.000000000000000E+000
  0.000000000000000E+000
  0.000000000000000E+000
  0.000000000000000E+000
  0.000000000000000E+000
  0.000000000000000E+000
  0.000000000000000E+000
  0.000000000000000E+000
  0.000000000000000E+000
  0.000000000000000E+000
  0.000000000000000E+000
  0.000000000000000E+000
  0.000000000000000E+000
  0.000000000000000E+000
  0.000000000000000E+000
  0.000000000000000E+000
  0.000000000000000E+000
  0.000000000000000E+000
  0.000000000000000E+000
  0.000000000000000E+000
  0.000000000000000E+000
  0.000000000000000E+000
  0.000000000000000E+000
  0.000000000000000E+000
  0.000000000000000E+000
  0.000000000000000E+000
  0.000000000000000E+000
  0.000000000000000E+000
  0.000000000000000E+000
SCALARS elementIsPlast double 
LOOKUP_TABLE default
  0.000000000000000E+000
  0.000000000000000E+000
  0.000000000000000E+000
  0.000000000000000E+000
  0.000000000000000E+000
  0.000000000000000E+000
  0.000000000000000E+000
  0.000000000000000E+000
  0.000000000000000E+000
  0.000000000000000E+000
  0.000000000000000E+000
  0.000000000000000E+000
  0.000000000000000E+000
  0.000000000000000E+000
  0.000000000000000E+000
  0.000000000000000E+000
  0.000000000000000E+000
  0.000000000000000E+000
  0.000000000000000E+000
  0.000000000000000E+000
  0.000000000000000E+000
  0.000000000000000E+000
  0.000000000000000E+000
  0.000000000000000E+000
  0.000000000000000E+000
  0.000000000000000E+000
  0.000000000000000E+000
  0.000000000000000E+000
  0.000000000000000E+000
  0.000000000000000E+000
  0.000000000000000E+000
  0.000000000000000E+000
  0.000000000000000E+000
  0.000000000000000E+000
  0.000000000000000E+000
  0.000000000000000E+000
  0.000000000000000E+000
  0.000000000000000E+000
  0.000000000000000E+000
  0.000000000000000E+000
  0.000000000000000E+000
  0.000000000000000E+000
  0.000000000000000E+000
  0.000000000000000E+000
  0.000000000000000E+000
  0.000000000000000E+000
  0.000000000000000E+000
  0.000000000000000E+000
  0.000000000000000E+000
  0.000000000000000E+000
  0.000000000000000E+000
  0.000000000000000E+000
  0.000000000000000E+000
  0.000000000000000E+000
  0.000000000000000E+000
  0.000000000000000E+000
  0.000000000000000E+000
  0.000000000000000E+000
  0.000000000000000E+000
  0.000000000000000E+000
  0.000000000000000E+000
  0.000000000000000E+000
  0.000000000000000E+000
  0.000000000000000E+000
  0.000000000000000E+000
  0.000000000000000E+000
  0.000000000000000E+000
  0.000000000000000E+000
  0.000000000000000E+000
  0.000000000000000E+000
  0.000000000000000E+000
  0.000000000000000E+000
  0.000000000000000E+000
  0.000000000000000E+000
  0.000000000000000E+000
  0.000000000000000E+000
  0.000000000000000E+000
  0.000000000000000E+000
  0.000000000000000E+000
  0.000000000000000E+000
  0.000000000000000E+000
  0.000000000000000E+000
  0.000000000000000E+000
  0.000000000000000E+000
  0.000000000000000E+000
  0.000000000000000E+000
  0.000000000000000E+000
  0.000000000000000E+000
  0.000000000000000E+000
  0.000000000000000E+000
  0.000000000000000E+000
  0.000000000000000E+000
  0.000000000000000E+000
  0.000000000000000E+000
  0.000000000000000E+000
  0.000000000000000E+000
  0.000000000000000E+000
  0.000000000000000E+000
  0.000000000000000E+000
  0.000000000000000E+000
  0.000000000000000E+000
  0.000000000000000E+000
  0.000000000000000E+000
  0.000000000000000E+000
  0.000000000000000E+000
  0.000000000000000E+000
  0.000000000000000E+000
  0.000000000000000E+000
  0.000000000000000E+000
  0.000000000000000E+000
  0.000000000000000E+000
  0.000000000000000E+000
  0.000000000000000E+000
  0.000000000000000E+000
  0.000000000000000E+000
  0.000000000000000E+000
  0.000000000000000E+000
  0.000000000000000E+000
  0.000000000000000E+000
  0.000000000000000E+000
  0.000000000000000E+000
  0.000000000000000E+000
  0.000000000000000E+000
  0.000000000000000E+000
  0.000000000000000E+000
  0.000000000000000E+000
  0.000000000000000E+000
  0.000000000000000E+000
  0.000000000000000E+000
  0.000000000000000E+000
  0.000000000000000E+000
  0.000000000000000E+000
  0.000000000000000E+000
  0.000000000000000E+000
  0.000000000000000E+000
  0.000000000000000E+000
  0.000000000000000E+000
  0.000000000000000E+000
  0.000000000000000E+000
  0.000000000000000E+000
  0.000000000000000E+000
  0.000000000000000E+000
  0.000000000000000E+000
  0.000000000000000E+000
  0.000000000000000E+000
  0.000000000000000E+000
  0.000000000000000E+000
  0.000000000000000E+000
  0.000000000000000E+000
  0.000000000000000E+000
SCALARS poroL double 
LOOKUP_TABLE default
  0.199999911270143     
  0.199999911270143     
  0.199999911270143     
  0.199999911270143     
  0.199999911270143     
  0.199999911197503     
  0.199999911197503     
  0.199999911197503     
  0.199999911197503     
  0.199999911197503     
  0.199999911011552     
  0.199999911011552     
  0.199999911011552     
  0.199999911011552     
  0.199999911011552     
  0.199999910609316     
  0.199999910609316     
  0.199999910609316     
  0.199999910609316     
  0.199999910609316     
  0.199999909771499     
  0.199999909771499     
  0.199999909771499     
  0.199999909771499     
  0.199999909771499     
  0.199999908049604     
  0.199999908049604     
  0.199999908049604     
  0.199999908049604     
  0.199999908049604     
  0.199999904540310     
  0.199999904540310     
  0.199999904540310     
  0.199999904540310     
  0.199999904540310     
  0.199999897442545     
  0.199999897442545     
  0.199999897442545     
  0.199999897442545     
  0.199999897442545     
  0.199999883199073     
  0.199999883199073     
  0.199999883199073     
  0.199999883199073     
  0.199999883199073     
  0.199999854853386     
  0.199999854853386     
  0.199999854853386     
  0.199999854853386     
  0.199999854853386     
  0.199999798946345     
  0.199999798946345     
  0.199999798946345     
  0.199999798946345     
  0.199999798946345     
  0.199999689741264     
  0.199999689741264     
  0.199999689741264     
  0.199999689741264     
  0.199999689741264     
  0.199999478655810     
  0.199999478655810     
  0.199999478655810     
  0.199999478655810     
  0.199999478655810     
  0.199999075287647     
  0.199999075287647     
  0.199999075287647     
  0.199999075287647     
  0.199999075287647     
  0.199998314088551     
  0.199998314088551     
  0.199998314088551     
  0.199998314088551     
  0.199998314088551     
  0.199996897320613     
  0.199996897320613     
  0.199996897320613     
  0.199996897320613     
  0.199996897320613     
  0.199994300366144     
  0.199994300366144     
  0.199994300366144     
  0.199994300366144     
  0.199994300366144     
  0.199989620315670     
  0.199989620315670     
  0.199989620315670     
  0.199989620315670     
  0.199989620315670     
  0.199981344952265     
  0.199981344952265     
  0.199981344952265     
  0.199981344952265     
  0.199981344952265     
  0.199967021251769     
  0.199967021251769     
  0.199967021251769     
  0.199967021251769     
  0.199967021251769     
  0.199942818629513     
  0.199942818629513     
  0.199942818629513     
  0.199942818629513     
  0.199942818629513     
  0.199903024810402     
  0.199903024810402     
  0.199903024810402     
  0.199903024810402     
  0.199903024810402     
  0.199839594488635     
  0.199839594488635     
  0.199839594488635     
  0.199839594488635     
  0.199839594488635     
  0.199741994989025     
  0.199741994989025     
  0.199741994989025     
  0.199741994989025     
  0.199741994989025     
  0.199597726436557     
  0.199597726436557     
  0.199597726436557     
  0.199597726436557     
  0.199597726436557     
  0.199393940254340     
  0.199393940254340     
  0.199393940254340     
  0.199393940254340     
  0.199393940254340     
  0.199120378209626     
  0.199120378209626     
  0.199120378209626     
  0.199120378209626     
  0.199120378209626     
  0.198773270443057     
  0.198773270443057     
  0.198773270443057     
  0.198773270443057     
  0.198773270443057     
  0.198358969070263     
  0.198358969070263     
  0.198358969070263     
  0.198358969070263     
  0.198358969070263     
  0.197895473028239     
  0.197895473028239     
  0.197895473028239     
  0.197895473028239     
  0.197895473028239     
POINT_DATA        186
SCALARS solMandel double 
LOOKUP_TABLE default
   260621.352950677     
   260621.352950677     
   260621.352950677     
   260621.352950677     
   260621.352950677     
   260621.352950677     
   260621.371099305     
   260621.371099305     
   260621.371099305     
   260621.371099305     
   260621.371099305     
   260621.371099305     
   260621.422906907     
   260621.422906907     
   260621.422906907     
   260621.422906907     
   260621.422906907     
   260621.422906907     
   260621.500599373     
   260621.500599373     
   260621.500599373     
   260621.500599373     
   260621.500599373     
   260621.500599373     
   260621.591943310     
   260621.591943310     
   260621.591943310     
   260621.591943310     
   260621.591943310     
   260621.591943310     
   260621.681912325     
   260621.681912325     
   260621.681912325     
   260621.681912325     
   260621.681912325     
   260621.681912325     
   260621.755266124     
   260621.755266124     
   260621.755266124     
   260621.755266124     
   260621.755266124     
   260621.755266124     
   260621.798617364     
   260621.798617364     
   260621.798617364     
   260621.798617364     
   260621.798617364     
   260621.798617364     
   260621.798112699     
   260621.798112699     
   260621.798112699     
   260621.798112699     
   260621.798112699     
   260621.798112699     
   260621.723394206     
   260621.723394206     
   260621.723394206     
   260621.723394206     
   260621.723394206     
   260621.723394206     
   260621.473897532     
   260621.473897532     
   260621.473897532     
   260621.473897532     
   260621.473897532     
   260621.473897532     
   260620.725117900     
   260620.725117900     
   260620.725117900     
   260620.725117900     
   260620.725117900     
   260620.725117900     
   260618.520621075     
   260618.520621075     
   260618.520621075     
   260618.520621075     
   260618.520621075     
   260618.520621075     
   260612.258815167     
   260612.258815167     
   260612.258815167     
   260612.258815167     
   260612.258815167     
   260612.258815167     
   260595.348524400     
   260595.348524400     
   260595.348524400     
   260595.348524400     
   260595.348524400     
   260595.348524400     
   260552.183235042     
   260552.183235042     
   260552.183235042     
   260552.183235042     
   260552.183235042     
   260552.183235042     
   260448.215184978     
   260448.215184978     
   260448.215184978     
   260448.215184978     
   260448.215184978     
   260448.215184978     
   260212.015806904     
   260212.015806904     
   260212.015806904     
   260212.015806904     
   260212.015806904     
   260212.015806904     
   259705.891444501     
   259705.891444501     
   259705.891444501     
   259705.891444501     
   259705.891444501     
   259705.891444501     
   258682.945334195     
   258682.945334195     
   258682.945334195     
   258682.945334195     
   258682.945334195     
   258682.945334195     
   256732.713904879     
   256732.713904879     
   256732.713904879     
   256732.713904879     
   256732.713904879     
   256732.713904879     
   253225.367955251     
   253225.367955251     
   253225.367955251     
   253225.367955251     
   253225.367955251     
   253225.367955251     
   247274.866529318     
   247274.866529318     
   247274.866529318     
   247274.866529318     
   247274.866529318     
   247274.866529318     
   237750.426178250     
   237750.426178250     
   237750.426178250     
   237750.426178250     
   237750.426178250     
   237750.426178250     
   223366.654192800     
   223366.654192800     
   223366.654192800     
   223366.654192800     
   223366.654192800     
   223366.654192800     
   202869.107528186     
   202869.107528186     
   202869.107528186     
   202869.107528186     
   202869.107528186     
   202869.107528186     
   175301.928430579     
   175301.928430579     
   175301.928430579     
   175301.928430579     
   175301.928430579     
   175301.928430579     
   140304.603898505     
   140304.603898505     
   140304.603898505     
   140304.603898505     
   140304.603898505     
   140304.603898505     
   98352.1529917741     
   98352.1529917741     
   98352.1529917741     
   98352.1529917741     
   98352.1529917741     
   98352.1529917741     
   50846.6878742266     
   50846.6878742266     
   50846.6878742266     
   50846.6878742266     
   50846.6878742266     
   50846.6878742266     
  3.441277190328797E-010
  2.587051872785674E-010
  3.441277190328797E-010
  2.587051872785674E-010
  3.441277190328797E-010
  3.441277190328797E-010
