# vtk DataFile Version 3.0
vtk output
ASCII
DATASET UNSTRUCTURED_GRID
POINTS       186 double 
  0.00000000E+00  1.00000000E+01  0.00000000E+00
  0.00000000E+00  8.00000000E+00  0.00000000E+00
  0.00000000E+00  6.00000000E+00  0.00000000E+00
  0.00000000E+00  4.00000000E+00  0.00000000E+00
  0.00000000E+00  2.00000000E+00  0.00000000E+00
  0.00000000E+00  0.00000000E+00  0.00000000E+00
  3.33333333E+00  1.00000000E+01  0.00000000E+00
  3.33333333E+00  8.00000000E+00  0.00000000E+00
  3.33333333E+00  6.00000000E+00  0.00000000E+00
  3.33333333E+00  4.00000000E+00  0.00000000E+00
  3.33333333E+00  2.00000000E+00  0.00000000E+00
  3.33333333E+00  0.00000000E+00  0.00000000E+00
  6.66666667E+00  1.00000000E+01  0.00000000E+00
  6.66666667E+00  8.00000000E+00  0.00000000E+00
  6.66666667E+00  6.00000000E+00  0.00000000E+00
  6.66666667E+00  4.00000000E+00  0.00000000E+00
  6.66666667E+00  2.00000000E+00  0.00000000E+00
  6.66666667E+00  0.00000000E+00  0.00000000E+00
  1.00000000E+01  1.00000000E+01  0.00000000E+00
  1.00000000E+01  8.00000000E+00  0.00000000E+00
  1.00000000E+01  6.00000000E+00  0.00000000E+00
  1.00000000E+01  4.00000000E+00  0.00000000E+00
  1.00000000E+01  2.00000000E+00  0.00000000E+00
  1.00000000E+01  0.00000000E+00  0.00000000E+00
  1.33333333E+01  1.00000000E+01  0.00000000E+00
  1.33333333E+01  8.00000000E+00  0.00000000E+00
  1.33333333E+01  6.00000000E+00  0.00000000E+00
  1.33333333E+01  4.00000000E+00  0.00000000E+00
  1.33333333E+01  2.00000000E+00  0.00000000E+00
  1.33333333E+01  0.00000000E+00  0.00000000E+00
  1.66666667E+01  1.00000000E+01  0.00000000E+00
  1.66666667E+01  8.00000000E+00  0.00000000E+00
  1.66666667E+01  6.00000000E+00  0.00000000E+00
  1.66666667E+01  4.00000000E+00  0.00000000E+00
  1.66666667E+01  2.00000000E+00  0.00000000E+00
  1.66666667E+01  0.00000000E+00  0.00000000E+00
  2.00000000E+01  1.00000000E+01  0.00000000E+00
  2.00000000E+01  8.00000000E+00  0.00000000E+00
  2.00000000E+01  6.00000000E+00  0.00000000E+00
  2.00000000E+01  4.00000000E+00  0.00000000E+00
  2.00000000E+01  2.00000000E+00  0.00000000E+00
  2.00000000E+01  0.00000000E+00  0.00000000E+00
  2.33333333E+01  1.00000000E+01  0.00000000E+00
  2.33333333E+01  8.00000000E+00  0.00000000E+00
  2.33333333E+01  6.00000000E+00  0.00000000E+00
  2.33333333E+01  4.00000000E+00  0.00000000E+00
  2.33333333E+01  2.00000000E+00  0.00000000E+00
  2.33333333E+01  0.00000000E+00  0.00000000E+00
  2.66666667E+01  1.00000000E+01  0.00000000E+00
  2.66666667E+01  8.00000000E+00  0.00000000E+00
  2.66666667E+01  6.00000000E+00  0.00000000E+00
  2.66666667E+01  4.00000000E+00  0.00000000E+00
  2.66666667E+01  2.00000000E+00  0.00000000E+00
  2.66666667E+01  0.00000000E+00  0.00000000E+00
  3.00000000E+01  1.00000000E+01  0.00000000E+00
  3.00000000E+01  8.00000000E+00  0.00000000E+00
  3.00000000E+01  6.00000000E+00  0.00000000E+00
  3.00000000E+01  4.00000000E+00  0.00000000E+00
  3.00000000E+01  2.00000000E+00  0.00000000E+00
  3.00000000E+01  0.00000000E+00  0.00000000E+00
  3.33333333E+01  1.00000000E+01  0.00000000E+00
  3.33333333E+01  8.00000000E+00  0.00000000E+00
  3.33333333E+01  6.00000000E+00  0.00000000E+00
  3.33333333E+01  4.00000000E+00  0.00000000E+00
  3.33333333E+01  2.00000000E+00  0.00000000E+00
  3.33333333E+01  0.00000000E+00  0.00000000E+00
  3.66666667E+01  1.00000000E+01  0.00000000E+00
  3.66666667E+01  8.00000000E+00  0.00000000E+00
  3.66666667E+01  6.00000000E+00  0.00000000E+00
  3.66666667E+01  4.00000000E+00  0.00000000E+00
  3.66666667E+01  2.00000000E+00  0.00000000E+00
  3.66666667E+01  0.00000000E+00  0.00000000E+00
  4.00000000E+01  1.00000000E+01  0.00000000E+00
  4.00000000E+01  8.00000000E+00  0.00000000E+00
  4.00000000E+01  6.00000000E+00  0.00000000E+00
  4.00000000E+01  4.00000000E+00  0.00000000E+00
  4.00000000E+01  2.00000000E+00  0.00000000E+00
  4.00000000E+01  0.00000000E+00  0.00000000E+00
  4.33333333E+01  1.00000000E+01  0.00000000E+00
  4.33333333E+01  8.00000000E+00  0.00000000E+00
  4.33333333E+01  6.00000000E+00  0.00000000E+00
  4.33333333E+01  4.00000000E+00  0.00000000E+00
  4.33333333E+01  2.00000000E+00  0.00000000E+00
  4.33333333E+01  0.00000000E+00  0.00000000E+00
  4.66666667E+01  1.00000000E+01  0.00000000E+00
  4.66666667E+01  8.00000000E+00  0.00000000E+00
  4.66666667E+01  6.00000000E+00  0.00000000E+00
  4.66666667E+01  4.00000000E+00  0.00000000E+00
  4.66666667E+01  2.00000000E+00  0.00000000E+00
  4.66666667E+01  0.00000000E+00  0.00000000E+00
  5.00000000E+01  1.00000000E+01  0.00000000E+00
  5.00000000E+01  8.00000000E+00  0.00000000E+00
  5.00000000E+01  6.00000000E+00  0.00000000E+00
  5.00000000E+01  4.00000000E+00  0.00000000E+00
  5.00000000E+01  2.00000000E+00  0.00000000E+00
  5.00000000E+01  0.00000000E+00  0.00000000E+00
  5.33333333E+01  1.00000000E+01  0.00000000E+00
  5.33333333E+01  8.00000000E+00  0.00000000E+00
  5.33333333E+01  6.00000000E+00  0.00000000E+00
  5.33333333E+01  4.00000000E+00  0.00000000E+00
  5.33333333E+01  2.00000000E+00  0.00000000E+00
  5.33333333E+01  0.00000000E+00  0.00000000E+00
  5.66666667E+01  1.00000000E+01  0.00000000E+00
  5.66666667E+01  8.00000000E+00  0.00000000E+00
  5.66666667E+01  6.00000000E+00  0.00000000E+00
  5.66666667E+01  4.00000000E+00  0.00000000E+00
  5.66666667E+01  2.00000000E+00  0.00000000E+00
  5.66666667E+01  0.00000000E+00  0.00000000E+00
  6.00000000E+01  1.00000000E+01  0.00000000E+00
  6.00000000E+01  8.00000000E+00  0.00000000E+00
  6.00000000E+01  6.00000000E+00  0.00000000E+00
  6.00000000E+01  4.00000000E+00  0.00000000E+00
  6.00000000E+01  2.00000000E+00  0.00000000E+00
  6.00000000E+01  0.00000000E+00  0.00000000E+00
  6.33333333E+01  1.00000000E+01  0.00000000E+00
  6.33333333E+01  8.00000000E+00  0.00000000E+00
  6.33333333E+01  6.00000000E+00  0.00000000E+00
  6.33333333E+01  4.00000000E+00  0.00000000E+00
  6.33333333E+01  2.00000000E+00  0.00000000E+00
  6.33333333E+01  0.00000000E+00  0.00000000E+00
  6.66666667E+01  1.00000000E+01  0.00000000E+00
  6.66666667E+01  8.00000000E+00  0.00000000E+00
  6.66666667E+01  6.00000000E+00  0.00000000E+00
  6.66666667E+01  4.00000000E+00  0.00000000E+00
  6.66666667E+01  2.00000000E+00  0.00000000E+00
  6.66666667E+01  0.00000000E+00  0.00000000E+00
  7.00000000E+01  1.00000000E+01  0.00000000E+00
  7.00000000E+01  8.00000000E+00  0.00000000E+00
  7.00000000E+01  6.00000000E+00  0.00000000E+00
  7.00000000E+01  4.00000000E+00  0.00000000E+00
  7.00000000E+01  2.00000000E+00  0.00000000E+00
  7.00000000E+01  0.00000000E+00  0.00000000E+00
  7.33333333E+01  1.00000000E+01  0.00000000E+00
  7.33333333E+01  8.00000000E+00  0.00000000E+00
  7.33333333E+01  6.00000000E+00  0.00000000E+00
  7.33333333E+01  4.00000000E+00  0.00000000E+00
  7.33333333E+01  2.00000000E+00  0.00000000E+00
  7.33333333E+01  0.00000000E+00  0.00000000E+00
  7.66666667E+01  1.00000000E+01  0.00000000E+00
  7.66666667E+01  8.00000000E+00  0.00000000E+00
  7.66666667E+01  6.00000000E+00  0.00000000E+00
  7.66666667E+01  4.00000000E+00  0.00000000E+00
  7.66666667E+01  2.00000000E+00  0.00000000E+00
  7.66666667E+01  0.00000000E+00  0.00000000E+00
  8.00000000E+01  1.00000000E+01  0.00000000E+00
  8.00000000E+01  8.00000000E+00  0.00000000E+00
  8.00000000E+01  6.00000000E+00  0.00000000E+00
  8.00000000E+01  4.00000000E+00  0.00000000E+00
  8.00000000E+01  2.00000000E+00  0.00000000E+00
  8.00000000E+01  0.00000000E+00  0.00000000E+00
  8.33333333E+01  1.00000000E+01  0.00000000E+00
  8.33333333E+01  8.00000000E+00  0.00000000E+00
  8.33333333E+01  6.00000000E+00  0.00000000E+00
  8.33333333E+01  4.00000000E+00  0.00000000E+00
  8.33333333E+01  2.00000000E+00  0.00000000E+00
  8.33333333E+01  0.00000000E+00  0.00000000E+00
  8.66666667E+01  1.00000000E+01  0.00000000E+00
  8.66666667E+01  8.00000000E+00  0.00000000E+00
  8.66666667E+01  6.00000000E+00  0.00000000E+00
  8.66666667E+01  4.00000000E+00  0.00000000E+00
  8.66666667E+01  2.00000000E+00  0.00000000E+00
  8.66666667E+01  0.00000000E+00  0.00000000E+00
  9.00000000E+01  1.00000000E+01  0.00000000E+00
  9.00000000E+01  8.00000000E+00  0.00000000E+00
  9.00000000E+01  6.00000000E+00  0.00000000E+00
  9.00000000E+01  4.00000000E+00  0.00000000E+00
  9.00000000E+01  2.00000000E+00  0.00000000E+00
  9.00000000E+01  0.00000000E+00  0.00000000E+00
  9.33333333E+01  1.00000000E+01  0.00000000E+00
  9.33333333E+01  8.00000000E+00  0.00000000E+00
  9.33333333E+01  6.00000000E+00  0.00000000E+00
  9.33333333E+01  4.00000000E+00  0.00000000E+00
  9.33333333E+01  2.00000000E+00  0.00000000E+00
  9.33333333E+01  0.00000000E+00  0.00000000E+00
  9.66666667E+01  1.00000000E+01  0.00000000E+00
  9.66666667E+01  8.00000000E+00  0.00000000E+00
  9.66666667E+01  6.00000000E+00  0.00000000E+00
  9.66666667E+01  4.00000000E+00  0.00000000E+00
  9.66666667E+01  2.00000000E+00  0.00000000E+00
  9.66666667E+01  0.00000000E+00  0.00000000E+00
  1.00000000E+02  1.00000000E+01  0.00000000E+00
  1.00000000E+02  8.00000000E+00  0.00000000E+00
  1.00000000E+02  6.00000000E+00  0.00000000E+00
  1.00000000E+02  4.00000000E+00  0.00000000E+00
  1.00000000E+02  2.00000000E+00  0.00000000E+00
  1.00000000E+02  0.00000000E+00  0.00000000E+00
CELLS       150       750
         4           0           1           7           6
         4           1           2           8           7
         4           2           3           9           8
         4           3           4          10           9
         4           4           5          11          10
         4           6           7          13          12
         4           7           8          14          13
         4           8           9          15          14
         4           9          10          16          15
         4          10          11          17          16
         4          12          13          19          18
         4          13          14          20          19
         4          14          15          21          20
         4          15          16          22          21
         4          16          17          23          22
         4          18          19          25          24
         4          19          20          26          25
         4          20          21          27          26
         4          21          22          28          27
         4          22          23          29          28
         4          24          25          31          30
         4          25          26          32          31
         4          26          27          33          32
         4          27          28          34          33
         4          28          29          35          34
         4          30          31          37          36
         4          31          32          38          37
         4          32          33          39          38
         4          33          34          40          39
         4          34          35          41          40
         4          36          37          43          42
         4          37          38          44          43
         4          38          39          45          44
         4          39          40          46          45
         4          40          41          47          46
         4          42          43          49          48
         4          43          44          50          49
         4          44          45          51          50
         4          45          46          52          51
         4          46          47          53          52
         4          48          49          55          54
         4          49          50          56          55
         4          50          51          57          56
         4          51          52          58          57
         4          52          53          59          58
         4          54          55          61          60
         4          55          56          62          61
         4          56          57          63          62
         4          57          58          64          63
         4          58          59          65          64
         4          60          61          67          66
         4          61          62          68          67
         4          62          63          69          68
         4          63          64          70          69
         4          64          65          71          70
         4          66          67          73          72
         4          67          68          74          73
         4          68          69          75          74
         4          69          70          76          75
         4          70          71          77          76
         4          72          73          79          78
         4          73          74          80          79
         4          74          75          81          80
         4          75          76          82          81
         4          76          77          83          82
         4          78          79          85          84
         4          79          80          86          85
         4          80          81          87          86
         4          81          82          88          87
         4          82          83          89          88
         4          84          85          91          90
         4          85          86          92          91
         4          86          87          93          92
         4          87          88          94          93
         4          88          89          95          94
         4          90          91          97          96
         4          91          92          98          97
         4          92          93          99          98
         4          93          94         100          99
         4          94          95         101         100
         4          96          97         103         102
         4          97          98         104         103
         4          98          99         105         104
         4          99         100         106         105
         4         100         101         107         106
         4         102         103         109         108
         4         103         104         110         109
         4         104         105         111         110
         4         105         106         112         111
         4         106         107         113         112
         4         108         109         115         114
         4         109         110         116         115
         4         110         111         117         116
         4         111         112         118         117
         4         112         113         119         118
         4         114         115         121         120
         4         115         116         122         121
         4         116         117         123         122
         4         117         118         124         123
         4         118         119         125         124
         4         120         121         127         126
         4         121         122         128         127
         4         122         123         129         128
         4         123         124         130         129
         4         124         125         131         130
         4         126         127         133         132
         4         127         128         134         133
         4         128         129         135         134
         4         129         130         136         135
         4         130         131         137         136
         4         132         133         139         138
         4         133         134         140         139
         4         134         135         141         140
         4         135         136         142         141
         4         136         137         143         142
         4         138         139         145         144
         4         139         140         146         145
         4         140         141         147         146
         4         141         142         148         147
         4         142         143         149         148
         4         144         145         151         150
         4         145         146         152         151
         4         146         147         153         152
         4         147         148         154         153
         4         148         149         155         154
         4         150         151         157         156
         4         151         152         158         157
         4         152         153         159         158
         4         153         154         160         159
         4         154         155         161         160
         4         156         157         163         162
         4         157         158         164         163
         4         158         159         165         164
         4         159         160         166         165
         4         160         161         167         166
         4         162         163         169         168
         4         163         164         170         169
         4         164         165         171         170
         4         165         166         172         171
         4         166         167         173         172
         4         168         169         175         174
         4         169         170         176         175
         4         170         171         177         176
         4         171         172         178         177
         4         172         173         179         178
         4         174         175         181         180
         4         175         176         182         181
         4         176         177         183         182
         4         177         178         184         183
         4         178         179         185         184
CELL_TYPES        150
9
9
9
9
9
9
9
9
9
9
9
9
9
9
9
9
9
9
9
9
9
9
9
9
9
9
9
9
9
9
9
9
9
9
9
9
9
9
9
9
9
9
9
9
9
9
9
9
9
9
9
9
9
9
9
9
9
9
9
9
9
9
9
9
9
9
9
9
9
9
9
9
9
9
9
9
9
9
9
9
9
9
9
9
9
9
9
9
9
9
9
9
9
9
9
9
9
9
9
9
9
9
9
9
9
9
9
9
9
9
9
9
9
9
9
9
9
9
9
9
9
9
9
9
9
9
9
9
9
9
9
9
9
9
9
9
9
9
9
9
9
9
9
9
9
9
9
9
9
9
POINT_DATA       186
SCALARS p double 
LOOKUP_TABLE default
   253562.664227634     
   253562.664227634     
   253562.664227634     
   253562.664227634     
   253562.664227634     
   253562.664227634     
   253562.664227634     
   253562.664227634     
   253562.664227634     
   253562.664227634     
   253562.664227634     
   253562.664227634     
   253562.664227634     
   253562.664227634     
   253562.664227634     
   253562.664227634     
   253562.664227634     
   253562.664227634     
   253562.664227634     
   253562.664227634     
   253562.664227634     
   253562.664227634     
   253562.664227634     
   253562.664227634     
   253562.664227634     
   253562.664227634     
   253562.664227634     
   253562.664227634     
   253562.664227634     
   253562.664227634     
   253562.664227634     
   253562.664227634     
   253562.664227634     
   253562.664227634     
   253562.664227634     
   253562.664227634     
   253562.664227634     
   253562.664227634     
   253562.664227634     
   253562.664227634     
   253562.664227634     
   253562.664227634     
   253562.664227634     
   253562.664227634     
   253562.664227634     
   253562.664227634     
   253562.664227634     
   253562.664227634     
   253562.664227634     
   253562.664227634     
   253562.664227634     
   253562.664227634     
   253562.664227634     
   253562.664227634     
   253562.664227633     
   253562.664227633     
   253562.664227633     
   253562.664227633     
   253562.664227634     
   253562.664227634     
   253562.664227632     
   253562.664227632     
   253562.664227632     
   253562.664227632     
   253562.664227632     
   253562.664227632     
   253562.664227624     
   253562.664227624     
   253562.664227624     
   253562.664227623     
   253562.664227623     
   253562.664227623     
   253562.664227575     
   253562.664227575     
   253562.664227575     
   253562.664227575     
   253562.664227575     
   253562.664227575     
   253562.664227278     
   253562.664227278     
   253562.664227278     
   253562.664227278     
   253562.664227278     
   253562.664227278     
   253562.664225495     
   253562.664225495     
   253562.664225495     
   253562.664225494     
   253562.664225494     
   253562.664225494     
   253562.664214923     
   253562.664214923     
   253562.664214923     
   253562.664214923     
   253562.664214923     
   253562.664214922     
   253562.664153048     
   253562.664153048     
   253562.664153048     
   253562.664153048     
   253562.664153048     
   253562.664153048     
   253562.663795655     
   253562.663795655     
   253562.663795655     
   253562.663795655     
   253562.663795655     
   253562.663795655     
   253562.661760018     
   253562.661760018     
   253562.661760018     
   253562.661760018     
   253562.661760018     
   253562.661760018     
   253562.650336719     
   253562.650336720     
   253562.650336720     
   253562.650336719     
   253562.650336719     
   253562.650336720     
   253562.587246293     
   253562.587246293     
   253562.587246293     
   253562.587246292     
   253562.587246292     
   253562.587246292     
   253562.244726451     
   253562.244726451     
   253562.244726451     
   253562.244726451     
   253562.244726451     
   253562.244726451     
   253560.419478110     
   253560.419478110     
   253560.419478111     
   253560.419478111     
   253560.419478111     
   253560.419478110     
   253550.890634602     
   253550.890634602     
   253550.890634602     
   253550.890634602     
   253550.890634602     
   253550.890634602     
   253502.293198606     
   253502.293198606     
   253502.293198606     
   253502.293198606     
   253502.293198606     
   253502.293198606     
   253261.291655713     
   253261.291655713     
   253261.291655713     
   253261.291655713     
   253261.291655713     
   253261.291655713     
   252108.752669796     
   252108.752669797     
   252108.752669796     
   252108.752669796     
   252108.752669797     
   252108.752669797     
   246877.100224875     
   246877.100224875     
   246877.100224875     
   246877.100224875     
   246877.100224875     
   246877.100224875     
   225081.377119859     
   225081.377119859     
   225081.377119859     
   225081.377119859     
   225081.377119859     
   225081.377119859     
   148794.245779112     
   148794.245779112     
   148794.245779113     
   148794.245779113     
   148794.245779113     
   148794.245779113     
  0.000000000000000E+000
  0.000000000000000E+000
  0.000000000000000E+000
  0.000000000000000E+000
  0.000000000000000E+000
  0.000000000000000E+000
VECTORS u double 
    0.00000E+00        -0.30428E-01         0.00000E+00
    0.00000E+00        -0.24342E-01         0.00000E+00
    0.00000E+00        -0.18257E-01         0.00000E+00
    0.00000E+00        -0.12171E-01         0.00000E+00
    0.00000E+00        -0.60856E-02         0.00000E+00
    0.00000E+00         0.00000E+00         0.00000E+00
    0.10143E-01        -0.30428E-01         0.00000E+00
    0.10143E-01        -0.24342E-01         0.00000E+00
    0.10143E-01        -0.18257E-01         0.00000E+00
    0.10143E-01        -0.12171E-01         0.00000E+00
    0.10143E-01        -0.60856E-02         0.00000E+00
    0.10143E-01         0.00000E+00         0.00000E+00
    0.20285E-01        -0.30428E-01         0.00000E+00
    0.20285E-01        -0.24342E-01         0.00000E+00
    0.20285E-01        -0.18257E-01         0.00000E+00
    0.20285E-01        -0.12171E-01         0.00000E+00
    0.20285E-01        -0.60856E-02         0.00000E+00
    0.20285E-01         0.00000E+00         0.00000E+00
    0.30428E-01        -0.30428E-01         0.00000E+00
    0.30428E-01        -0.24342E-01         0.00000E+00
    0.30428E-01        -0.18257E-01         0.00000E+00
    0.30428E-01        -0.12171E-01         0.00000E+00
    0.30428E-01        -0.60856E-02         0.00000E+00
    0.30428E-01         0.00000E+00         0.00000E+00
    0.40570E-01        -0.30428E-01         0.00000E+00
    0.40570E-01        -0.24342E-01         0.00000E+00
    0.40570E-01        -0.18257E-01         0.00000E+00
    0.40570E-01        -0.12171E-01         0.00000E+00
    0.40570E-01        -0.60856E-02         0.00000E+00
    0.40570E-01         0.00000E+00         0.00000E+00
    0.50713E-01        -0.30428E-01         0.00000E+00
    0.50713E-01        -0.24342E-01         0.00000E+00
    0.50713E-01        -0.18257E-01         0.00000E+00
    0.50713E-01        -0.12171E-01         0.00000E+00
    0.50713E-01        -0.60856E-02         0.00000E+00
    0.50713E-01         0.00000E+00         0.00000E+00
    0.60855E-01        -0.30428E-01         0.00000E+00
    0.60855E-01        -0.24342E-01         0.00000E+00
    0.60855E-01        -0.18257E-01         0.00000E+00
    0.60855E-01        -0.12171E-01         0.00000E+00
    0.60855E-01        -0.60856E-02         0.00000E+00
    0.60855E-01         0.00000E+00         0.00000E+00
    0.70998E-01        -0.30428E-01         0.00000E+00
    0.70998E-01        -0.24342E-01         0.00000E+00
    0.70998E-01        -0.18257E-01         0.00000E+00
    0.70998E-01        -0.12171E-01         0.00000E+00
    0.70998E-01        -0.60856E-02         0.00000E+00
    0.70998E-01         0.00000E+00         0.00000E+00
    0.81140E-01        -0.30428E-01         0.00000E+00
    0.81140E-01        -0.24342E-01         0.00000E+00
    0.81140E-01        -0.18257E-01         0.00000E+00
    0.81140E-01        -0.12171E-01         0.00000E+00
    0.81140E-01        -0.60856E-02         0.00000E+00
    0.81140E-01         0.00000E+00         0.00000E+00
    0.91283E-01        -0.30428E-01         0.00000E+00
    0.91283E-01        -0.24342E-01         0.00000E+00
    0.91283E-01        -0.18257E-01         0.00000E+00
    0.91283E-01        -0.12171E-01         0.00000E+00
    0.91283E-01        -0.60856E-02         0.00000E+00
    0.91283E-01         0.00000E+00         0.00000E+00
    0.10143E+00        -0.30428E-01         0.00000E+00
    0.10143E+00        -0.24342E-01         0.00000E+00
    0.10143E+00        -0.18257E-01         0.00000E+00
    0.10143E+00        -0.12171E-01         0.00000E+00
    0.10143E+00        -0.60856E-02         0.00000E+00
    0.10143E+00         0.00000E+00         0.00000E+00
    0.11157E+00        -0.30428E-01         0.00000E+00
    0.11157E+00        -0.24342E-01         0.00000E+00
    0.11157E+00        -0.18257E-01         0.00000E+00
    0.11157E+00        -0.12171E-01         0.00000E+00
    0.11157E+00        -0.60856E-02         0.00000E+00
    0.11157E+00         0.00000E+00         0.00000E+00
    0.12171E+00        -0.30428E-01         0.00000E+00
    0.12171E+00        -0.24342E-01         0.00000E+00
    0.12171E+00        -0.18257E-01         0.00000E+00
    0.12171E+00        -0.12171E-01         0.00000E+00
    0.12171E+00        -0.60856E-02         0.00000E+00
    0.12171E+00         0.00000E+00         0.00000E+00
    0.13185E+00        -0.30428E-01         0.00000E+00
    0.13185E+00        -0.24342E-01         0.00000E+00
    0.13185E+00        -0.18257E-01         0.00000E+00
    0.13185E+00        -0.12171E-01         0.00000E+00
    0.13185E+00        -0.60856E-02         0.00000E+00
    0.13185E+00         0.00000E+00         0.00000E+00
    0.14200E+00        -0.30428E-01         0.00000E+00
    0.14200E+00        -0.24342E-01         0.00000E+00
    0.14200E+00        -0.18257E-01         0.00000E+00
    0.14200E+00        -0.12171E-01         0.00000E+00
    0.14200E+00        -0.60856E-02         0.00000E+00
    0.14200E+00         0.00000E+00         0.00000E+00
    0.15214E+00        -0.30428E-01         0.00000E+00
    0.15214E+00        -0.24342E-01         0.00000E+00
    0.15214E+00        -0.18257E-01         0.00000E+00
    0.15214E+00        -0.12171E-01         0.00000E+00
    0.15214E+00        -0.60856E-02         0.00000E+00
    0.15214E+00         0.00000E+00         0.00000E+00
    0.16228E+00        -0.30428E-01         0.00000E+00
    0.16228E+00        -0.24342E-01         0.00000E+00
    0.16228E+00        -0.18257E-01         0.00000E+00
    0.16228E+00        -0.12171E-01         0.00000E+00
    0.16228E+00        -0.60856E-02         0.00000E+00
    0.16228E+00         0.00000E+00         0.00000E+00
    0.17242E+00        -0.30428E-01         0.00000E+00
    0.17242E+00        -0.24342E-01         0.00000E+00
    0.17242E+00        -0.18257E-01         0.00000E+00
    0.17242E+00        -0.12171E-01         0.00000E+00
    0.17242E+00        -0.60856E-02         0.00000E+00
    0.17242E+00         0.00000E+00         0.00000E+00
    0.18257E+00        -0.30428E-01         0.00000E+00
    0.18257E+00        -0.24342E-01         0.00000E+00
    0.18257E+00        -0.18257E-01         0.00000E+00
    0.18257E+00        -0.12171E-01         0.00000E+00
    0.18257E+00        -0.60856E-02         0.00000E+00
    0.18257E+00         0.00000E+00         0.00000E+00
    0.19271E+00        -0.30428E-01         0.00000E+00
    0.19271E+00        -0.24342E-01         0.00000E+00
    0.19271E+00        -0.18257E-01         0.00000E+00
    0.19271E+00        -0.12171E-01         0.00000E+00
    0.19271E+00        -0.60856E-02         0.00000E+00
    0.19271E+00         0.00000E+00         0.00000E+00
    0.20285E+00        -0.30428E-01         0.00000E+00
    0.20285E+00        -0.24342E-01         0.00000E+00
    0.20285E+00        -0.18257E-01         0.00000E+00
    0.20285E+00        -0.12171E-01         0.00000E+00
    0.20285E+00        -0.60856E-02         0.00000E+00
    0.20285E+00         0.00000E+00         0.00000E+00
    0.21299E+00        -0.30428E-01         0.00000E+00
    0.21299E+00        -0.24342E-01         0.00000E+00
    0.21299E+00        -0.18257E-01         0.00000E+00
    0.21299E+00        -0.12171E-01         0.00000E+00
    0.21299E+00        -0.60856E-02         0.00000E+00
    0.21299E+00         0.00000E+00         0.00000E+00
    0.22314E+00        -0.30428E-01         0.00000E+00
    0.22314E+00        -0.24342E-01         0.00000E+00
    0.22314E+00        -0.18257E-01         0.00000E+00
    0.22314E+00        -0.12171E-01         0.00000E+00
    0.22314E+00        -0.60856E-02         0.00000E+00
    0.22314E+00         0.00000E+00         0.00000E+00
    0.23328E+00        -0.30428E-01         0.00000E+00
    0.23328E+00        -0.24342E-01         0.00000E+00
    0.23328E+00        -0.18257E-01         0.00000E+00
    0.23328E+00        -0.12171E-01         0.00000E+00
    0.23328E+00        -0.60856E-02         0.00000E+00
    0.23328E+00         0.00000E+00         0.00000E+00
    0.24342E+00        -0.30428E-01         0.00000E+00
    0.24342E+00        -0.24342E-01         0.00000E+00
    0.24342E+00        -0.18257E-01         0.00000E+00
    0.24342E+00        -0.12171E-01         0.00000E+00
    0.24342E+00        -0.60856E-02         0.00000E+00
    0.24342E+00         0.00000E+00         0.00000E+00
    0.25356E+00        -0.30428E-01         0.00000E+00
    0.25356E+00        -0.24342E-01         0.00000E+00
    0.25356E+00        -0.18257E-01         0.00000E+00
    0.25356E+00        -0.12171E-01         0.00000E+00
    0.25356E+00        -0.60856E-02         0.00000E+00
    0.25356E+00         0.00000E+00         0.00000E+00
    0.26367E+00        -0.30428E-01         0.00000E+00
    0.26367E+00        -0.24342E-01         0.00000E+00
    0.26367E+00        -0.18257E-01         0.00000E+00
    0.26367E+00        -0.12171E-01         0.00000E+00
    0.26367E+00        -0.60856E-02         0.00000E+00
    0.26367E+00         0.00000E+00         0.00000E+00
    0.27369E+00        -0.30428E-01         0.00000E+00
    0.27369E+00        -0.24342E-01         0.00000E+00
    0.27369E+00        -0.18257E-01         0.00000E+00
    0.27369E+00        -0.12171E-01         0.00000E+00
    0.27369E+00        -0.60856E-02         0.00000E+00
    0.27369E+00         0.00000E+00         0.00000E+00
    0.28331E+00        -0.30428E-01         0.00000E+00
    0.28331E+00        -0.24342E-01         0.00000E+00
    0.28331E+00        -0.18257E-01         0.00000E+00
    0.28331E+00        -0.12171E-01         0.00000E+00
    0.28331E+00        -0.60856E-02         0.00000E+00
    0.28331E+00         0.00000E+00         0.00000E+00
    0.29145E+00        -0.30428E-01         0.00000E+00
    0.29145E+00        -0.24342E-01         0.00000E+00
    0.29145E+00        -0.18257E-01         0.00000E+00
    0.29145E+00        -0.12171E-01         0.00000E+00
    0.29145E+00        -0.60856E-02         0.00000E+00
    0.29145E+00         0.00000E+00         0.00000E+00
    0.29622E+00        -0.30428E-01         0.00000E+00
    0.29622E+00        -0.24342E-01         0.00000E+00
    0.29622E+00        -0.18257E-01         0.00000E+00
    0.29622E+00        -0.12171E-01         0.00000E+00
    0.29622E+00        -0.60856E-02         0.00000E+00
    0.29622E+00         0.00000E+00         0.00000E+00
CELL_DATA        150
VECTORS vDarcy double 
    0.57298E-20        -0.90949E-21         0.00000E+00
    0.42746E-20         0.47294E-20         0.00000E+00
    0.11823E-20         0.65484E-20         0.00000E+00
    0.35470E-20        -0.23647E-20         0.00000E+00
    0.46384E-20        -0.29104E-20         0.00000E+00
   -0.40018E-20         0.18190E-21         0.00000E+00
   -0.21828E-20         0.40018E-20         0.00000E+00
    0.55479E-20         0.72760E-21         0.00000E+00
    0.35470E-20         0.00000E+00         0.00000E+00
   -0.11823E-20         0.18190E-20         0.00000E+00
    0.19099E-20         0.16371E-20         0.00000E+00
    0.81855E-21        -0.72760E-21         0.00000E+00
   -0.90949E-22        -0.44565E-20         0.00000E+00
    0.12733E-20         0.36380E-20         0.00000E+00
    0.30013E-20         0.40018E-20         0.00000E+00
   -0.63665E-20         0.72760E-21         0.00000E+00
   -0.17280E-20        -0.40018E-20         0.00000E+00
    0.16371E-20        -0.36380E-20         0.00000E+00
    0.35016E-20        -0.18190E-20         0.00000E+00
    0.33651E-20         0.47294E-20         0.00000E+00
    0.37289E-20         0.18190E-20         0.00000E+00
   -0.15461E-20        -0.65484E-20         0.00000E+00
   -0.59117E-20         0.63665E-21         0.00000E+00
   -0.10368E-19         0.90949E-22         0.00000E+00
   -0.90040E-20         0.63665E-21         0.00000E+00
    0.71850E-20         0.41837E-20         0.00000E+00
    0.40018E-20         0.27285E-20         0.00000E+00
    0.39108E-20         0.32742E-20         0.00000E+00
    0.41837E-20         0.27285E-20         0.00000E+00
    0.19099E-20         0.45475E-21         0.00000E+00
   -0.38199E-20         0.12733E-20         0.00000E+00
    0.90949E-22         0.38199E-20         0.00000E+00
    0.18190E-20         0.21828E-20         0.00000E+00
    0.19099E-20         0.25466E-20         0.00000E+00
    0.18190E-20         0.40018E-20         0.00000E+00
    0.33651E-20        -0.36380E-20         0.00000E+00
    0.28194E-20         0.33651E-20         0.00000E+00
   -0.27285E-21         0.52751E-20         0.00000E+00
   -0.10914E-20        -0.12733E-20         0.00000E+00
    0.33651E-20        -0.54570E-21         0.00000E+00
    0.13370E-19         0.17280E-20         0.00000E+00
    0.79126E-20         0.58208E-20         0.00000E+00
    0.11642E-19         0.52751E-20         0.00000E+00
    0.90949E-20         0.30923E-20         0.00000E+00
    0.15461E-20        -0.12733E-20         0.00000E+00
    0.45111E-19         0.69122E-20         0.00000E+00
    0.46202E-19         0.41837E-20         0.00000E+00
    0.49522E-19        -0.31832E-20         0.00000E+00
    0.51205E-19         0.12551E-19         0.00000E+00
    0.50477E-19         0.58208E-20         0.00000E+00
    0.23683E-18         0.21828E-20         0.00000E+00
    0.24302E-18        -0.40018E-20         0.00000E+00
    0.24847E-18        -0.92768E-20         0.00000E+00
    0.25207E-18         0.82764E-20         0.00000E+00
    0.25684E-18         0.29104E-20         0.00000E+00
    0.14578E-17         0.27285E-20         0.00000E+00
    0.14549E-17        -0.78217E-20         0.00000E+00
    0.14499E-17        -0.49113E-20         0.00000E+00
    0.14518E-17        -0.61846E-20         0.00000E+00
    0.14586E-17        -0.25466E-20         0.00000E+00
    0.89201E-17         0.27285E-20         0.00000E+00
    0.89199E-17        -0.18190E-20         0.00000E+00
    0.89174E-17         0.72760E-21         0.00000E+00
    0.89168E-17        -0.15280E-19         0.00000E+00
    0.89159E-17        -0.39108E-20         0.00000E+00
    0.53501E-16        -0.81855E-21         0.00000E+00
    0.53502E-16         0.72760E-21         0.00000E+00
    0.53507E-16        -0.65484E-20         0.00000E+00
    0.53508E-16        -0.83674E-20         0.00000E+00
    0.53505E-16        -0.20918E-20         0.00000E+00
    0.31714E-15         0.12733E-20         0.00000E+00
    0.31714E-15        -0.40018E-20         0.00000E+00
    0.31714E-15        -0.11823E-19         0.00000E+00
    0.31714E-15        -0.91859E-20         0.00000E+00
    0.31715E-15        -0.81855E-20         0.00000E+00
    0.18563E-14        -0.21828E-20         0.00000E+00
    0.18563E-14        -0.55479E-20         0.00000E+00
    0.18562E-14        -0.84583E-20         0.00000E+00
    0.18562E-14        -0.14188E-19         0.00000E+00
    0.18562E-14        -0.61846E-20         0.00000E+00
    0.10722E-13        -0.58208E-20         0.00000E+00
    0.10722E-13        -0.26375E-20         0.00000E+00
    0.10722E-13        -0.10368E-19         0.00000E+00
    0.10722E-13        -0.36380E-20         0.00000E+00
    0.10722E-13         0.14552E-20         0.00000E+00
    0.61069E-13        -0.64574E-20         0.00000E+00
    0.61069E-13        -0.36380E-20         0.00000E+00
    0.61069E-13        -0.20918E-20         0.00000E+00
    0.61069E-13         0.87311E-20         0.00000E+00
    0.61069E-13        -0.34561E-20         0.00000E+00
    0.34270E-12        -0.72760E-21         0.00000E+00
    0.34270E-12        -0.33651E-20         0.00000E+00
    0.34270E-12        -0.81855E-21         0.00000E+00
    0.34270E-12         0.76398E-20         0.00000E+00
    0.34270E-12        -0.90949E-21         0.00000E+00
    0.18927E-11        -0.18190E-21         0.00000E+00
    0.18927E-11        -0.80945E-20         0.00000E+00
    0.18927E-11        -0.13461E-19         0.00000E+00
    0.18927E-11         0.23647E-20         0.00000E+00
    0.18927E-11         0.25466E-20         0.00000E+00
    0.10276E-10        -0.16371E-20         0.00000E+00
    0.10276E-10        -0.13097E-19         0.00000E+00
    0.10276E-10        -0.13188E-19         0.00000E+00
    0.10276E-10        -0.25466E-20         0.00000E+00
    0.10276E-10        -0.43656E-20         0.00000E+00
    0.54757E-10         0.96406E-20         0.00000E+00
    0.54757E-10         0.10914E-19         0.00000E+00
    0.54757E-10        -0.18190E-20         0.00000E+00
    0.54757E-10        -0.30013E-20         0.00000E+00
    0.54757E-10        -0.20373E-19         0.00000E+00
    0.28587E-09         0.27285E-20         0.00000E+00
    0.28587E-09         0.90949E-20         0.00000E+00
    0.28587E-09         0.45475E-20         0.00000E+00
    0.28587E-09        -0.72760E-21         0.00000E+00
    0.28587E-09        -0.54570E-20         0.00000E+00
    0.14579E-08        -0.13642E-19         0.00000E+00
    0.14579E-08        -0.11642E-19         0.00000E+00
    0.14579E-08         0.72760E-21         0.00000E+00
    0.14579E-08         0.47294E-20         0.00000E+00
    0.14579E-08         0.17099E-19         0.00000E+00
    0.72300E-08        -0.63665E-20         0.00000E+00
    0.72300E-08        -0.25466E-20         0.00000E+00
    0.72300E-08         0.46384E-20         0.00000E+00
    0.72300E-08         0.13461E-19         0.00000E+00
    0.72300E-08         0.10914E-20         0.00000E+00
    0.34576E-07         0.11642E-19         0.00000E+00
    0.34576E-07        -0.58208E-20         0.00000E+00
    0.34576E-07         0.21828E-20         0.00000E+00
    0.34576E-07         0.12824E-19         0.00000E+00
    0.34576E-07        -0.19099E-20         0.00000E+00
    0.15695E-06        -0.81855E-21         0.00000E+00
    0.15695E-06        -0.47294E-20         0.00000E+00
    0.15695E-06         0.27285E-20         0.00000E+00
    0.15695E-06         0.65484E-20         0.00000E+00
    0.15695E-06        -0.50022E-20         0.00000E+00
    0.65387E-06        -0.41837E-20         0.00000E+00
    0.65387E-06         0.40018E-20         0.00000E+00
    0.65387E-06         0.29104E-20         0.00000E+00
    0.65387E-06         0.52751E-20         0.00000E+00
    0.65387E-06        -0.10914E-19         0.00000E+00
    0.22886E-05         0.50022E-20         0.00000E+00
    0.22886E-05         0.15734E-19         0.00000E+00
    0.22886E-05        -0.81855E-21         0.00000E+00
    0.22886E-05        -0.81855E-21         0.00000E+00
    0.22886E-05         0.72760E-21         0.00000E+00
    0.44638E-05         0.21373E-19         0.00000E+00
    0.44638E-05        -0.54570E-20         0.00000E+00
    0.44638E-05         0.19281E-19         0.00000E+00
    0.44638E-05        -0.22101E-19         0.00000E+00
    0.44638E-05         0.36380E-20         0.00000E+00
POINT_DATA        186
VECTORS vDarcyNodal double 
    0.43656E-20         0.00000E+00         0.00000E+00
    0.58208E-20         0.00000E+00         0.00000E+00
    0.14552E-20         0.29104E-20         0.00000E+00
    0.00000E+00         0.43656E-20         0.00000E+00
    0.72760E-20        -0.14552E-20         0.00000E+00
    0.29104E-20        -0.58208E-20         0.00000E+00
    0.72760E-21        -0.29104E-20         0.00000E+00
    0.72760E-21         0.26051E-20         0.00000E+00
    0.14552E-20         0.87311E-20         0.00000E+00
    0.44240E-20         0.30533E-21         0.00000E+00
    0.34853E-20        -0.36380E-20         0.00000E+00
    0.72760E-21         0.14552E-20         0.00000E+00
    0.00000E+00         0.14552E-20         0.00000E+00
   -0.72760E-21        -0.61066E-21         0.00000E+00
   -0.11694E-21        -0.29104E-20         0.00000E+00
    0.43071E-20         0.13383E-20         0.00000E+00
    0.16079E-20         0.50932E-20         0.00000E+00
    0.14552E-20         0.43656E-20         0.00000E+00
   -0.21828E-20         0.14552E-20         0.00000E+00
   -0.21828E-20         0.21828E-20         0.00000E+00
    0.11694E-21        -0.72760E-21         0.00000E+00
    0.72760E-21        -0.21828E-20         0.00000E+00
    0.36380E-20         0.14552E-20         0.00000E+00
    0.36380E-20         0.29104E-20         0.00000E+00
   -0.72760E-21         0.00000E+00         0.00000E+00
   -0.21828E-20        -0.55869E-20         0.00000E+00
   -0.14552E-20        -0.72760E-20         0.00000E+00
   -0.29104E-20        -0.31443E-20         0.00000E+00
   -0.45182E-20         0.72760E-21         0.00000E+00
   -0.21828E-20         0.43656E-20         0.00000E+00
    0.65484E-20         0.43656E-20         0.00000E+00
    0.50932E-20         0.21828E-20         0.00000E+00
    0.00000E+00         0.14552E-20         0.00000E+00
   -0.21828E-20         0.37419E-20         0.00000E+00
   -0.34853E-20        -0.13166E-35         0.00000E+00
   -0.36380E-20        -0.45735E-20         0.00000E+00
    0.72760E-21         0.43656E-20         0.00000E+00
    0.29104E-20         0.50932E-20         0.00000E+00
    0.21828E-20         0.43656E-20         0.00000E+00
    0.29689E-20         0.21828E-20         0.00000E+00
    0.36380E-20         0.29104E-20         0.00000E+00
    0.14552E-20         0.43656E-20         0.00000E+00
   -0.21828E-20        -0.29104E-20         0.00000E+00
    0.14552E-20         0.00000E+00         0.00000E+00
    0.14552E-20         0.14552E-20         0.00000E+00
   -0.78606E-21         0.14552E-20         0.00000E+00
    0.14552E-20         0.29104E-20         0.00000E+00
    0.43656E-20         0.29104E-20         0.00000E+00
    0.94587E-20        -0.58208E-20         0.00000E+00
    0.65484E-20        -0.62364E-21         0.00000E+00
    0.50932E-20         0.80036E-20         0.00000E+00
    0.51516E-20         0.28064E-20         0.00000E+00
    0.29104E-20        -0.58208E-20         0.00000E+00
    0.21828E-20        -0.58208E-20         0.00000E+00
    0.30559E-19         0.85232E-20         0.00000E+00
    0.27649E-19         0.72760E-20         0.00000E+00
    0.27649E-19         0.29104E-20         0.00000E+00
    0.33469E-19         0.58208E-20         0.00000E+00
    0.27649E-19         0.73799E-20         0.00000E+00
    0.24011E-19         0.29104E-20         0.00000E+00
    0.13970E-18         0.43656E-20         0.00000E+00
    0.14261E-18         0.43656E-20         0.00000E+00
    0.14770E-18        -0.21828E-20         0.00000E+00
    0.15055E-18         0.16631E-20         0.00000E+00
    0.15207E-18         0.10186E-19         0.00000E+00
    0.15425E-18         0.83153E-20         0.00000E+00
    0.84765E-18         0.00000E+00         0.00000E+00
    0.84765E-18        -0.50932E-20         0.00000E+00
    0.85056E-18        -0.10914E-19         0.00000E+00
    0.84771E-18        -0.36380E-20         0.00000E+00
    0.85565E-18         0.14552E-20         0.00000E+00
    0.85929E-18        -0.14552E-20         0.00000E+00
    0.51885E-17         0.58208E-20         0.00000E+00
    0.51892E-17         0.00000E+00         0.00000E+00
    0.51856E-17        -0.21828E-20         0.00000E+00
    0.51819E-17        -0.72760E-20         0.00000E+00
    0.51878E-17        -0.10186E-19         0.00000E+00
    0.51870E-17        -0.43656E-20         0.00000E+00
    0.31209E-16        -0.18710E-20         0.00000E+00
    0.31211E-16         0.12473E-20         0.00000E+00
    0.31209E-16         0.14552E-20         0.00000E+00
    0.31214E-16        -0.65484E-20         0.00000E+00
    0.31211E-16        -0.85232E-20         0.00000E+00
    0.31209E-16        -0.24946E-20         0.00000E+00
    0.18532E-15         0.00000E+00         0.00000E+00
    0.18532E-15         0.00000E+00         0.00000E+00
    0.18532E-15        -0.65484E-20         0.00000E+00
    0.18533E-15        -0.80036E-20         0.00000E+00
    0.18533E-15        -0.29104E-20         0.00000E+00
    0.18533E-15        -0.29104E-20         0.00000E+00
    0.10867E-14         0.10394E-20         0.00000E+00
    0.10867E-14        -0.29104E-20         0.00000E+00
    0.10867E-14        -0.94587E-20         0.00000E+00
    0.10867E-14        -0.13097E-19         0.00000E+00
    0.10867E-14        -0.14344E-19         0.00000E+00
    0.10867E-14        -0.14552E-19         0.00000E+00
    0.62890E-14        -0.58208E-20         0.00000E+00
    0.62890E-14        -0.48853E-20         0.00000E+00
    0.62890E-14        -0.43656E-20         0.00000E+00
    0.62890E-14        -0.96666E-20         0.00000E+00
    0.62890E-14        -0.58208E-20         0.00000E+00
    0.62890E-14         0.29104E-20         0.00000E+00
    0.35895E-13        -0.58208E-20         0.00000E+00
    0.35895E-13        -0.36380E-20         0.00000E+00
    0.35895E-13        -0.80036E-20         0.00000E+00
    0.35895E-13        -0.36380E-20         0.00000E+00
    0.35895E-13         0.36380E-20         0.00000E+00
    0.35895E-13         0.00000E+00         0.00000E+00
    0.20188E-12        -0.91470E-20         0.00000E+00
    0.20188E-12        -0.65484E-20         0.00000E+00
    0.20188E-12         0.21828E-20         0.00000E+00
    0.20188E-12         0.94587E-20         0.00000E+00
    0.20188E-12         0.23907E-20         0.00000E+00
    0.20188E-12        -0.58208E-20         0.00000E+00
    0.11177E-11         0.72760E-20         0.00000E+00
    0.11177E-11         0.16631E-20         0.00000E+00
    0.11177E-11        -0.63405E-20         0.00000E+00
    0.11177E-11        -0.31183E-20         0.00000E+00
    0.11177E-11         0.56129E-20         0.00000E+00
    0.11177E-11         0.58208E-20         0.00000E+00
    0.60842E-11        -0.87311E-20         0.00000E+00
    0.60842E-11        -0.10186E-19         0.00000E+00
    0.60842E-11        -0.14552E-19         0.00000E+00
    0.60842E-11        -0.86792E-20         0.00000E+00
    0.60842E-11        -0.72760E-21         0.00000E+00
    0.60842E-11        -0.15592E-20         0.00000E+00
    0.32517E-10         0.43656E-20         0.00000E+00
    0.32517E-10        -0.43656E-20         0.00000E+00
    0.32517E-10        -0.11693E-19         0.00000E+00
    0.32517E-10        -0.72760E-20         0.00000E+00
    0.32517E-10        -0.50413E-20         0.00000E+00
    0.32517E-10        -0.58208E-20         0.00000E+00
    0.17031E-09         0.14552E-19         0.00000E+00
    0.17031E-09         0.24738E-19         0.00000E+00
    0.17031E-09         0.21100E-19         0.00000E+00
    0.17031E-09         0.29104E-20         0.00000E+00
    0.17031E-09        -0.18190E-19         0.00000E+00
    0.17031E-09        -0.34925E-19         0.00000E+00
    0.87189E-09        -0.87311E-20         0.00000E+00
    0.87189E-09        -0.12369E-19         0.00000E+00
    0.87189E-09        -0.72760E-20         0.00000E+00
    0.87189E-09         0.72760E-21         0.00000E+00
    0.87189E-09         0.11642E-19         0.00000E+00
    0.87189E-09         0.23283E-19         0.00000E+00
    0.43440E-08        -0.18917E-19         0.00000E+00
    0.43440E-08        -0.13097E-19         0.00000E+00
    0.43440E-08        -0.36380E-20         0.00000E+00
    0.43440E-08         0.50932E-20         0.00000E+00
    0.43440E-08         0.10186E-19         0.00000E+00
    0.43440E-08         0.10186E-19         0.00000E+00
    0.20903E-07         0.72250E-20         0.00000E+00
    0.20903E-07         0.50677E-20         0.00000E+00
    0.20903E-07         0.51186E-20         0.00000E+00
    0.20903E-07         0.13097E-19         0.00000E+00
    0.20903E-07         0.50932E-20         0.00000E+00
    0.20903E-07        -0.86802E-20         0.00000E+00
    0.95763E-07         0.16616E-19         0.00000E+00
    0.95763E-07         0.17595E-20         0.00000E+00
    0.95763E-07        -0.72760E-20         0.00000E+00
    0.95763E-07         0.21828E-20         0.00000E+00
    0.95763E-07         0.51527E-20         0.00000E+00
    0.95763E-07         0.30294E-20         0.00000E+00
    0.40541E-06        -0.18169E-19         0.00000E+00
    0.40541E-06        -0.61740E-20         0.00000E+00
    0.40541E-06         0.50932E-20         0.00000E+00
    0.40541E-06         0.65484E-20         0.00000E+00
    0.40541E-06        -0.36486E-20         0.00000E+00
    0.40541E-06        -0.14573E-19         0.00000E+00
    0.14712E-05         0.72760E-20         0.00000E+00
    0.14712E-05         0.50932E-20         0.00000E+00
    0.14712E-05         0.14552E-20         0.00000E+00
    0.14712E-05         0.14552E-20         0.00000E+00
    0.14712E-05        -0.14552E-20         0.00000E+00
    0.14712E-05        -0.58208E-20         0.00000E+00
    0.33762E-05         0.29104E-20         0.00000E+00
    0.33762E-05         0.16007E-19         0.00000E+00
    0.33762E-05         0.13824E-19         0.00000E+00
    0.33762E-05        -0.29104E-20         0.00000E+00
    0.33762E-05         0.14552E-20         0.00000E+00
    0.33762E-05         0.72760E-20         0.00000E+00
    0.44638E-05         0.31717E-19         0.00000E+00
    0.44638E-05         0.90278E-35         0.00000E+00
    0.44638E-05         0.90278E-35         0.00000E+00
    0.44638E-05        -0.30093E-35         0.00000E+00
    0.44638E-05        -0.15859E-19         0.00000E+00
    0.44638E-05         0.00000E+00         0.00000E+00
CELL_DATA        150
TENSORS stressef double 
    0.25356E+06         0.18070E-10         0.00000E+00
    0.18070E-10        -0.25357E+06         0.00000E+00
    0.00000E+00         0.00000E+00        -0.73855E+00
 
    0.25356E+06         0.22588E-11         0.00000E+00
    0.22588E-11        -0.25357E+06         0.00000E+00
    0.00000E+00         0.00000E+00        -0.73855E+00
 
    0.25356E+06        -0.15811E-10         0.00000E+00
   -0.15811E-10        -0.25357E+06         0.00000E+00
    0.00000E+00         0.00000E+00        -0.73855E+00
 
    0.25356E+06        -0.31623E-10         0.00000E+00
   -0.31623E-10        -0.25357E+06         0.00000E+00
    0.00000E+00         0.00000E+00        -0.73855E+00
 
    0.25356E+06        -0.79056E-11         0.00000E+00
   -0.79056E-11        -0.25357E+06         0.00000E+00
    0.00000E+00         0.00000E+00        -0.73855E+00
 
    0.25356E+06        -0.31623E-10         0.00000E+00
   -0.31623E-10        -0.25357E+06         0.00000E+00
    0.00000E+00         0.00000E+00        -0.73855E+00
 
    0.25356E+06        -0.45175E-11         0.00000E+00
   -0.45175E-11        -0.25357E+06         0.00000E+00
    0.00000E+00         0.00000E+00        -0.73855E+00
 
    0.25356E+06         0.11294E-10         0.00000E+00
    0.11294E-10        -0.25357E+06         0.00000E+00
    0.00000E+00         0.00000E+00        -0.73855E+00
 
    0.25356E+06        -0.22588E-11         0.00000E+00
   -0.22588E-11        -0.25357E+06         0.00000E+00
    0.00000E+00         0.00000E+00        -0.73855E+00
 
    0.25356E+06         0.15811E-10         0.00000E+00
    0.15811E-10        -0.25357E+06         0.00000E+00
    0.00000E+00         0.00000E+00        -0.73855E+00
 
    0.25356E+06        -0.40658E-10         0.00000E+00
   -0.40658E-10        -0.25357E+06         0.00000E+00
    0.00000E+00         0.00000E+00        -0.73855E+00
 
    0.25356E+06        -0.24846E-10         0.00000E+00
   -0.24846E-10        -0.25357E+06         0.00000E+00
    0.00000E+00         0.00000E+00        -0.73855E+00
 
    0.25356E+06         0.00000E+00         0.00000E+00
    0.00000E+00        -0.25357E+06         0.00000E+00
    0.00000E+00         0.00000E+00        -0.73855E+00
 
    0.25356E+06        -0.85833E-10         0.00000E+00
   -0.85833E-10        -0.25357E+06         0.00000E+00
    0.00000E+00         0.00000E+00        -0.73855E+00
 
    0.25356E+06         0.22588E-10         0.00000E+00
    0.22588E-10        -0.25357E+06         0.00000E+00
    0.00000E+00         0.00000E+00        -0.73855E+00
 
    0.25356E+06        -0.45175E-10         0.00000E+00
   -0.45175E-10        -0.25357E+06         0.00000E+00
    0.00000E+00         0.00000E+00        -0.73855E+00
 
    0.25356E+06        -0.11746E-09         0.00000E+00
   -0.11746E-09        -0.25357E+06         0.00000E+00
    0.00000E+00         0.00000E+00        -0.73855E+00
 
    0.25356E+06         0.10842E-09         0.00000E+00
    0.10842E-09        -0.25357E+06         0.00000E+00
    0.00000E+00         0.00000E+00        -0.73855E+00
 
    0.25356E+06        -0.27105E-10         0.00000E+00
   -0.27105E-10        -0.25357E+06         0.00000E+00
    0.00000E+00         0.00000E+00        -0.73855E+00
 
    0.25356E+06         0.31623E-10         0.00000E+00
    0.31623E-10        -0.25357E+06         0.00000E+00
    0.00000E+00         0.00000E+00        -0.73855E+00
 
    0.25356E+06         0.11746E-09         0.00000E+00
    0.11746E-09        -0.25357E+06         0.00000E+00
    0.00000E+00         0.00000E+00        -0.73855E+00
 
    0.25356E+06         0.12649E-09         0.00000E+00
    0.12649E-09        -0.25357E+06         0.00000E+00
    0.00000E+00         0.00000E+00        -0.73855E+00
 
    0.25356E+06        -0.18070E-10         0.00000E+00
   -0.18070E-10        -0.25357E+06         0.00000E+00
    0.00000E+00         0.00000E+00        -0.73855E+00
 
    0.25356E+06         0.36140E-10         0.00000E+00
    0.36140E-10        -0.25357E+06         0.00000E+00
    0.00000E+00         0.00000E+00        -0.73855E+00
 
    0.25356E+06        -0.36140E-10         0.00000E+00
   -0.36140E-10        -0.25357E+06         0.00000E+00
    0.00000E+00         0.00000E+00        -0.73855E+00
 
    0.25356E+06         0.90350E-10         0.00000E+00
    0.90350E-10        -0.25357E+06         0.00000E+00
    0.00000E+00         0.00000E+00        -0.73855E+00
 
    0.25356E+06         0.18070E-10         0.00000E+00
    0.18070E-10        -0.25357E+06         0.00000E+00
    0.00000E+00         0.00000E+00        -0.73855E+00
 
    0.25356E+06         0.63245E-10         0.00000E+00
    0.63245E-10        -0.25357E+06         0.00000E+00
    0.00000E+00         0.00000E+00        -0.73855E+00
 
    0.25356E+06         0.10842E-09         0.00000E+00
    0.10842E-09        -0.25357E+06         0.00000E+00
    0.00000E+00         0.00000E+00        -0.73855E+00
 
    0.25356E+06         0.54210E-10         0.00000E+00
    0.54210E-10        -0.25357E+06         0.00000E+00
    0.00000E+00         0.00000E+00        -0.73855E+00
 
    0.25356E+06         0.18070E-10         0.00000E+00
    0.18070E-10        -0.25357E+06         0.00000E+00
    0.00000E+00         0.00000E+00        -0.73855E+00
 
    0.25356E+06         0.36140E-10         0.00000E+00
    0.36140E-10        -0.25357E+06         0.00000E+00
    0.00000E+00         0.00000E+00        -0.73855E+00
 
    0.25356E+06        -0.18070E-10         0.00000E+00
   -0.18070E-10        -0.25357E+06         0.00000E+00
    0.00000E+00         0.00000E+00        -0.73855E+00
 
    0.25356E+06        -0.90350E-11         0.00000E+00
   -0.90350E-11        -0.25357E+06         0.00000E+00
    0.00000E+00         0.00000E+00        -0.73855E+00
 
    0.25356E+06         0.18070E-10         0.00000E+00
    0.18070E-10        -0.25357E+06         0.00000E+00
    0.00000E+00         0.00000E+00        -0.73855E+00
 
    0.25356E+06        -0.17167E-09         0.00000E+00
   -0.17167E-09        -0.25357E+06         0.00000E+00
    0.00000E+00         0.00000E+00        -0.73855E+00
 
    0.25356E+06         0.14456E-09         0.00000E+00
    0.14456E-09        -0.25357E+06         0.00000E+00
    0.00000E+00         0.00000E+00        -0.73855E+00
 
    0.25356E+06         0.22588E-09         0.00000E+00
    0.22588E-09        -0.25357E+06         0.00000E+00
    0.00000E+00         0.00000E+00        -0.73855E+00
 
    0.25356E+06         0.36140E-10         0.00000E+00
    0.36140E-10        -0.25357E+06         0.00000E+00
    0.00000E+00         0.00000E+00        -0.73855E+00
 
    0.25356E+06        -0.45175E-10         0.00000E+00
   -0.45175E-10        -0.25357E+06         0.00000E+00
    0.00000E+00         0.00000E+00        -0.73855E+00
 
    0.25356E+06        -0.90350E-10         0.00000E+00
   -0.90350E-10        -0.25357E+06         0.00000E+00
    0.00000E+00         0.00000E+00        -0.73855E+00
 
    0.25356E+06         0.15360E-09         0.00000E+00
    0.15360E-09        -0.25357E+06         0.00000E+00
    0.00000E+00         0.00000E+00        -0.73855E+00
 
    0.25356E+06        -0.54210E-10         0.00000E+00
   -0.54210E-10        -0.25357E+06         0.00000E+00
    0.00000E+00         0.00000E+00        -0.73855E+00
 
    0.25356E+06        -0.99385E-10         0.00000E+00
   -0.99385E-10        -0.25357E+06         0.00000E+00
    0.00000E+00         0.00000E+00        -0.73855E+00
 
    0.25356E+06        -0.10842E-09         0.00000E+00
   -0.10842E-09        -0.25357E+06         0.00000E+00
    0.00000E+00         0.00000E+00        -0.73855E+00
 
    0.25356E+06        -0.63245E-10         0.00000E+00
   -0.63245E-10        -0.25357E+06         0.00000E+00
    0.00000E+00         0.00000E+00        -0.73855E+00
 
    0.25356E+06        -0.18070E-10         0.00000E+00
   -0.18070E-10        -0.25357E+06         0.00000E+00
    0.00000E+00         0.00000E+00        -0.73855E+00
 
    0.25356E+06        -0.90350E-11         0.00000E+00
   -0.90350E-11        -0.25357E+06         0.00000E+00
    0.00000E+00         0.00000E+00        -0.73855E+00
 
    0.25356E+06        -0.12649E-09         0.00000E+00
   -0.12649E-09        -0.25357E+06         0.00000E+00
    0.00000E+00         0.00000E+00        -0.73855E+00
 
    0.25356E+06        -0.18070E-10         0.00000E+00
   -0.18070E-10        -0.25357E+06         0.00000E+00
    0.00000E+00         0.00000E+00        -0.73855E+00
 
    0.25356E+06        -0.10842E-09         0.00000E+00
   -0.10842E-09        -0.25357E+06         0.00000E+00
    0.00000E+00         0.00000E+00        -0.73855E+00
 
    0.25356E+06         0.20781E-09         0.00000E+00
    0.20781E-09        -0.25357E+06         0.00000E+00
    0.00000E+00         0.00000E+00        -0.73855E+00
 
    0.25356E+06        -0.17167E-09         0.00000E+00
   -0.17167E-09        -0.25357E+06         0.00000E+00
    0.00000E+00         0.00000E+00        -0.73855E+00
 
    0.25356E+06         0.90350E-10         0.00000E+00
    0.90350E-10        -0.25357E+06         0.00000E+00
    0.00000E+00         0.00000E+00        -0.73855E+00
 
    0.25356E+06         0.10842E-09         0.00000E+00
    0.10842E-09        -0.25357E+06         0.00000E+00
    0.00000E+00         0.00000E+00        -0.73855E+00
 
    0.25356E+06        -0.11746E-09         0.00000E+00
   -0.11746E-09        -0.25357E+06         0.00000E+00
    0.00000E+00         0.00000E+00        -0.73855E+00
 
    0.25356E+06         0.22588E-09         0.00000E+00
    0.22588E-09        -0.25357E+06         0.00000E+00
    0.00000E+00         0.00000E+00        -0.73855E+00
 
    0.25356E+06        -0.14456E-09         0.00000E+00
   -0.14456E-09        -0.25357E+06         0.00000E+00
    0.00000E+00         0.00000E+00        -0.73855E+00
 
    0.25356E+06         0.19877E-09         0.00000E+00
    0.19877E-09        -0.25357E+06         0.00000E+00
    0.00000E+00         0.00000E+00        -0.73855E+00
 
    0.25356E+06         0.14456E-09         0.00000E+00
    0.14456E-09        -0.25357E+06         0.00000E+00
    0.00000E+00         0.00000E+00        -0.73855E+00
 
    0.25356E+06        -0.54210E-10         0.00000E+00
   -0.54210E-10        -0.25357E+06         0.00000E+00
    0.00000E+00         0.00000E+00        -0.73855E+00
 
    0.25356E+06         0.00000E+00         0.00000E+00
    0.00000E+00        -0.25357E+06         0.00000E+00
    0.00000E+00         0.00000E+00        -0.73855E+00
 
    0.25356E+06        -0.10842E-09         0.00000E+00
   -0.10842E-09        -0.25357E+06         0.00000E+00
    0.00000E+00         0.00000E+00        -0.73855E+00
 
    0.25356E+06         0.16263E-09         0.00000E+00
    0.16263E-09        -0.25357E+06         0.00000E+00
    0.00000E+00         0.00000E+00        -0.73855E+00
 
    0.25356E+06         0.12649E-09         0.00000E+00
    0.12649E-09        -0.25357E+06         0.00000E+00
    0.00000E+00         0.00000E+00        -0.73855E+00
 
    0.25356E+06        -0.27105E-10         0.00000E+00
   -0.27105E-10        -0.25357E+06         0.00000E+00
    0.00000E+00         0.00000E+00        -0.73855E+00
 
    0.25356E+06        -0.72280E-10         0.00000E+00
   -0.72280E-10        -0.25357E+06         0.00000E+00
    0.00000E+00         0.00000E+00        -0.73855E+00
 
    0.25356E+06         0.00000E+00         0.00000E+00
    0.00000E+00        -0.25357E+06         0.00000E+00
    0.00000E+00         0.00000E+00        -0.73855E+00
 
    0.25356E+06        -0.18070E-10         0.00000E+00
   -0.18070E-10        -0.25357E+06         0.00000E+00
    0.00000E+00         0.00000E+00        -0.73855E+00
 
    0.25356E+06         0.54210E-10         0.00000E+00
    0.54210E-10        -0.25357E+06         0.00000E+00
    0.00000E+00         0.00000E+00        -0.73855E+00
 
    0.25356E+06        -0.12649E-09         0.00000E+00
   -0.12649E-09        -0.25357E+06         0.00000E+00
    0.00000E+00         0.00000E+00        -0.73855E+00
 
    0.25356E+06        -0.72280E-10         0.00000E+00
   -0.72280E-10        -0.25357E+06         0.00000E+00
    0.00000E+00         0.00000E+00        -0.73855E+00
 
    0.25356E+06        -0.18070E-10         0.00000E+00
   -0.18070E-10        -0.25357E+06         0.00000E+00
    0.00000E+00         0.00000E+00        -0.73855E+00
 
    0.25356E+06        -0.28912E-09         0.00000E+00
   -0.28912E-09        -0.25357E+06         0.00000E+00
    0.00000E+00         0.00000E+00        -0.73855E+00
 
    0.25356E+06         0.18070E-10         0.00000E+00
    0.18070E-10        -0.25357E+06         0.00000E+00
    0.00000E+00         0.00000E+00        -0.73855E+00
 
    0.25356E+06         0.54210E-10         0.00000E+00
    0.54210E-10        -0.25357E+06         0.00000E+00
    0.00000E+00         0.00000E+00        -0.73856E+00
 
    0.25356E+06        -0.25298E-09         0.00000E+00
   -0.25298E-09        -0.25357E+06         0.00000E+00
    0.00000E+00         0.00000E+00        -0.73856E+00
 
    0.25356E+06        -0.90350E-10         0.00000E+00
   -0.90350E-10        -0.25357E+06         0.00000E+00
    0.00000E+00         0.00000E+00        -0.73856E+00
 
    0.25356E+06        -0.32526E-09         0.00000E+00
   -0.32526E-09        -0.25357E+06         0.00000E+00
    0.00000E+00         0.00000E+00        -0.73856E+00
 
    0.25356E+06        -0.36140E-10         0.00000E+00
   -0.36140E-10        -0.25357E+06         0.00000E+00
    0.00000E+00         0.00000E+00        -0.73856E+00
 
    0.25356E+06         0.90350E-10         0.00000E+00
    0.90350E-10        -0.25357E+06         0.00000E+00
    0.00000E+00         0.00000E+00        -0.73861E+00
 
    0.25356E+06        -0.72280E-10         0.00000E+00
   -0.72280E-10        -0.25357E+06         0.00000E+00
    0.00000E+00         0.00000E+00        -0.73861E+00
 
    0.25356E+06         0.19877E-09         0.00000E+00
    0.19877E-09        -0.25357E+06         0.00000E+00
    0.00000E+00         0.00000E+00        -0.73861E+00
 
    0.25356E+06         0.16263E-09         0.00000E+00
    0.16263E-09        -0.25357E+06         0.00000E+00
    0.00000E+00         0.00000E+00        -0.73861E+00
 
    0.25356E+06         0.10842E-09         0.00000E+00
    0.10842E-09        -0.25357E+06         0.00000E+00
    0.00000E+00         0.00000E+00        -0.73861E+00
 
    0.25356E+06        -0.18070E-10         0.00000E+00
   -0.18070E-10        -0.25357E+06         0.00000E+00
    0.00000E+00         0.00000E+00        -0.73891E+00
 
    0.25356E+06        -0.14456E-09         0.00000E+00
   -0.14456E-09        -0.25357E+06         0.00000E+00
    0.00000E+00         0.00000E+00        -0.73891E+00
 
    0.25356E+06        -0.72280E-10         0.00000E+00
   -0.72280E-10        -0.25357E+06         0.00000E+00
    0.00000E+00         0.00000E+00        -0.73891E+00
 
    0.25356E+06        -0.36140E-10         0.00000E+00
   -0.36140E-10        -0.25357E+06         0.00000E+00
    0.00000E+00         0.00000E+00        -0.73891E+00
 
    0.25356E+06         0.46982E-09         0.00000E+00
    0.46982E-09        -0.25357E+06         0.00000E+00
    0.00000E+00         0.00000E+00        -0.73891E+00
 
    0.25356E+06        -0.72280E-10         0.00000E+00
   -0.72280E-10        -0.25357E+06         0.00000E+00
    0.00000E+00         0.00000E+00        -0.74059E+00
 
    0.25356E+06         0.10842E-09         0.00000E+00
    0.10842E-09        -0.25357E+06         0.00000E+00
    0.00000E+00         0.00000E+00        -0.74059E+00
 
    0.25356E+06        -0.28912E-09         0.00000E+00
   -0.28912E-09        -0.25357E+06         0.00000E+00
    0.00000E+00         0.00000E+00        -0.74059E+00
 
    0.25356E+06        -0.39754E-09         0.00000E+00
   -0.39754E-09        -0.25357E+06         0.00000E+00
    0.00000E+00         0.00000E+00        -0.74059E+00
 
    0.25356E+06         0.43368E-09         0.00000E+00
    0.43368E-09        -0.25357E+06         0.00000E+00
    0.00000E+00         0.00000E+00        -0.74059E+00
 
    0.25356E+06        -0.10842E-09         0.00000E+00
   -0.10842E-09        -0.25357E+06         0.00000E+00
    0.00000E+00         0.00000E+00        -0.74991E+00
 
    0.25356E+06         0.10842E-09         0.00000E+00
    0.10842E-09        -0.25357E+06         0.00000E+00
    0.00000E+00         0.00000E+00        -0.74991E+00
 
    0.25356E+06         0.72280E-10         0.00000E+00
    0.72280E-10        -0.25357E+06         0.00000E+00
    0.00000E+00         0.00000E+00        -0.74991E+00
 
    0.25356E+06         0.72280E-10         0.00000E+00
    0.72280E-10        -0.25357E+06         0.00000E+00
    0.00000E+00         0.00000E+00        -0.74991E+00
 
    0.25356E+06        -0.18070E-09         0.00000E+00
   -0.18070E-09        -0.25357E+06         0.00000E+00
    0.00000E+00         0.00000E+00        -0.74991E+00
 
    0.25356E+06        -0.34333E-09         0.00000E+00
   -0.34333E-09        -0.25357E+06         0.00000E+00
    0.00000E+00         0.00000E+00        -0.80061E+00
 
    0.25356E+06         0.72280E-10         0.00000E+00
    0.72280E-10        -0.25357E+06         0.00000E+00
    0.00000E+00         0.00000E+00        -0.80061E+00
 
    0.25356E+06        -0.21684E-09         0.00000E+00
   -0.21684E-09        -0.25357E+06         0.00000E+00
    0.00000E+00         0.00000E+00        -0.80061E+00
 
    0.25356E+06         0.00000E+00         0.00000E+00
    0.00000E+00        -0.25357E+06         0.00000E+00
    0.00000E+00         0.00000E+00        -0.80061E+00
 
    0.25356E+06        -0.36140E-10         0.00000E+00
   -0.36140E-10        -0.25357E+06         0.00000E+00
    0.00000E+00         0.00000E+00        -0.80061E+00
 
    0.25356E+06        -0.36140E-09         0.00000E+00
   -0.36140E-09        -0.25357E+06         0.00000E+00
    0.00000E+00         0.00000E+00        -0.10716E+01
 
    0.25356E+06        -0.10842E-09         0.00000E+00
   -0.10842E-09        -0.25357E+06         0.00000E+00
    0.00000E+00         0.00000E+00        -0.10716E+01
 
    0.25356E+06        -0.36140E-10         0.00000E+00
   -0.36140E-10        -0.25357E+06         0.00000E+00
    0.00000E+00         0.00000E+00        -0.10716E+01
 
    0.25356E+06        -0.43368E-09         0.00000E+00
   -0.43368E-09        -0.25357E+06         0.00000E+00
    0.00000E+00         0.00000E+00        -0.10716E+01
 
    0.25356E+06        -0.32526E-09         0.00000E+00
   -0.32526E-09        -0.25357E+06         0.00000E+00
    0.00000E+00         0.00000E+00        -0.10716E+01
 
    0.25356E+06         0.00000E+00         0.00000E+00
    0.00000E+00        -0.25357E+06         0.00000E+00
    0.00000E+00         0.00000E+00        -0.24908E+01
 
    0.25356E+06        -0.36140E-10         0.00000E+00
   -0.36140E-10        -0.25357E+06         0.00000E+00
    0.00000E+00         0.00000E+00        -0.24908E+01
 
    0.25356E+06        -0.10842E-09         0.00000E+00
   -0.10842E-09        -0.25357E+06         0.00000E+00
    0.00000E+00         0.00000E+00        -0.24908E+01
 
    0.25356E+06        -0.36140E-09         0.00000E+00
   -0.36140E-09        -0.25357E+06         0.00000E+00
    0.00000E+00         0.00000E+00        -0.24908E+01
 
    0.25356E+06        -0.14456E-09         0.00000E+00
   -0.14456E-09        -0.25357E+06         0.00000E+00
    0.00000E+00         0.00000E+00        -0.24908E+01
 
    0.25353E+06        -0.14456E-09         0.00000E+00
   -0.14456E-09        -0.25358E+06         0.00000E+00
    0.00000E+00         0.00000E+00        -0.97566E+01
 
    0.25353E+06         0.10842E-09         0.00000E+00
    0.10842E-09        -0.25358E+06         0.00000E+00
    0.00000E+00         0.00000E+00        -0.97566E+01
 
    0.25353E+06         0.14456E-09         0.00000E+00
    0.14456E-09        -0.25358E+06         0.00000E+00
    0.00000E+00         0.00000E+00        -0.97566E+01
 
    0.25353E+06        -0.36140E-10         0.00000E+00
   -0.36140E-10        -0.25358E+06         0.00000E+00
    0.00000E+00         0.00000E+00        -0.97566E+01
 
    0.25353E+06         0.10842E-09         0.00000E+00
    0.10842E-09        -0.25358E+06         0.00000E+00
    0.00000E+00         0.00000E+00        -0.97566E+01
 
    0.25338E+06        -0.14456E-09         0.00000E+00
   -0.14456E-09        -0.25361E+06         0.00000E+00
    0.00000E+00         0.00000E+00        -0.45956E+02
 
    0.25338E+06         0.28912E-09         0.00000E+00
    0.28912E-09        -0.25361E+06         0.00000E+00
    0.00000E+00         0.00000E+00        -0.45956E+02
 
    0.25338E+06         0.10842E-09         0.00000E+00
    0.10842E-09        -0.25361E+06         0.00000E+00
    0.00000E+00         0.00000E+00        -0.45956E+02
 
    0.25338E+06        -0.36140E-10         0.00000E+00
   -0.36140E-10        -0.25361E+06         0.00000E+00
    0.00000E+00         0.00000E+00        -0.45956E+02
 
    0.25338E+06         0.21684E-09         0.00000E+00
    0.21684E-09        -0.25361E+06         0.00000E+00
    0.00000E+00         0.00000E+00        -0.45956E+02
 
    0.25269E+06         0.28912E-09         0.00000E+00
    0.28912E-09        -0.25379E+06         0.00000E+00
    0.00000E+00         0.00000E+00        -0.22015E+03
 
    0.25269E+06         0.00000E+00         0.00000E+00
    0.00000E+00        -0.25379E+06         0.00000E+00
    0.00000E+00         0.00000E+00        -0.22015E+03
 
    0.25269E+06        -0.36140E-10         0.00000E+00
   -0.36140E-10        -0.25379E+06         0.00000E+00
    0.00000E+00         0.00000E+00        -0.22015E+03
 
    0.25269E+06         0.72280E-10         0.00000E+00
    0.72280E-10        -0.25379E+06         0.00000E+00
    0.00000E+00         0.00000E+00        -0.22015E+03
 
    0.25269E+06        -0.36140E-10         0.00000E+00
   -0.36140E-10        -0.25379E+06         0.00000E+00
    0.00000E+00         0.00000E+00        -0.22015E+03
 
    0.24949E+06        -0.18070E-09         0.00000E+00
   -0.18070E-09        -0.25458E+06         0.00000E+00
    0.00000E+00         0.00000E+00        -0.10182E+04
 
    0.24949E+06         0.46982E-09         0.00000E+00
    0.46982E-09        -0.25458E+06         0.00000E+00
    0.00000E+00         0.00000E+00        -0.10182E+04
 
    0.24949E+06         0.36140E-10         0.00000E+00
    0.36140E-10        -0.25458E+06         0.00000E+00
    0.00000E+00         0.00000E+00        -0.10182E+04
 
    0.24949E+06         0.00000E+00         0.00000E+00
    0.00000E+00        -0.25458E+06         0.00000E+00
    0.00000E+00         0.00000E+00        -0.10182E+04
 
    0.24949E+06        -0.43368E-09         0.00000E+00
   -0.43368E-09        -0.25458E+06         0.00000E+00
    0.00000E+00         0.00000E+00        -0.10182E+04
 
    0.23598E+06        -0.39754E-09         0.00000E+00
   -0.39754E-09        -0.25796E+06         0.00000E+00
    0.00000E+00         0.00000E+00        -0.43966E+04
 
    0.23598E+06         0.68666E-09         0.00000E+00
    0.68666E-09        -0.25796E+06         0.00000E+00
    0.00000E+00         0.00000E+00        -0.43966E+04
 
    0.23598E+06        -0.10842E-09         0.00000E+00
   -0.10842E-09        -0.25796E+06         0.00000E+00
    0.00000E+00         0.00000E+00        -0.43966E+04
 
    0.23598E+06         0.00000E+00         0.00000E+00
    0.00000E+00        -0.25796E+06         0.00000E+00
    0.00000E+00         0.00000E+00        -0.43966E+04
 
    0.23598E+06        -0.43368E-09         0.00000E+00
   -0.43368E-09        -0.25796E+06         0.00000E+00
    0.00000E+00         0.00000E+00        -0.43966E+04
 
    0.18694E+06         0.25298E-09         0.00000E+00
    0.25298E-09        -0.27022E+06         0.00000E+00
    0.00000E+00         0.00000E+00        -0.16657E+05
 
    0.18694E+06        -0.28912E-09         0.00000E+00
   -0.28912E-09        -0.27022E+06         0.00000E+00
    0.00000E+00         0.00000E+00        -0.16657E+05
 
    0.18694E+06         0.93964E-09         0.00000E+00
    0.93964E-09        -0.27022E+06         0.00000E+00
    0.00000E+00         0.00000E+00        -0.16657E+05
 
    0.18694E+06         0.18070E-09         0.00000E+00
    0.18070E-09        -0.27022E+06         0.00000E+00
    0.00000E+00         0.00000E+00        -0.16657E+05
 
    0.18694E+06         0.10842E-09         0.00000E+00
    0.10842E-09        -0.27022E+06         0.00000E+00
    0.00000E+00         0.00000E+00        -0.16657E+05
 
    0.74397E+05        -0.36140E-10         0.00000E+00
   -0.36140E-10        -0.29836E+06         0.00000E+00
    0.00000E+00         0.00000E+00        -0.44792E+05
 
    0.74397E+05        -0.39754E-09         0.00000E+00
   -0.39754E-09        -0.29836E+06         0.00000E+00
    0.00000E+00         0.00000E+00        -0.44792E+05
 
    0.74397E+05         0.36140E-10         0.00000E+00
    0.36140E-10        -0.29836E+06         0.00000E+00
    0.00000E+00         0.00000E+00        -0.44792E+05
 
    0.74397E+05        -0.72280E-09         0.00000E+00
   -0.72280E-09        -0.29836E+06         0.00000E+00
    0.00000E+00         0.00000E+00        -0.44792E+05
 
    0.74397E+05        -0.36140E-09         0.00000E+00
   -0.36140E-09        -0.29836E+06         0.00000E+00
    0.00000E+00         0.00000E+00        -0.44792E+05
 
TENSORS stresstot double 
    0.11642E-09         0.18070E-10         0.00000E+00
    0.18070E-10        -0.50713E+06         0.00000E+00
    0.00000E+00         0.00000E+00        -0.25356E+06
 
   -0.72760E-11         0.22588E-11         0.00000E+00
    0.22588E-11        -0.50713E+06         0.00000E+00
    0.00000E+00         0.00000E+00        -0.25356E+06
 
   -0.65484E-10        -0.15811E-10         0.00000E+00
   -0.15811E-10        -0.50713E+06         0.00000E+00
    0.00000E+00         0.00000E+00        -0.25356E+06
 
   -0.87311E-10        -0.31623E-10         0.00000E+00
   -0.31623E-10        -0.50713E+06         0.00000E+00
    0.00000E+00         0.00000E+00        -0.25356E+06
 
    0.14552E-10        -0.79056E-11         0.00000E+00
   -0.79056E-11        -0.50713E+06         0.00000E+00
    0.00000E+00         0.00000E+00        -0.25356E+06
 
    0.58208E-10        -0.31623E-10         0.00000E+00
   -0.31623E-10        -0.50713E+06         0.00000E+00
    0.00000E+00         0.00000E+00        -0.25356E+06
 
    0.12369E-09        -0.45175E-11         0.00000E+00
   -0.45175E-11        -0.50713E+06         0.00000E+00
    0.00000E+00         0.00000E+00        -0.25356E+06
 
    0.29104E-10         0.11294E-10         0.00000E+00
    0.11294E-10        -0.50713E+06         0.00000E+00
    0.00000E+00         0.00000E+00        -0.25356E+06
 
    0.14552E-10        -0.22588E-11         0.00000E+00
   -0.22588E-11        -0.50713E+06         0.00000E+00
    0.00000E+00         0.00000E+00        -0.25356E+06
 
   -0.14552E-10         0.15811E-10         0.00000E+00
    0.15811E-10        -0.50713E+06         0.00000E+00
    0.00000E+00         0.00000E+00        -0.25356E+06
 
    0.16007E-09        -0.40658E-10         0.00000E+00
   -0.40658E-10        -0.50713E+06         0.00000E+00
    0.00000E+00         0.00000E+00        -0.25356E+06
 
   -0.72760E-10        -0.24846E-10         0.00000E+00
   -0.24846E-10        -0.50713E+06         0.00000E+00
    0.00000E+00         0.00000E+00        -0.25356E+06
 
   -0.21828E-10         0.00000E+00         0.00000E+00
    0.00000E+00        -0.50713E+06         0.00000E+00
    0.00000E+00         0.00000E+00        -0.25356E+06
 
    0.50932E-10        -0.85833E-10         0.00000E+00
   -0.85833E-10        -0.50713E+06         0.00000E+00
    0.00000E+00         0.00000E+00        -0.25356E+06
 
    0.58208E-10         0.22588E-10         0.00000E+00
    0.22588E-10        -0.50713E+06         0.00000E+00
    0.00000E+00         0.00000E+00        -0.25356E+06
 
   -0.12369E-09        -0.45175E-10         0.00000E+00
   -0.45175E-10        -0.50713E+06         0.00000E+00
    0.00000E+00         0.00000E+00        -0.25356E+06
 
   -0.50932E-10        -0.11746E-09         0.00000E+00
   -0.11746E-09        -0.50713E+06         0.00000E+00
    0.00000E+00         0.00000E+00        -0.25356E+06
 
    0.11642E-09         0.10842E-09         0.00000E+00
    0.10842E-09        -0.50713E+06         0.00000E+00
    0.00000E+00         0.00000E+00        -0.25356E+06
 
    0.65484E-10        -0.27105E-10         0.00000E+00
   -0.27105E-10        -0.50713E+06         0.00000E+00
    0.00000E+00         0.00000E+00        -0.25356E+06
 
   -0.14552E-10         0.31623E-10         0.00000E+00
    0.31623E-10        -0.50713E+06         0.00000E+00
    0.00000E+00         0.00000E+00        -0.25356E+06
 
    0.29104E-10         0.11746E-09         0.00000E+00
    0.11746E-09        -0.50713E+06         0.00000E+00
    0.00000E+00         0.00000E+00        -0.25356E+06
 
   -0.20373E-09         0.12649E-09         0.00000E+00
    0.12649E-09        -0.50713E+06         0.00000E+00
    0.00000E+00         0.00000E+00        -0.25356E+06
 
   -0.10186E-09        -0.18070E-10         0.00000E+00
   -0.18070E-10        -0.50713E+06         0.00000E+00
    0.00000E+00         0.00000E+00        -0.25356E+06
 
    0.17462E-09         0.36140E-10         0.00000E+00
    0.36140E-10        -0.50713E+06         0.00000E+00
    0.00000E+00         0.00000E+00        -0.25356E+06
 
   -0.36380E-10        -0.36140E-10         0.00000E+00
   -0.36140E-10        -0.50713E+06         0.00000E+00
    0.00000E+00         0.00000E+00        -0.25356E+06
 
    0.26193E-09         0.90350E-10         0.00000E+00
    0.90350E-10        -0.50713E+06         0.00000E+00
    0.00000E+00         0.00000E+00        -0.25356E+06
 
    0.27649E-09         0.18070E-10         0.00000E+00
    0.18070E-10        -0.50713E+06         0.00000E+00
    0.00000E+00         0.00000E+00        -0.25356E+06
 
    0.65484E-10         0.63245E-10         0.00000E+00
    0.63245E-10        -0.50713E+06         0.00000E+00
    0.00000E+00         0.00000E+00        -0.25356E+06
 
   -0.13097E-09         0.10842E-09         0.00000E+00
    0.10842E-09        -0.50713E+06         0.00000E+00
    0.00000E+00         0.00000E+00        -0.25356E+06
 
    0.10914E-09         0.54210E-10         0.00000E+00
    0.54210E-10        -0.50713E+06         0.00000E+00
    0.00000E+00         0.00000E+00        -0.25356E+06
 
   -0.13824E-09         0.18070E-10         0.00000E+00
    0.18070E-10        -0.50713E+06         0.00000E+00
    0.00000E+00         0.00000E+00        -0.25356E+06
 
   -0.87311E-10         0.36140E-10         0.00000E+00
    0.36140E-10        -0.50713E+06         0.00000E+00
    0.00000E+00         0.00000E+00        -0.25356E+06
 
    0.12369E-09        -0.18070E-10         0.00000E+00
   -0.18070E-10        -0.50713E+06         0.00000E+00
    0.00000E+00         0.00000E+00        -0.25356E+06
 
    0.34925E-09        -0.90350E-11         0.00000E+00
   -0.90350E-11        -0.50713E+06         0.00000E+00
    0.00000E+00         0.00000E+00        -0.25356E+06
 
   -0.26193E-09         0.18070E-10         0.00000E+00
    0.18070E-10        -0.50713E+06         0.00000E+00
    0.00000E+00         0.00000E+00        -0.25356E+06
 
    0.65484E-10        -0.17167E-09         0.00000E+00
   -0.17167E-09        -0.50713E+06         0.00000E+00
    0.00000E+00         0.00000E+00        -0.25356E+06
 
    0.28376E-09         0.14456E-09         0.00000E+00
    0.14456E-09        -0.50713E+06         0.00000E+00
    0.00000E+00         0.00000E+00        -0.25356E+06
 
   -0.18190E-09         0.22588E-09         0.00000E+00
    0.22588E-09        -0.50713E+06         0.00000E+00
    0.00000E+00         0.00000E+00        -0.25356E+06
 
   -0.37835E-09         0.36140E-10         0.00000E+00
    0.36140E-10        -0.50713E+06         0.00000E+00
    0.00000E+00         0.00000E+00        -0.25356E+06
 
    0.43656E-10        -0.45175E-10         0.00000E+00
   -0.45175E-10        -0.50713E+06         0.00000E+00
    0.00000E+00         0.00000E+00        -0.25356E+06
 
   -0.14552E-09        -0.90350E-10         0.00000E+00
   -0.90350E-10        -0.50713E+06         0.00000E+00
    0.00000E+00         0.00000E+00        -0.25356E+06
 
    0.13824E-09         0.15360E-09         0.00000E+00
    0.15360E-09        -0.50713E+06         0.00000E+00
    0.00000E+00         0.00000E+00        -0.25356E+06
 
   -0.72760E-10        -0.54210E-10         0.00000E+00
   -0.54210E-10        -0.50713E+06         0.00000E+00
    0.00000E+00         0.00000E+00        -0.25356E+06
 
    0.25466E-09        -0.99385E-10         0.00000E+00
   -0.99385E-10        -0.50713E+06         0.00000E+00
    0.00000E+00         0.00000E+00        -0.25356E+06
 
    0.14552E-10        -0.10842E-09         0.00000E+00
   -0.10842E-09        -0.50713E+06         0.00000E+00
    0.00000E+00         0.00000E+00        -0.25356E+06
 
    0.29104E-10        -0.63245E-10         0.00000E+00
   -0.63245E-10        -0.50713E+06         0.00000E+00
    0.00000E+00         0.00000E+00        -0.25356E+06
 
   -0.25466E-09        -0.18070E-10         0.00000E+00
   -0.18070E-10        -0.50713E+06         0.00000E+00
    0.00000E+00         0.00000E+00        -0.25356E+06
 
    0.80036E-10        -0.90350E-11         0.00000E+00
   -0.90350E-11        -0.50713E+06         0.00000E+00
    0.00000E+00         0.00000E+00        -0.25356E+06
 
    0.20373E-09        -0.12649E-09         0.00000E+00
   -0.12649E-09        -0.50713E+06         0.00000E+00
    0.00000E+00         0.00000E+00        -0.25356E+06
 
   -0.22555E-09        -0.18070E-10         0.00000E+00
   -0.18070E-10        -0.50713E+06         0.00000E+00
    0.00000E+00         0.00000E+00        -0.25356E+06
 
    0.34197E-09        -0.10842E-09         0.00000E+00
   -0.10842E-09        -0.50713E+06         0.00000E+00
    0.00000E+00         0.00000E+00        -0.25356E+06
 
    0.20373E-09         0.20781E-09         0.00000E+00
    0.20781E-09        -0.50713E+06         0.00000E+00
    0.00000E+00         0.00000E+00        -0.25356E+06
 
    0.37107E-09        -0.17167E-09         0.00000E+00
   -0.17167E-09        -0.50713E+06         0.00000E+00
    0.00000E+00         0.00000E+00        -0.25356E+06
 
    0.33469E-09         0.90350E-10         0.00000E+00
    0.90350E-10        -0.50713E+06         0.00000E+00
    0.00000E+00         0.00000E+00        -0.25356E+06
 
    0.29104E-10         0.10842E-09         0.00000E+00
    0.10842E-09        -0.50713E+06         0.00000E+00
    0.00000E+00         0.00000E+00        -0.25356E+06
 
   -0.16007E-09        -0.11746E-09         0.00000E+00
   -0.11746E-09        -0.50713E+06         0.00000E+00
    0.00000E+00         0.00000E+00        -0.25356E+06
 
   -0.13097E-09         0.22588E-09         0.00000E+00
    0.22588E-09        -0.50713E+06         0.00000E+00
    0.00000E+00         0.00000E+00        -0.25356E+06
 
    0.17462E-09        -0.14456E-09         0.00000E+00
   -0.14456E-09        -0.50713E+06         0.00000E+00
    0.00000E+00         0.00000E+00        -0.25356E+06
 
    0.20373E-09         0.19877E-09         0.00000E+00
    0.19877E-09        -0.50713E+06         0.00000E+00
    0.00000E+00         0.00000E+00        -0.25356E+06
 
    0.27649E-09         0.14456E-09         0.00000E+00
    0.14456E-09        -0.50713E+06         0.00000E+00
    0.00000E+00         0.00000E+00        -0.25356E+06
 
    0.25466E-09        -0.54210E-10         0.00000E+00
   -0.54210E-10        -0.50713E+06         0.00000E+00
    0.00000E+00         0.00000E+00        -0.25356E+06
 
    0.58935E-09         0.00000E+00         0.00000E+00
    0.00000E+00        -0.50713E+06         0.00000E+00
    0.00000E+00         0.00000E+00        -0.25356E+06
 
    0.14552E-09        -0.10842E-09         0.00000E+00
   -0.10842E-09        -0.50713E+06         0.00000E+00
    0.00000E+00         0.00000E+00        -0.25356E+06
 
    0.50932E-09         0.16263E-09         0.00000E+00
    0.16263E-09        -0.50713E+06         0.00000E+00
    0.00000E+00         0.00000E+00        -0.25356E+06
 
    0.48021E-09         0.12649E-09         0.00000E+00
    0.12649E-09        -0.50713E+06         0.00000E+00
    0.00000E+00         0.00000E+00        -0.25356E+06
 
    0.52387E-09        -0.27105E-10         0.00000E+00
   -0.27105E-10        -0.50713E+06         0.00000E+00
    0.00000E+00         0.00000E+00        -0.25356E+06
 
    0.26193E-09        -0.72280E-10         0.00000E+00
   -0.72280E-10        -0.50713E+06         0.00000E+00
    0.00000E+00         0.00000E+00        -0.25356E+06
 
    0.28376E-09         0.00000E+00         0.00000E+00
    0.00000E+00        -0.50713E+06         0.00000E+00
    0.00000E+00         0.00000E+00        -0.25356E+06
 
    0.13097E-09        -0.18070E-10         0.00000E+00
   -0.18070E-10        -0.50713E+06         0.00000E+00
    0.00000E+00         0.00000E+00        -0.25356E+06
 
    0.50932E-10         0.54210E-10         0.00000E+00
    0.54210E-10        -0.50713E+06         0.00000E+00
    0.00000E+00         0.00000E+00        -0.25356E+06
 
   -0.51659E-09        -0.12649E-09         0.00000E+00
   -0.12649E-09        -0.50713E+06         0.00000E+00
    0.00000E+00         0.00000E+00        -0.25356E+06
 
   -0.50204E-09        -0.72280E-10         0.00000E+00
   -0.72280E-10        -0.50713E+06         0.00000E+00
    0.00000E+00         0.00000E+00        -0.25356E+06
 
   -0.30559E-09        -0.18070E-10         0.00000E+00
   -0.18070E-10        -0.50713E+06         0.00000E+00
    0.00000E+00         0.00000E+00        -0.25356E+06
 
    0.20373E-09        -0.28912E-09         0.00000E+00
   -0.28912E-09        -0.50713E+06         0.00000E+00
    0.00000E+00         0.00000E+00        -0.25356E+06
 
    0.53114E-09         0.18070E-10         0.00000E+00
    0.18070E-10        -0.50713E+06         0.00000E+00
    0.00000E+00         0.00000E+00        -0.25356E+06
 
   -0.58935E-09         0.54210E-10         0.00000E+00
    0.54210E-10        -0.50713E+06         0.00000E+00
    0.00000E+00         0.00000E+00        -0.25356E+06
 
   -0.58208E-10        -0.25298E-09         0.00000E+00
   -0.25298E-09        -0.50713E+06         0.00000E+00
    0.00000E+00         0.00000E+00        -0.25356E+06
 
    0.97498E-09        -0.90350E-10         0.00000E+00
   -0.90350E-10        -0.50713E+06         0.00000E+00
    0.00000E+00         0.00000E+00        -0.25356E+06
 
    0.36380E-09        -0.32526E-09         0.00000E+00
   -0.32526E-09        -0.50713E+06         0.00000E+00
    0.00000E+00         0.00000E+00        -0.25356E+06
 
   -0.43656E-10        -0.36140E-10         0.00000E+00
   -0.36140E-10        -0.50713E+06         0.00000E+00
    0.00000E+00         0.00000E+00        -0.25356E+06
 
    0.56025E-09         0.90350E-10         0.00000E+00
    0.90350E-10        -0.50713E+06         0.00000E+00
    0.00000E+00         0.00000E+00        -0.25356E+06
 
   -0.86584E-09        -0.72280E-10         0.00000E+00
   -0.72280E-10        -0.50713E+06         0.00000E+00
    0.00000E+00         0.00000E+00        -0.25356E+06
 
   -0.11569E-08         0.19877E-09         0.00000E+00
    0.19877E-09        -0.50713E+06         0.00000E+00
    0.00000E+00         0.00000E+00        -0.25356E+06
 
    0.32014E-09         0.16263E-09         0.00000E+00
    0.16263E-09        -0.50713E+06         0.00000E+00
    0.00000E+00         0.00000E+00        -0.25356E+06
 
    0.47294E-09         0.10842E-09         0.00000E+00
    0.10842E-09        -0.50713E+06         0.00000E+00
    0.00000E+00         0.00000E+00        -0.25356E+06
 
   -0.74942E-09        -0.18070E-10         0.00000E+00
   -0.18070E-10        -0.50713E+06         0.00000E+00
    0.00000E+00         0.00000E+00        -0.25356E+06
 
    0.34925E-09        -0.14456E-09         0.00000E+00
   -0.14456E-09        -0.50713E+06         0.00000E+00
    0.00000E+00         0.00000E+00        -0.25356E+06
 
    0.87311E-10        -0.72280E-10         0.00000E+00
   -0.72280E-10        -0.50713E+06         0.00000E+00
    0.00000E+00         0.00000E+00        -0.25356E+06
 
    0.47294E-09        -0.36140E-10         0.00000E+00
   -0.36140E-10        -0.50713E+06         0.00000E+00
    0.00000E+00         0.00000E+00        -0.25356E+06
 
    0.65484E-10         0.46982E-09         0.00000E+00
    0.46982E-09        -0.50713E+06         0.00000E+00
    0.00000E+00         0.00000E+00        -0.25356E+06
 
    0.39290E-09        -0.72280E-10         0.00000E+00
   -0.72280E-10        -0.50713E+06         0.00000E+00
    0.00000E+00         0.00000E+00        -0.25356E+06
 
   -0.27649E-09         0.10842E-09         0.00000E+00
    0.10842E-09        -0.50713E+06         0.00000E+00
    0.00000E+00         0.00000E+00        -0.25356E+06
 
    0.00000E+00        -0.28912E-09         0.00000E+00
   -0.28912E-09        -0.50713E+06         0.00000E+00
    0.00000E+00         0.00000E+00        -0.25356E+06
 
    0.46566E-09        -0.39754E-09         0.00000E+00
   -0.39754E-09        -0.50713E+06         0.00000E+00
    0.00000E+00         0.00000E+00        -0.25356E+06
 
   -0.34197E-09         0.43368E-09         0.00000E+00
    0.43368E-09        -0.50713E+06         0.00000E+00
    0.00000E+00         0.00000E+00        -0.25356E+06
 
   -0.16007E-09        -0.10842E-09         0.00000E+00
   -0.10842E-09        -0.50713E+06         0.00000E+00
    0.00000E+00         0.00000E+00        -0.25356E+06
 
    0.42928E-09         0.10842E-09         0.00000E+00
    0.10842E-09        -0.50713E+06         0.00000E+00
    0.00000E+00         0.00000E+00        -0.25356E+06
 
   -0.87311E-10         0.72280E-10         0.00000E+00
    0.72280E-10        -0.50713E+06         0.00000E+00
    0.00000E+00         0.00000E+00        -0.25356E+06
 
    0.14552E-10         0.72280E-10         0.00000E+00
    0.72280E-10        -0.50713E+06         0.00000E+00
    0.00000E+00         0.00000E+00        -0.25356E+06
 
    0.43656E-09        -0.18070E-09         0.00000E+00
   -0.18070E-09        -0.50713E+06         0.00000E+00
    0.00000E+00         0.00000E+00        -0.25356E+06
 
   -0.10914E-08        -0.34333E-09         0.00000E+00
   -0.34333E-09        -0.50713E+06         0.00000E+00
    0.00000E+00         0.00000E+00        -0.25356E+06
 
   -0.13097E-09         0.72280E-10         0.00000E+00
    0.72280E-10        -0.50713E+06         0.00000E+00
    0.00000E+00         0.00000E+00        -0.25356E+06
 
    0.29104E-10        -0.21684E-09         0.00000E+00
   -0.21684E-09        -0.50713E+06         0.00000E+00
    0.00000E+00         0.00000E+00        -0.25356E+06
 
    0.36380E-09         0.00000E+00         0.00000E+00
    0.00000E+00        -0.50713E+06         0.00000E+00
    0.00000E+00         0.00000E+00        -0.25356E+06
 
    0.40745E-09        -0.36140E-10         0.00000E+00
   -0.36140E-10        -0.50713E+06         0.00000E+00
    0.00000E+00         0.00000E+00        -0.25356E+06
 
    0.62573E-09        -0.36140E-09         0.00000E+00
   -0.36140E-09        -0.50713E+06         0.00000E+00
    0.00000E+00         0.00000E+00        -0.25356E+06
 
   -0.16007E-09        -0.10842E-09         0.00000E+00
   -0.10842E-09        -0.50713E+06         0.00000E+00
    0.00000E+00         0.00000E+00        -0.25356E+06
 
    0.19645E-09        -0.36140E-10         0.00000E+00
   -0.36140E-10        -0.50713E+06         0.00000E+00
    0.00000E+00         0.00000E+00        -0.25356E+06
 
    0.66211E-09        -0.43368E-09         0.00000E+00
   -0.43368E-09        -0.50713E+06         0.00000E+00
    0.00000E+00         0.00000E+00        -0.25356E+06
 
   -0.29104E-10        -0.32526E-09         0.00000E+00
   -0.32526E-09        -0.50713E+06         0.00000E+00
    0.00000E+00         0.00000E+00        -0.25356E+06
 
    0.10259E-08         0.00000E+00         0.00000E+00
    0.00000E+00        -0.50712E+06         0.00000E+00
    0.00000E+00         0.00000E+00        -0.25356E+06
 
    0.42201E-09        -0.36140E-10         0.00000E+00
   -0.36140E-10        -0.50712E+06         0.00000E+00
    0.00000E+00         0.00000E+00        -0.25356E+06
 
    0.42201E-09        -0.10842E-09         0.00000E+00
   -0.10842E-09        -0.50712E+06         0.00000E+00
    0.00000E+00         0.00000E+00        -0.25356E+06
 
   -0.35652E-09        -0.36140E-09         0.00000E+00
   -0.36140E-09        -0.50712E+06         0.00000E+00
    0.00000E+00         0.00000E+00        -0.25356E+06
 
   -0.34925E-09        -0.14456E-09         0.00000E+00
   -0.14456E-09        -0.50712E+06         0.00000E+00
    0.00000E+00         0.00000E+00        -0.25356E+06
 
   -0.80036E-09        -0.14456E-09         0.00000E+00
   -0.14456E-09        -0.50710E+06         0.00000E+00
    0.00000E+00         0.00000E+00        -0.25354E+06
 
   -0.17462E-09         0.10842E-09         0.00000E+00
    0.10842E-09        -0.50710E+06         0.00000E+00
    0.00000E+00         0.00000E+00        -0.25354E+06
 
    0.40745E-09         0.14456E-09         0.00000E+00
    0.14456E-09        -0.50710E+06         0.00000E+00
    0.00000E+00         0.00000E+00        -0.25354E+06
 
   -0.22555E-09        -0.36140E-10         0.00000E+00
   -0.36140E-10        -0.50710E+06         0.00000E+00
    0.00000E+00         0.00000E+00        -0.25354E+06
 
   -0.66939E-09         0.10842E-09         0.00000E+00
    0.10842E-09        -0.50710E+06         0.00000E+00
    0.00000E+00         0.00000E+00        -0.25354E+06
 
   -0.75670E-09        -0.14456E-09         0.00000E+00
   -0.14456E-09        -0.50699E+06         0.00000E+00
    0.00000E+00         0.00000E+00        -0.25343E+06
 
   -0.65484E-09         0.28912E-09         0.00000E+00
    0.28912E-09        -0.50699E+06         0.00000E+00
    0.00000E+00         0.00000E+00        -0.25343E+06
 
    0.50932E-10         0.10842E-09         0.00000E+00
    0.10842E-09        -0.50699E+06         0.00000E+00
    0.00000E+00         0.00000E+00        -0.25343E+06
 
   -0.78580E-09        -0.36140E-10         0.00000E+00
   -0.36140E-10        -0.50699E+06         0.00000E+00
    0.00000E+00         0.00000E+00        -0.25343E+06
 
   -0.13824E-09         0.21684E-09         0.00000E+00
    0.21684E-09        -0.50699E+06         0.00000E+00
    0.00000E+00         0.00000E+00        -0.25343E+06
 
   -0.27649E-09         0.28912E-09         0.00000E+00
    0.28912E-09        -0.50647E+06         0.00000E+00
    0.00000E+00         0.00000E+00        -0.25291E+06
 
    0.13824E-09         0.00000E+00         0.00000E+00
    0.00000E+00        -0.50647E+06         0.00000E+00
    0.00000E+00         0.00000E+00        -0.25291E+06
 
   -0.28376E-09        -0.36140E-10         0.00000E+00
   -0.36140E-10        -0.50647E+06         0.00000E+00
    0.00000E+00         0.00000E+00        -0.25291E+06
 
   -0.47294E-09         0.72280E-10         0.00000E+00
    0.72280E-10        -0.50647E+06         0.00000E+00
    0.00000E+00         0.00000E+00        -0.25291E+06
 
   -0.14043E-08        -0.36140E-10         0.00000E+00
   -0.36140E-10        -0.50647E+06         0.00000E+00
    0.00000E+00         0.00000E+00        -0.25291E+06
 
    0.30850E-08        -0.18070E-09         0.00000E+00
   -0.18070E-09        -0.50408E+06         0.00000E+00
    0.00000E+00         0.00000E+00        -0.25051E+06
 
    0.40745E-09         0.46982E-09         0.00000E+00
    0.46982E-09        -0.50408E+06         0.00000E+00
    0.00000E+00         0.00000E+00        -0.25051E+06
 
   -0.78580E-09         0.36140E-10         0.00000E+00
    0.36140E-10        -0.50408E+06         0.00000E+00
    0.00000E+00         0.00000E+00        -0.25051E+06
 
   -0.55297E-09         0.00000E+00         0.00000E+00
    0.00000E+00        -0.50408E+06         0.00000E+00
    0.00000E+00         0.00000E+00        -0.25051E+06
 
    0.93132E-09        -0.43368E-09         0.00000E+00
   -0.43368E-09        -0.50408E+06         0.00000E+00
    0.00000E+00         0.00000E+00        -0.25051E+06
 
    0.36380E-10        -0.39754E-09         0.00000E+00
   -0.39754E-09        -0.49394E+06         0.00000E+00
    0.00000E+00         0.00000E+00        -0.24038E+06
 
   -0.54570E-09         0.68666E-09         0.00000E+00
    0.68666E-09        -0.49394E+06         0.00000E+00
    0.00000E+00         0.00000E+00        -0.24038E+06
 
    0.72032E-09        -0.10842E-09         0.00000E+00
   -0.10842E-09        -0.49394E+06         0.00000E+00
    0.00000E+00         0.00000E+00        -0.24038E+06
 
    0.12369E-08         0.00000E+00         0.00000E+00
    0.00000E+00        -0.49394E+06         0.00000E+00
    0.00000E+00         0.00000E+00        -0.24038E+06
 
    0.73487E-09        -0.43368E-09         0.00000E+00
   -0.43368E-09        -0.49394E+06         0.00000E+00
    0.00000E+00         0.00000E+00        -0.24038E+06
 
   -0.66939E-09         0.25298E-09         0.00000E+00
    0.25298E-09        -0.45716E+06         0.00000E+00
    0.00000E+00         0.00000E+00        -0.20359E+06
 
   -0.74215E-09        -0.28912E-09         0.00000E+00
   -0.28912E-09        -0.45716E+06         0.00000E+00
    0.00000E+00         0.00000E+00        -0.20359E+06
 
   -0.61846E-09         0.93964E-09         0.00000E+00
    0.93964E-09        -0.45716E+06         0.00000E+00
    0.00000E+00         0.00000E+00        -0.20359E+06
 
   -0.13970E-08         0.18070E-09         0.00000E+00
    0.18070E-09        -0.45716E+06         0.00000E+00
    0.00000E+00         0.00000E+00        -0.20359E+06
 
   -0.16298E-08         0.10842E-09         0.00000E+00
    0.10842E-09        -0.45716E+06         0.00000E+00
    0.00000E+00         0.00000E+00        -0.20359E+06
 
    0.72760E-09        -0.36140E-10         0.00000E+00
   -0.36140E-10        -0.37275E+06         0.00000E+00
    0.00000E+00         0.00000E+00        -0.11919E+06
 
    0.61118E-09        -0.39754E-09         0.00000E+00
   -0.39754E-09        -0.37275E+06         0.00000E+00
    0.00000E+00         0.00000E+00        -0.11919E+06
 
   -0.58208E-10         0.36140E-10         0.00000E+00
    0.36140E-10        -0.37275E+06         0.00000E+00
    0.00000E+00         0.00000E+00        -0.11919E+06
 
    0.10750E-08        -0.72280E-09         0.00000E+00
   -0.72280E-09        -0.37275E+06         0.00000E+00
    0.00000E+00         0.00000E+00        -0.11919E+06
 
    0.11496E-08        -0.36140E-09         0.00000E+00
   -0.36140E-09        -0.37275E+06         0.00000E+00
    0.00000E+00         0.00000E+00        -0.11919E+06
 
SCALARS stressS double 
LOOKUP_TABLE default
  -253564.141322150     
  -253564.141322150     
  -253564.141322150     
  -253564.141322150     
  -253564.141322150     
  -253564.141322150     
  -253564.141322150     
  -253564.141322150     
  -253564.141322150     
  -253564.141322150     
  -253564.141322150     
  -253564.141322150     
  -253564.141322150     
  -253564.141322150     
  -253564.141322150     
  -253564.141322150     
  -253564.141322150     
  -253564.141322150     
  -253564.141322150     
  -253564.141322150     
  -253564.141322150     
  -253564.141322150     
  -253564.141322150     
  -253564.141322150     
  -253564.141322150     
  -253564.141322150     
  -253564.141322150     
  -253564.141322150     
  -253564.141322150     
  -253564.141322150     
  -253564.141322150     
  -253564.141322150     
  -253564.141322150     
  -253564.141322150     
  -253564.141322150     
  -253564.141322150     
  -253564.141322150     
  -253564.141322150     
  -253564.141322150     
  -253564.141322150     
  -253564.141322150     
  -253564.141322150     
  -253564.141322150     
  -253564.141322150     
  -253564.141322150     
  -253564.141322150     
  -253564.141322150     
  -253564.141322150     
  -253564.141322150     
  -253564.141322150     
  -253564.141322147     
  -253564.141322147     
  -253564.141322147     
  -253564.141322147     
  -253564.141322147     
  -253564.141322133     
  -253564.141322133     
  -253564.141322133     
  -253564.141322133     
  -253564.141322133     
  -253564.141322047     
  -253564.141322046     
  -253564.141322047     
  -253564.141322046     
  -253564.141322046     
  -253564.141321526     
  -253564.141321526     
  -253564.141321526     
  -253564.141321526     
  -253564.141321526     
  -253564.141318438     
  -253564.141318438     
  -253564.141318438     
  -253564.141318437     
  -253564.141318437     
  -253564.141300326     
  -253564.141300326     
  -253564.141300326     
  -253564.141300326     
  -253564.141300326     
  -253564.141195509     
  -253564.141195509     
  -253564.141195510     
  -253564.141195509     
  -253564.141195509     
  -253564.140597252     
  -253564.140597251     
  -253564.140597251     
  -253564.140597251     
  -253564.140597252     
  -253564.137232517     
  -253564.137232518     
  -253564.137232518     
  -253564.137232517     
  -253564.137232518     
  -253564.118604086     
  -253564.118604086     
  -253564.118604086     
  -253564.118604086     
  -253564.118604086     
  -253564.017201520     
  -253564.017201519     
  -253564.017201519     
  -253564.017201519     
  -253564.017201519     
  -253563.475259473     
  -253563.475259474     
  -253563.475259474     
  -253563.475259473     
  -253563.475259474     
  -253560.636736511     
  -253560.636736511     
  -253560.636736511     
  -253560.636736512     
  -253560.636736512     
  -253546.105166636     
  -253546.105166635     
  -253546.105166635     
  -253546.105166635     
  -253546.105166636     
  -253473.705421913     
  -253473.705421914     
  -253473.705421913     
  -253473.705421913     
  -253473.705421913     
  -253125.320289711     
  -253125.320289711     
  -253125.320289711     
  -253125.320289711     
  -253125.320289711     
  -251529.272432000     
  -251529.272432001     
  -251529.272432001     
  -251529.272432001     
  -251529.272432001     
  -244772.428544517     
  -244772.428544517     
  -244772.428544516     
  -244772.428544516     
  -244772.428544517     
  -220251.714933077     
  -220251.714933076     
  -220251.714933077     
  -220251.714933077     
  -220251.714933077     
  -163981.370653111     
  -163981.370653111     
  -163981.370653111     
  -163981.370653111     
  -163981.370653111     
SCALARS 2waySource double 
LOOKUP_TABLE default
  7.884763758517720E-006
  7.884763758518465E-006
  7.884763758522575E-006
  7.884763758523464E-006
  7.884763758523498E-006
  7.884763758516901E-006
  7.884763758517288E-006
  7.884763758519771E-006
  7.884763758522278E-006
  7.884763758523481E-006
  7.884763758519854E-006
  7.884763758518551E-006
  7.884763758520555E-006
  7.884763758520754E-006
  7.884763758522634E-006
  7.884763758518827E-006
  7.884763758520757E-006
  7.884763758517789E-006
  7.884763758515634E-006
  7.884763758516688E-006
  7.884763758519764E-006
  7.884763758520303E-006
  7.884763758518697E-006
  7.884763758520029E-006
  7.884763758518706E-006
  7.884763758515617E-006
  7.884763758514330E-006
  7.884763758517667E-006
  7.884763758516745E-006
  7.884763758518707E-006
  7.884763758515805E-006
  7.884763758514481E-006
  7.884763758515843E-006
  7.884763758516000E-006
  7.884763758520635E-006
  7.884763758515987E-006
  7.884763758511855E-006
  7.884763758517257E-006
  7.884763758515882E-006
  7.884763758512873E-006
  7.884763758509915E-006
  7.884763758512871E-006
  7.884763758513120E-006
  7.884763758515744E-006
  7.884763758514855E-006
  7.884763758505815E-006
  7.884763758510496E-006
  7.884763758508387E-006
  7.884763758506417E-006
  7.884763758513273E-006
  7.884763758484326E-006
  7.884763758485686E-006
  7.884763758479500E-006
  7.884763758475620E-006
  7.884763758483291E-006
  7.884763758348481E-006
  7.884763758349555E-006
  7.884763758347976E-006
  7.884763758350581E-006
  7.884763758342226E-006
  7.884763757509869E-006
  7.884763757515957E-006
  7.884763757514014E-006
  7.884763757512601E-006
  7.884763757506222E-006
  7.884763752449481E-006
  7.884763752444187E-006
  7.884763752445901E-006
  7.884763752445813E-006
  7.884763752441383E-006
  7.884763722367575E-006
  7.884763722372037E-006
  7.884763722373697E-006
  7.884763722362506E-006
  7.884763722364993E-006
  7.884763545744268E-006
  7.884763545742732E-006
  7.884763545740348E-006
  7.884763545740317E-006
  7.884763545728835E-006
  7.884762521852342E-006
  7.884762521851438E-006
  7.884762521853277E-006
  7.884762521837441E-006
  7.884762521842175E-006
  7.884756666710977E-006
  7.884756666706578E-006
  7.884756666705271E-006
  7.884756666709244E-006
  7.884756666709910E-006
  7.884723675544013E-006
  7.884723675544948E-006
  7.884723675539935E-006
  7.884723675547246E-006
  7.884723675549578E-006
  7.884540799326246E-006
  7.884540799332251E-006
  7.884540799325936E-006
  7.884540799319908E-006
  7.884540799325380E-006
  7.883545544828993E-006
  7.883545544819582E-006
  7.883545544815491E-006
  7.883545544818585E-006
  7.883545544825906E-006
  7.878241352314526E-006
  7.878241352331205E-006
  7.878241352331534E-006
  7.878241352334590E-006
  7.878241352323049E-006
  7.850649003897290E-006
  7.850649003891205E-006
  7.850649003893998E-006
  7.850649003903619E-006
  7.850649003896712E-006
  7.711181438693877E-006
  7.711181438692153E-006
  7.711181438674329E-006
  7.711181438668307E-006
  7.711181438668670E-006
  7.031021071188314E-006
  7.031021071184891E-006
  7.031021071195330E-006
  7.031021071199990E-006
  7.031021071199882E-006
  3.870335750045774E-006
  3.870335750057058E-006
  3.870335750037109E-006
  3.870335750042552E-006
  3.870335750050558E-006
 -9.775652052648526E-006
 -9.775652052650490E-006
 -9.775652052642375E-006
 -9.775652052640279E-006
 -9.775652052650508E-006
 -6.124709013959837E-005
 -6.124709013959916E-005
 -6.124709013959522E-005
 -6.124709013958599E-005
 -6.124709013958042E-005
 -1.972632226742469E-004
 -1.972632226742389E-004
 -1.972632226742360E-004
 -1.972632226742307E-004
 -1.972632226742369E-004
 -3.379678890069250E-005
 -3.379678890069649E-005
 -3.379678890068607E-005
 -3.379678890069850E-005
 -3.379678890068889E-005
SCALARS poroP double 
LOOKUP_TABLE default
  0.000000000000000E+000
  0.000000000000000E+000
  0.000000000000000E+000
  0.000000000000000E+000
  0.000000000000000E+000
  0.000000000000000E+000
  0.000000000000000E+000
  0.000000000000000E+000
  0.000000000000000E+000
  0.000000000000000E+000
  0.000000000000000E+000
  0.000000000000000E+000
  0.000000000000000E+000
  0.000000000000000E+000
  0.000000000000000E+000
  0.000000000000000E+000
  0.000000000000000E+000
  0.000000000000000E+000
  0.000000000000000E+000
  0.000000000000000E+000
  0.000000000000000E+000
  0.000000000000000E+000
  0.000000000000000E+000
  0.000000000000000E+000
  0.000000000000000E+000
  0.000000000000000E+000
  0.000000000000000E+000
  0.000000000000000E+000
  0.000000000000000E+000
  0.000000000000000E+000
  0.000000000000000E+000
  0.000000000000000E+000
  0.000000000000000E+000
  0.000000000000000E+000
  0.000000000000000E+000
  0.000000000000000E+000
  0.000000000000000E+000
  0.000000000000000E+000
  0.000000000000000E+000
  0.000000000000000E+000
  0.000000000000000E+000
  0.000000000000000E+000
  0.000000000000000E+000
  0.000000000000000E+000
  0.000000000000000E+000
  0.000000000000000E+000
  0.000000000000000E+000
  0.000000000000000E+000
  0.000000000000000E+000
  0.000000000000000E+000
  0.000000000000000E+000
  0.000000000000000E+000
  0.000000000000000E+000
  0.000000000000000E+000
  0.000000000000000E+000
  0.000000000000000E+000
  0.000000000000000E+000
  0.000000000000000E+000
  0.000000000000000E+000
  0.000000000000000E+000
  0.000000000000000E+000
  0.000000000000000E+000
  0.000000000000000E+000
  0.000000000000000E+000
  0.000000000000000E+000
  0.000000000000000E+000
  0.000000000000000E+000
  0.000000000000000E+000
  0.000000000000000E+000
  0.000000000000000E+000
  0.000000000000000E+000
  0.000000000000000E+000
  0.000000000000000E+000
  0.000000000000000E+000
  0.000000000000000E+000
  0.000000000000000E+000
  0.000000000000000E+000
  0.000000000000000E+000
  0.000000000000000E+000
  0.000000000000000E+000
  0.000000000000000E+000
  0.000000000000000E+000
  0.000000000000000E+000
  0.000000000000000E+000
  0.000000000000000E+000
  0.000000000000000E+000
  0.000000000000000E+000
  0.000000000000000E+000
  0.000000000000000E+000
  0.000000000000000E+000
  0.000000000000000E+000
  0.000000000000000E+000
  0.000000000000000E+000
  0.000000000000000E+000
  0.000000000000000E+000
  0.000000000000000E+000
  0.000000000000000E+000
  0.000000000000000E+000
  0.000000000000000E+000
  0.000000000000000E+000
  0.000000000000000E+000
  0.000000000000000E+000
  0.000000000000000E+000
  0.000000000000000E+000
  0.000000000000000E+000
  0.000000000000000E+000
  0.000000000000000E+000
  0.000000000000000E+000
  0.000000000000000E+000
  0.000000000000000E+000
  0.000000000000000E+000
  0.000000000000000E+000
  0.000000000000000E+000
  0.000000000000000E+000
  0.000000000000000E+000
  0.000000000000000E+000
  0.000000000000000E+000
  0.000000000000000E+000
  0.000000000000000E+000
  0.000000000000000E+000
  0.000000000000000E+000
  0.000000000000000E+000
  0.000000000000000E+000
  0.000000000000000E+000
  0.000000000000000E+000
  0.000000000000000E+000
  0.000000000000000E+000
  0.000000000000000E+000
  0.000000000000000E+000
  0.000000000000000E+000
  0.000000000000000E+000
  0.000000000000000E+000
  0.000000000000000E+000
  0.000000000000000E+000
  0.000000000000000E+000
  0.000000000000000E+000
  0.000000000000000E+000
  0.000000000000000E+000
  0.000000000000000E+000
  0.000000000000000E+000
  0.000000000000000E+000
  0.000000000000000E+000
  0.000000000000000E+000
  0.000000000000000E+000
  0.000000000000000E+000
  0.000000000000000E+000
  0.000000000000000E+000
  0.000000000000000E+000
  0.000000000000000E+000
  0.000000000000000E+000
SCALARS elementIsPlast double 
LOOKUP_TABLE default
  0.000000000000000E+000
  0.000000000000000E+000
  0.000000000000000E+000
  0.000000000000000E+000
  0.000000000000000E+000
  0.000000000000000E+000
  0.000000000000000E+000
  0.000000000000000E+000
  0.000000000000000E+000
  0.000000000000000E+000
  0.000000000000000E+000
  0.000000000000000E+000
  0.000000000000000E+000
  0.000000000000000E+000
  0.000000000000000E+000
  0.000000000000000E+000
  0.000000000000000E+000
  0.000000000000000E+000
  0.000000000000000E+000
  0.000000000000000E+000
  0.000000000000000E+000
  0.000000000000000E+000
  0.000000000000000E+000
  0.000000000000000E+000
  0.000000000000000E+000
  0.000000000000000E+000
  0.000000000000000E+000
  0.000000000000000E+000
  0.000000000000000E+000
  0.000000000000000E+000
  0.000000000000000E+000
  0.000000000000000E+000
  0.000000000000000E+000
  0.000000000000000E+000
  0.000000000000000E+000
  0.000000000000000E+000
  0.000000000000000E+000
  0.000000000000000E+000
  0.000000000000000E+000
  0.000000000000000E+000
  0.000000000000000E+000
  0.000000000000000E+000
  0.000000000000000E+000
  0.000000000000000E+000
  0.000000000000000E+000
  0.000000000000000E+000
  0.000000000000000E+000
  0.000000000000000E+000
  0.000000000000000E+000
  0.000000000000000E+000
  0.000000000000000E+000
  0.000000000000000E+000
  0.000000000000000E+000
  0.000000000000000E+000
  0.000000000000000E+000
  0.000000000000000E+000
  0.000000000000000E+000
  0.000000000000000E+000
  0.000000000000000E+000
  0.000000000000000E+000
  0.000000000000000E+000
  0.000000000000000E+000
  0.000000000000000E+000
  0.000000000000000E+000
  0.000000000000000E+000
  0.000000000000000E+000
  0.000000000000000E+000
  0.000000000000000E+000
  0.000000000000000E+000
  0.000000000000000E+000
  0.000000000000000E+000
  0.000000000000000E+000
  0.000000000000000E+000
  0.000000000000000E+000
  0.000000000000000E+000
  0.000000000000000E+000
  0.000000000000000E+000
  0.000000000000000E+000
  0.000000000000000E+000
  0.000000000000000E+000
  0.000000000000000E+000
  0.000000000000000E+000
  0.000000000000000E+000
  0.000000000000000E+000
  0.000000000000000E+000
  0.000000000000000E+000
  0.000000000000000E+000
  0.000000000000000E+000
  0.000000000000000E+000
  0.000000000000000E+000
  0.000000000000000E+000
  0.000000000000000E+000
  0.000000000000000E+000
  0.000000000000000E+000
  0.000000000000000E+000
  0.000000000000000E+000
  0.000000000000000E+000
  0.000000000000000E+000
  0.000000000000000E+000
  0.000000000000000E+000
  0.000000000000000E+000
  0.000000000000000E+000
  0.000000000000000E+000
  0.000000000000000E+000
  0.000000000000000E+000
  0.000000000000000E+000
  0.000000000000000E+000
  0.000000000000000E+000
  0.000000000000000E+000
  0.000000000000000E+000
  0.000000000000000E+000
  0.000000000000000E+000
  0.000000000000000E+000
  0.000000000000000E+000
  0.000000000000000E+000
  0.000000000000000E+000
  0.000000000000000E+000
  0.000000000000000E+000
  0.000000000000000E+000
  0.000000000000000E+000
  0.000000000000000E+000
  0.000000000000000E+000
  0.000000000000000E+000
  0.000000000000000E+000
  0.000000000000000E+000
  0.000000000000000E+000
  0.000000000000000E+000
  0.000000000000000E+000
  0.000000000000000E+000
  0.000000000000000E+000
  0.000000000000000E+000
  0.000000000000000E+000
  0.000000000000000E+000
  0.000000000000000E+000
  0.000000000000000E+000
  0.000000000000000E+000
  0.000000000000000E+000
  0.000000000000000E+000
  0.000000000000000E+000
  0.000000000000000E+000
  0.000000000000000E+000
  0.000000000000000E+000
  0.000000000000000E+000
  0.000000000000000E+000
  0.000000000000000E+000
  0.000000000000000E+000
  0.000000000000000E+000
  0.000000000000000E+000
  0.000000000000000E+000
  0.000000000000000E+000
SCALARS poroL double 
LOOKUP_TABLE default
  0.199999973412299     
  0.199999973412299     
  0.199999973412299     
  0.199999973412299     
  0.199999973412299     
  0.199999973412299     
  0.199999973412299     
  0.199999973412299     
  0.199999973412299     
  0.199999973412299     
  0.199999973412299     
  0.199999973412299     
  0.199999973412299     
  0.199999973412299     
  0.199999973412299     
  0.199999973412299     
  0.199999973412299     
  0.199999973412299     
  0.199999973412299     
  0.199999973412299     
  0.199999973412299     
  0.199999973412299     
  0.199999973412299     
  0.199999973412299     
  0.199999973412299     
  0.199999973412299     
  0.199999973412299     
  0.199999973412299     
  0.199999973412299     
  0.199999973412299     
  0.199999973412299     
  0.199999973412299     
  0.199999973412299     
  0.199999973412299     
  0.199999973412299     
  0.199999973412299     
  0.199999973412299     
  0.199999973412299     
  0.199999973412299     
  0.199999973412299     
  0.199999973412299     
  0.199999973412299     
  0.199999973412299     
  0.199999973412299     
  0.199999973412299     
  0.199999973412299     
  0.199999973412299     
  0.199999973412299     
  0.199999973412299     
  0.199999973412299     
  0.199999973412299     
  0.199999973412299     
  0.199999973412299     
  0.199999973412299     
  0.199999973412299     
  0.199999973412298     
  0.199999973412298     
  0.199999973412298     
  0.199999973412298     
  0.199999973412298     
  0.199999973412297     
  0.199999973412297     
  0.199999973412297     
  0.199999973412297     
  0.199999973412297     
  0.199999973412287     
  0.199999973412287     
  0.199999973412287     
  0.199999973412287     
  0.199999973412287     
  0.199999973412232     
  0.199999973412232     
  0.199999973412232     
  0.199999973412232     
  0.199999973412232     
  0.199999973411906     
  0.199999973411906     
  0.199999973411906     
  0.199999973411906     
  0.199999973411906     
  0.199999973410019     
  0.199999973410019     
  0.199999973410019     
  0.199999973410019     
  0.199999973410019     
  0.199999973399251     
  0.199999973399251     
  0.199999973399251     
  0.199999973399251     
  0.199999973399251     
  0.199999973338685     
  0.199999973338685     
  0.199999973338685     
  0.199999973338685     
  0.199999973338685     
  0.199999973003374     
  0.199999973003374     
  0.199999973003374     
  0.199999973003374     
  0.199999973003374     
  0.199999971178127     
  0.199999971178127     
  0.199999971178127     
  0.199999971178127     
  0.199999971178127     
  0.199999961423171     
  0.199999961423171     
  0.199999961423171     
  0.199999961423171     
  0.199999961423171     
  0.199999910329757     
  0.199999910329757     
  0.199999910329757     
  0.199999910329757     
  0.199999910329757     
  0.199999648761499     
  0.199999648761499     
  0.199999648761499     
  0.199999648761499     
  0.199999648761499     
  0.199998345566094     
  0.199998345566094     
  0.199998345566094     
  0.199998345566094     
  0.199998345566094     
  0.199992074633715     
  0.199992074633715     
  0.199992074633715     
  0.199992074633715     
  0.199992074633715     
  0.199963345772276     
  0.199963345772276     
  0.199963345772276     
  0.199963345772276     
  0.199963345772276     
  0.199841722582301     
  0.199841722582301     
  0.199841722582301     
  0.199841722582301     
  0.199841722582301     
  0.199400349737295     
  0.199400349737295     
  0.199400349737295     
  0.199400349737295     
  0.199400349737295     
  0.198387483540256     
  0.198387483540256     
  0.198387483540256     
  0.198387483540256     
  0.198387483540256     
POINT_DATA        186
SCALARS solMandel double 
LOOKUP_TABLE default
   253565.454109945     
   253565.454109945     
   253565.454109945     
   253565.454109945     
   253565.454109945     
   253565.454109945     
   253565.098632715     
   253565.098632715     
   253565.098632715     
   253565.098632715     
   253565.098632715     
   253565.098632715     
   253564.695482534     
   253564.695482534     
   253564.695482534     
   253564.695482534     
   253564.695482534     
   253564.695482534     
   253564.023344767     
   253564.023344767     
   253564.023344767     
   253564.023344767     
   253564.023344767     
   253564.023344767     
   253564.173259572     
   253564.173259572     
   253564.173259572     
   253564.173259572     
   253564.173259572     
   253564.173259572     
   253565.289963250     
   253565.289963250     
   253565.289963250     
   253565.289963250     
   253565.289963250     
   253565.289963250     
   253567.110579215     
   253567.110579215     
   253567.110579215     
   253567.110579215     
   253567.110579215     
   253567.110579215     
   253567.550509241     
   253567.550509241     
   253567.550509241     
   253567.550509241     
   253567.550509241     
   253567.550509241     
   253566.421434378     
   253566.421434378     
   253566.421434378     
   253566.421434378     
   253566.421434378     
   253566.421434378     
   253564.796863833     
   253564.796863833     
   253564.796863833     
   253564.796863833     
   253564.796863833     
   253564.796863833     
   253564.398274508     
   253564.398274508     
   253564.398274508     
   253564.398274508     
   253564.398274508     
   253564.398274508     
   253564.931396184     
   253564.931396184     
   253564.931396184     
   253564.931396184     
   253564.931396184     
   253564.931396184     
   253565.704890865     
   253565.704890865     
   253565.704890865     
   253565.704890865     
   253565.704890865     
   253565.704890865     
   253565.703392992     
   253565.703392992     
   253565.703392992     
   253565.703392992     
   253565.703392992     
   253565.703392992     
   253564.964352854     
   253564.964352854     
   253564.964352854     
   253564.964352854     
   253564.964352854     
   253564.964352854     
   253564.783426618     
   253564.783426618     
   253564.783426618     
   253564.783426618     
   253564.783426618     
   253564.783426618     
   253565.245553229     
   253565.245553229     
   253565.245553229     
   253565.245553229     
   253565.245553229     
   253565.245553229     
   253565.986443886     
   253565.986443886     
   253565.986443886     
   253565.986443886     
   253565.986443886     
   253565.986443886     
   253566.286412497     
   253566.286412497     
   253566.286412497     
   253566.286412497     
   253566.286412497     
   253566.286412497     
   253565.997031537     
   253565.997031537     
   253565.997031537     
   253565.997031537     
   253565.997031537     
   253565.997031537     
   253564.687520579     
   253564.687520579     
   253564.687520579     
   253564.687520579     
   253564.687520579     
   253564.687520579     
   253564.645334990     
   253564.645334990     
   253564.645334990     
   253564.645334991     
   253564.645334990     
   253564.645334990     
   253565.658094220     
   253565.658094220     
   253565.658094220     
   253565.658094220     
   253565.658094220     
   253565.658094220     
   253567.209070991     
   253567.209070991     
   253567.209070991     
   253567.209070991     
   253567.209070991     
   253567.209070991     
   253561.532957966     
   253561.532957966     
   253561.532957966     
   253561.532957966     
   253561.532957966     
   253561.532957966     
   253463.796914145     
   253463.796914145     
   253463.796914145     
   253463.796914145     
   253463.796914145     
   253463.796914145     
   252389.480332295     
   252389.480332295     
   252389.480332295     
   252389.480332295     
   252389.480332295     
   252389.480332295     
   245038.161821559     
   245038.161821559     
   245038.161821559     
   245038.161821559     
   245038.161821559     
   245038.161821559     
   213925.659026564     
   213925.659026564     
   213925.659026564     
   213925.659026564     
   213925.659026564     
   213925.659026564     
   132432.885584667     
   132432.885584667     
   132432.885584667     
   132432.885584667     
   132432.885584667     
   132432.885584667     
  1.097113327809838E-009
  7.031260611187535E-010
  1.097113327809838E-009
  7.031260611187535E-010
  1.097113327809838E-009
  1.097113327809838E-009
