# vtk DataFile Version 3.0
vtk output
ASCII
DATASET UNSTRUCTURED_GRID
POINTS       186 double 
  0.00000000E+00  1.00000000E+01  0.00000000E+00
  0.00000000E+00  8.00000000E+00  0.00000000E+00
  0.00000000E+00  6.00000000E+00  0.00000000E+00
  0.00000000E+00  4.00000000E+00  0.00000000E+00
  0.00000000E+00  2.00000000E+00  0.00000000E+00
  0.00000000E+00  0.00000000E+00  0.00000000E+00
  3.33333333E+00  1.00000000E+01  0.00000000E+00
  3.33333333E+00  8.00000000E+00  0.00000000E+00
  3.33333333E+00  6.00000000E+00  0.00000000E+00
  3.33333333E+00  4.00000000E+00  0.00000000E+00
  3.33333333E+00  2.00000000E+00  0.00000000E+00
  3.33333333E+00  0.00000000E+00  0.00000000E+00
  6.66666667E+00  1.00000000E+01  0.00000000E+00
  6.66666667E+00  8.00000000E+00  0.00000000E+00
  6.66666667E+00  6.00000000E+00  0.00000000E+00
  6.66666667E+00  4.00000000E+00  0.00000000E+00
  6.66666667E+00  2.00000000E+00  0.00000000E+00
  6.66666667E+00  0.00000000E+00  0.00000000E+00
  1.00000000E+01  1.00000000E+01  0.00000000E+00
  1.00000000E+01  8.00000000E+00  0.00000000E+00
  1.00000000E+01  6.00000000E+00  0.00000000E+00
  1.00000000E+01  4.00000000E+00  0.00000000E+00
  1.00000000E+01  2.00000000E+00  0.00000000E+00
  1.00000000E+01  0.00000000E+00  0.00000000E+00
  1.33333333E+01  1.00000000E+01  0.00000000E+00
  1.33333333E+01  8.00000000E+00  0.00000000E+00
  1.33333333E+01  6.00000000E+00  0.00000000E+00
  1.33333333E+01  4.00000000E+00  0.00000000E+00
  1.33333333E+01  2.00000000E+00  0.00000000E+00
  1.33333333E+01  0.00000000E+00  0.00000000E+00
  1.66666667E+01  1.00000000E+01  0.00000000E+00
  1.66666667E+01  8.00000000E+00  0.00000000E+00
  1.66666667E+01  6.00000000E+00  0.00000000E+00
  1.66666667E+01  4.00000000E+00  0.00000000E+00
  1.66666667E+01  2.00000000E+00  0.00000000E+00
  1.66666667E+01  0.00000000E+00  0.00000000E+00
  2.00000000E+01  1.00000000E+01  0.00000000E+00
  2.00000000E+01  8.00000000E+00  0.00000000E+00
  2.00000000E+01  6.00000000E+00  0.00000000E+00
  2.00000000E+01  4.00000000E+00  0.00000000E+00
  2.00000000E+01  2.00000000E+00  0.00000000E+00
  2.00000000E+01  0.00000000E+00  0.00000000E+00
  2.33333333E+01  1.00000000E+01  0.00000000E+00
  2.33333333E+01  8.00000000E+00  0.00000000E+00
  2.33333333E+01  6.00000000E+00  0.00000000E+00
  2.33333333E+01  4.00000000E+00  0.00000000E+00
  2.33333333E+01  2.00000000E+00  0.00000000E+00
  2.33333333E+01  0.00000000E+00  0.00000000E+00
  2.66666667E+01  1.00000000E+01  0.00000000E+00
  2.66666667E+01  8.00000000E+00  0.00000000E+00
  2.66666667E+01  6.00000000E+00  0.00000000E+00
  2.66666667E+01  4.00000000E+00  0.00000000E+00
  2.66666667E+01  2.00000000E+00  0.00000000E+00
  2.66666667E+01  0.00000000E+00  0.00000000E+00
  3.00000000E+01  1.00000000E+01  0.00000000E+00
  3.00000000E+01  8.00000000E+00  0.00000000E+00
  3.00000000E+01  6.00000000E+00  0.00000000E+00
  3.00000000E+01  4.00000000E+00  0.00000000E+00
  3.00000000E+01  2.00000000E+00  0.00000000E+00
  3.00000000E+01  0.00000000E+00  0.00000000E+00
  3.33333333E+01  1.00000000E+01  0.00000000E+00
  3.33333333E+01  8.00000000E+00  0.00000000E+00
  3.33333333E+01  6.00000000E+00  0.00000000E+00
  3.33333333E+01  4.00000000E+00  0.00000000E+00
  3.33333333E+01  2.00000000E+00  0.00000000E+00
  3.33333333E+01  0.00000000E+00  0.00000000E+00
  3.66666667E+01  1.00000000E+01  0.00000000E+00
  3.66666667E+01  8.00000000E+00  0.00000000E+00
  3.66666667E+01  6.00000000E+00  0.00000000E+00
  3.66666667E+01  4.00000000E+00  0.00000000E+00
  3.66666667E+01  2.00000000E+00  0.00000000E+00
  3.66666667E+01  0.00000000E+00  0.00000000E+00
  4.00000000E+01  1.00000000E+01  0.00000000E+00
  4.00000000E+01  8.00000000E+00  0.00000000E+00
  4.00000000E+01  6.00000000E+00  0.00000000E+00
  4.00000000E+01  4.00000000E+00  0.00000000E+00
  4.00000000E+01  2.00000000E+00  0.00000000E+00
  4.00000000E+01  0.00000000E+00  0.00000000E+00
  4.33333333E+01  1.00000000E+01  0.00000000E+00
  4.33333333E+01  8.00000000E+00  0.00000000E+00
  4.33333333E+01  6.00000000E+00  0.00000000E+00
  4.33333333E+01  4.00000000E+00  0.00000000E+00
  4.33333333E+01  2.00000000E+00  0.00000000E+00
  4.33333333E+01  0.00000000E+00  0.00000000E+00
  4.66666667E+01  1.00000000E+01  0.00000000E+00
  4.66666667E+01  8.00000000E+00  0.00000000E+00
  4.66666667E+01  6.00000000E+00  0.00000000E+00
  4.66666667E+01  4.00000000E+00  0.00000000E+00
  4.66666667E+01  2.00000000E+00  0.00000000E+00
  4.66666667E+01  0.00000000E+00  0.00000000E+00
  5.00000000E+01  1.00000000E+01  0.00000000E+00
  5.00000000E+01  8.00000000E+00  0.00000000E+00
  5.00000000E+01  6.00000000E+00  0.00000000E+00
  5.00000000E+01  4.00000000E+00  0.00000000E+00
  5.00000000E+01  2.00000000E+00  0.00000000E+00
  5.00000000E+01  0.00000000E+00  0.00000000E+00
  5.33333333E+01  1.00000000E+01  0.00000000E+00
  5.33333333E+01  8.00000000E+00  0.00000000E+00
  5.33333333E+01  6.00000000E+00  0.00000000E+00
  5.33333333E+01  4.00000000E+00  0.00000000E+00
  5.33333333E+01  2.00000000E+00  0.00000000E+00
  5.33333333E+01  0.00000000E+00  0.00000000E+00
  5.66666667E+01  1.00000000E+01  0.00000000E+00
  5.66666667E+01  8.00000000E+00  0.00000000E+00
  5.66666667E+01  6.00000000E+00  0.00000000E+00
  5.66666667E+01  4.00000000E+00  0.00000000E+00
  5.66666667E+01  2.00000000E+00  0.00000000E+00
  5.66666667E+01  0.00000000E+00  0.00000000E+00
  6.00000000E+01  1.00000000E+01  0.00000000E+00
  6.00000000E+01  8.00000000E+00  0.00000000E+00
  6.00000000E+01  6.00000000E+00  0.00000000E+00
  6.00000000E+01  4.00000000E+00  0.00000000E+00
  6.00000000E+01  2.00000000E+00  0.00000000E+00
  6.00000000E+01  0.00000000E+00  0.00000000E+00
  6.33333333E+01  1.00000000E+01  0.00000000E+00
  6.33333333E+01  8.00000000E+00  0.00000000E+00
  6.33333333E+01  6.00000000E+00  0.00000000E+00
  6.33333333E+01  4.00000000E+00  0.00000000E+00
  6.33333333E+01  2.00000000E+00  0.00000000E+00
  6.33333333E+01  0.00000000E+00  0.00000000E+00
  6.66666667E+01  1.00000000E+01  0.00000000E+00
  6.66666667E+01  8.00000000E+00  0.00000000E+00
  6.66666667E+01  6.00000000E+00  0.00000000E+00
  6.66666667E+01  4.00000000E+00  0.00000000E+00
  6.66666667E+01  2.00000000E+00  0.00000000E+00
  6.66666667E+01  0.00000000E+00  0.00000000E+00
  7.00000000E+01  1.00000000E+01  0.00000000E+00
  7.00000000E+01  8.00000000E+00  0.00000000E+00
  7.00000000E+01  6.00000000E+00  0.00000000E+00
  7.00000000E+01  4.00000000E+00  0.00000000E+00
  7.00000000E+01  2.00000000E+00  0.00000000E+00
  7.00000000E+01  0.00000000E+00  0.00000000E+00
  7.33333333E+01  1.00000000E+01  0.00000000E+00
  7.33333333E+01  8.00000000E+00  0.00000000E+00
  7.33333333E+01  6.00000000E+00  0.00000000E+00
  7.33333333E+01  4.00000000E+00  0.00000000E+00
  7.33333333E+01  2.00000000E+00  0.00000000E+00
  7.33333333E+01  0.00000000E+00  0.00000000E+00
  7.66666667E+01  1.00000000E+01  0.00000000E+00
  7.66666667E+01  8.00000000E+00  0.00000000E+00
  7.66666667E+01  6.00000000E+00  0.00000000E+00
  7.66666667E+01  4.00000000E+00  0.00000000E+00
  7.66666667E+01  2.00000000E+00  0.00000000E+00
  7.66666667E+01  0.00000000E+00  0.00000000E+00
  8.00000000E+01  1.00000000E+01  0.00000000E+00
  8.00000000E+01  8.00000000E+00  0.00000000E+00
  8.00000000E+01  6.00000000E+00  0.00000000E+00
  8.00000000E+01  4.00000000E+00  0.00000000E+00
  8.00000000E+01  2.00000000E+00  0.00000000E+00
  8.00000000E+01  0.00000000E+00  0.00000000E+00
  8.33333333E+01  1.00000000E+01  0.00000000E+00
  8.33333333E+01  8.00000000E+00  0.00000000E+00
  8.33333333E+01  6.00000000E+00  0.00000000E+00
  8.33333333E+01  4.00000000E+00  0.00000000E+00
  8.33333333E+01  2.00000000E+00  0.00000000E+00
  8.33333333E+01  0.00000000E+00  0.00000000E+00
  8.66666667E+01  1.00000000E+01  0.00000000E+00
  8.66666667E+01  8.00000000E+00  0.00000000E+00
  8.66666667E+01  6.00000000E+00  0.00000000E+00
  8.66666667E+01  4.00000000E+00  0.00000000E+00
  8.66666667E+01  2.00000000E+00  0.00000000E+00
  8.66666667E+01  0.00000000E+00  0.00000000E+00
  9.00000000E+01  1.00000000E+01  0.00000000E+00
  9.00000000E+01  8.00000000E+00  0.00000000E+00
  9.00000000E+01  6.00000000E+00  0.00000000E+00
  9.00000000E+01  4.00000000E+00  0.00000000E+00
  9.00000000E+01  2.00000000E+00  0.00000000E+00
  9.00000000E+01  0.00000000E+00  0.00000000E+00
  9.33333333E+01  1.00000000E+01  0.00000000E+00
  9.33333333E+01  8.00000000E+00  0.00000000E+00
  9.33333333E+01  6.00000000E+00  0.00000000E+00
  9.33333333E+01  4.00000000E+00  0.00000000E+00
  9.33333333E+01  2.00000000E+00  0.00000000E+00
  9.33333333E+01  0.00000000E+00  0.00000000E+00
  9.66666667E+01  1.00000000E+01  0.00000000E+00
  9.66666667E+01  8.00000000E+00  0.00000000E+00
  9.66666667E+01  6.00000000E+00  0.00000000E+00
  9.66666667E+01  4.00000000E+00  0.00000000E+00
  9.66666667E+01  2.00000000E+00  0.00000000E+00
  9.66666667E+01  0.00000000E+00  0.00000000E+00
  1.00000000E+02  1.00000000E+01  0.00000000E+00
  1.00000000E+02  8.00000000E+00  0.00000000E+00
  1.00000000E+02  6.00000000E+00  0.00000000E+00
  1.00000000E+02  4.00000000E+00  0.00000000E+00
  1.00000000E+02  2.00000000E+00  0.00000000E+00
  1.00000000E+02  0.00000000E+00  0.00000000E+00
CELLS       150       750
         4           0           1           7           6
         4           1           2           8           7
         4           2           3           9           8
         4           3           4          10           9
         4           4           5          11          10
         4           6           7          13          12
         4           7           8          14          13
         4           8           9          15          14
         4           9          10          16          15
         4          10          11          17          16
         4          12          13          19          18
         4          13          14          20          19
         4          14          15          21          20
         4          15          16          22          21
         4          16          17          23          22
         4          18          19          25          24
         4          19          20          26          25
         4          20          21          27          26
         4          21          22          28          27
         4          22          23          29          28
         4          24          25          31          30
         4          25          26          32          31
         4          26          27          33          32
         4          27          28          34          33
         4          28          29          35          34
         4          30          31          37          36
         4          31          32          38          37
         4          32          33          39          38
         4          33          34          40          39
         4          34          35          41          40
         4          36          37          43          42
         4          37          38          44          43
         4          38          39          45          44
         4          39          40          46          45
         4          40          41          47          46
         4          42          43          49          48
         4          43          44          50          49
         4          44          45          51          50
         4          45          46          52          51
         4          46          47          53          52
         4          48          49          55          54
         4          49          50          56          55
         4          50          51          57          56
         4          51          52          58          57
         4          52          53          59          58
         4          54          55          61          60
         4          55          56          62          61
         4          56          57          63          62
         4          57          58          64          63
         4          58          59          65          64
         4          60          61          67          66
         4          61          62          68          67
         4          62          63          69          68
         4          63          64          70          69
         4          64          65          71          70
         4          66          67          73          72
         4          67          68          74          73
         4          68          69          75          74
         4          69          70          76          75
         4          70          71          77          76
         4          72          73          79          78
         4          73          74          80          79
         4          74          75          81          80
         4          75          76          82          81
         4          76          77          83          82
         4          78          79          85          84
         4          79          80          86          85
         4          80          81          87          86
         4          81          82          88          87
         4          82          83          89          88
         4          84          85          91          90
         4          85          86          92          91
         4          86          87          93          92
         4          87          88          94          93
         4          88          89          95          94
         4          90          91          97          96
         4          91          92          98          97
         4          92          93          99          98
         4          93          94         100          99
         4          94          95         101         100
         4          96          97         103         102
         4          97          98         104         103
         4          98          99         105         104
         4          99         100         106         105
         4         100         101         107         106
         4         102         103         109         108
         4         103         104         110         109
         4         104         105         111         110
         4         105         106         112         111
         4         106         107         113         112
         4         108         109         115         114
         4         109         110         116         115
         4         110         111         117         116
         4         111         112         118         117
         4         112         113         119         118
         4         114         115         121         120
         4         115         116         122         121
         4         116         117         123         122
         4         117         118         124         123
         4         118         119         125         124
         4         120         121         127         126
         4         121         122         128         127
         4         122         123         129         128
         4         123         124         130         129
         4         124         125         131         130
         4         126         127         133         132
         4         127         128         134         133
         4         128         129         135         134
         4         129         130         136         135
         4         130         131         137         136
         4         132         133         139         138
         4         133         134         140         139
         4         134         135         141         140
         4         135         136         142         141
         4         136         137         143         142
         4         138         139         145         144
         4         139         140         146         145
         4         140         141         147         146
         4         141         142         148         147
         4         142         143         149         148
         4         144         145         151         150
         4         145         146         152         151
         4         146         147         153         152
         4         147         148         154         153
         4         148         149         155         154
         4         150         151         157         156
         4         151         152         158         157
         4         152         153         159         158
         4         153         154         160         159
         4         154         155         161         160
         4         156         157         163         162
         4         157         158         164         163
         4         158         159         165         164
         4         159         160         166         165
         4         160         161         167         166
         4         162         163         169         168
         4         163         164         170         169
         4         164         165         171         170
         4         165         166         172         171
         4         166         167         173         172
         4         168         169         175         174
         4         169         170         176         175
         4         170         171         177         176
         4         171         172         178         177
         4         172         173         179         178
         4         174         175         181         180
         4         175         176         182         181
         4         176         177         183         182
         4         177         178         184         183
         4         178         179         185         184
CELL_TYPES        150
9
9
9
9
9
9
9
9
9
9
9
9
9
9
9
9
9
9
9
9
9
9
9
9
9
9
9
9
9
9
9
9
9
9
9
9
9
9
9
9
9
9
9
9
9
9
9
9
9
9
9
9
9
9
9
9
9
9
9
9
9
9
9
9
9
9
9
9
9
9
9
9
9
9
9
9
9
9
9
9
9
9
9
9
9
9
9
9
9
9
9
9
9
9
9
9
9
9
9
9
9
9
9
9
9
9
9
9
9
9
9
9
9
9
9
9
9
9
9
9
9
9
9
9
9
9
9
9
9
9
9
9
9
9
9
9
9
9
9
9
9
9
9
9
9
9
9
9
9
9
POINT_DATA       186
SCALARS p double 
LOOKUP_TABLE default
   258481.549095111     
   258481.549095111     
   258481.549095111     
   258481.549095111     
   258481.549095111     
   258481.549095111     
   258481.548912937     
   258481.548912937     
   258481.548912937     
   258481.548912937     
   258481.548912937     
   258481.548912937     
   258481.548238448     
   258481.548238448     
   258481.548238448     
   258481.548238448     
   258481.548238448     
   258481.548238448     
   258481.546600635     
   258481.546600636     
   258481.546600636     
   258481.546600635     
   258481.546600635     
   258481.546600636     
   258481.542866928     
   258481.542866928     
   258481.542866928     
   258481.542866928     
   258481.542866928     
   258481.542866928     
   258481.534485794     
   258481.534485794     
   258481.534485794     
   258481.534485794     
   258481.534485795     
   258481.534485795     
   258481.515803473     
   258481.515803473     
   258481.515803473     
   258481.515803473     
   258481.515803473     
   258481.515803473     
   258481.474389781     
   258481.474389781     
   258481.474389781     
   258481.474389781     
   258481.474389781     
   258481.474389781     
   258481.383089844     
   258481.383089844     
   258481.383089844     
   258481.383089844     
   258481.383089844     
   258481.383089844     
   258481.182959202     
   258481.182959202     
   258481.182959202     
   258481.182959202     
   258481.182959202     
   258481.182959202     
   258480.746907831     
   258480.746907831     
   258480.746907831     
   258480.746907831     
   258480.746907831     
   258480.746907831     
   258479.802887507     
   258479.802887507     
   258479.802887507     
   258479.802887507     
   258479.802887507     
   258479.802887507     
   258477.773077725     
   258477.773077725     
   258477.773077725     
   258477.773077724     
   258477.773077725     
   258477.773077725     
   258473.440605068     
   258473.440605068     
   258473.440605068     
   258473.440605068     
   258473.440605068     
   258473.440605068     
   258464.266676348     
   258464.266676348     
   258464.266676348     
   258464.266676348     
   258464.266676348     
   258464.266676348     
   258445.009575075     
   258445.009575075     
   258445.009575075     
   258445.009575075     
   258445.009575075     
   258445.009575075     
   258404.973787003     
   258404.973787003     
   258404.973787003     
   258404.973787003     
   258404.973787003     
   258404.973787003     
   258322.627832644     
   258322.627832644     
   258322.627832644     
   258322.627832644     
   258322.627832644     
   258322.627832644     
   258155.299730402     
   258155.299730402     
   258155.299730402     
   258155.299730402     
   258155.299730402     
   258155.299730402     
   257819.971138562     
   257819.971138562     
   257819.971138562     
   257819.971138562     
   257819.971138562     
   257819.971138562     
   257158.688021426     
   257158.688021426     
   257158.688021426     
   257158.688021425     
   257158.688021425     
   257158.688021425     
   255879.037731287     
   255879.037731287     
   255879.037731287     
   255879.037731287     
   255879.037731287     
   255879.037731287     
   253458.034828602     
   253458.034828602     
   253458.034828602     
   253458.034828602     
   253458.034828602     
   253458.034828602     
   249001.166002336     
   249001.166002336     
   249001.166002336     
   249001.166002336     
   249001.166002336     
   249001.166002336     
   241067.459949778     
   241067.459949778     
   241067.459949778     
   241067.459949778     
   241067.459949778     
   241067.459949778     
   227523.188062605     
   227523.188062605     
   227523.188062605     
   227523.188062605     
   227523.188062605     
   227523.188062604     
   205584.750268546     
   205584.750268546     
   205584.750268546     
   205584.750268546     
   205584.750268546     
   205584.750268546     
   172321.939351824     
   172321.939351823     
   172321.939351823     
   172321.939351823     
   172321.939351823     
   172321.939351823     
   125846.575143710     
   125846.575143710     
   125846.575143710     
   125846.575143710     
   125846.575143710     
   125846.575143710     
   66931.9943153353     
   66931.9943153352     
   66931.9943153353     
   66931.9943153353     
   66931.9943153353     
   66931.9943153354     
  0.000000000000000E+000
  0.000000000000000E+000
  0.000000000000000E+000
  0.000000000000000E+000
  0.000000000000000E+000
  0.000000000000000E+000
VECTORS u double 
    0.00000E+00        -0.31019E-01         0.00000E+00
    0.00000E+00        -0.24815E-01         0.00000E+00
    0.00000E+00        -0.18611E-01         0.00000E+00
    0.00000E+00        -0.12407E-01         0.00000E+00
    0.00000E+00        -0.62037E-02         0.00000E+00
    0.00000E+00         0.00000E+00         0.00000E+00
    0.10339E-01        -0.31019E-01         0.00000E+00
    0.10339E-01        -0.24815E-01         0.00000E+00
    0.10339E-01        -0.18611E-01         0.00000E+00
    0.10339E-01        -0.12407E-01         0.00000E+00
    0.10339E-01        -0.62037E-02         0.00000E+00
    0.10339E-01         0.00000E+00         0.00000E+00
    0.20679E-01        -0.31019E-01         0.00000E+00
    0.20679E-01        -0.24815E-01         0.00000E+00
    0.20679E-01        -0.18611E-01         0.00000E+00
    0.20679E-01        -0.12407E-01         0.00000E+00
    0.20679E-01        -0.62037E-02         0.00000E+00
    0.20679E-01         0.00000E+00         0.00000E+00
    0.31018E-01        -0.31019E-01         0.00000E+00
    0.31018E-01        -0.24815E-01         0.00000E+00
    0.31018E-01        -0.18611E-01         0.00000E+00
    0.31018E-01        -0.12407E-01         0.00000E+00
    0.31018E-01        -0.62037E-02         0.00000E+00
    0.31018E-01         0.00000E+00         0.00000E+00
    0.41357E-01        -0.31019E-01         0.00000E+00
    0.41357E-01        -0.24815E-01         0.00000E+00
    0.41357E-01        -0.18611E-01         0.00000E+00
    0.41357E-01        -0.12407E-01         0.00000E+00
    0.41357E-01        -0.62037E-02         0.00000E+00
    0.41357E-01         0.00000E+00         0.00000E+00
    0.51697E-01        -0.31019E-01         0.00000E+00
    0.51697E-01        -0.24815E-01         0.00000E+00
    0.51697E-01        -0.18611E-01         0.00000E+00
    0.51697E-01        -0.12407E-01         0.00000E+00
    0.51697E-01        -0.62037E-02         0.00000E+00
    0.51697E-01         0.00000E+00         0.00000E+00
    0.62036E-01        -0.31019E-01         0.00000E+00
    0.62036E-01        -0.24815E-01         0.00000E+00
    0.62036E-01        -0.18611E-01         0.00000E+00
    0.62036E-01        -0.12407E-01         0.00000E+00
    0.62036E-01        -0.62037E-02         0.00000E+00
    0.62036E-01         0.00000E+00         0.00000E+00
    0.72375E-01        -0.31019E-01         0.00000E+00
    0.72375E-01        -0.24815E-01         0.00000E+00
    0.72375E-01        -0.18611E-01         0.00000E+00
    0.72375E-01        -0.12407E-01         0.00000E+00
    0.72375E-01        -0.62037E-02         0.00000E+00
    0.72375E-01         0.00000E+00         0.00000E+00
    0.82715E-01        -0.31019E-01         0.00000E+00
    0.82715E-01        -0.24815E-01         0.00000E+00
    0.82715E-01        -0.18611E-01         0.00000E+00
    0.82715E-01        -0.12407E-01         0.00000E+00
    0.82715E-01        -0.62037E-02         0.00000E+00
    0.82715E-01         0.00000E+00         0.00000E+00
    0.93054E-01        -0.31019E-01         0.00000E+00
    0.93054E-01        -0.24815E-01         0.00000E+00
    0.93054E-01        -0.18611E-01         0.00000E+00
    0.93054E-01        -0.12407E-01         0.00000E+00
    0.93054E-01        -0.62037E-02         0.00000E+00
    0.93054E-01         0.00000E+00         0.00000E+00
    0.10339E+00        -0.31019E-01         0.00000E+00
    0.10339E+00        -0.24815E-01         0.00000E+00
    0.10339E+00        -0.18611E-01         0.00000E+00
    0.10339E+00        -0.12407E-01         0.00000E+00
    0.10339E+00        -0.62037E-02         0.00000E+00
    0.10339E+00         0.00000E+00         0.00000E+00
    0.11373E+00        -0.31019E-01         0.00000E+00
    0.11373E+00        -0.24815E-01         0.00000E+00
    0.11373E+00        -0.18611E-01         0.00000E+00
    0.11373E+00        -0.12407E-01         0.00000E+00
    0.11373E+00        -0.62037E-02         0.00000E+00
    0.11373E+00         0.00000E+00         0.00000E+00
    0.12407E+00        -0.31019E-01         0.00000E+00
    0.12407E+00        -0.24815E-01         0.00000E+00
    0.12407E+00        -0.18611E-01         0.00000E+00
    0.12407E+00        -0.12407E-01         0.00000E+00
    0.12407E+00        -0.62037E-02         0.00000E+00
    0.12407E+00         0.00000E+00         0.00000E+00
    0.13441E+00        -0.31019E-01         0.00000E+00
    0.13441E+00        -0.24815E-01         0.00000E+00
    0.13441E+00        -0.18611E-01         0.00000E+00
    0.13441E+00        -0.12407E-01         0.00000E+00
    0.13441E+00        -0.62037E-02         0.00000E+00
    0.13441E+00         0.00000E+00         0.00000E+00
    0.14475E+00        -0.31019E-01         0.00000E+00
    0.14475E+00        -0.24815E-01         0.00000E+00
    0.14475E+00        -0.18611E-01         0.00000E+00
    0.14475E+00        -0.12407E-01         0.00000E+00
    0.14475E+00        -0.62037E-02         0.00000E+00
    0.14475E+00         0.00000E+00         0.00000E+00
    0.15509E+00        -0.31019E-01         0.00000E+00
    0.15509E+00        -0.24815E-01         0.00000E+00
    0.15509E+00        -0.18611E-01         0.00000E+00
    0.15509E+00        -0.12407E-01         0.00000E+00
    0.15509E+00        -0.62037E-02         0.00000E+00
    0.15509E+00         0.00000E+00         0.00000E+00
    0.16543E+00        -0.31019E-01         0.00000E+00
    0.16543E+00        -0.24815E-01         0.00000E+00
    0.16543E+00        -0.18611E-01         0.00000E+00
    0.16543E+00        -0.12407E-01         0.00000E+00
    0.16543E+00        -0.62037E-02         0.00000E+00
    0.16543E+00         0.00000E+00         0.00000E+00
    0.17576E+00        -0.31019E-01         0.00000E+00
    0.17576E+00        -0.24815E-01         0.00000E+00
    0.17576E+00        -0.18611E-01         0.00000E+00
    0.17576E+00        -0.12407E-01         0.00000E+00
    0.17576E+00        -0.62037E-02         0.00000E+00
    0.17576E+00         0.00000E+00         0.00000E+00
    0.18609E+00        -0.31019E-01         0.00000E+00
    0.18609E+00        -0.24815E-01         0.00000E+00
    0.18609E+00        -0.18611E-01         0.00000E+00
    0.18609E+00        -0.12407E-01         0.00000E+00
    0.18609E+00        -0.62037E-02         0.00000E+00
    0.18609E+00         0.00000E+00         0.00000E+00
    0.19642E+00        -0.31019E-01         0.00000E+00
    0.19642E+00        -0.24815E-01         0.00000E+00
    0.19642E+00        -0.18611E-01         0.00000E+00
    0.19642E+00        -0.12407E-01         0.00000E+00
    0.19642E+00        -0.62037E-02         0.00000E+00
    0.19642E+00         0.00000E+00         0.00000E+00
    0.20673E+00        -0.31019E-01         0.00000E+00
    0.20673E+00        -0.24815E-01         0.00000E+00
    0.20673E+00        -0.18611E-01         0.00000E+00
    0.20673E+00        -0.12407E-01         0.00000E+00
    0.20673E+00        -0.62037E-02         0.00000E+00
    0.20673E+00         0.00000E+00         0.00000E+00
    0.21701E+00        -0.31019E-01         0.00000E+00
    0.21701E+00        -0.24815E-01         0.00000E+00
    0.21701E+00        -0.18611E-01         0.00000E+00
    0.21701E+00        -0.12407E-01         0.00000E+00
    0.21701E+00        -0.62037E-02         0.00000E+00
    0.21701E+00         0.00000E+00         0.00000E+00
    0.22723E+00        -0.31019E-01         0.00000E+00
    0.22723E+00        -0.24815E-01         0.00000E+00
    0.22723E+00        -0.18611E-01         0.00000E+00
    0.22723E+00        -0.12407E-01         0.00000E+00
    0.22723E+00        -0.62037E-02         0.00000E+00
    0.22723E+00         0.00000E+00         0.00000E+00
    0.23736E+00        -0.31019E-01         0.00000E+00
    0.23736E+00        -0.24815E-01         0.00000E+00
    0.23736E+00        -0.18611E-01         0.00000E+00
    0.23736E+00        -0.12407E-01         0.00000E+00
    0.23736E+00        -0.62037E-02         0.00000E+00
    0.23736E+00         0.00000E+00         0.00000E+00
    0.24729E+00        -0.31019E-01         0.00000E+00
    0.24729E+00        -0.24815E-01         0.00000E+00
    0.24729E+00        -0.18611E-01         0.00000E+00
    0.24729E+00        -0.12407E-01         0.00000E+00
    0.24729E+00        -0.62037E-02         0.00000E+00
    0.24729E+00         0.00000E+00         0.00000E+00
    0.25691E+00        -0.31019E-01         0.00000E+00
    0.25691E+00        -0.24815E-01         0.00000E+00
    0.25691E+00        -0.18611E-01         0.00000E+00
    0.25691E+00        -0.12407E-01         0.00000E+00
    0.25691E+00        -0.62037E-02         0.00000E+00
    0.25691E+00         0.00000E+00         0.00000E+00
    0.26599E+00        -0.31019E-01         0.00000E+00
    0.26599E+00        -0.24815E-01         0.00000E+00
    0.26599E+00        -0.18611E-01         0.00000E+00
    0.26599E+00        -0.12407E-01         0.00000E+00
    0.26599E+00        -0.62037E-02         0.00000E+00
    0.26599E+00         0.00000E+00         0.00000E+00
    0.27424E+00        -0.31019E-01         0.00000E+00
    0.27424E+00        -0.24815E-01         0.00000E+00
    0.27424E+00        -0.18611E-01         0.00000E+00
    0.27424E+00        -0.12407E-01         0.00000E+00
    0.27424E+00        -0.62037E-02         0.00000E+00
    0.27424E+00         0.00000E+00         0.00000E+00
    0.28130E+00        -0.31019E-01         0.00000E+00
    0.28130E+00        -0.24815E-01         0.00000E+00
    0.28130E+00        -0.18611E-01         0.00000E+00
    0.28130E+00        -0.12407E-01         0.00000E+00
    0.28130E+00        -0.62037E-02         0.00000E+00
    0.28130E+00         0.00000E+00         0.00000E+00
    0.28677E+00        -0.31019E-01         0.00000E+00
    0.28677E+00        -0.24815E-01         0.00000E+00
    0.28677E+00        -0.18611E-01         0.00000E+00
    0.28677E+00        -0.12407E-01         0.00000E+00
    0.28677E+00        -0.62037E-02         0.00000E+00
    0.28677E+00         0.00000E+00         0.00000E+00
    0.29036E+00        -0.31019E-01         0.00000E+00
    0.29036E+00        -0.24815E-01         0.00000E+00
    0.29036E+00        -0.18611E-01         0.00000E+00
    0.29036E+00        -0.12407E-01         0.00000E+00
    0.29036E+00        -0.62037E-02         0.00000E+00
    0.29036E+00         0.00000E+00         0.00000E+00
CELL_DATA        150
VECTORS vDarcy double 
    0.54652E-14         0.27285E-20         0.00000E+00
    0.54652E-14        -0.18190E-20         0.00000E+00
    0.54652E-14        -0.27285E-20         0.00000E+00
    0.54652E-14        -0.10914E-20         0.00000E+00
    0.54652E-14         0.90949E-21         0.00000E+00
    0.20235E-13        -0.14552E-20         0.00000E+00
    0.20235E-13        -0.18190E-21         0.00000E+00
    0.20235E-13         0.72760E-21         0.00000E+00
    0.20235E-13        -0.25466E-20         0.00000E+00
    0.20235E-13         0.90949E-21         0.00000E+00
    0.49134E-13        -0.90949E-21         0.00000E+00
    0.49134E-13        -0.14552E-20         0.00000E+00
    0.49134E-13         0.18190E-21         0.00000E+00
    0.49134E-13        -0.12733E-20         0.00000E+00
    0.49134E-13         0.14552E-20         0.00000E+00
    0.11201E-12        -0.16371E-20         0.00000E+00
    0.11201E-12        -0.34561E-20         0.00000E+00
    0.11201E-12        -0.45475E-21         0.00000E+00
    0.11201E-12         0.43656E-20         0.00000E+00
    0.11201E-12        -0.29104E-20         0.00000E+00
    0.25143E-12        -0.43656E-20         0.00000E+00
    0.25143E-12        -0.40018E-20         0.00000E+00
    0.25143E-12         0.60936E-20         0.00000E+00
    0.25143E-12         0.58208E-20         0.00000E+00
    0.25143E-12        -0.40927E-20         0.00000E+00
    0.56047E-12         0.00000E+00         0.00000E+00
    0.56047E-12         0.29104E-20         0.00000E+00
    0.56047E-12         0.47294E-20         0.00000E+00
    0.56047E-12         0.72760E-21         0.00000E+00
    0.56047E-12        -0.12733E-20         0.00000E+00
    0.12424E-11         0.16371E-20         0.00000E+00
    0.12424E-11         0.74579E-20         0.00000E+00
    0.12424E-11        -0.20009E-20         0.00000E+00
    0.12424E-11        -0.36380E-21         0.00000E+00
    0.12424E-11        -0.90949E-21         0.00000E+00
    0.27390E-11         0.23647E-20         0.00000E+00
    0.27390E-11         0.50932E-20         0.00000E+00
    0.27390E-11        -0.16371E-20         0.00000E+00
    0.27390E-11         0.23647E-20         0.00000E+00
    0.27390E-11         0.36380E-21         0.00000E+00
    0.60039E-11        -0.20009E-20         0.00000E+00
    0.60039E-11         0.18190E-20         0.00000E+00
    0.60039E-11         0.31832E-20         0.00000E+00
    0.60039E-11         0.19099E-20         0.00000E+00
    0.60039E-11        -0.18190E-21         0.00000E+00
    0.13082E-10        -0.23647E-20         0.00000E+00
    0.13082E-10        -0.81855E-21         0.00000E+00
    0.13082E-10         0.37289E-20         0.00000E+00
    0.13082E-10         0.90949E-22         0.00000E+00
    0.13082E-10        -0.12733E-20         0.00000E+00
    0.28321E-10        -0.10914E-20         0.00000E+00
    0.28321E-10        -0.41837E-20         0.00000E+00
    0.28321E-10        -0.18190E-21         0.00000E+00
    0.28321E-10        -0.27285E-20         0.00000E+00
    0.28321E-10        -0.12733E-20         0.00000E+00
    0.60894E-10        -0.41837E-20         0.00000E+00
    0.60894E-10        -0.30923E-20         0.00000E+00
    0.60894E-10        -0.43656E-20         0.00000E+00
    0.60894E-10         0.18190E-21         0.00000E+00
    0.60894E-10         0.21828E-20         0.00000E+00
    0.12997E-09        -0.45475E-20         0.00000E+00
    0.12997E-09        -0.27285E-20         0.00000E+00
    0.12997E-09        -0.36380E-20         0.00000E+00
    0.12997E-09         0.23647E-20         0.00000E+00
    0.12997E-09         0.17280E-20         0.00000E+00
    0.27522E-09        -0.14552E-20         0.00000E+00
    0.27522E-09        -0.40018E-20         0.00000E+00
    0.27522E-09        -0.18190E-20         0.00000E+00
    0.27522E-09        -0.21828E-20         0.00000E+00
    0.27522E-09        -0.27285E-20         0.00000E+00
    0.57771E-09        -0.12733E-20         0.00000E+00
    0.57771E-09         0.18190E-20         0.00000E+00
    0.57771E-09        -0.60936E-20         0.00000E+00
    0.57771E-09        -0.70031E-20         0.00000E+00
    0.57771E-09        -0.32742E-20         0.00000E+00
    0.12011E-08         0.13642E-20         0.00000E+00
    0.12011E-08         0.17280E-20         0.00000E+00
    0.12011E-08        -0.31832E-20         0.00000E+00
    0.12011E-08        -0.68212E-20         0.00000E+00
    0.12011E-08        -0.40018E-20         0.00000E+00
    0.24704E-08         0.20009E-20         0.00000E+00
    0.24704E-08        -0.45475E-20         0.00000E+00
    0.24704E-08        -0.81855E-21         0.00000E+00
    0.24704E-08        -0.38199E-20         0.00000E+00
    0.24704E-08        -0.41837E-20         0.00000E+00
    0.50198E-08        -0.72760E-21         0.00000E+00
    0.50198E-08        -0.72760E-20         0.00000E+00
    0.50198E-08         0.12733E-20         0.00000E+00
    0.50198E-08        -0.18190E-21         0.00000E+00
    0.50198E-08        -0.21828E-20         0.00000E+00
    0.10060E-07         0.72760E-21         0.00000E+00
    0.10060E-07        -0.25466E-20         0.00000E+00
    0.10060E-07        -0.54570E-21         0.00000E+00
    0.10060E-07        -0.22737E-20         0.00000E+00
    0.10060E-07        -0.90949E-21         0.00000E+00
    0.19838E-07        -0.36380E-21         0.00000E+00
    0.19838E-07         0.72760E-21         0.00000E+00
    0.19838E-07        -0.47294E-20         0.00000E+00
    0.19838E-07        -0.60936E-20         0.00000E+00
    0.19838E-07        -0.14552E-20         0.00000E+00
    0.38390E-07        -0.30923E-20         0.00000E+00
    0.38390E-07        -0.10914E-20         0.00000E+00
    0.38390E-07        -0.61846E-20         0.00000E+00
    0.38390E-07        -0.73669E-20         0.00000E+00
    0.38390E-07        -0.20009E-20         0.00000E+00
    0.72630E-07        -0.54570E-21         0.00000E+00
    0.72630E-07        -0.85493E-20         0.00000E+00
    0.72630E-07        -0.71850E-20         0.00000E+00
    0.72630E-07        -0.60027E-20         0.00000E+00
    0.72630E-07        -0.41837E-20         0.00000E+00
    0.13371E-06        -0.18190E-20         0.00000E+00
    0.13371E-06        -0.65484E-20         0.00000E+00
    0.13371E-06        -0.29104E-20         0.00000E+00
    0.13371E-06        -0.56389E-20         0.00000E+00
    0.13371E-06        -0.40018E-20         0.00000E+00
    0.23801E-06         0.12733E-20         0.00000E+00
    0.23801E-06        -0.27285E-20         0.00000E+00
    0.23801E-06        -0.90949E-21         0.00000E+00
    0.23801E-06        -0.67303E-20         0.00000E+00
    0.23801E-06        -0.30923E-20         0.00000E+00
    0.40633E-06         0.90949E-21         0.00000E+00
    0.40633E-06        -0.38199E-20         0.00000E+00
    0.40633E-06        -0.18190E-21         0.00000E+00
    0.40633E-06        -0.83674E-20         0.00000E+00
    0.40633E-06        -0.47294E-20         0.00000E+00
    0.65815E-06         0.36380E-21         0.00000E+00
    0.65815E-06        -0.25466E-20         0.00000E+00
    0.65815E-06        -0.28194E-20         0.00000E+00
    0.65815E-06        -0.83674E-20         0.00000E+00
    0.65815E-06        -0.70031E-20         0.00000E+00
    0.99788E-06         0.37289E-20         0.00000E+00
    0.99788E-06        -0.14552E-20         0.00000E+00
    0.99788E-06        -0.10368E-19         0.00000E+00
    0.99788E-06        -0.15280E-19         0.00000E+00
    0.99788E-06        -0.10277E-19         0.00000E+00
    0.13943E-05        -0.45475E-22         0.00000E+00
    0.13943E-05         0.30923E-20         0.00000E+00
    0.13943E-05        -0.60936E-20         0.00000E+00
    0.13943E-05        -0.14279E-19         0.00000E+00
    0.13943E-05        -0.74579E-20         0.00000E+00
    0.17674E-05        -0.30013E-20         0.00000E+00
    0.17674E-05         0.48203E-20         0.00000E+00
    0.17674E-05        -0.59117E-21         0.00000E+00
    0.17674E-05        -0.23647E-20         0.00000E+00
    0.17674E-05         0.10459E-20         0.00000E+00
    0.20080E-05         0.68212E-20         0.00000E+00
    0.20080E-05        -0.61391E-20         0.00000E+00
    0.20080E-05         0.79581E-20         0.00000E+00
    0.20080E-05        -0.71623E-20         0.00000E+00
    0.20080E-05         0.14097E-20         0.00000E+00
POINT_DATA        186
VECTORS vDarcyNodal double 
    0.54652E-14         0.14552E-20         0.00000E+00
    0.54652E-14         0.00000E+00         0.00000E+00
    0.54652E-14        -0.36380E-20         0.00000E+00
    0.54652E-14        -0.29104E-20         0.00000E+00
    0.54652E-14         0.72760E-21         0.00000E+00
    0.54652E-14         0.14552E-20         0.00000E+00
    0.12850E-13         0.43656E-20         0.00000E+00
    0.12850E-13         0.11581E-20         0.00000E+00
    0.12850E-13        -0.72760E-21         0.00000E+00
    0.12850E-13        -0.11581E-20         0.00000E+00
    0.12850E-13        -0.72760E-21         0.00000E+00
    0.12850E-13         0.14552E-20         0.00000E+00
    0.34685E-13        -0.58208E-20         0.00000E+00
    0.34685E-13        -0.27771E-20         0.00000E+00
    0.34685E-13         0.14552E-20         0.00000E+00
    0.34685E-13        -0.13332E-21         0.00000E+00
    0.34685E-13        -0.72760E-21         0.00000E+00
    0.34685E-13         0.14552E-20         0.00000E+00
    0.80573E-13         0.58208E-20         0.00000E+00
    0.80573E-13         0.14552E-20         0.00000E+00
    0.80573E-13        -0.29104E-20         0.00000E+00
    0.80573E-13        -0.72760E-21         0.00000E+00
    0.80573E-13         0.14552E-20         0.00000E+00
    0.80573E-13         0.14552E-20         0.00000E+00
    0.18172E-12        -0.87311E-20         0.00000E+00
    0.18172E-12        -0.70093E-20         0.00000E+00
    0.18172E-12        -0.72760E-21         0.00000E+00
    0.18172E-12         0.55541E-20         0.00000E+00
    0.18172E-12         0.00000E+00         0.00000E+00
    0.18172E-12        -0.72760E-20         0.00000E+00
    0.40595E-12         0.00000E+00         0.00000E+00
    0.40595E-12        -0.72760E-21         0.00000E+00
    0.40595E-12         0.29104E-20         0.00000E+00
    0.40595E-12         0.59903E-20         0.00000E+00
    0.40595E-12         0.14552E-20         0.00000E+00
    0.40595E-12        -0.17942E-20         0.00000E+00
    0.90144E-12         0.14552E-20         0.00000E+00
    0.90144E-12         0.36380E-20         0.00000E+00
    0.90144E-12         0.43656E-20         0.00000E+00
    0.90144E-12        -0.72760E-21         0.00000E+00
    0.90144E-12        -0.21828E-20         0.00000E+00
    0.90144E-12         0.00000E+00         0.00000E+00
    0.19907E-11         0.29104E-20         0.00000E+00
    0.19907E-11         0.50932E-20         0.00000E+00
    0.19907E-11         0.14552E-20         0.00000E+00
    0.19907E-11        -0.72760E-21         0.00000E+00
    0.19907E-11         0.72760E-21         0.00000E+00
    0.19907E-11        -0.14552E-20         0.00000E+00
    0.43715E-11         0.14552E-20         0.00000E+00
    0.43715E-11         0.23523E-20         0.00000E+00
    0.43715E-11         0.21828E-20         0.00000E+00
    0.43715E-11         0.12857E-20         0.00000E+00
    0.43715E-11         0.21828E-20         0.00000E+00
    0.43715E-11         0.29104E-20         0.00000E+00
    0.95427E-11        -0.61597E-20         0.00000E+00
    0.95427E-11        -0.21828E-20         0.00000E+00
    0.95427E-11         0.29104E-20         0.00000E+00
    0.95427E-11         0.29104E-20         0.00000E+00
    0.95427E-11        -0.55812E-21         0.00000E+00
    0.95427E-11        -0.29104E-20         0.00000E+00
    0.20701E-10         0.00000E+00         0.00000E+00
    0.20701E-10        -0.14552E-20         0.00000E+00
    0.20701E-10         0.00000E+00         0.00000E+00
    0.20701E-10        -0.38867E-21         0.00000E+00
    0.20701E-10        -0.14552E-20         0.00000E+00
    0.20701E-10         0.77734E-21         0.00000E+00
    0.44607E-10        -0.29104E-20         0.00000E+00
    0.44607E-10        -0.36380E-20         0.00000E+00
    0.44607E-10        -0.36380E-20         0.00000E+00
    0.44607E-10        -0.21828E-20         0.00000E+00
    0.44607E-10        -0.14552E-20         0.00000E+00
    0.44607E-10        -0.14552E-20         0.00000E+00
    0.95434E-10        -0.58208E-20         0.00000E+00
    0.95434E-10        -0.36380E-20         0.00000E+00
    0.95434E-10        -0.36380E-20         0.00000E+00
    0.95434E-10        -0.21828E-20         0.00000E+00
    0.95434E-10         0.36380E-20         0.00000E+00
    0.95434E-10         0.58208E-20         0.00000E+00
    0.20260E-09        -0.35874E-20         0.00000E+00
    0.20260E-09        -0.39765E-20         0.00000E+00
    0.20260E-09        -0.29104E-20         0.00000E+00
    0.20260E-09         0.14552E-20         0.00000E+00
    0.20260E-09         0.33851E-21         0.00000E+00
    0.20260E-09        -0.77817E-21         0.00000E+00
    0.42647E-09         0.00000E+00         0.00000E+00
    0.42647E-09        -0.14552E-20         0.00000E+00
    0.42647E-09        -0.29104E-20         0.00000E+00
    0.42647E-09        -0.50932E-20         0.00000E+00
    0.42647E-09        -0.58208E-20         0.00000E+00
    0.42647E-09        -0.43656E-20         0.00000E+00
    0.88939E-09        -0.35842E-20         0.00000E+00
    0.88939E-09         0.14552E-20         0.00000E+00
    0.88939E-09        -0.14552E-20         0.00000E+00
    0.88939E-09        -0.72760E-20         0.00000E+00
    0.88939E-09        -0.40286E-20         0.00000E+00
    0.88939E-09        -0.29104E-20         0.00000E+00
    0.18357E-08         0.58208E-20         0.00000E+00
    0.18357E-08         0.17899E-20         0.00000E+00
    0.18357E-08         0.00000E+00         0.00000E+00
    0.18357E-08        -0.32451E-20         0.00000E+00
    0.18357E-08        -0.65484E-20         0.00000E+00
    0.18357E-08        -0.43656E-20         0.00000E+00
    0.37451E-08        -0.14552E-20         0.00000E+00
    0.37451E-08        -0.50932E-20         0.00000E+00
    0.37451E-08        -0.50932E-20         0.00000E+00
    0.37451E-08        -0.14552E-20         0.00000E+00
    0.37451E-08        -0.29104E-20         0.00000E+00
    0.37451E-08        -0.43656E-20         0.00000E+00
    0.75399E-08        -0.20979E-20         0.00000E+00
    0.75399E-08        -0.29104E-20         0.00000E+00
    0.75399E-08        -0.72760E-21         0.00000E+00
    0.75399E-08         0.14552E-20         0.00000E+00
    0.75399E-08         0.32134E-21         0.00000E+00
    0.75399E-08         0.00000E+00         0.00000E+00
    0.14949E-07         0.29104E-20         0.00000E+00
    0.14949E-07         0.10313E-20         0.00000E+00
    0.14949E-07        -0.26067E-20         0.00000E+00
    0.14949E-07        -0.53969E-20         0.00000E+00
    0.14949E-07        -0.32141E-20         0.00000E+00
    0.14949E-07        -0.29104E-20         0.00000E+00
    0.29114E-07        -0.29104E-20         0.00000E+00
    0.29114E-07        -0.72760E-21         0.00000E+00
    0.29114E-07        -0.14552E-20         0.00000E+00
    0.29114E-07        -0.60091E-20         0.00000E+00
    0.29114E-07        -0.43656E-20         0.00000E+00
    0.29114E-07        -0.10785E-20         0.00000E+00
    0.55510E-07        -0.29104E-20         0.00000E+00
    0.55510E-07        -0.29104E-20         0.00000E+00
    0.55510E-07        -0.55034E-20         0.00000E+00
    0.55510E-07        -0.80036E-20         0.00000E+00
    0.55510E-07        -0.54105E-20         0.00000E+00
    0.55510E-07        -0.29104E-20         0.00000E+00
    0.10317E-06         0.14552E-20         0.00000E+00
    0.10317E-06        -0.58208E-20         0.00000E+00
    0.10317E-06        -0.94587E-20         0.00000E+00
    0.10317E-06        -0.58208E-20         0.00000E+00
    0.10317E-06        -0.50932E-20         0.00000E+00
    0.10317E-06        -0.43656E-20         0.00000E+00
    0.18586E-06        -0.29104E-20         0.00000E+00
    0.18586E-06        -0.14552E-20         0.00000E+00
    0.18586E-06         0.00000E+00         0.00000E+00
    0.18586E-06        -0.29104E-20         0.00000E+00
    0.18586E-06        -0.43656E-20         0.00000E+00
    0.18586E-06        -0.29104E-20         0.00000E+00
    0.32217E-06         0.58208E-20         0.00000E+00
    0.32217E-06         0.00000E+00         0.00000E+00
    0.32217E-06        -0.36380E-20         0.00000E+00
    0.32217E-06        -0.50932E-20         0.00000E+00
    0.32217E-06        -0.50932E-20         0.00000E+00
    0.32217E-06        -0.14552E-20         0.00000E+00
    0.53224E-06        -0.35543E-20         0.00000E+00
    0.53224E-06        -0.32324E-20         0.00000E+00
    0.53224E-06        -0.11332E-20         0.00000E+00
    0.53224E-06        -0.36380E-20         0.00000E+00
    0.53224E-06        -0.87311E-20         0.00000E+00
    0.53224E-06        -0.95424E-20         0.00000E+00
    0.82802E-06         0.56443E-20         0.00000E+00
    0.82802E-06         0.63939E-21         0.00000E+00
    0.82802E-06        -0.50932E-20         0.00000E+00
    0.82802E-06        -0.80036E-20         0.00000E+00
    0.82802E-06        -0.79153E-20         0.00000E+00
    0.82802E-06        -0.63719E-20         0.00000E+00
    0.11961E-05        -0.31618E-21         0.00000E+00
    0.11961E-05         0.56950E-21         0.00000E+00
    0.11961E-05        -0.65484E-20         0.00000E+00
    0.11961E-05        -0.17462E-19         0.00000E+00
    0.11961E-05        -0.16577E-19         0.00000E+00
    0.11961E-05        -0.12781E-19         0.00000E+00
    0.15808E-05        -0.14552E-20         0.00000E+00
    0.15808E-05         0.14552E-20         0.00000E+00
    0.15808E-05         0.25466E-20         0.00000E+00
    0.15808E-05        -0.36380E-20         0.00000E+00
    0.15808E-05        -0.43656E-20         0.00000E+00
    0.15808E-05        -0.72760E-21         0.00000E+00
    0.18877E-05        -0.43656E-20         0.00000E+00
    0.18877E-05         0.72760E-21         0.00000E+00
    0.18877E-05         0.18190E-20         0.00000E+00
    0.18877E-05         0.72760E-21         0.00000E+00
    0.18877E-05         0.32742E-20         0.00000E+00
    0.18877E-05         0.29104E-20         0.00000E+00
    0.20080E-05         0.14267E-19         0.00000E+00
    0.20080E-05         0.30093E-35         0.00000E+00
    0.20080E-05         0.15046E-35         0.00000E+00
    0.20080E-05        -0.15046E-35         0.00000E+00
    0.20080E-05        -0.71337E-20         0.00000E+00
    0.20080E-05         0.00000E+00         0.00000E+00
CELL_DATA        150
TENSORS stressef double 
    0.25848E+06         0.00000E+00         0.00000E+00
    0.00000E+00        -0.25849E+06         0.00000E+00
    0.00000E+00         0.00000E+00        -0.19408E+01
 
    0.25848E+06         0.27105E-10         0.00000E+00
    0.27105E-10        -0.25849E+06         0.00000E+00
    0.00000E+00         0.00000E+00        -0.19408E+01
 
    0.25848E+06        -0.45175E-11         0.00000E+00
   -0.45175E-11        -0.25849E+06         0.00000E+00
    0.00000E+00         0.00000E+00        -0.19408E+01
 
    0.25848E+06        -0.23717E-10         0.00000E+00
   -0.23717E-10        -0.25849E+06         0.00000E+00
    0.00000E+00         0.00000E+00        -0.19408E+01
 
    0.25848E+06        -0.79056E-11         0.00000E+00
   -0.79056E-11        -0.25849E+06         0.00000E+00
    0.00000E+00         0.00000E+00        -0.19408E+01
 
    0.25848E+06        -0.22588E-10         0.00000E+00
   -0.22588E-10        -0.25849E+06         0.00000E+00
    0.00000E+00         0.00000E+00        -0.19409E+01
 
    0.25848E+06        -0.36140E-10         0.00000E+00
   -0.36140E-10        -0.25849E+06         0.00000E+00
    0.00000E+00         0.00000E+00        -0.19409E+01
 
    0.25848E+06         0.22588E-11         0.00000E+00
    0.22588E-11        -0.25849E+06         0.00000E+00
    0.00000E+00         0.00000E+00        -0.19409E+01
 
    0.25848E+06        -0.49693E-10         0.00000E+00
   -0.49693E-10        -0.25849E+06         0.00000E+00
    0.00000E+00         0.00000E+00        -0.19409E+01
 
    0.25848E+06         0.36140E-10         0.00000E+00
    0.36140E-10        -0.25849E+06         0.00000E+00
    0.00000E+00         0.00000E+00        -0.19409E+01
 
    0.25848E+06         0.45175E-10         0.00000E+00
    0.45175E-10        -0.25849E+06         0.00000E+00
    0.00000E+00         0.00000E+00        -0.19412E+01
 
    0.25848E+06         0.36140E-10         0.00000E+00
    0.36140E-10        -0.25849E+06         0.00000E+00
    0.00000E+00         0.00000E+00        -0.19412E+01
 
    0.25848E+06        -0.45175E-11         0.00000E+00
   -0.45175E-11        -0.25849E+06         0.00000E+00
    0.00000E+00         0.00000E+00        -0.19412E+01
 
    0.25848E+06         0.22588E-10         0.00000E+00
    0.22588E-10        -0.25849E+06         0.00000E+00
    0.00000E+00         0.00000E+00        -0.19412E+01
 
    0.25848E+06        -0.67763E-11         0.00000E+00
   -0.67763E-11        -0.25849E+06         0.00000E+00
    0.00000E+00         0.00000E+00        -0.19412E+01
 
    0.25848E+06         0.00000E+00         0.00000E+00
    0.00000E+00        -0.25849E+06         0.00000E+00
    0.00000E+00         0.00000E+00        -0.19418E+01
 
    0.25848E+06         0.18070E-10         0.00000E+00
    0.18070E-10        -0.25849E+06         0.00000E+00
    0.00000E+00         0.00000E+00        -0.19418E+01
 
    0.25848E+06         0.31623E-10         0.00000E+00
    0.31623E-10        -0.25849E+06         0.00000E+00
    0.00000E+00         0.00000E+00        -0.19418E+01
 
    0.25848E+06        -0.90350E-11         0.00000E+00
   -0.90350E-11        -0.25849E+06         0.00000E+00
    0.00000E+00         0.00000E+00        -0.19418E+01
 
    0.25848E+06        -0.10390E-09         0.00000E+00
   -0.10390E-09        -0.25849E+06         0.00000E+00
    0.00000E+00         0.00000E+00        -0.19418E+01
 
    0.25848E+06         0.72280E-10         0.00000E+00
    0.72280E-10        -0.25849E+06         0.00000E+00
    0.00000E+00         0.00000E+00        -0.19434E+01
 
    0.25848E+06         0.90350E-10         0.00000E+00
    0.90350E-10        -0.25849E+06         0.00000E+00
    0.00000E+00         0.00000E+00        -0.19434E+01
 
    0.25848E+06         0.18070E-10         0.00000E+00
    0.18070E-10        -0.25849E+06         0.00000E+00
    0.00000E+00         0.00000E+00        -0.19434E+01
 
    0.25848E+06         0.45175E-11         0.00000E+00
    0.45175E-11        -0.25849E+06         0.00000E+00
    0.00000E+00         0.00000E+00        -0.19434E+01
 
    0.25848E+06         0.63245E-10         0.00000E+00
    0.63245E-10        -0.25849E+06         0.00000E+00
    0.00000E+00         0.00000E+00        -0.19434E+01
 
    0.25848E+06        -0.72280E-10         0.00000E+00
   -0.72280E-10        -0.25849E+06         0.00000E+00
    0.00000E+00         0.00000E+00        -0.19467E+01
 
    0.25848E+06        -0.63245E-10         0.00000E+00
   -0.63245E-10        -0.25849E+06         0.00000E+00
    0.00000E+00         0.00000E+00        -0.19467E+01
 
    0.25848E+06         0.90350E-11         0.00000E+00
    0.90350E-11        -0.25849E+06         0.00000E+00
    0.00000E+00         0.00000E+00        -0.19467E+01
 
    0.25848E+06        -0.94868E-10         0.00000E+00
   -0.94868E-10        -0.25849E+06         0.00000E+00
    0.00000E+00         0.00000E+00        -0.19467E+01
 
    0.25848E+06         0.27105E-10         0.00000E+00
    0.27105E-10        -0.25849E+06         0.00000E+00
    0.00000E+00         0.00000E+00        -0.19467E+01
 
    0.25848E+06         0.15360E-09         0.00000E+00
    0.15360E-09        -0.25849E+06         0.00000E+00
    0.00000E+00         0.00000E+00        -0.19542E+01
 
    0.25848E+06         0.90350E-11         0.00000E+00
    0.90350E-11        -0.25849E+06         0.00000E+00
    0.00000E+00         0.00000E+00        -0.19542E+01
 
    0.25848E+06        -0.45175E-10         0.00000E+00
   -0.45175E-10        -0.25849E+06         0.00000E+00
    0.00000E+00         0.00000E+00        -0.19542E+01
 
    0.25848E+06         0.45175E-10         0.00000E+00
    0.45175E-10        -0.25849E+06         0.00000E+00
    0.00000E+00         0.00000E+00        -0.19542E+01
 
    0.25848E+06        -0.18070E-10         0.00000E+00
   -0.18070E-10        -0.25849E+06         0.00000E+00
    0.00000E+00         0.00000E+00        -0.19542E+01
 
    0.25848E+06         0.10842E-09         0.00000E+00
    0.10842E-09        -0.25849E+06         0.00000E+00
    0.00000E+00         0.00000E+00        -0.19708E+01
 
    0.25848E+06         0.17167E-09         0.00000E+00
    0.17167E-09        -0.25849E+06         0.00000E+00
    0.00000E+00         0.00000E+00        -0.19708E+01
 
    0.25848E+06         0.36140E-10         0.00000E+00
    0.36140E-10        -0.25849E+06         0.00000E+00
    0.00000E+00         0.00000E+00        -0.19708E+01
 
    0.25848E+06        -0.12649E-09         0.00000E+00
   -0.12649E-09        -0.25849E+06         0.00000E+00
    0.00000E+00         0.00000E+00        -0.19708E+01
 
    0.25848E+06         0.45175E-10         0.00000E+00
    0.45175E-10        -0.25849E+06         0.00000E+00
    0.00000E+00         0.00000E+00        -0.19708E+01
 
    0.25848E+06         0.18974E-09         0.00000E+00
    0.18974E-09        -0.25849E+06         0.00000E+00
    0.00000E+00         0.00000E+00        -0.20073E+01
 
    0.25848E+06        -0.72280E-10         0.00000E+00
   -0.72280E-10        -0.25849E+06         0.00000E+00
    0.00000E+00         0.00000E+00        -0.20073E+01
 
    0.25848E+06        -0.36140E-10         0.00000E+00
   -0.36140E-10        -0.25849E+06         0.00000E+00
    0.00000E+00         0.00000E+00        -0.20073E+01
 
    0.25848E+06         0.54210E-10         0.00000E+00
    0.54210E-10        -0.25849E+06         0.00000E+00
    0.00000E+00         0.00000E+00        -0.20073E+01
 
    0.25848E+06        -0.36140E-10         0.00000E+00
   -0.36140E-10        -0.25849E+06         0.00000E+00
    0.00000E+00         0.00000E+00        -0.20073E+01
 
    0.25848E+06         0.12649E-09         0.00000E+00
    0.12649E-09        -0.25849E+06         0.00000E+00
    0.00000E+00         0.00000E+00        -0.20868E+01
 
    0.25848E+06        -0.18070E-10         0.00000E+00
   -0.18070E-10        -0.25849E+06         0.00000E+00
    0.00000E+00         0.00000E+00        -0.20868E+01
 
    0.25848E+06        -0.81315E-10         0.00000E+00
   -0.81315E-10        -0.25849E+06         0.00000E+00
    0.00000E+00         0.00000E+00        -0.20868E+01
 
    0.25848E+06        -0.18070E-10         0.00000E+00
   -0.18070E-10        -0.25849E+06         0.00000E+00
    0.00000E+00         0.00000E+00        -0.20868E+01
 
    0.25848E+06         0.36140E-10         0.00000E+00
    0.36140E-10        -0.25849E+06         0.00000E+00
    0.00000E+00         0.00000E+00        -0.20868E+01
 
    0.25848E+06        -0.45175E-10         0.00000E+00
   -0.45175E-10        -0.25849E+06         0.00000E+00
    0.00000E+00         0.00000E+00        -0.22593E+01
 
    0.25848E+06        -0.90350E-11         0.00000E+00
   -0.90350E-11        -0.25849E+06         0.00000E+00
    0.00000E+00         0.00000E+00        -0.22593E+01
 
    0.25848E+06         0.26202E-09         0.00000E+00
    0.26202E-09        -0.25849E+06         0.00000E+00
    0.00000E+00         0.00000E+00        -0.22593E+01
 
    0.25848E+06        -0.10842E-09         0.00000E+00
   -0.10842E-09        -0.25849E+06         0.00000E+00
    0.00000E+00         0.00000E+00        -0.22593E+01
 
    0.25848E+06        -0.10842E-09         0.00000E+00
   -0.10842E-09        -0.25849E+06         0.00000E+00
    0.00000E+00         0.00000E+00        -0.22593E+01
 
    0.25848E+06         0.18070E-09         0.00000E+00
    0.18070E-09        -0.25849E+06         0.00000E+00
    0.00000E+00         0.00000E+00        -0.26310E+01
 
    0.25848E+06        -0.63245E-10         0.00000E+00
   -0.63245E-10        -0.25849E+06         0.00000E+00
    0.00000E+00         0.00000E+00        -0.26310E+01
 
    0.25848E+06         0.16263E-09         0.00000E+00
    0.16263E-09        -0.25849E+06         0.00000E+00
    0.00000E+00         0.00000E+00        -0.26310E+01
 
    0.25848E+06        -0.14456E-09         0.00000E+00
   -0.14456E-09        -0.25849E+06         0.00000E+00
    0.00000E+00         0.00000E+00        -0.26310E+01
 
    0.25848E+06        -0.54210E-10         0.00000E+00
   -0.54210E-10        -0.25849E+06         0.00000E+00
    0.00000E+00         0.00000E+00        -0.26310E+01
 
    0.25848E+06        -0.17167E-09         0.00000E+00
   -0.17167E-09        -0.25849E+06         0.00000E+00
    0.00000E+00         0.00000E+00        -0.34263E+01
 
    0.25848E+06         0.16263E-09         0.00000E+00
    0.16263E-09        -0.25849E+06         0.00000E+00
    0.00000E+00         0.00000E+00        -0.34263E+01
 
    0.25848E+06         0.36140E-10         0.00000E+00
    0.36140E-10        -0.25849E+06         0.00000E+00
    0.00000E+00         0.00000E+00        -0.34263E+01
 
    0.25848E+06         0.14456E-09         0.00000E+00
    0.14456E-09        -0.25849E+06         0.00000E+00
    0.00000E+00         0.00000E+00        -0.34263E+01
 
    0.25848E+06        -0.90350E-10         0.00000E+00
   -0.90350E-10        -0.25849E+06         0.00000E+00
    0.00000E+00         0.00000E+00        -0.34263E+01
 
    0.25847E+06        -0.28912E-09         0.00000E+00
   -0.28912E-09        -0.25849E+06         0.00000E+00
    0.00000E+00         0.00000E+00        -0.51146E+01
 
    0.25847E+06        -0.54210E-10         0.00000E+00
   -0.54210E-10        -0.25849E+06         0.00000E+00
    0.00000E+00         0.00000E+00        -0.51146E+01
 
    0.25847E+06        -0.23491E-09         0.00000E+00
   -0.23491E-09        -0.25849E+06         0.00000E+00
    0.00000E+00         0.00000E+00        -0.51146E+01
 
    0.25847E+06         0.19877E-09         0.00000E+00
    0.19877E-09        -0.25849E+06         0.00000E+00
    0.00000E+00         0.00000E+00        -0.51146E+01
 
    0.25847E+06        -0.18070E-10         0.00000E+00
   -0.18070E-10        -0.25849E+06         0.00000E+00
    0.00000E+00         0.00000E+00        -0.51146E+01
 
    0.25845E+06        -0.36140E-09         0.00000E+00
   -0.36140E-09        -0.25850E+06         0.00000E+00
    0.00000E+00         0.00000E+00        -0.86685E+01
 
    0.25845E+06         0.21684E-09         0.00000E+00
    0.21684E-09        -0.25850E+06         0.00000E+00
    0.00000E+00         0.00000E+00        -0.86685E+01
 
    0.25845E+06        -0.12649E-09         0.00000E+00
   -0.12649E-09        -0.25850E+06         0.00000E+00
    0.00000E+00         0.00000E+00        -0.86685E+01
 
    0.25845E+06         0.12649E-09         0.00000E+00
    0.12649E-09        -0.25850E+06         0.00000E+00
    0.00000E+00         0.00000E+00        -0.86685E+01
 
    0.25845E+06         0.36140E-10         0.00000E+00
    0.36140E-10        -0.25850E+06         0.00000E+00
    0.00000E+00         0.00000E+00        -0.86685E+01
 
    0.25842E+06         0.72280E-10         0.00000E+00
    0.72280E-10        -0.25851E+06         0.00000E+00
    0.00000E+00         0.00000E+00        -0.16080E+02
 
    0.25842E+06        -0.12649E-09         0.00000E+00
   -0.12649E-09        -0.25851E+06         0.00000E+00
    0.00000E+00         0.00000E+00        -0.16080E+02
 
    0.25842E+06        -0.14456E-09         0.00000E+00
   -0.14456E-09        -0.25851E+06         0.00000E+00
    0.00000E+00         0.00000E+00        -0.16080E+02
 
    0.25842E+06        -0.54210E-10         0.00000E+00
   -0.54210E-10        -0.25851E+06         0.00000E+00
    0.00000E+00         0.00000E+00        -0.16080E+02
 
    0.25842E+06        -0.36140E-10         0.00000E+00
   -0.36140E-10        -0.25851E+06         0.00000E+00
    0.00000E+00         0.00000E+00        -0.16080E+02
 
    0.25836E+06         0.00000E+00         0.00000E+00
    0.00000E+00        -0.25852E+06         0.00000E+00
    0.00000E+00         0.00000E+00        -0.31378E+02
 
    0.25836E+06        -0.72280E-10         0.00000E+00
   -0.72280E-10        -0.25852E+06         0.00000E+00
    0.00000E+00         0.00000E+00        -0.31378E+02
 
    0.25836E+06         0.18070E-09         0.00000E+00
    0.18070E-09        -0.25852E+06         0.00000E+00
    0.00000E+00         0.00000E+00        -0.31378E+02
 
    0.25836E+06        -0.28912E-09         0.00000E+00
   -0.28912E-09        -0.25852E+06         0.00000E+00
    0.00000E+00         0.00000E+00        -0.31378E+02
 
    0.25836E+06         0.36140E-10         0.00000E+00
    0.36140E-10        -0.25852E+06         0.00000E+00
    0.00000E+00         0.00000E+00        -0.31378E+02
 
    0.25824E+06        -0.14456E-09         0.00000E+00
   -0.14456E-09        -0.25855E+06         0.00000E+00
    0.00000E+00         0.00000E+00        -0.62587E+02
 
    0.25824E+06         0.21684E-09         0.00000E+00
    0.21684E-09        -0.25855E+06         0.00000E+00
    0.00000E+00         0.00000E+00        -0.62587E+02
 
    0.25824E+06         0.28912E-09         0.00000E+00
    0.28912E-09        -0.25855E+06         0.00000E+00
    0.00000E+00         0.00000E+00        -0.62587E+02
 
    0.25824E+06        -0.28912E-09         0.00000E+00
   -0.28912E-09        -0.25855E+06         0.00000E+00
    0.00000E+00         0.00000E+00        -0.62587E+02
 
    0.25824E+06         0.36140E-10         0.00000E+00
    0.36140E-10        -0.25855E+06         0.00000E+00
    0.00000E+00         0.00000E+00        -0.62587E+02
 
    0.25799E+06        -0.25298E-09         0.00000E+00
   -0.25298E-09        -0.25861E+06         0.00000E+00
    0.00000E+00         0.00000E+00        -0.12542E+03
 
    0.25799E+06        -0.54210E-10         0.00000E+00
   -0.54210E-10        -0.25861E+06         0.00000E+00
    0.00000E+00         0.00000E+00        -0.12542E+03
 
    0.25799E+06        -0.36140E-10         0.00000E+00
   -0.36140E-10        -0.25861E+06         0.00000E+00
    0.00000E+00         0.00000E+00        -0.12542E+03
 
    0.25799E+06         0.21684E-09         0.00000E+00
    0.21684E-09        -0.25861E+06         0.00000E+00
    0.00000E+00         0.00000E+00        -0.12542E+03
 
    0.25799E+06        -0.25298E-09         0.00000E+00
   -0.25298E-09        -0.25861E+06         0.00000E+00
    0.00000E+00         0.00000E+00        -0.12542E+03
 
    0.25749E+06        -0.36140E-10         0.00000E+00
   -0.36140E-10        -0.25874E+06         0.00000E+00
    0.00000E+00         0.00000E+00        -0.25000E+03
 
    0.25749E+06         0.00000E+00         0.00000E+00
    0.00000E+00        -0.25874E+06         0.00000E+00
    0.00000E+00         0.00000E+00        -0.25000E+03
 
    0.25749E+06         0.14456E-09         0.00000E+00
    0.14456E-09        -0.25874E+06         0.00000E+00
    0.00000E+00         0.00000E+00        -0.25000E+03
 
    0.25749E+06         0.00000E+00         0.00000E+00
    0.00000E+00        -0.25874E+06         0.00000E+00
    0.00000E+00         0.00000E+00        -0.25000E+03
 
    0.25749E+06        -0.36140E-10         0.00000E+00
   -0.36140E-10        -0.25874E+06         0.00000E+00
    0.00000E+00         0.00000E+00        -0.25000E+03
 
    0.25652E+06         0.36140E-10         0.00000E+00
    0.36140E-10        -0.25898E+06         0.00000E+00
    0.00000E+00         0.00000E+00        -0.49261E+03
 
    0.25652E+06        -0.72280E-10         0.00000E+00
   -0.72280E-10        -0.25898E+06         0.00000E+00
    0.00000E+00         0.00000E+00        -0.49261E+03
 
    0.25652E+06        -0.36140E-10         0.00000E+00
   -0.36140E-10        -0.25898E+06         0.00000E+00
    0.00000E+00         0.00000E+00        -0.49261E+03
 
    0.25652E+06        -0.46982E-09         0.00000E+00
   -0.46982E-09        -0.25898E+06         0.00000E+00
    0.00000E+00         0.00000E+00        -0.49261E+03
 
    0.25652E+06        -0.36140E-10         0.00000E+00
   -0.36140E-10        -0.25898E+06         0.00000E+00
    0.00000E+00         0.00000E+00        -0.49261E+03
 
    0.25467E+06         0.36140E-10         0.00000E+00
    0.36140E-10        -0.25944E+06         0.00000E+00
    0.00000E+00         0.00000E+00        -0.95519E+03
 
    0.25467E+06        -0.18070E-09         0.00000E+00
   -0.18070E-09        -0.25944E+06         0.00000E+00
    0.00000E+00         0.00000E+00        -0.95519E+03
 
    0.25467E+06        -0.18070E-09         0.00000E+00
   -0.18070E-09        -0.25944E+06         0.00000E+00
    0.00000E+00         0.00000E+00        -0.95519E+03
 
    0.25467E+06        -0.10842E-09         0.00000E+00
   -0.10842E-09        -0.25944E+06         0.00000E+00
    0.00000E+00         0.00000E+00        -0.95519E+03
 
    0.25467E+06        -0.39754E-09         0.00000E+00
   -0.39754E-09        -0.25944E+06         0.00000E+00
    0.00000E+00         0.00000E+00        -0.95519E+03
 
    0.25123E+06        -0.72280E-10         0.00000E+00
   -0.72280E-10        -0.26030E+06         0.00000E+00
    0.00000E+00         0.00000E+00        -0.18149E+04
 
    0.25123E+06         0.72280E-10         0.00000E+00
    0.72280E-10        -0.26030E+06         0.00000E+00
    0.00000E+00         0.00000E+00        -0.18149E+04
 
    0.25123E+06        -0.28912E-09         0.00000E+00
   -0.28912E-09        -0.26030E+06         0.00000E+00
    0.00000E+00         0.00000E+00        -0.18149E+04
 
    0.25123E+06         0.36140E-09         0.00000E+00
    0.36140E-09        -0.26030E+06         0.00000E+00
    0.00000E+00         0.00000E+00        -0.18149E+04
 
    0.25123E+06        -0.28912E-09         0.00000E+00
   -0.28912E-09        -0.26030E+06         0.00000E+00
    0.00000E+00         0.00000E+00        -0.18149E+04
 
    0.24503E+06         0.00000E+00         0.00000E+00
    0.00000E+00        -0.26185E+06         0.00000E+00
    0.00000E+00         0.00000E+00        -0.33637E+04
 
    0.24503E+06         0.72280E-10         0.00000E+00
    0.72280E-10        -0.26185E+06         0.00000E+00
    0.00000E+00         0.00000E+00        -0.33637E+04
 
    0.24503E+06        -0.32526E-09         0.00000E+00
   -0.32526E-09        -0.26185E+06         0.00000E+00
    0.00000E+00         0.00000E+00        -0.33637E+04
 
    0.24503E+06        -0.10842E-09         0.00000E+00
   -0.10842E-09        -0.26185E+06         0.00000E+00
    0.00000E+00         0.00000E+00        -0.33637E+04
 
    0.24503E+06         0.39754E-09         0.00000E+00
    0.39754E-09        -0.26185E+06         0.00000E+00
    0.00000E+00         0.00000E+00        -0.33637E+04
 
    0.23430E+06        -0.36140E-10         0.00000E+00
   -0.36140E-10        -0.26454E+06         0.00000E+00
    0.00000E+00         0.00000E+00        -0.60485E+04
 
    0.23430E+06         0.18070E-09         0.00000E+00
    0.18070E-09        -0.26454E+06         0.00000E+00
    0.00000E+00         0.00000E+00        -0.60485E+04
 
    0.23430E+06        -0.36140E-09         0.00000E+00
   -0.36140E-09        -0.26454E+06         0.00000E+00
    0.00000E+00         0.00000E+00        -0.60485E+04
 
    0.23430E+06        -0.46982E-09         0.00000E+00
   -0.46982E-09        -0.26454E+06         0.00000E+00
    0.00000E+00         0.00000E+00        -0.60485E+04
 
    0.23430E+06         0.54210E-09         0.00000E+00
    0.54210E-09        -0.26454E+06         0.00000E+00
    0.00000E+00         0.00000E+00        -0.60485E+04
 
    0.21655E+06         0.72280E-10         0.00000E+00
    0.72280E-10        -0.26897E+06         0.00000E+00
    0.00000E+00         0.00000E+00        -0.10484E+05
 
    0.21655E+06         0.72280E-10         0.00000E+00
    0.72280E-10        -0.26897E+06         0.00000E+00
    0.00000E+00         0.00000E+00        -0.10484E+05
 
    0.21655E+06         0.00000E+00         0.00000E+00
    0.00000E+00        -0.26897E+06         0.00000E+00
    0.00000E+00         0.00000E+00        -0.10484E+05
 
    0.21655E+06        -0.68666E-09         0.00000E+00
   -0.68666E-09        -0.26897E+06         0.00000E+00
    0.00000E+00         0.00000E+00        -0.10484E+05
 
    0.21655E+06         0.54210E-09         0.00000E+00
    0.54210E-09        -0.26897E+06         0.00000E+00
    0.00000E+00         0.00000E+00        -0.10484E+05
 
    0.18895E+06         0.46982E-09         0.00000E+00
    0.46982E-09        -0.27587E+06         0.00000E+00
    0.00000E+00         0.00000E+00        -0.17384E+05
 
    0.18895E+06        -0.36140E-10         0.00000E+00
   -0.36140E-10        -0.27587E+06         0.00000E+00
    0.00000E+00         0.00000E+00        -0.17384E+05
 
    0.18895E+06        -0.68666E-09         0.00000E+00
   -0.68666E-09        -0.27587E+06         0.00000E+00
    0.00000E+00         0.00000E+00        -0.17384E+05
 
    0.18895E+06         0.00000E+00         0.00000E+00
    0.00000E+00        -0.27587E+06         0.00000E+00
    0.00000E+00         0.00000E+00        -0.17384E+05
 
    0.18895E+06        -0.10842E-09         0.00000E+00
   -0.10842E-09        -0.27587E+06         0.00000E+00
    0.00000E+00         0.00000E+00        -0.17384E+05
 
    0.14908E+06         0.28912E-09         0.00000E+00
    0.28912E-09        -0.28584E+06         0.00000E+00
    0.00000E+00         0.00000E+00        -0.27351E+05
 
    0.14908E+06        -0.14456E-09         0.00000E+00
   -0.14456E-09        -0.28584E+06         0.00000E+00
    0.00000E+00         0.00000E+00        -0.27351E+05
 
    0.14908E+06        -0.21684E-09         0.00000E+00
   -0.21684E-09        -0.28584E+06         0.00000E+00
    0.00000E+00         0.00000E+00        -0.27351E+05
 
    0.14908E+06         0.50596E-09         0.00000E+00
    0.50596E-09        -0.28584E+06         0.00000E+00
    0.00000E+00         0.00000E+00        -0.27351E+05
 
    0.14908E+06        -0.25298E-09         0.00000E+00
   -0.25298E-09        -0.28584E+06         0.00000E+00
    0.00000E+00         0.00000E+00        -0.27351E+05
 
    0.96389E+05         0.36140E-10         0.00000E+00
    0.36140E-10        -0.29901E+06         0.00000E+00
    0.00000E+00         0.00000E+00        -0.40525E+05
 
    0.96389E+05        -0.18070E-09         0.00000E+00
   -0.18070E-09        -0.29901E+06         0.00000E+00
    0.00000E+00         0.00000E+00        -0.40525E+05
 
    0.96389E+05         0.65052E-09         0.00000E+00
    0.65052E-09        -0.29901E+06         0.00000E+00
    0.00000E+00         0.00000E+00        -0.40525E+05
 
    0.96389E+05         0.10842E-09         0.00000E+00
    0.10842E-09        -0.29901E+06         0.00000E+00
    0.00000E+00         0.00000E+00        -0.40525E+05
 
    0.96389E+05         0.00000E+00         0.00000E+00
    0.00000E+00        -0.29901E+06         0.00000E+00
    0.00000E+00         0.00000E+00        -0.40525E+05
 
    0.33466E+05        -0.32526E-09         0.00000E+00
   -0.32526E-09        -0.31475E+06         0.00000E+00
    0.00000E+00         0.00000E+00        -0.56256E+05
 
    0.33466E+05         0.57824E-09         0.00000E+00
    0.57824E-09        -0.31475E+06         0.00000E+00
    0.00000E+00         0.00000E+00        -0.56256E+05
 
    0.33466E+05         0.36140E-09         0.00000E+00
    0.36140E-09        -0.31475E+06         0.00000E+00
    0.00000E+00         0.00000E+00        -0.56256E+05
 
    0.33466E+05        -0.43368E-09         0.00000E+00
   -0.43368E-09        -0.31475E+06         0.00000E+00
    0.00000E+00         0.00000E+00        -0.56256E+05
 
    0.33466E+05        -0.14456E-09         0.00000E+00
   -0.14456E-09        -0.31475E+06         0.00000E+00
    0.00000E+00         0.00000E+00        -0.56256E+05
 
TENSORS stresstot double 
    0.29104E-10         0.00000E+00         0.00000E+00
    0.00000E+00        -0.51697E+06         0.00000E+00
    0.00000E+00         0.00000E+00        -0.25848E+06
 
   -0.14552E-10         0.27105E-10         0.00000E+00
    0.27105E-10        -0.51697E+06         0.00000E+00
    0.00000E+00         0.00000E+00        -0.25848E+06
 
    0.14552E-10        -0.45175E-11         0.00000E+00
   -0.45175E-11        -0.51697E+06         0.00000E+00
    0.00000E+00         0.00000E+00        -0.25848E+06
 
    0.87311E-10        -0.23717E-10         0.00000E+00
   -0.23717E-10        -0.51697E+06         0.00000E+00
    0.00000E+00         0.00000E+00        -0.25848E+06
 
    0.87311E-10        -0.79056E-11         0.00000E+00
   -0.79056E-11        -0.51697E+06         0.00000E+00
    0.00000E+00         0.00000E+00        -0.25848E+06
 
    0.10914E-09        -0.22588E-10         0.00000E+00
   -0.22588E-10        -0.51697E+06         0.00000E+00
    0.00000E+00         0.00000E+00        -0.25848E+06
 
    0.87311E-10        -0.36140E-10         0.00000E+00
   -0.36140E-10        -0.51697E+06         0.00000E+00
    0.00000E+00         0.00000E+00        -0.25848E+06
 
    0.21828E-10         0.22588E-11         0.00000E+00
    0.22588E-11        -0.51697E+06         0.00000E+00
    0.00000E+00         0.00000E+00        -0.25848E+06
 
    0.50932E-10        -0.49693E-10         0.00000E+00
   -0.49693E-10        -0.51697E+06         0.00000E+00
    0.00000E+00         0.00000E+00        -0.25848E+06
 
    0.87311E-10         0.36140E-10         0.00000E+00
    0.36140E-10        -0.51697E+06         0.00000E+00
    0.00000E+00         0.00000E+00        -0.25848E+06
 
    0.26921E-09         0.45175E-10         0.00000E+00
    0.45175E-10        -0.51697E+06         0.00000E+00
    0.00000E+00         0.00000E+00        -0.25848E+06
 
   -0.43656E-10         0.36140E-10         0.00000E+00
    0.36140E-10        -0.51697E+06         0.00000E+00
    0.00000E+00         0.00000E+00        -0.25848E+06
 
    0.29104E-10        -0.45175E-11         0.00000E+00
   -0.45175E-11        -0.51697E+06         0.00000E+00
    0.00000E+00         0.00000E+00        -0.25848E+06
 
    0.72760E-10         0.22588E-10         0.00000E+00
    0.22588E-10        -0.51697E+06         0.00000E+00
    0.00000E+00         0.00000E+00        -0.25848E+06
 
    0.18190E-09        -0.67763E-11         0.00000E+00
   -0.67763E-11        -0.51697E+06         0.00000E+00
    0.00000E+00         0.00000E+00        -0.25848E+06
 
   -0.15280E-09         0.00000E+00         0.00000E+00
    0.00000E+00        -0.51697E+06         0.00000E+00
    0.00000E+00         0.00000E+00        -0.25848E+06
 
   -0.36380E-10         0.18070E-10         0.00000E+00
    0.18070E-10        -0.51697E+06         0.00000E+00
    0.00000E+00         0.00000E+00        -0.25848E+06
 
    0.21828E-10         0.31623E-10         0.00000E+00
    0.31623E-10        -0.51697E+06         0.00000E+00
    0.00000E+00         0.00000E+00        -0.25848E+06
 
    0.16007E-09        -0.90350E-11         0.00000E+00
   -0.90350E-11        -0.51697E+06         0.00000E+00
    0.00000E+00         0.00000E+00        -0.25848E+06
 
    0.16735E-09        -0.10390E-09         0.00000E+00
   -0.10390E-09        -0.51697E+06         0.00000E+00
    0.00000E+00         0.00000E+00        -0.25848E+06
 
    0.72760E-10         0.72280E-10         0.00000E+00
    0.72280E-10        -0.51697E+06         0.00000E+00
    0.00000E+00         0.00000E+00        -0.25848E+06
 
    0.13097E-09         0.90350E-10         0.00000E+00
    0.90350E-10        -0.51697E+06         0.00000E+00
    0.00000E+00         0.00000E+00        -0.25848E+06
 
    0.24011E-09         0.18070E-10         0.00000E+00
    0.18070E-10        -0.51697E+06         0.00000E+00
    0.00000E+00         0.00000E+00        -0.25848E+06
 
    0.15280E-09         0.45175E-11         0.00000E+00
    0.45175E-11        -0.51697E+06         0.00000E+00
    0.00000E+00         0.00000E+00        -0.25848E+06
 
    0.72760E-11         0.63245E-10         0.00000E+00
    0.63245E-10        -0.51697E+06         0.00000E+00
    0.00000E+00         0.00000E+00        -0.25848E+06
 
    0.25466E-09        -0.72280E-10         0.00000E+00
   -0.72280E-10        -0.51697E+06         0.00000E+00
    0.00000E+00         0.00000E+00        -0.25848E+06
 
    0.28376E-09        -0.63245E-10         0.00000E+00
   -0.63245E-10        -0.51697E+06         0.00000E+00
    0.00000E+00         0.00000E+00        -0.25848E+06
 
    0.72760E-10         0.90350E-11         0.00000E+00
    0.90350E-11        -0.51697E+06         0.00000E+00
    0.00000E+00         0.00000E+00        -0.25848E+06
 
   -0.72760E-10        -0.94868E-10         0.00000E+00
   -0.94868E-10        -0.51697E+06         0.00000E+00
    0.00000E+00         0.00000E+00        -0.25848E+06
 
    0.72760E-10         0.27105E-10         0.00000E+00
    0.27105E-10        -0.51697E+06         0.00000E+00
    0.00000E+00         0.00000E+00        -0.25848E+06
 
   -0.43656E-10         0.15360E-09         0.00000E+00
    0.15360E-09        -0.51697E+06         0.00000E+00
    0.00000E+00         0.00000E+00        -0.25848E+06
 
   -0.42201E-09         0.90350E-11         0.00000E+00
    0.90350E-11        -0.51697E+06         0.00000E+00
    0.00000E+00         0.00000E+00        -0.25848E+06
 
   -0.27649E-09        -0.45175E-10         0.00000E+00
   -0.45175E-10        -0.51697E+06         0.00000E+00
    0.00000E+00         0.00000E+00        -0.25848E+06
 
   -0.20373E-09         0.45175E-10         0.00000E+00
    0.45175E-10        -0.51697E+06         0.00000E+00
    0.00000E+00         0.00000E+00        -0.25848E+06
 
   -0.43656E-09        -0.18070E-10         0.00000E+00
   -0.18070E-10        -0.51697E+06         0.00000E+00
    0.00000E+00         0.00000E+00        -0.25848E+06
 
    0.34925E-09         0.10842E-09         0.00000E+00
    0.10842E-09        -0.51697E+06         0.00000E+00
    0.00000E+00         0.00000E+00        -0.25848E+06
 
    0.11642E-09         0.17167E-09         0.00000E+00
    0.17167E-09        -0.51697E+06         0.00000E+00
    0.00000E+00         0.00000E+00        -0.25848E+06
 
   -0.58208E-10         0.36140E-10         0.00000E+00
    0.36140E-10        -0.51697E+06         0.00000E+00
    0.00000E+00         0.00000E+00        -0.25848E+06
 
   -0.31287E-09        -0.12649E-09         0.00000E+00
   -0.12649E-09        -0.51697E+06         0.00000E+00
    0.00000E+00         0.00000E+00        -0.25848E+06
 
   -0.19645E-09         0.45175E-10         0.00000E+00
    0.45175E-10        -0.51697E+06         0.00000E+00
    0.00000E+00         0.00000E+00        -0.25848E+06
 
    0.87311E-10         0.18974E-09         0.00000E+00
    0.18974E-09        -0.51697E+06         0.00000E+00
    0.00000E+00         0.00000E+00        -0.25848E+06
 
    0.15280E-09        -0.72280E-10         0.00000E+00
   -0.72280E-10        -0.51697E+06         0.00000E+00
    0.00000E+00         0.00000E+00        -0.25848E+06
 
    0.32014E-09        -0.36140E-10         0.00000E+00
   -0.36140E-10        -0.51697E+06         0.00000E+00
    0.00000E+00         0.00000E+00        -0.25848E+06
 
    0.42201E-09         0.54210E-10         0.00000E+00
    0.54210E-10        -0.51697E+06         0.00000E+00
    0.00000E+00         0.00000E+00        -0.25848E+06
 
    0.19645E-09        -0.36140E-10         0.00000E+00
   -0.36140E-10        -0.51697E+06         0.00000E+00
    0.00000E+00         0.00000E+00        -0.25848E+06
 
    0.72760E-11         0.12649E-09         0.00000E+00
    0.12649E-09        -0.51697E+06         0.00000E+00
    0.00000E+00         0.00000E+00        -0.25848E+06
 
    0.72760E-11        -0.18070E-10         0.00000E+00
   -0.18070E-10        -0.51697E+06         0.00000E+00
    0.00000E+00         0.00000E+00        -0.25848E+06
 
   -0.10186E-09        -0.81315E-10         0.00000E+00
   -0.81315E-10        -0.51697E+06         0.00000E+00
    0.00000E+00         0.00000E+00        -0.25848E+06
 
   -0.17462E-09        -0.18070E-10         0.00000E+00
   -0.18070E-10        -0.51697E+06         0.00000E+00
    0.00000E+00         0.00000E+00        -0.25848E+06
 
    0.34197E-09         0.36140E-10         0.00000E+00
    0.36140E-10        -0.51697E+06         0.00000E+00
    0.00000E+00         0.00000E+00        -0.25848E+06
 
   -0.38563E-09        -0.45175E-10         0.00000E+00
   -0.45175E-10        -0.51697E+06         0.00000E+00
    0.00000E+00         0.00000E+00        -0.25848E+06
 
   -0.39290E-09        -0.90350E-11         0.00000E+00
   -0.90350E-11        -0.51697E+06         0.00000E+00
    0.00000E+00         0.00000E+00        -0.25848E+06
 
   -0.30559E-09         0.26202E-09         0.00000E+00
    0.26202E-09        -0.51697E+06         0.00000E+00
    0.00000E+00         0.00000E+00        -0.25848E+06
 
   -0.33469E-09        -0.10842E-09         0.00000E+00
   -0.10842E-09        -0.51697E+06         0.00000E+00
    0.00000E+00         0.00000E+00        -0.25848E+06
 
    0.44383E-09        -0.10842E-09         0.00000E+00
   -0.10842E-09        -0.51697E+06         0.00000E+00
    0.00000E+00         0.00000E+00        -0.25848E+06
 
   -0.66211E-09         0.18070E-09         0.00000E+00
    0.18070E-09        -0.51697E+06         0.00000E+00
    0.00000E+00         0.00000E+00        -0.25848E+06
 
   -0.77853E-09        -0.63245E-10         0.00000E+00
   -0.63245E-10        -0.51697E+06         0.00000E+00
    0.00000E+00         0.00000E+00        -0.25848E+06
 
   -0.11642E-09         0.16263E-09         0.00000E+00
    0.16263E-09        -0.51697E+06         0.00000E+00
    0.00000E+00         0.00000E+00        -0.25848E+06
 
    0.13097E-09        -0.14456E-09         0.00000E+00
   -0.14456E-09        -0.51697E+06         0.00000E+00
    0.00000E+00         0.00000E+00        -0.25848E+06
 
    0.16735E-09        -0.54210E-10         0.00000E+00
   -0.54210E-10        -0.51697E+06         0.00000E+00
    0.00000E+00         0.00000E+00        -0.25848E+06
 
   -0.53114E-09        -0.17167E-09         0.00000E+00
   -0.17167E-09        -0.51697E+06         0.00000E+00
    0.00000E+00         0.00000E+00        -0.25848E+06
 
    0.10186E-08         0.16263E-09         0.00000E+00
    0.16263E-09        -0.51697E+06         0.00000E+00
    0.00000E+00         0.00000E+00        -0.25848E+06
 
    0.68394E-09         0.36140E-10         0.00000E+00
    0.36140E-10        -0.51697E+06         0.00000E+00
    0.00000E+00         0.00000E+00        -0.25848E+06
 
    0.33469E-09         0.14456E-09         0.00000E+00
    0.14456E-09        -0.51697E+06         0.00000E+00
    0.00000E+00         0.00000E+00        -0.25848E+06
 
   -0.93860E-09        -0.90350E-10         0.00000E+00
   -0.90350E-10        -0.51697E+06         0.00000E+00
    0.00000E+00         0.00000E+00        -0.25848E+06
 
    0.56025E-09        -0.28912E-09         0.00000E+00
   -0.28912E-09        -0.51696E+06         0.00000E+00
    0.00000E+00         0.00000E+00        -0.25847E+06
 
   -0.34925E-09        -0.54210E-10         0.00000E+00
   -0.54210E-10        -0.51696E+06         0.00000E+00
    0.00000E+00         0.00000E+00        -0.25847E+06
 
   -0.58935E-09        -0.23491E-09         0.00000E+00
   -0.23491E-09        -0.51696E+06         0.00000E+00
    0.00000E+00         0.00000E+00        -0.25847E+06
 
   -0.94587E-10         0.19877E-09         0.00000E+00
    0.19877E-09        -0.51696E+06         0.00000E+00
    0.00000E+00         0.00000E+00        -0.25847E+06
 
    0.69849E-09        -0.18070E-10         0.00000E+00
   -0.18070E-10        -0.51696E+06         0.00000E+00
    0.00000E+00         0.00000E+00        -0.25847E+06
 
    0.19645E-09        -0.36140E-09         0.00000E+00
   -0.36140E-09        -0.51695E+06         0.00000E+00
    0.00000E+00         0.00000E+00        -0.25846E+06
 
    0.11642E-09         0.21684E-09         0.00000E+00
    0.21684E-09        -0.51695E+06         0.00000E+00
    0.00000E+00         0.00000E+00        -0.25846E+06
 
   -0.15280E-09        -0.12649E-09         0.00000E+00
   -0.12649E-09        -0.51695E+06         0.00000E+00
    0.00000E+00         0.00000E+00        -0.25846E+06
 
   -0.32014E-09         0.12649E-09         0.00000E+00
    0.12649E-09        -0.51695E+06         0.00000E+00
    0.00000E+00         0.00000E+00        -0.25846E+06
 
    0.13824E-09         0.36140E-10         0.00000E+00
    0.36140E-10        -0.51695E+06         0.00000E+00
    0.00000E+00         0.00000E+00        -0.25846E+06
 
   -0.21828E-09         0.72280E-10         0.00000E+00
    0.72280E-10        -0.51693E+06         0.00000E+00
    0.00000E+00         0.00000E+00        -0.25844E+06
 
   -0.49477E-09        -0.12649E-09         0.00000E+00
   -0.12649E-09        -0.51693E+06         0.00000E+00
    0.00000E+00         0.00000E+00        -0.25844E+06
 
   -0.51659E-09        -0.14456E-09         0.00000E+00
   -0.14456E-09        -0.51693E+06         0.00000E+00
    0.00000E+00         0.00000E+00        -0.25844E+06
 
   -0.32742E-09        -0.54210E-10         0.00000E+00
   -0.54210E-10        -0.51693E+06         0.00000E+00
    0.00000E+00         0.00000E+00        -0.25844E+06
 
    0.36380E-09        -0.36140E-10         0.00000E+00
   -0.36140E-10        -0.51693E+06         0.00000E+00
    0.00000E+00         0.00000E+00        -0.25844E+06
 
    0.93860E-09         0.00000E+00         0.00000E+00
    0.00000E+00        -0.51688E+06         0.00000E+00
    0.00000E+00         0.00000E+00        -0.25840E+06
 
    0.16007E-09        -0.72280E-10         0.00000E+00
   -0.72280E-10        -0.51688E+06         0.00000E+00
    0.00000E+00         0.00000E+00        -0.25840E+06
 
    0.16735E-09         0.18070E-09         0.00000E+00
    0.18070E-09        -0.51688E+06         0.00000E+00
    0.00000E+00         0.00000E+00        -0.25840E+06
 
    0.64028E-09        -0.28912E-09         0.00000E+00
   -0.28912E-09        -0.51688E+06         0.00000E+00
    0.00000E+00         0.00000E+00        -0.25840E+06
 
    0.11059E-08         0.36140E-10         0.00000E+00
    0.36140E-10        -0.51688E+06         0.00000E+00
    0.00000E+00         0.00000E+00        -0.25840E+06
 
   -0.80036E-10        -0.14456E-09         0.00000E+00
   -0.14456E-09        -0.51679E+06         0.00000E+00
    0.00000E+00         0.00000E+00        -0.25830E+06
 
   -0.10332E-08         0.21684E-09         0.00000E+00
    0.21684E-09        -0.51679E+06         0.00000E+00
    0.00000E+00         0.00000E+00        -0.25830E+06
 
    0.48749E-09         0.28912E-09         0.00000E+00
    0.28912E-09        -0.51679E+06         0.00000E+00
    0.00000E+00         0.00000E+00        -0.25830E+06
 
   -0.25466E-09        -0.28912E-09         0.00000E+00
   -0.28912E-09        -0.51679E+06         0.00000E+00
    0.00000E+00         0.00000E+00        -0.25830E+06
 
   -0.12369E-09         0.36140E-10         0.00000E+00
    0.36140E-10        -0.51679E+06         0.00000E+00
    0.00000E+00         0.00000E+00        -0.25830E+06
 
    0.19645E-09        -0.25298E-09         0.00000E+00
   -0.25298E-09        -0.51660E+06         0.00000E+00
    0.00000E+00         0.00000E+00        -0.25811E+06
 
   -0.22555E-09        -0.54210E-10         0.00000E+00
   -0.54210E-10        -0.51660E+06         0.00000E+00
    0.00000E+00         0.00000E+00        -0.25811E+06
 
    0.18190E-09        -0.36140E-10         0.00000E+00
   -0.36140E-10        -0.51660E+06         0.00000E+00
    0.00000E+00         0.00000E+00        -0.25811E+06
 
   -0.21828E-09         0.21684E-09         0.00000E+00
    0.21684E-09        -0.51660E+06         0.00000E+00
    0.00000E+00         0.00000E+00        -0.25811E+06
 
   -0.72760E-10        -0.25298E-09         0.00000E+00
   -0.25298E-09        -0.51660E+06         0.00000E+00
    0.00000E+00         0.00000E+00        -0.25811E+06
 
   -0.19645E-09        -0.36140E-10         0.00000E+00
   -0.36140E-10        -0.51623E+06         0.00000E+00
    0.00000E+00         0.00000E+00        -0.25774E+06
 
    0.41473E-09         0.00000E+00         0.00000E+00
    0.00000E+00        -0.51623E+06         0.00000E+00
    0.00000E+00         0.00000E+00        -0.25774E+06
 
   -0.14552E-10         0.14456E-09         0.00000E+00
    0.14456E-09        -0.51623E+06         0.00000E+00
    0.00000E+00         0.00000E+00        -0.25774E+06
 
    0.67666E-09         0.00000E+00         0.00000E+00
    0.00000E+00        -0.51623E+06         0.00000E+00
    0.00000E+00         0.00000E+00        -0.25774E+06
 
    0.37107E-09        -0.36140E-10         0.00000E+00
   -0.36140E-10        -0.51623E+06         0.00000E+00
    0.00000E+00         0.00000E+00        -0.25774E+06
 
   -0.15280E-09         0.36140E-10         0.00000E+00
    0.36140E-10        -0.51550E+06         0.00000E+00
    0.00000E+00         0.00000E+00        -0.25701E+06
 
   -0.51659E-09        -0.72280E-10         0.00000E+00
   -0.72280E-10        -0.51550E+06         0.00000E+00
    0.00000E+00         0.00000E+00        -0.25701E+06
 
   -0.90949E-09        -0.36140E-10         0.00000E+00
   -0.36140E-10        -0.51550E+06         0.00000E+00
    0.00000E+00         0.00000E+00        -0.25701E+06
 
   -0.42201E-09        -0.46982E-09         0.00000E+00
   -0.46982E-09        -0.51550E+06         0.00000E+00
    0.00000E+00         0.00000E+00        -0.25701E+06
 
    0.58208E-10        -0.36140E-10         0.00000E+00
   -0.36140E-10        -0.51550E+06         0.00000E+00
    0.00000E+00         0.00000E+00        -0.25701E+06
 
   -0.61846E-09         0.36140E-10         0.00000E+00
    0.36140E-10        -0.51411E+06         0.00000E+00
    0.00000E+00         0.00000E+00        -0.25562E+06
 
   -0.50932E-09        -0.18070E-09         0.00000E+00
   -0.18070E-09        -0.51411E+06         0.00000E+00
    0.00000E+00         0.00000E+00        -0.25562E+06
 
    0.40018E-09        -0.18070E-09         0.00000E+00
   -0.18070E-09        -0.51411E+06         0.00000E+00
    0.00000E+00         0.00000E+00        -0.25562E+06
 
    0.66939E-09        -0.10842E-09         0.00000E+00
   -0.10842E-09        -0.51411E+06         0.00000E+00
    0.00000E+00         0.00000E+00        -0.25562E+06
 
    0.61846E-09        -0.39754E-09         0.00000E+00
   -0.39754E-09        -0.51411E+06         0.00000E+00
    0.00000E+00         0.00000E+00        -0.25562E+06
 
    0.25466E-09        -0.72280E-10         0.00000E+00
   -0.72280E-10        -0.51153E+06         0.00000E+00
    0.00000E+00         0.00000E+00        -0.25304E+06
 
    0.22555E-09         0.72280E-10         0.00000E+00
    0.72280E-10        -0.51153E+06         0.00000E+00
    0.00000E+00         0.00000E+00        -0.25304E+06
 
    0.58935E-09        -0.28912E-09         0.00000E+00
   -0.28912E-09        -0.51153E+06         0.00000E+00
    0.00000E+00         0.00000E+00        -0.25304E+06
 
    0.59663E-09         0.36140E-09         0.00000E+00
    0.36140E-09        -0.51153E+06         0.00000E+00
    0.00000E+00         0.00000E+00        -0.25304E+06
 
    0.25466E-09        -0.28912E-09         0.00000E+00
   -0.28912E-09        -0.51153E+06         0.00000E+00
    0.00000E+00         0.00000E+00        -0.25304E+06
 
    0.86584E-09         0.00000E+00         0.00000E+00
    0.00000E+00        -0.50689E+06         0.00000E+00
    0.00000E+00         0.00000E+00        -0.24840E+06
 
    0.86584E-09         0.72280E-10         0.00000E+00
    0.72280E-10        -0.50689E+06         0.00000E+00
    0.00000E+00         0.00000E+00        -0.24840E+06
 
   -0.11642E-09        -0.32526E-09         0.00000E+00
   -0.32526E-09        -0.50689E+06         0.00000E+00
    0.00000E+00         0.00000E+00        -0.24840E+06
 
   -0.72760E-10        -0.10842E-09         0.00000E+00
   -0.10842E-09        -0.50689E+06         0.00000E+00
    0.00000E+00         0.00000E+00        -0.24840E+06
 
    0.53842E-09         0.39754E-09         0.00000E+00
    0.39754E-09        -0.50689E+06         0.00000E+00
    0.00000E+00         0.00000E+00        -0.24840E+06
 
   -0.54570E-09        -0.36140E-10         0.00000E+00
   -0.36140E-10        -0.49883E+06         0.00000E+00
    0.00000E+00         0.00000E+00        -0.24034E+06
 
   -0.12369E-09         0.18070E-09         0.00000E+00
    0.18070E-09        -0.49883E+06         0.00000E+00
    0.00000E+00         0.00000E+00        -0.24034E+06
 
   -0.75670E-09        -0.36140E-09         0.00000E+00
   -0.36140E-09        -0.49883E+06         0.00000E+00
    0.00000E+00         0.00000E+00        -0.24034E+06
 
    0.72760E-11        -0.46982E-09         0.00000E+00
   -0.46982E-09        -0.49883E+06         0.00000E+00
    0.00000E+00         0.00000E+00        -0.24034E+06
 
    0.69849E-09         0.54210E-09         0.00000E+00
    0.54210E-09        -0.49883E+06         0.00000E+00
    0.00000E+00         0.00000E+00        -0.24034E+06
 
    0.48749E-09         0.72280E-10         0.00000E+00
    0.72280E-10        -0.48553E+06         0.00000E+00
    0.00000E+00         0.00000E+00        -0.22704E+06
 
    0.10477E-08         0.72280E-10         0.00000E+00
    0.72280E-10        -0.48553E+06         0.00000E+00
    0.00000E+00         0.00000E+00        -0.22704E+06
 
    0.50932E-09         0.00000E+00         0.00000E+00
    0.00000E+00        -0.48553E+06         0.00000E+00
    0.00000E+00         0.00000E+00        -0.22704E+06
 
   -0.96043E-09        -0.68666E-09         0.00000E+00
   -0.68666E-09        -0.48553E+06         0.00000E+00
    0.00000E+00         0.00000E+00        -0.22704E+06
 
   -0.43656E-10         0.54210E-09         0.00000E+00
    0.54210E-09        -0.48553E+06         0.00000E+00
    0.00000E+00         0.00000E+00        -0.22704E+06
 
   -0.62573E-09         0.46982E-09         0.00000E+00
    0.46982E-09        -0.46483E+06         0.00000E+00
    0.00000E+00         0.00000E+00        -0.20634E+06
 
   -0.85129E-09        -0.36140E-10         0.00000E+00
   -0.36140E-10        -0.46483E+06         0.00000E+00
    0.00000E+00         0.00000E+00        -0.20634E+06
 
   -0.13824E-08        -0.68666E-09         0.00000E+00
   -0.68666E-09        -0.46483E+06         0.00000E+00
    0.00000E+00         0.00000E+00        -0.20634E+06
 
    0.72760E-10         0.00000E+00         0.00000E+00
    0.00000E+00        -0.46483E+06         0.00000E+00
    0.00000E+00         0.00000E+00        -0.20634E+06
 
   -0.38563E-09        -0.10842E-09         0.00000E+00
   -0.10842E-09        -0.46483E+06         0.00000E+00
    0.00000E+00         0.00000E+00        -0.20634E+06
 
    0.25466E-09         0.28912E-09         0.00000E+00
    0.28912E-09        -0.43492E+06         0.00000E+00
    0.00000E+00         0.00000E+00        -0.17644E+06
 
    0.36380E-09        -0.14456E-09         0.00000E+00
   -0.14456E-09        -0.43492E+06         0.00000E+00
    0.00000E+00         0.00000E+00        -0.17644E+06
 
    0.61846E-09        -0.21684E-09         0.00000E+00
   -0.21684E-09        -0.43492E+06         0.00000E+00
    0.00000E+00         0.00000E+00        -0.17644E+06
 
    0.17462E-09         0.50596E-09         0.00000E+00
    0.50596E-09        -0.43492E+06         0.00000E+00
    0.00000E+00         0.00000E+00        -0.17644E+06
 
    0.56025E-09        -0.25298E-09         0.00000E+00
   -0.25298E-09        -0.43492E+06         0.00000E+00
    0.00000E+00         0.00000E+00        -0.17644E+06
 
    0.64392E-09         0.36140E-10         0.00000E+00
    0.36140E-10        -0.39540E+06         0.00000E+00
    0.00000E+00         0.00000E+00        -0.13691E+06
 
    0.83310E-09        -0.18070E-09         0.00000E+00
   -0.18070E-09        -0.39540E+06         0.00000E+00
    0.00000E+00         0.00000E+00        -0.13691E+06
 
   -0.74215E-09         0.65052E-09         0.00000E+00
    0.65052E-09        -0.39540E+06         0.00000E+00
    0.00000E+00         0.00000E+00        -0.13691E+06
 
   -0.17062E-08         0.10842E-09         0.00000E+00
    0.10842E-09        -0.39540E+06         0.00000E+00
    0.00000E+00         0.00000E+00        -0.13691E+06
 
   -0.96770E-09         0.00000E+00         0.00000E+00
    0.00000E+00        -0.39540E+06         0.00000E+00
    0.00000E+00         0.00000E+00        -0.13691E+06
 
    0.41746E-09        -0.32526E-09         0.00000E+00
   -0.32526E-09        -0.34821E+06         0.00000E+00
    0.00000E+00         0.00000E+00        -0.89722E+05
 
    0.12724E-08         0.57824E-09         0.00000E+00
    0.57824E-09        -0.34821E+06         0.00000E+00
    0.00000E+00         0.00000E+00        -0.89722E+05
 
    0.66575E-09         0.36140E-09         0.00000E+00
    0.36140E-09        -0.34821E+06         0.00000E+00
    0.00000E+00         0.00000E+00        -0.89722E+05
 
    0.64847E-09        -0.43368E-09         0.00000E+00
   -0.43368E-09        -0.34821E+06         0.00000E+00
    0.00000E+00         0.00000E+00        -0.89722E+05
 
    0.61846E-09        -0.14456E-09         0.00000E+00
   -0.14456E-09        -0.34821E+06         0.00000E+00
    0.00000E+00         0.00000E+00        -0.89722E+05
 
SCALARS stressS double 
LOOKUP_TABLE default
  -258485.430543678     
  -258485.430543679     
  -258485.430543679     
  -258485.430543678     
  -258485.430543678     
  -258485.430329513     
  -258485.430329513     
  -258485.430329513     
  -258485.430329513     
  -258485.430329513     
  -258485.429751437     
  -258485.429751438     
  -258485.429751438     
  -258485.429751438     
  -258485.429751438     
  -258485.428408558     
  -258485.428408558     
  -258485.428408558     
  -258485.428408557     
  -258485.428408557     
  -258485.425379847     
  -258485.425379847     
  -258485.425379847     
  -258485.425379847     
  -258485.425379847     
  -258485.418613983     
  -258485.418613983     
  -258485.418613983     
  -258485.418613984     
  -258485.418613983     
  -258485.403589980     
  -258485.403589980     
  -258485.403589980     
  -258485.403589980     
  -258485.403589980     
  -258485.370411573     
  -258485.370411573     
  -258485.370411573     
  -258485.370411573     
  -258485.370411573     
  -258485.297553928     
  -258485.297553928     
  -258485.297553928     
  -258485.297553928     
  -258485.297553928     
  -258485.138508425     
  -258485.138508425     
  -258485.138508425     
  -258485.138508425     
  -258485.138508425     
  -258484.793490501     
  -258484.793490501     
  -258484.793490501     
  -258484.793490501     
  -258484.793490501     
  -258484.050032975     
  -258484.050032975     
  -258484.050032975     
  -258484.050032974     
  -258484.050032974     
  -258482.459462365     
  -258482.459462364     
  -258482.459462364     
  -258482.459462365     
  -258482.459462365     
  -258479.082862020     
  -258479.082862021     
  -258479.082862021     
  -258479.082862021     
  -258479.082862020     
  -258471.975104522     
  -258471.975104522     
  -258471.975104522     
  -258471.975104522     
  -258471.975104522     
  -258457.151882186     
  -258457.151882186     
  -258457.151882186     
  -258457.151882186     
  -258457.151882186     
  -258426.556446578     
  -258426.556446578     
  -258426.556446578     
  -258426.556446578     
  -258426.556446578     
  -258364.137932428     
  -258364.137932429     
  -258364.137932428     
  -258364.137932428     
  -258364.137932428     
  -258238.473758908     
  -258238.473758908     
  -258238.473758908     
  -258238.473758908     
  -258238.473758908     
  -257989.320831664     
  -257989.320831663     
  -257989.320831664     
  -257989.320831663     
  -257989.320831663     
  -257504.087479845     
  -257504.087479845     
  -257504.087479845     
  -257504.087479845     
  -257504.087479845     
  -256578.924181639     
  -256578.924181639     
  -256578.924181639     
  -256578.924181639     
  -256578.924181638     
  -254859.456249401     
  -254859.456249401     
  -254859.456249401     
  -254859.456249401     
  -254859.456249401     
  -251761.812529695     
  -251761.812529695     
  -251761.812529695     
  -251761.812529695     
  -251761.812529695     
  -246392.318044763     
  -246392.318044763     
  -246392.318044763     
  -246392.318044762     
  -246392.318044762     
  -237521.640624454     
  -237521.640624454     
  -237521.640624454     
  -237521.640624455     
  -237521.640624454     
  -223721.328446760     
  -223721.328446759     
  -223721.328446760     
  -223721.328446759     
  -223721.328446759     
  -203786.784665550     
  -203786.784665550     
  -203786.784665549     
  -203786.784665550     
  -203786.784665550     
  -177439.298406428     
  -177439.298406427     
  -177439.298406428     
  -177439.298406429     
  -177439.298406428     
  -145977.654620500     
  -145977.654620500     
  -145977.654620500     
  -145977.654620500     
  -145977.654620500     
SCALARS 2waySource double 
LOOKUP_TABLE default
  9.573421579451387E-006
  9.573421579452769E-006
  9.573421579450827E-006
  9.573421579451336E-006
  9.573421579452474E-006
  9.573419694351053E-006
  9.573419694352703E-006
  9.573419694353542E-006
  9.573419694352766E-006
  9.573419694352278E-006
  9.573415013774585E-006
  9.573415013775908E-006
  9.573415013776760E-006
  9.573415013775705E-006
  9.573415013775265E-006
  9.573404349773650E-006
  9.573404349771661E-006
  9.573404349771193E-006
  9.573404349771342E-006
  9.573404349771274E-006
  9.573380535894518E-006
  9.573380535890384E-006
  9.573380535892766E-006
  9.573380535893447E-006
  9.573380535893098E-006
  9.573327806378052E-006
  9.573327806378318E-006
  9.573327806379451E-006
  9.573327806379854E-006
  9.573327806378560E-006
  9.573211810751557E-006
  9.573211810751624E-006
  9.573211810753515E-006
  9.573211810751094E-006
  9.573211810751658E-006
  9.572958279376006E-006
  9.572958279379858E-006
  9.572958279382584E-006
  9.572958279379367E-006
  9.572958279380024E-006
  9.572407870770757E-006
  9.572407870770072E-006
  9.572407870770000E-006
  9.572407870769813E-006
  9.572407870773313E-006
  9.571221543512478E-006
  9.571221543512343E-006
  9.571221543512753E-006
  9.571221543514471E-006
  9.571221543514003E-006
  9.568684373357315E-006
  9.568684373355709E-006
  9.568684373357563E-006
  9.568684373357070E-006
  9.568684373354334E-006
  9.563303748739480E-006
  9.563303748735348E-006
  9.563303748734276E-006
  9.563303748733976E-006
  9.563303748732587E-006
  9.551997833014255E-006
  9.551997833008349E-006
  9.551997833009349E-006
  9.551997833007518E-006
  9.551997833015077E-006
  9.528482961306077E-006
  9.528482961305980E-006
  9.528482961305941E-006
  9.528482961306155E-006
  9.528482961298221E-006
  9.480130917866287E-006
  9.480130917863472E-006
  9.480130917868552E-006
  9.480130917867812E-006
  9.480130917861456E-006
  9.381988185806695E-006
  9.381988185808046E-006
  9.381988185807609E-006
  9.381988185813340E-006
  9.381988185811591E-006
  9.185730987402017E-006
  9.185730987404231E-006
  9.185730987405680E-006
  9.185730987404001E-006
  9.185730987401720E-006
  8.800057145445069E-006
  8.800057145445172E-006
  8.800057145442162E-006
  8.800057145443463E-006
  8.800057145445223E-006
  8.057729977958928E-006
  8.057729977959345E-006
  8.057729977965611E-006
  8.057729977967871E-006
  8.057729977967095E-006
  6.664563643355451E-006
  6.664563643355330E-006
  6.664563643351235E-006
  6.664563643350281E-006
  6.664563643350562E-006
  4.130885777934565E-006
  4.130885777936636E-006
  4.130885777937776E-006
  4.130885777932488E-006
  4.130885777938620E-006
 -2.950047007184653E-007
 -2.950047007195881E-007
 -2.950047007249088E-007
 -2.950047007224135E-007
 -2.950047007250281E-007
 -7.623913961943071E-006
 -7.623913961939288E-006
 -7.623913961943574E-006
 -7.623913961942499E-006
 -7.623913961936404E-006
 -1.889254716952595E-005
 -1.889254716952310E-005
 -1.889254716951712E-005
 -1.889254716951419E-005
 -1.889254716952157E-005
 -3.441837441789212E-005
 -3.441837441789168E-005
 -3.441837441789810E-005
 -3.441837441789425E-005
 -3.441837441790130E-005
 -5.227775837183637E-005
 -5.227775837183789E-005
 -5.227775837184135E-005
 -5.227775837183354E-005
 -5.227775837183408E-005
 -6.640726417355338E-005
 -6.640726417354379E-005
 -6.640726417355319E-005
 -6.640726417355619E-005
 -6.640726417355626E-005
 -6.668633691409206E-005
 -6.668633691409744E-005
 -6.668633691409433E-005
 -6.668633691409281E-005
 -6.668633691410785E-005
 -4.459791993405114E-005
 -4.459791993405125E-005
 -4.459791993404820E-005
 -4.459791993405003E-005
 -4.459791993404334E-005
 -2.716818448883364E-006
 -2.716818448886467E-006
 -2.716818448882591E-006
 -2.716818448888852E-006
 -2.716818448883471E-006
SCALARS poroP double 
LOOKUP_TABLE default
  0.000000000000000E+000
  0.000000000000000E+000
  0.000000000000000E+000
  0.000000000000000E+000
  0.000000000000000E+000
  0.000000000000000E+000
  0.000000000000000E+000
  0.000000000000000E+000
  0.000000000000000E+000
  0.000000000000000E+000
  0.000000000000000E+000
  0.000000000000000E+000
  0.000000000000000E+000
  0.000000000000000E+000
  0.000000000000000E+000
  0.000000000000000E+000
  0.000000000000000E+000
  0.000000000000000E+000
  0.000000000000000E+000
  0.000000000000000E+000
  0.000000000000000E+000
  0.000000000000000E+000
  0.000000000000000E+000
  0.000000000000000E+000
  0.000000000000000E+000
  0.000000000000000E+000
  0.000000000000000E+000
  0.000000000000000E+000
  0.000000000000000E+000
  0.000000000000000E+000
  0.000000000000000E+000
  0.000000000000000E+000
  0.000000000000000E+000
  0.000000000000000E+000
  0.000000000000000E+000
  0.000000000000000E+000
  0.000000000000000E+000
  0.000000000000000E+000
  0.000000000000000E+000
  0.000000000000000E+000
  0.000000000000000E+000
  0.000000000000000E+000
  0.000000000000000E+000
  0.000000000000000E+000
  0.000000000000000E+000
  0.000000000000000E+000
  0.000000000000000E+000
  0.000000000000000E+000
  0.000000000000000E+000
  0.000000000000000E+000
  0.000000000000000E+000
  0.000000000000000E+000
  0.000000000000000E+000
  0.000000000000000E+000
  0.000000000000000E+000
  0.000000000000000E+000
  0.000000000000000E+000
  0.000000000000000E+000
  0.000000000000000E+000
  0.000000000000000E+000
  0.000000000000000E+000
  0.000000000000000E+000
  0.000000000000000E+000
  0.000000000000000E+000
  0.000000000000000E+000
  0.000000000000000E+000
  0.000000000000000E+000
  0.000000000000000E+000
  0.000000000000000E+000
  0.000000000000000E+000
  0.000000000000000E+000
  0.000000000000000E+000
  0.000000000000000E+000
  0.000000000000000E+000
  0.000000000000000E+000
  0.000000000000000E+000
  0.000000000000000E+000
  0.000000000000000E+000
  0.000000000000000E+000
  0.000000000000000E+000
  0.000000000000000E+000
  0.000000000000000E+000
  0.000000000000000E+000
  0.000000000000000E+000
  0.000000000000000E+000
  0.000000000000000E+000
  0.000000000000000E+000
  0.000000000000000E+000
  0.000000000000000E+000
  0.000000000000000E+000
  0.000000000000000E+000
  0.000000000000000E+000
  0.000000000000000E+000
  0.000000000000000E+000
  0.000000000000000E+000
  0.000000000000000E+000
  0.000000000000000E+000
  0.000000000000000E+000
  0.000000000000000E+000
  0.000000000000000E+000
  0.000000000000000E+000
  0.000000000000000E+000
  0.000000000000000E+000
  0.000000000000000E+000
  0.000000000000000E+000
  0.000000000000000E+000
  0.000000000000000E+000
  0.000000000000000E+000
  0.000000000000000E+000
  0.000000000000000E+000
  0.000000000000000E+000
  0.000000000000000E+000
  0.000000000000000E+000
  0.000000000000000E+000
  0.000000000000000E+000
  0.000000000000000E+000
  0.000000000000000E+000
  0.000000000000000E+000
  0.000000000000000E+000
  0.000000000000000E+000
  0.000000000000000E+000
  0.000000000000000E+000
  0.000000000000000E+000
  0.000000000000000E+000
  0.000000000000000E+000
  0.000000000000000E+000
  0.000000000000000E+000
  0.000000000000000E+000
  0.000000000000000E+000
  0.000000000000000E+000
  0.000000000000000E+000
  0.000000000000000E+000
  0.000000000000000E+000
  0.000000000000000E+000
  0.000000000000000E+000
  0.000000000000000E+000
  0.000000000000000E+000
  0.000000000000000E+000
  0.000000000000000E+000
  0.000000000000000E+000
  0.000000000000000E+000
  0.000000000000000E+000
  0.000000000000000E+000
  0.000000000000000E+000
  0.000000000000000E+000
  0.000000000000000E+000
  0.000000000000000E+000
  0.000000000000000E+000
  0.000000000000000E+000
  0.000000000000000E+000
SCALARS elementIsPlast double 
LOOKUP_TABLE default
  0.000000000000000E+000
  0.000000000000000E+000
  0.000000000000000E+000
  0.000000000000000E+000
  0.000000000000000E+000
  0.000000000000000E+000
  0.000000000000000E+000
  0.000000000000000E+000
  0.000000000000000E+000
  0.000000000000000E+000
  0.000000000000000E+000
  0.000000000000000E+000
  0.000000000000000E+000
  0.000000000000000E+000
  0.000000000000000E+000
  0.000000000000000E+000
  0.000000000000000E+000
  0.000000000000000E+000
  0.000000000000000E+000
  0.000000000000000E+000
  0.000000000000000E+000
  0.000000000000000E+000
  0.000000000000000E+000
  0.000000000000000E+000
  0.000000000000000E+000
  0.000000000000000E+000
  0.000000000000000E+000
  0.000000000000000E+000
  0.000000000000000E+000
  0.000000000000000E+000
  0.000000000000000E+000
  0.000000000000000E+000
  0.000000000000000E+000
  0.000000000000000E+000
  0.000000000000000E+000
  0.000000000000000E+000
  0.000000000000000E+000
  0.000000000000000E+000
  0.000000000000000E+000
  0.000000000000000E+000
  0.000000000000000E+000
  0.000000000000000E+000
  0.000000000000000E+000
  0.000000000000000E+000
  0.000000000000000E+000
  0.000000000000000E+000
  0.000000000000000E+000
  0.000000000000000E+000
  0.000000000000000E+000
  0.000000000000000E+000
  0.000000000000000E+000
  0.000000000000000E+000
  0.000000000000000E+000
  0.000000000000000E+000
  0.000000000000000E+000
  0.000000000000000E+000
  0.000000000000000E+000
  0.000000000000000E+000
  0.000000000000000E+000
  0.000000000000000E+000
  0.000000000000000E+000
  0.000000000000000E+000
  0.000000000000000E+000
  0.000000000000000E+000
  0.000000000000000E+000
  0.000000000000000E+000
  0.000000000000000E+000
  0.000000000000000E+000
  0.000000000000000E+000
  0.000000000000000E+000
  0.000000000000000E+000
  0.000000000000000E+000
  0.000000000000000E+000
  0.000000000000000E+000
  0.000000000000000E+000
  0.000000000000000E+000
  0.000000000000000E+000
  0.000000000000000E+000
  0.000000000000000E+000
  0.000000000000000E+000
  0.000000000000000E+000
  0.000000000000000E+000
  0.000000000000000E+000
  0.000000000000000E+000
  0.000000000000000E+000
  0.000000000000000E+000
  0.000000000000000E+000
  0.000000000000000E+000
  0.000000000000000E+000
  0.000000000000000E+000
  0.000000000000000E+000
  0.000000000000000E+000
  0.000000000000000E+000
  0.000000000000000E+000
  0.000000000000000E+000
  0.000000000000000E+000
  0.000000000000000E+000
  0.000000000000000E+000
  0.000000000000000E+000
  0.000000000000000E+000
  0.000000000000000E+000
  0.000000000000000E+000
  0.000000000000000E+000
  0.000000000000000E+000
  0.000000000000000E+000
  0.000000000000000E+000
  0.000000000000000E+000
  0.000000000000000E+000
  0.000000000000000E+000
  0.000000000000000E+000
  0.000000000000000E+000
  0.000000000000000E+000
  0.000000000000000E+000
  0.000000000000000E+000
  0.000000000000000E+000
  0.000000000000000E+000
  0.000000000000000E+000
  0.000000000000000E+000
  0.000000000000000E+000
  0.000000000000000E+000
  0.000000000000000E+000
  0.000000000000000E+000
  0.000000000000000E+000
  0.000000000000000E+000
  0.000000000000000E+000
  0.000000000000000E+000
  0.000000000000000E+000
  0.000000000000000E+000
  0.000000000000000E+000
  0.000000000000000E+000
  0.000000000000000E+000
  0.000000000000000E+000
  0.000000000000000E+000
  0.000000000000000E+000
  0.000000000000000E+000
  0.000000000000000E+000
  0.000000000000000E+000
  0.000000000000000E+000
  0.000000000000000E+000
  0.000000000000000E+000
  0.000000000000000E+000
  0.000000000000000E+000
  0.000000000000000E+000
  0.000000000000000E+000
  0.000000000000000E+000
  0.000000000000000E+000
  0.000000000000000E+000
  0.000000000000000E+000
  0.000000000000000E+000
  0.000000000000000E+000
SCALARS poroL double 
LOOKUP_TABLE default
  0.199999930132286     
  0.199999930132286     
  0.199999930132286     
  0.199999930132286     
  0.199999930132286     
  0.199999930128431     
  0.199999930128431     
  0.199999930128431     
  0.199999930128431     
  0.199999930128431     
  0.199999930118026     
  0.199999930118026     
  0.199999930118026     
  0.199999930118026     
  0.199999930118026     
  0.199999930093854     
  0.199999930093854     
  0.199999930093854     
  0.199999930093854     
  0.199999930093854     
  0.199999930039337     
  0.199999930039337     
  0.199999930039337     
  0.199999930039337     
  0.199999930039337     
  0.199999929917552     
  0.199999929917552     
  0.199999929917552     
  0.199999929917552     
  0.199999929917552     
  0.199999929647120     
  0.199999929647120     
  0.199999929647120     
  0.199999929647120     
  0.199999929647120     
  0.199999929049908     
  0.199999929049908     
  0.199999929049908     
  0.199999929049908     
  0.199999929049908     
  0.199999927738471     
  0.199999927738471     
  0.199999927738471     
  0.199999927738471     
  0.199999927738471     
  0.199999924875652     
  0.199999924875652     
  0.199999924875652     
  0.199999924875652     
  0.199999924875652     
  0.199999918665329     
  0.199999918665329     
  0.199999918665329     
  0.199999918665329     
  0.199999918665329     
  0.199999905283094     
  0.199999905283094     
  0.199999905283094     
  0.199999905283094     
  0.199999905283094     
  0.199999876652823     
  0.199999876652823     
  0.199999876652823     
  0.199999876652823     
  0.199999876652823     
  0.199999815874016     
  0.199999815874016     
  0.199999815874016     
  0.199999815874016     
  0.199999815874016     
  0.199999687934381     
  0.199999687934381     
  0.199999687934381     
  0.199999687934381     
  0.199999687934381     
  0.199999421116379     
  0.199999421116379     
  0.199999421116379     
  0.199999421116379     
  0.199999421116379     
  0.199998870398538     
  0.199998870398538     
  0.199998870398538     
  0.199998870398538     
  0.199998870398538     
  0.199997746865284     
  0.199997746865284     
  0.199997746865284     
  0.199997746865284     
  0.199997746865284     
  0.199995484910160     
  0.199995484910160     
  0.199995484910160     
  0.199995484910160     
  0.199995484910160     
  0.199991000157470     
  0.199991000157470     
  0.199991000157470     
  0.199991000157470     
  0.199991000157470     
  0.199982265957137     
  0.199982265957137     
  0.199982265957137     
  0.199982265957137     
  0.199982265957137     
  0.199965613017770     
  0.199965613017770     
  0.199965613017770     
  0.199965613017770     
  0.199965613017770     
  0.199934662594989     
  0.199934662594989     
  0.199934662594989     
  0.199934662594989     
  0.199934662594989     
  0.199878905008035     
  0.199878905008035     
  0.199878905008035     
  0.199878905008035     
  0.199878905008035     
  0.199782254107306     
  0.199782254107306     
  0.199782254107306     
  0.199782254107306     
  0.199782254107306     
  0.199622581913740     
  0.199622581913740     
  0.199622581913740     
  0.199622581913740     
  0.199622581913740     
  0.199374176294542     
  0.199374176294542     
  0.199374176294542     
  0.199374176294542     
  0.199374176294542     
  0.199015354506480     
  0.199015354506480     
  0.199015354506480     
  0.199015354506480     
  0.199015354506480     
  0.198541099753816     
  0.198541099753816     
  0.198541099753816     
  0.198541099753816     
  0.198541099753816     
  0.197974790165669     
  0.197974790165669     
  0.197974790165669     
  0.197974790165669     
  0.197974790165669     
POINT_DATA        186
SCALARS solMandel double 
LOOKUP_TABLE default
   258488.658594726     
   258488.658594726     
   258488.658594726     
   258488.658594726     
   258488.658594726     
   258488.658594726     
   258488.681026269     
   258488.681026269     
   258488.681026269     
   258488.681026269     
   258488.681026269     
   258488.681026269     
   258488.750415448     
   258488.750415448     
   258488.750415448     
   258488.750415448     
   258488.750415448     
   258488.750415448     
   258488.867844914     
   258488.867844914     
   258488.867844914     
   258488.867844914     
   258488.867844914     
   258488.867844914     
   258489.022585356     
   258489.022585356     
   258489.022585356     
   258489.022585356     
   258489.022585356     
   258489.022585356     
   258489.186225646     
   258489.186225646     
   258489.186225646     
   258489.186225646     
   258489.186225646     
   258489.186225646     
   258489.319279337     
   258489.319279337     
   258489.319279337     
   258489.319279337     
   258489.319279337     
   258489.319279337     
   258489.388122965     
   258489.388122965     
   258489.388122965     
   258489.388122965     
   258489.388122965     
   258489.388122965     
   258489.381440856     
   258489.381440856     
   258489.381440856     
   258489.381440856     
   258489.381440856     
   258489.381440856     
   258489.315000907     
   258489.315000907     
   258489.315000907     
   258489.315000907     
   258489.315000907     
   258489.315000907     
   258489.221932162     
   258489.221932162     
   258489.221932162     
   258489.221932162     
   258489.221932162     
   258489.221932162     
   258489.135172763     
   258489.135172763     
   258489.135172763     
   258489.135172763     
   258489.135172763     
   258489.135172763     
   258489.069434965     
   258489.069434965     
   258489.069434965     
   258489.069434965     
   258489.069434965     
   258489.069434965     
   258488.993477852     
   258488.993477852     
   258488.993477852     
   258488.993477852     
   258488.993477852     
   258488.993477852     
   258488.732287350     
   258488.732287350     
   258488.732287350     
   258488.732287350     
   258488.732287350     
   258488.732287350     
   258487.589479629     
   258487.589479629     
   258487.589479629     
   258487.589479629     
   258487.589479629     
   258487.589479629     
   258483.053115556     
   258483.053115556     
   258483.053115556     
   258483.053115556     
   258483.053115556     
   258483.053115556     
   258466.860132114     
   258466.860132114     
   258466.860132114     
   258466.860132114     
   258466.860132114     
   258466.860132114     
   258414.357509159     
   258414.357509159     
   258414.357509159     
   258414.357509159     
   258414.357509159     
   258414.357509159     
   258259.081122212     
   258259.081122212     
   258259.081122212     
   258259.081122212     
   258259.081122212     
   258259.081122212     
   257839.636127508     
   257839.636127508     
   257839.636127508     
   257839.636127508     
   257839.636127508     
   257839.636127508     
   256804.356475701     
   256804.356475701     
   256804.356475701     
   256804.356475701     
   256804.356475701     
   256804.356475701     
   254469.221815943     
   254469.221815943     
   254469.221815943     
   254469.221815943     
   254469.221815943     
   254469.221815943     
   249655.576461681     
   249655.576461681     
   249655.576461681     
   249655.576461681     
   249655.576461681     
   249655.576461681     
   240586.096210881     
   240586.096210881     
   240586.096210881     
   240586.096210881     
   240586.096210881     
   240586.096210881     
   224965.922427694     
   224965.922427694     
   224965.922427694     
   224965.922427694     
   224965.922427694     
   224965.922427694     
   200370.642570257     
   200370.642570257     
   200370.642570257     
   200370.642570257     
   200370.642570257     
   200370.642570257     
   164956.510430379     
   164956.510430379     
   164956.510430379     
   164956.510430379     
   164956.510430379     
   164956.510430379     
   118311.649961210     
   118311.649961210     
   118311.649961210     
   118311.649961210     
   118311.649961210     
   118311.649961210     
   62083.5036542895     
   62083.5036542895     
   62083.5036542895     
   62083.5036542895     
   62083.5036542895     
   62083.5036542895     
  4.385057596250373E-010
  3.133215264560272E-010
  4.385057596250373E-010
  3.133215264560272E-010
  4.385057596250373E-010
  4.385057596250373E-010
