# vtk DataFile Version 3.0
vtk output
ASCII
DATASET UNSTRUCTURED_GRID
POINTS       496 double 
  0.00000000E+00  3.00000000E+02  0.00000000E+00
  0.00000000E+00  2.80000000E+02  0.00000000E+00
  0.00000000E+00  2.60000000E+02  0.00000000E+00
  0.00000000E+00  2.40000000E+02  0.00000000E+00
  0.00000000E+00  2.20000000E+02  0.00000000E+00
  0.00000000E+00  2.00000000E+02  0.00000000E+00
  0.00000000E+00  1.80000000E+02  0.00000000E+00
  0.00000000E+00  1.60000000E+02  0.00000000E+00
  0.00000000E+00  1.40000000E+02  0.00000000E+00
  0.00000000E+00  1.20000000E+02  0.00000000E+00
  0.00000000E+00  1.00000000E+02  0.00000000E+00
  0.00000000E+00  8.00000000E+01  0.00000000E+00
  0.00000000E+00  6.00000000E+01  0.00000000E+00
  0.00000000E+00  4.00000000E+01  0.00000000E+00
  0.00000000E+00  2.00000000E+01  0.00000000E+00
  0.00000000E+00  4.99600361E-14  0.00000000E+00
  2.00000000E+01  3.00000000E+02  0.00000000E+00
  2.00000000E+01  2.80000000E+02  0.00000000E+00
  2.00000000E+01  2.60000000E+02  0.00000000E+00
  2.00000000E+01  2.40000000E+02  0.00000000E+00
  2.00000000E+01  2.20000000E+02  0.00000000E+00
  2.00000000E+01  2.00000000E+02  0.00000000E+00
  2.00000000E+01  1.80000000E+02  0.00000000E+00
  2.00000000E+01  1.60000000E+02  0.00000000E+00
  2.00000000E+01  1.40000000E+02  0.00000000E+00
  2.00000000E+01  1.20000000E+02  0.00000000E+00
  2.00000000E+01  1.00000000E+02  0.00000000E+00
  2.00000000E+01  8.00000000E+01  0.00000000E+00
  2.00000000E+01  6.00000000E+01  0.00000000E+00
  2.00000000E+01  4.00000000E+01  0.00000000E+00
  2.00000000E+01  2.00000000E+01  0.00000000E+00
  2.00000000E+01  4.99600361E-14  0.00000000E+00
  4.00000000E+01  3.00000000E+02  0.00000000E+00
  4.00000000E+01  2.80000000E+02  0.00000000E+00
  4.00000000E+01  2.60000000E+02  0.00000000E+00
  4.00000000E+01  2.40000000E+02  0.00000000E+00
  4.00000000E+01  2.20000000E+02  0.00000000E+00
  4.00000000E+01  2.00000000E+02  0.00000000E+00
  4.00000000E+01  1.80000000E+02  0.00000000E+00
  4.00000000E+01  1.60000000E+02  0.00000000E+00
  4.00000000E+01  1.40000000E+02  0.00000000E+00
  4.00000000E+01  1.20000000E+02  0.00000000E+00
  4.00000000E+01  1.00000000E+02  0.00000000E+00
  4.00000000E+01  8.00000000E+01  0.00000000E+00
  4.00000000E+01  6.00000000E+01  0.00000000E+00
  4.00000000E+01  4.00000000E+01  0.00000000E+00
  4.00000000E+01  2.00000000E+01  0.00000000E+00
  4.00000000E+01  4.99600361E-14  0.00000000E+00
  6.00000000E+01  3.00000000E+02  0.00000000E+00
  6.00000000E+01  2.80000000E+02  0.00000000E+00
  6.00000000E+01  2.60000000E+02  0.00000000E+00
  6.00000000E+01  2.40000000E+02  0.00000000E+00
  6.00000000E+01  2.20000000E+02  0.00000000E+00
  6.00000000E+01  2.00000000E+02  0.00000000E+00
  6.00000000E+01  1.80000000E+02  0.00000000E+00
  6.00000000E+01  1.60000000E+02  0.00000000E+00
  6.00000000E+01  1.40000000E+02  0.00000000E+00
  6.00000000E+01  1.20000000E+02  0.00000000E+00
  6.00000000E+01  1.00000000E+02  0.00000000E+00
  6.00000000E+01  8.00000000E+01  0.00000000E+00
  6.00000000E+01  6.00000000E+01  0.00000000E+00
  6.00000000E+01  4.00000000E+01  0.00000000E+00
  6.00000000E+01  2.00000000E+01  0.00000000E+00
  6.00000000E+01  4.99600361E-14  0.00000000E+00
  8.00000000E+01  3.00000000E+02  0.00000000E+00
  8.00000000E+01  2.80000000E+02  0.00000000E+00
  8.00000000E+01  2.60000000E+02  0.00000000E+00
  8.00000000E+01  2.40000000E+02  0.00000000E+00
  8.00000000E+01  2.20000000E+02  0.00000000E+00
  8.00000000E+01  2.00000000E+02  0.00000000E+00
  8.00000000E+01  1.80000000E+02  0.00000000E+00
  8.00000000E+01  1.60000000E+02  0.00000000E+00
  8.00000000E+01  1.40000000E+02  0.00000000E+00
  8.00000000E+01  1.20000000E+02  0.00000000E+00
  8.00000000E+01  1.00000000E+02  0.00000000E+00
  8.00000000E+01  8.00000000E+01  0.00000000E+00
  8.00000000E+01  6.00000000E+01  0.00000000E+00
  8.00000000E+01  4.00000000E+01  0.00000000E+00
  8.00000000E+01  2.00000000E+01  0.00000000E+00
  8.00000000E+01  4.99600361E-14  0.00000000E+00
  1.00000000E+02  3.00000000E+02  0.00000000E+00
  1.00000000E+02  2.80000000E+02  0.00000000E+00
  1.00000000E+02  2.60000000E+02  0.00000000E+00
  1.00000000E+02  2.40000000E+02  0.00000000E+00
  1.00000000E+02  2.20000000E+02  0.00000000E+00
  1.00000000E+02  2.00000000E+02  0.00000000E+00
  1.00000000E+02  1.80000000E+02  0.00000000E+00
  1.00000000E+02  1.60000000E+02  0.00000000E+00
  1.00000000E+02  1.40000000E+02  0.00000000E+00
  1.00000000E+02  1.20000000E+02  0.00000000E+00
  1.00000000E+02  1.00000000E+02  0.00000000E+00
  1.00000000E+02  8.00000000E+01  0.00000000E+00
  1.00000000E+02  6.00000000E+01  0.00000000E+00
  1.00000000E+02  4.00000000E+01  0.00000000E+00
  1.00000000E+02  2.00000000E+01  0.00000000E+00
  1.00000000E+02  4.99600361E-14  0.00000000E+00
  1.20000000E+02  3.00000000E+02  0.00000000E+00
  1.20000000E+02  2.80000000E+02  0.00000000E+00
  1.20000000E+02  2.60000000E+02  0.00000000E+00
  1.20000000E+02  2.40000000E+02  0.00000000E+00
  1.20000000E+02  2.20000000E+02  0.00000000E+00
  1.20000000E+02  2.00000000E+02  0.00000000E+00
  1.20000000E+02  1.80000000E+02  0.00000000E+00
  1.20000000E+02  1.60000000E+02  0.00000000E+00
  1.20000000E+02  1.40000000E+02  0.00000000E+00
  1.20000000E+02  1.20000000E+02  0.00000000E+00
  1.20000000E+02  1.00000000E+02  0.00000000E+00
  1.20000000E+02  8.00000000E+01  0.00000000E+00
  1.20000000E+02  6.00000000E+01  0.00000000E+00
  1.20000000E+02  4.00000000E+01  0.00000000E+00
  1.20000000E+02  2.00000000E+01  0.00000000E+00
  1.20000000E+02  4.99600361E-14  0.00000000E+00
  1.40000000E+02  3.00000000E+02  0.00000000E+00
  1.40000000E+02  2.80000000E+02  0.00000000E+00
  1.40000000E+02  2.60000000E+02  0.00000000E+00
  1.40000000E+02  2.40000000E+02  0.00000000E+00
  1.40000000E+02  2.20000000E+02  0.00000000E+00
  1.40000000E+02  2.00000000E+02  0.00000000E+00
  1.40000000E+02  1.80000000E+02  0.00000000E+00
  1.40000000E+02  1.60000000E+02  0.00000000E+00
  1.40000000E+02  1.40000000E+02  0.00000000E+00
  1.40000000E+02  1.20000000E+02  0.00000000E+00
  1.40000000E+02  1.00000000E+02  0.00000000E+00
  1.40000000E+02  8.00000000E+01  0.00000000E+00
  1.40000000E+02  6.00000000E+01  0.00000000E+00
  1.40000000E+02  4.00000000E+01  0.00000000E+00
  1.40000000E+02  2.00000000E+01  0.00000000E+00
  1.40000000E+02  4.99600361E-14  0.00000000E+00
  1.60000000E+02  3.00000000E+02  0.00000000E+00
  1.60000000E+02  2.80000000E+02  0.00000000E+00
  1.60000000E+02  2.60000000E+02  0.00000000E+00
  1.60000000E+02  2.40000000E+02  0.00000000E+00
  1.60000000E+02  2.20000000E+02  0.00000000E+00
  1.60000000E+02  2.00000000E+02  0.00000000E+00
  1.60000000E+02  1.80000000E+02  0.00000000E+00
  1.60000000E+02  1.60000000E+02  0.00000000E+00
  1.60000000E+02  1.40000000E+02  0.00000000E+00
  1.60000000E+02  1.20000000E+02  0.00000000E+00
  1.60000000E+02  1.00000000E+02  0.00000000E+00
  1.60000000E+02  8.00000000E+01  0.00000000E+00
  1.60000000E+02  6.00000000E+01  0.00000000E+00
  1.60000000E+02  4.00000000E+01  0.00000000E+00
  1.60000000E+02  2.00000000E+01  0.00000000E+00
  1.60000000E+02  4.99600361E-14  0.00000000E+00
  1.80000000E+02  3.00000000E+02  0.00000000E+00
  1.80000000E+02  2.80000000E+02  0.00000000E+00
  1.80000000E+02  2.60000000E+02  0.00000000E+00
  1.80000000E+02  2.40000000E+02  0.00000000E+00
  1.80000000E+02  2.20000000E+02  0.00000000E+00
  1.80000000E+02  2.00000000E+02  0.00000000E+00
  1.80000000E+02  1.80000000E+02  0.00000000E+00
  1.80000000E+02  1.60000000E+02  0.00000000E+00
  1.80000000E+02  1.40000000E+02  0.00000000E+00
  1.80000000E+02  1.20000000E+02  0.00000000E+00
  1.80000000E+02  1.00000000E+02  0.00000000E+00
  1.80000000E+02  8.00000000E+01  0.00000000E+00
  1.80000000E+02  6.00000000E+01  0.00000000E+00
  1.80000000E+02  4.00000000E+01  0.00000000E+00
  1.80000000E+02  2.00000000E+01  0.00000000E+00
  1.80000000E+02  4.99600361E-14  0.00000000E+00
  2.00000000E+02  3.00000000E+02  0.00000000E+00
  2.00000000E+02  2.80000000E+02  0.00000000E+00
  2.00000000E+02  2.60000000E+02  0.00000000E+00
  2.00000000E+02  2.40000000E+02  0.00000000E+00
  2.00000000E+02  2.20000000E+02  0.00000000E+00
  2.00000000E+02  2.00000000E+02  0.00000000E+00
  2.00000000E+02  1.80000000E+02  0.00000000E+00
  2.00000000E+02  1.60000000E+02  0.00000000E+00
  2.00000000E+02  1.40000000E+02  0.00000000E+00
  2.00000000E+02  1.20000000E+02  0.00000000E+00
  2.00000000E+02  1.00000000E+02  0.00000000E+00
  2.00000000E+02  8.00000000E+01  0.00000000E+00
  2.00000000E+02  6.00000000E+01  0.00000000E+00
  2.00000000E+02  4.00000000E+01  0.00000000E+00
  2.00000000E+02  2.00000000E+01  0.00000000E+00
  2.00000000E+02  4.99600361E-14  0.00000000E+00
  2.20000000E+02  3.00000000E+02  0.00000000E+00
  2.20000000E+02  2.80000000E+02  0.00000000E+00
  2.20000000E+02  2.60000000E+02  0.00000000E+00
  2.20000000E+02  2.40000000E+02  0.00000000E+00
  2.20000000E+02  2.20000000E+02  0.00000000E+00
  2.20000000E+02  2.00000000E+02  0.00000000E+00
  2.20000000E+02  1.80000000E+02  0.00000000E+00
  2.20000000E+02  1.60000000E+02  0.00000000E+00
  2.20000000E+02  1.40000000E+02  0.00000000E+00
  2.20000000E+02  1.20000000E+02  0.00000000E+00
  2.20000000E+02  1.00000000E+02  0.00000000E+00
  2.20000000E+02  8.00000000E+01  0.00000000E+00
  2.20000000E+02  6.00000000E+01  0.00000000E+00
  2.20000000E+02  4.00000000E+01  0.00000000E+00
  2.20000000E+02  2.00000000E+01  0.00000000E+00
  2.20000000E+02  4.99600361E-14  0.00000000E+00
  2.40000000E+02  3.00000000E+02  0.00000000E+00
  2.40000000E+02  2.80000000E+02  0.00000000E+00
  2.40000000E+02  2.60000000E+02  0.00000000E+00
  2.40000000E+02  2.40000000E+02  0.00000000E+00
  2.40000000E+02  2.20000000E+02  0.00000000E+00
  2.40000000E+02  2.00000000E+02  0.00000000E+00
  2.40000000E+02  1.80000000E+02  0.00000000E+00
  2.40000000E+02  1.60000000E+02  0.00000000E+00
  2.40000000E+02  1.40000000E+02  0.00000000E+00
  2.40000000E+02  1.20000000E+02  0.00000000E+00
  2.40000000E+02  1.00000000E+02  0.00000000E+00
  2.40000000E+02  8.00000000E+01  0.00000000E+00
  2.40000000E+02  6.00000000E+01  0.00000000E+00
  2.40000000E+02  4.00000000E+01  0.00000000E+00
  2.40000000E+02  2.00000000E+01  0.00000000E+00
  2.40000000E+02  4.99600361E-14  0.00000000E+00
  2.60000000E+02  3.00000000E+02  0.00000000E+00
  2.60000000E+02  2.80000000E+02  0.00000000E+00
  2.60000000E+02  2.60000000E+02  0.00000000E+00
  2.60000000E+02  2.40000000E+02  0.00000000E+00
  2.60000000E+02  2.20000000E+02  0.00000000E+00
  2.60000000E+02  2.00000000E+02  0.00000000E+00
  2.60000000E+02  1.80000000E+02  0.00000000E+00
  2.60000000E+02  1.60000000E+02  0.00000000E+00
  2.60000000E+02  1.40000000E+02  0.00000000E+00
  2.60000000E+02  1.20000000E+02  0.00000000E+00
  2.60000000E+02  1.00000000E+02  0.00000000E+00
  2.60000000E+02  8.00000000E+01  0.00000000E+00
  2.60000000E+02  6.00000000E+01  0.00000000E+00
  2.60000000E+02  4.00000000E+01  0.00000000E+00
  2.60000000E+02  2.00000000E+01  0.00000000E+00
  2.60000000E+02  4.99600361E-14  0.00000000E+00
  2.80000000E+02  3.00000000E+02  0.00000000E+00
  2.80000000E+02  2.80000000E+02  0.00000000E+00
  2.80000000E+02  2.60000000E+02  0.00000000E+00
  2.80000000E+02  2.40000000E+02  0.00000000E+00
  2.80000000E+02  2.20000000E+02  0.00000000E+00
  2.80000000E+02  2.00000000E+02  0.00000000E+00
  2.80000000E+02  1.80000000E+02  0.00000000E+00
  2.80000000E+02  1.60000000E+02  0.00000000E+00
  2.80000000E+02  1.40000000E+02  0.00000000E+00
  2.80000000E+02  1.20000000E+02  0.00000000E+00
  2.80000000E+02  1.00000000E+02  0.00000000E+00
  2.80000000E+02  8.00000000E+01  0.00000000E+00
  2.80000000E+02  6.00000000E+01  0.00000000E+00
  2.80000000E+02  4.00000000E+01  0.00000000E+00
  2.80000000E+02  2.00000000E+01  0.00000000E+00
  2.80000000E+02  4.99600361E-14  0.00000000E+00
  3.00000000E+02  3.00000000E+02  0.00000000E+00
  3.00000000E+02  2.80000000E+02  0.00000000E+00
  3.00000000E+02  2.60000000E+02  0.00000000E+00
  3.00000000E+02  2.40000000E+02  0.00000000E+00
  3.00000000E+02  2.20000000E+02  0.00000000E+00
  3.00000000E+02  2.00000000E+02  0.00000000E+00
  3.00000000E+02  1.80000000E+02  0.00000000E+00
  3.00000000E+02  1.60000000E+02  0.00000000E+00
  3.00000000E+02  1.40000000E+02  0.00000000E+00
  3.00000000E+02  1.20000000E+02  0.00000000E+00
  3.00000000E+02  1.00000000E+02  0.00000000E+00
  3.00000000E+02  8.00000000E+01  0.00000000E+00
  3.00000000E+02  6.00000000E+01  0.00000000E+00
  3.00000000E+02  4.00000000E+01  0.00000000E+00
  3.00000000E+02  2.00000000E+01  0.00000000E+00
  3.00000000E+02  4.99600361E-14  0.00000000E+00
  3.20000000E+02  3.00000000E+02  0.00000000E+00
  3.20000000E+02  2.80000000E+02  0.00000000E+00
  3.20000000E+02  2.60000000E+02  0.00000000E+00
  3.20000000E+02  2.40000000E+02  0.00000000E+00
  3.20000000E+02  2.20000000E+02  0.00000000E+00
  3.20000000E+02  2.00000000E+02  0.00000000E+00
  3.20000000E+02  1.80000000E+02  0.00000000E+00
  3.20000000E+02  1.60000000E+02  0.00000000E+00
  3.20000000E+02  1.40000000E+02  0.00000000E+00
  3.20000000E+02  1.20000000E+02  0.00000000E+00
  3.20000000E+02  1.00000000E+02  0.00000000E+00
  3.20000000E+02  8.00000000E+01  0.00000000E+00
  3.20000000E+02  6.00000000E+01  0.00000000E+00
  3.20000000E+02  4.00000000E+01  0.00000000E+00
  3.20000000E+02  2.00000000E+01  0.00000000E+00
  3.20000000E+02  4.99600361E-14  0.00000000E+00
  3.40000000E+02  3.00000000E+02  0.00000000E+00
  3.40000000E+02  2.80000000E+02  0.00000000E+00
  3.40000000E+02  2.60000000E+02  0.00000000E+00
  3.40000000E+02  2.40000000E+02  0.00000000E+00
  3.40000000E+02  2.20000000E+02  0.00000000E+00
  3.40000000E+02  2.00000000E+02  0.00000000E+00
  3.40000000E+02  1.80000000E+02  0.00000000E+00
  3.40000000E+02  1.60000000E+02  0.00000000E+00
  3.40000000E+02  1.40000000E+02  0.00000000E+00
  3.40000000E+02  1.20000000E+02  0.00000000E+00
  3.40000000E+02  1.00000000E+02  0.00000000E+00
  3.40000000E+02  8.00000000E+01  0.00000000E+00
  3.40000000E+02  6.00000000E+01  0.00000000E+00
  3.40000000E+02  4.00000000E+01  0.00000000E+00
  3.40000000E+02  2.00000000E+01  0.00000000E+00
  3.40000000E+02  4.99600361E-14  0.00000000E+00
  3.60000000E+02  3.00000000E+02  0.00000000E+00
  3.60000000E+02  2.80000000E+02  0.00000000E+00
  3.60000000E+02  2.60000000E+02  0.00000000E+00
  3.60000000E+02  2.40000000E+02  0.00000000E+00
  3.60000000E+02  2.20000000E+02  0.00000000E+00
  3.60000000E+02  2.00000000E+02  0.00000000E+00
  3.60000000E+02  1.80000000E+02  0.00000000E+00
  3.60000000E+02  1.60000000E+02  0.00000000E+00
  3.60000000E+02  1.40000000E+02  0.00000000E+00
  3.60000000E+02  1.20000000E+02  0.00000000E+00
  3.60000000E+02  1.00000000E+02  0.00000000E+00
  3.60000000E+02  8.00000000E+01  0.00000000E+00
  3.60000000E+02  6.00000000E+01  0.00000000E+00
  3.60000000E+02  4.00000000E+01  0.00000000E+00
  3.60000000E+02  2.00000000E+01  0.00000000E+00
  3.60000000E+02  4.99600361E-14  0.00000000E+00
  3.80000000E+02  3.00000000E+02  0.00000000E+00
  3.80000000E+02  2.80000000E+02  0.00000000E+00
  3.80000000E+02  2.60000000E+02  0.00000000E+00
  3.80000000E+02  2.40000000E+02  0.00000000E+00
  3.80000000E+02  2.20000000E+02  0.00000000E+00
  3.80000000E+02  2.00000000E+02  0.00000000E+00
  3.80000000E+02  1.80000000E+02  0.00000000E+00
  3.80000000E+02  1.60000000E+02  0.00000000E+00
  3.80000000E+02  1.40000000E+02  0.00000000E+00
  3.80000000E+02  1.20000000E+02  0.00000000E+00
  3.80000000E+02  1.00000000E+02  0.00000000E+00
  3.80000000E+02  8.00000000E+01  0.00000000E+00
  3.80000000E+02  6.00000000E+01  0.00000000E+00
  3.80000000E+02  4.00000000E+01  0.00000000E+00
  3.80000000E+02  2.00000000E+01  0.00000000E+00
  3.80000000E+02  4.99600361E-14  0.00000000E+00
  4.00000000E+02  3.00000000E+02  0.00000000E+00
  4.00000000E+02  2.80000000E+02  0.00000000E+00
  4.00000000E+02  2.60000000E+02  0.00000000E+00
  4.00000000E+02  2.40000000E+02  0.00000000E+00
  4.00000000E+02  2.20000000E+02  0.00000000E+00
  4.00000000E+02  2.00000000E+02  0.00000000E+00
  4.00000000E+02  1.80000000E+02  0.00000000E+00
  4.00000000E+02  1.60000000E+02  0.00000000E+00
  4.00000000E+02  1.40000000E+02  0.00000000E+00
  4.00000000E+02  1.20000000E+02  0.00000000E+00
  4.00000000E+02  1.00000000E+02  0.00000000E+00
  4.00000000E+02  8.00000000E+01  0.00000000E+00
  4.00000000E+02  6.00000000E+01  0.00000000E+00
  4.00000000E+02  4.00000000E+01  0.00000000E+00
  4.00000000E+02  2.00000000E+01  0.00000000E+00
  4.00000000E+02  4.99600361E-14  0.00000000E+00
  4.20000000E+02  3.00000000E+02  0.00000000E+00
  4.20000000E+02  2.80000000E+02  0.00000000E+00
  4.20000000E+02  2.60000000E+02  0.00000000E+00
  4.20000000E+02  2.40000000E+02  0.00000000E+00
  4.20000000E+02  2.20000000E+02  0.00000000E+00
  4.20000000E+02  2.00000000E+02  0.00000000E+00
  4.20000000E+02  1.80000000E+02  0.00000000E+00
  4.20000000E+02  1.60000000E+02  0.00000000E+00
  4.20000000E+02  1.40000000E+02  0.00000000E+00
  4.20000000E+02  1.20000000E+02  0.00000000E+00
  4.20000000E+02  1.00000000E+02  0.00000000E+00
  4.20000000E+02  8.00000000E+01  0.00000000E+00
  4.20000000E+02  6.00000000E+01  0.00000000E+00
  4.20000000E+02  4.00000000E+01  0.00000000E+00
  4.20000000E+02  2.00000000E+01  0.00000000E+00
  4.20000000E+02  4.99600361E-14  0.00000000E+00
  4.40000000E+02  3.00000000E+02  0.00000000E+00
  4.40000000E+02  2.80000000E+02  0.00000000E+00
  4.40000000E+02  2.60000000E+02  0.00000000E+00
  4.40000000E+02  2.40000000E+02  0.00000000E+00
  4.40000000E+02  2.20000000E+02  0.00000000E+00
  4.40000000E+02  2.00000000E+02  0.00000000E+00
  4.40000000E+02  1.80000000E+02  0.00000000E+00
  4.40000000E+02  1.60000000E+02  0.00000000E+00
  4.40000000E+02  1.40000000E+02  0.00000000E+00
  4.40000000E+02  1.20000000E+02  0.00000000E+00
  4.40000000E+02  1.00000000E+02  0.00000000E+00
  4.40000000E+02  8.00000000E+01  0.00000000E+00
  4.40000000E+02  6.00000000E+01  0.00000000E+00
  4.40000000E+02  4.00000000E+01  0.00000000E+00
  4.40000000E+02  2.00000000E+01  0.00000000E+00
  4.40000000E+02  4.99600361E-14  0.00000000E+00
  4.60000000E+02  3.00000000E+02  0.00000000E+00
  4.60000000E+02  2.80000000E+02  0.00000000E+00
  4.60000000E+02  2.60000000E+02  0.00000000E+00
  4.60000000E+02  2.40000000E+02  0.00000000E+00
  4.60000000E+02  2.20000000E+02  0.00000000E+00
  4.60000000E+02  2.00000000E+02  0.00000000E+00
  4.60000000E+02  1.80000000E+02  0.00000000E+00
  4.60000000E+02  1.60000000E+02  0.00000000E+00
  4.60000000E+02  1.40000000E+02  0.00000000E+00
  4.60000000E+02  1.20000000E+02  0.00000000E+00
  4.60000000E+02  1.00000000E+02  0.00000000E+00
  4.60000000E+02  8.00000000E+01  0.00000000E+00
  4.60000000E+02  6.00000000E+01  0.00000000E+00
  4.60000000E+02  4.00000000E+01  0.00000000E+00
  4.60000000E+02  2.00000000E+01  0.00000000E+00
  4.60000000E+02  4.99600361E-14  0.00000000E+00
  4.80000000E+02  3.00000000E+02  0.00000000E+00
  4.80000000E+02  2.80000000E+02  0.00000000E+00
  4.80000000E+02  2.60000000E+02  0.00000000E+00
  4.80000000E+02  2.40000000E+02  0.00000000E+00
  4.80000000E+02  2.20000000E+02  0.00000000E+00
  4.80000000E+02  2.00000000E+02  0.00000000E+00
  4.80000000E+02  1.80000000E+02  0.00000000E+00
  4.80000000E+02  1.60000000E+02  0.00000000E+00
  4.80000000E+02  1.40000000E+02  0.00000000E+00
  4.80000000E+02  1.20000000E+02  0.00000000E+00
  4.80000000E+02  1.00000000E+02  0.00000000E+00
  4.80000000E+02  8.00000000E+01  0.00000000E+00
  4.80000000E+02  6.00000000E+01  0.00000000E+00
  4.80000000E+02  4.00000000E+01  0.00000000E+00
  4.80000000E+02  2.00000000E+01  0.00000000E+00
  4.80000000E+02  4.99600361E-14  0.00000000E+00
  5.00000000E+02  3.00000000E+02  0.00000000E+00
  5.00000000E+02  2.80000000E+02  0.00000000E+00
  5.00000000E+02  2.60000000E+02  0.00000000E+00
  5.00000000E+02  2.40000000E+02  0.00000000E+00
  5.00000000E+02  2.20000000E+02  0.00000000E+00
  5.00000000E+02  2.00000000E+02  0.00000000E+00
  5.00000000E+02  1.80000000E+02  0.00000000E+00
  5.00000000E+02  1.60000000E+02  0.00000000E+00
  5.00000000E+02  1.40000000E+02  0.00000000E+00
  5.00000000E+02  1.20000000E+02  0.00000000E+00
  5.00000000E+02  1.00000000E+02  0.00000000E+00
  5.00000000E+02  8.00000000E+01  0.00000000E+00
  5.00000000E+02  6.00000000E+01  0.00000000E+00
  5.00000000E+02  4.00000000E+01  0.00000000E+00
  5.00000000E+02  2.00000000E+01  0.00000000E+00
  5.00000000E+02  4.99600361E-14  0.00000000E+00
  5.20000000E+02  3.00000000E+02  0.00000000E+00
  5.20000000E+02  2.80000000E+02  0.00000000E+00
  5.20000000E+02  2.60000000E+02  0.00000000E+00
  5.20000000E+02  2.40000000E+02  0.00000000E+00
  5.20000000E+02  2.20000000E+02  0.00000000E+00
  5.20000000E+02  2.00000000E+02  0.00000000E+00
  5.20000000E+02  1.80000000E+02  0.00000000E+00
  5.20000000E+02  1.60000000E+02  0.00000000E+00
  5.20000000E+02  1.40000000E+02  0.00000000E+00
  5.20000000E+02  1.20000000E+02  0.00000000E+00
  5.20000000E+02  1.00000000E+02  0.00000000E+00
  5.20000000E+02  8.00000000E+01  0.00000000E+00
  5.20000000E+02  6.00000000E+01  0.00000000E+00
  5.20000000E+02  4.00000000E+01  0.00000000E+00
  5.20000000E+02  2.00000000E+01  0.00000000E+00
  5.20000000E+02  4.99600361E-14  0.00000000E+00
  5.40000000E+02  3.00000000E+02  0.00000000E+00
  5.40000000E+02  2.80000000E+02  0.00000000E+00
  5.40000000E+02  2.60000000E+02  0.00000000E+00
  5.40000000E+02  2.40000000E+02  0.00000000E+00
  5.40000000E+02  2.20000000E+02  0.00000000E+00
  5.40000000E+02  2.00000000E+02  0.00000000E+00
  5.40000000E+02  1.80000000E+02  0.00000000E+00
  5.40000000E+02  1.60000000E+02  0.00000000E+00
  5.40000000E+02  1.40000000E+02  0.00000000E+00
  5.40000000E+02  1.20000000E+02  0.00000000E+00
  5.40000000E+02  1.00000000E+02  0.00000000E+00
  5.40000000E+02  8.00000000E+01  0.00000000E+00
  5.40000000E+02  6.00000000E+01  0.00000000E+00
  5.40000000E+02  4.00000000E+01  0.00000000E+00
  5.40000000E+02  2.00000000E+01  0.00000000E+00
  5.40000000E+02  4.99600361E-14  0.00000000E+00
  5.60000000E+02  3.00000000E+02  0.00000000E+00
  5.60000000E+02  2.80000000E+02  0.00000000E+00
  5.60000000E+02  2.60000000E+02  0.00000000E+00
  5.60000000E+02  2.40000000E+02  0.00000000E+00
  5.60000000E+02  2.20000000E+02  0.00000000E+00
  5.60000000E+02  2.00000000E+02  0.00000000E+00
  5.60000000E+02  1.80000000E+02  0.00000000E+00
  5.60000000E+02  1.60000000E+02  0.00000000E+00
  5.60000000E+02  1.40000000E+02  0.00000000E+00
  5.60000000E+02  1.20000000E+02  0.00000000E+00
  5.60000000E+02  1.00000000E+02  0.00000000E+00
  5.60000000E+02  8.00000000E+01  0.00000000E+00
  5.60000000E+02  6.00000000E+01  0.00000000E+00
  5.60000000E+02  4.00000000E+01  0.00000000E+00
  5.60000000E+02  2.00000000E+01  0.00000000E+00
  5.60000000E+02  4.99600361E-14  0.00000000E+00
  5.80000000E+02  3.00000000E+02  0.00000000E+00
  5.80000000E+02  2.80000000E+02  0.00000000E+00
  5.80000000E+02  2.60000000E+02  0.00000000E+00
  5.80000000E+02  2.40000000E+02  0.00000000E+00
  5.80000000E+02  2.20000000E+02  0.00000000E+00
  5.80000000E+02  2.00000000E+02  0.00000000E+00
  5.80000000E+02  1.80000000E+02  0.00000000E+00
  5.80000000E+02  1.60000000E+02  0.00000000E+00
  5.80000000E+02  1.40000000E+02  0.00000000E+00
  5.80000000E+02  1.20000000E+02  0.00000000E+00
  5.80000000E+02  1.00000000E+02  0.00000000E+00
  5.80000000E+02  8.00000000E+01  0.00000000E+00
  5.80000000E+02  6.00000000E+01  0.00000000E+00
  5.80000000E+02  4.00000000E+01  0.00000000E+00
  5.80000000E+02  2.00000000E+01  0.00000000E+00
  5.80000000E+02  4.99600361E-14  0.00000000E+00
  6.00000000E+02  3.00000000E+02  0.00000000E+00
  6.00000000E+02  2.80000000E+02  0.00000000E+00
  6.00000000E+02  2.60000000E+02  0.00000000E+00
  6.00000000E+02  2.40000000E+02  0.00000000E+00
  6.00000000E+02  2.20000000E+02  0.00000000E+00
  6.00000000E+02  2.00000000E+02  0.00000000E+00
  6.00000000E+02  1.80000000E+02  0.00000000E+00
  6.00000000E+02  1.60000000E+02  0.00000000E+00
  6.00000000E+02  1.40000000E+02  0.00000000E+00
  6.00000000E+02  1.20000000E+02  0.00000000E+00
  6.00000000E+02  1.00000000E+02  0.00000000E+00
  6.00000000E+02  8.00000000E+01  0.00000000E+00
  6.00000000E+02  6.00000000E+01  0.00000000E+00
  6.00000000E+02  4.00000000E+01  0.00000000E+00
  6.00000000E+02  2.00000000E+01  0.00000000E+00
  6.00000000E+02  4.99600361E-14  0.00000000E+00
CELLS       450      2250
         4           0           1          17          16
         4           1           2          18          17
         4           2           3          19          18
         4           3           4          20          19
         4           4           5          21          20
         4           5           6          22          21
         4           6           7          23          22
         4           7           8          24          23
         4           8           9          25          24
         4           9          10          26          25
         4          10          11          27          26
         4          11          12          28          27
         4          12          13          29          28
         4          13          14          30          29
         4          14          15          31          30
         4          16          17          33          32
         4          17          18          34          33
         4          18          19          35          34
         4          19          20          36          35
         4          20          21          37          36
         4          21          22          38          37
         4          22          23          39          38
         4          23          24          40          39
         4          24          25          41          40
         4          25          26          42          41
         4          26          27          43          42
         4          27          28          44          43
         4          28          29          45          44
         4          29          30          46          45
         4          30          31          47          46
         4          32          33          49          48
         4          33          34          50          49
         4          34          35          51          50
         4          35          36          52          51
         4          36          37          53          52
         4          37          38          54          53
         4          38          39          55          54
         4          39          40          56          55
         4          40          41          57          56
         4          41          42          58          57
         4          42          43          59          58
         4          43          44          60          59
         4          44          45          61          60
         4          45          46          62          61
         4          46          47          63          62
         4          48          49          65          64
         4          49          50          66          65
         4          50          51          67          66
         4          51          52          68          67
         4          52          53          69          68
         4          53          54          70          69
         4          54          55          71          70
         4          55          56          72          71
         4          56          57          73          72
         4          57          58          74          73
         4          58          59          75          74
         4          59          60          76          75
         4          60          61          77          76
         4          61          62          78          77
         4          62          63          79          78
         4          64          65          81          80
         4          65          66          82          81
         4          66          67          83          82
         4          67          68          84          83
         4          68          69          85          84
         4          69          70          86          85
         4          70          71          87          86
         4          71          72          88          87
         4          72          73          89          88
         4          73          74          90          89
         4          74          75          91          90
         4          75          76          92          91
         4          76          77          93          92
         4          77          78          94          93
         4          78          79          95          94
         4          80          81          97          96
         4          81          82          98          97
         4          82          83          99          98
         4          83          84         100          99
         4          84          85         101         100
         4          85          86         102         101
         4          86          87         103         102
         4          87          88         104         103
         4          88          89         105         104
         4          89          90         106         105
         4          90          91         107         106
         4          91          92         108         107
         4          92          93         109         108
         4          93          94         110         109
         4          94          95         111         110
         4          96          97         113         112
         4          97          98         114         113
         4          98          99         115         114
         4          99         100         116         115
         4         100         101         117         116
         4         101         102         118         117
         4         102         103         119         118
         4         103         104         120         119
         4         104         105         121         120
         4         105         106         122         121
         4         106         107         123         122
         4         107         108         124         123
         4         108         109         125         124
         4         109         110         126         125
         4         110         111         127         126
         4         112         113         129         128
         4         113         114         130         129
         4         114         115         131         130
         4         115         116         132         131
         4         116         117         133         132
         4         117         118         134         133
         4         118         119         135         134
         4         119         120         136         135
         4         120         121         137         136
         4         121         122         138         137
         4         122         123         139         138
         4         123         124         140         139
         4         124         125         141         140
         4         125         126         142         141
         4         126         127         143         142
         4         128         129         145         144
         4         129         130         146         145
         4         130         131         147         146
         4         131         132         148         147
         4         132         133         149         148
         4         133         134         150         149
         4         134         135         151         150
         4         135         136         152         151
         4         136         137         153         152
         4         137         138         154         153
         4         138         139         155         154
         4         139         140         156         155
         4         140         141         157         156
         4         141         142         158         157
         4         142         143         159         158
         4         144         145         161         160
         4         145         146         162         161
         4         146         147         163         162
         4         147         148         164         163
         4         148         149         165         164
         4         149         150         166         165
         4         150         151         167         166
         4         151         152         168         167
         4         152         153         169         168
         4         153         154         170         169
         4         154         155         171         170
         4         155         156         172         171
         4         156         157         173         172
         4         157         158         174         173
         4         158         159         175         174
         4         160         161         177         176
         4         161         162         178         177
         4         162         163         179         178
         4         163         164         180         179
         4         164         165         181         180
         4         165         166         182         181
         4         166         167         183         182
         4         167         168         184         183
         4         168         169         185         184
         4         169         170         186         185
         4         170         171         187         186
         4         171         172         188         187
         4         172         173         189         188
         4         173         174         190         189
         4         174         175         191         190
         4         176         177         193         192
         4         177         178         194         193
         4         178         179         195         194
         4         179         180         196         195
         4         180         181         197         196
         4         181         182         198         197
         4         182         183         199         198
         4         183         184         200         199
         4         184         185         201         200
         4         185         186         202         201
         4         186         187         203         202
         4         187         188         204         203
         4         188         189         205         204
         4         189         190         206         205
         4         190         191         207         206
         4         192         193         209         208
         4         193         194         210         209
         4         194         195         211         210
         4         195         196         212         211
         4         196         197         213         212
         4         197         198         214         213
         4         198         199         215         214
         4         199         200         216         215
         4         200         201         217         216
         4         201         202         218         217
         4         202         203         219         218
         4         203         204         220         219
         4         204         205         221         220
         4         205         206         222         221
         4         206         207         223         222
         4         208         209         225         224
         4         209         210         226         225
         4         210         211         227         226
         4         211         212         228         227
         4         212         213         229         228
         4         213         214         230         229
         4         214         215         231         230
         4         215         216         232         231
         4         216         217         233         232
         4         217         218         234         233
         4         218         219         235         234
         4         219         220         236         235
         4         220         221         237         236
         4         221         222         238         237
         4         222         223         239         238
         4         224         225         241         240
         4         225         226         242         241
         4         226         227         243         242
         4         227         228         244         243
         4         228         229         245         244
         4         229         230         246         245
         4         230         231         247         246
         4         231         232         248         247
         4         232         233         249         248
         4         233         234         250         249
         4         234         235         251         250
         4         235         236         252         251
         4         236         237         253         252
         4         237         238         254         253
         4         238         239         255         254
         4         240         241         257         256
         4         241         242         258         257
         4         242         243         259         258
         4         243         244         260         259
         4         244         245         261         260
         4         245         246         262         261
         4         246         247         263         262
         4         247         248         264         263
         4         248         249         265         264
         4         249         250         266         265
         4         250         251         267         266
         4         251         252         268         267
         4         252         253         269         268
         4         253         254         270         269
         4         254         255         271         270
         4         256         257         273         272
         4         257         258         274         273
         4         258         259         275         274
         4         259         260         276         275
         4         260         261         277         276
         4         261         262         278         277
         4         262         263         279         278
         4         263         264         280         279
         4         264         265         281         280
         4         265         266         282         281
         4         266         267         283         282
         4         267         268         284         283
         4         268         269         285         284
         4         269         270         286         285
         4         270         271         287         286
         4         272         273         289         288
         4         273         274         290         289
         4         274         275         291         290
         4         275         276         292         291
         4         276         277         293         292
         4         277         278         294         293
         4         278         279         295         294
         4         279         280         296         295
         4         280         281         297         296
         4         281         282         298         297
         4         282         283         299         298
         4         283         284         300         299
         4         284         285         301         300
         4         285         286         302         301
         4         286         287         303         302
         4         288         289         305         304
         4         289         290         306         305
         4         290         291         307         306
         4         291         292         308         307
         4         292         293         309         308
         4         293         294         310         309
         4         294         295         311         310
         4         295         296         312         311
         4         296         297         313         312
         4         297         298         314         313
         4         298         299         315         314
         4         299         300         316         315
         4         300         301         317         316
         4         301         302         318         317
         4         302         303         319         318
         4         304         305         321         320
         4         305         306         322         321
         4         306         307         323         322
         4         307         308         324         323
         4         308         309         325         324
         4         309         310         326         325
         4         310         311         327         326
         4         311         312         328         327
         4         312         313         329         328
         4         313         314         330         329
         4         314         315         331         330
         4         315         316         332         331
         4         316         317         333         332
         4         317         318         334         333
         4         318         319         335         334
         4         320         321         337         336
         4         321         322         338         337
         4         322         323         339         338
         4         323         324         340         339
         4         324         325         341         340
         4         325         326         342         341
         4         326         327         343         342
         4         327         328         344         343
         4         328         329         345         344
         4         329         330         346         345
         4         330         331         347         346
         4         331         332         348         347
         4         332         333         349         348
         4         333         334         350         349
         4         334         335         351         350
         4         336         337         353         352
         4         337         338         354         353
         4         338         339         355         354
         4         339         340         356         355
         4         340         341         357         356
         4         341         342         358         357
         4         342         343         359         358
         4         343         344         360         359
         4         344         345         361         360
         4         345         346         362         361
         4         346         347         363         362
         4         347         348         364         363
         4         348         349         365         364
         4         349         350         366         365
         4         350         351         367         366
         4         352         353         369         368
         4         353         354         370         369
         4         354         355         371         370
         4         355         356         372         371
         4         356         357         373         372
         4         357         358         374         373
         4         358         359         375         374
         4         359         360         376         375
         4         360         361         377         376
         4         361         362         378         377
         4         362         363         379         378
         4         363         364         380         379
         4         364         365         381         380
         4         365         366         382         381
         4         366         367         383         382
         4         368         369         385         384
         4         369         370         386         385
         4         370         371         387         386
         4         371         372         388         387
         4         372         373         389         388
         4         373         374         390         389
         4         374         375         391         390
         4         375         376         392         391
         4         376         377         393         392
         4         377         378         394         393
         4         378         379         395         394
         4         379         380         396         395
         4         380         381         397         396
         4         381         382         398         397
         4         382         383         399         398
         4         384         385         401         400
         4         385         386         402         401
         4         386         387         403         402
         4         387         388         404         403
         4         388         389         405         404
         4         389         390         406         405
         4         390         391         407         406
         4         391         392         408         407
         4         392         393         409         408
         4         393         394         410         409
         4         394         395         411         410
         4         395         396         412         411
         4         396         397         413         412
         4         397         398         414         413
         4         398         399         415         414
         4         400         401         417         416
         4         401         402         418         417
         4         402         403         419         418
         4         403         404         420         419
         4         404         405         421         420
         4         405         406         422         421
         4         406         407         423         422
         4         407         408         424         423
         4         408         409         425         424
         4         409         410         426         425
         4         410         411         427         426
         4         411         412         428         427
         4         412         413         429         428
         4         413         414         430         429
         4         414         415         431         430
         4         416         417         433         432
         4         417         418         434         433
         4         418         419         435         434
         4         419         420         436         435
         4         420         421         437         436
         4         421         422         438         437
         4         422         423         439         438
         4         423         424         440         439
         4         424         425         441         440
         4         425         426         442         441
         4         426         427         443         442
         4         427         428         444         443
         4         428         429         445         444
         4         429         430         446         445
         4         430         431         447         446
         4         432         433         449         448
         4         433         434         450         449
         4         434         435         451         450
         4         435         436         452         451
         4         436         437         453         452
         4         437         438         454         453
         4         438         439         455         454
         4         439         440         456         455
         4         440         441         457         456
         4         441         442         458         457
         4         442         443         459         458
         4         443         444         460         459
         4         444         445         461         460
         4         445         446         462         461
         4         446         447         463         462
         4         448         449         465         464
         4         449         450         466         465
         4         450         451         467         466
         4         451         452         468         467
         4         452         453         469         468
         4         453         454         470         469
         4         454         455         471         470
         4         455         456         472         471
         4         456         457         473         472
         4         457         458         474         473
         4         458         459         475         474
         4         459         460         476         475
         4         460         461         477         476
         4         461         462         478         477
         4         462         463         479         478
         4         464         465         481         480
         4         465         466         482         481
         4         466         467         483         482
         4         467         468         484         483
         4         468         469         485         484
         4         469         470         486         485
         4         470         471         487         486
         4         471         472         488         487
         4         472         473         489         488
         4         473         474         490         489
         4         474         475         491         490
         4         475         476         492         491
         4         476         477         493         492
         4         477         478         494         493
         4         478         479         495         494
CELL_TYPES        450
9
9
9
9
9
9
9
9
9
9
9
9
9
9
9
9
9
9
9
9
9
9
9
9
9
9
9
9
9
9
9
9
9
9
9
9
9
9
9
9
9
9
9
9
9
9
9
9
9
9
9
9
9
9
9
9
9
9
9
9
9
9
9
9
9
9
9
9
9
9
9
9
9
9
9
9
9
9
9
9
9
9
9
9
9
9
9
9
9
9
9
9
9
9
9
9
9
9
9
9
9
9
9
9
9
9
9
9
9
9
9
9
9
9
9
9
9
9
9
9
9
9
9
9
9
9
9
9
9
9
9
9
9
9
9
9
9
9
9
9
9
9
9
9
9
9
9
9
9
9
9
9
9
9
9
9
9
9
9
9
9
9
9
9
9
9
9
9
9
9
9
9
9
9
9
9
9
9
9
9
9
9
9
9
9
9
9
9
9
9
9
9
9
9
9
9
9
9
9
9
9
9
9
9
9
9
9
9
9
9
9
9
9
9
9
9
9
9
9
9
9
9
9
9
9
9
9
9
9
9
9
9
9
9
9
9
9
9
9
9
9
9
9
9
9
9
9
9
9
9
9
9
9
9
9
9
9
9
9
9
9
9
9
9
9
9
9
9
9
9
9
9
9
9
9
9
9
9
9
9
9
9
9
9
9
9
9
9
9
9
9
9
9
9
9
9
9
9
9
9
9
9
9
9
9
9
9
9
9
9
9
9
9
9
9
9
9
9
9
9
9
9
9
9
9
9
9
9
9
9
9
9
9
9
9
9
9
9
9
9
9
9
9
9
9
9
9
9
9
9
9
9
9
9
9
9
9
9
9
9
9
9
9
9
9
9
9
9
9
9
9
9
9
9
9
9
9
9
9
9
9
9
9
9
9
9
9
9
9
9
9
9
9
9
9
9
9
9
9
9
9
9
9
9
9
9
9
9
9
9
9
9
9
9
9
9
9
9
9
9
9
9
9
9
9
9
9
9
9
9
9
9
9
9
9
9
9
9
9
9
9
9
9
9
9
9
9
9
9
9
POINT_DATA       496
SCALARS p double 
LOOKUP_TABLE default
   70328338.8459061     
   70328869.7304282     
   70330145.9007079     
   70331795.0712051     
   70333687.4967944     
   70335725.6429923     
   70337833.1050674     
   70339945.7756778     
   70342007.9618825     
   70343969.8901915     
   70345785.8538812     
   70347412.5129306     
   70348807.0034885     
   70349923.1377093     
   70350709.6766163     
   70351017.2993417     
   68304214.2099398     
   68304536.3879105     
   68305434.3049129     
   68306764.9553327     
   68308377.3084807     
   68310167.5410166     
   68312052.7331901     
   68313963.7871798     
   68315840.9047110     
   68317630.7466910     
   68319284.2538056     
   68320754.6434264     
   68321994.9610637     
   68322955.0647721     
   68323568.3655391     
   68323781.6311932     
   66282392.0714163     
   66282642.7024765     
   66283350.9593394     
   66284443.9298486     
   66285822.0846758     
   66287390.1946686     
   66289067.7057227     
   66290785.2485119     
   66292481.9829518     
   66294103.3136864     
   66295598.9763115     
   66296921.2667170     
   66298023.3796260     
   66298857.2437910     
   66299379.2969529     
   66299561.0304461     
   64263020.2476294     
   64263233.0651101     
   64263832.2170179     
   64264764.0038927     
   64265957.2541301     
   64267335.5359978     
   64268826.4402539     
   64270364.5902655     
   64271891.1553413     
   64273352.7355812     
   64274700.1300852     
   64275887.2521311     
   64276870.3918450     
   64277609.3702814     
   64278070.7185243     
   64278231.6576168     
   62246147.8887306     
   62246336.4116740     
   62246862.8339076     
   62247679.3379996     
   62248728.4454226     
   62249947.6082602     
   62251274.4098593     
   62252649.8071872     
   62254019.2289275     
   62255332.4769005     
   62256543.2574321     
   62257608.7606385     
   62258489.7816828     
   62259151.6512104     
   62259565.8483043     
   62259711.1616739     
   60231782.8614647     
   60231953.4319512     
   60232425.5660758     
   60233153.2834943     
   60234086.2235654     
   60235171.0413184     
   60236353.9154279     
   60237582.7318786     
   60238808.3430871     
   60239985.0286393     
   60241070.5488495     
   60242026.1736241     
   60242816.9368384     
   60243412.1927256     
   60243786.1970813     
   60243918.1488669     
   58219907.1394247     
   58220062.9220026     
   58220490.5167112     
   58221144.7365217     
   58221979.4778134     
   58222947.7577540     
   58224002.6872571     
   58225098.6570500     
   58226192.2606455     
   58227242.8337017     
   58228212.7244403     
   58229067.4726537     
   58229776.0203757     
   58230310.9366361     
   58230648.4790181     
   58230768.2124519     
   56210483.0816002     
   56210625.5967306     
   56211013.6671811     
   56211602.9009960     
   56212350.3228717     
   56213213.7984142     
   56214152.1568787     
   56215125.6556054     
   56216096.4813553     
   56217029.1344000     
   56217890.6778085     
   56218650.8974958     
   56219282.4030134     
   56219760.6351078     
   56220063.6748761     
   56220171.7235039     
   54203456.6387778     
   54203586.4408020     
   54203937.1499037     
   54204465.5707027     
   54205131.5488507     
   54205897.0942152     
   54206726.0170061     
   54207583.9019106     
   54208438.2361652     
   54209258.5619050     
   54210016.5903687     
   54210686.2570735     
   54211243.7014682     
   54211667.1329708     
   54211936.5226129     
   54212033.0605803     
   52198759.2185315     
   52198876.2386983     
   52199189.8874022     
   52199658.7341202     
   52200245.5497319     
   52200916.2594219     
   52201639.2819951     
   52202385.1695032     
   52203126.4368660     
   52203837.4839243     
   52204494.5407605     
   52205075.5908299     
   52205560.2361061     
   52205929.4674088     
   52206165.3024140     
   52206250.2650432     
   50196308.9211311     
   50196412.6597091     
   50196688.2593398     
   50197096.7025603     
   50197604.0099251     
   50198180.0764459     
   50198797.8136572     
   50199432.5544014     
   50200061.6526504     
   50200664.2069101     
   50201220.8448420     
   50201713.5189190     
   50202125.2724339     
   50202439.9420723     
   50202641.7716852     
   50202714.9263259     
   48196011.4468196     
   48196101.0928742     
   48196336.7294786     
   48196682.4486670     
   48197107.9731732     
   48197587.3972820     
   48198098.1854495     
   48198620.4065896     
   48199136.1602402     
   48199629.1412946     
   48200084.2901541     
   48200487.4807729     
   48200825.2069335     
   48201084.2363223     
   48201251.2135441     
   48201312.2082637     
   46197760.8196244     
   46197835.3343486     
   46198028.4256822     
   46198308.0295512     
   46198648.1053127     
   46199027.2880400     
   46199427.7746202     
   46199834.4312596     
   46200234.0913458     
   46200615.0014768     
   46200966.3697319     
   46201277.9723951     
   46201539.7817059     
   46201741.5868058     
   46201872.5925164     
   46201920.9955906     
   44201440.0008772     
   44201498.1824250     
   44201645.6793092     
   44201855.0416742     
   44202105.0573381     
   44202379.3169944     
   44202665.0076346     
   44202951.9257511     
   44203231.6850727     
   44203497.0819934     
   44203741.5763902     
   44203958.8459310     
   44204142.3774538     
   44204285.0686558     
   44204378.8262838     
   44204414.1622566     
   42206921.4305940     
   42206961.9701230     
   42207060.5309255     
   42207195.0846148     
   42207349.8821685     
   42207513.9315878     
   42207679.7136676     
   42207842.1281707     
   42207997.6461597     
   42208143.6320578     
   42208277.7925685     
   42208397.7092078     
   42208500.4165154     
   42208581.9981741     
   42208637.1871555     
   42208658.9722792     
   40214067.5162013     
   40214089.0509733     
   40214135.2069200     
   40214190.2233055     
   40214244.4817145     
   40214292.8952736     
   40214333.5605479     
   40214366.6629377     
   40214393.6083862     
   40214416.3407004     
   40214436.7964519     
   40214456.4488418     
   40214475.8977818     
   40214494.4748797     
   40214509.8477303     
   40214517.6263037     
   38222731.0773759     
   38222732.2449588     
   38222722.5687582     
   38222693.4432001     
   38222642.0721611     
   38222569.7690152     
   38222480.5596037     
   38222380.0754846     
   38222274.7033152     
   38222170.9403568     
   38222074.8977515     
   38221991.8929135     
   38221926.0795852     
   38221880.0777578     
   38221854.5842897     
   38221847.9668936     
   36232755.7489518     
   36232735.2457852     
   36232666.5338356     
   36232549.0943178     
   36232387.6608377     
   36232190.4298994     
   36231967.6332482     
   36231730.4533937     
   36231490.2362197     
   36231257.9352650     
   36231043.7129984     
   36230856.6250803     
   36230704.3230931     
   36230592.7280698     
   36230525.6498823     
   36230504.3543073     
   34243976.3388546     
   34243932.9862307     
   34243802.4642409     
   34243593.3201573     
   34243318.5308510     
   34242993.6239955     
   34242635.2441883     
   34242260.1351852     
   34241884.4729623     
   34241523.4608192     
   34241191.0883828     
   34240899.9594014     
   34240661.1061001     
   34240483.7287744     
   34240374.8270699     
   34240338.7226460     
   32256219.1336169     
   32256151.9543305     
   32255957.5171747     
   32255654.4672018     
   32255264.7318804     
   32254811.5546224     
   32254318.0896997     
   32253806.5117127     
   32253297.5435952     
   32252810.2800405     
   32252362.1765890     
   32251969.0826574     
   32251645.2143475     
   32251402.9879176     
   32251252.6677424     
   32251201.8237301     
   30269302.1392087     
   30269210.4488464     
   30268950.9482476     
   30268553.4711229     
   30268049.5789946     
   30267470.5127516     
   30266845.8703333     
   30266202.9296431     
   30265566.4704517     
   30264958.9226602     
   30264400.6713644     
   30263910.3671871     
   30263505.1135429     
   30263200.4296295     
   30263009.9239186     
   30262944.6626356     
   28283035.2385672     
   28282918.7570221     
   28282594.3565153     
   28282104.2181953     
   28281490.1684843     
   28280791.5661258     
   28280044.1519426     
   28279279.7129135     
   28278526.3303480     
   28277808.9697227     
   28277150.1979502     
   28276570.8504916     
   28276090.4988227     
   28275727.5908837     
   28275499.1687080     
   28275420.1242829     
   26297220.2376063     
   26297079.2298149     
   26296691.8582645     
   26296113.8873960     
   26295397.9346082     
   26294591.3421153     
   26293735.3561612     
   26292865.3275877     
   26292011.5614888     
   26291200.4799920     
   26290455.8462006     
   26289799.8654560     
   26289254.0076880     
   26288839.3941633     
   26288576.6005509     
   26288484.7849809     
   24311650.7554413     
   24311486.2175665     
   24311040.1765073     
   24310383.2954687     
   24309579.3014243     
   24308682.9733152     
   24307739.9416295     
   24306787.7291520     
   24305857.4240603     
   24304975.5402056     
   24304165.8116823     
   24303450.7827131     
   24302853.0645954     
   24302396.0747271     
   24302104.0170806     
   24302000.8973377     
   22326111.8859579     
   22325925.8086595     
   22325428.6386443     
   22324707.3058485     
   22323836.5441074     
   22322877.3351719     
   22321877.8806703     
   22320875.9482659     
   22319901.6159880     
   22318979.8940918     
   22318133.0714760     
   22317382.7870302     
   22316751.7950860     
   22316265.2249309     
   22315950.9390951     
   22315838.5345290     
   20340379.5023423     
   20340175.2784633     
   20339639.0982293     
   20338875.4512848     
   20337969.0926105     
   20336984.8047270     
   20335970.5928117     
   20334961.9856842     
   20333986.0268120     
   20333064.5608433     
   20332216.9565529     
   20331462.5399378     
   20330822.8930182     
   20330323.8927474     
   20329996.8653176     
   20329877.8852695     
   18354218.9660501     
   18354002.0942615     
   18353445.8787981     
   18352673.1349700     
   18351775.7358224     
   18350817.9122552     
   18349843.5452811     
   18348883.0805799     
   18347958.5833656     
   18347087.2943654     
   18346284.3891411     
   18345565.4556008     
   18344949.2171338     
   18344460.6266926     
   18344133.6458151     
   18344011.7310518     
   16367382.7287148     
   16367162.2250024     
   16366616.1497783     
   16365884.2937977     
   16365058.5834792     
   16364195.3752623     
   16363329.6901864     
   16362484.3646829     
   16361675.1027569     
   16360913.7091886     
   16360210.4362411     
   16359576.1171257     
   16359024.6478186     
   16358577.2228999     
   16358268.0386629     
   16358148.1737420     
   14379605.7465386     
   14379397.5405154     
   14378912.1942429     
   14378297.7916106     
   14377630.0254170     
   14376947.7590602     
   14376273.7115764     
   14375621.7894748     
   14375001.0417384     
   14374417.9357228     
   14373877.9481336     
   14373386.9767223     
   14372953.1593299     
   14372589.5997608     
   14372324.3376532     
   14372214.4175940     
   12390595.6320783     
   12390432.4237310     
   12390102.9373561     
   12389721.4797301     
   12389322.5952974     
   12388924.3873728     
   12388536.6424758     
   12388165.0412379     
   12387813.0186628     
   12387482.8384087     
   12387176.3124296     
   12386895.4320256     
   12386643.0960288     
   12386424.6753023     
   12386249.2247043     
   12386159.9671910     
   10400000.0000000     
   10400000.0000000     
   10400000.0000000     
   10400000.0000000     
   10400000.0000000     
   10400000.0000000     
   10400000.0000000     
   10400000.0000000     
   10400000.0000000     
   10400000.0000000     
   10400000.0000000     
   10400000.0000000     
   10400000.0000000     
   10400000.0000000     
   10400000.0000000     
   10400000.0000000     
VECTORS u double 
    0.00000E+00         0.22098E-02         0.00000E+00
    0.00000E+00         0.21389E-02         0.00000E+00
    0.00000E+00         0.20481E-02         0.00000E+00
    0.00000E+00         0.19603E-02         0.00000E+00
    0.00000E+00         0.18805E-02         0.00000E+00
    0.00000E+00         0.18096E-02         0.00000E+00
    0.00000E+00         0.17456E-02         0.00000E+00
    0.00000E+00         0.16842E-02         0.00000E+00
    0.00000E+00         0.16194E-02         0.00000E+00
    0.00000E+00         0.15432E-02         0.00000E+00
    0.00000E+00         0.14457E-02         0.00000E+00
    0.00000E+00         0.13146E-02         0.00000E+00
    0.00000E+00         0.11338E-02         0.00000E+00
    0.00000E+00         0.88194E-03         0.00000E+00
    0.00000E+00         0.52737E-03         0.00000E+00
    0.00000E+00         0.00000E+00         0.00000E+00
    0.28797E-02         0.18897E-02         0.00000E+00
    0.24613E-02         0.19005E-02         0.00000E+00
    0.21917E-02         0.18558E-02         0.00000E+00
    0.19855E-02         0.17977E-02         0.00000E+00
    0.18166E-02         0.17402E-02         0.00000E+00
    0.16714E-02         0.16872E-02         0.00000E+00
    0.15411E-02         0.16382E-02         0.00000E+00
    0.14197E-02         0.15899E-02         0.00000E+00
    0.13022E-02         0.15367E-02         0.00000E+00
    0.11840E-02         0.14711E-02         0.00000E+00
    0.10603E-02         0.13834E-02         0.00000E+00
    0.92586E-03         0.12613E-02         0.00000E+00
    0.77331E-03         0.10891E-02         0.00000E+00
    0.59117E-03         0.84564E-03         0.00000E+00
    0.35766E-03         0.49945E-03         0.00000E+00
    0.00000E+00         0.00000E+00         0.00000E+00
    0.55373E-02         0.11385E-02         0.00000E+00
    0.47802E-02         0.12531E-02         0.00000E+00
    0.42439E-02         0.13064E-02         0.00000E+00
    0.38312E-02         0.13249E-02         0.00000E+00
    0.34924E-02         0.13286E-02         0.00000E+00
    0.32012E-02         0.13264E-02         0.00000E+00
    0.29403E-02         0.13209E-02         0.00000E+00
    0.26974E-02         0.13108E-02         0.00000E+00
    0.24626E-02         0.12918E-02         0.00000E+00
    0.22267E-02         0.12576E-02         0.00000E+00
    0.19805E-02         0.11990E-02         0.00000E+00
    0.17136E-02         0.11046E-02         0.00000E+00
    0.14122E-02         0.95938E-03         0.00000E+00
    0.10557E-02         0.74376E-03         0.00000E+00
    0.60703E-03         0.43183E-03         0.00000E+00
    0.00000E+00         0.00000E+00         0.00000E+00
    0.79613E-02         0.79971E-04         0.00000E+00
    0.69358E-02         0.29844E-03         0.00000E+00
    0.61590E-02         0.46031E-03         0.00000E+00
    0.55455E-02         0.57923E-03         0.00000E+00
    0.50384E-02         0.67053E-03         0.00000E+00
    0.46013E-02         0.74468E-03         0.00000E+00
    0.42099E-02         0.80660E-03         0.00000E+00
    0.38459E-02         0.85700E-03         0.00000E+00
    0.34946E-02         0.89334E-03         0.00000E+00
    0.31425E-02         0.91038E-03         0.00000E+00
    0.27764E-02         0.90038E-03         0.00000E+00
    0.23813E-02         0.85301E-03         0.00000E+00
    0.19385E-02         0.75514E-03         0.00000E+00
    0.14221E-02         0.59077E-03         0.00000E+00
    0.79382E-03         0.34311E-03         0.00000E+00
    0.00000E+00         0.00000E+00         0.00000E+00
    0.10157E-01        -0.12186E-02         0.00000E+00
    0.89137E-02        -0.89608E-03         0.00000E+00
    0.79285E-02        -0.62375E-03         0.00000E+00
    0.71292E-02        -0.39559E-03         0.00000E+00
    0.64598E-02        -0.20177E-03         0.00000E+00
    0.58799E-02        -0.33611E-04         0.00000E+00
    0.53597E-02         0.11433E-03         0.00000E+00
    0.48762E-02         0.24398E-03         0.00000E+00
    0.44104E-02         0.35417E-03         0.00000E+00
    0.39450E-02         0.44106E-03         0.00000E+00
    0.34631E-02         0.49835E-03         0.00000E+00
    0.29463E-02         0.51749E-03         0.00000E+00
    0.23730E-02         0.48795E-03         0.00000E+00
    0.17156E-02         0.39812E-03         0.00000E+00
    0.93893E-03         0.23741E-03         0.00000E+00
    0.00000E+00         0.00000E+00         0.00000E+00
    0.12132E-01        -0.27107E-02         0.00000E+00
    0.10709E-01        -0.22836E-02         0.00000E+00
    0.95451E-02        -0.19003E-02         0.00000E+00
    0.85788E-02        -0.15593E-02         0.00000E+00
    0.77581E-02        -0.12551E-02         0.00000E+00
    0.70417E-02        -0.98154E-03         0.00000E+00
    0.63970E-02        -0.73395E-03         0.00000E+00
    0.57975E-02        -0.51005E-03         0.00000E+00
    0.52208E-02        -0.31010E-03         0.00000E+00
    0.46464E-02        -0.13673E-03         0.00000E+00
    0.40546E-02         0.52881E-05         0.00000E+00
    0.34246E-02         0.10939E-03         0.00000E+00
    0.27332E-02         0.16780E-03         0.00000E+00
    0.19535E-02         0.17258E-03         0.00000E+00
    0.10541E-02         0.11742E-03         0.00000E+00
    0.00000E+00         0.00000E+00         0.00000E+00
    0.13892E-01        -0.43608E-02         0.00000E+00
    0.12320E-01        -0.38282E-02         0.00000E+00
    0.11005E-01        -0.33336E-02         0.00000E+00
    0.98911E-02        -0.28781E-02         0.00000E+00
    0.89326E-02        -0.24591E-02         0.00000E+00
    0.80890E-02        -0.20728E-02         0.00000E+00
    0.73266E-02        -0.17157E-02         0.00000E+00
    0.66167E-02        -0.13858E-02         0.00000E+00
    0.59346E-02        -0.10829E-02         0.00000E+00
    0.52573E-02        -0.80861E-03         0.00000E+00
    0.45630E-02        -0.56631E-03         0.00000E+00
    0.38295E-02        -0.36069E-03         0.00000E+00
    0.30331E-02        -0.19712E-03         0.00000E+00
    0.21481E-02        -0.80706E-04         0.00000E+00
    0.11467E-02        -0.14897E-04         0.00000E+00
    0.00000E+00         0.00000E+00         0.00000E+00
    0.15444E-01        -0.61404E-02         0.00000E+00
    0.13750E-01        -0.55014E-02         0.00000E+00
    0.12305E-01        -0.48950E-02         0.00000E+00
    0.11064E-01        -0.43238E-02         0.00000E+00
    0.99826E-02        -0.37872E-02         0.00000E+00
    0.90231E-02        -0.32832E-02         0.00000E+00
    0.81519E-02        -0.28096E-02         0.00000E+00
    0.73394E-02        -0.23646E-02         0.00000E+00
    0.65591E-02        -0.19479E-02         0.00000E+00
    0.57865E-02        -0.15605E-02         0.00000E+00
    0.49984E-02        -0.12045E-02         0.00000E+00
    0.41718E-02        -0.88314E-03         0.00000E+00
    0.32831E-02        -0.59981E-03         0.00000E+00
    0.23080E-02        -0.35752E-03         0.00000E+00
    0.12218E-02        -0.15787E-03         0.00000E+00
    0.00000E+00         0.00000E+00         0.00000E+00
    0.16796E-01        -0.80259E-02         0.00000E+00
    0.15000E-01        -0.72795E-02         0.00000E+00
    0.13447E-01        -0.65607E-02         0.00000E+00
    0.12096E-01        -0.58729E-02         0.00000E+00
    0.10907E-01        -0.52168E-02         0.00000E+00
    0.98447E-02        -0.45916E-02         0.00000E+00
    0.88754E-02        -0.39960E-02         0.00000E+00
    0.79696E-02        -0.34288E-02         0.00000E+00
    0.70999E-02        -0.28897E-02         0.00000E+00
    0.62410E-02        -0.23791E-02         0.00000E+00
    0.53688E-02        -0.18983E-02         0.00000E+00
    0.44598E-02        -0.14493E-02         0.00000E+00
    0.34911E-02        -0.10341E-02         0.00000E+00
    0.24396E-02        -0.65417E-03         0.00000E+00
    0.12830E-02        -0.30995E-03         0.00000E+00
    0.00000E+00         0.00000E+00         0.00000E+00
    0.17952E-01        -0.99973E-02         0.00000E+00
    0.16074E-01        -0.91424E-02         0.00000E+00
    0.14431E-01        -0.83106E-02         0.00000E+00
    0.12988E-01        -0.75054E-02         0.00000E+00
    0.11707E-01        -0.67283E-02         0.00000E+00
    0.10554E-01        -0.59793E-02         0.00000E+00
    0.94989E-02        -0.52577E-02         0.00000E+00
    0.85104E-02        -0.45629E-02         0.00000E+00
    0.75615E-02        -0.38944E-02         0.00000E+00
    0.66262E-02        -0.32525E-02         0.00000E+00
    0.56802E-02        -0.26379E-02         0.00000E+00
    0.46999E-02        -0.20515E-02         0.00000E+00
    0.36629E-02        -0.14945E-02         0.00000E+00
    0.25473E-02        -0.96730E-03         0.00000E+00
    0.13326E-02        -0.46972E-03         0.00000E+00
    0.00000E+00         0.00000E+00         0.00000E+00
    0.18918E-01        -0.12037E-01         0.00000E+00
    0.16975E-01        -0.11073E-01         0.00000E+00
    0.15259E-01        -0.10128E-01         0.00000E+00
    0.13739E-01        -0.92044E-02         0.00000E+00
    0.12381E-01        -0.83051E-02         0.00000E+00
    0.11153E-01        -0.74302E-02         0.00000E+00
    0.10024E-01        -0.65796E-02         0.00000E+00
    0.89642E-02        -0.57528E-02         0.00000E+00
    0.79471E-02        -0.49496E-02         0.00000E+00
    0.69463E-02        -0.41700E-02         0.00000E+00
    0.59373E-02        -0.34142E-02         0.00000E+00
    0.48968E-02        -0.26828E-02         0.00000E+00
    0.38027E-02        -0.19760E-02         0.00000E+00
    0.26343E-02        -0.12939E-02         0.00000E+00
    0.13723E-02        -0.63582E-03         0.00000E+00
    0.00000E+00         0.00000E+00         0.00000E+00
    0.19701E-01        -0.14132E-01         0.00000E+00
    0.17705E-01        -0.13057E-01         0.00000E+00
    0.15932E-01        -0.11997E-01         0.00000E+00
    0.14351E-01        -0.10955E-01         0.00000E+00
    0.12931E-01        -0.99328E-02         0.00000E+00
    0.11641E-01        -0.89305E-02         0.00000E+00
    0.10451E-01        -0.79485E-02         0.00000E+00
    0.93328E-02        -0.69865E-02         0.00000E+00
    0.82592E-02        -0.60444E-02         0.00000E+00
    0.72043E-02        -0.51221E-02         0.00000E+00
    0.61435E-02        -0.42196E-02         0.00000E+00
    0.50538E-02        -0.33370E-02         0.00000E+00
    0.39136E-02        -0.24743E-02         0.00000E+00
    0.27028E-02        -0.16313E-02         0.00000E+00
    0.14035E-02        -0.80701E-03         0.00000E+00
    0.00000E+00         0.00000E+00         0.00000E+00
    0.20303E-01        -0.16266E-01         0.00000E+00
    0.18269E-01        -0.15081E-01         0.00000E+00
    0.16453E-01        -0.13906E-01         0.00000E+00
    0.14825E-01        -0.12745E-01         0.00000E+00
    0.13357E-01        -0.11599E-01         0.00000E+00
    0.12018E-01        -0.10468E-01         0.00000E+00
    0.10781E-01        -0.93527E-02         0.00000E+00
    0.96175E-02        -0.82532E-02         0.00000E+00
    0.84997E-02        -0.71691E-02         0.00000E+00
    0.74024E-02        -0.61003E-02         0.00000E+00
    0.63012E-02        -0.50469E-02         0.00000E+00
    0.51733E-02        -0.40086E-02         0.00000E+00
    0.39976E-02        -0.29854E-02         0.00000E+00
    0.27546E-02        -0.19769E-02         0.00000E+00
    0.14270E-02        -0.98214E-03         0.00000E+00
    0.00000E+00         0.00000E+00         0.00000E+00
    0.20728E-01        -0.18430E-01         0.00000E+00
    0.18669E-01        -0.17134E-01         0.00000E+00
    0.16822E-01        -0.15844E-01         0.00000E+00
    0.15161E-01        -0.14563E-01         0.00000E+00
    0.13659E-01        -0.13292E-01         0.00000E+00
    0.12287E-01        -0.12032E-01         0.00000E+00
    0.11016E-01        -0.10782E-01         0.00000E+00
    0.98193E-02        -0.95433E-02         0.00000E+00
    0.86699E-02        -0.83150E-02         0.00000E+00
    0.75422E-02        -0.70972E-02         0.00000E+00
    0.64121E-02        -0.58899E-02         0.00000E+00
    0.52571E-02        -0.46928E-02         0.00000E+00
    0.40562E-02        -0.35057E-02         0.00000E+00
    0.27905E-02        -0.23284E-02         0.00000E+00
    0.14432E-02        -0.11601E-02         0.00000E+00
    0.00000E+00         0.00000E+00         0.00000E+00
    0.20980E-01        -0.20613E-01         0.00000E+00
    0.18905E-01        -0.19204E-01         0.00000E+00
    0.17041E-01        -0.17799E-01         0.00000E+00
    0.15361E-01        -0.16398E-01         0.00000E+00
    0.13839E-01        -0.15003E-01         0.00000E+00
    0.12446E-01        -0.13613E-01         0.00000E+00
    0.11155E-01        -0.12228E-01         0.00000E+00
    0.99390E-02        -0.10848E-01         0.00000E+00
    0.87706E-02        -0.94745E-02         0.00000E+00
    0.76247E-02        -0.81061E-02         0.00000E+00
    0.64774E-02        -0.67429E-02         0.00000E+00
    0.53062E-02        -0.53849E-02         0.00000E+00
    0.40904E-02        -0.40319E-02         0.00000E+00
    0.28113E-02        -0.26837E-02         0.00000E+00
    0.14525E-02        -0.13399E-02         0.00000E+00
    0.00000E+00         0.00000E+00         0.00000E+00
    0.21059E-01        -0.22804E-01         0.00000E+00
    0.18980E-01        -0.21283E-01         0.00000E+00
    0.17111E-01        -0.19763E-01         0.00000E+00
    0.15425E-01        -0.18242E-01         0.00000E+00
    0.13896E-01        -0.16721E-01         0.00000E+00
    0.12497E-01        -0.15201E-01         0.00000E+00
    0.11200E-01        -0.13681E-01         0.00000E+00
    0.99769E-02        -0.12160E-01         0.00000E+00
    0.88023E-02        -0.10640E-01         0.00000E+00
    0.76504E-02        -0.91204E-02         0.00000E+00
    0.64975E-02        -0.76006E-02         0.00000E+00
    0.53211E-02        -0.60808E-02         0.00000E+00
    0.41006E-02        -0.45609E-02         0.00000E+00
    0.28174E-02        -0.30409E-02         0.00000E+00
    0.14551E-02        -0.15206E-02         0.00000E+00
    0.00000E+00         0.00000E+00         0.00000E+00
    0.20966E-01        -0.24993E-01         0.00000E+00
    0.18894E-01        -0.23361E-01         0.00000E+00
    0.17031E-01        -0.21725E-01         0.00000E+00
    0.15353E-01        -0.20084E-01         0.00000E+00
    0.13832E-01        -0.18439E-01         0.00000E+00
    0.12440E-01        -0.16788E-01         0.00000E+00
    0.11149E-01        -0.15133E-01         0.00000E+00
    0.99333E-02        -0.13472E-01         0.00000E+00
    0.87652E-02        -0.11806E-01         0.00000E+00
    0.76197E-02        -0.10134E-01         0.00000E+00
    0.64728E-02        -0.84579E-02         0.00000E+00
    0.53022E-02        -0.67763E-02         0.00000E+00
    0.40871E-02        -0.50896E-02         0.00000E+00
    0.28089E-02        -0.33978E-02         0.00000E+00
    0.14512E-02        -0.17012E-02         0.00000E+00
    0.00000E+00         0.00000E+00         0.00000E+00
    0.20702E-01        -0.27172E-01         0.00000E+00
    0.18647E-01        -0.25428E-01         0.00000E+00
    0.16803E-01        -0.23677E-01         0.00000E+00
    0.15145E-01        -0.21917E-01         0.00000E+00
    0.13645E-01        -0.20147E-01         0.00000E+00
    0.12274E-01        -0.18367E-01         0.00000E+00
    0.11004E-01        -0.16576E-01         0.00000E+00
    0.98081E-02        -0.14775E-01         0.00000E+00
    0.86593E-02        -0.12963E-01         0.00000E+00
    0.75324E-02        -0.11142E-01         0.00000E+00
    0.64031E-02        -0.93095E-02         0.00000E+00
    0.52492E-02        -0.74673E-02         0.00000E+00
    0.40496E-02        -0.56149E-02         0.00000E+00
    0.27856E-02        -0.37526E-02         0.00000E+00
    0.14405E-02        -0.18807E-02         0.00000E+00
    0.00000E+00         0.00000E+00         0.00000E+00
    0.20264E-01        -0.29330E-01         0.00000E+00
    0.18237E-01        -0.27475E-01         0.00000E+00
    0.16425E-01        -0.25609E-01         0.00000E+00
    0.14801E-01        -0.23730E-01         0.00000E+00
    0.13336E-01        -0.21836E-01         0.00000E+00
    0.11999E-01        -0.19926E-01         0.00000E+00
    0.10764E-01        -0.18002E-01         0.00000E+00
    0.96009E-02        -0.16062E-01         0.00000E+00
    0.84842E-02        -0.14106E-01         0.00000E+00
    0.73879E-02        -0.12136E-01         0.00000E+00
    0.62879E-02        -0.10150E-01         0.00000E+00
    0.51616E-02        -0.81497E-02         0.00000E+00
    0.39878E-02        -0.61339E-02         0.00000E+00
    0.27473E-02        -0.41032E-02         0.00000E+00
    0.14230E-02        -0.20582E-02         0.00000E+00
    0.00000E+00         0.00000E+00         0.00000E+00
    0.19651E-01        -0.31456E-01         0.00000E+00
    0.17664E-01        -0.29491E-01         0.00000E+00
    0.15897E-01        -0.27511E-01         0.00000E+00
    0.14321E-01        -0.25513E-01         0.00000E+00
    0.12904E-01        -0.23495E-01         0.00000E+00
    0.11616E-01        -0.21458E-01         0.00000E+00
    0.10428E-01        -0.19401E-01         0.00000E+00
    0.93114E-02        -0.17324E-01         0.00000E+00
    0.82391E-02        -0.15227E-01         0.00000E+00
    0.71854E-02        -0.13111E-01         0.00000E+00
    0.61262E-02        -0.10975E-01         0.00000E+00
    0.50384E-02        -0.88189E-02         0.00000E+00
    0.39008E-02        -0.66432E-02         0.00000E+00
    0.26934E-02        -0.44475E-02         0.00000E+00
    0.13983E-02        -0.22327E-02         0.00000E+00
    0.00000E+00         0.00000E+00         0.00000E+00
    0.18859E-01        -0.33540E-01         0.00000E+00
    0.16925E-01        -0.31465E-01         0.00000E+00
    0.15218E-01        -0.29371E-01         0.00000E+00
    0.13703E-01        -0.27255E-01         0.00000E+00
    0.12349E-01        -0.25115E-01         0.00000E+00
    0.11123E-01        -0.22951E-01         0.00000E+00
    0.99963E-02        -0.20763E-01         0.00000E+00
    0.89385E-02        -0.18552E-01         0.00000E+00
    0.79228E-02        -0.16317E-01         0.00000E+00
    0.69235E-02        -0.14058E-01         0.00000E+00
    0.59163E-02        -0.11776E-01         0.00000E+00
    0.48781E-02        -0.94702E-02         0.00000E+00
    0.37871E-02        -0.71392E-02         0.00000E+00
    0.26227E-02        -0.47833E-02         0.00000E+00
    0.13659E-02        -0.24031E-02         0.00000E+00
    0.00000E+00         0.00000E+00         0.00000E+00
    0.17885E-01        -0.35567E-01         0.00000E+00
    0.16018E-01        -0.33384E-01         0.00000E+00
    0.14385E-01        -0.31177E-01         0.00000E+00
    0.12947E-01        -0.28944E-01         0.00000E+00
    0.11670E-01        -0.26683E-01         0.00000E+00
    0.10521E-01        -0.24394E-01         0.00000E+00
    0.94679E-02        -0.22078E-01         0.00000E+00
    0.84812E-02        -0.19735E-01         0.00000E+00
    0.75337E-02        -0.17366E-01         0.00000E+00
    0.66001E-02        -0.14971E-01         0.00000E+00
    0.56560E-02        -0.12548E-01         0.00000E+00
    0.46784E-02        -0.10098E-01         0.00000E+00
    0.36448E-02        -0.76180E-02         0.00000E+00
    0.25338E-02        -0.51081E-02         0.00000E+00
    0.13250E-02        -0.25682E-02         0.00000E+00
    0.00000E+00         0.00000E+00         0.00000E+00
    0.16723E-01        -0.37525E-01         0.00000E+00
    0.14940E-01        -0.35234E-01         0.00000E+00
    0.13397E-01        -0.32915E-01         0.00000E+00
    0.12052E-01        -0.30565E-01         0.00000E+00
    0.10868E-01        -0.28184E-01         0.00000E+00
    0.98088E-02        -0.25772E-01         0.00000E+00
    0.88418E-02        -0.23331E-01         0.00000E+00
    0.79377E-02        -0.20862E-01         0.00000E+00
    0.70695E-02        -0.18364E-01         0.00000E+00
    0.62122E-02        -0.15839E-01         0.00000E+00
    0.53420E-02        -0.13283E-01         0.00000E+00
    0.44359E-02        -0.10696E-01         0.00000E+00
    0.34709E-02        -0.80754E-02         0.00000E+00
    0.24244E-02        -0.54191E-02         0.00000E+00
    0.12744E-02        -0.27269E-02         0.00000E+00
    0.00000E+00         0.00000E+00         0.00000E+00
    0.15369E-01        -0.39395E-01         0.00000E+00
    0.13688E-01        -0.36998E-01         0.00000E+00
    0.12253E-01        -0.34567E-01         0.00000E+00
    0.11019E-01        -0.32102E-01         0.00000E+00
    0.99420E-02        -0.29603E-01         0.00000E+00
    0.89858E-02        -0.27071E-01         0.00000E+00
    0.81167E-02        -0.24509E-01         0.00000E+00
    0.73058E-02        -0.21918E-01         0.00000E+00
    0.65269E-02        -0.19299E-01         0.00000E+00
    0.57559E-02        -0.16651E-01         0.00000E+00
    0.49699E-02        -0.13972E-01         0.00000E+00
    0.41461E-02        -0.11258E-01         0.00000E+00
    0.32612E-02        -0.85065E-02         0.00000E+00
    0.22915E-02        -0.57135E-02         0.00000E+00
    0.12125E-02        -0.28778E-02         0.00000E+00
    0.00000E+00         0.00000E+00         0.00000E+00
    0.13817E-01        -0.41158E-01         0.00000E+00
    0.12259E-01        -0.38656E-01         0.00000E+00
    0.10953E-01        -0.36115E-01         0.00000E+00
    0.98462E-02        -0.33536E-01         0.00000E+00
    0.88922E-02        -0.30920E-01         0.00000E+00
    0.80515E-02        -0.28271E-01         0.00000E+00
    0.72911E-02        -0.25594E-01         0.00000E+00
    0.65827E-02        -0.22889E-01         0.00000E+00
    0.59018E-02        -0.20158E-01         0.00000E+00
    0.52260E-02        -0.17397E-01         0.00000E+00
    0.45337E-02        -0.14605E-01         0.00000E+00
    0.38028E-02        -0.11777E-01         0.00000E+00
    0.30103E-02        -0.89058E-02         0.00000E+00
    0.21307E-02        -0.59880E-02         0.00000E+00
    0.11368E-02        -0.30195E-02         0.00000E+00
    0.00000E+00         0.00000E+00         0.00000E+00
    0.12060E-01        -0.42792E-01         0.00000E+00
    0.10651E-01        -0.40185E-01         0.00000E+00
    0.94962E-02        -0.37535E-01         0.00000E+00
    0.85361E-02        -0.34842E-01         0.00000E+00
    0.77195E-02        -0.32113E-01         0.00000E+00
    0.70056E-02        -0.29353E-01         0.00000E+00
    0.63626E-02        -0.26567E-01         0.00000E+00
    0.57643E-02        -0.23757E-01         0.00000E+00
    0.51887E-02        -0.20924E-01         0.00000E+00
    0.46156E-02        -0.18064E-01         0.00000E+00
    0.40255E-02        -0.15172E-01         0.00000E+00
    0.33980E-02        -0.12242E-01         0.00000E+00
    0.27103E-02        -0.92674E-02         0.00000E+00
    0.19358E-02        -0.62389E-02         0.00000E+00
    0.10439E-02        -0.31506E-02         0.00000E+00
    0.00000E+00         0.00000E+00         0.00000E+00
    0.10092E-01        -0.44268E-01         0.00000E+00
    0.88614E-02        -0.41558E-01         0.00000E+00
    0.78847E-02        -0.38798E-01         0.00000E+00
    0.70907E-02        -0.35994E-01         0.00000E+00
    0.64248E-02        -0.33156E-01         0.00000E+00
    0.58470E-02        -0.30292E-01         0.00000E+00
    0.53281E-02        -0.27407E-01         0.00000E+00
    0.48455E-02        -0.24504E-01         0.00000E+00
    0.43806E-02        -0.21582E-01         0.00000E+00
    0.39162E-02        -0.18636E-01         0.00000E+00
    0.34358E-02        -0.15660E-01         0.00000E+00
    0.29211E-02        -0.12647E-01         0.00000E+00
    0.23510E-02        -0.95844E-02         0.00000E+00
    0.16984E-02        -0.64621E-02         0.00000E+00
    0.92884E-03        -0.32693E-02         0.00000E+00
    0.00000E+00         0.00000E+00         0.00000E+00
    0.79065E-02        -0.45552E-01         0.00000E+00
    0.68923E-02        -0.42739E-01         0.00000E+00
    0.61226E-02        -0.39870E-01         0.00000E+00
    0.55134E-02        -0.36958E-01         0.00000E+00
    0.50088E-02        -0.34019E-01         0.00000E+00
    0.45733E-02        -0.31062E-01         0.00000E+00
    0.41828E-02        -0.28093E-01         0.00000E+00
    0.38195E-02        -0.25111E-01         0.00000E+00
    0.34688E-02        -0.22116E-01         0.00000E+00
    0.31175E-02        -0.19101E-01         0.00000E+00
    0.27525E-02        -0.16058E-01         0.00000E+00
    0.23591E-02        -0.12979E-01         0.00000E+00
    0.19189E-02        -0.98487E-02         0.00000E+00
    0.14065E-02        -0.66526E-02         0.00000E+00
    0.78443E-03        -0.33737E-02         0.00000E+00
    0.00000E+00         0.00000E+00         0.00000E+00
    0.54968E-02        -0.46597E-01         0.00000E+00
    0.47486E-02        -0.43682E-01         0.00000E+00
    0.42173E-02        -0.40706E-01         0.00000E+00
    0.38075E-02        -0.37695E-01         0.00000E+00
    0.34704E-02        -0.34670E-01         0.00000E+00
    0.31802E-02        -0.31638E-01         0.00000E+00
    0.29199E-02        -0.28602E-01         0.00000E+00
    0.26774E-02        -0.25561E-01         0.00000E+00
    0.24429E-02        -0.22510E-01         0.00000E+00
    0.22075E-02        -0.19444E-01         0.00000E+00
    0.19621E-02        -0.16354E-01         0.00000E+00
    0.16963E-02        -0.13228E-01         0.00000E+00
    0.13967E-02        -0.10051E-01         0.00000E+00
    0.10431E-02        -0.68037E-02         0.00000E+00
    0.59918E-03        -0.34612E-02         0.00000E+00
    0.00000E+00         0.00000E+00         0.00000E+00
    0.28576E-02        -0.47338E-01         0.00000E+00
    0.24443E-02        -0.44321E-01         0.00000E+00
    0.21772E-02        -0.41249E-01         0.00000E+00
    0.19724E-02        -0.38163E-01         0.00000E+00
    0.18044E-02        -0.35077E-01         0.00000E+00
    0.16596E-02        -0.31994E-01         0.00000E+00
    0.15296E-02        -0.28916E-01         0.00000E+00
    0.14084E-02        -0.25837E-01         0.00000E+00
    0.12910E-02        -0.22753E-01         0.00000E+00
    0.11730E-02        -0.19656E-01         0.00000E+00
    0.10497E-02        -0.16536E-01         0.00000E+00
    0.91582E-03        -0.13383E-01         0.00000E+00
    0.76422E-03        -0.10179E-01         0.00000E+00
    0.58360E-03        -0.69042E-02         0.00000E+00
    0.35261E-03        -0.35278E-02         0.00000E+00
    0.00000E+00         0.00000E+00         0.00000E+00
    0.00000E+00        -0.47654E-01         0.00000E+00
    0.00000E+00        -0.44556E-01         0.00000E+00
    0.00000E+00        -0.41439E-01         0.00000E+00
    0.00000E+00        -0.38323E-01         0.00000E+00
    0.00000E+00        -0.35215E-01         0.00000E+00
    0.00000E+00        -0.32115E-01         0.00000E+00
    0.00000E+00        -0.29022E-01         0.00000E+00
    0.00000E+00        -0.25930E-01         0.00000E+00
    0.00000E+00        -0.22834E-01         0.00000E+00
    0.00000E+00        -0.19727E-01         0.00000E+00
    0.00000E+00        -0.16598E-01         0.00000E+00
    0.00000E+00        -0.13435E-01         0.00000E+00
    0.00000E+00        -0.10223E-01         0.00000E+00
    0.00000E+00        -0.69400E-02         0.00000E+00
    0.00000E+00        -0.35553E-02         0.00000E+00
    0.00000E+00         0.00000E+00         0.00000E+00
CELL_DATA        450
VECTORS vDarcy double 
    0.11593E-05         0.24428E-09         0.00000E+00
    0.11592E-05         0.62240E-09         0.00000E+00
    0.11591E-05         0.85290E-09         0.00000E+00
    0.11591E-05         0.10030E-08         0.00000E+00
    0.11591E-05         0.10955E-08         0.00000E+00
    0.11591E-05         0.11423E-08         0.00000E+00
    0.11591E-05         0.11511E-08         0.00000E+00
    0.11591E-05         0.11268E-08         0.00000E+00
    0.11591E-05         0.10731E-08         0.00000E+00
    0.11591E-05         0.99227E-09         0.00000E+00
    0.11591E-05         0.88569E-09         0.00000E+00
    0.11591E-05         0.75344E-09         0.00000E+00
    0.11591E-05         0.59367E-09         0.00000E+00
    0.11591E-05         0.40023E-09         0.00000E+00
    0.11591E-05         0.14891E-09         0.00000E+00
    0.11577E-05         0.16399E-09         0.00000E+00
    0.11575E-05         0.45973E-09         0.00000E+00
    0.11574E-05         0.69359E-09         0.00000E+00
    0.11574E-05         0.85569E-09         0.00000E+00
    0.11574E-05         0.96082E-09         0.00000E+00
    0.11574E-05         0.10192E-08         0.00000E+00
    0.11574E-05         0.10379E-08         0.00000E+00
    0.11574E-05         0.10222E-08         0.00000E+00
    0.11574E-05         0.97555E-09         0.00000E+00
    0.11574E-05         0.90055E-09         0.00000E+00
    0.11574E-05         0.79854E-09         0.00000E+00
    0.11573E-05         0.66975E-09         0.00000E+00
    0.11573E-05         0.51289E-09         0.00000E+00
    0.11573E-05         0.32457E-09         0.00000E+00
    0.11573E-05         0.11291E-09         0.00000E+00
    0.11560E-05         0.13265E-09         0.00000E+00
    0.11558E-05         0.37414E-09         0.00000E+00
    0.11557E-05         0.57934E-09         0.00000E+00
    0.11557E-05         0.73565E-09         0.00000E+00
    0.11556E-05         0.84282E-09         0.00000E+00
    0.11556E-05         0.90624E-09         0.00000E+00
    0.11556E-05         0.93111E-09         0.00000E+00
    0.11556E-05         0.92176E-09         0.00000E+00
    0.11556E-05         0.88155E-09         0.00000E+00
    0.11556E-05         0.81290E-09         0.00000E+00
    0.11556E-05         0.71745E-09         0.00000E+00
    0.11556E-05         0.59614E-09         0.00000E+00
    0.11556E-05         0.44962E-09         0.00000E+00
    0.11555E-05         0.28110E-09         0.00000E+00
    0.11555E-05         0.97945E-10         0.00000E+00
    0.11542E-05         0.11484E-09         0.00000E+00
    0.11541E-05         0.32203E-09         0.00000E+00
    0.11540E-05         0.50013E-09         0.00000E+00
    0.11540E-05         0.64139E-09         0.00000E+00
    0.11539E-05         0.74288E-09         0.00000E+00
    0.11539E-05         0.80580E-09         0.00000E+00
    0.11539E-05         0.83313E-09         0.00000E+00
    0.11539E-05         0.82804E-09         0.00000E+00
    0.11539E-05         0.79334E-09         0.00000E+00
    0.11539E-05         0.73134E-09         0.00000E+00
    0.11539E-05         0.64395E-09         0.00000E+00
    0.11539E-05         0.53286E-09         0.00000E+00
    0.11538E-05         0.40040E-09         0.00000E+00
    0.11538E-05         0.25024E-09         0.00000E+00
    0.11538E-05         0.87527E-10         0.00000E+00
    0.11525E-05         0.10273E-09         0.00000E+00
    0.11524E-05         0.28563E-09         0.00000E+00
    0.11523E-05         0.44166E-09         0.00000E+00
    0.11523E-05         0.56683E-09         0.00000E+00
    0.11522E-05         0.65883E-09         0.00000E+00
    0.11522E-05         0.71758E-09         0.00000E+00
    0.11522E-05         0.74455E-09         0.00000E+00
    0.11522E-05         0.74187E-09         0.00000E+00
    0.11522E-05         0.71178E-09         0.00000E+00
    0.11522E-05         0.65638E-09         0.00000E+00
    0.11522E-05         0.57769E-09         0.00000E+00
    0.11522E-05         0.47781E-09         0.00000E+00
    0.11522E-05         0.35928E-09         0.00000E+00
    0.11521E-05         0.22525E-09         0.00000E+00
    0.11521E-05         0.79234E-10         0.00000E+00
    0.11508E-05         0.93337E-10         0.00000E+00
    0.11507E-05         0.25730E-09         0.00000E+00
    0.11506E-05         0.39516E-09         0.00000E+00
    0.11506E-05         0.50542E-09         0.00000E+00
    0.11505E-05         0.58698E-09         0.00000E+00
    0.11505E-05         0.63973E-09         0.00000E+00
    0.11505E-05         0.66455E-09         0.00000E+00
    0.11505E-05         0.66291E-09         0.00000E+00
    0.11505E-05         0.63659E-09         0.00000E+00
    0.11505E-05         0.58744E-09         0.00000E+00
    0.11505E-05         0.51738E-09         0.00000E+00
    0.11505E-05         0.42846E-09         0.00000E+00
    0.11505E-05         0.32296E-09         0.00000E+00
    0.11505E-05         0.20332E-09         0.00000E+00
    0.11505E-05         0.71916E-10         0.00000E+00
    0.11491E-05         0.85292E-10         0.00000E+00
    0.11490E-05         0.23320E-09         0.00000E+00
    0.11490E-05         0.35548E-09         0.00000E+00
    0.11489E-05         0.45228E-09         0.00000E+00
    0.11489E-05         0.52359E-09         0.00000E+00
    0.11489E-05         0.56973E-09         0.00000E+00
    0.11489E-05         0.59147E-09         0.00000E+00
    0.11489E-05         0.58999E-09         0.00000E+00
    0.11489E-05         0.56675E-09         0.00000E+00
    0.11489E-05         0.52335E-09         0.00000E+00
    0.11489E-05         0.46147E-09         0.00000E+00
    0.11489E-05         0.38290E-09         0.00000E+00
    0.11489E-05         0.28948E-09         0.00000E+00
    0.11489E-05         0.18302E-09         0.00000E+00
    0.11489E-05         0.65078E-10         0.00000E+00
    0.11475E-05         0.77844E-10         0.00000E+00
    0.11474E-05         0.21117E-09         0.00000E+00
    0.11474E-05         0.31945E-09         0.00000E+00
    0.11473E-05         0.40396E-09         0.00000E+00
    0.11473E-05         0.46555E-09         0.00000E+00
    0.11473E-05         0.50504E-09         0.00000E+00
    0.11473E-05         0.52333E-09         0.00000E+00
    0.11473E-05         0.52152E-09         0.00000E+00
    0.11473E-05         0.50087E-09         0.00000E+00
    0.11473E-05         0.46273E-09         0.00000E+00
    0.11473E-05         0.40852E-09         0.00000E+00
    0.11473E-05         0.33967E-09         0.00000E+00
    0.11473E-05         0.25759E-09         0.00000E+00
    0.11473E-05         0.16353E-09         0.00000E+00
    0.11473E-05         0.58444E-10         0.00000E+00
    0.11458E-05         0.70539E-10         0.00000E+00
    0.11458E-05         0.18986E-09         0.00000E+00
    0.11458E-05         0.28498E-09         0.00000E+00
    0.11457E-05         0.35798E-09         0.00000E+00
    0.11457E-05         0.41038E-09         0.00000E+00
    0.11457E-05         0.44342E-09         0.00000E+00
    0.11457E-05         0.45820E-09         0.00000E+00
    0.11458E-05         0.45585E-09         0.00000E+00
    0.11458E-05         0.43748E-09         0.00000E+00
    0.11458E-05         0.40424E-09         0.00000E+00
    0.11458E-05         0.35728E-09         0.00000E+00
    0.11458E-05         0.29767E-09         0.00000E+00
    0.11458E-05         0.22642E-09         0.00000E+00
    0.11458E-05         0.14431E-09         0.00000E+00
    0.11458E-05         0.51842E-10         0.00000E+00
    0.11443E-05         0.63075E-10         0.00000E+00
    0.11443E-05         0.16835E-09         0.00000E+00
    0.11442E-05         0.25064E-09         0.00000E+00
    0.11442E-05         0.31257E-09         0.00000E+00
    0.11442E-05         0.35617E-09         0.00000E+00
    0.11442E-05         0.38300E-09         0.00000E+00
    0.11443E-05         0.39438E-09         0.00000E+00
    0.11443E-05         0.39143E-09         0.00000E+00
    0.11443E-05         0.37520E-09         0.00000E+00
    0.11443E-05         0.34666E-09         0.00000E+00
    0.11443E-05         0.30667E-09         0.00000E+00
    0.11444E-05         0.25602E-09         0.00000E+00
    0.11444E-05         0.19532E-09         0.00000E+00
    0.11444E-05         0.12499E-09         0.00000E+00
    0.11444E-05         0.45157E-10         0.00000E+00
    0.11428E-05         0.55241E-10         0.00000E+00
    0.11428E-05         0.14603E-09         0.00000E+00
    0.11428E-05         0.21541E-09         0.00000E+00
    0.11428E-05         0.26644E-09         0.00000E+00
    0.11428E-05         0.30146E-09         0.00000E+00
    0.11428E-05         0.32231E-09         0.00000E+00
    0.11428E-05         0.33043E-09         0.00000E+00
    0.11429E-05         0.32696E-09         0.00000E+00
    0.11429E-05         0.31286E-09         0.00000E+00
    0.11429E-05         0.28894E-09         0.00000E+00
    0.11429E-05         0.25583E-09         0.00000E+00
    0.11430E-05         0.21402E-09         0.00000E+00
    0.11430E-05         0.16382E-09         0.00000E+00
    0.11430E-05         0.10531E-09         0.00000E+00
    0.11430E-05         0.38306E-10         0.00000E+00
    0.11413E-05         0.46882E-10         0.00000E+00
    0.11413E-05         0.12244E-09         0.00000E+00
    0.11413E-05         0.17857E-09         0.00000E+00
    0.11414E-05         0.21863E-09         0.00000E+00
    0.11414E-05         0.24518E-09         0.00000E+00
    0.11414E-05         0.26022E-09         0.00000E+00
    0.11414E-05         0.26524E-09         0.00000E+00
    0.11415E-05         0.26138E-09         0.00000E+00
    0.11415E-05         0.24952E-09         0.00000E+00
    0.11416E-05         0.23028E-09         0.00000E+00
    0.11416E-05         0.20409E-09         0.00000E+00
    0.11416E-05         0.17118E-09         0.00000E+00
    0.11417E-05         0.13157E-09         0.00000E+00
    0.11417E-05         0.85077E-10         0.00000E+00
    0.11417E-05         0.31234E-10         0.00000E+00
    0.11400E-05         0.37887E-10         0.00000E+00
    0.11400E-05         0.97243E-10         0.00000E+00
    0.11400E-05         0.13960E-09         0.00000E+00
    0.11400E-05         0.16847E-09         0.00000E+00
    0.11401E-05         0.18656E-09         0.00000E+00
    0.11401E-05         0.19590E-09         0.00000E+00
    0.11401E-05         0.19801E-09         0.00000E+00
    0.11402E-05         0.19396E-09         0.00000E+00
    0.11402E-05         0.18451E-09         0.00000E+00
    0.11403E-05         0.17011E-09         0.00000E+00
    0.11403E-05         0.15098E-09         0.00000E+00
    0.11404E-05         0.12713E-09         0.00000E+00
    0.11404E-05         0.98343E-10         0.00000E+00
    0.11404E-05         0.64162E-10         0.00000E+00
    0.11404E-05         0.23904E-10         0.00000E+00
    0.11387E-05         0.28180E-10         0.00000E+00
    0.11387E-05         0.70237E-10         0.00000E+00
    0.11387E-05         0.98170E-10         0.00000E+00
    0.11388E-05         0.11555E-09         0.00000E+00
    0.11388E-05         0.12511E-09         0.00000E+00
    0.11389E-05         0.12887E-09         0.00000E+00
    0.11389E-05         0.12826E-09         0.00000E+00
    0.11390E-05         0.12424E-09         0.00000E+00
    0.11390E-05         0.11742E-09         0.00000E+00
    0.11391E-05         0.10808E-09         0.00000E+00
    0.11391E-05         0.96242E-10         0.00000E+00
    0.11392E-05         0.81700E-10         0.00000E+00
    0.11392E-05         0.64013E-10         0.00000E+00
    0.11392E-05         0.42513E-10         0.00000E+00
    0.11393E-05         0.16304E-10         0.00000E+00
    0.11375E-05         0.17715E-10         0.00000E+00
    0.11375E-05         0.41300E-10         0.00000E+00
    0.11375E-05         0.54101E-10         0.00000E+00
    0.11376E-05         0.59661E-10         0.00000E+00
    0.11376E-05         0.60634E-10         0.00000E+00
    0.11377E-05         0.58917E-10         0.00000E+00
    0.11378E-05         0.55797E-10         0.00000E+00
    0.11378E-05         0.52072E-10         0.00000E+00
    0.11379E-05         0.48149E-10         0.00000E+00
    0.11380E-05         0.44124E-10         0.00000E+00
    0.11380E-05         0.39830E-10         0.00000E+00
    0.11381E-05         0.34861E-10         0.00000E+00
    0.11381E-05         0.28583E-10         0.00000E+00
    0.11381E-05         0.20137E-10         0.00000E+00
    0.11382E-05         0.84368E-11         0.00000E+00
    0.11363E-05         0.64775E-11         0.00000E+00
    0.11364E-05         0.10409E-10         0.00000E+00
    0.11364E-05         0.73873E-11         0.00000E+00
    0.11365E-05         0.82384E-12         0.00000E+00
    0.11365E-05        -0.68163E-11         0.00000E+00
    0.11366E-05        -0.13851E-10         0.00000E+00
    0.11367E-05        -0.19226E-10         0.00000E+00
    0.11368E-05        -0.22377E-10         0.00000E+00
    0.11369E-05        -0.23120E-10         0.00000E+00
    0.11369E-05        -0.21567E-10         0.00000E+00
    0.11370E-05        -0.18076E-10         0.00000E+00
    0.11371E-05        -0.13229E-10         0.00000E+00
    0.11371E-05        -0.78252E-11         0.00000E+00
    0.11371E-05        -0.28878E-11         0.00000E+00
    0.11371E-05         0.33132E-12         0.00000E+00
    0.11353E-05        -0.55156E-11         0.00000E+00
    0.11353E-05        -0.22361E-10         0.00000E+00
    0.11354E-05        -0.41809E-10         0.00000E+00
    0.11355E-05        -0.60706E-10         0.00000E+00
    0.11355E-05        -0.76890E-10         0.00000E+00
    0.11356E-05        -0.89006E-10         0.00000E+00
    0.11357E-05        -0.96327E-10         0.00000E+00
    0.11358E-05        -0.98589E-10         0.00000E+00
    0.11359E-05        -0.95872E-10         0.00000E+00
    0.11360E-05        -0.88513E-10         0.00000E+00
    0.11361E-05        -0.77053E-10         0.00000E+00
    0.11361E-05        -0.62225E-10         0.00000E+00
    0.11362E-05        -0.44961E-10         0.00000E+00
    0.11362E-05        -0.26410E-10         0.00000E+00
    0.11362E-05        -0.79633E-11         0.00000E+00
    0.11344E-05        -0.18211E-10         0.00000E+00
    0.11344E-05        -0.56821E-10         0.00000E+00
    0.11345E-05        -0.93142E-10         0.00000E+00
    0.11346E-05        -0.12441E-09         0.00000E+00
    0.11346E-05        -0.14892E-09         0.00000E+00
    0.11347E-05        -0.16576E-09         0.00000E+00
    0.11348E-05        -0.17464E-09         0.00000E+00
    0.11349E-05        -0.17566E-09         0.00000E+00
    0.11350E-05        -0.16923E-09         0.00000E+00
    0.11351E-05        -0.15591E-09         0.00000E+00
    0.11352E-05        -0.13641E-09         0.00000E+00
    0.11353E-05        -0.11157E-09         0.00000E+00
    0.11353E-05        -0.82428E-10         0.00000E+00
    0.11354E-05        -0.50198E-10         0.00000E+00
    0.11354E-05        -0.16373E-10         0.00000E+00
    0.11335E-05        -0.31515E-10         0.00000E+00
    0.11336E-05        -0.92656E-10         0.00000E+00
    0.11336E-05        -0.14605E-09         0.00000E+00
    0.11337E-05        -0.18949E-09         0.00000E+00
    0.11338E-05        -0.22187E-09         0.00000E+00
    0.11339E-05        -0.24291E-09         0.00000E+00
    0.11340E-05        -0.25285E-09         0.00000E+00
    0.11341E-05        -0.25227E-09         0.00000E+00
    0.11342E-05        -0.24191E-09         0.00000E+00
    0.11343E-05        -0.22258E-09         0.00000E+00
    0.11344E-05        -0.19513E-09         0.00000E+00
    0.11345E-05        -0.16049E-09         0.00000E+00
    0.11346E-05        -0.11967E-09         0.00000E+00
    0.11346E-05        -0.73931E-10         0.00000E+00
    0.11346E-05        -0.24798E-10         0.00000E+00
    0.11328E-05        -0.45287E-10         0.00000E+00
    0.11328E-05        -0.12940E-09         0.00000E+00
    0.11329E-05        -0.19970E-09         0.00000E+00
    0.11330E-05        -0.25476E-09         0.00000E+00
    0.11331E-05        -0.29429E-09         0.00000E+00
    0.11332E-05        -0.31878E-09         0.00000E+00
    0.11334E-05        -0.32917E-09         0.00000E+00
    0.11335E-05        -0.32659E-09         0.00000E+00
    0.11336E-05        -0.31216E-09         0.00000E+00
    0.11337E-05        -0.28695E-09         0.00000E+00
    0.11337E-05        -0.25190E-09         0.00000E+00
    0.11338E-05        -0.20791E-09         0.00000E+00
    0.11339E-05        -0.15595E-09         0.00000E+00
    0.11339E-05        -0.97190E-10         0.00000E+00
    0.11340E-05        -0.33109E-10         0.00000E+00
    0.11321E-05        -0.59327E-10         0.00000E+00
    0.11322E-05        -0.16641E-09         0.00000E+00
    0.11323E-05        -0.25298E-09         0.00000E+00
    0.11324E-05        -0.31864E-09         0.00000E+00
    0.11325E-05        -0.36419E-09         0.00000E+00
    0.11326E-05        -0.39111E-09         0.00000E+00
    0.11328E-05        -0.40119E-09         0.00000E+00
    0.11329E-05        -0.39621E-09         0.00000E+00
    0.11330E-05        -0.37771E-09         0.00000E+00
    0.11331E-05        -0.34696E-09         0.00000E+00
    0.11332E-05        -0.30496E-09         0.00000E+00
    0.11332E-05        -0.25249E-09         0.00000E+00
    0.11333E-05        -0.19034E-09         0.00000E+00
    0.11333E-05        -0.11944E-09         0.00000E+00
    0.11334E-05        -0.41145E-10         0.00000E+00
    0.11316E-05        -0.73365E-10         0.00000E+00
    0.11317E-05        -0.20281E-09         0.00000E+00
    0.11318E-05        -0.30436E-09         0.00000E+00
    0.11319E-05        -0.37901E-09         0.00000E+00
    0.11320E-05        -0.42895E-09         0.00000E+00
    0.11322E-05        -0.45696E-09         0.00000E+00
    0.11323E-05        -0.46584E-09         0.00000E+00
    0.11324E-05        -0.45807E-09         0.00000E+00
    0.11325E-05        -0.43566E-09         0.00000E+00
    0.11326E-05        -0.40003E-09         0.00000E+00
    0.11327E-05        -0.35214E-09         0.00000E+00
    0.11327E-05        -0.29254E-09         0.00000E+00
    0.11328E-05        -0.22165E-09         0.00000E+00
    0.11329E-05        -0.14004E-09         0.00000E+00
    0.11329E-05        -0.48710E-10         0.00000E+00
    0.11312E-05        -0.87036E-10         0.00000E+00
    0.11313E-05        -0.23742E-09         0.00000E+00
    0.11314E-05        -0.35180E-09         0.00000E+00
    0.11315E-05        -0.43305E-09         0.00000E+00
    0.11316E-05        -0.48521E-09         0.00000E+00
    0.11318E-05        -0.51262E-09         0.00000E+00
    0.11319E-05        -0.51926E-09         0.00000E+00
    0.11320E-05        -0.50841E-09         0.00000E+00
    0.11321E-05        -0.48247E-09         0.00000E+00
    0.11322E-05        -0.44299E-09         0.00000E+00
    0.11322E-05        -0.39075E-09         0.00000E+00
    0.11323E-05        -0.32595E-09         0.00000E+00
    0.11324E-05        -0.24843E-09         0.00000E+00
    0.11324E-05        -0.15815E-09         0.00000E+00
    0.11325E-05        -0.55566E-10         0.00000E+00
    0.11309E-05        -0.99850E-10         0.00000E+00
    0.11310E-05        -0.26863E-09         0.00000E+00
    0.11311E-05        -0.39256E-09         0.00000E+00
    0.11313E-05        -0.47705E-09         0.00000E+00
    0.11314E-05        -0.52859E-09         0.00000E+00
    0.11315E-05        -0.55339E-09         0.00000E+00
    0.11316E-05        -0.55675E-09         0.00000E+00
    0.11317E-05        -0.54268E-09         0.00000E+00
    0.11318E-05        -0.51392E-09         0.00000E+00
    0.11319E-05        -0.47204E-09         0.00000E+00
    0.11319E-05        -0.41757E-09         0.00000E+00
    0.11320E-05        -0.35016E-09         0.00000E+00
    0.11321E-05        -0.26891E-09         0.00000E+00
    0.11321E-05        -0.17281E-09         0.00000E+00
    0.11322E-05        -0.61427E-10         0.00000E+00
    0.11307E-05        -0.11113E-09         0.00000E+00
    0.11309E-05        -0.29424E-09         0.00000E+00
    0.11310E-05        -0.42287E-09         0.00000E+00
    0.11311E-05        -0.50611E-09         0.00000E+00
    0.11312E-05        -0.55354E-09         0.00000E+00
    0.11313E-05        -0.57357E-09         0.00000E+00
    0.11314E-05        -0.57272E-09         0.00000E+00
    0.11315E-05        -0.55560E-09         0.00000E+00
    0.11316E-05        -0.52512E-09         0.00000E+00
    0.11316E-05        -0.48276E-09         0.00000E+00
    0.11317E-05        -0.42873E-09         0.00000E+00
    0.11317E-05        -0.36206E-09         0.00000E+00
    0.11318E-05        -0.28084E-09         0.00000E+00
    0.11319E-05        -0.18275E-09         0.00000E+00
    0.11319E-05        -0.65939E-10         0.00000E+00
    0.11307E-05        -0.11986E-09         0.00000E+00
    0.11308E-05        -0.31098E-09         0.00000E+00
    0.11310E-05        -0.43742E-09         0.00000E+00
    0.11311E-05        -0.51359E-09         0.00000E+00
    0.11312E-05        -0.55304E-09         0.00000E+00
    0.11313E-05        -0.56632E-09         0.00000E+00
    0.11313E-05        -0.56081E-09         0.00000E+00
    0.11314E-05        -0.54131E-09         0.00000E+00
    0.11314E-05        -0.51067E-09         0.00000E+00
    0.11315E-05        -0.47018E-09         0.00000E+00
    0.11315E-05        -0.41974E-09         0.00000E+00
    0.11316E-05        -0.35781E-09         0.00000E+00
    0.11316E-05        -0.28138E-09         0.00000E+00
    0.11317E-05        -0.18635E-09         0.00000E+00
    0.11317E-05        -0.68642E-10         0.00000E+00
    0.11308E-05        -0.12447E-09         0.00000E+00
    0.11310E-05        -0.31373E-09         0.00000E+00
    0.11311E-05        -0.42828E-09         0.00000E+00
    0.11312E-05        -0.49054E-09         0.00000E+00
    0.11313E-05        -0.51847E-09         0.00000E+00
    0.11313E-05        -0.52394E-09         0.00000E+00
    0.11313E-05        -0.51423E-09         0.00000E+00
    0.11314E-05        -0.49376E-09         0.00000E+00
    0.11314E-05        -0.46501E-09         0.00000E+00
    0.11314E-05        -0.42901E-09         0.00000E+00
    0.11314E-05        -0.38547E-09         0.00000E+00
    0.11315E-05        -0.33264E-09         0.00000E+00
    0.11315E-05        -0.26666E-09         0.00000E+00
    0.11316E-05        -0.18124E-09         0.00000E+00
    0.11316E-05        -0.68887E-10         0.00000E+00
    0.11311E-05        -0.12197E-09         0.00000E+00
    0.11312E-05        -0.29349E-09         0.00000E+00
    0.11313E-05        -0.38313E-09         0.00000E+00
    0.11314E-05        -0.42509E-09         0.00000E+00
    0.11314E-05        -0.43994E-09         0.00000E+00
    0.11315E-05        -0.43835E-09         0.00000E+00
    0.11315E-05        -0.42630E-09         0.00000E+00
    0.11315E-05        -0.40719E-09         0.00000E+00
    0.11314E-05        -0.38287E-09         0.00000E+00
    0.11314E-05        -0.35407E-09         0.00000E+00
    0.11314E-05        -0.32050E-09         0.00000E+00
    0.11314E-05        -0.28064E-09         0.00000E+00
    0.11314E-05        -0.23101E-09         0.00000E+00
    0.11315E-05        -0.16364E-09         0.00000E+00
    0.11315E-05        -0.65463E-10         0.00000E+00
    0.11315E-05        -0.10564E-09         0.00000E+00
    0.11316E-05        -0.23181E-09         0.00000E+00
    0.11317E-05        -0.28336E-09         0.00000E+00
    0.11318E-05        -0.30355E-09         0.00000E+00
    0.11317E-05        -0.30752E-09         0.00000E+00
    0.11317E-05        -0.30224E-09         0.00000E+00
    0.11317E-05        -0.29138E-09         0.00000E+00
    0.11316E-05        -0.27695E-09         0.00000E+00
    0.11316E-05        -0.26004E-09         0.00000E+00
    0.11315E-05        -0.24105E-09         0.00000E+00
    0.11315E-05        -0.21980E-09         0.00000E+00
    0.11314E-05        -0.19541E-09         0.00000E+00
    0.11314E-05        -0.16576E-09         0.00000E+00
    0.11315E-05        -0.12553E-09         0.00000E+00
    0.11315E-05        -0.56738E-10         0.00000E+00
    0.11321E-05        -0.46412E-10         0.00000E+00
    0.11322E-05        -0.93720E-10         0.00000E+00
    0.11322E-05        -0.10852E-09         0.00000E+00
    0.11322E-05        -0.11350E-09         0.00000E+00
    0.11321E-05        -0.11332E-09         0.00000E+00
    0.11320E-05        -0.11036E-09         0.00000E+00
    0.11319E-05        -0.10577E-09         0.00000E+00
    0.11318E-05        -0.10021E-09         0.00000E+00
    0.11317E-05        -0.94000E-10         0.00000E+00
    0.11317E-05        -0.87273E-10         0.00000E+00
    0.11316E-05        -0.79978E-10         0.00000E+00
    0.11315E-05        -0.71855E-10         0.00000E+00
    0.11315E-05        -0.62203E-10         0.00000E+00
    0.11314E-05        -0.49970E-10         0.00000E+00
    0.11315E-05        -0.25424E-10         0.00000E+00
POINT_DATA        496
VECTORS vDarcyNodal double 
    0.11592E-05         0.30404E-09         0.00000E+00
    0.11592E-05         0.51736E-09         0.00000E+00
    0.11592E-05         0.83737E-09         0.00000E+00
    0.11591E-05         0.10136E-08         0.00000E+00
    0.11591E-05         0.11248E-08         0.00000E+00
    0.11591E-05         0.11862E-08         0.00000E+00
    0.11591E-05         0.12073E-08         0.00000E+00
    0.11591E-05         0.11943E-08         0.00000E+00
    0.11591E-05         0.11510E-08         0.00000E+00
    0.11591E-05         0.10805E-08         0.00000E+00
    0.11591E-05         0.98456E-09         0.00000E+00
    0.11591E-05         0.86395E-09         0.00000E+00
    0.11591E-05         0.71790E-09         0.00000E+00
    0.11591E-05         0.54402E-09         0.00000E+00
    0.11591E-05         0.31282E-09         0.00000E+00
    0.11591E-05         0.17588E-09         0.00000E+00
    0.11584E-05         0.18449E-09         0.00000E+00
    0.11584E-05         0.34928E-09         0.00000E+00
    0.11583E-05         0.63787E-09         0.00000E+00
    0.11583E-05         0.84222E-09         0.00000E+00
    0.11582E-05         0.97361E-09         0.00000E+00
    0.11582E-05         0.10515E-08         0.00000E+00
    0.11582E-05         0.10860E-08         0.00000E+00
    0.11582E-05         0.10836E-08         0.00000E+00
    0.11582E-05         0.10488E-08         0.00000E+00
    0.11582E-05         0.98478E-09         0.00000E+00
    0.11582E-05         0.89335E-09         0.00000E+00
    0.11582E-05         0.77513E-09         0.00000E+00
    0.11582E-05         0.62916E-09         0.00000E+00
    0.11582E-05         0.44985E-09         0.00000E+00
    0.11582E-05         0.23630E-09         0.00000E+00
    0.11582E-05         0.12193E-09         0.00000E+00
    0.11568E-05         0.14349E-09         0.00000E+00
    0.11567E-05         0.27445E-09         0.00000E+00
    0.11566E-05         0.51546E-09         0.00000E+00
    0.11565E-05         0.70706E-09         0.00000E+00
    0.11565E-05         0.84290E-09         0.00000E+00
    0.11565E-05         0.92844E-09         0.00000E+00
    0.11565E-05         0.97109E-09         0.00000E+00
    0.11565E-05         0.97649E-09         0.00000E+00
    0.11565E-05         0.94889E-09         0.00000E+00
    0.11565E-05         0.89132E-09         0.00000E+00
    0.11565E-05         0.80575E-09         0.00000E+00
    0.11565E-05         0.69317E-09         0.00000E+00
    0.11565E-05         0.55348E-09         0.00000E+00
    0.11564E-05         0.38762E-09         0.00000E+00
    0.11564E-05         0.20118E-09         0.00000E+00
    0.11564E-05         0.10389E-09         0.00000E+00
    0.11551E-05         0.12181E-09         0.00000E+00
    0.11550E-05         0.23234E-09         0.00000E+00
    0.11549E-05         0.43802E-09         0.00000E+00
    0.11548E-05         0.60792E-09         0.00000E+00
    0.11548E-05         0.73557E-09         0.00000E+00
    0.11548E-05         0.82063E-09         0.00000E+00
    0.11548E-05         0.86627E-09         0.00000E+00
    0.11547E-05         0.87639E-09         0.00000E+00
    0.11547E-05         0.85442E-09         0.00000E+00
    0.11547E-05         0.80313E-09         0.00000E+00
    0.11547E-05         0.72461E-09         0.00000E+00
    0.11547E-05         0.62043E-09         0.00000E+00
    0.11547E-05         0.49228E-09         0.00000E+00
    0.11547E-05         0.34310E-09         0.00000E+00
    0.11547E-05         0.17787E-09         0.00000E+00
    0.11546E-05         0.91997E-10         0.00000E+00
    0.11534E-05         0.10788E-09         0.00000E+00
    0.11533E-05         0.20453E-09         0.00000E+00
    0.11532E-05         0.38415E-09         0.00000E+00
    0.11531E-05         0.53360E-09         0.00000E+00
    0.11531E-05         0.64871E-09         0.00000E+00
    0.11531E-05         0.72805E-09         0.00000E+00
    0.11530E-05         0.77266E-09         0.00000E+00
    0.11530E-05         0.78479E-09         0.00000E+00
    0.11530E-05         0.76696E-09         0.00000E+00
    0.11530E-05         0.72155E-09         0.00000E+00
    0.11530E-05         0.65069E-09         0.00000E+00
    0.11530E-05         0.55639E-09         0.00000E+00
    0.11530E-05         0.44099E-09         0.00000E+00
    0.11530E-05         0.30755E-09         0.00000E+00
    0.11530E-05         0.15990E-09         0.00000E+00
    0.11529E-05         0.83057E-10         0.00000E+00
    0.11516E-05         0.97578E-10         0.00000E+00
    0.11516E-05         0.18382E-09         0.00000E+00
    0.11515E-05         0.34314E-09         0.00000E+00
    0.11514E-05         0.47489E-09         0.00000E+00
    0.11514E-05         0.57695E-09         0.00000E+00
    0.11514E-05         0.64836E-09         0.00000E+00
    0.11514E-05         0.68948E-09         0.00000E+00
    0.11514E-05         0.70164E-09         0.00000E+00
    0.11514E-05         0.68670E-09         0.00000E+00
    0.11514E-05         0.64661E-09         0.00000E+00
    0.11514E-05         0.58339E-09         0.00000E+00
    0.11513E-05         0.49912E-09         0.00000E+00
    0.11513E-05         0.39610E-09         0.00000E+00
    0.11513E-05         0.27699E-09         0.00000E+00
    0.11513E-05         0.14458E-09         0.00000E+00
    0.11513E-05         0.75411E-10         0.00000E+00
    0.11499E-05         0.89096E-10         0.00000E+00
    0.11499E-05         0.16681E-09         0.00000E+00
    0.11498E-05         0.30932E-09         0.00000E+00
    0.11498E-05         0.42570E-09         0.00000E+00
    0.11497E-05         0.51545E-09         0.00000E+00
    0.11497E-05         0.57835E-09         0.00000E+00
    0.11497E-05         0.61481E-09         0.00000E+00
    0.11497E-05         0.62583E-09         0.00000E+00
    0.11497E-05         0.61281E-09         0.00000E+00
    0.11497E-05         0.57742E-09         0.00000E+00
    0.11497E-05         0.52143E-09         0.00000E+00
    0.11497E-05         0.44673E-09         0.00000E+00
    0.11497E-05         0.35532E-09         0.00000E+00
    0.11497E-05         0.24929E-09         0.00000E+00
    0.11497E-05         0.13066E-09         0.00000E+00
    0.11497E-05         0.68420E-10         0.00000E+00
    0.11483E-05         0.81488E-10         0.00000E+00
    0.11482E-05         0.15168E-09         0.00000E+00
    0.11482E-05         0.27937E-09         0.00000E+00
    0.11481E-05         0.38207E-09         0.00000E+00
    0.11481E-05         0.46043E-09         0.00000E+00
    0.11481E-05         0.51497E-09         0.00000E+00
    0.11481E-05         0.54639E-09         0.00000E+00
    0.11481E-05         0.55563E-09         0.00000E+00
    0.11481E-05         0.54393E-09         0.00000E+00
    0.11481E-05         0.51268E-09         0.00000E+00
    0.11481E-05         0.46339E-09         0.00000E+00
    0.11481E-05         0.39764E-09         0.00000E+00
    0.11481E-05         0.31706E-09         0.00000E+00
    0.11481E-05         0.22321E-09         0.00000E+00
    0.11481E-05         0.11744E-09         0.00000E+00
    0.11481E-05         0.61736E-10         0.00000E+00
    0.11466E-05         0.74201E-10         0.00000E+00
    0.11466E-05         0.13734E-09         0.00000E+00
    0.11466E-05         0.25125E-09         0.00000E+00
    0.11465E-05         0.34134E-09         0.00000E+00
    0.11465E-05         0.40908E-09         0.00000E+00
    0.11465E-05         0.45562E-09         0.00000E+00
    0.11465E-05         0.48198E-09         0.00000E+00
    0.11465E-05         0.48922E-09         0.00000E+00
    0.11465E-05         0.47846E-09         0.00000E+00
    0.11466E-05         0.45093E-09         0.00000E+00
    0.11466E-05         0.40787E-09         0.00000E+00
    0.11466E-05         0.35055E-09         0.00000E+00
    0.11466E-05         0.28020E-09         0.00000E+00
    0.11466E-05         0.19791E-09         0.00000E+00
    0.11466E-05         0.10453E-09         0.00000E+00
    0.11466E-05         0.55152E-10         0.00000E+00
    0.11451E-05         0.66878E-10         0.00000E+00
    0.11450E-05         0.12306E-09         0.00000E+00
    0.11450E-05         0.22359E-09         0.00000E+00
    0.11450E-05         0.30162E-09         0.00000E+00
    0.11450E-05         0.35928E-09         0.00000E+00
    0.11450E-05         0.39818E-09         0.00000E+00
    0.11450E-05         0.41964E-09         0.00000E+00
    0.11450E-05         0.42484E-09         0.00000E+00
    0.11450E-05         0.41487E-09         0.00000E+00
    0.11451E-05         0.39080E-09         0.00000E+00
    0.11451E-05         0.35365E-09         0.00000E+00
    0.11451E-05         0.30440E-09         0.00000E+00
    0.11451E-05         0.24389E-09         0.00000E+00
    0.11451E-05         0.17282E-09         0.00000E+00
    0.11451E-05         0.91624E-10         0.00000E+00
    0.11451E-05         0.48532E-10         0.00000E+00
    0.11435E-05         0.59273E-10         0.00000E+00
    0.11435E-05         0.10837E-09         0.00000E+00
    0.11435E-05         0.19541E-09         0.00000E+00
    0.11435E-05         0.26159E-09         0.00000E+00
    0.11435E-05         0.30946E-09         0.00000E+00
    0.11435E-05         0.34100E-09         0.00000E+00
    0.11435E-05         0.35774E-09         0.00000E+00
    0.11436E-05         0.36098E-09         0.00000E+00
    0.11436E-05         0.35177E-09         0.00000E+00
    0.11436E-05         0.33107E-09         0.00000E+00
    0.11436E-05         0.29968E-09         0.00000E+00
    0.11437E-05         0.25829E-09         0.00000E+00
    0.11437E-05         0.20745E-09         0.00000E+00
    0.11437E-05         0.14750E-09         0.00000E+00
    0.11437E-05         0.78528E-10         0.00000E+00
    0.11437E-05         0.41781E-10         0.00000E+00
    0.11421E-05         0.51209E-10         0.00000E+00
    0.11421E-05         0.92905E-10         0.00000E+00
    0.11420E-05         0.16604E-09         0.00000E+00
    0.11420E-05         0.22027E-09         0.00000E+00
    0.11421E-05         0.25844E-09         0.00000E+00
    0.11421E-05         0.28279E-09         0.00000E+00
    0.11421E-05         0.29500E-09         0.00000E+00
    0.11422E-05         0.29641E-09         0.00000E+00
    0.11422E-05         0.28805E-09         0.00000E+00
    0.11422E-05         0.27074E-09         0.00000E+00
    0.11423E-05         0.24510E-09         0.00000E+00
    0.11423E-05         0.21156E-09         0.00000E+00
    0.11423E-05         0.17040E-09         0.00000E+00
    0.11423E-05         0.12164E-09         0.00000E+00
    0.11423E-05         0.65093E-10         0.00000E+00
    0.11423E-05         0.34831E-10         0.00000E+00
    0.11407E-05         0.42556E-10         0.00000E+00
    0.11407E-05         0.76414E-10         0.00000E+00
    0.11407E-05         0.13497E-09         0.00000E+00
    0.11407E-05         0.17694E-09         0.00000E+00
    0.11407E-05         0.20537E-09         0.00000E+00
    0.11407E-05         0.22262E-09         0.00000E+00
    0.11408E-05         0.23046E-09         0.00000E+00
    0.11408E-05         0.23021E-09         0.00000E+00
    0.11409E-05         0.22286E-09         0.00000E+00
    0.11409E-05         0.20907E-09         0.00000E+00
    0.11410E-05         0.18928E-09         0.00000E+00
    0.11410E-05         0.16371E-09         0.00000E+00
    0.11410E-05         0.13236E-09         0.00000E+00
    0.11410E-05         0.95014E-10         0.00000E+00
    0.11411E-05         0.51219E-10         0.00000E+00
    0.11411E-05         0.27637E-10         0.00000E+00
    0.11393E-05         0.33220E-10         0.00000E+00
    0.11393E-05         0.58718E-10         0.00000E+00
    0.11393E-05         0.10188E-09         0.00000E+00
    0.11394E-05         0.13114E-09         0.00000E+00
    0.11394E-05         0.14967E-09         0.00000E+00
    0.11395E-05         0.15985E-09         0.00000E+00
    0.11395E-05         0.16346E-09         0.00000E+00
    0.11396E-05         0.16176E-09         0.00000E+00
    0.11396E-05         0.15562E-09         0.00000E+00
    0.11397E-05         0.14555E-09         0.00000E+00
    0.11397E-05         0.13181E-09         0.00000E+00
    0.11398E-05         0.11441E-09         0.00000E+00
    0.11398E-05         0.93119E-10         0.00000E+00
    0.11398E-05         0.67493E-10         0.00000E+00
    0.11398E-05         0.36849E-10         0.00000E+00
    0.11398E-05         0.20173E-10         0.00000E+00
    0.11381E-05         0.23142E-10         0.00000E+00
    0.11381E-05         0.39702E-10         0.00000E+00
    0.11381E-05         0.66535E-10         0.00000E+00
    0.11381E-05         0.82585E-10         0.00000E+00
    0.11382E-05         0.91003E-10         0.00000E+00
    0.11382E-05         0.94138E-10         0.00000E+00
    0.11383E-05         0.93671E-10         0.00000E+00
    0.11384E-05         0.90741E-10         0.00000E+00
    0.11384E-05         0.86051E-10         0.00000E+00
    0.11385E-05         0.79955E-10         0.00000E+00
    0.11386E-05         0.72515E-10         0.00000E+00
    0.11386E-05         0.63537E-10         0.00000E+00
    0.11387E-05         0.52596E-10         0.00000E+00
    0.11387E-05         0.39034E-10         0.00000E+00
    0.11387E-05         0.21968E-10         0.00000E+00
    0.11387E-05         0.12435E-10         0.00000E+00
    0.11369E-05         0.12290E-10         0.00000E+00
    0.11369E-05         0.19316E-10         0.00000E+00
    0.11370E-05         0.28870E-10         0.00000E+00
    0.11370E-05         0.31182E-10         0.00000E+00
    0.11371E-05         0.29298E-10         0.00000E+00
    0.11371E-05         0.25419E-10         0.00000E+00
    0.11372E-05         0.21050E-10         0.00000E+00
    0.11373E-05         0.17135E-10         0.00000E+00
    0.11373E-05         0.14176E-10         0.00000E+00
    0.11374E-05         0.12324E-10         0.00000E+00
    0.11375E-05         0.11445E-10         0.00000E+00
    0.11375E-05         0.11158E-10         0.00000E+00
    0.11376E-05         0.10851E-10         0.00000E+00
    0.11376E-05         0.96878E-11         0.00000E+00
    0.11377E-05         0.66064E-11         0.00000E+00
    0.11377E-05         0.44393E-11         0.00000E+00
    0.11358E-05         0.66620E-12         0.00000E+00
    0.11358E-05        -0.24274E-11         0.00000E+00
    0.11359E-05        -0.11070E-10         0.00000E+00
    0.11359E-05        -0.22965E-10         0.00000E+00
    0.11360E-05        -0.35284E-10         0.00000E+00
    0.11361E-05        -0.46079E-10         0.00000E+00
    0.11362E-05        -0.54120E-10         0.00000E+00
    0.11363E-05        -0.58731E-10         0.00000E+00
    0.11363E-05        -0.59667E-10         0.00000E+00
    0.11364E-05        -0.57006E-10         0.00000E+00
    0.11365E-05        -0.51084E-10         0.00000E+00
    0.11366E-05        -0.42459E-10         0.00000E+00
    0.11366E-05        -0.31902E-10         0.00000E+00
    0.11367E-05        -0.20398E-10         0.00000E+00
    0.11367E-05        -0.91616E-11         0.00000E+00
    0.11367E-05        -0.37761E-11         0.00000E+00
    0.11348E-05        -0.11696E-10         0.00000E+00
    0.11349E-05        -0.25447E-10         0.00000E+00
    0.11349E-05        -0.53096E-10         0.00000E+00
    0.11350E-05        -0.79544E-10         0.00000E+00
    0.11351E-05        -0.10230E-09         0.00000E+00
    0.11351E-05        -0.11981E-09         0.00000E+00
    0.11352E-05        -0.13121E-09         0.00000E+00
    0.11353E-05        -0.13618E-09         0.00000E+00
    0.11354E-05        -0.13479E-09         0.00000E+00
    0.11355E-05        -0.12737E-09         0.00000E+00
    0.11356E-05        -0.11448E-09         0.00000E+00
    0.11357E-05        -0.96815E-10         0.00000E+00
    0.11357E-05        -0.75281E-10         0.00000E+00
    0.11358E-05        -0.50970E-10         0.00000E+00
    0.11358E-05        -0.25210E-10         0.00000E+00
    0.11358E-05        -0.12150E-10         0.00000E+00
    0.11339E-05        -0.24725E-10         0.00000E+00
    0.11340E-05        -0.49582E-10         0.00000E+00
    0.11340E-05        -0.96862E-10         0.00000E+00
    0.11341E-05        -0.13800E-09         0.00000E+00
    0.11342E-05        -0.17102E-09         0.00000E+00
    0.11343E-05        -0.19486E-09         0.00000E+00
    0.11344E-05        -0.20918E-09         0.00000E+00
    0.11345E-05        -0.21412E-09         0.00000E+00
    0.11346E-05        -0.21010E-09         0.00000E+00
    0.11347E-05        -0.19776E-09         0.00000E+00
    0.11348E-05        -0.17783E-09         0.00000E+00
    0.11348E-05        -0.15116E-09         0.00000E+00
    0.11349E-05        -0.11872E-09         0.00000E+00
    0.11350E-05        -0.81653E-10         0.00000E+00
    0.11350E-05        -0.41359E-10         0.00000E+00
    0.11350E-05        -0.20596E-10         0.00000E+00
    0.11331E-05        -0.38304E-10         0.00000E+00
    0.11332E-05        -0.74586E-10         0.00000E+00
    0.11332E-05        -0.14184E-09         0.00000E+00
    0.11333E-05        -0.19752E-09         0.00000E+00
    0.11334E-05        -0.24033E-09         0.00000E+00
    0.11335E-05        -0.26992E-09         0.00000E+00
    0.11336E-05        -0.28657E-09         0.00000E+00
    0.11338E-05        -0.29100E-09         0.00000E+00
    0.11339E-05        -0.28408E-09         0.00000E+00
    0.11340E-05        -0.26673E-09         0.00000E+00
    0.11340E-05        -0.23988E-09         0.00000E+00
    0.11341E-05        -0.20446E-09         0.00000E+00
    0.11342E-05        -0.16144E-09         0.00000E+00
    0.11342E-05        -0.11195E-09         0.00000E+00
    0.11343E-05        -0.57369E-10         0.00000E+00
    0.11343E-05        -0.29000E-10         0.00000E+00
    0.11325E-05        -0.52268E-10         0.00000E+00
    0.11325E-05        -0.10010E-09         0.00000E+00
    0.11326E-05        -0.18727E-09         0.00000E+00
    0.11327E-05        -0.25694E-09         0.00000E+00
    0.11328E-05        -0.30871E-09         0.00000E+00
    0.11329E-05        -0.34314E-09         0.00000E+00
    0.11330E-05        -0.36137E-09         0.00000E+00
    0.11331E-05        -0.36475E-09         0.00000E+00
    0.11332E-05        -0.35467E-09         0.00000E+00
    0.11333E-05        -0.33238E-09         0.00000E+00
    0.11334E-05        -0.29896E-09         0.00000E+00
    0.11335E-05        -0.25535E-09         0.00000E+00
    0.11336E-05        -0.20243E-09         0.00000E+00
    0.11336E-05        -0.14120E-09         0.00000E+00
    0.11337E-05        -0.72930E-10         0.00000E+00
    0.11337E-05        -0.37218E-10         0.00000E+00
    0.11319E-05        -0.66385E-10         0.00000E+00
    0.11319E-05        -0.12564E-09         0.00000E+00
    0.11320E-05        -0.23213E-09         0.00000E+00
    0.11321E-05        -0.31468E-09         0.00000E+00
    0.11322E-05        -0.37411E-09         0.00000E+00
    0.11323E-05        -0.41214E-09         0.00000E+00
    0.11325E-05        -0.43092E-09         0.00000E+00
    0.11326E-05        -0.43264E-09         0.00000E+00
    0.11327E-05        -0.41924E-09         0.00000E+00
    0.11328E-05        -0.39228E-09         0.00000E+00
    0.11329E-05        -0.35295E-09         0.00000E+00
    0.11329E-05        -0.30210E-09         0.00000E+00
    0.11330E-05        -0.24040E-09         0.00000E+00
    0.11331E-05        -0.16859E-09         0.00000E+00
    0.11331E-05        -0.87659E-10         0.00000E+00
    0.11331E-05        -0.45072E-10         0.00000E+00
    0.11314E-05        -0.80343E-10         0.00000E+00
    0.11315E-05        -0.15054E-09         0.00000E+00
    0.11316E-05        -0.27504E-09         0.00000E+00
    0.11317E-05        -0.36868E-09         0.00000E+00
    0.11318E-05        -0.43384E-09         0.00000E+00
    0.11319E-05        -0.47377E-09         0.00000E+00
    0.11320E-05        -0.49187E-09         0.00000E+00
    0.11321E-05        -0.49127E-09         0.00000E+00
    0.11322E-05        -0.47449E-09         0.00000E+00
    0.11323E-05        -0.44340E-09         0.00000E+00
    0.11324E-05        -0.39921E-09         0.00000E+00
    0.11325E-05        -0.34257E-09         0.00000E+00
    0.11326E-05        -0.27378E-09         0.00000E+00
    0.11326E-05        -0.19310E-09         0.00000E+00
    0.11327E-05        -0.10109E-09         0.00000E+00
    0.11327E-05        -0.52347E-10         0.00000E+00
    0.11311E-05        -0.93728E-10         0.00000E+00
    0.11311E-05        -0.17391E-09         0.00000E+00
    0.11312E-05        -0.31417E-09         0.00000E+00
    0.11313E-05        -0.41616E-09         0.00000E+00
    0.11315E-05        -0.48440E-09         0.00000E+00
    0.11316E-05        -0.52405E-09         0.00000E+00
    0.11317E-05        -0.54000E-09         0.00000E+00
    0.11318E-05        -0.53641E-09         0.00000E+00
    0.11319E-05        -0.51640E-09         0.00000E+00
    0.11320E-05        -0.48206E-09         0.00000E+00
    0.11321E-05        -0.43453E-09         0.00000E+00
    0.11321E-05        -0.37413E-09         0.00000E+00
    0.11322E-05        -0.30060E-09         0.00000E+00
    0.11323E-05        -0.21349E-09         0.00000E+00
    0.11323E-05        -0.11263E-09         0.00000E+00
    0.11323E-05        -0.58784E-10         0.00000E+00
    0.11308E-05        -0.10597E-09         0.00000E+00
    0.11309E-05        -0.19457E-09         0.00000E+00
    0.11310E-05        -0.34702E-09         0.00000E+00
    0.11311E-05        -0.45345E-09         0.00000E+00
    0.11312E-05        -0.52124E-09         0.00000E+00
    0.11314E-05        -0.55793E-09         0.00000E+00
    0.11315E-05        -0.57014E-09         0.00000E+00
    0.11315E-05        -0.56302E-09         0.00000E+00
    0.11316E-05        -0.54021E-09         0.00000E+00
    0.11317E-05        -0.50391E-09         0.00000E+00
    0.11318E-05        -0.45508E-09         0.00000E+00
    0.11318E-05        -0.39360E-09         0.00000E+00
    0.11319E-05        -0.31847E-09         0.00000E+00
    0.11320E-05        -0.22823E-09         0.00000E+00
    0.11320E-05        -0.12160E-09         0.00000E+00
    0.11320E-05        -0.64069E-10         0.00000E+00
    0.11307E-05        -0.11628E-09         0.00000E+00
    0.11308E-05        -0.21079E-09         0.00000E+00
    0.11309E-05        -0.37009E-09         0.00000E+00
    0.11310E-05        -0.47554E-09         0.00000E+00
    0.11312E-05        -0.53841E-09         0.00000E+00
    0.11312E-05        -0.56918E-09         0.00000E+00
    0.11313E-05        -0.57615E-09         0.00000E+00
    0.11314E-05        -0.56529E-09         0.00000E+00
    0.11315E-05        -0.54051E-09         0.00000E+00
    0.11315E-05        -0.50398E-09         0.00000E+00
    0.11316E-05        -0.45642E-09         0.00000E+00
    0.11316E-05        -0.39719E-09         0.00000E+00
    0.11317E-05        -0.32443E-09         0.00000E+00
    0.11317E-05        -0.23537E-09         0.00000E+00
    0.11318E-05        -0.12709E-09         0.00000E+00
    0.11318E-05        -0.67809E-10         0.00000E+00
    0.11308E-05        -0.12345E-09         0.00000E+00
    0.11308E-05        -0.22005E-09         0.00000E+00
    0.11310E-05        -0.37831E-09         0.00000E+00
    0.11311E-05        -0.47548E-09         0.00000E+00
    0.11312E-05        -0.52823E-09         0.00000E+00
    0.11313E-05        -0.55019E-09         0.00000E+00
    0.11313E-05        -0.55099E-09         0.00000E+00
    0.11314E-05        -0.53684E-09         0.00000E+00
    0.11314E-05        -0.51148E-09         0.00000E+00
    0.11314E-05        -0.47688E-09         0.00000E+00
    0.11315E-05        -0.43351E-09         0.00000E+00
    0.11315E-05        -0.38036E-09         0.00000E+00
    0.11315E-05        -0.31476E-09         0.00000E+00
    0.11316E-05        -0.23236E-09         0.00000E+00
    0.11316E-05        -0.12790E-09         0.00000E+00
    0.11317E-05        -0.69474E-10         0.00000E+00
    0.11309E-05        -0.12548E-09         0.00000E+00
    0.11310E-05        -0.21814E-09         0.00000E+00
    0.11312E-05        -0.36370E-09         0.00000E+00
    0.11313E-05        -0.44334E-09         0.00000E+00
    0.11313E-05        -0.48079E-09         0.00000E+00
    0.11314E-05        -0.49222E-09         0.00000E+00
    0.11314E-05        -0.48718E-09         0.00000E+00
    0.11314E-05        -0.47115E-09         0.00000E+00
    0.11314E-05        -0.44729E-09         0.00000E+00
    0.11314E-05        -0.41714E-09         0.00000E+00
    0.11314E-05        -0.38097E-09         0.00000E+00
    0.11314E-05        -0.33776E-09         0.00000E+00
    0.11315E-05        -0.28454E-09         0.00000E+00
    0.11315E-05        -0.21554E-09         0.00000E+00
    0.11315E-05        -0.12223E-09         0.00000E+00
    0.11316E-05        -0.68299E-10         0.00000E+00
    0.11313E-05        -0.11846E-09         0.00000E+00
    0.11314E-05        -0.19732E-09         0.00000E+00
    0.11315E-05        -0.31293E-09         0.00000E+00
    0.11316E-05        -0.36489E-09         0.00000E+00
    0.11316E-05        -0.38425E-09         0.00000E+00
    0.11316E-05        -0.38608E-09         0.00000E+00
    0.11316E-05        -0.37749E-09         0.00000E+00
    0.11315E-05        -0.36235E-09         0.00000E+00
    0.11315E-05        -0.34278E-09         0.00000E+00
    0.11315E-05        -0.31981E-09         0.00000E+00
    0.11315E-05        -0.29360E-09         0.00000E+00
    0.11314E-05        -0.26338E-09         0.00000E+00
    0.11314E-05        -0.22711E-09         0.00000E+00
    0.11314E-05        -0.17912E-09         0.00000E+00
    0.11315E-05        -0.10687E-09         0.00000E+00
    0.11315E-05        -0.62627E-10         0.00000E+00
    0.11318E-05        -0.92834E-10         0.00000E+00
    0.11319E-05        -0.14014E-09         0.00000E+00
    0.11320E-05        -0.20226E-09         0.00000E+00
    0.11320E-05        -0.22204E-09         0.00000E+00
    0.11320E-05        -0.22684E-09         0.00000E+00
    0.11319E-05        -0.22369E-09         0.00000E+00
    0.11318E-05        -0.21615E-09         0.00000E+00
    0.11318E-05        -0.20600E-09         0.00000E+00
    0.11317E-05        -0.19422E-09         0.00000E+00
    0.11316E-05        -0.18129E-09         0.00000E+00
    0.11315E-05        -0.16726E-09         0.00000E+00
    0.11315E-05        -0.15184E-09         0.00000E+00
    0.11315E-05        -0.13407E-09         0.00000E+00
    0.11314E-05        -0.11218E-09         0.00000E+00
    0.11315E-05        -0.75398E-10         0.00000E+00
    0.11315E-05        -0.50850E-10         0.00000E+00
    0.11321E-05         0.00000E+00         0.00000E+00
    0.11322E-05         0.00000E+00         0.00000E+00
    0.11322E-05        -0.29808E-20         0.00000E+00
    0.11322E-05         0.46839E-24         0.00000E+00
    0.11322E-05         0.29812E-20         0.00000E+00
    0.11321E-05         0.00000E+00         0.00000E+00
    0.11320E-05         0.00000E+00         0.00000E+00
    0.11319E-05        -0.29826E-20         0.00000E+00
    0.11318E-05        -0.29826E-20         0.00000E+00
    0.11317E-05         0.29831E-20         0.00000E+00
    0.11316E-05         0.29831E-20         0.00000E+00
    0.11315E-05        -0.33151E-20         0.00000E+00
    0.11315E-05        -0.66283E-21         0.00000E+00
    0.11315E-05         0.29838E-20         0.00000E+00
    0.11315E-05         0.66312E-21         0.00000E+00
    0.11315E-05         0.00000E+00         0.00000E+00
CELL_DATA        450
TENSORS stressef double 
    0.34814E+08        -0.34121E+06         0.00000E+00
   -0.34121E+06         0.90693E+07         0.00000E+00
    0.00000E+00         0.00000E+00         0.87767E+07
 
    0.30465E+08        -0.39295E+06         0.00000E+00
   -0.39295E+06         0.84422E+07         0.00000E+00
    0.00000E+00         0.00000E+00         0.77814E+07
 
    0.27389E+08        -0.36259E+06         0.00000E+00
   -0.36259E+06         0.77365E+07         0.00000E+00
    0.00000E+00         0.00000E+00         0.70252E+07
 
    0.24937E+08        -0.32675E+06         0.00000E+00
   -0.32675E+06         0.70710E+07         0.00000E+00
    0.00000E+00         0.00000E+00         0.64016E+07
 
    0.22873E+08        -0.28625E+06         0.00000E+00
   -0.28625E+06         0.64729E+07         0.00000E+00
    0.00000E+00         0.00000E+00         0.58692E+07
 
    0.21065E+08        -0.24256E+06         0.00000E+00
   -0.24256E+06         0.59547E+07         0.00000E+00
    0.00000E+00         0.00000E+00         0.54039E+07
 
    0.19424E+08        -0.19560E+06         0.00000E+00
   -0.19560E+06         0.55245E+07         0.00000E+00
    0.00000E+00         0.00000E+00         0.49897E+07
 
    0.17885E+08        -0.14477E+06         0.00000E+00
   -0.14477E+06         0.51904E+07         0.00000E+00
    0.00000E+00         0.00000E+00         0.46150E+07
 
    0.16391E+08        -0.88957E+05         0.00000E+00
   -0.88957E+05         0.49618E+07         0.00000E+00
    0.00000E+00         0.00000E+00         0.42705E+07
 
    0.14889E+08        -0.26415E+05         0.00000E+00
   -0.26415E+05         0.48508E+07         0.00000E+00
    0.00000E+00         0.00000E+00         0.39479E+07
 
    0.13322E+08         0.45793E+05         0.00000E+00
    0.45793E+05         0.48737E+07         0.00000E+00
    0.00000E+00         0.00000E+00         0.36391E+07
 
    0.11618E+08         0.13295E+06         0.00000E+00
    0.13295E+06         0.50554E+07         0.00000E+00
    0.00000E+00         0.00000E+00         0.33347E+07
 
    0.96740E+07         0.24653E+06         0.00000E+00
    0.24653E+06         0.54366E+07         0.00000E+00
    0.00000E+00         0.00000E+00         0.30221E+07
 
    0.73061E+07         0.41268E+06         0.00000E+00
    0.41268E+06         0.60968E+07         0.00000E+00
    0.00000E+00         0.00000E+00         0.26806E+07
 
    0.39934E+07         0.80375E+06         0.00000E+00
    0.80375E+06         0.72555E+07         0.00000E+00
    0.00000E+00         0.00000E+00         0.22498E+07
 
    0.32144E+08        -0.54404E+06         0.00000E+00
   -0.54404E+06         0.72714E+07         0.00000E+00
    0.00000E+00         0.00000E+00         0.78830E+07
 
    0.28399E+08        -0.95301E+06         0.00000E+00
   -0.95301E+06         0.70478E+07         0.00000E+00
    0.00000E+00         0.00000E+00         0.70893E+07
 
    0.25400E+08        -0.98263E+06         0.00000E+00
   -0.98263E+06         0.65910E+07         0.00000E+00
    0.00000E+00         0.00000E+00         0.63983E+07
 
    0.22977E+08        -0.91814E+06         0.00000E+00
   -0.91814E+06         0.60720E+07         0.00000E+00
    0.00000E+00         0.00000E+00         0.58098E+07
 
    0.20926E+08        -0.81849E+06         0.00000E+00
   -0.81849E+06         0.55678E+07         0.00000E+00
    0.00000E+00         0.00000E+00         0.52988E+07
 
    0.19127E+08        -0.69962E+06         0.00000E+00
   -0.69962E+06         0.51137E+07         0.00000E+00
    0.00000E+00         0.00000E+00         0.48481E+07
 
    0.17494E+08        -0.56621E+06         0.00000E+00
   -0.56621E+06         0.47298E+07         0.00000E+00
    0.00000E+00         0.00000E+00         0.44448E+07
 
    0.15964E+08        -0.41849E+06         0.00000E+00
   -0.41849E+06         0.44306E+07         0.00000E+00
    0.00000E+00         0.00000E+00         0.40790E+07
 
    0.14482E+08        -0.25417E+06         0.00000E+00
   -0.25417E+06         0.42294E+07         0.00000E+00
    0.00000E+00         0.00000E+00         0.37424E+07
 
    0.12997E+08        -0.68469E+05         0.00000E+00
   -0.68469E+05         0.41407E+07         0.00000E+00
    0.00000E+00         0.00000E+00         0.34275E+07
 
    0.11454E+08         0.14715E+06         0.00000E+00
    0.14715E+06         0.41828E+07         0.00000E+00
    0.00000E+00         0.00000E+00         0.31273E+07
 
    0.97890E+07         0.40856E+06         0.00000E+00
    0.40856E+06         0.43814E+07         0.00000E+00
    0.00000E+00         0.00000E+00         0.28341E+07
 
    0.79181E+07         0.74844E+06         0.00000E+00
    0.74844E+06         0.47769E+07         0.00000E+00
    0.00000E+00         0.00000E+00         0.25390E+07
 
    0.57098E+07         0.12496E+07         0.00000E+00
    0.12496E+07         0.54378E+07         0.00000E+00
    0.00000E+00         0.00000E+00         0.22295E+07
 
    0.31343E+07         0.21866E+07         0.00000E+00
    0.21866E+07         0.64586E+07         0.00000E+00
    0.00000E+00         0.00000E+00         0.19186E+07
 
    0.29226E+08        -0.56186E+06         0.00000E+00
   -0.56186E+06         0.52766E+07         0.00000E+00
    0.00000E+00         0.00000E+00         0.69005E+07
 
    0.26109E+08        -0.11887E+07         0.00000E+00
   -0.11887E+07         0.52163E+07         0.00000E+00
    0.00000E+00         0.00000E+00         0.62651E+07
 
    0.23368E+08        -0.13784E+07         0.00000E+00
   -0.13784E+07         0.50043E+07         0.00000E+00
    0.00000E+00         0.00000E+00         0.56744E+07
 
    0.21037E+08        -0.13599E+07         0.00000E+00
   -0.13599E+07         0.46803E+07         0.00000E+00
    0.00000E+00         0.00000E+00         0.51435E+07
 
    0.19032E+08        -0.12468E+07         0.00000E+00
   -0.12468E+07         0.43198E+07         0.00000E+00
    0.00000E+00         0.00000E+00         0.46704E+07
 
    0.17261E+08        -0.10815E+07         0.00000E+00
   -0.10815E+07         0.39717E+07         0.00000E+00
    0.00000E+00         0.00000E+00         0.42466E+07
 
    0.15652E+08        -0.88049E+06         0.00000E+00
   -0.88049E+06         0.36677E+07         0.00000E+00
    0.00000E+00         0.00000E+00         0.38639E+07
 
    0.14145E+08        -0.64858E+06         0.00000E+00
   -0.64858E+06         0.34300E+07         0.00000E+00
    0.00000E+00         0.00000E+00         0.35149E+07
 
    0.12689E+08        -0.38451E+06         0.00000E+00
   -0.38451E+06         0.32772E+07         0.00000E+00
    0.00000E+00         0.00000E+00         0.31932E+07
 
    0.11238E+08        -0.81814E+05         0.00000E+00
   -0.81814E+05         0.32271E+07         0.00000E+00
    0.00000E+00         0.00000E+00         0.28929E+07
 
    0.97435E+07         0.27253E+06         0.00000E+00
    0.27253E+06         0.32999E+07         0.00000E+00
    0.00000E+00         0.00000E+00         0.26087E+07
 
    0.81561E+07         0.70292E+06         0.00000E+00
    0.70292E+06         0.35203E+07         0.00000E+00
    0.00000E+00         0.00000E+00         0.23353E+07
 
    0.64203E+07         0.12570E+07         0.00000E+00
    0.12570E+07         0.39206E+07         0.00000E+00
    0.00000E+00         0.00000E+00         0.20682E+07
 
    0.45052E+07         0.20359E+07         0.00000E+00
    0.20359E+07         0.45363E+07         0.00000E+00
    0.00000E+00         0.00000E+00         0.18083E+07
 
    0.24734E+07         0.31983E+07         0.00000E+00
    0.31983E+07         0.53407E+07         0.00000E+00
    0.00000E+00         0.00000E+00         0.15628E+07
 
    0.26251E+08        -0.54586E+06         0.00000E+00
   -0.54586E+06         0.32658E+07         0.00000E+00
    0.00000E+00         0.00000E+00         0.59033E+07
 
    0.23653E+08        -0.12594E+07         0.00000E+00
   -0.12594E+07         0.32673E+07         0.00000E+00
    0.00000E+00         0.00000E+00         0.53840E+07
 
    0.21232E+08        -0.15747E+07         0.00000E+00
   -0.15747E+07         0.31929E+07         0.00000E+00
    0.00000E+00         0.00000E+00         0.48849E+07
 
    0.19070E+08        -0.16346E+07         0.00000E+00
   -0.16346E+07         0.30300E+07         0.00000E+00
    0.00000E+00         0.00000E+00         0.44199E+07
 
    0.17157E+08        -0.15445E+07         0.00000E+00
   -0.15445E+07         0.28125E+07         0.00000E+00
    0.00000E+00         0.00000E+00         0.39938E+07
 
    0.15444E+08        -0.13624E+07         0.00000E+00
   -0.13624E+07         0.25821E+07         0.00000E+00
    0.00000E+00         0.00000E+00         0.36052E+07
 
    0.13879E+08        -0.11160E+07         0.00000E+00
   -0.11160E+07         0.23725E+07         0.00000E+00
    0.00000E+00         0.00000E+00         0.32502E+07
 
    0.12412E+08        -0.81665E+06         0.00000E+00
   -0.81665E+06         0.22100E+07         0.00000E+00
    0.00000E+00         0.00000E+00         0.29244E+07
 
    0.11000E+08        -0.46575E+06         0.00000E+00
   -0.46575E+06         0.21167E+07         0.00000E+00
    0.00000E+00         0.00000E+00         0.26234E+07
 
    0.96030E+07        -0.56896E+05         0.00000E+00
   -0.56896E+05         0.21126E+07         0.00000E+00
    0.00000E+00         0.00000E+00         0.23431E+07
 
    0.81823E+07         0.42501E+06         0.00000E+00
    0.42501E+06         0.22176E+07         0.00000E+00
    0.00000E+00         0.00000E+00         0.20800E+07
 
    0.67036E+07         0.10078E+07         0.00000E+00
    0.10078E+07         0.24523E+07         0.00000E+00
    0.00000E+00         0.00000E+00         0.18312E+07
 
    0.51443E+07         0.17403E+07         0.00000E+00
    0.17403E+07         0.28351E+07         0.00000E+00
    0.00000E+00         0.00000E+00         0.15959E+07
 
    0.35142E+07         0.26972E+07         0.00000E+00
    0.26972E+07         0.33670E+07         0.00000E+00
    0.00000E+00         0.00000E+00         0.13763E+07
 
    0.18866E+07         0.39659E+07         0.00000E+00
    0.39659E+07         0.40092E+07         0.00000E+00
    0.00000E+00         0.00000E+00         0.11792E+07
 
    0.23285E+08        -0.51909E+06         0.00000E+00
   -0.51909E+06         0.12527E+07         0.00000E+00
    0.00000E+00         0.00000E+00         0.49075E+07
 
    0.21111E+08        -0.12557E+07         0.00000E+00
   -0.12557E+07         0.12826E+07         0.00000E+00
    0.00000E+00         0.00000E+00         0.44787E+07
 
    0.19006E+08        -0.16443E+07         0.00000E+00
   -0.16443E+07         0.12833E+07         0.00000E+00
    0.00000E+00         0.00000E+00         0.40578E+07
 
    0.17052E+08        -0.17720E+07         0.00000E+00
   -0.17720E+07         0.12283E+07         0.00000E+00
    0.00000E+00         0.00000E+00         0.36561E+07
 
    0.15273E+08        -0.17183E+07         0.00000E+00
   -0.17183E+07         0.11264E+07         0.00000E+00
    0.00000E+00         0.00000E+00         0.32798E+07
 
    0.13651E+08        -0.15387E+07         0.00000E+00
   -0.15387E+07         0.10025E+07         0.00000E+00
    0.00000E+00         0.00000E+00         0.29307E+07
 
    0.12156E+08        -0.12659E+07         0.00000E+00
   -0.12659E+07         0.88453E+06         0.00000E+00
    0.00000E+00         0.00000E+00         0.26081E+07
 
    0.10752E+08        -0.91591E+06         0.00000E+00
   -0.91591E+06         0.79792E+06         0.00000E+00
    0.00000E+00         0.00000E+00         0.23099E+07
 
    0.94035E+07        -0.49325E+06         0.00000E+00
   -0.49325E+06         0.76495E+06         0.00000E+00
    0.00000E+00         0.00000E+00         0.20337E+07
 
    0.80800E+07         0.69062E+04         0.00000E+00
    0.69062E+04         0.80547E+06         0.00000E+00
    0.00000E+00         0.00000E+00         0.17771E+07
 
    0.67531E+07         0.59877E+06         0.00000E+00
    0.59877E+06         0.93726E+06         0.00000E+00
    0.00000E+00         0.00000E+00         0.15381E+07
 
    0.54033E+07         0.13079E+07         0.00000E+00
    0.13079E+07         0.11749E+07         0.00000E+00
    0.00000E+00         0.00000E+00         0.13156E+07
 
    0.40262E+07         0.21729E+07         0.00000E+00
    0.21729E+07         0.15249E+07         0.00000E+00
    0.00000E+00         0.00000E+00         0.11102E+07
 
    0.26457E+07         0.32431E+07         0.00000E+00
    0.32431E+07         0.19769E+07         0.00000E+00
    0.00000E+00         0.00000E+00         0.92452E+06
 
    0.13251E+07         0.45655E+07         0.00000E+00
    0.45655E+07         0.24935E+07         0.00000E+00
    0.00000E+00         0.00000E+00         0.76373E+06
 
    0.20357E+08        -0.48801E+06         0.00000E+00
   -0.48801E+06        -0.75949E+06         0.00000E+00
    0.00000E+00         0.00000E+00         0.39194E+07
 
    0.18536E+08        -0.12151E+07         0.00000E+00
   -0.12151E+07        -0.71568E+06         0.00000E+00
    0.00000E+00         0.00000E+00         0.35640E+07
 
    0.16722E+08        -0.16388E+07         0.00000E+00
   -0.16388E+07        -0.67317E+06         0.00000E+00
    0.00000E+00         0.00000E+00         0.32098E+07
 
    0.14989E+08        -0.18125E+07         0.00000E+00
   -0.18125E+07        -0.65957E+06         0.00000E+00
    0.00000E+00         0.00000E+00         0.28660E+07
 
    0.13370E+08        -0.17920E+07         0.00000E+00
   -0.17920E+07        -0.67853E+06         0.00000E+00
    0.00000E+00         0.00000E+00         0.25383E+07
 
    0.11868E+08        -0.16229E+07         0.00000E+00
   -0.16229E+07        -0.71773E+06         0.00000E+00
    0.00000E+00         0.00000E+00         0.22300E+07
 
    0.10468E+08        -0.13363E+07         0.00000E+00
   -0.13363E+07        -0.75768E+06         0.00000E+00
    0.00000E+00         0.00000E+00         0.19420E+07
 
    0.91478E+07        -0.94991E+06         0.00000E+00
   -0.94991E+06        -0.77743E+06         0.00000E+00
    0.00000E+00         0.00000E+00         0.16741E+07
 
    0.78832E+07        -0.47067E+06         0.00000E+00
   -0.47067E+06        -0.75714E+06         0.00000E+00
    0.00000E+00         0.00000E+00         0.14252E+07
 
    0.66510E+07         0.10383E+06         0.00000E+00
    0.10383E+06        -0.67918E+06         0.00000E+00
    0.00000E+00         0.00000E+00         0.11944E+07
 
    0.54332E+07         0.78464E+06         0.00000E+00
    0.78464E+06        -0.52909E+06         0.00000E+00
    0.00000E+00         0.00000E+00         0.98082E+06
 
    0.42202E+07         0.15913E+07         0.00000E+00
    0.15913E+07        -0.29760E+06         0.00000E+00
    0.00000E+00         0.00000E+00         0.78453E+06
 
    0.30171E+07         0.25508E+07         0.00000E+00
    0.25508E+07         0.15738E+05         0.00000E+00
    0.00000E+00         0.00000E+00         0.60656E+06
 
    0.18496E+07         0.36931E+07         0.00000E+00
    0.36931E+07         0.39750E+06         0.00000E+00
    0.00000E+00         0.00000E+00         0.44943E+06
 
    0.76869E+06         0.50419E+07         0.00000E+00
    0.50419E+07         0.81695E+06         0.00000E+00
    0.00000E+00         0.00000E+00         0.31713E+06
 
    0.17479E+08        -0.45541E+06         0.00000E+00
   -0.45541E+06        -0.27700E+07         0.00000E+00
    0.00000E+00         0.00000E+00         0.29418E+07
 
    0.15958E+08        -0.11557E+07         0.00000E+00
   -0.11557E+07        -0.27198E+07         0.00000E+00
    0.00000E+00         0.00000E+00         0.26476E+07
 
    0.14409E+08        -0.15896E+07         0.00000E+00
   -0.15896E+07        -0.26545E+07         0.00000E+00
    0.00000E+00         0.00000E+00         0.23509E+07
 
    0.12895E+08        -0.17894E+07         0.00000E+00
   -0.17894E+07        -0.25993E+07         0.00000E+00
    0.00000E+00         0.00000E+00         0.20591E+07
 
    0.11449E+08        -0.17929E+07         0.00000E+00
   -0.17929E+07        -0.25628E+07         0.00000E+00
    0.00000E+00         0.00000E+00         0.17773E+07
 
    0.10087E+08        -0.16347E+07         0.00000E+00
   -0.16347E+07        -0.25408E+07         0.00000E+00
    0.00000E+00         0.00000E+00         0.15092E+07
 
    0.88031E+07        -0.13411E+07         0.00000E+00
   -0.13411E+07        -0.25211E+07         0.00000E+00
    0.00000E+00         0.00000E+00         0.12564E+07
 
    0.75871E+07        -0.92922E+06         0.00000E+00
   -0.92922E+06        -0.24883E+07         0.00000E+00
    0.00000E+00         0.00000E+00         0.10198E+07
 
    0.64235E+07        -0.40714E+06         0.00000E+00
   -0.40714E+06        -0.24264E+07         0.00000E+00
    0.00000E+00         0.00000E+00         0.79941E+06
 
    0.52975E+07         0.22493E+06         0.00000E+00
    0.22493E+06        -0.23212E+07         0.00000E+00
    0.00000E+00         0.00000E+00         0.59525E+06
 
    0.41985E+07         0.97387E+06         0.00000E+00
    0.97387E+06        -0.21617E+07         0.00000E+00
    0.00000E+00         0.00000E+00         0.40736E+06
 
    0.31238E+07         0.18525E+07         0.00000E+00
    0.18525E+07        -0.19423E+07         0.00000E+00
    0.00000E+00         0.00000E+00         0.23628E+06
 
    0.20819E+07         0.28775E+07         0.00000E+00
    0.28775E+07        -0.16654E+07         0.00000E+00
    0.00000E+00         0.00000E+00         0.83315E+05
 
    0.10967E+07         0.40651E+07         0.00000E+00
    0.40651E+07        -0.13435E+07         0.00000E+00
    0.00000E+00         0.00000E+00        -0.49360E+05
 
    0.20758E+06         0.54249E+07         0.00000E+00
    0.54249E+07        -0.10009E+07         0.00000E+00
    0.00000E+00         0.00000E+00        -0.15866E+06
 
    0.14657E+08        -0.42299E+06         0.00000E+00
   -0.42299E+06        -0.47787E+07         0.00000E+00
    0.00000E+00         0.00000E+00         0.19757E+07
 
    0.13395E+08        -0.10878E+07         0.00000E+00
   -0.10878E+07        -0.47267E+07         0.00000E+00
    0.00000E+00         0.00000E+00         0.17336E+07
 
    0.12086E+08        -0.15163E+07         0.00000E+00
   -0.15163E+07        -0.46507E+07         0.00000E+00
    0.00000E+00         0.00000E+00         0.14870E+07
 
    0.10782E+08        -0.17272E+07         0.00000E+00
   -0.17272E+07        -0.45723E+07         0.00000E+00
    0.00000E+00         0.00000E+00         0.12419E+07
 
    0.95160E+07        -0.17451E+07         0.00000E+00
   -0.17451E+07        -0.45018E+07         0.00000E+00
    0.00000E+00         0.00000E+00         0.10028E+07
 
    0.83054E+07        -0.15949E+07         0.00000E+00
   -0.15949E+07        -0.44397E+07         0.00000E+00
    0.00000E+00         0.00000E+00         0.77314E+06
 
    0.71542E+07        -0.12975E+07         0.00000E+00
   -0.12975E+07        -0.43792E+07         0.00000E+00
    0.00000E+00         0.00000E+00         0.55500E+06
 
    0.60584E+07        -0.86780E+06         0.00000E+00
   -0.86780E+06        -0.43098E+07         0.00000E+00
    0.00000E+00         0.00000E+00         0.34973E+06
 
    0.50102E+07        -0.31440E+06         0.00000E+00
   -0.31440E+06        -0.42197E+07         0.00000E+00
    0.00000E+00         0.00000E+00         0.15810E+06
 
    0.40016E+07         0.36031E+06         0.00000E+00
    0.36031E+06        -0.40983E+07         0.00000E+00
    0.00000E+00         0.00000E+00        -0.19340E+05
 
    0.30275E+07         0.11592E+07         0.00000E+00
    0.11592E+07        -0.39377E+07         0.00000E+00
    0.00000E+00         0.00000E+00        -0.18203E+06
 
    0.20891E+07         0.20890E+07         0.00000E+00
    0.20890E+07        -0.37347E+07         0.00000E+00
    0.00000E+00         0.00000E+00        -0.32911E+06
 
    0.11962E+07         0.31580E+07         0.00000E+00
    0.31580E+07        -0.34925E+07         0.00000E+00
    0.00000E+00         0.00000E+00        -0.45927E+06
 
    0.36875E+06         0.43731E+07         0.00000E+00
    0.43731E+07        -0.32220E+07         0.00000E+00
    0.00000E+00         0.00000E+00        -0.57065E+06
 
   -0.36290E+06         0.57348E+07         0.00000E+00
    0.57348E+07        -0.29415E+07         0.00000E+00
    0.00000E+00         0.00000E+00        -0.66089E+06
 
    0.11892E+08        -0.39200E+06         0.00000E+00
   -0.39200E+06        -0.67855E+07         0.00000E+00
    0.00000E+00         0.00000E+00         0.10214E+07
 
    0.10856E+08        -0.10178E+07         0.00000E+00
   -0.10178E+07        -0.67350E+07         0.00000E+00
    0.00000E+00         0.00000E+00         0.82429E+06
 
    0.97656E+07        -0.14320E+07         0.00000E+00
   -0.14320E+07        -0.66564E+07         0.00000E+00
    0.00000E+00         0.00000E+00         0.62185E+06
 
    0.86620E+07        -0.16438E+07         0.00000E+00
   -0.16438E+07        -0.65680E+07         0.00000E+00
    0.00000E+00         0.00000E+00         0.41881E+06
 
    0.75757E+07        -0.16682E+07         0.00000E+00
   -0.16682E+07        -0.64801E+07         0.00000E+00
    0.00000E+00         0.00000E+00         0.21913E+06
 
    0.65246E+07        -0.15225E+07         0.00000E+00
   -0.15225E+07        -0.63955E+07         0.00000E+00
    0.00000E+00         0.00000E+00         0.25823E+05
 
    0.55167E+07        -0.12223E+07         0.00000E+00
   -0.12223E+07        -0.63111E+07         0.00000E+00
    0.00000E+00         0.00000E+00        -0.15889E+06
 
    0.45531E+07        -0.78030E+06         0.00000E+00
   -0.78030E+06        -0.62204E+07         0.00000E+00
    0.00000E+00         0.00000E+00        -0.33345E+06
 
    0.36313E+07        -0.20468E+06         0.00000E+00
   -0.20468E+06        -0.61152E+07         0.00000E+00
    0.00000E+00         0.00000E+00        -0.49678E+06
 
    0.27481E+07         0.50042E+06         0.00000E+00
    0.50042E+06        -0.59881E+07         0.00000E+00
    0.00000E+00         0.00000E+00        -0.64799E+06
 
    0.19024E+07         0.13345E+07         0.00000E+00
    0.13345E+07        -0.58338E+07         0.00000E+00
    0.00000E+00         0.00000E+00        -0.78627E+06
 
    0.10974E+07         0.22992E+07         0.00000E+00
    0.22992E+07        -0.56506E+07         0.00000E+00
    0.00000E+00         0.00000E+00        -0.91063E+06
 
    0.34260E+06         0.33969E+07         0.00000E+00
    0.33969E+07        -0.54418E+07         0.00000E+00
    0.00000E+00         0.00000E+00        -0.10198E+07
 
   -0.34571E+06         0.46274E+07         0.00000E+00
    0.46274E+07        -0.52161E+07         0.00000E+00
    0.00000E+00         0.00000E+00        -0.11124E+07
 
   -0.94463E+06         0.59859E+07         0.00000E+00
    0.59859E+07        -0.49873E+07         0.00000E+00
    0.00000E+00         0.00000E+00        -0.11864E+07
 
    0.91821E+07        -0.36348E+06         0.00000E+00
   -0.36348E+06        -0.87904E+07         0.00000E+00
    0.00000E+00         0.00000E+00         0.78346E+05
 
    0.83474E+07        -0.95055E+06         0.00000E+00
   -0.95055E+06        -0.87438E+07         0.00000E+00
    0.00000E+00         0.00000E+00        -0.79287E+05
 
    0.74560E+07        -0.13460E+07         0.00000E+00
   -0.13460E+07        -0.86686E+07         0.00000E+00
    0.00000E+00         0.00000E+00        -0.24250E+06
 
    0.65429E+07        -0.15524E+07         0.00000E+00
   -0.15524E+07        -0.85799E+07         0.00000E+00
    0.00000E+00         0.00000E+00        -0.40741E+06
 
    0.56337E+07        -0.15778E+07         0.00000E+00
   -0.15778E+07        -0.84872E+07         0.00000E+00
    0.00000E+00         0.00000E+00        -0.57071E+06
 
    0.47455E+07        -0.14335E+07         0.00000E+00
   -0.14335E+07        -0.83943E+07         0.00000E+00
    0.00000E+00         0.00000E+00        -0.72976E+06
 
    0.38878E+07        -0.11310E+07         0.00000E+00
   -0.11310E+07        -0.83004E+07         0.00000E+00
    0.00000E+00         0.00000E+00        -0.88251E+06
 
    0.30648E+07        -0.68032E+06         0.00000E+00
   -0.68032E+06        -0.82017E+07         0.00000E+00
    0.00000E+00         0.00000E+00        -0.10274E+07
 
    0.22771E+07        -0.89356E+05         0.00000E+00
   -0.89356E+05        -0.80932E+07         0.00000E+00
    0.00000E+00         0.00000E+00        -0.11632E+07
 
    0.15249E+07         0.63663E+06         0.00000E+00
    0.63663E+06        -0.79698E+07         0.00000E+00
    0.00000E+00         0.00000E+00        -0.12890E+07
 
    0.80935E+06         0.14945E+07         0.00000E+00
    0.14945E+07        -0.78282E+07         0.00000E+00
    0.00000E+00         0.00000E+00        -0.14038E+07
 
    0.13467E+06         0.24822E+07         0.00000E+00
    0.24822E+07        -0.76678E+07         0.00000E+00
    0.00000E+00         0.00000E+00        -0.15066E+07
 
   -0.49075E+06         0.35975E+07         0.00000E+00
    0.35975E+07        -0.74914E+07         0.00000E+00
    0.00000E+00         0.00000E+00        -0.15964E+07
 
   -0.10539E+07         0.48358E+07         0.00000E+00
    0.48358E+07        -0.73059E+07         0.00000E+00
    0.00000E+00         0.00000E+00        -0.16720E+07
 
   -0.15379E+07         0.61883E+07         0.00000E+00
    0.61883E+07        -0.71213E+07         0.00000E+00
    0.00000E+00         0.00000E+00        -0.17318E+07
 
    0.65224E+07        -0.33828E+06         0.00000E+00
   -0.33828E+06        -0.10793E+08         0.00000E+00
    0.00000E+00         0.00000E+00        -0.85421E+06
 
    0.58682E+07        -0.88946E+06         0.00000E+00
   -0.88946E+06        -0.10753E+08         0.00000E+00
    0.00000E+00         0.00000E+00        -0.97690E+06
 
    0.51611E+07        -0.12651E+07         0.00000E+00
   -0.12651E+07        -0.10685E+08         0.00000E+00
    0.00000E+00         0.00000E+00        -0.11048E+07
 
    0.44291E+07        -0.14629E+07         0.00000E+00
   -0.14629E+07        -0.10604E+08         0.00000E+00
    0.00000E+00         0.00000E+00        -0.12349E+07
 
    0.36934E+07        -0.14860E+07         0.00000E+00
   -0.14860E+07        -0.10516E+08         0.00000E+00
    0.00000E+00         0.00000E+00        -0.13645E+07
 
    0.29691E+07        -0.13411E+07         0.00000E+00
   -0.13411E+07        -0.10426E+08         0.00000E+00
    0.00000E+00         0.00000E+00        -0.14913E+07
 
    0.22658E+07        -0.10362E+07         0.00000E+00
   -0.10362E+07        -0.10334E+08         0.00000E+00
    0.00000E+00         0.00000E+00        -0.16136E+07
 
    0.15886E+07        -0.57955E+06         0.00000E+00
   -0.57955E+06        -0.10238E+08         0.00000E+00
    0.00000E+00         0.00000E+00        -0.17299E+07
 
    0.94034E+06         0.21686E+05         0.00000E+00
    0.21686E+05        -0.10136E+08         0.00000E+00
    0.00000E+00         0.00000E+00        -0.18392E+07
 
    0.32265E+06         0.76148E+06         0.00000E+00
    0.76148E+06        -0.10024E+08         0.00000E+00
    0.00000E+00         0.00000E+00        -0.19404E+07
 
   -0.26198E+06         0.16348E+07         0.00000E+00
    0.16348E+07        -0.99011E+07         0.00000E+00
    0.00000E+00         0.00000E+00        -0.20326E+07
 
   -0.80922E+06         0.26369E+07         0.00000E+00
    0.26369E+07        -0.97660E+07         0.00000E+00
    0.00000E+00         0.00000E+00        -0.21150E+07
 
   -0.13120E+07         0.37623E+07         0.00000E+00
    0.37623E+07        -0.96217E+07         0.00000E+00
    0.00000E+00         0.00000E+00        -0.21867E+07
 
   -0.17603E+07         0.50033E+07         0.00000E+00
    0.50033E+07        -0.94732E+07         0.00000E+00
    0.00000E+00         0.00000E+00        -0.22467E+07
 
   -0.21418E+07         0.63489E+07         0.00000E+00
    0.63489E+07        -0.93277E+07         0.00000E+00
    0.00000E+00         0.00000E+00        -0.22939E+07
 
    0.39068E+07        -0.31714E+06         0.00000E+00
   -0.31714E+06        -0.12795E+08         0.00000E+00
    0.00000E+00         0.00000E+00        -0.17776E+07
 
    0.34170E+07        -0.83725E+06         0.00000E+00
   -0.83725E+06        -0.12761E+08         0.00000E+00
    0.00000E+00         0.00000E+00        -0.18688E+07
 
    0.28819E+07        -0.11944E+07         0.00000E+00
   -0.11944E+07        -0.12705E+08         0.00000E+00
    0.00000E+00         0.00000E+00        -0.19646E+07
 
    0.23229E+07        -0.13828E+07         0.00000E+00
   -0.13828E+07        -0.12636E+08         0.00000E+00
    0.00000E+00         0.00000E+00        -0.20626E+07
 
    0.17569E+07        -0.14020E+07         0.00000E+00
   -0.14020E+07        -0.12560E+08         0.00000E+00
    0.00000E+00         0.00000E+00        -0.21606E+07
 
    0.11963E+07        -0.12553E+07         0.00000E+00
   -0.12553E+07        -0.12481E+08         0.00000E+00
    0.00000E+00         0.00000E+00        -0.22570E+07
 
    0.64932E+06        -0.94832E+06         0.00000E+00
   -0.94832E+06        -0.12400E+08         0.00000E+00
    0.00000E+00         0.00000E+00        -0.23502E+07
 
    0.12134E+06        -0.48756E+06         0.00000E+00
   -0.48756E+06        -0.12317E+08         0.00000E+00
    0.00000E+00         0.00000E+00        -0.24391E+07
 
   -0.38441E+06         0.12030E+06         0.00000E+00
    0.12030E+06        -0.12229E+08         0.00000E+00
    0.00000E+00         0.00000E+00        -0.25227E+07
 
   -0.86545E+06         0.86881E+06         0.00000E+00
    0.86881E+06        -0.12135E+08         0.00000E+00
    0.00000E+00         0.00000E+00        -0.26002E+07
 
   -0.13190E+07         0.17517E+07         0.00000E+00
    0.17517E+07        -0.12035E+08         0.00000E+00
    0.00000E+00         0.00000E+00        -0.26708E+07
 
   -0.17412E+07         0.27622E+07         0.00000E+00
    0.27622E+07        -0.11927E+08         0.00000E+00
    0.00000E+00         0.00000E+00        -0.27337E+07
 
   -0.21265E+07         0.38928E+07         0.00000E+00
    0.38928E+07        -0.11815E+08         0.00000E+00
    0.00000E+00         0.00000E+00        -0.27883E+07
 
   -0.24673E+07         0.51337E+07         0.00000E+00
    0.51337E+07        -0.11701E+08         0.00000E+00
    0.00000E+00         0.00000E+00        -0.28337E+07
 
   -0.27551E+07         0.64725E+07         0.00000E+00
    0.64725E+07        -0.11591E+08         0.00000E+00
    0.00000E+00         0.00000E+00        -0.28693E+07
 
    0.13276E+07        -0.30062E+06         0.00000E+00
   -0.30062E+06        -0.14794E+08         0.00000E+00
    0.00000E+00         0.00000E+00        -0.26933E+07
 
    0.98991E+06        -0.79599E+06         0.00000E+00
   -0.79599E+06        -0.14769E+08         0.00000E+00
    0.00000E+00         0.00000E+00        -0.27558E+07
 
    0.61728E+06        -0.11377E+07         0.00000E+00
   -0.11377E+07        -0.14727E+08         0.00000E+00
    0.00000E+00         0.00000E+00        -0.28219E+07
 
    0.22495E+06        -0.13176E+07         0.00000E+00
   -0.13176E+07        -0.14674E+08         0.00000E+00
    0.00000E+00         0.00000E+00        -0.28898E+07
 
   -0.17486E+06        -0.13327E+07         0.00000E+00
   -0.13327E+07        -0.14615E+08         0.00000E+00
    0.00000E+00         0.00000E+00        -0.29581E+07
 
   -0.57290E+06        -0.11839E+07         0.00000E+00
   -0.11839E+07        -0.14554E+08         0.00000E+00
    0.00000E+00         0.00000E+00        -0.30254E+07
 
   -0.96265E+06        -0.87519E+06         0.00000E+00
   -0.87519E+06        -0.14491E+08         0.00000E+00
    0.00000E+00         0.00000E+00        -0.30907E+07
 
   -0.13397E+07        -0.41177E+06         0.00000E+00
   -0.41177E+06        -0.14426E+08         0.00000E+00
    0.00000E+00         0.00000E+00        -0.31532E+07
 
   -0.17010E+07         0.20013E+06         0.00000E+00
    0.20013E+06        -0.14359E+08         0.00000E+00
    0.00000E+00         0.00000E+00        -0.32119E+07
 
   -0.20442E+07         0.95380E+06         0.00000E+00
    0.95380E+06        -0.14288E+08         0.00000E+00
    0.00000E+00         0.00000E+00        -0.32664E+07
 
   -0.23670E+07         0.18421E+07         0.00000E+00
    0.18421E+07        -0.14213E+08         0.00000E+00
    0.00000E+00         0.00000E+00        -0.33160E+07
 
   -0.26660E+07         0.28572E+07         0.00000E+00
    0.28572E+07        -0.14135E+08         0.00000E+00
    0.00000E+00         0.00000E+00        -0.33602E+07
 
   -0.29374E+07         0.39899E+07         0.00000E+00
    0.39899E+07        -0.14055E+08         0.00000E+00
    0.00000E+00         0.00000E+00        -0.33984E+07
 
   -0.31759E+07         0.52294E+07         0.00000E+00
    0.52294E+07        -0.13975E+08         0.00000E+00
    0.00000E+00         0.00000E+00        -0.34301E+07
 
   -0.33758E+07         0.65622E+07         0.00000E+00
    0.65622E+07        -0.13898E+08         0.00000E+00
    0.00000E+00         0.00000E+00        -0.34548E+07
 
   -0.12242E+07        -0.28918E+06         0.00000E+00
   -0.28918E+06        -0.16792E+08         0.00000E+00
    0.00000E+00         0.00000E+00        -0.36032E+07
 
   -0.14183E+07        -0.76717E+06         0.00000E+00
   -0.76717E+06        -0.16776E+08         0.00000E+00
    0.00000E+00         0.00000E+00        -0.36389E+07
 
   -0.16353E+07        -0.10978E+07         0.00000E+00
   -0.10978E+07        -0.16749E+08         0.00000E+00
    0.00000E+00         0.00000E+00        -0.36769E+07
 
   -0.18658E+07        -0.12712E+07         0.00000E+00
   -0.12712E+07        -0.16716E+08         0.00000E+00
    0.00000E+00         0.00000E+00        -0.37163E+07
 
   -0.21022E+07        -0.12829E+07         0.00000E+00
   -0.12829E+07        -0.16678E+08         0.00000E+00
    0.00000E+00         0.00000E+00        -0.37560E+07
 
   -0.23387E+07        -0.11325E+07         0.00000E+00
   -0.11325E+07        -0.16638E+08         0.00000E+00
    0.00000E+00         0.00000E+00        -0.37954E+07
 
   -0.25711E+07        -0.82251E+06         0.00000E+00
   -0.82251E+06        -0.16598E+08         0.00000E+00
    0.00000E+00         0.00000E+00        -0.38337E+07
 
   -0.27963E+07        -0.35755E+06         0.00000E+00
   -0.35755E+06        -0.16556E+08         0.00000E+00
    0.00000E+00         0.00000E+00        -0.38704E+07
 
   -0.30122E+07         0.25650E+06         0.00000E+00
    0.25650E+06        -0.16513E+08         0.00000E+00
    0.00000E+00         0.00000E+00        -0.39050E+07
 
   -0.32171E+07         0.10129E+07         0.00000E+00
    0.10129E+07        -0.16469E+08         0.00000E+00
    0.00000E+00         0.00000E+00        -0.39371E+07
 
   -0.34093E+07         0.19039E+07         0.00000E+00
    0.19039E+07        -0.16422E+08         0.00000E+00
    0.00000E+00         0.00000E+00        -0.39663E+07
 
   -0.35866E+07         0.29210E+07         0.00000E+00
    0.29210E+07        -0.16375E+08         0.00000E+00
    0.00000E+00         0.00000E+00        -0.39923E+07
 
   -0.37466E+07         0.40542E+07         0.00000E+00
    0.40542E+07        -0.16327E+08         0.00000E+00
    0.00000E+00         0.00000E+00        -0.40147E+07
 
   -0.38861E+07         0.52918E+07         0.00000E+00
    0.52918E+07        -0.16280E+08         0.00000E+00
    0.00000E+00         0.00000E+00        -0.40331E+07
 
   -0.40020E+07         0.66199E+07         0.00000E+00
    0.66199E+07        -0.16235E+08         0.00000E+00
    0.00000E+00         0.00000E+00        -0.40474E+07
 
   -0.37580E+07        -0.28310E+06         0.00000E+00
   -0.28310E+06        -0.18788E+08         0.00000E+00
    0.00000E+00         0.00000E+00        -0.45092E+07
 
   -0.38140E+07        -0.75177E+06         0.00000E+00
   -0.75177E+06        -0.18782E+08         0.00000E+00
    0.00000E+00         0.00000E+00        -0.45192E+07
 
   -0.38795E+07        -0.10763E+07         0.00000E+00
   -0.10763E+07        -0.18772E+08         0.00000E+00
    0.00000E+00         0.00000E+00        -0.45302E+07
 
   -0.39511E+07        -0.12461E+07         0.00000E+00
   -0.12461E+07        -0.18759E+08         0.00000E+00
    0.00000E+00         0.00000E+00        -0.45420E+07
 
   -0.40260E+07        -0.12559E+07         0.00000E+00
   -0.12559E+07        -0.18744E+08         0.00000E+00
    0.00000E+00         0.00000E+00        -0.45540E+07
 
   -0.41018E+07        -0.11045E+07         0.00000E+00
   -0.11045E+07        -0.18729E+08         0.00000E+00
    0.00000E+00         0.00000E+00        -0.45661E+07
 
   -0.41769E+07        -0.79395E+06         0.00000E+00
   -0.79395E+06        -0.18713E+08         0.00000E+00
    0.00000E+00         0.00000E+00        -0.45780E+07
 
   -0.42500E+07        -0.32842E+06         0.00000E+00
   -0.32842E+06        -0.18697E+08         0.00000E+00
    0.00000E+00         0.00000E+00        -0.45894E+07
 
   -0.43201E+07         0.28639E+06         0.00000E+00
    0.28639E+06        -0.18681E+08         0.00000E+00
    0.00000E+00         0.00000E+00        -0.46003E+07
 
   -0.43865E+07         0.10436E+07         0.00000E+00
    0.10436E+07        -0.18665E+08         0.00000E+00
    0.00000E+00         0.00000E+00        -0.46103E+07
 
   -0.44484E+07         0.19355E+07         0.00000E+00
    0.19355E+07        -0.18649E+08         0.00000E+00
    0.00000E+00         0.00000E+00        -0.46194E+07
 
   -0.45048E+07         0.29530E+07         0.00000E+00
    0.29530E+07        -0.18633E+08         0.00000E+00
    0.00000E+00         0.00000E+00        -0.46275E+07
 
   -0.45549E+07         0.40857E+07         0.00000E+00
    0.40857E+07        -0.18617E+08         0.00000E+00
    0.00000E+00         0.00000E+00        -0.46344E+07
 
   -0.45974E+07         0.53218E+07         0.00000E+00
    0.53218E+07        -0.18602E+08         0.00000E+00
    0.00000E+00         0.00000E+00        -0.46399E+07
 
   -0.46312E+07         0.66470E+07         0.00000E+00
    0.66470E+07        -0.18589E+08         0.00000E+00
    0.00000E+00         0.00000E+00        -0.46441E+07
 
   -0.62842E+07        -0.28253E+06         0.00000E+00
   -0.28253E+06        -0.20783E+08         0.00000E+00
    0.00000E+00         0.00000E+00        -0.54133E+07
 
   -0.62039E+07        -0.75028E+06         0.00000E+00
   -0.75028E+06        -0.20786E+08         0.00000E+00
    0.00000E+00         0.00000E+00        -0.53981E+07
 
   -0.61195E+07        -0.10742E+07         0.00000E+00
   -0.10742E+07        -0.20793E+08         0.00000E+00
    0.00000E+00         0.00000E+00        -0.53825E+07
 
   -0.60334E+07        -0.12435E+07         0.00000E+00
   -0.12435E+07        -0.20801E+08         0.00000E+00
    0.00000E+00         0.00000E+00        -0.53669E+07
 
   -0.59474E+07        -0.12531E+07         0.00000E+00
   -0.12531E+07        -0.20810E+08         0.00000E+00
    0.00000E+00         0.00000E+00        -0.53516E+07
 
   -0.58630E+07        -0.11017E+07         0.00000E+00
   -0.11017E+07        -0.20820E+08         0.00000E+00
    0.00000E+00         0.00000E+00        -0.53366E+07
 
   -0.57809E+07        -0.79134E+06         0.00000E+00
   -0.79134E+06        -0.20830E+08         0.00000E+00
    0.00000E+00         0.00000E+00        -0.53223E+07
 
   -0.57019E+07        -0.32611E+06         0.00000E+00
   -0.32611E+06        -0.20841E+08         0.00000E+00
    0.00000E+00         0.00000E+00        -0.53086E+07
 
   -0.56263E+07         0.28827E+06         0.00000E+00
    0.28827E+06        -0.20853E+08         0.00000E+00
    0.00000E+00         0.00000E+00        -0.52959E+07
 
   -0.55542E+07         0.10450E+07         0.00000E+00
    0.10450E+07        -0.20866E+08         0.00000E+00
    0.00000E+00         0.00000E+00        -0.52840E+07
 
   -0.54859E+07         0.19361E+07         0.00000E+00
    0.19361E+07        -0.20880E+08         0.00000E+00
    0.00000E+00         0.00000E+00        -0.52732E+07
 
   -0.54219E+07         0.29528E+07         0.00000E+00
    0.29528E+07        -0.20896E+08         0.00000E+00
    0.00000E+00         0.00000E+00        -0.52635E+07
 
   -0.53626E+07         0.40847E+07         0.00000E+00
    0.40847E+07        -0.20912E+08         0.00000E+00
    0.00000E+00         0.00000E+00        -0.52550E+07
 
   -0.53088E+07         0.53198E+07         0.00000E+00
    0.53198E+07        -0.20930E+08         0.00000E+00
    0.00000E+00         0.00000E+00        -0.52478E+07
 
   -0.52613E+07         0.66439E+07         0.00000E+00
    0.66439E+07        -0.20948E+08         0.00000E+00
    0.00000E+00         0.00000E+00        -0.52419E+07
 
   -0.88129E+07        -0.28748E+06         0.00000E+00
   -0.28748E+06        -0.22776E+08         0.00000E+00
    0.00000E+00         0.00000E+00        -0.63177E+07
 
   -0.85950E+07        -0.76271E+06         0.00000E+00
   -0.76271E+06        -0.22789E+08         0.00000E+00
    0.00000E+00         0.00000E+00        -0.62769E+07
 
   -0.83596E+07        -0.10914E+07         0.00000E+00
   -0.10914E+07        -0.22812E+08         0.00000E+00
    0.00000E+00         0.00000E+00        -0.62344E+07
 
   -0.81151E+07        -0.12636E+07         0.00000E+00
   -0.12636E+07        -0.22841E+08         0.00000E+00
    0.00000E+00         0.00000E+00        -0.61913E+07
 
   -0.78680E+07        -0.12747E+07         0.00000E+00
   -0.12747E+07        -0.22874E+08         0.00000E+00
    0.00000E+00         0.00000E+00        -0.61483E+07
 
   -0.76232E+07        -0.11242E+07         0.00000E+00
   -0.11242E+07        -0.22908E+08         0.00000E+00
    0.00000E+00         0.00000E+00        -0.61062E+07
 
   -0.73842E+07        -0.81472E+06         0.00000E+00
   -0.81472E+06        -0.22943E+08         0.00000E+00
    0.00000E+00         0.00000E+00        -0.60655E+07
 
   -0.71534E+07        -0.35066E+06         0.00000E+00
   -0.35066E+06        -0.22980E+08         0.00000E+00
    0.00000E+00         0.00000E+00        -0.60267E+07
 
   -0.69322E+07         0.26212E+06         0.00000E+00
    0.26212E+06        -0.23019E+08         0.00000E+00
    0.00000E+00         0.00000E+00        -0.59902E+07
 
   -0.67218E+07         0.10168E+07         0.00000E+00
    0.10168E+07        -0.23060E+08         0.00000E+00
    0.00000E+00         0.00000E+00        -0.59564E+07
 
   -0.65235E+07         0.19059E+07         0.00000E+00
    0.19059E+07        -0.23104E+08         0.00000E+00
    0.00000E+00         0.00000E+00        -0.59255E+07
 
   -0.63388E+07         0.29206E+07         0.00000E+00
    0.29206E+07        -0.23151E+08         0.00000E+00
    0.00000E+00         0.00000E+00        -0.58980E+07
 
   -0.61698E+07         0.40512E+07         0.00000E+00
    0.40512E+07        -0.23200E+08         0.00000E+00
    0.00000E+00         0.00000E+00        -0.58740E+07
 
   -0.60192E+07         0.52859E+07         0.00000E+00
    0.52859E+07        -0.23250E+08         0.00000E+00
    0.00000E+00         0.00000E+00        -0.58539E+07
 
   -0.58899E+07         0.66108E+07         0.00000E+00
    0.66108E+07        -0.23300E+08         0.00000E+00
    0.00000E+00         0.00000E+00        -0.58379E+07
 
   -0.11354E+08        -0.29780E+06         0.00000E+00
   -0.29780E+06        -0.24767E+08         0.00000E+00
    0.00000E+00         0.00000E+00        -0.72243E+07
 
   -0.10994E+08        -0.78859E+06         0.00000E+00
   -0.78859E+06        -0.24790E+08         0.00000E+00
    0.00000E+00         0.00000E+00        -0.71569E+07
 
   -0.10604E+08        -0.11271E+07         0.00000E+00
   -0.11271E+07        -0.24829E+08         0.00000E+00
    0.00000E+00         0.00000E+00        -0.70866E+07
 
   -0.10199E+08        -0.13050E+07         0.00000E+00
   -0.13050E+07        -0.24877E+08         0.00000E+00
    0.00000E+00         0.00000E+00        -0.70152E+07
 
   -0.97890E+07        -0.13191E+07         0.00000E+00
   -0.13191E+07        -0.24931E+08         0.00000E+00
    0.00000E+00         0.00000E+00        -0.69439E+07
 
   -0.93833E+07        -0.11703E+07         0.00000E+00
   -0.11703E+07        -0.24987E+08         0.00000E+00
    0.00000E+00         0.00000E+00        -0.68740E+07
 
   -0.89876E+07        -0.86237E+06         0.00000E+00
   -0.86237E+06        -0.25045E+08         0.00000E+00
    0.00000E+00         0.00000E+00        -0.68064E+07
 
   -0.86055E+07        -0.40041E+06         0.00000E+00
   -0.40041E+06        -0.25105E+08         0.00000E+00
    0.00000E+00         0.00000E+00        -0.67420E+07
 
   -0.82394E+07         0.20937E+06         0.00000E+00
    0.20937E+06        -0.25168E+08         0.00000E+00
    0.00000E+00         0.00000E+00        -0.66815E+07
 
   -0.78912E+07         0.96035E+06         0.00000E+00
    0.96035E+06        -0.25236E+08         0.00000E+00
    0.00000E+00         0.00000E+00        -0.66254E+07
 
   -0.75628E+07         0.18454E+07         0.00000E+00
    0.18454E+07        -0.25308E+08         0.00000E+00
    0.00000E+00         0.00000E+00        -0.65743E+07
 
   -0.72568E+07         0.28567E+07         0.00000E+00
    0.28567E+07        -0.25386E+08         0.00000E+00
    0.00000E+00         0.00000E+00        -0.65286E+07
 
   -0.69769E+07         0.39851E+07         0.00000E+00
    0.39851E+07        -0.25467E+08         0.00000E+00
    0.00000E+00         0.00000E+00        -0.64889E+07
 
   -0.67276E+07         0.52196E+07         0.00000E+00
    0.52196E+07        -0.25550E+08         0.00000E+00
    0.00000E+00         0.00000E+00        -0.64556E+07
 
   -0.65146E+07         0.65470E+07         0.00000E+00
    0.65470E+07        -0.25631E+08         0.00000E+00
    0.00000E+00         0.00000E+00        -0.64292E+07
 
   -0.13918E+08        -0.31320E+06         0.00000E+00
   -0.31320E+06        -0.26758E+08         0.00000E+00
    0.00000E+00         0.00000E+00        -0.81352E+07
 
   -0.13408E+08        -0.82697E+06         0.00000E+00
   -0.82697E+06        -0.26789E+08         0.00000E+00
    0.00000E+00         0.00000E+00        -0.80394E+07
 
   -0.12857E+08        -0.11797E+07         0.00000E+00
   -0.11797E+07        -0.26842E+08         0.00000E+00
    0.00000E+00         0.00000E+00        -0.79397E+07
 
   -0.12286E+08        -0.13653E+07         0.00000E+00
   -0.13653E+07        -0.26907E+08         0.00000E+00
    0.00000E+00         0.00000E+00        -0.78385E+07
 
   -0.11711E+08        -0.13833E+07         0.00000E+00
   -0.13833E+07        -0.26978E+08         0.00000E+00
    0.00000E+00         0.00000E+00        -0.77378E+07
 
   -0.11144E+08        -0.12366E+07         0.00000E+00
   -0.12366E+07        -0.27051E+08         0.00000E+00
    0.00000E+00         0.00000E+00        -0.76391E+07
 
   -0.10592E+08        -0.93068E+06         0.00000E+00
   -0.93068E+06        -0.27127E+08         0.00000E+00
    0.00000E+00         0.00000E+00        -0.75439E+07
 
   -0.10060E+08        -0.47195E+06         0.00000E+00
   -0.47195E+06        -0.27206E+08         0.00000E+00
    0.00000E+00         0.00000E+00        -0.74532E+07
 
   -0.95500E+07         0.13302E+06         0.00000E+00
    0.13302E+06        -0.27290E+08         0.00000E+00
    0.00000E+00         0.00000E+00        -0.73681E+07
 
   -0.90647E+07         0.87784E+06         0.00000E+00
    0.87784E+06        -0.27381E+08         0.00000E+00
    0.00000E+00         0.00000E+00        -0.72892E+07
 
   -0.86061E+07         0.17562E+07         0.00000E+00
    0.17562E+07        -0.27480E+08         0.00000E+00
    0.00000E+00         0.00000E+00        -0.72172E+07
 
   -0.81776E+07         0.27615E+07         0.00000E+00
    0.27615E+07        -0.27587E+08         0.00000E+00
    0.00000E+00         0.00000E+00        -0.71529E+07
 
   -0.77845E+07         0.38861E+07         0.00000E+00
    0.38861E+07        -0.27700E+08         0.00000E+00
    0.00000E+00         0.00000E+00        -0.70970E+07
 
   -0.74336E+07         0.51202E+07         0.00000E+00
    0.51202E+07        -0.27817E+08         0.00000E+00
    0.00000E+00         0.00000E+00        -0.70500E+07
 
   -0.71332E+07         0.64515E+07         0.00000E+00
    0.64515E+07        -0.27931E+08         0.00000E+00
    0.00000E+00         0.00000E+00        -0.70128E+07
 
   -0.16514E+08        -0.33326E+06         0.00000E+00
   -0.33326E+06        -0.28747E+08         0.00000E+00
    0.00000E+00         0.00000E+00        -0.90521E+07
 
   -0.15841E+08        -0.87638E+06         0.00000E+00
   -0.87638E+06        -0.28786E+08         0.00000E+00
    0.00000E+00         0.00000E+00        -0.89253E+07
 
   -0.15120E+08        -0.12465E+07         0.00000E+00
   -0.12465E+07        -0.28850E+08         0.00000E+00
    0.00000E+00         0.00000E+00        -0.87940E+07
 
   -0.14378E+08        -0.14408E+07         0.00000E+00
   -0.14408E+07        -0.28927E+08         0.00000E+00
    0.00000E+00         0.00000E+00        -0.86611E+07
 
   -0.13635E+08        -0.14624E+07         0.00000E+00
   -0.14624E+07        -0.29011E+08         0.00000E+00
    0.00000E+00         0.00000E+00        -0.85292E+07
 
   -0.12906E+08        -0.13175E+07         0.00000E+00
   -0.13175E+07        -0.29096E+08         0.00000E+00
    0.00000E+00         0.00000E+00        -0.84004E+07
 
   -0.12199E+08        -0.10141E+07         0.00000E+00
   -0.10141E+07        -0.29184E+08         0.00000E+00
    0.00000E+00         0.00000E+00        -0.82765E+07
 
   -0.11518E+08        -0.56000E+06         0.00000E+00
   -0.56000E+06        -0.29275E+08         0.00000E+00
    0.00000E+00         0.00000E+00        -0.81587E+07
 
   -0.10867E+08         0.37620E+05         0.00000E+00
    0.37620E+05        -0.29374E+08         0.00000E+00
    0.00000E+00         0.00000E+00        -0.80481E+07
 
   -0.10246E+08         0.77281E+06         0.00000E+00
    0.77281E+06        -0.29483E+08         0.00000E+00
    0.00000E+00         0.00000E+00        -0.79457E+07
 
   -0.96569E+07         0.16406E+07         0.00000E+00
    0.16406E+07        -0.29605E+08         0.00000E+00
    0.00000E+00         0.00000E+00        -0.78523E+07
 
   -0.91043E+07         0.26361E+07         0.00000E+00
    0.26361E+07        -0.29739E+08         0.00000E+00
    0.00000E+00         0.00000E+00        -0.77687E+07
 
   -0.85945E+07         0.37539E+07         0.00000E+00
    0.37539E+07        -0.29884E+08         0.00000E+00
    0.00000E+00         0.00000E+00        -0.76958E+07
 
   -0.81370E+07         0.49863E+07         0.00000E+00
    0.49863E+07        -0.30035E+08         0.00000E+00
    0.00000E+00         0.00000E+00        -0.76345E+07
 
   -0.77437E+07         0.63224E+07         0.00000E+00
    0.63224E+07        -0.30185E+08         0.00000E+00
    0.00000E+00         0.00000E+00        -0.75858E+07
 
   -0.19148E+08        -0.35740E+06         0.00000E+00
   -0.35740E+06        -0.30735E+08         0.00000E+00
    0.00000E+00         0.00000E+00        -0.99767E+07
 
   -0.18298E+08        -0.93480E+06         0.00000E+00
   -0.93480E+06        -0.30780E+08         0.00000E+00
    0.00000E+00         0.00000E+00        -0.98156E+07
 
   -0.17395E+08        -0.13237E+07         0.00000E+00
   -0.13237E+07        -0.30852E+08         0.00000E+00
    0.00000E+00         0.00000E+00        -0.96495E+07
 
   -0.16475E+08        -0.15261E+07         0.00000E+00
   -0.15261E+07        -0.30937E+08         0.00000E+00
    0.00000E+00         0.00000E+00        -0.94823E+07
 
   -0.15560E+08        -0.15498E+07         0.00000E+00
   -0.15498E+07        -0.31026E+08         0.00000E+00
    0.00000E+00         0.00000E+00        -0.93172E+07
 
   -0.14668E+08        -0.14057E+07         0.00000E+00
   -0.14057E+07        -0.31115E+08         0.00000E+00
    0.00000E+00         0.00000E+00        -0.91566E+07
 
   -0.13808E+08        -0.11049E+07         0.00000E+00
   -0.11049E+07        -0.31205E+08         0.00000E+00
    0.00000E+00         0.00000E+00        -0.90026E+07
 
   -0.12983E+08        -0.65727E+06         0.00000E+00
   -0.65727E+06        -0.31300E+08         0.00000E+00
    0.00000E+00         0.00000E+00        -0.88566E+07
 
   -0.12193E+08        -0.70564E+05         0.00000E+00
   -0.70564E+05        -0.31406E+08         0.00000E+00
    0.00000E+00         0.00000E+00        -0.87198E+07
 
   -0.11439E+08         0.65003E+06         0.00000E+00
    0.65003E+06        -0.31527E+08         0.00000E+00
    0.00000E+00         0.00000E+00        -0.85931E+07
 
   -0.10720E+08         0.15014E+07         0.00000E+00
    0.15014E+07        -0.31667E+08         0.00000E+00
    0.00000E+00         0.00000E+00        -0.84774E+07
 
   -0.10041E+08         0.24813E+07         0.00000E+00
    0.24813E+07        -0.31827E+08         0.00000E+00
    0.00000E+00         0.00000E+00        -0.83736E+07
 
   -0.94100E+07         0.35876E+07         0.00000E+00
    0.35876E+07        -0.32004E+08         0.00000E+00
    0.00000E+00         0.00000E+00        -0.82827E+07
 
   -0.88389E+07         0.48155E+07         0.00000E+00
    0.48155E+07        -0.32191E+08         0.00000E+00
    0.00000E+00         0.00000E+00        -0.82060E+07
 
   -0.83442E+07         0.61565E+07         0.00000E+00
    0.61565E+07        -0.32380E+08         0.00000E+00
    0.00000E+00         0.00000E+00        -0.81448E+07
 
   -0.21828E+08        -0.38492E+06         0.00000E+00
   -0.38492E+06        -0.32723E+08         0.00000E+00
    0.00000E+00         0.00000E+00        -0.10910E+08
 
   -0.20781E+08        -0.99958E+06         0.00000E+00
   -0.99958E+06        -0.32772E+08         0.00000E+00
    0.00000E+00         0.00000E+00        -0.10710E+08
 
   -0.19682E+08        -0.14063E+07         0.00000E+00
   -0.14063E+07        -0.32847E+08         0.00000E+00
    0.00000E+00         0.00000E+00        -0.10506E+08
 
   -0.18573E+08        -0.16137E+07         0.00000E+00
   -0.16137E+07        -0.32933E+08         0.00000E+00
    0.00000E+00         0.00000E+00        -0.10301E+08
 
   -0.17484E+08        -0.16364E+07         0.00000E+00
   -0.16364E+07        -0.33017E+08         0.00000E+00
    0.00000E+00         0.00000E+00        -0.10100E+08
 
   -0.16431E+08        -0.14910E+07         0.00000E+00
   -0.14910E+07        -0.33098E+08         0.00000E+00
    0.00000E+00         0.00000E+00        -0.99059E+07
 
   -0.15422E+08        -0.11929E+07         0.00000E+00
   -0.11929E+07        -0.33180E+08         0.00000E+00
    0.00000E+00         0.00000E+00        -0.97204E+07
 
   -0.14458E+08        -0.75436E+06         0.00000E+00
   -0.75436E+06        -0.33268E+08         0.00000E+00
    0.00000E+00         0.00000E+00        -0.95451E+07
 
   -0.13535E+08        -0.18352E+06         0.00000E+00
   -0.18352E+06        -0.33370E+08         0.00000E+00
    0.00000E+00         0.00000E+00        -0.93812E+07
 
   -0.12651E+08         0.51557E+06         0.00000E+00
    0.51557E+06        -0.33496E+08         0.00000E+00
    0.00000E+00         0.00000E+00        -0.92293E+07
 
   -0.11803E+08         0.13423E+07         0.00000E+00
    0.13423E+07        -0.33649E+08         0.00000E+00
    0.00000E+00         0.00000E+00        -0.90905E+07
 
   -0.10996E+08         0.22984E+07         0.00000E+00
    0.22984E+07        -0.33832E+08         0.00000E+00
    0.00000E+00         0.00000E+00        -0.89654E+07
 
   -0.10236E+08         0.33858E+07         0.00000E+00
    0.33858E+07        -0.34041E+08         0.00000E+00
    0.00000E+00         0.00000E+00        -0.88554E+07
 
   -0.95415E+07         0.46044E+07         0.00000E+00
    0.46044E+07        -0.34268E+08         0.00000E+00
    0.00000E+00         0.00000E+00        -0.87620E+07
 
   -0.89333E+07         0.59493E+07         0.00000E+00
    0.59493E+07        -0.34501E+08         0.00000E+00
    0.00000E+00         0.00000E+00        -0.86868E+07
 
   -0.24559E+08        -0.41496E+06         0.00000E+00
   -0.41496E+06        -0.34709E+08         0.00000E+00
    0.00000E+00         0.00000E+00        -0.11854E+08
 
   -0.23289E+08        -0.10673E+07         0.00000E+00
   -0.10673E+07        -0.34760E+08         0.00000E+00
    0.00000E+00         0.00000E+00        -0.11610E+08
 
   -0.21976E+08        -0.14876E+07         0.00000E+00
   -0.14876E+07        -0.34834E+08         0.00000E+00
    0.00000E+00         0.00000E+00        -0.11362E+08
 
   -0.20670E+08        -0.16940E+07         0.00000E+00
   -0.16940E+07        -0.34909E+08         0.00000E+00
    0.00000E+00         0.00000E+00        -0.11116E+08
 
   -0.19404E+08        -0.17102E+07         0.00000E+00
   -0.17102E+07        -0.34977E+08         0.00000E+00
    0.00000E+00         0.00000E+00        -0.10876E+08
 
   -0.18193E+08        -0.15606E+07         0.00000E+00
   -0.15606E+07        -0.35037E+08         0.00000E+00
    0.00000E+00         0.00000E+00        -0.10646E+08
 
   -0.17043E+08        -0.12656E+07         0.00000E+00
   -0.12656E+07        -0.35095E+08         0.00000E+00
    0.00000E+00         0.00000E+00        -0.10428E+08
 
   -0.15947E+08        -0.83977E+06         0.00000E+00
   -0.83977E+06        -0.35163E+08         0.00000E+00
    0.00000E+00         0.00000E+00        -0.10222E+08
 
   -0.14900E+08        -0.29152E+06         0.00000E+00
   -0.29152E+06        -0.35252E+08         0.00000E+00
    0.00000E+00         0.00000E+00        -0.10030E+08
 
   -0.13891E+08         0.37678E+06         0.00000E+00
    0.37678E+06        -0.35372E+08         0.00000E+00
    0.00000E+00         0.00000E+00        -0.98526E+07
 
   -0.12917E+08         0.11678E+07         0.00000E+00
    0.11678E+07        -0.35532E+08         0.00000E+00
    0.00000E+00         0.00000E+00        -0.96896E+07
 
   -0.11977E+08         0.20882E+07         0.00000E+00
    0.20882E+07        -0.35734E+08         0.00000E+00
    0.00000E+00         0.00000E+00        -0.95422E+07
 
   -0.11081E+08         0.31461E+07         0.00000E+00
    0.31461E+07        -0.35976E+08         0.00000E+00
    0.00000E+00         0.00000E+00        -0.94116E+07
 
   -0.10249E+08         0.43478E+07         0.00000E+00
    0.43478E+07        -0.36248E+08         0.00000E+00
    0.00000E+00         0.00000E+00        -0.92995E+07
 
   -0.95103E+07         0.56940E+07         0.00000E+00
    0.56940E+07        -0.36531E+08         0.00000E+00
    0.00000E+00         0.00000E+00        -0.92084E+07
 
   -0.27343E+08        -0.44652E+06         0.00000E+00
   -0.44652E+06        -0.36696E+08         0.00000E+00
    0.00000E+00         0.00000E+00        -0.12808E+08
 
   -0.25819E+08        -0.11333E+07         0.00000E+00
   -0.11333E+07        -0.36744E+08         0.00000E+00
    0.00000E+00         0.00000E+00        -0.12513E+08
 
   -0.24270E+08        -0.15586E+07         0.00000E+00
   -0.15586E+07        -0.36808E+08         0.00000E+00
    0.00000E+00         0.00000E+00        -0.12216E+08
 
   -0.22757E+08        -0.17539E+07         0.00000E+00
   -0.17539E+07        -0.36861E+08         0.00000E+00
    0.00000E+00         0.00000E+00        -0.11924E+08
 
   -0.21314E+08        -0.17561E+07         0.00000E+00
   -0.17561E+07        -0.36896E+08         0.00000E+00
    0.00000E+00         0.00000E+00        -0.11642E+08
 
   -0.19954E+08        -0.15988E+07         0.00000E+00
   -0.15988E+07        -0.36917E+08         0.00000E+00
    0.00000E+00         0.00000E+00        -0.11374E+08
 
   -0.18672E+08        -0.13079E+07         0.00000E+00
   -0.13079E+07        -0.36936E+08         0.00000E+00
    0.00000E+00         0.00000E+00        -0.11122E+08
 
   -0.17458E+08        -0.90011E+06         0.00000E+00
   -0.90011E+06        -0.36968E+08         0.00000E+00
    0.00000E+00         0.00000E+00        -0.10885E+08
 
   -0.16296E+08        -0.38335E+06         0.00000E+00
   -0.38335E+06        -0.37030E+08         0.00000E+00
    0.00000E+00         0.00000E+00        -0.10665E+08
 
   -0.15171E+08         0.24215E+06         0.00000E+00
    0.24215E+06        -0.37134E+08         0.00000E+00
    0.00000E+00         0.00000E+00        -0.10461E+08
 
   -0.14073E+08         0.98311E+06         0.00000E+00
    0.98311E+06        -0.37293E+08         0.00000E+00
    0.00000E+00         0.00000E+00        -0.10273E+08
 
   -0.12999E+08         0.18521E+07         0.00000E+00
    0.18521E+07        -0.37512E+08         0.00000E+00
    0.00000E+00         0.00000E+00        -0.10102E+08
 
   -0.11957E+08         0.28652E+07         0.00000E+00
    0.28652E+07        -0.37789E+08         0.00000E+00
    0.00000E+00         0.00000E+00        -0.99492E+07
 
   -0.10969E+08         0.40383E+07         0.00000E+00
    0.40383E+07        -0.38112E+08         0.00000E+00
    0.00000E+00         0.00000E+00        -0.98162E+07
 
   -0.10075E+08         0.53809E+07         0.00000E+00
    0.53809E+07        -0.38456E+08         0.00000E+00
    0.00000E+00         0.00000E+00        -0.97063E+07
 
   -0.30178E+08        -0.47836E+06         0.00000E+00
   -0.47836E+06        -0.38681E+08         0.00000E+00
    0.00000E+00         0.00000E+00        -0.13772E+08
 
   -0.28361E+08        -0.11911E+07         0.00000E+00
   -0.11911E+07        -0.38724E+08         0.00000E+00
    0.00000E+00         0.00000E+00        -0.13417E+08
 
   -0.26552E+08        -0.16063E+07         0.00000E+00
   -0.16063E+07        -0.38765E+08         0.00000E+00
    0.00000E+00         0.00000E+00        -0.13064E+08
 
   -0.24824E+08        -0.17759E+07         0.00000E+00
   -0.17759E+07        -0.38778E+08         0.00000E+00
    0.00000E+00         0.00000E+00        -0.12721E+08
 
   -0.23210E+08        -0.17546E+07         0.00000E+00
   -0.17546E+07        -0.38759E+08         0.00000E+00
    0.00000E+00         0.00000E+00        -0.12394E+08
 
   -0.21712E+08        -0.15869E+07         0.00000E+00
   -0.15869E+07        -0.38721E+08         0.00000E+00
    0.00000E+00         0.00000E+00        -0.12086E+08
 
   -0.20315E+08        -0.13032E+07         0.00000E+00
   -0.13032E+07        -0.38681E+08         0.00000E+00
    0.00000E+00         0.00000E+00        -0.11799E+08
 
   -0.18998E+08        -0.92100E+06         0.00000E+00
   -0.92100E+06        -0.38662E+08         0.00000E+00
    0.00000E+00         0.00000E+00        -0.11532E+08
 
   -0.17736E+08        -0.44701E+06         0.00000E+00
   -0.44701E+06        -0.38683E+08         0.00000E+00
    0.00000E+00         0.00000E+00        -0.11284E+08
 
   -0.16506E+08         0.12112E+06         0.00000E+00
    0.12112E+06        -0.38762E+08         0.00000E+00
    0.00000E+00         0.00000E+00        -0.11054E+08
 
   -0.15291E+08         0.79415E+06         0.00000E+00
    0.79415E+06        -0.38912E+08         0.00000E+00
    0.00000E+00         0.00000E+00        -0.10841E+08
 
   -0.14081E+08         0.15912E+07         0.00000E+00
    0.15912E+07        -0.39143E+08         0.00000E+00
    0.00000E+00         0.00000E+00        -0.10645E+08
 
   -0.12879E+08         0.25387E+07         0.00000E+00
    0.25387E+07        -0.39455E+08         0.00000E+00
    0.00000E+00         0.00000E+00        -0.10467E+08
 
   -0.11713E+08         0.36659E+07         0.00000E+00
    0.36659E+07        -0.39837E+08         0.00000E+00
    0.00000E+00         0.00000E+00        -0.10310E+08
 
   -0.10630E+08         0.49959E+07         0.00000E+00
    0.49959E+07        -0.40257E+08         0.00000E+00
    0.00000E+00         0.00000E+00        -0.10177E+08
 
   -0.33061E+08        -0.50883E+06         0.00000E+00
   -0.50883E+06        -0.40666E+08         0.00000E+00
    0.00000E+00         0.00000E+00        -0.14746E+08
 
   -0.30897E+08        -0.12309E+07         0.00000E+00
   -0.12309E+07        -0.40696E+08         0.00000E+00
    0.00000E+00         0.00000E+00        -0.14319E+08
 
   -0.28802E+08        -0.16115E+07         0.00000E+00
   -0.16115E+07        -0.40696E+08         0.00000E+00
    0.00000E+00         0.00000E+00        -0.13900E+08
 
   -0.26858E+08        -0.17360E+07         0.00000E+00
   -0.17360E+07        -0.40642E+08         0.00000E+00
    0.00000E+00         0.00000E+00        -0.13500E+08
 
   -0.25086E+08        -0.16821E+07         0.00000E+00
   -0.16821E+07        -0.40542E+08         0.00000E+00
    0.00000E+00         0.00000E+00        -0.13126E+08
 
   -0.23470E+08        -0.15043E+07         0.00000E+00
   -0.15043E+07        -0.40421E+08         0.00000E+00
    0.00000E+00         0.00000E+00        -0.12778E+08
 
   -0.21979E+08        -0.12346E+07         0.00000E+00
   -0.12346E+07        -0.40305E+08         0.00000E+00
    0.00000E+00         0.00000E+00        -0.12457E+08
 
   -0.20578E+08        -0.88869E+06         0.00000E+00
   -0.88869E+06        -0.40221E+08         0.00000E+00
    0.00000E+00         0.00000E+00        -0.12160E+08
 
   -0.19234E+08        -0.47092E+06         0.00000E+00
   -0.47092E+06        -0.40190E+08         0.00000E+00
    0.00000E+00         0.00000E+00        -0.11885E+08
 
   -0.17914E+08         0.23382E+05         0.00000E+00
    0.23382E+05        -0.40232E+08         0.00000E+00
    0.00000E+00         0.00000E+00        -0.11629E+08
 
   -0.16591E+08         0.60813E+06         0.00000E+00
    0.60813E+06        -0.40364E+08         0.00000E+00
    0.00000E+00         0.00000E+00        -0.11391E+08
 
   -0.15246E+08         0.13083E+07         0.00000E+00
    0.13083E+07        -0.40601E+08         0.00000E+00
    0.00000E+00         0.00000E+00        -0.11169E+08
 
   -0.13873E+08         0.21617E+07         0.00000E+00
    0.21617E+07        -0.40950E+08         0.00000E+00
    0.00000E+00         0.00000E+00        -0.10965E+08
 
   -0.12498E+08         0.32167E+07         0.00000E+00
    0.32167E+07        -0.41400E+08         0.00000E+00
    0.00000E+00         0.00000E+00        -0.10780E+08
 
   -0.11180E+08         0.45192E+07         0.00000E+00
    0.45192E+07        -0.41916E+08         0.00000E+00
    0.00000E+00         0.00000E+00        -0.10619E+08
 
   -0.35979E+08        -0.53519E+06         0.00000E+00
   -0.53519E+06        -0.42650E+08         0.00000E+00
    0.00000E+00         0.00000E+00        -0.15726E+08
 
   -0.33399E+08        -0.12347E+07         0.00000E+00
   -0.12347E+07        -0.42652E+08         0.00000E+00
    0.00000E+00         0.00000E+00        -0.15210E+08
 
   -0.30994E+08        -0.15433E+07         0.00000E+00
   -0.15433E+07        -0.42579E+08         0.00000E+00
    0.00000E+00         0.00000E+00        -0.14715E+08
 
   -0.28845E+08        -0.16013E+07         0.00000E+00
   -0.16013E+07        -0.42419E+08         0.00000E+00
    0.00000E+00         0.00000E+00        -0.14253E+08
 
   -0.26941E+08        -0.15118E+07         0.00000E+00
   -0.15118E+07        -0.42206E+08         0.00000E+00
    0.00000E+00         0.00000E+00        -0.13829E+08
 
   -0.25235E+08        -0.13318E+07         0.00000E+00
   -0.13318E+07        -0.41980E+08         0.00000E+00
    0.00000E+00         0.00000E+00        -0.13443E+08
 
   -0.23675E+08        -0.10885E+07         0.00000E+00
   -0.10885E+07        -0.41775E+08         0.00000E+00
    0.00000E+00         0.00000E+00        -0.13090E+08
 
   -0.22213E+08        -0.79278E+06         0.00000E+00
   -0.79278E+06        -0.41616E+08         0.00000E+00
    0.00000E+00         0.00000E+00        -0.12766E+08
 
   -0.20805E+08        -0.44612E+06         0.00000E+00
   -0.44612E+06        -0.41526E+08         0.00000E+00
    0.00000E+00         0.00000E+00        -0.12466E+08
 
   -0.19412E+08        -0.42238E+05         0.00000E+00
   -0.42238E+05        -0.41525E+08         0.00000E+00
    0.00000E+00         0.00000E+00        -0.12187E+08
 
   -0.17997E+08         0.43366E+06         0.00000E+00
    0.43366E+06        -0.41631E+08         0.00000E+00
    0.00000E+00         0.00000E+00        -0.11925E+08
 
   -0.16524E+08         0.10088E+07         0.00000E+00
    0.10088E+07        -0.41865E+08         0.00000E+00
    0.00000E+00         0.00000E+00        -0.11678E+08
 
   -0.14973E+08         0.17310E+07         0.00000E+00
    0.17310E+07        -0.42246E+08         0.00000E+00
    0.00000E+00         0.00000E+00        -0.11444E+08
 
   -0.13352E+08         0.26734E+07         0.00000E+00
    0.26734E+07        -0.42775E+08         0.00000E+00
    0.00000E+00         0.00000E+00        -0.11226E+08
 
   -0.11733E+08         0.39216E+07         0.00000E+00
    0.39216E+07        -0.43414E+08         0.00000E+00
    0.00000E+00         0.00000E+00        -0.11029E+08
 
   -0.38905E+08        -0.55109E+06         0.00000E+00
   -0.55109E+06        -0.44630E+08         0.00000E+00
    0.00000E+00         0.00000E+00        -0.16707E+08
 
   -0.35816E+08        -0.11656E+07         0.00000E+00
   -0.11656E+07        -0.44572E+08         0.00000E+00
    0.00000E+00         0.00000E+00        -0.16078E+08
 
   -0.33097E+08        -0.13511E+07         0.00000E+00
   -0.13511E+07        -0.44364E+08         0.00000E+00
    0.00000E+00         0.00000E+00        -0.15492E+08
 
   -0.30782E+08        -0.13321E+07         0.00000E+00
   -0.13321E+07        -0.44046E+08         0.00000E+00
    0.00000E+00         0.00000E+00        -0.14965E+08
 
   -0.28787E+08        -0.12203E+07         0.00000E+00
   -0.12203E+07        -0.43692E+08         0.00000E+00
    0.00000E+00         0.00000E+00        -0.14496E+08
 
   -0.27023E+08        -0.10572E+07         0.00000E+00
   -0.10572E+07        -0.43351E+08         0.00000E+00
    0.00000E+00         0.00000E+00        -0.14075E+08
 
   -0.25419E+08        -0.85874E+06         0.00000E+00
   -0.85874E+06        -0.43053E+08         0.00000E+00
    0.00000E+00         0.00000E+00        -0.13694E+08
 
   -0.23916E+08        -0.62978E+06         0.00000E+00
   -0.62978E+06        -0.42821E+08         0.00000E+00
    0.00000E+00         0.00000E+00        -0.13347E+08
 
   -0.22465E+08        -0.36901E+06         0.00000E+00
   -0.36901E+06        -0.42672E+08         0.00000E+00
    0.00000E+00         0.00000E+00        -0.13027E+08
 
   -0.21018E+08        -0.70089E+05         0.00000E+00
   -0.70089E+05        -0.42626E+08         0.00000E+00
    0.00000E+00         0.00000E+00        -0.12729E+08
 
   -0.19530E+08         0.27973E+06         0.00000E+00
    0.27973E+06        -0.42700E+08         0.00000E+00
    0.00000E+00         0.00000E+00        -0.12446E+08
 
   -0.17951E+08         0.70434E+06         0.00000E+00
    0.70434E+06        -0.42921E+08         0.00000E+00
    0.00000E+00         0.00000E+00        -0.12174E+08
 
   -0.16226E+08         0.12503E+07         0.00000E+00
    0.12503E+07        -0.43319E+08         0.00000E+00
    0.00000E+00         0.00000E+00        -0.11909E+08
 
   -0.14326E+08         0.20169E+07         0.00000E+00
    0.20169E+07        -0.43930E+08         0.00000E+00
    0.00000E+00         0.00000E+00        -0.11651E+08
 
   -0.12311E+08         0.31592E+07         0.00000E+00
    0.31592E+07        -0.44728E+08         0.00000E+00
    0.00000E+00         0.00000E+00        -0.11408E+08
 
   -0.41774E+08        -0.53392E+06         0.00000E+00
   -0.53392E+06        -0.46594E+08         0.00000E+00
    0.00000E+00         0.00000E+00        -0.17673E+08
 
   -0.38068E+08        -0.93479E+06         0.00000E+00
   -0.93479E+06        -0.46374E+08         0.00000E+00
    0.00000E+00         0.00000E+00        -0.16888E+08
 
   -0.35095E+08        -0.96320E+06         0.00000E+00
   -0.96320E+06        -0.45926E+08         0.00000E+00
    0.00000E+00         0.00000E+00        -0.16204E+08
 
   -0.32689E+08        -0.89935E+06         0.00000E+00
   -0.89935E+06        -0.45416E+08         0.00000E+00
    0.00000E+00         0.00000E+00        -0.15621E+08
 
   -0.30649E+08        -0.80100E+06         0.00000E+00
   -0.80100E+06        -0.44922E+08         0.00000E+00
    0.00000E+00         0.00000E+00        -0.15114E+08
 
   -0.28857E+08        -0.68375E+06         0.00000E+00
   -0.68375E+06        -0.44476E+08         0.00000E+00
    0.00000E+00         0.00000E+00        -0.14667E+08
 
   -0.27230E+08        -0.55213E+06         0.00000E+00
   -0.55213E+06        -0.44100E+08         0.00000E+00
    0.00000E+00         0.00000E+00        -0.14266E+08
 
   -0.25704E+08        -0.40634E+06         0.00000E+00
   -0.40634E+06        -0.43807E+08         0.00000E+00
    0.00000E+00         0.00000E+00        -0.13902E+08
 
   -0.24226E+08        -0.24412E+06         0.00000E+00
   -0.24412E+06        -0.43612E+08         0.00000E+00
    0.00000E+00         0.00000E+00        -0.13568E+08
 
   -0.22745E+08        -0.60782E+05         0.00000E+00
   -0.60782E+05        -0.43527E+08         0.00000E+00
    0.00000E+00         0.00000E+00        -0.13254E+08
 
   -0.21209E+08         0.15204E+06         0.00000E+00
    0.15204E+06        -0.43572E+08         0.00000E+00
    0.00000E+00         0.00000E+00        -0.12956E+08
 
   -0.19553E+08         0.40990E+06         0.00000E+00
    0.40990E+06        -0.43771E+08         0.00000E+00
    0.00000E+00         0.00000E+00        -0.12665E+08
 
   -0.17696E+08         0.74477E+06         0.00000E+00
    0.74477E+06        -0.44165E+08         0.00000E+00
    0.00000E+00         0.00000E+00        -0.12372E+08
 
   -0.15508E+08         0.12378E+07         0.00000E+00
    0.12378E+07        -0.44820E+08         0.00000E+00
    0.00000E+00         0.00000E+00        -0.12066E+08
 
   -0.12960E+08         0.21577E+07         0.00000E+00
    0.21577E+07        -0.45829E+08         0.00000E+00
    0.00000E+00         0.00000E+00        -0.11758E+08
 
   -0.44399E+08        -0.33509E+06         0.00000E+00
   -0.33509E+06        -0.48362E+08         0.00000E+00
    0.00000E+00         0.00000E+00        -0.18552E+08
 
   -0.40099E+08        -0.38548E+06         0.00000E+00
   -0.38548E+06        -0.47746E+08         0.00000E+00
    0.00000E+00         0.00000E+00        -0.17569E+08
 
   -0.37050E+08        -0.35539E+06         0.00000E+00
   -0.35539E+06        -0.47053E+08         0.00000E+00
    0.00000E+00         0.00000E+00        -0.16821E+08
 
   -0.34615E+08        -0.32000E+06         0.00000E+00
   -0.32000E+06        -0.46399E+08         0.00000E+00
    0.00000E+00         0.00000E+00        -0.16203E+08
 
   -0.32562E+08        -0.28006E+06         0.00000E+00
   -0.28006E+06        -0.45812E+08         0.00000E+00
    0.00000E+00         0.00000E+00        -0.15675E+08
 
   -0.30760E+08        -0.23698E+06         0.00000E+00
   -0.23698E+06        -0.45304E+08         0.00000E+00
    0.00000E+00         0.00000E+00        -0.15213E+08
 
   -0.29124E+08        -0.19067E+06         0.00000E+00
   -0.19067E+06        -0.44882E+08         0.00000E+00
    0.00000E+00         0.00000E+00        -0.14801E+08
 
   -0.27588E+08        -0.14051E+06         0.00000E+00
   -0.14051E+06        -0.44555E+08         0.00000E+00
    0.00000E+00         0.00000E+00        -0.14429E+08
 
   -0.26098E+08        -0.85431E+05         0.00000E+00
   -0.85431E+05        -0.44333E+08         0.00000E+00
    0.00000E+00         0.00000E+00        -0.14086E+08
 
   -0.24601E+08        -0.23693E+05         0.00000E+00
   -0.23693E+05        -0.44226E+08         0.00000E+00
    0.00000E+00         0.00000E+00        -0.13765E+08
 
   -0.23040E+08         0.47573E+05         0.00000E+00
    0.47573E+05        -0.44252E+08         0.00000E+00
    0.00000E+00         0.00000E+00        -0.13458E+08
 
   -0.21346E+08         0.13354E+06         0.00000E+00
    0.13354E+06        -0.44434E+08         0.00000E+00
    0.00000E+00         0.00000E+00        -0.13156E+08
 
   -0.19417E+08         0.24544E+06         0.00000E+00
    0.24544E+06        -0.44814E+08         0.00000E+00
    0.00000E+00         0.00000E+00        -0.12846E+08
 
   -0.17072E+08         0.40886E+06         0.00000E+00
    0.40886E+06        -0.45468E+08         0.00000E+00
    0.00000E+00         0.00000E+00        -0.12508E+08
 
   -0.13802E+08         0.79257E+06         0.00000E+00
    0.79257E+06        -0.46613E+08         0.00000E+00
    0.00000E+00         0.00000E+00        -0.12083E+08
 
TENSORS stresstot double 
   -0.34502E+08        -0.34121E+06         0.00000E+00
   -0.34121E+06        -0.60247E+08         0.00000E+00
    0.00000E+00         0.00000E+00        -0.60540E+08
 
   -0.38852E+08        -0.39295E+06         0.00000E+00
   -0.39295E+06        -0.60875E+08         0.00000E+00
    0.00000E+00         0.00000E+00        -0.61536E+08
 
   -0.41929E+08        -0.36259E+06         0.00000E+00
   -0.36259E+06        -0.61582E+08         0.00000E+00
    0.00000E+00         0.00000E+00        -0.62293E+08
 
   -0.44383E+08        -0.32675E+06         0.00000E+00
   -0.32675E+06        -0.62249E+08         0.00000E+00
    0.00000E+00         0.00000E+00        -0.62919E+08
 
   -0.46449E+08        -0.28625E+06         0.00000E+00
   -0.28625E+06        -0.62849E+08         0.00000E+00
    0.00000E+00         0.00000E+00        -0.63453E+08
 
   -0.48259E+08        -0.24256E+06         0.00000E+00
   -0.24256E+06        -0.63369E+08         0.00000E+00
    0.00000E+00         0.00000E+00        -0.63920E+08
 
   -0.49902E+08        -0.19560E+06         0.00000E+00
   -0.19560E+06        -0.63801E+08         0.00000E+00
    0.00000E+00         0.00000E+00        -0.64336E+08
 
   -0.51443E+08        -0.14477E+06         0.00000E+00
   -0.14477E+06        -0.64138E+08         0.00000E+00
    0.00000E+00         0.00000E+00        -0.64713E+08
 
   -0.52939E+08        -0.88957E+05         0.00000E+00
   -0.88957E+05        -0.64368E+08         0.00000E+00
    0.00000E+00         0.00000E+00        -0.65059E+08
 
   -0.54443E+08        -0.26415E+05         0.00000E+00
   -0.26415E+05        -0.64481E+08         0.00000E+00
    0.00000E+00         0.00000E+00        -0.65384E+08
 
   -0.56012E+08         0.45793E+05         0.00000E+00
    0.45793E+05        -0.64460E+08         0.00000E+00
    0.00000E+00         0.00000E+00        -0.65694E+08
 
   -0.57717E+08         0.13295E+06         0.00000E+00
    0.13295E+06        -0.64279E+08         0.00000E+00
    0.00000E+00         0.00000E+00        -0.66000E+08
 
   -0.59662E+08         0.24653E+06         0.00000E+00
    0.24653E+06        -0.63899E+08         0.00000E+00
    0.00000E+00         0.00000E+00        -0.66314E+08
 
   -0.62031E+08         0.41268E+06         0.00000E+00
    0.41268E+06        -0.63240E+08         0.00000E+00
    0.00000E+00         0.00000E+00        -0.66656E+08
 
   -0.65344E+08         0.80375E+06         0.00000E+00
    0.80375E+06        -0.62082E+08         0.00000E+00
    0.00000E+00         0.00000E+00        -0.67087E+08
 
   -0.35150E+08        -0.54404E+06         0.00000E+00
   -0.54404E+06        -0.60022E+08         0.00000E+00
    0.00000E+00         0.00000E+00        -0.59410E+08
 
   -0.38895E+08        -0.95301E+06         0.00000E+00
   -0.95301E+06        -0.60246E+08         0.00000E+00
    0.00000E+00         0.00000E+00        -0.60205E+08
 
   -0.41895E+08        -0.98263E+06         0.00000E+00
   -0.98263E+06        -0.60704E+08         0.00000E+00
    0.00000E+00         0.00000E+00        -0.60897E+08
 
   -0.44319E+08        -0.91814E+06         0.00000E+00
   -0.91814E+06        -0.61224E+08         0.00000E+00
    0.00000E+00         0.00000E+00        -0.61487E+08
 
   -0.46372E+08        -0.81849E+06         0.00000E+00
   -0.81849E+06        -0.61730E+08         0.00000E+00
    0.00000E+00         0.00000E+00        -0.61999E+08
 
   -0.48173E+08        -0.69962E+06         0.00000E+00
   -0.69962E+06        -0.62186E+08         0.00000E+00
    0.00000E+00         0.00000E+00        -0.62452E+08
 
   -0.49807E+08        -0.56621E+06         0.00000E+00
   -0.56621E+06        -0.62572E+08         0.00000E+00
    0.00000E+00         0.00000E+00        -0.62857E+08
 
   -0.51339E+08        -0.41849E+06         0.00000E+00
   -0.41849E+06        -0.62873E+08         0.00000E+00
    0.00000E+00         0.00000E+00        -0.63224E+08
 
   -0.52823E+08        -0.25417E+06         0.00000E+00
   -0.25417E+06        -0.63076E+08         0.00000E+00
    0.00000E+00         0.00000E+00        -0.63563E+08
 
   -0.54310E+08        -0.68469E+05         0.00000E+00
   -0.68469E+05        -0.63166E+08         0.00000E+00
    0.00000E+00         0.00000E+00        -0.63879E+08
 
   -0.55854E+08         0.14715E+06         0.00000E+00
    0.14715E+06        -0.63125E+08         0.00000E+00
    0.00000E+00         0.00000E+00        -0.64181E+08
 
   -0.57520E+08         0.40856E+06         0.00000E+00
    0.40856E+06        -0.62928E+08         0.00000E+00
    0.00000E+00         0.00000E+00        -0.64475E+08
 
   -0.59392E+08         0.74844E+06         0.00000E+00
    0.74844E+06        -0.62534E+08         0.00000E+00
    0.00000E+00         0.00000E+00        -0.64771E+08
 
   -0.61601E+08         0.12496E+07         0.00000E+00
    0.12496E+07        -0.61873E+08         0.00000E+00
    0.00000E+00         0.00000E+00        -0.65082E+08
 
   -0.64177E+08         0.21866E+07         0.00000E+00
    0.21866E+07        -0.60853E+08         0.00000E+00
    0.00000E+00         0.00000E+00        -0.65393E+08
 
   -0.36047E+08        -0.56186E+06         0.00000E+00
   -0.56186E+06        -0.59996E+08         0.00000E+00
    0.00000E+00         0.00000E+00        -0.58372E+08
 
   -0.39164E+08        -0.11887E+07         0.00000E+00
   -0.11887E+07        -0.60057E+08         0.00000E+00
    0.00000E+00         0.00000E+00        -0.59008E+08
 
   -0.41906E+08        -0.13784E+07         0.00000E+00
   -0.13784E+07        -0.60270E+08         0.00000E+00
    0.00000E+00         0.00000E+00        -0.59600E+08
 
   -0.44238E+08        -0.13599E+07         0.00000E+00
   -0.13599E+07        -0.60595E+08         0.00000E+00
    0.00000E+00         0.00000E+00        -0.60132E+08
 
   -0.46244E+08        -0.12468E+07         0.00000E+00
   -0.12468E+07        -0.60957E+08         0.00000E+00
    0.00000E+00         0.00000E+00        -0.60606E+08
 
   -0.48017E+08        -0.10815E+07         0.00000E+00
   -0.10815E+07        -0.61306E+08         0.00000E+00
    0.00000E+00         0.00000E+00        -0.61032E+08
 
   -0.49628E+08        -0.88049E+06         0.00000E+00
   -0.88049E+06        -0.61612E+08         0.00000E+00
    0.00000E+00         0.00000E+00        -0.61416E+08
 
   -0.51137E+08        -0.64858E+06         0.00000E+00
   -0.64858E+06        -0.61851E+08         0.00000E+00
    0.00000E+00         0.00000E+00        -0.61766E+08
 
   -0.52594E+08        -0.38451E+06         0.00000E+00
   -0.38451E+06        -0.62006E+08         0.00000E+00
    0.00000E+00         0.00000E+00        -0.62090E+08
 
   -0.54047E+08        -0.81814E+05         0.00000E+00
   -0.81814E+05        -0.62057E+08         0.00000E+00
    0.00000E+00         0.00000E+00        -0.62391E+08
 
   -0.55542E+08         0.27253E+06         0.00000E+00
    0.27253E+06        -0.61986E+08         0.00000E+00
    0.00000E+00         0.00000E+00        -0.62677E+08
 
   -0.57131E+08         0.70292E+06         0.00000E+00
    0.70292E+06        -0.61767E+08         0.00000E+00
    0.00000E+00         0.00000E+00        -0.62952E+08
 
   -0.58867E+08         0.12570E+07         0.00000E+00
    0.12570E+07        -0.61367E+08         0.00000E+00
    0.00000E+00         0.00000E+00        -0.63220E+08
 
   -0.60783E+08         0.20359E+07         0.00000E+00
    0.20359E+07        -0.60752E+08         0.00000E+00
    0.00000E+00         0.00000E+00        -0.63480E+08
 
   -0.62815E+08         0.31983E+07         0.00000E+00
    0.31983E+07        -0.59948E+08         0.00000E+00
    0.00000E+00         0.00000E+00        -0.63726E+08
 
   -0.37004E+08        -0.54586E+06         0.00000E+00
   -0.54586E+06        -0.59989E+08         0.00000E+00
    0.00000E+00         0.00000E+00        -0.57351E+08
 
   -0.39602E+08        -0.12594E+07         0.00000E+00
   -0.12594E+07        -0.59988E+08         0.00000E+00
    0.00000E+00         0.00000E+00        -0.57871E+08
 
   -0.42024E+08        -0.15747E+07         0.00000E+00
   -0.15747E+07        -0.60063E+08         0.00000E+00
    0.00000E+00         0.00000E+00        -0.58371E+08
 
   -0.44187E+08        -0.16346E+07         0.00000E+00
   -0.16346E+07        -0.60227E+08         0.00000E+00
    0.00000E+00         0.00000E+00        -0.58837E+08
 
   -0.46101E+08        -0.15445E+07         0.00000E+00
   -0.15445E+07        -0.60445E+08         0.00000E+00
    0.00000E+00         0.00000E+00        -0.59264E+08
 
   -0.47816E+08        -0.13624E+07         0.00000E+00
   -0.13624E+07        -0.60677E+08         0.00000E+00
    0.00000E+00         0.00000E+00        -0.59654E+08
 
   -0.49382E+08        -0.11160E+07         0.00000E+00
   -0.11160E+07        -0.60888E+08         0.00000E+00
    0.00000E+00         0.00000E+00        -0.60011E+08
 
   -0.50850E+08        -0.81665E+06         0.00000E+00
   -0.81665E+06        -0.61052E+08         0.00000E+00
    0.00000E+00         0.00000E+00        -0.60338E+08
 
   -0.52263E+08        -0.46575E+06         0.00000E+00
   -0.46575E+06        -0.61147E+08         0.00000E+00
    0.00000E+00         0.00000E+00        -0.60640E+08
 
   -0.53662E+08        -0.56896E+05         0.00000E+00
   -0.56896E+05        -0.61152E+08         0.00000E+00
    0.00000E+00         0.00000E+00        -0.60922E+08
 
   -0.55084E+08         0.42501E+06         0.00000E+00
    0.42501E+06        -0.61049E+08         0.00000E+00
    0.00000E+00         0.00000E+00        -0.61186E+08
 
   -0.56564E+08         0.10078E+07         0.00000E+00
    0.10078E+07        -0.60815E+08         0.00000E+00
    0.00000E+00         0.00000E+00        -0.61436E+08
 
   -0.58124E+08         0.17403E+07         0.00000E+00
    0.17403E+07        -0.60433E+08         0.00000E+00
    0.00000E+00         0.00000E+00        -0.61672E+08
 
   -0.59754E+08         0.26972E+07         0.00000E+00
    0.26972E+07        -0.59902E+08         0.00000E+00
    0.00000E+00         0.00000E+00        -0.61892E+08
 
   -0.61382E+08         0.39659E+07         0.00000E+00
    0.39659E+07        -0.59260E+08         0.00000E+00
    0.00000E+00         0.00000E+00        -0.62090E+08
 
   -0.37954E+08        -0.51909E+06         0.00000E+00
   -0.51909E+06        -0.59986E+08         0.00000E+00
    0.00000E+00         0.00000E+00        -0.56332E+08
 
   -0.40129E+08        -0.12557E+07         0.00000E+00
   -0.12557E+07        -0.59957E+08         0.00000E+00
    0.00000E+00         0.00000E+00        -0.56761E+08
 
   -0.42234E+08        -0.16443E+07         0.00000E+00
   -0.16443E+07        -0.59957E+08         0.00000E+00
    0.00000E+00         0.00000E+00        -0.57182E+08
 
   -0.44189E+08        -0.17720E+07         0.00000E+00
   -0.17720E+07        -0.60013E+08         0.00000E+00
    0.00000E+00         0.00000E+00        -0.57585E+08
 
   -0.45969E+08        -0.17183E+07         0.00000E+00
   -0.17183E+07        -0.60116E+08         0.00000E+00
    0.00000E+00         0.00000E+00        -0.57962E+08
 
   -0.47592E+08        -0.15387E+07         0.00000E+00
   -0.15387E+07        -0.60241E+08         0.00000E+00
    0.00000E+00         0.00000E+00        -0.58312E+08
 
   -0.49089E+08        -0.12659E+07         0.00000E+00
   -0.12659E+07        -0.60360E+08         0.00000E+00
    0.00000E+00         0.00000E+00        -0.58636E+08
 
   -0.50494E+08        -0.91591E+06         0.00000E+00
   -0.91591E+06        -0.60448E+08         0.00000E+00
    0.00000E+00         0.00000E+00        -0.58936E+08
 
   -0.51843E+08        -0.49325E+06         0.00000E+00
   -0.49325E+06        -0.60482E+08         0.00000E+00
    0.00000E+00         0.00000E+00        -0.59213E+08
 
   -0.53168E+08         0.69062E+04         0.00000E+00
    0.69062E+04        -0.60443E+08         0.00000E+00
    0.00000E+00         0.00000E+00        -0.59471E+08
 
   -0.54496E+08         0.59877E+06         0.00000E+00
    0.59877E+06        -0.60312E+08         0.00000E+00
    0.00000E+00         0.00000E+00        -0.59711E+08
 
   -0.55847E+08         0.13079E+07         0.00000E+00
    0.13079E+07        -0.60075E+08         0.00000E+00
    0.00000E+00         0.00000E+00        -0.59935E+08
 
   -0.57225E+08         0.21729E+07         0.00000E+00
    0.21729E+07        -0.59726E+08         0.00000E+00
    0.00000E+00         0.00000E+00        -0.60141E+08
 
   -0.58606E+08         0.32431E+07         0.00000E+00
    0.32431E+07        -0.59275E+08         0.00000E+00
    0.00000E+00         0.00000E+00        -0.60327E+08
 
   -0.59927E+08         0.45655E+07         0.00000E+00
    0.45655E+07        -0.58758E+08         0.00000E+00
    0.00000E+00         0.00000E+00        -0.60488E+08
 
   -0.38869E+08        -0.48801E+06         0.00000E+00
   -0.48801E+06        -0.59985E+08         0.00000E+00
    0.00000E+00         0.00000E+00        -0.55306E+08
 
   -0.40691E+08        -0.12151E+07         0.00000E+00
   -0.12151E+07        -0.59942E+08         0.00000E+00
    0.00000E+00         0.00000E+00        -0.55662E+08
 
   -0.42505E+08        -0.16388E+07         0.00000E+00
   -0.16388E+07        -0.59900E+08         0.00000E+00
    0.00000E+00         0.00000E+00        -0.56017E+08
 
   -0.44238E+08        -0.18125E+07         0.00000E+00
   -0.18125E+07        -0.59887E+08         0.00000E+00
    0.00000E+00         0.00000E+00        -0.56362E+08
 
   -0.45858E+08        -0.17920E+07         0.00000E+00
   -0.17920E+07        -0.59907E+08         0.00000E+00
    0.00000E+00         0.00000E+00        -0.56690E+08
 
   -0.47362E+08        -0.16229E+07         0.00000E+00
   -0.16229E+07        -0.59947E+08         0.00000E+00
    0.00000E+00         0.00000E+00        -0.57000E+08
 
   -0.48763E+08        -0.13363E+07         0.00000E+00
   -0.13363E+07        -0.59988E+08         0.00000E+00
    0.00000E+00         0.00000E+00        -0.57289E+08
 
   -0.50084E+08        -0.94991E+06         0.00000E+00
   -0.94991E+06        -0.60009E+08         0.00000E+00
    0.00000E+00         0.00000E+00        -0.57558E+08
 
   -0.51350E+08        -0.47067E+06         0.00000E+00
   -0.47067E+06        -0.59990E+08         0.00000E+00
    0.00000E+00         0.00000E+00        -0.57808E+08
 
   -0.52583E+08         0.10383E+06         0.00000E+00
    0.10383E+06        -0.59913E+08         0.00000E+00
    0.00000E+00         0.00000E+00        -0.58040E+08
 
   -0.53802E+08         0.78464E+06         0.00000E+00
    0.78464E+06        -0.59764E+08         0.00000E+00
    0.00000E+00         0.00000E+00        -0.58254E+08
 
   -0.55016E+08         0.15913E+07         0.00000E+00
    0.15913E+07        -0.59534E+08         0.00000E+00
    0.00000E+00         0.00000E+00        -0.58451E+08
 
   -0.56220E+08         0.25508E+07         0.00000E+00
    0.25508E+07        -0.59221E+08         0.00000E+00
    0.00000E+00         0.00000E+00        -0.58630E+08
 
   -0.57387E+08         0.36931E+07         0.00000E+00
    0.36931E+07        -0.58840E+08         0.00000E+00
    0.00000E+00         0.00000E+00        -0.58788E+08
 
   -0.58469E+08         0.50419E+07         0.00000E+00
    0.50419E+07        -0.58420E+08         0.00000E+00
    0.00000E+00         0.00000E+00        -0.58920E+08
 
   -0.39736E+08        -0.45541E+06         0.00000E+00
   -0.45541E+06        -0.59985E+08         0.00000E+00
    0.00000E+00         0.00000E+00        -0.54273E+08
 
   -0.41258E+08        -0.11557E+07         0.00000E+00
   -0.11557E+07        -0.59935E+08         0.00000E+00
    0.00000E+00         0.00000E+00        -0.54568E+08
 
   -0.42807E+08        -0.15896E+07         0.00000E+00
   -0.15896E+07        -0.59871E+08         0.00000E+00
    0.00000E+00         0.00000E+00        -0.54865E+08
 
   -0.44322E+08        -0.17894E+07         0.00000E+00
   -0.17894E+07        -0.59816E+08         0.00000E+00
    0.00000E+00         0.00000E+00        -0.55158E+08
 
   -0.45768E+08        -0.17929E+07         0.00000E+00
   -0.17929E+07        -0.59780E+08         0.00000E+00
    0.00000E+00         0.00000E+00        -0.55440E+08
 
   -0.47132E+08        -0.16347E+07         0.00000E+00
   -0.16347E+07        -0.59759E+08         0.00000E+00
    0.00000E+00         0.00000E+00        -0.55709E+08
 
   -0.48417E+08        -0.13411E+07         0.00000E+00
   -0.13411E+07        -0.59741E+08         0.00000E+00
    0.00000E+00         0.00000E+00        -0.55963E+08
 
   -0.49633E+08        -0.92922E+06         0.00000E+00
   -0.92922E+06        -0.59709E+08         0.00000E+00
    0.00000E+00         0.00000E+00        -0.56201E+08
 
   -0.50798E+08        -0.40714E+06         0.00000E+00
   -0.40714E+06        -0.59648E+08         0.00000E+00
    0.00000E+00         0.00000E+00        -0.56422E+08
 
   -0.51925E+08         0.22493E+06         0.00000E+00
    0.22493E+06        -0.59544E+08         0.00000E+00
    0.00000E+00         0.00000E+00        -0.56627E+08
 
   -0.53025E+08         0.97387E+06         0.00000E+00
    0.97387E+06        -0.59385E+08         0.00000E+00
    0.00000E+00         0.00000E+00        -0.56816E+08
 
   -0.54100E+08         0.18525E+07         0.00000E+00
    0.18525E+07        -0.59167E+08         0.00000E+00
    0.00000E+00         0.00000E+00        -0.56988E+08
 
   -0.55143E+08         0.28775E+07         0.00000E+00
    0.28775E+07        -0.58890E+08         0.00000E+00
    0.00000E+00         0.00000E+00        -0.57141E+08
 
   -0.56129E+08         0.40651E+07         0.00000E+00
    0.40651E+07        -0.58569E+08         0.00000E+00
    0.00000E+00         0.00000E+00        -0.57275E+08
 
   -0.57018E+08         0.54249E+07         0.00000E+00
    0.54249E+07        -0.58226E+08         0.00000E+00
    0.00000E+00         0.00000E+00        -0.57384E+08
 
   -0.40550E+08        -0.42299E+06         0.00000E+00
   -0.42299E+06        -0.59986E+08         0.00000E+00
    0.00000E+00         0.00000E+00        -0.53231E+08
 
   -0.41813E+08        -0.10878E+07         0.00000E+00
   -0.10878E+07        -0.59934E+08         0.00000E+00
    0.00000E+00         0.00000E+00        -0.53474E+08
 
   -0.43122E+08        -0.15163E+07         0.00000E+00
   -0.15163E+07        -0.59858E+08         0.00000E+00
    0.00000E+00         0.00000E+00        -0.53721E+08
 
   -0.44427E+08        -0.17272E+07         0.00000E+00
   -0.17272E+07        -0.59781E+08         0.00000E+00
    0.00000E+00         0.00000E+00        -0.53966E+08
 
   -0.45693E+08        -0.17451E+07         0.00000E+00
   -0.17451E+07        -0.59711E+08         0.00000E+00
    0.00000E+00         0.00000E+00        -0.54206E+08
 
   -0.46905E+08        -0.15949E+07         0.00000E+00
   -0.15949E+07        -0.59650E+08         0.00000E+00
    0.00000E+00         0.00000E+00        -0.54437E+08
 
   -0.48057E+08        -0.12975E+07         0.00000E+00
   -0.12975E+07        -0.59590E+08         0.00000E+00
    0.00000E+00         0.00000E+00        -0.54656E+08
 
   -0.49153E+08        -0.86780E+06         0.00000E+00
   -0.86780E+06        -0.59522E+08         0.00000E+00
    0.00000E+00         0.00000E+00        -0.54862E+08
 
   -0.50202E+08        -0.31440E+06         0.00000E+00
   -0.31440E+06        -0.59432E+08         0.00000E+00
    0.00000E+00         0.00000E+00        -0.55055E+08
 
   -0.51212E+08         0.36031E+06         0.00000E+00
    0.36031E+06        -0.59312E+08         0.00000E+00
    0.00000E+00         0.00000E+00        -0.55233E+08
 
   -0.52187E+08         0.11592E+07         0.00000E+00
    0.11592E+07        -0.59152E+08         0.00000E+00
    0.00000E+00         0.00000E+00        -0.55396E+08
 
   -0.53126E+08         0.20890E+07         0.00000E+00
    0.20890E+07        -0.58950E+08         0.00000E+00
    0.00000E+00         0.00000E+00        -0.55544E+08
 
   -0.54019E+08         0.31580E+07         0.00000E+00
    0.31580E+07        -0.58708E+08         0.00000E+00
    0.00000E+00         0.00000E+00        -0.55675E+08
 
   -0.54847E+08         0.43731E+07         0.00000E+00
    0.43731E+07        -0.58438E+08         0.00000E+00
    0.00000E+00         0.00000E+00        -0.55787E+08
 
   -0.55579E+08         0.57348E+07         0.00000E+00
    0.57348E+07        -0.58158E+08         0.00000E+00
    0.00000E+00         0.00000E+00        -0.55877E+08
 
   -0.41309E+08        -0.39200E+06         0.00000E+00
   -0.39200E+06        -0.59987E+08         0.00000E+00
    0.00000E+00         0.00000E+00        -0.52180E+08
 
   -0.42345E+08        -0.10178E+07         0.00000E+00
   -0.10178E+07        -0.59936E+08         0.00000E+00
    0.00000E+00         0.00000E+00        -0.52377E+08
 
   -0.43436E+08        -0.14320E+07         0.00000E+00
   -0.14320E+07        -0.59858E+08         0.00000E+00
    0.00000E+00         0.00000E+00        -0.52580E+08
 
   -0.44540E+08        -0.16438E+07         0.00000E+00
   -0.16438E+07        -0.59770E+08         0.00000E+00
    0.00000E+00         0.00000E+00        -0.52784E+08
 
   -0.45627E+08        -0.16682E+07         0.00000E+00
   -0.16682E+07        -0.59683E+08         0.00000E+00
    0.00000E+00         0.00000E+00        -0.52984E+08
 
   -0.46679E+08        -0.15225E+07         0.00000E+00
   -0.15225E+07        -0.59599E+08         0.00000E+00
    0.00000E+00         0.00000E+00        -0.53178E+08
 
   -0.47688E+08        -0.12223E+07         0.00000E+00
   -0.12223E+07        -0.59516E+08         0.00000E+00
    0.00000E+00         0.00000E+00        -0.53363E+08
 
   -0.48652E+08        -0.78030E+06         0.00000E+00
   -0.78030E+06        -0.59426E+08         0.00000E+00
    0.00000E+00         0.00000E+00        -0.53539E+08
 
   -0.49575E+08        -0.20468E+06         0.00000E+00
   -0.20468E+06        -0.59321E+08         0.00000E+00
    0.00000E+00         0.00000E+00        -0.53703E+08
 
   -0.50459E+08         0.50042E+06         0.00000E+00
    0.50042E+06        -0.59195E+08         0.00000E+00
    0.00000E+00         0.00000E+00        -0.53855E+08
 
   -0.51305E+08         0.13345E+07         0.00000E+00
    0.13345E+07        -0.59041E+08         0.00000E+00
    0.00000E+00         0.00000E+00        -0.53994E+08
 
   -0.52111E+08         0.22992E+07         0.00000E+00
    0.22992E+07        -0.58859E+08         0.00000E+00
    0.00000E+00         0.00000E+00        -0.54119E+08
 
   -0.52866E+08         0.33969E+07         0.00000E+00
    0.33969E+07        -0.58650E+08         0.00000E+00
    0.00000E+00         0.00000E+00        -0.54228E+08
 
   -0.53555E+08         0.46274E+07         0.00000E+00
    0.46274E+07        -0.58425E+08         0.00000E+00
    0.00000E+00         0.00000E+00        -0.54321E+08
 
   -0.54154E+08         0.59859E+07         0.00000E+00
    0.59859E+07        -0.58196E+08         0.00000E+00
    0.00000E+00         0.00000E+00        -0.54395E+08
 
   -0.42015E+08        -0.36348E+06         0.00000E+00
   -0.36348E+06        -0.59988E+08         0.00000E+00
    0.00000E+00         0.00000E+00        -0.51119E+08
 
   -0.42850E+08        -0.95055E+06         0.00000E+00
   -0.95055E+06        -0.59942E+08         0.00000E+00
    0.00000E+00         0.00000E+00        -0.51277E+08
 
   -0.43742E+08        -0.13460E+07         0.00000E+00
   -0.13460E+07        -0.59867E+08         0.00000E+00
    0.00000E+00         0.00000E+00        -0.51441E+08
 
   -0.44656E+08        -0.15524E+07         0.00000E+00
   -0.15524E+07        -0.59779E+08         0.00000E+00
    0.00000E+00         0.00000E+00        -0.51606E+08
 
   -0.45566E+08        -0.15778E+07         0.00000E+00
   -0.15778E+07        -0.59686E+08         0.00000E+00
    0.00000E+00         0.00000E+00        -0.51770E+08
 
   -0.46454E+08        -0.14335E+07         0.00000E+00
   -0.14335E+07        -0.59594E+08         0.00000E+00
    0.00000E+00         0.00000E+00        -0.51930E+08
 
   -0.47313E+08        -0.11310E+07         0.00000E+00
   -0.11310E+07        -0.59501E+08         0.00000E+00
    0.00000E+00         0.00000E+00        -0.52083E+08
 
   -0.48136E+08        -0.68032E+06         0.00000E+00
   -0.68032E+06        -0.59403E+08         0.00000E+00
    0.00000E+00         0.00000E+00        -0.52229E+08
 
   -0.48925E+08        -0.89356E+05         0.00000E+00
   -0.89356E+05        -0.59295E+08         0.00000E+00
    0.00000E+00         0.00000E+00        -0.52365E+08
 
   -0.49678E+08         0.63663E+06         0.00000E+00
    0.63663E+06        -0.59172E+08         0.00000E+00
    0.00000E+00         0.00000E+00        -0.52492E+08
 
   -0.50394E+08         0.14945E+07         0.00000E+00
    0.14945E+07        -0.59031E+08         0.00000E+00
    0.00000E+00         0.00000E+00        -0.52607E+08
 
   -0.51069E+08         0.24822E+07         0.00000E+00
    0.24822E+07        -0.58871E+08         0.00000E+00
    0.00000E+00         0.00000E+00        -0.52710E+08
 
   -0.51695E+08         0.35975E+07         0.00000E+00
    0.35975E+07        -0.58695E+08         0.00000E+00
    0.00000E+00         0.00000E+00        -0.52800E+08
 
   -0.52258E+08         0.48358E+07         0.00000E+00
    0.48358E+07        -0.58510E+08         0.00000E+00
    0.00000E+00         0.00000E+00        -0.52876E+08
 
   -0.52742E+08         0.61883E+07         0.00000E+00
    0.61883E+07        -0.58326E+08         0.00000E+00
    0.00000E+00         0.00000E+00        -0.52936E+08
 
   -0.42674E+08        -0.33828E+06         0.00000E+00
   -0.33828E+06        -0.59990E+08         0.00000E+00
    0.00000E+00         0.00000E+00        -0.50050E+08
 
   -0.43328E+08        -0.88946E+06         0.00000E+00
   -0.88946E+06        -0.59949E+08         0.00000E+00
    0.00000E+00         0.00000E+00        -0.50173E+08
 
   -0.44036E+08        -0.12651E+07         0.00000E+00
   -0.12651E+07        -0.59882E+08         0.00000E+00
    0.00000E+00         0.00000E+00        -0.50302E+08
 
   -0.44768E+08        -0.14629E+07         0.00000E+00
   -0.14629E+07        -0.59801E+08         0.00000E+00
    0.00000E+00         0.00000E+00        -0.50432E+08
 
   -0.45504E+08        -0.14860E+07         0.00000E+00
   -0.14860E+07        -0.59713E+08         0.00000E+00
    0.00000E+00         0.00000E+00        -0.50562E+08
 
   -0.46229E+08        -0.13411E+07         0.00000E+00
   -0.13411E+07        -0.59624E+08         0.00000E+00
    0.00000E+00         0.00000E+00        -0.50689E+08
 
   -0.46933E+08        -0.10362E+07         0.00000E+00
   -0.10362E+07        -0.59532E+08         0.00000E+00
    0.00000E+00         0.00000E+00        -0.50812E+08
 
   -0.47611E+08        -0.57955E+06         0.00000E+00
   -0.57955E+06        -0.59438E+08         0.00000E+00
    0.00000E+00         0.00000E+00        -0.50929E+08
 
   -0.48260E+08         0.21686E+05         0.00000E+00
    0.21686E+05        -0.59336E+08         0.00000E+00
    0.00000E+00         0.00000E+00        -0.51039E+08
 
   -0.48878E+08         0.76148E+06         0.00000E+00
    0.76148E+06        -0.59225E+08         0.00000E+00
    0.00000E+00         0.00000E+00        -0.51141E+08
 
   -0.49463E+08         0.16348E+07         0.00000E+00
    0.16348E+07        -0.59102E+08         0.00000E+00
    0.00000E+00         0.00000E+00        -0.51233E+08
 
   -0.50011E+08         0.26369E+07         0.00000E+00
    0.26369E+07        -0.58967E+08         0.00000E+00
    0.00000E+00         0.00000E+00        -0.51316E+08
 
   -0.50514E+08         0.37623E+07         0.00000E+00
    0.37623E+07        -0.58823E+08         0.00000E+00
    0.00000E+00         0.00000E+00        -0.51388E+08
 
   -0.50962E+08         0.50033E+07         0.00000E+00
    0.50033E+07        -0.58675E+08         0.00000E+00
    0.00000E+00         0.00000E+00        -0.51449E+08
 
   -0.51344E+08         0.63489E+07         0.00000E+00
    0.63489E+07        -0.58530E+08         0.00000E+00
    0.00000E+00         0.00000E+00        -0.51496E+08
 
   -0.43290E+08        -0.31714E+06         0.00000E+00
   -0.31714E+06        -0.59992E+08         0.00000E+00
    0.00000E+00         0.00000E+00        -0.48975E+08
 
   -0.43780E+08        -0.83725E+06         0.00000E+00
   -0.83725E+06        -0.59958E+08         0.00000E+00
    0.00000E+00         0.00000E+00        -0.49066E+08
 
   -0.44315E+08        -0.11944E+07         0.00000E+00
   -0.11944E+07        -0.59902E+08         0.00000E+00
    0.00000E+00         0.00000E+00        -0.49162E+08
 
   -0.44875E+08        -0.13828E+07         0.00000E+00
   -0.13828E+07        -0.59834E+08         0.00000E+00
    0.00000E+00         0.00000E+00        -0.49260E+08
 
   -0.45441E+08        -0.14020E+07         0.00000E+00
   -0.14020E+07        -0.59758E+08         0.00000E+00
    0.00000E+00         0.00000E+00        -0.49359E+08
 
   -0.46002E+08        -0.12553E+07         0.00000E+00
   -0.12553E+07        -0.59680E+08         0.00000E+00
    0.00000E+00         0.00000E+00        -0.49456E+08
 
   -0.46550E+08        -0.94832E+06         0.00000E+00
   -0.94832E+06        -0.59599E+08         0.00000E+00
    0.00000E+00         0.00000E+00        -0.49549E+08
 
   -0.47078E+08        -0.48756E+06         0.00000E+00
   -0.48756E+06        -0.59516E+08         0.00000E+00
    0.00000E+00         0.00000E+00        -0.49639E+08
 
   -0.47584E+08         0.12030E+06         0.00000E+00
    0.12030E+06        -0.59429E+08         0.00000E+00
    0.00000E+00         0.00000E+00        -0.49723E+08
 
   -0.48066E+08         0.86881E+06         0.00000E+00
    0.86881E+06        -0.59336E+08         0.00000E+00
    0.00000E+00         0.00000E+00        -0.49801E+08
 
   -0.48520E+08         0.17517E+07         0.00000E+00
    0.17517E+07        -0.59235E+08         0.00000E+00
    0.00000E+00         0.00000E+00        -0.49871E+08
 
   -0.48942E+08         0.27622E+07         0.00000E+00
    0.27622E+07        -0.59128E+08         0.00000E+00
    0.00000E+00         0.00000E+00        -0.49935E+08
 
   -0.49328E+08         0.38928E+07         0.00000E+00
    0.38928E+07        -0.59016E+08         0.00000E+00
    0.00000E+00         0.00000E+00        -0.49990E+08
 
   -0.49669E+08         0.51337E+07         0.00000E+00
    0.51337E+07        -0.58903E+08         0.00000E+00
    0.00000E+00         0.00000E+00        -0.50035E+08
 
   -0.49957E+08         0.64725E+07         0.00000E+00
    0.64725E+07        -0.58793E+08         0.00000E+00
    0.00000E+00         0.00000E+00        -0.50071E+08
 
   -0.43872E+08        -0.30062E+06         0.00000E+00
   -0.30062E+06        -0.59994E+08         0.00000E+00
    0.00000E+00         0.00000E+00        -0.47893E+08
 
   -0.44210E+08        -0.79599E+06         0.00000E+00
   -0.79599E+06        -0.59969E+08         0.00000E+00
    0.00000E+00         0.00000E+00        -0.47956E+08
 
   -0.44583E+08        -0.11377E+07         0.00000E+00
   -0.11377E+07        -0.59927E+08         0.00000E+00
    0.00000E+00         0.00000E+00        -0.48022E+08
 
   -0.44975E+08        -0.13176E+07         0.00000E+00
   -0.13176E+07        -0.59874E+08         0.00000E+00
    0.00000E+00         0.00000E+00        -0.48090E+08
 
   -0.45375E+08        -0.13327E+07         0.00000E+00
   -0.13327E+07        -0.59816E+08         0.00000E+00
    0.00000E+00         0.00000E+00        -0.48159E+08
 
   -0.45774E+08        -0.11839E+07         0.00000E+00
   -0.11839E+07        -0.59755E+08         0.00000E+00
    0.00000E+00         0.00000E+00        -0.48226E+08
 
   -0.46164E+08        -0.87519E+06         0.00000E+00
   -0.87519E+06        -0.59692E+08         0.00000E+00
    0.00000E+00         0.00000E+00        -0.48292E+08
 
   -0.46541E+08        -0.41177E+06         0.00000E+00
   -0.41177E+06        -0.59628E+08         0.00000E+00
    0.00000E+00         0.00000E+00        -0.48355E+08
 
   -0.46903E+08         0.20013E+06         0.00000E+00
    0.20013E+06        -0.59561E+08         0.00000E+00
    0.00000E+00         0.00000E+00        -0.48414E+08
 
   -0.47246E+08         0.95380E+06         0.00000E+00
    0.95380E+06        -0.59490E+08         0.00000E+00
    0.00000E+00         0.00000E+00        -0.48469E+08
 
   -0.47569E+08         0.18421E+07         0.00000E+00
    0.18421E+07        -0.59416E+08         0.00000E+00
    0.00000E+00         0.00000E+00        -0.48519E+08
 
   -0.47869E+08         0.28572E+07         0.00000E+00
    0.28572E+07        -0.59338E+08         0.00000E+00
    0.00000E+00         0.00000E+00        -0.48563E+08
 
   -0.48140E+08         0.39899E+07         0.00000E+00
    0.39899E+07        -0.59258E+08         0.00000E+00
    0.00000E+00         0.00000E+00        -0.48601E+08
 
   -0.48379E+08         0.52294E+07         0.00000E+00
    0.52294E+07        -0.59178E+08         0.00000E+00
    0.00000E+00         0.00000E+00        -0.48633E+08
 
   -0.48579E+08         0.65622E+07         0.00000E+00
    0.65622E+07        -0.59102E+08         0.00000E+00
    0.00000E+00         0.00000E+00        -0.48658E+08
 
   -0.44428E+08        -0.28918E+06         0.00000E+00
   -0.28918E+06        -0.59996E+08         0.00000E+00
    0.00000E+00         0.00000E+00        -0.46807E+08
 
   -0.44623E+08        -0.76717E+06         0.00000E+00
   -0.76717E+06        -0.59980E+08         0.00000E+00
    0.00000E+00         0.00000E+00        -0.46843E+08
 
   -0.44840E+08        -0.10978E+07         0.00000E+00
   -0.10978E+07        -0.59954E+08         0.00000E+00
    0.00000E+00         0.00000E+00        -0.46881E+08
 
   -0.45070E+08        -0.12712E+07         0.00000E+00
   -0.12712E+07        -0.59920E+08         0.00000E+00
    0.00000E+00         0.00000E+00        -0.46921E+08
 
   -0.45307E+08        -0.12829E+07         0.00000E+00
   -0.12829E+07        -0.59883E+08         0.00000E+00
    0.00000E+00         0.00000E+00        -0.46961E+08
 
   -0.45544E+08        -0.11325E+07         0.00000E+00
   -0.11325E+07        -0.59843E+08         0.00000E+00
    0.00000E+00         0.00000E+00        -0.47000E+08
 
   -0.45776E+08        -0.82251E+06         0.00000E+00
   -0.82251E+06        -0.59803E+08         0.00000E+00
    0.00000E+00         0.00000E+00        -0.47039E+08
 
   -0.46002E+08        -0.35755E+06         0.00000E+00
   -0.35755E+06        -0.59761E+08         0.00000E+00
    0.00000E+00         0.00000E+00        -0.47076E+08
 
   -0.46218E+08         0.25650E+06         0.00000E+00
    0.25650E+06        -0.59719E+08         0.00000E+00
    0.00000E+00         0.00000E+00        -0.47111E+08
 
   -0.46423E+08         0.10129E+07         0.00000E+00
    0.10129E+07        -0.59674E+08         0.00000E+00
    0.00000E+00         0.00000E+00        -0.47143E+08
 
   -0.46615E+08         0.19039E+07         0.00000E+00
    0.19039E+07        -0.59628E+08         0.00000E+00
    0.00000E+00         0.00000E+00        -0.47172E+08
 
   -0.46793E+08         0.29210E+07         0.00000E+00
    0.29210E+07        -0.59581E+08         0.00000E+00
    0.00000E+00         0.00000E+00        -0.47199E+08
 
   -0.46953E+08         0.40542E+07         0.00000E+00
    0.40542E+07        -0.59533E+08         0.00000E+00
    0.00000E+00         0.00000E+00        -0.47221E+08
 
   -0.47093E+08         0.52918E+07         0.00000E+00
    0.52918E+07        -0.59486E+08         0.00000E+00
    0.00000E+00         0.00000E+00        -0.47240E+08
 
   -0.47208E+08         0.66199E+07         0.00000E+00
    0.66199E+07        -0.59442E+08         0.00000E+00
    0.00000E+00         0.00000E+00        -0.47254E+08
 
   -0.44969E+08        -0.28310E+06         0.00000E+00
   -0.28310E+06        -0.59999E+08         0.00000E+00
    0.00000E+00         0.00000E+00        -0.45720E+08
 
   -0.45025E+08        -0.75177E+06         0.00000E+00
   -0.75177E+06        -0.59993E+08         0.00000E+00
    0.00000E+00         0.00000E+00        -0.45730E+08
 
   -0.45090E+08        -0.10763E+07         0.00000E+00
   -0.10763E+07        -0.59982E+08         0.00000E+00
    0.00000E+00         0.00000E+00        -0.45741E+08
 
   -0.45162E+08        -0.12461E+07         0.00000E+00
   -0.12461E+07        -0.59969E+08         0.00000E+00
    0.00000E+00         0.00000E+00        -0.45753E+08
 
   -0.45237E+08        -0.12559E+07         0.00000E+00
   -0.12559E+07        -0.59955E+08         0.00000E+00
    0.00000E+00         0.00000E+00        -0.45765E+08
 
   -0.45313E+08        -0.11045E+07         0.00000E+00
   -0.11045E+07        -0.59940E+08         0.00000E+00
    0.00000E+00         0.00000E+00        -0.45777E+08
 
   -0.45388E+08        -0.79395E+06         0.00000E+00
   -0.79395E+06        -0.59924E+08         0.00000E+00
    0.00000E+00         0.00000E+00        -0.45789E+08
 
   -0.45461E+08        -0.32842E+06         0.00000E+00
   -0.32842E+06        -0.59908E+08         0.00000E+00
    0.00000E+00         0.00000E+00        -0.45801E+08
 
   -0.45531E+08         0.28639E+06         0.00000E+00
    0.28639E+06        -0.59892E+08         0.00000E+00
    0.00000E+00         0.00000E+00        -0.45811E+08
 
   -0.45598E+08         0.10436E+07         0.00000E+00
    0.10436E+07        -0.59876E+08         0.00000E+00
    0.00000E+00         0.00000E+00        -0.45822E+08
 
   -0.45660E+08         0.19355E+07         0.00000E+00
    0.19355E+07        -0.59860E+08         0.00000E+00
    0.00000E+00         0.00000E+00        -0.45831E+08
 
   -0.45716E+08         0.29530E+07         0.00000E+00
    0.29530E+07        -0.59844E+08         0.00000E+00
    0.00000E+00         0.00000E+00        -0.45839E+08
 
   -0.45766E+08         0.40857E+07         0.00000E+00
    0.40857E+07        -0.59828E+08         0.00000E+00
    0.00000E+00         0.00000E+00        -0.45846E+08
 
   -0.45809E+08         0.53218E+07         0.00000E+00
    0.53218E+07        -0.59814E+08         0.00000E+00
    0.00000E+00         0.00000E+00        -0.45851E+08
 
   -0.45843E+08         0.66470E+07         0.00000E+00
    0.66470E+07        -0.59801E+08         0.00000E+00
    0.00000E+00         0.00000E+00        -0.45856E+08
 
   -0.45503E+08        -0.28253E+06         0.00000E+00
   -0.28253E+06        -0.60001E+08         0.00000E+00
    0.00000E+00         0.00000E+00        -0.44632E+08
 
   -0.45422E+08        -0.75028E+06         0.00000E+00
   -0.75028E+06        -0.60005E+08         0.00000E+00
    0.00000E+00         0.00000E+00        -0.44616E+08
 
   -0.45338E+08        -0.10742E+07         0.00000E+00
   -0.10742E+07        -0.60011E+08         0.00000E+00
    0.00000E+00         0.00000E+00        -0.44601E+08
 
   -0.45252E+08        -0.12435E+07         0.00000E+00
   -0.12435E+07        -0.60020E+08         0.00000E+00
    0.00000E+00         0.00000E+00        -0.44585E+08
 
   -0.45166E+08        -0.12531E+07         0.00000E+00
   -0.12531E+07        -0.60029E+08         0.00000E+00
    0.00000E+00         0.00000E+00        -0.44570E+08
 
   -0.45081E+08        -0.11017E+07         0.00000E+00
   -0.11017E+07        -0.60039E+08         0.00000E+00
    0.00000E+00         0.00000E+00        -0.44555E+08
 
   -0.44999E+08        -0.79134E+06         0.00000E+00
   -0.79134E+06        -0.60049E+08         0.00000E+00
    0.00000E+00         0.00000E+00        -0.44541E+08
 
   -0.44920E+08        -0.32611E+06         0.00000E+00
   -0.32611E+06        -0.60060E+08         0.00000E+00
    0.00000E+00         0.00000E+00        -0.44527E+08
 
   -0.44845E+08         0.28827E+06         0.00000E+00
    0.28827E+06        -0.60071E+08         0.00000E+00
    0.00000E+00         0.00000E+00        -0.44514E+08
 
   -0.44772E+08         0.10450E+07         0.00000E+00
    0.10450E+07        -0.60084E+08         0.00000E+00
    0.00000E+00         0.00000E+00        -0.44502E+08
 
   -0.44704E+08         0.19361E+07         0.00000E+00
    0.19361E+07        -0.60098E+08         0.00000E+00
    0.00000E+00         0.00000E+00        -0.44491E+08
 
   -0.44640E+08         0.29528E+07         0.00000E+00
    0.29528E+07        -0.60114E+08         0.00000E+00
    0.00000E+00         0.00000E+00        -0.44482E+08
 
   -0.44581E+08         0.40847E+07         0.00000E+00
    0.40847E+07        -0.60131E+08         0.00000E+00
    0.00000E+00         0.00000E+00        -0.44473E+08
 
   -0.44527E+08         0.53198E+07         0.00000E+00
    0.53198E+07        -0.60148E+08         0.00000E+00
    0.00000E+00         0.00000E+00        -0.44466E+08
 
   -0.44479E+08         0.66439E+07         0.00000E+00
    0.66439E+07        -0.60166E+08         0.00000E+00
    0.00000E+00         0.00000E+00        -0.44460E+08
 
   -0.46041E+08        -0.28748E+06         0.00000E+00
   -0.28748E+06        -0.60003E+08         0.00000E+00
    0.00000E+00         0.00000E+00        -0.43545E+08
 
   -0.45823E+08        -0.76271E+06         0.00000E+00
   -0.76271E+06        -0.60017E+08         0.00000E+00
    0.00000E+00         0.00000E+00        -0.43505E+08
 
   -0.45587E+08        -0.10914E+07         0.00000E+00
   -0.10914E+07        -0.60040E+08         0.00000E+00
    0.00000E+00         0.00000E+00        -0.43462E+08
 
   -0.45343E+08        -0.12636E+07         0.00000E+00
   -0.12636E+07        -0.60069E+08         0.00000E+00
    0.00000E+00         0.00000E+00        -0.43419E+08
 
   -0.45095E+08        -0.12747E+07         0.00000E+00
   -0.12747E+07        -0.60101E+08         0.00000E+00
    0.00000E+00         0.00000E+00        -0.43376E+08
 
   -0.44850E+08        -0.11242E+07         0.00000E+00
   -0.11242E+07        -0.60135E+08         0.00000E+00
    0.00000E+00         0.00000E+00        -0.43333E+08
 
   -0.44611E+08        -0.81472E+06         0.00000E+00
   -0.81472E+06        -0.60170E+08         0.00000E+00
    0.00000E+00         0.00000E+00        -0.43293E+08
 
   -0.44380E+08        -0.35066E+06         0.00000E+00
   -0.35066E+06        -0.60207E+08         0.00000E+00
    0.00000E+00         0.00000E+00        -0.43254E+08
 
   -0.44159E+08         0.26212E+06         0.00000E+00
    0.26212E+06        -0.60246E+08         0.00000E+00
    0.00000E+00         0.00000E+00        -0.43217E+08
 
   -0.43948E+08         0.10168E+07         0.00000E+00
    0.10168E+07        -0.60287E+08         0.00000E+00
    0.00000E+00         0.00000E+00        -0.43183E+08
 
   -0.43750E+08         0.19059E+07         0.00000E+00
    0.19059E+07        -0.60331E+08         0.00000E+00
    0.00000E+00         0.00000E+00        -0.43152E+08
 
   -0.43565E+08         0.29206E+07         0.00000E+00
    0.29206E+07        -0.60377E+08         0.00000E+00
    0.00000E+00         0.00000E+00        -0.43124E+08
 
   -0.43396E+08         0.40512E+07         0.00000E+00
    0.40512E+07        -0.60427E+08         0.00000E+00
    0.00000E+00         0.00000E+00        -0.43100E+08
 
   -0.43245E+08         0.52859E+07         0.00000E+00
    0.52859E+07        -0.60476E+08         0.00000E+00
    0.00000E+00         0.00000E+00        -0.43080E+08
 
   -0.43116E+08         0.66108E+07         0.00000E+00
    0.66108E+07        -0.60526E+08         0.00000E+00
    0.00000E+00         0.00000E+00        -0.43064E+08
 
   -0.46593E+08        -0.29780E+06         0.00000E+00
   -0.29780E+06        -0.60006E+08         0.00000E+00
    0.00000E+00         0.00000E+00        -0.42463E+08
 
   -0.46232E+08        -0.78859E+06         0.00000E+00
   -0.78859E+06        -0.60029E+08         0.00000E+00
    0.00000E+00         0.00000E+00        -0.42395E+08
 
   -0.45842E+08        -0.11271E+07         0.00000E+00
   -0.11271E+07        -0.60067E+08         0.00000E+00
    0.00000E+00         0.00000E+00        -0.42325E+08
 
   -0.45437E+08        -0.13050E+07         0.00000E+00
   -0.13050E+07        -0.60115E+08         0.00000E+00
    0.00000E+00         0.00000E+00        -0.42253E+08
 
   -0.45027E+08        -0.13191E+07         0.00000E+00
   -0.13191E+07        -0.60168E+08         0.00000E+00
    0.00000E+00         0.00000E+00        -0.42182E+08
 
   -0.44621E+08        -0.11703E+07         0.00000E+00
   -0.11703E+07        -0.60224E+08         0.00000E+00
    0.00000E+00         0.00000E+00        -0.42111E+08
 
   -0.44225E+08        -0.86237E+06         0.00000E+00
   -0.86237E+06        -0.60282E+08         0.00000E+00
    0.00000E+00         0.00000E+00        -0.42044E+08
 
   -0.43842E+08        -0.40041E+06         0.00000E+00
   -0.40041E+06        -0.60342E+08         0.00000E+00
    0.00000E+00         0.00000E+00        -0.41979E+08
 
   -0.43476E+08         0.20937E+06         0.00000E+00
    0.20937E+06        -0.60405E+08         0.00000E+00
    0.00000E+00         0.00000E+00        -0.41918E+08
 
   -0.43127E+08         0.96035E+06         0.00000E+00
    0.96035E+06        -0.60472E+08         0.00000E+00
    0.00000E+00         0.00000E+00        -0.41862E+08
 
   -0.42799E+08         0.18454E+07         0.00000E+00
    0.18454E+07        -0.60544E+08         0.00000E+00
    0.00000E+00         0.00000E+00        -0.41810E+08
 
   -0.42493E+08         0.28567E+07         0.00000E+00
    0.28567E+07        -0.60622E+08         0.00000E+00
    0.00000E+00         0.00000E+00        -0.41764E+08
 
   -0.42212E+08         0.39851E+07         0.00000E+00
    0.39851E+07        -0.60703E+08         0.00000E+00
    0.00000E+00         0.00000E+00        -0.41724E+08
 
   -0.41963E+08         0.52196E+07         0.00000E+00
    0.52196E+07        -0.60786E+08         0.00000E+00
    0.00000E+00         0.00000E+00        -0.41691E+08
 
   -0.41750E+08         0.65470E+07         0.00000E+00
    0.65470E+07        -0.60867E+08         0.00000E+00
    0.00000E+00         0.00000E+00        -0.41665E+08
 
   -0.47168E+08        -0.31320E+06         0.00000E+00
   -0.31320E+06        -0.60008E+08         0.00000E+00
    0.00000E+00         0.00000E+00        -0.41385E+08
 
   -0.46658E+08        -0.82697E+06         0.00000E+00
   -0.82697E+06        -0.60039E+08         0.00000E+00
    0.00000E+00         0.00000E+00        -0.41289E+08
 
   -0.46106E+08        -0.11797E+07         0.00000E+00
   -0.11797E+07        -0.60092E+08         0.00000E+00
    0.00000E+00         0.00000E+00        -0.41189E+08
 
   -0.45535E+08        -0.13653E+07         0.00000E+00
   -0.13653E+07        -0.60156E+08         0.00000E+00
    0.00000E+00         0.00000E+00        -0.41088E+08
 
   -0.44960E+08        -0.13833E+07         0.00000E+00
   -0.13833E+07        -0.60227E+08         0.00000E+00
    0.00000E+00         0.00000E+00        -0.40987E+08
 
   -0.44393E+08        -0.12366E+07         0.00000E+00
   -0.12366E+07        -0.60300E+08         0.00000E+00
    0.00000E+00         0.00000E+00        -0.40888E+08
 
   -0.43840E+08        -0.93068E+06         0.00000E+00
   -0.93068E+06        -0.60376E+08         0.00000E+00
    0.00000E+00         0.00000E+00        -0.40792E+08
 
   -0.43308E+08        -0.47195E+06         0.00000E+00
   -0.47195E+06        -0.60454E+08         0.00000E+00
    0.00000E+00         0.00000E+00        -0.40701E+08
 
   -0.42797E+08         0.13302E+06         0.00000E+00
    0.13302E+06        -0.60538E+08         0.00000E+00
    0.00000E+00         0.00000E+00        -0.40615E+08
 
   -0.42312E+08         0.87784E+06         0.00000E+00
    0.87784E+06        -0.60628E+08         0.00000E+00
    0.00000E+00         0.00000E+00        -0.40536E+08
 
   -0.41853E+08         0.17562E+07         0.00000E+00
    0.17562E+07        -0.60727E+08         0.00000E+00
    0.00000E+00         0.00000E+00        -0.40464E+08
 
   -0.41424E+08         0.27615E+07         0.00000E+00
    0.27615E+07        -0.60833E+08         0.00000E+00
    0.00000E+00         0.00000E+00        -0.40399E+08
 
   -0.41031E+08         0.38861E+07         0.00000E+00
    0.38861E+07        -0.60946E+08         0.00000E+00
    0.00000E+00         0.00000E+00        -0.40343E+08
 
   -0.40679E+08         0.51202E+07         0.00000E+00
    0.51202E+07        -0.61062E+08         0.00000E+00
    0.00000E+00         0.00000E+00        -0.40296E+08
 
   -0.40379E+08         0.64515E+07         0.00000E+00
    0.64515E+07        -0.61177E+08         0.00000E+00
    0.00000E+00         0.00000E+00        -0.40259E+08
 
   -0.47776E+08        -0.33326E+06         0.00000E+00
   -0.33326E+06        -0.60010E+08         0.00000E+00
    0.00000E+00         0.00000E+00        -0.40315E+08
 
   -0.47103E+08        -0.87638E+06         0.00000E+00
   -0.87638E+06        -0.60049E+08         0.00000E+00
    0.00000E+00         0.00000E+00        -0.40188E+08
 
   -0.46382E+08        -0.12465E+07         0.00000E+00
   -0.12465E+07        -0.60112E+08         0.00000E+00
    0.00000E+00         0.00000E+00        -0.40056E+08
 
   -0.45640E+08        -0.14408E+07         0.00000E+00
   -0.14408E+07        -0.60189E+08         0.00000E+00
    0.00000E+00         0.00000E+00        -0.39923E+08
 
   -0.44897E+08        -0.14624E+07         0.00000E+00
   -0.14624E+07        -0.60272E+08         0.00000E+00
    0.00000E+00         0.00000E+00        -0.39791E+08
 
   -0.44167E+08        -0.13175E+07         0.00000E+00
   -0.13175E+07        -0.60357E+08         0.00000E+00
    0.00000E+00         0.00000E+00        -0.39661E+08
 
   -0.43459E+08        -0.10141E+07         0.00000E+00
   -0.10141E+07        -0.60444E+08         0.00000E+00
    0.00000E+00         0.00000E+00        -0.39537E+08
 
   -0.42778E+08        -0.56000E+06         0.00000E+00
   -0.56000E+06        -0.60535E+08         0.00000E+00
    0.00000E+00         0.00000E+00        -0.39418E+08
 
   -0.42126E+08         0.37620E+05         0.00000E+00
    0.37620E+05        -0.60633E+08         0.00000E+00
    0.00000E+00         0.00000E+00        -0.39307E+08
 
   -0.41504E+08         0.77281E+06         0.00000E+00
    0.77281E+06        -0.60742E+08         0.00000E+00
    0.00000E+00         0.00000E+00        -0.39204E+08
 
   -0.40915E+08         0.16406E+07         0.00000E+00
    0.16406E+07        -0.60863E+08         0.00000E+00
    0.00000E+00         0.00000E+00        -0.39110E+08
 
   -0.40362E+08         0.26361E+07         0.00000E+00
    0.26361E+07        -0.60997E+08         0.00000E+00
    0.00000E+00         0.00000E+00        -0.39026E+08
 
   -0.39852E+08         0.37539E+07         0.00000E+00
    0.37539E+07        -0.61142E+08         0.00000E+00
    0.00000E+00         0.00000E+00        -0.38953E+08
 
   -0.39394E+08         0.49863E+07         0.00000E+00
    0.49863E+07        -0.61293E+08         0.00000E+00
    0.00000E+00         0.00000E+00        -0.38892E+08
 
   -0.39001E+08         0.63224E+07         0.00000E+00
    0.63224E+07        -0.61442E+08         0.00000E+00
    0.00000E+00         0.00000E+00        -0.38843E+08
 
   -0.48424E+08        -0.35740E+06         0.00000E+00
   -0.35740E+06        -0.60012E+08         0.00000E+00
    0.00000E+00         0.00000E+00        -0.39253E+08
 
   -0.47574E+08        -0.93480E+06         0.00000E+00
   -0.93480E+06        -0.60056E+08         0.00000E+00
    0.00000E+00         0.00000E+00        -0.39092E+08
 
   -0.46671E+08        -0.13237E+07         0.00000E+00
   -0.13237E+07        -0.60128E+08         0.00000E+00
    0.00000E+00         0.00000E+00        -0.38925E+08
 
   -0.45750E+08        -0.15261E+07         0.00000E+00
   -0.15261E+07        -0.60212E+08         0.00000E+00
    0.00000E+00         0.00000E+00        -0.38757E+08
 
   -0.44835E+08        -0.15498E+07         0.00000E+00
   -0.15498E+07        -0.60300E+08         0.00000E+00
    0.00000E+00         0.00000E+00        -0.38592E+08
 
   -0.43942E+08        -0.14057E+07         0.00000E+00
   -0.14057E+07        -0.60388E+08         0.00000E+00
    0.00000E+00         0.00000E+00        -0.38430E+08
 
   -0.43081E+08        -0.11049E+07         0.00000E+00
   -0.11049E+07        -0.60478E+08         0.00000E+00
    0.00000E+00         0.00000E+00        -0.38276E+08
 
   -0.42255E+08        -0.65727E+06         0.00000E+00
   -0.65727E+06        -0.60572E+08         0.00000E+00
    0.00000E+00         0.00000E+00        -0.38129E+08
 
   -0.41465E+08        -0.70564E+05         0.00000E+00
   -0.70564E+05        -0.60677E+08         0.00000E+00
    0.00000E+00         0.00000E+00        -0.37992E+08
 
   -0.40710E+08         0.65003E+06         0.00000E+00
    0.65003E+06        -0.60798E+08         0.00000E+00
    0.00000E+00         0.00000E+00        -0.37864E+08
 
   -0.39991E+08         0.15014E+07         0.00000E+00
    0.15014E+07        -0.60937E+08         0.00000E+00
    0.00000E+00         0.00000E+00        -0.37748E+08
 
   -0.39311E+08         0.24813E+07         0.00000E+00
    0.24813E+07        -0.61097E+08         0.00000E+00
    0.00000E+00         0.00000E+00        -0.37644E+08
 
   -0.38680E+08         0.35876E+07         0.00000E+00
    0.35876E+07        -0.61273E+08         0.00000E+00
    0.00000E+00         0.00000E+00        -0.37552E+08
 
   -0.38108E+08         0.48155E+07         0.00000E+00
    0.48155E+07        -0.61461E+08         0.00000E+00
    0.00000E+00         0.00000E+00        -0.37475E+08
 
   -0.37613E+08         0.61565E+07         0.00000E+00
    0.61565E+07        -0.61649E+08         0.00000E+00
    0.00000E+00         0.00000E+00        -0.37414E+08
 
   -0.49118E+08        -0.38492E+06         0.00000E+00
   -0.38492E+06        -0.60013E+08         0.00000E+00
    0.00000E+00         0.00000E+00        -0.38200E+08
 
   -0.48070E+08        -0.99958E+06         0.00000E+00
   -0.99958E+06        -0.60061E+08         0.00000E+00
    0.00000E+00         0.00000E+00        -0.38000E+08
 
   -0.46971E+08        -0.14063E+07         0.00000E+00
   -0.14063E+07        -0.60137E+08         0.00000E+00
    0.00000E+00         0.00000E+00        -0.37795E+08
 
   -0.45862E+08        -0.16137E+07         0.00000E+00
   -0.16137E+07        -0.60221E+08         0.00000E+00
    0.00000E+00         0.00000E+00        -0.37590E+08
 
   -0.44772E+08        -0.16364E+07         0.00000E+00
   -0.16364E+07        -0.60305E+08         0.00000E+00
    0.00000E+00         0.00000E+00        -0.37388E+08
 
   -0.43719E+08        -0.14910E+07         0.00000E+00
   -0.14910E+07        -0.60386E+08         0.00000E+00
    0.00000E+00         0.00000E+00        -0.37193E+08
 
   -0.42709E+08        -0.11929E+07         0.00000E+00
   -0.11929E+07        -0.60466E+08         0.00000E+00
    0.00000E+00         0.00000E+00        -0.37007E+08
 
   -0.41744E+08        -0.75436E+06         0.00000E+00
   -0.75436E+06        -0.60553E+08         0.00000E+00
    0.00000E+00         0.00000E+00        -0.36831E+08
 
   -0.40820E+08        -0.18352E+06         0.00000E+00
   -0.18352E+06        -0.60655E+08         0.00000E+00
    0.00000E+00         0.00000E+00        -0.36666E+08
 
   -0.39935E+08         0.51557E+06         0.00000E+00
    0.51557E+06        -0.60780E+08         0.00000E+00
    0.00000E+00         0.00000E+00        -0.36513E+08
 
   -0.39087E+08         0.13423E+07         0.00000E+00
    0.13423E+07        -0.60932E+08         0.00000E+00
    0.00000E+00         0.00000E+00        -0.36374E+08
 
   -0.38278E+08         0.22984E+07         0.00000E+00
    0.22984E+07        -0.61115E+08         0.00000E+00
    0.00000E+00         0.00000E+00        -0.36248E+08
 
   -0.37519E+08         0.33858E+07         0.00000E+00
    0.33858E+07        -0.61323E+08         0.00000E+00
    0.00000E+00         0.00000E+00        -0.36138E+08
 
   -0.36824E+08         0.46044E+07         0.00000E+00
    0.46044E+07        -0.61550E+08         0.00000E+00
    0.00000E+00         0.00000E+00        -0.36044E+08
 
   -0.36215E+08         0.59493E+07         0.00000E+00
    0.59493E+07        -0.61783E+08         0.00000E+00
    0.00000E+00         0.00000E+00        -0.35969E+08
 
   -0.49864E+08        -0.41496E+06         0.00000E+00
   -0.41496E+06        -0.60014E+08         0.00000E+00
    0.00000E+00         0.00000E+00        -0.37158E+08
 
   -0.48593E+08        -0.10673E+07         0.00000E+00
   -0.10673E+07        -0.60064E+08         0.00000E+00
    0.00000E+00         0.00000E+00        -0.36914E+08
 
   -0.47280E+08        -0.14876E+07         0.00000E+00
   -0.14876E+07        -0.60137E+08         0.00000E+00
    0.00000E+00         0.00000E+00        -0.36665E+08
 
   -0.45973E+08        -0.16940E+07         0.00000E+00
   -0.16940E+07        -0.60212E+08         0.00000E+00
    0.00000E+00         0.00000E+00        -0.36419E+08
 
   -0.44706E+08        -0.17102E+07         0.00000E+00
   -0.17102E+07        -0.60279E+08         0.00000E+00
    0.00000E+00         0.00000E+00        -0.36178E+08
 
   -0.43495E+08        -0.15606E+07         0.00000E+00
   -0.15606E+07        -0.60338E+08         0.00000E+00
    0.00000E+00         0.00000E+00        -0.35947E+08
 
   -0.42343E+08        -0.12656E+07         0.00000E+00
   -0.12656E+07        -0.60396E+08         0.00000E+00
    0.00000E+00         0.00000E+00        -0.35728E+08
 
   -0.41247E+08        -0.83977E+06         0.00000E+00
   -0.83977E+06        -0.60462E+08         0.00000E+00
    0.00000E+00         0.00000E+00        -0.35521E+08
 
   -0.40198E+08        -0.29152E+06         0.00000E+00
   -0.29152E+06        -0.60550E+08         0.00000E+00
    0.00000E+00         0.00000E+00        -0.35329E+08
 
   -0.39189E+08         0.37678E+06         0.00000E+00
    0.37678E+06        -0.60670E+08         0.00000E+00
    0.00000E+00         0.00000E+00        -0.35150E+08
 
   -0.38214E+08         0.11678E+07         0.00000E+00
    0.11678E+07        -0.60829E+08         0.00000E+00
    0.00000E+00         0.00000E+00        -0.34987E+08
 
   -0.37273E+08         0.20882E+07         0.00000E+00
    0.20882E+07        -0.61030E+08         0.00000E+00
    0.00000E+00         0.00000E+00        -0.34839E+08
 
   -0.36377E+08         0.31461E+07         0.00000E+00
    0.31461E+07        -0.61272E+08         0.00000E+00
    0.00000E+00         0.00000E+00        -0.34707E+08
 
   -0.35545E+08         0.43478E+07         0.00000E+00
    0.43478E+07        -0.61544E+08         0.00000E+00
    0.00000E+00         0.00000E+00        -0.34595E+08
 
   -0.34806E+08         0.56940E+07         0.00000E+00
    0.56940E+07        -0.61827E+08         0.00000E+00
    0.00000E+00         0.00000E+00        -0.34504E+08
 
   -0.50662E+08        -0.44652E+06         0.00000E+00
   -0.44652E+06        -0.60014E+08         0.00000E+00
    0.00000E+00         0.00000E+00        -0.36126E+08
 
   -0.49137E+08        -0.11333E+07         0.00000E+00
   -0.11333E+07        -0.60063E+08         0.00000E+00
    0.00000E+00         0.00000E+00        -0.35831E+08
 
   -0.47588E+08        -0.15586E+07         0.00000E+00
   -0.15586E+07        -0.60126E+08         0.00000E+00
    0.00000E+00         0.00000E+00        -0.35534E+08
 
   -0.46074E+08        -0.17539E+07         0.00000E+00
   -0.17539E+07        -0.60179E+08         0.00000E+00
    0.00000E+00         0.00000E+00        -0.35241E+08
 
   -0.44631E+08        -0.17561E+07         0.00000E+00
   -0.17561E+07        -0.60213E+08         0.00000E+00
    0.00000E+00         0.00000E+00        -0.34958E+08
 
   -0.43269E+08        -0.15988E+07         0.00000E+00
   -0.15988E+07        -0.60233E+08         0.00000E+00
    0.00000E+00         0.00000E+00        -0.34689E+08
 
   -0.41986E+08        -0.13079E+07         0.00000E+00
   -0.13079E+07        -0.60250E+08         0.00000E+00
    0.00000E+00         0.00000E+00        -0.34436E+08
 
   -0.40771E+08        -0.90011E+06         0.00000E+00
   -0.90011E+06        -0.60282E+08         0.00000E+00
    0.00000E+00         0.00000E+00        -0.34199E+08
 
   -0.39608E+08        -0.38335E+06         0.00000E+00
   -0.38335E+06        -0.60342E+08         0.00000E+00
    0.00000E+00         0.00000E+00        -0.33978E+08
 
   -0.38483E+08         0.24215E+06         0.00000E+00
    0.24215E+06        -0.60446E+08         0.00000E+00
    0.00000E+00         0.00000E+00        -0.33773E+08
 
   -0.37384E+08         0.98311E+06         0.00000E+00
    0.98311E+06        -0.60604E+08         0.00000E+00
    0.00000E+00         0.00000E+00        -0.33584E+08
 
   -0.36309E+08         0.18521E+07         0.00000E+00
    0.18521E+07        -0.60822E+08         0.00000E+00
    0.00000E+00         0.00000E+00        -0.33412E+08
 
   -0.35266E+08         0.28652E+07         0.00000E+00
    0.28652E+07        -0.61099E+08         0.00000E+00
    0.00000E+00         0.00000E+00        -0.33259E+08
 
   -0.34279E+08         0.40383E+07         0.00000E+00
    0.40383E+07        -0.61421E+08         0.00000E+00
    0.00000E+00         0.00000E+00        -0.33125E+08
 
   -0.33384E+08         0.53809E+07         0.00000E+00
    0.53809E+07        -0.61765E+08         0.00000E+00
    0.00000E+00         0.00000E+00        -0.33015E+08
 
   -0.51512E+08        -0.47836E+06         0.00000E+00
   -0.47836E+06        -0.60014E+08         0.00000E+00
    0.00000E+00         0.00000E+00        -0.35105E+08
 
   -0.49693E+08        -0.11911E+07         0.00000E+00
   -0.11911E+07        -0.60057E+08         0.00000E+00
    0.00000E+00         0.00000E+00        -0.34750E+08
 
   -0.47884E+08        -0.16063E+07         0.00000E+00
   -0.16063E+07        -0.60098E+08         0.00000E+00
    0.00000E+00         0.00000E+00        -0.34396E+08
 
   -0.46156E+08        -0.17759E+07         0.00000E+00
   -0.17759E+07        -0.60110E+08         0.00000E+00
    0.00000E+00         0.00000E+00        -0.34052E+08
 
   -0.44540E+08        -0.17546E+07         0.00000E+00
   -0.17546E+07        -0.60090E+08         0.00000E+00
    0.00000E+00         0.00000E+00        -0.33724E+08
 
   -0.43041E+08        -0.15869E+07         0.00000E+00
   -0.15869E+07        -0.60050E+08         0.00000E+00
    0.00000E+00         0.00000E+00        -0.33416E+08
 
   -0.41643E+08        -0.13032E+07         0.00000E+00
   -0.13032E+07        -0.60010E+08         0.00000E+00
    0.00000E+00         0.00000E+00        -0.33128E+08
 
   -0.40325E+08        -0.92100E+06         0.00000E+00
   -0.92100E+06        -0.59990E+08         0.00000E+00
    0.00000E+00         0.00000E+00        -0.32860E+08
 
   -0.39062E+08        -0.44701E+06         0.00000E+00
   -0.44701E+06        -0.60010E+08         0.00000E+00
    0.00000E+00         0.00000E+00        -0.32610E+08
 
   -0.37832E+08         0.12112E+06         0.00000E+00
    0.12112E+06        -0.60087E+08         0.00000E+00
    0.00000E+00         0.00000E+00        -0.32379E+08
 
   -0.36616E+08         0.79415E+06         0.00000E+00
    0.79415E+06        -0.60236E+08         0.00000E+00
    0.00000E+00         0.00000E+00        -0.32165E+08
 
   -0.35405E+08         0.15912E+07         0.00000E+00
    0.15912E+07        -0.60467E+08         0.00000E+00
    0.00000E+00         0.00000E+00        -0.31969E+08
 
   -0.34203E+08         0.25387E+07         0.00000E+00
    0.25387E+07        -0.60779E+08         0.00000E+00
    0.00000E+00         0.00000E+00        -0.31791E+08
 
   -0.33036E+08         0.36659E+07         0.00000E+00
    0.36659E+07        -0.61160E+08         0.00000E+00
    0.00000E+00         0.00000E+00        -0.31633E+08
 
   -0.31953E+08         0.49959E+07         0.00000E+00
    0.49959E+07        -0.61580E+08         0.00000E+00
    0.00000E+00         0.00000E+00        -0.31500E+08
 
   -0.52409E+08        -0.50883E+06         0.00000E+00
   -0.50883E+06        -0.60013E+08         0.00000E+00
    0.00000E+00         0.00000E+00        -0.34093E+08
 
   -0.50244E+08        -0.12309E+07         0.00000E+00
   -0.12309E+07        -0.60042E+08         0.00000E+00
    0.00000E+00         0.00000E+00        -0.33665E+08
 
   -0.48149E+08        -0.16115E+07         0.00000E+00
   -0.16115E+07        -0.60042E+08         0.00000E+00
    0.00000E+00         0.00000E+00        -0.33246E+08
 
   -0.46203E+08        -0.17360E+07         0.00000E+00
   -0.17360E+07        -0.59988E+08         0.00000E+00
    0.00000E+00         0.00000E+00        -0.32845E+08
 
   -0.44430E+08        -0.16821E+07         0.00000E+00
   -0.16821E+07        -0.59887E+08         0.00000E+00
    0.00000E+00         0.00000E+00        -0.32470E+08
 
   -0.42813E+08        -0.15043E+07         0.00000E+00
   -0.15043E+07        -0.59764E+08         0.00000E+00
    0.00000E+00         0.00000E+00        -0.32121E+08
 
   -0.41321E+08        -0.12346E+07         0.00000E+00
   -0.12346E+07        -0.59647E+08         0.00000E+00
    0.00000E+00         0.00000E+00        -0.31799E+08
 
   -0.39920E+08        -0.88869E+06         0.00000E+00
   -0.88869E+06        -0.59562E+08         0.00000E+00
    0.00000E+00         0.00000E+00        -0.31501E+08
 
   -0.38574E+08        -0.47092E+06         0.00000E+00
   -0.47092E+06        -0.59530E+08         0.00000E+00
    0.00000E+00         0.00000E+00        -0.31225E+08
 
   -0.37254E+08         0.23382E+05         0.00000E+00
    0.23382E+05        -0.59571E+08         0.00000E+00
    0.00000E+00         0.00000E+00        -0.30969E+08
 
   -0.35930E+08         0.60813E+06         0.00000E+00
    0.60813E+06        -0.59703E+08         0.00000E+00
    0.00000E+00         0.00000E+00        -0.30730E+08
 
   -0.34584E+08         0.13083E+07         0.00000E+00
    0.13083E+07        -0.59939E+08         0.00000E+00
    0.00000E+00         0.00000E+00        -0.30508E+08
 
   -0.33211E+08         0.21617E+07         0.00000E+00
    0.21617E+07        -0.60288E+08         0.00000E+00
    0.00000E+00         0.00000E+00        -0.30302E+08
 
   -0.31835E+08         0.32167E+07         0.00000E+00
    0.32167E+07        -0.60738E+08         0.00000E+00
    0.00000E+00         0.00000E+00        -0.30117E+08
 
   -0.30517E+08         0.45192E+07         0.00000E+00
    0.45192E+07        -0.61253E+08         0.00000E+00
    0.00000E+00         0.00000E+00        -0.29956E+08
 
   -0.53340E+08        -0.53519E+06         0.00000E+00
   -0.53519E+06        -0.60011E+08         0.00000E+00
    0.00000E+00         0.00000E+00        -0.33087E+08
 
   -0.50760E+08        -0.12347E+07         0.00000E+00
   -0.12347E+07        -0.60012E+08         0.00000E+00
    0.00000E+00         0.00000E+00        -0.32571E+08
 
   -0.48354E+08        -0.15433E+07         0.00000E+00
   -0.15433E+07        -0.59939E+08         0.00000E+00
    0.00000E+00         0.00000E+00        -0.32074E+08
 
   -0.46204E+08        -0.16013E+07         0.00000E+00
   -0.16013E+07        -0.59778E+08         0.00000E+00
    0.00000E+00         0.00000E+00        -0.31612E+08
 
   -0.44299E+08        -0.15118E+07         0.00000E+00
   -0.15118E+07        -0.59564E+08         0.00000E+00
    0.00000E+00         0.00000E+00        -0.31187E+08
 
   -0.42592E+08        -0.13318E+07         0.00000E+00
   -0.13318E+07        -0.59337E+08         0.00000E+00
    0.00000E+00         0.00000E+00        -0.30800E+08
 
   -0.41031E+08        -0.10885E+07         0.00000E+00
   -0.10885E+07        -0.59131E+08         0.00000E+00
    0.00000E+00         0.00000E+00        -0.30446E+08
 
   -0.39568E+08        -0.79278E+06         0.00000E+00
   -0.79278E+06        -0.58972E+08         0.00000E+00
    0.00000E+00         0.00000E+00        -0.30121E+08
 
   -0.38160E+08        -0.44612E+06         0.00000E+00
   -0.44612E+06        -0.58881E+08         0.00000E+00
    0.00000E+00         0.00000E+00        -0.29821E+08
 
   -0.36766E+08        -0.42238E+05         0.00000E+00
   -0.42238E+05        -0.58878E+08         0.00000E+00
    0.00000E+00         0.00000E+00        -0.29541E+08
 
   -0.35350E+08         0.43366E+06         0.00000E+00
    0.43366E+06        -0.58984E+08         0.00000E+00
    0.00000E+00         0.00000E+00        -0.29278E+08
 
   -0.33877E+08         0.10088E+07         0.00000E+00
    0.10088E+07        -0.59218E+08         0.00000E+00
    0.00000E+00         0.00000E+00        -0.29030E+08
 
   -0.32325E+08         0.17310E+07         0.00000E+00
    0.17310E+07        -0.59598E+08         0.00000E+00
    0.00000E+00         0.00000E+00        -0.28796E+08
 
   -0.30704E+08         0.26734E+07         0.00000E+00
    0.26734E+07        -0.60127E+08         0.00000E+00
    0.00000E+00         0.00000E+00        -0.28577E+08
 
   -0.29085E+08         0.39216E+07         0.00000E+00
    0.39216E+07        -0.60765E+08         0.00000E+00
    0.00000E+00         0.00000E+00        -0.28381E+08
 
   -0.54278E+08        -0.55109E+06         0.00000E+00
   -0.55109E+06        -0.60004E+08         0.00000E+00
    0.00000E+00         0.00000E+00        -0.32080E+08
 
   -0.51189E+08        -0.11656E+07         0.00000E+00
   -0.11656E+07        -0.59945E+08         0.00000E+00
    0.00000E+00         0.00000E+00        -0.31451E+08
 
   -0.48469E+08        -0.13511E+07         0.00000E+00
   -0.13511E+07        -0.59736E+08         0.00000E+00
    0.00000E+00         0.00000E+00        -0.30864E+08
 
   -0.46153E+08        -0.13321E+07         0.00000E+00
   -0.13321E+07        -0.59418E+08         0.00000E+00
    0.00000E+00         0.00000E+00        -0.30337E+08
 
   -0.44158E+08        -0.12203E+07         0.00000E+00
   -0.12203E+07        -0.59063E+08         0.00000E+00
    0.00000E+00         0.00000E+00        -0.29867E+08
 
   -0.42394E+08        -0.10572E+07         0.00000E+00
   -0.10572E+07        -0.58721E+08         0.00000E+00
    0.00000E+00         0.00000E+00        -0.29445E+08
 
   -0.40789E+08        -0.85874E+06         0.00000E+00
   -0.85874E+06        -0.58422E+08         0.00000E+00
    0.00000E+00         0.00000E+00        -0.29064E+08
 
   -0.39285E+08        -0.62978E+06         0.00000E+00
   -0.62978E+06        -0.58190E+08         0.00000E+00
    0.00000E+00         0.00000E+00        -0.28716E+08
 
   -0.37833E+08        -0.36901E+06         0.00000E+00
   -0.36901E+06        -0.58040E+08         0.00000E+00
    0.00000E+00         0.00000E+00        -0.28395E+08
 
   -0.36386E+08        -0.70089E+05         0.00000E+00
   -0.70089E+05        -0.57993E+08         0.00000E+00
    0.00000E+00         0.00000E+00        -0.28096E+08
 
   -0.34897E+08         0.27973E+06         0.00000E+00
    0.27973E+06        -0.58067E+08         0.00000E+00
    0.00000E+00         0.00000E+00        -0.27813E+08
 
   -0.33317E+08         0.70434E+06         0.00000E+00
    0.70434E+06        -0.58287E+08         0.00000E+00
    0.00000E+00         0.00000E+00        -0.27541E+08
 
   -0.31592E+08         0.12503E+07         0.00000E+00
    0.12503E+07        -0.58685E+08         0.00000E+00
    0.00000E+00         0.00000E+00        -0.27275E+08
 
   -0.29691E+08         0.20169E+07         0.00000E+00
    0.20169E+07        -0.59296E+08         0.00000E+00
    0.00000E+00         0.00000E+00        -0.27017E+08
 
   -0.27676E+08         0.31592E+07         0.00000E+00
    0.31592E+07        -0.60093E+08         0.00000E+00
    0.00000E+00         0.00000E+00        -0.26773E+08
 
   -0.55159E+08        -0.53392E+06         0.00000E+00
   -0.53392E+06        -0.59979E+08         0.00000E+00
    0.00000E+00         0.00000E+00        -0.31058E+08
 
   -0.51452E+08        -0.93479E+06         0.00000E+00
   -0.93479E+06        -0.59759E+08         0.00000E+00
    0.00000E+00         0.00000E+00        -0.30273E+08
 
   -0.48480E+08        -0.96320E+06         0.00000E+00
   -0.96320E+06        -0.59310E+08         0.00000E+00
    0.00000E+00         0.00000E+00        -0.29589E+08
 
   -0.46073E+08        -0.89935E+06         0.00000E+00
   -0.89935E+06        -0.58800E+08         0.00000E+00
    0.00000E+00         0.00000E+00        -0.29005E+08
 
   -0.44032E+08        -0.80100E+06         0.00000E+00
   -0.80100E+06        -0.58305E+08         0.00000E+00
    0.00000E+00         0.00000E+00        -0.28497E+08
 
   -0.42240E+08        -0.68375E+06         0.00000E+00
   -0.68375E+06        -0.57859E+08         0.00000E+00
    0.00000E+00         0.00000E+00        -0.28049E+08
 
   -0.40612E+08        -0.55213E+06         0.00000E+00
   -0.55213E+06        -0.57482E+08         0.00000E+00
    0.00000E+00         0.00000E+00        -0.27648E+08
 
   -0.39086E+08        -0.40634E+06         0.00000E+00
   -0.40634E+06        -0.57189E+08         0.00000E+00
    0.00000E+00         0.00000E+00        -0.27284E+08
 
   -0.37607E+08        -0.24412E+06         0.00000E+00
   -0.24412E+06        -0.56993E+08         0.00000E+00
    0.00000E+00         0.00000E+00        -0.26949E+08
 
   -0.36126E+08        -0.60782E+05         0.00000E+00
   -0.60782E+05        -0.56908E+08         0.00000E+00
    0.00000E+00         0.00000E+00        -0.26635E+08
 
   -0.34589E+08         0.15204E+06         0.00000E+00
    0.15204E+06        -0.56952E+08         0.00000E+00
    0.00000E+00         0.00000E+00        -0.26336E+08
 
   -0.32933E+08         0.40990E+06         0.00000E+00
    0.40990E+06        -0.57151E+08         0.00000E+00
    0.00000E+00         0.00000E+00        -0.26045E+08
 
   -0.31075E+08         0.74477E+06         0.00000E+00
    0.74477E+06        -0.57544E+08         0.00000E+00
    0.00000E+00         0.00000E+00        -0.25752E+08
 
   -0.28887E+08         0.12378E+07         0.00000E+00
    0.12378E+07        -0.58199E+08         0.00000E+00
    0.00000E+00         0.00000E+00        -0.25445E+08
 
   -0.26339E+08         0.21577E+07         0.00000E+00
    0.21577E+07        -0.59208E+08         0.00000E+00
    0.00000E+00         0.00000E+00        -0.25137E+08
 
   -0.55794E+08        -0.33509E+06         0.00000E+00
   -0.33509E+06        -0.59757E+08         0.00000E+00
    0.00000E+00         0.00000E+00        -0.29947E+08
 
   -0.51494E+08        -0.38548E+06         0.00000E+00
   -0.38548E+06        -0.59141E+08         0.00000E+00
    0.00000E+00         0.00000E+00        -0.28964E+08
 
   -0.48445E+08        -0.35539E+06         0.00000E+00
   -0.35539E+06        -0.58448E+08         0.00000E+00
    0.00000E+00         0.00000E+00        -0.28216E+08
 
   -0.46010E+08        -0.32000E+06         0.00000E+00
   -0.32000E+06        -0.57794E+08         0.00000E+00
    0.00000E+00         0.00000E+00        -0.27598E+08
 
   -0.43956E+08        -0.28006E+06         0.00000E+00
   -0.28006E+06        -0.57207E+08         0.00000E+00
    0.00000E+00         0.00000E+00        -0.27069E+08
 
   -0.42154E+08        -0.23698E+06         0.00000E+00
   -0.23698E+06        -0.56698E+08         0.00000E+00
    0.00000E+00         0.00000E+00        -0.26607E+08
 
   -0.40518E+08        -0.19067E+06         0.00000E+00
   -0.19067E+06        -0.56276E+08         0.00000E+00
    0.00000E+00         0.00000E+00        -0.26195E+08
 
   -0.38982E+08        -0.14051E+06         0.00000E+00
   -0.14051E+06        -0.55949E+08         0.00000E+00
    0.00000E+00         0.00000E+00        -0.25823E+08
 
   -0.37492E+08        -0.85431E+05         0.00000E+00
   -0.85431E+05        -0.55726E+08         0.00000E+00
    0.00000E+00         0.00000E+00        -0.25480E+08
 
   -0.35995E+08        -0.23693E+05         0.00000E+00
   -0.23693E+05        -0.55620E+08         0.00000E+00
    0.00000E+00         0.00000E+00        -0.25159E+08
 
   -0.34434E+08         0.47573E+05         0.00000E+00
    0.47573E+05        -0.55645E+08         0.00000E+00
    0.00000E+00         0.00000E+00        -0.24852E+08
 
   -0.32740E+08         0.13354E+06         0.00000E+00
    0.13354E+06        -0.55828E+08         0.00000E+00
    0.00000E+00         0.00000E+00        -0.24550E+08
 
   -0.30810E+08         0.24544E+06         0.00000E+00
    0.24544E+06        -0.56207E+08         0.00000E+00
    0.00000E+00         0.00000E+00        -0.24239E+08
 
   -0.28465E+08         0.40886E+06         0.00000E+00
    0.40886E+06        -0.56862E+08         0.00000E+00
    0.00000E+00         0.00000E+00        -0.23901E+08
 
   -0.25195E+08         0.79257E+06         0.00000E+00
    0.79257E+06        -0.58006E+08         0.00000E+00
    0.00000E+00         0.00000E+00        -0.23476E+08
 
SCALARS stressS double 
LOOKUP_TABLE default
  -51763138.3491530     
  -53754387.4191302     
  -55268221.6898547     
  -56516974.0805967     
  -57583558.4173617     
  -58516195.3559490     
  -59346589.8379076     
  -60097952.0681924     
  -60788893.4059459     
  -61435860.8595563     
  -62055153.6250213     
  -62665331.7147979     
  -63291696.1385321     
  -63975625.0408400     
  -64837715.0503972     
  -51527434.0788886     
  -53115362.2081179     
  -54498471.4768896     
  -55676779.3481564     
  -56700347.9197173     
  -57603456.7919758     
  -58411774.7001779     
  -59145220.8075050     
  -59820283.6295410     
  -60451640.6699576     
  -61053528.4372826     
  -61641248.0167630     
  -62232470.5463956     
  -62852138.6221396     
  -63474417.3029995     
  -51471859.8507478     
  -52743105.4572633     
  -53925273.4313946     
  -54988167.5503872     
  -55935730.9403635     
  -56784892.4091859     
  -57551978.6370509     
  -58251572.2104360     
  -58896545.7651626     
  -59498539.1840810     
  -60068419.4097087     
  -60616368.2975338     
  -61151454.4657183     
  -61671910.1287278     
  -62163170.0524302     
  -51448140.4616689     
  -52487101.2513047     
  -53486014.0298321     
  -54416894.3064637     
  -55270359.1790896     
  -56048954.3308198     
  -56760365.8895693     
  -57413420.9508373     
  -58016837.0298306     
  -58578718.9763408     
  -59106207.1040869     
  -59604846.8775818     
  -60076286.7672769     
  -60516092.4388984     
  -60910580.0528891     
  -51424048.5353528     
  -52282030.5102212     
  -53124473.3721124     
  -53928676.9612604     
  -54682384.0204903     
  -55381785.8598515     
  -56028317.4617025     
  -56625979.9396092     
  -57179639.7580216     
  -57694062.8457964     
  -58173156.1109447     
  -58618975.5887997     
  -59030548.5437621     
  -59402446.0430463     
  -59724289.4600326     
  -51387032.8666130     
  -52098254.1308504     
  -52807157.9599044     
  -53495685.1277242     
  -54151918.8889783     
  -54769602.7193563     
  -55346699.1997441     
  -55883772.9707194     
  -56382648.3551904     
  -56845388.8171268     
  -57273449.2123752     
  -57666869.2167919     
  -58023454.4135205     
  -58338180.0332861     
  -58603021.7553920     
  -51331670.5218320     
  -51920405.9400082     
  -52514235.0040148     
  -53098639.4423799     
  -53662937.0649705     
  -54200242.6828292     
  -54706810.0606090     
  -55181095.6435647     
  -55622811.7245555     
  -56032086.4052754     
  -56408736.2943090     
  -56751626.8339965     
  -57058152.4049402     
  -57323915.4571758     
  -57542741.5375679     
  -51255645.8749117     
  -51740103.9828975     
  -52233674.5952339     
  -52724555.4494029     
  -53203465.6144342     
  -53663717.7527601     
  -54100905.7927649     
  -54512357.0486588     
  -54896497.4921057     
  -55252229.6228383     
  -55578371.3347025     
  -55873183.6504245     
  -56134020.3559722     
  -56357153.3199403     
  -56537822.8660418     
  -51158469.5220854     
  -51552812.5369564     
  -51958120.4537560     
  -52364752.2768530     
  -52764796.1745348     
  -53152148.2581317     
  -53522355.4035203     
  -53872287.1324743     
  -54199717.9100682     
  -54502889.9889659     
  -54780107.4794084     
  -55029398.5803492     
  -55248279.5308174     
  -55433652.2632084     
  -55581861.1218617     
  -51040897.1871149     
  -51356365.6716072     
  -51683167.8272355     
  -52013470.7108750     
  -52340662.4858381     
  -52659411.8093112     
  -52965582.3921777     
  -53256031.4181528     
  -53528336.5708886     
  -53780498.0498606     
  -54010655.8373808     
  -54216855.3873467     
  -54396889.2492589     
  -54548236.8744794     
  -54668116.4449214     
  -50904622.1848068     
  -51150175.5929102     
  -51406369.7436631     
  -51666960.7346725     
  -51926577.5754277     
  -52180760.7309516     
  -52425911.8745912     
  -52659167.5823984     
  -52878221.9831541     
  -53081128.0341296     
  -53266106.3255824     
  -53431386.8691591     
  -53575104.9092237     
  -53695266.4636359     
  -53789792.5911834     
  -50752073.3378453     
  -50934761.6429835     
  -51126624.3335779     
  -51322873.7465712     
  -51519338.9275830     
  -51712488.3436383     
  -51899398.6448533     
  -52077675.2049136     
  -52245338.5655504     
  -52400695.3233551     
  -52542212.9147988     
  -52668416.2817973     
  -52777821.4405718     
  -52868916.9843685     
  -52940199.6817151     
  -50586257.4238092     
  -50711438.0469089     
  -50843770.2023590     
  -50979843.8555943     
  -51116662.9627535     
  -51251657.7004250     
  -51382665.0108030     
  -51507880.0706864     
  -51625786.5633251     
  -51735076.8534063     
  -51834574.3078712     
  -51923169.4566876     
  -51999779.9197854     
  -52063341.4044146     
  -52112833.8909226     
  -50410620.7623558     
  -50482084.7123908     
  -50558298.5034297     
  -50637185.0655736     
  -50716909.1352737     
  -50795882.9651620     
  -50872755.4050319     
  -50946385.5022319     
  -51015804.6323781     
  -51080173.0664887     
  -51138737.6880881     
  -51190797.4108005     
  -51235681.9273940     
  -51272747.9648856     
  -51301395.4294705     
  -50228919.6023800     
  -50248962.9194637     
  -50271131.5401279     
  -50294658.5767550     
  -50318862.5509307     
  -50343148.8855732     
  -50367006.1200002     
  -50389997.1970908     
  -50411747.0881610     
  -50431928.6504905     
  -50450248.9000599     
  -50466437.8500937     
  -50480241.7758275     
  -50491422.2893452     
  -50499762.0170299     
  -50045094.9182556     
  -50014555.4074959     
  -49983438.7747603     
  -49952281.0927744     
  -49921552.4647421     
  -49891655.0380934     
  -49862925.9384645     
  -49835644.8484853     
  -49810045.0850567     
  -49786326.4327340     
  -49764667.7178007     
  -49745237.1333885     
  -49728198.5903135     
  -49713712.8026901     
  -49701932.3550162     
  -49863149.4854745     
  -49781418.7504264     
  -49696471.9902470     
  -49610154.6045364     
  -49524090.0966896     
  -49439673.8557786     
  -49358083.1515746     
  -49280302.2719752     
  -49207158.9268944     
  -49139366.1873153     
  -49077563.4371777     
  -49022349.9709544     
  -48974305.7595448     
  -48933995.3158617     
  -48901952.3222388     
  -49687025.8339599     
  -49552039.6738431     
  -49411406.5486964     
  -49268303.0553793     
  -49125512.7108430     
  -48985413.1976307     
  -48849994.7421989     
  -48720907.1079818     
  -48599527.4968821     
  -48487038.4835888     
  -48384503.9829581     
  -48292931.7866814     
  -48213312.9351845     
  -48146630.7538921     
  -48093835.4956327     
  -49520483.8279575     
  -49328688.0546481     
  -49129177.2580949     
  -48926502.8364254     
  -48724622.0635217     
  -48526874.8541805     
  -48336013.6741743     
  -48154280.9916802     
  -47983520.3928408     
  -47825303.1369031     
  -47681051.0234907     
  -47552137.8945651     
  -47439955.0016003     
  -47345929.3859022     
  -47271489.1935892     
  -49366976.4627115     
  -49113258.3094937     
  -48850295.8819674     
  -48584092.6171379     
  -48319804.2525994     
  -48061699.8052386     
  -47813210.0877857     
  -47577051.2488205     
  -47355398.7145047     
  -47150082.3224333     
  -46962774.1977777     
  -46795144.3227296     
  -46648963.0997139     
  -46526135.4502313     
  -46428657.5773687     
  -49229521.7433456     
  -48907087.1959650     
  -48574632.2516289     
  -48239743.2113846     
  -47908814.5947991     
  -47586989.3607053     
  -47278241.9368365     
  -46985575.8129880     
  -46711291.6154796     
  -46457279.9718224     
  -46225299.5120213     
  -46017207.3557415     
  -45835115.0183928     
  -45681447.8532884     
  -45558894.3991625     
  -49110566.2836636     
  -48710727.8175389     
  -48301130.2778708     
  -47891158.7854492     
  -47488505.2126793     
  -47099089.0452481     
  -46727210.8908223     
  -46375874.5871628     
  -46047197.7430803     
  -45742841.5981768     
  -45464410.2689044     
  -45213783.0228497     
  -44993346.5930693     
  -44806096.1080494     
  -44655579.7023593     
  -49011830.4157071     
  -48523642.2580901     
  -48027409.4759321     
  -47534664.3559912     
  -47054464.7204332     
  -46593320.9076754     
  -46155501.8763772     
  -45743573.6205272     
  -45359023.3618158     
  -45002871.4828587     
  -44676223.4664596     
  -44380734.4088373     
  -44118953.6864366     
  -43894497.0097225     
  -43711997.3840751     
  -48934109.8171916     
  -48343738.3791389     
  -47749162.1430034     
  -47164607.5867615     
  -46600530.9764056     
  -46063654.6172006     
  -45557613.1633959     
  -45083874.3863101     
  -44642670.6742758     
  -44233825.4892244     
  -43857468.7485499     
  -43514665.7794483     
  -43207928.4382127     
  -42941530.7154162     
  -42721494.5862102     
  -48876973.7600502     
  -48166591.5594808     
  -47459176.0382686     
  -46772461.2133551     
  -46118138.8948680     
  -45502330.7679672     
  -44927005.3997149     
  -44391569.2314718     
  -43894187.6677156     
  -43432789.4073948     
  -43005900.2511482     
  -42613435.8171295     
  -42257505.8753865     
  -41943000.1919851     
  -41677755.3206748     
  -48838194.7667825     
  -47983993.3420957     
  -47145641.0815310     
  -46345464.0994085     
  -45595511.5789797     
  -44899515.4918045     
  -44256043.4615791     
  -43661133.8744156     
  -43109970.3038371     
  -42597832.6664566     
  -42120843.5104885     
  -41676942.0450513     
  -41267040.2789052     
  -40896423.5144115     
  -40575235.8551943     
  -48812490.6165434     
  -47780866.5864413     
  -46789072.6553175     
  -45864663.4253616     
  -45016884.5619345     
  -44243235.8378424     
  -43536150.2938560     
  -42886930.9927938     
  -42286983.8478689     
  -41728314.5237556     
  -41203875.5028456     
  -40708185.3564481     
  -40239585.4223488     
  -39802384.0255441     
  -39409961.5616474     
  -48787573.4401745     
  -47528099.6143439     
  -46356552.2594443     
  -45302697.0566369     
  -44362697.2681991     
  -43519923.3121326     
  -42758322.1742437     
  -42063546.2947013     
  -41422924.1484696     
  -40824994.2268960     
  -40259055.4418625     
  -39715081.7231942     
  -39184142.6239263     
  -38667927.2430848     
  -38180674.0651336     
  -48731817.0161183     
  -47161497.9275085     
  -45792814.5604015     
  -44625858.7988795     
  -43611460.3717414     
  -42715938.3558807     
  -41914061.6490745     
  -41186242.2204705     
  -40516259.9265538     
  -39889674.1452181     
  -39292480.8269190     
  -38709637.3604086     
  -38123783.5406837     
  -37510442.8805454     
  -36894866.8863478     
  -48499500.2663072     
  -46533094.3537924     
  -45036310.4840103     
  -43800482.8279359     
  -42744144.3571732     
  -41819912.1490474     
  -40996624.7535355     
  -40251462.6671579     
  -39566122.9741598     
  -38924430.3876720     
  -38310359.9038007     
  -37705676.4307105     
  -37085546.0742108     
  -36409390.9204739     
  -35559058.9533184     
SCALARS 2waySource double 
LOOKUP_TABLE default
  1.105820629777354E-004
  1.154547893752734E-004
  1.199407563773949E-004
  1.240657158399886E-004
  1.278590226093564E-004
  1.313498207330611E-004
  1.345664856869820E-004
  1.375363486423570E-004
  1.402855699477979E-004
  1.428390723020464E-004
  1.452205054484073E-004
  1.474522253383237E-004
  1.495552606946645E-004
  1.515492565216648E-004
  1.534515189783899E-004
  1.103480807799498E-004
  1.152133422357350E-004
  1.196839243833313E-004
  1.237926279233858E-004
  1.275696488299573E-004
  1.310445693016159E-004
  1.342459581669962E-004
  1.372012537146659E-004
  1.399366802348009E-004
  1.424772031726300E-004
  1.448465077147800E-004
  1.470669924765676E-004
  1.491597773702562E-004
  1.511446495867637E-004
  1.530403078481876E-004
  1.099777093700437E-004
  1.148115455706276E-004
  1.192479423207219E-004
  1.233212396990462E-004
  1.270631673245658E-004
  1.305038468364549E-004
  1.336721640446899E-004
  1.365957478585108E-004
  1.393009468244441E-004
  1.418128094730964E-004
  1.441550795413929E-004
  1.463502085713477E-004
  1.484193816852684E-004
  1.503826068645731E-004
  1.522588886995773E-004
  1.094785165714883E-004
  1.142566968435188E-004
  1.186375461157975E-004
  1.226554878291309E-004
  1.263429404092106E-004
  1.297306123947817E-004
  1.328477488635690E-004
  1.357222249114419E-004
  1.383805566499240E-004
  1.408479034045688E-004
  1.431480763217349E-004
  1.453035614762561E-004
  1.473355696454262E-004
  1.492641241860135E-004
  1.511082386032535E-004
  1.088569639589120E-004
  1.135559939491690E-004
  1.178591233971444E-004
  1.218007788911667E-004
  1.254137238403202E-004
  1.287291008021545E-004
  1.317765256537171E-004
  1.345841508576715E-004
  1.371786919132802E-004
  1.395854386770238E-004
  1.418282706964901E-004
  1.439296863571851E-004
  1.459108535307630E-004
  1.477916943115000E-004
  1.495910023986342E-004
  1.081209500620385E-004
  1.127173708472730E-004
  1.169201534739813E-004
  1.207638534446211E-004
  1.242815336981006E-004
  1.275047140464958E-004
  1.304633740694190E-004
  1.331859687008020E-004
  1.356994396203154E-004
  1.380292245733613E-004
  1.401992723869098E-004
  1.422320707778219E-004
  1.441486927644775E-004
  1.459688645501179E-004
  1.477110527919865E-004
  1.072800838539052E-004
  1.117500415387113E-004
  1.158292702628334E-004
  1.195526177433197E-004
  1.229535168055862E-004
  1.260638931718816E-004
  1.289141161785506E-004
  1.315329749335822E-004
  1.339476676380362E-004
  1.361838001775201E-004
  1.382653952270817E-004
  1.402149146170632E-004
  1.420532971222515E-004
  1.438000121300803E-004
  1.454731262435290E-004
  1.063457272318132E-004
  1.106646484339438E-004
  1.145963242004182E-004
  1.181760719941471E-004
  1.214378178756245E-004
  1.244139766148255E-004
  1.271353689521141E-004
  1.296311683176116E-004
  1.319288693068819E-004
  1.340542731275320E-004
  1.360314880108884E-004
  1.378829439716140E-004
  1.396294214159954E-004
  1.412900923056766E-004
  1.428825715680177E-004
  1.053309737506674E-004
  1.094732721069522E-004
  1.132323628819365E-004
  1.166442299281886E-004
  1.197434487497705E-004
  1.225630425218555E-004
  1.251343744019458E-004
  1.274870720208044E-004
  1.296489788514517E-004
  1.316461276986362E-004
  1.335027326022267E-004
  1.352411962140997E-004
  1.368821299949609E-004
  1.384443846001999E-004
  1.399450879789139E-004
  1.042505964811427E-004
  1.081893718535306E-004
  1.117495496557363E-004
  1.149680015645736E-004
  1.178801358955970E-004
  1.205197306868572E-004
  1.229188056211349E-004
  1.251075295936002E-004
  1.271141594301714E-004
  1.289650047630684E-004
  1.306844140419141E-004
  1.322947768054881E-004
  1.338165375813865E-004
  1.352682172330408E-004
  1.366664384709535E-004
  1.031209653504804E-004
  1.068276785695961E-004
  1.101610315948220E-004
  1.131590337488036E-004
  1.158581347414441E-004
  1.182930360325084E-004
  1.204965458009843E-004
  1.224994743039102E-004
  1.243305650749526E-004
  1.260164562587400E-004
  1.275816655383652E-004
  1.290485916794837E-004
  1.304375257846047E-004
  1.317666660468943E-004
  1.330521312276030E-004
  1.019599282667246E-004
  1.054040428309760E-004
  1.084807598319179E-004
  1.112295059248678E-004
  1.136880046187862E-004
  1.158920677084827E-004
  1.178754367077144E-004
  1.196696710065695E-004
  1.213040778181204E-004
  1.228056770279834E-004
  1.241991923264699E-004
  1.255070589021573E-004
  1.267494377887096E-004
  1.279442278334107E-004
  1.291070682318834E-004
  1.007866476682038E-004
  1.039352341716996E-004
  1.067232594573840E-004
  1.091918771031586E-004
  1.113803389835889E-004
  1.133257687703445E-004
  1.150629934060630E-004
  1.166244298568976E-004
  1.180400218521545E-004
  1.193372180190298E-004
  1.205409797912383E-004
  1.216738054789650E-004
  1.227557563762651E-004
  1.238044718935044E-004
  1.248351633710286E-004
  9.962138294180122E-005
  1.024386841987325E-004
  1.049033424951501E-004
  1.070585774465101E-004
  1.089454443667001E-004
  1.106025909193032E-004
  1.120660819265337E-004
  1.133692915799404E-004
  1.145428576592414E-004
  1.156146866761347E-004
  1.166099938129480E-004
  1.175513583181295E-004
  1.184587741913023E-004
  1.193496775458064E-004
  1.202389357070929E-004
  9.848520882701497E-005
  1.009321641849434E-004
  1.030357544182107E-004
  1.048416347282444E-004
  1.063929588692878E-004
  1.077301169974142E-004
  1.088905558072240E-004
  1.099086843997782E-004
  1.108158606651933E-004
  1.116404431274039E-004
  1.124078850503916E-004
  1.131408428637014E-004
  1.138592700594153E-004
  1.145804702029992E-004
  1.153190878819584E-004
  9.739966056031898E-005
  9.943338618221092E-005
  1.011347411850566E-004
  1.025522214723726E-004
  1.037313966846977E-004
  1.047146206272859E-004
  1.055408457964143E-004
  1.062455530550163E-004
  1.068607912604584E-004
  1.074153047913213E-004
  1.079347142277092E-004
  1.084417091413106E-004
  1.089562118124503E-004
  1.094954751384230E-004
  1.100740854564258E-004
  9.638629833790410E-005
  9.795951478414984E-005
  9.921351863537283E-005
  1.002001016065013E-004
  1.009675980889758E-004
  1.015605469202510E-004
  1.020194942200990E-004
  1.023809606708849E-004
  1.026775663530630E-004
  1.029382777880399E-004
  1.031887229979770E-004
  1.034515135022338E-004
  1.037465149836830E-004
  1.040910167459965E-004
  1.044997608453530E-004
  9.546618688563872E-005
  9.652657336324599E-005
  9.728361735482351E-005
  9.779294380014089E-005
  9.810605282176556E-005
  9.826988948707002E-005
  9.832662131399198E-005
  9.831366497119248E-005
  9.826394770530664E-005
  9.820634193434107E-005
  9.816618548352875E-005
  9.816579598257572E-005
  9.822489863696524E-005
  9.836090254863842E-005
  9.858897587453682E-005
  9.465929046621766E-005
  9.514872183443407E-005
  9.535406040276043E-005
  9.533544868778156E-005
  9.514804593889310E-005
  9.484142561043364E-005
  9.445930511024981E-005
  9.403967228215816E-005
  9.361527049274825E-005
  9.321432849709792E-005
  9.286139035153952E-005
  9.257810892076154E-005
  9.238389530246874E-005
  9.229634608923381E-005
  9.233139026535250E-005
  9.398378881517077E-005
  9.383736859235772E-005
  9.343030232270721E-005
  9.282820264424614E-005
  9.209054473450160E-005
  9.126975178592476E-005
  9.041084998114555E-005
  8.955177800883425E-005
  8.872424909028484E-005
  8.795494829103594E-005
  8.726682385970476E-005
  8.668027358276232E-005
  8.621409258069803E-005
  8.588610199423191E-005
  8.571339992180177E-005
  9.345532317458089E-005
  9.260004875634168E-005
  9.151280370920010E-005
  9.026611084069852E-005
  8.892469707023749E-005
  8.754403521481983E-005
  8.616991465818644E-005
  8.483911482776239E-005
  8.358091957716921E-005
  8.241905461133689E-005
  8.137365257127144E-005
  8.046296958807113E-005
  7.970471112315859E-005
  7.911691136142938E-005
  7.871832935667976E-005
  9.308617876023097E-005
  9.143893662392322E-005
  8.959501258341365E-005
  8.763615804265929E-005
  8.563373804242567E-005
  8.364636683637643E-005
  8.171947689854241E-005
  7.988675735098768E-005
  7.817281407374705E-005
  7.659626308610264E-005
  7.517264165795477E-005
  7.391679934140158E-005
  7.284466021851874E-005
  7.197438980173821E-005
  7.132698857985776E-005
  9.288439043577337E-005
  9.034872248311974E-005
  8.766032285246174E-005
  8.491406364546242E-005
  8.218999977968593E-005
  7.954958559958767E-005
  7.703564990860998E-005
  7.467548600319022E-005
  7.248551334298807E-005
  7.047609595946097E-005
  6.865569203779714E-005
  6.703401853410810E-005
  6.562426666131615E-005
  6.444454119505562E-005
  6.351874294419702E-005
  9.285269440938764E-005
  8.931328063233974E-005
  8.567716851818699E-005
  8.205908417159707E-005
  7.855060835143514E-005
  7.521449919126358E-005
  7.208648049755529E-005
  6.918190671792698E-005
  6.650377677132311E-005
  6.404986171932411E-005
  6.181822569598963E-005
  5.981120100636786E-005
  5.803795253273518E-005
  5.651617772804815E-005
  5.527330818743260E-005
  9.298709830858859E-005
  8.829981089829690E-005
  8.359054135194112E-005
  7.900569775261431E-005
  7.465145093740250E-005
  7.058671532008775E-005
  6.683113026919053E-005
  6.337924558585276E-005
  6.021346179031172E-005
  5.731344925003610E-005
  5.466271899419221E-005
  5.225318353559956E-005
  5.008833868424542E-005
  4.818467679565717E-005
  4.657365353545793E-005
  9.327427128654300E-005
  8.724726492594520E-005
  8.130618826004817E-005
  7.565025945868602E-005
  7.039958829490361E-005
  6.559414755918260E-005
  6.122037806448254E-005
  5.723919811138006E-005
  5.360422734094296E-005
  5.027110622143306E-005
  4.720352849021856E-005
  4.437905079443351E-005
  4.179235415416588E-005
  3.945814578246459E-005
  3.741065212599759E-005
  9.368587010480591E-005
  8.603937580182055E-005
  7.865956245637162E-005
  7.183098417741461E-005
  6.566681876603015E-005
  6.014841073241548E-005
  5.519974425555182E-005
  5.073506161570770E-005
  4.667255135507254E-005
  4.293921996957405E-005
  3.947359817738494E-005
  3.623022365814574E-005
  3.319217160451168E-005
  3.036664074682033E-005
  2.779207974451891E-005
  9.415486223173144E-005
  8.443491523365702E-005
  7.535262510129445E-005
  6.730701177751540E-005
  6.029695258058346E-005
  5.415368565748222E-005
  4.871638525023620E-005
  4.384584830138465E-005
  3.942383233985010E-005
  3.534812242032907E-005
  3.152868547931149E-005
  2.788771228434339E-005
  2.436739109052565E-005
  2.098667273941528E-005
  1.775653406572143E-005
  9.449175707712372E-005
  8.182708591108281E-005
  7.085959604060646E-005
  6.179892737841448E-005
  5.413368151295685E-005
  4.752534912944658E-005
  4.172896256048018E-005
  3.656039082315876E-005
  3.187223378436767E-005
  2.753858106138642E-005
  2.344382227936890E-005
  1.947339506342192E-005
  1.550899530270771E-005
  1.143487602788221E-005
  7.447305279418956E-006
  9.332928700865441E-005
  7.669876166903434E-005
  6.468573590691326E-005
  5.507882827899638E-005
  4.706983723365340E-005
  4.021190928791596E-005
  3.421749746014339E-005
  2.888005619380805E-005
  2.403779075107884E-005
  1.955250156799970E-005
  1.529391809371613E-005
  1.112359468247723E-005
  6.871979147214691E-006
  2.289770741545053E-006
 -2.984303243774735E-006
SCALARS poroP double 
LOOKUP_TABLE default
  0.000000000000000E+000
  0.000000000000000E+000
  0.000000000000000E+000
  0.000000000000000E+000
  0.000000000000000E+000
  0.000000000000000E+000
  0.000000000000000E+000
  0.000000000000000E+000
  0.000000000000000E+000
  0.000000000000000E+000
  0.000000000000000E+000
  0.000000000000000E+000
  0.000000000000000E+000
  0.000000000000000E+000
  0.000000000000000E+000
  0.000000000000000E+000
  0.000000000000000E+000
  0.000000000000000E+000
  0.000000000000000E+000
  0.000000000000000E+000
  0.000000000000000E+000
  0.000000000000000E+000
  0.000000000000000E+000
  0.000000000000000E+000
  0.000000000000000E+000
  0.000000000000000E+000
  0.000000000000000E+000
  0.000000000000000E+000
  0.000000000000000E+000
  0.000000000000000E+000
  0.000000000000000E+000
  0.000000000000000E+000
  0.000000000000000E+000
  0.000000000000000E+000
  0.000000000000000E+000
  0.000000000000000E+000
  0.000000000000000E+000
  0.000000000000000E+000
  0.000000000000000E+000
  0.000000000000000E+000
  0.000000000000000E+000
  0.000000000000000E+000
  0.000000000000000E+000
  0.000000000000000E+000
  0.000000000000000E+000
  0.000000000000000E+000
  0.000000000000000E+000
  0.000000000000000E+000
  0.000000000000000E+000
  0.000000000000000E+000
  0.000000000000000E+000
  0.000000000000000E+000
  0.000000000000000E+000
  0.000000000000000E+000
  0.000000000000000E+000
  0.000000000000000E+000
  0.000000000000000E+000
  0.000000000000000E+000
  0.000000000000000E+000
  0.000000000000000E+000
  0.000000000000000E+000
  0.000000000000000E+000
  0.000000000000000E+000
  0.000000000000000E+000
  0.000000000000000E+000
  0.000000000000000E+000
  0.000000000000000E+000
  0.000000000000000E+000
  0.000000000000000E+000
  0.000000000000000E+000
  0.000000000000000E+000
  0.000000000000000E+000
  0.000000000000000E+000
  0.000000000000000E+000
  0.000000000000000E+000
  0.000000000000000E+000
  0.000000000000000E+000
  0.000000000000000E+000
  0.000000000000000E+000
  0.000000000000000E+000
  0.000000000000000E+000
  0.000000000000000E+000
  0.000000000000000E+000
  0.000000000000000E+000
  0.000000000000000E+000
  0.000000000000000E+000
  0.000000000000000E+000
  0.000000000000000E+000
  0.000000000000000E+000
  0.000000000000000E+000
  0.000000000000000E+000
  0.000000000000000E+000
  0.000000000000000E+000
  0.000000000000000E+000
  0.000000000000000E+000
  0.000000000000000E+000
  0.000000000000000E+000
  0.000000000000000E+000
  0.000000000000000E+000
  0.000000000000000E+000
  0.000000000000000E+000
  0.000000000000000E+000
  0.000000000000000E+000
  0.000000000000000E+000
  0.000000000000000E+000
  0.000000000000000E+000
  0.000000000000000E+000
  0.000000000000000E+000
  0.000000000000000E+000
  0.000000000000000E+000
  0.000000000000000E+000
  0.000000000000000E+000
  0.000000000000000E+000
  0.000000000000000E+000
  0.000000000000000E+000
  0.000000000000000E+000
  0.000000000000000E+000
  0.000000000000000E+000
  0.000000000000000E+000
  0.000000000000000E+000
  0.000000000000000E+000
  0.000000000000000E+000
  0.000000000000000E+000
  0.000000000000000E+000
  0.000000000000000E+000
  0.000000000000000E+000
  0.000000000000000E+000
  0.000000000000000E+000
  0.000000000000000E+000
  0.000000000000000E+000
  0.000000000000000E+000
  0.000000000000000E+000
  0.000000000000000E+000
  0.000000000000000E+000
  0.000000000000000E+000
  0.000000000000000E+000
  0.000000000000000E+000
  0.000000000000000E+000
  0.000000000000000E+000
  0.000000000000000E+000
  0.000000000000000E+000
  0.000000000000000E+000
  0.000000000000000E+000
  0.000000000000000E+000
  0.000000000000000E+000
  0.000000000000000E+000
  0.000000000000000E+000
  0.000000000000000E+000
  0.000000000000000E+000
  0.000000000000000E+000
  0.000000000000000E+000
  0.000000000000000E+000
  0.000000000000000E+000
  0.000000000000000E+000
  0.000000000000000E+000
  0.000000000000000E+000
  0.000000000000000E+000
  0.000000000000000E+000
  0.000000000000000E+000
  0.000000000000000E+000
  0.000000000000000E+000
  0.000000000000000E+000
  0.000000000000000E+000
  0.000000000000000E+000
  0.000000000000000E+000
  0.000000000000000E+000
  0.000000000000000E+000
  0.000000000000000E+000
  0.000000000000000E+000
  0.000000000000000E+000
  0.000000000000000E+000
  0.000000000000000E+000
  0.000000000000000E+000
  0.000000000000000E+000
  0.000000000000000E+000
  0.000000000000000E+000
  0.000000000000000E+000
  0.000000000000000E+000
  0.000000000000000E+000
  0.000000000000000E+000
  0.000000000000000E+000
  0.000000000000000E+000
  0.000000000000000E+000
  0.000000000000000E+000
  0.000000000000000E+000
  0.000000000000000E+000
  0.000000000000000E+000
  0.000000000000000E+000
  0.000000000000000E+000
  0.000000000000000E+000
  0.000000000000000E+000
  0.000000000000000E+000
  0.000000000000000E+000
  0.000000000000000E+000
  0.000000000000000E+000
  0.000000000000000E+000
  0.000000000000000E+000
  0.000000000000000E+000
  0.000000000000000E+000
  0.000000000000000E+000
  0.000000000000000E+000
  0.000000000000000E+000
  0.000000000000000E+000
  0.000000000000000E+000
  0.000000000000000E+000
  0.000000000000000E+000
  0.000000000000000E+000
  0.000000000000000E+000
  0.000000000000000E+000
  0.000000000000000E+000
  0.000000000000000E+000
  0.000000000000000E+000
  0.000000000000000E+000
  0.000000000000000E+000
  0.000000000000000E+000
  0.000000000000000E+000
  0.000000000000000E+000
  0.000000000000000E+000
  0.000000000000000E+000
  0.000000000000000E+000
  0.000000000000000E+000
  0.000000000000000E+000
  0.000000000000000E+000
  0.000000000000000E+000
  0.000000000000000E+000
  0.000000000000000E+000
  0.000000000000000E+000
  0.000000000000000E+000
  0.000000000000000E+000
  0.000000000000000E+000
  0.000000000000000E+000
  0.000000000000000E+000
  0.000000000000000E+000
  0.000000000000000E+000
  0.000000000000000E+000
  0.000000000000000E+000
  0.000000000000000E+000
  0.000000000000000E+000
  0.000000000000000E+000
  0.000000000000000E+000
  0.000000000000000E+000
  0.000000000000000E+000
  0.000000000000000E+000
  0.000000000000000E+000
  0.000000000000000E+000
  0.000000000000000E+000
  0.000000000000000E+000
  0.000000000000000E+000
  0.000000000000000E+000
  0.000000000000000E+000
  0.000000000000000E+000
  0.000000000000000E+000
  0.000000000000000E+000
  0.000000000000000E+000
  0.000000000000000E+000
  0.000000000000000E+000
  0.000000000000000E+000
  0.000000000000000E+000
  0.000000000000000E+000
  0.000000000000000E+000
  0.000000000000000E+000
  0.000000000000000E+000
  0.000000000000000E+000
  0.000000000000000E+000
  0.000000000000000E+000
  0.000000000000000E+000
  0.000000000000000E+000
  0.000000000000000E+000
  0.000000000000000E+000
  0.000000000000000E+000
  0.000000000000000E+000
  0.000000000000000E+000
  0.000000000000000E+000
  0.000000000000000E+000
  0.000000000000000E+000
  0.000000000000000E+000
  0.000000000000000E+000
  0.000000000000000E+000
  0.000000000000000E+000
  0.000000000000000E+000
  0.000000000000000E+000
  0.000000000000000E+000
  0.000000000000000E+000
  0.000000000000000E+000
  0.000000000000000E+000
  0.000000000000000E+000
  0.000000000000000E+000
  0.000000000000000E+000
  0.000000000000000E+000
  0.000000000000000E+000
  0.000000000000000E+000
  0.000000000000000E+000
  0.000000000000000E+000
  0.000000000000000E+000
  0.000000000000000E+000
  0.000000000000000E+000
  0.000000000000000E+000
  0.000000000000000E+000
  0.000000000000000E+000
  0.000000000000000E+000
  0.000000000000000E+000
  0.000000000000000E+000
  0.000000000000000E+000
  0.000000000000000E+000
  0.000000000000000E+000
  0.000000000000000E+000
  0.000000000000000E+000
  0.000000000000000E+000
  0.000000000000000E+000
  0.000000000000000E+000
  0.000000000000000E+000
  0.000000000000000E+000
  0.000000000000000E+000
  0.000000000000000E+000
  0.000000000000000E+000
  0.000000000000000E+000
  0.000000000000000E+000
  0.000000000000000E+000
  0.000000000000000E+000
  0.000000000000000E+000
  0.000000000000000E+000
  0.000000000000000E+000
  0.000000000000000E+000
  0.000000000000000E+000
  0.000000000000000E+000
  0.000000000000000E+000
  0.000000000000000E+000
  0.000000000000000E+000
  0.000000000000000E+000
  0.000000000000000E+000
  0.000000000000000E+000
  0.000000000000000E+000
  0.000000000000000E+000
  0.000000000000000E+000
  0.000000000000000E+000
  0.000000000000000E+000
  0.000000000000000E+000
  0.000000000000000E+000
  0.000000000000000E+000
  0.000000000000000E+000
  0.000000000000000E+000
  0.000000000000000E+000
  0.000000000000000E+000
  0.000000000000000E+000
  0.000000000000000E+000
  0.000000000000000E+000
  0.000000000000000E+000
  0.000000000000000E+000
  0.000000000000000E+000
  0.000000000000000E+000
  0.000000000000000E+000
  0.000000000000000E+000
  0.000000000000000E+000
  0.000000000000000E+000
  0.000000000000000E+000
  0.000000000000000E+000
  0.000000000000000E+000
  0.000000000000000E+000
  0.000000000000000E+000
  0.000000000000000E+000
  0.000000000000000E+000
  0.000000000000000E+000
  0.000000000000000E+000
  0.000000000000000E+000
  0.000000000000000E+000
  0.000000000000000E+000
  0.000000000000000E+000
  0.000000000000000E+000
  0.000000000000000E+000
  0.000000000000000E+000
  0.000000000000000E+000
  0.000000000000000E+000
  0.000000000000000E+000
  0.000000000000000E+000
  0.000000000000000E+000
  0.000000000000000E+000
  0.000000000000000E+000
  0.000000000000000E+000
  0.000000000000000E+000
  0.000000000000000E+000
  0.000000000000000E+000
  0.000000000000000E+000
  0.000000000000000E+000
  0.000000000000000E+000
  0.000000000000000E+000
  0.000000000000000E+000
  0.000000000000000E+000
  0.000000000000000E+000
  0.000000000000000E+000
  0.000000000000000E+000
  0.000000000000000E+000
  0.000000000000000E+000
  0.000000000000000E+000
  0.000000000000000E+000
  0.000000000000000E+000
  0.000000000000000E+000
  0.000000000000000E+000
  0.000000000000000E+000
  0.000000000000000E+000
  0.000000000000000E+000
  0.000000000000000E+000
  0.000000000000000E+000
  0.000000000000000E+000
  0.000000000000000E+000
  0.000000000000000E+000
  0.000000000000000E+000
  0.000000000000000E+000
  0.000000000000000E+000
  0.000000000000000E+000
  0.000000000000000E+000
  0.000000000000000E+000
  0.000000000000000E+000
  0.000000000000000E+000
  0.000000000000000E+000
  0.000000000000000E+000
  0.000000000000000E+000
  0.000000000000000E+000
  0.000000000000000E+000
  0.000000000000000E+000
  0.000000000000000E+000
  0.000000000000000E+000
  0.000000000000000E+000
  0.000000000000000E+000
  0.000000000000000E+000
  0.000000000000000E+000
  0.000000000000000E+000
  0.000000000000000E+000
  0.000000000000000E+000
  0.000000000000000E+000
  0.000000000000000E+000
  0.000000000000000E+000
  0.000000000000000E+000
  0.000000000000000E+000
  0.000000000000000E+000
  0.000000000000000E+000
  0.000000000000000E+000
  0.000000000000000E+000
  0.000000000000000E+000
  0.000000000000000E+000
  0.000000000000000E+000
  0.000000000000000E+000
  0.000000000000000E+000
  0.000000000000000E+000
  0.000000000000000E+000
  0.000000000000000E+000
  0.000000000000000E+000
  0.000000000000000E+000
  0.000000000000000E+000
  0.000000000000000E+000
  0.000000000000000E+000
SCALARS elementIsPlast double 
LOOKUP_TABLE default
  0.000000000000000E+000
  0.000000000000000E+000
  0.000000000000000E+000
  0.000000000000000E+000
  0.000000000000000E+000
  0.000000000000000E+000
  0.000000000000000E+000
  0.000000000000000E+000
  0.000000000000000E+000
  0.000000000000000E+000
  0.000000000000000E+000
  0.000000000000000E+000
  0.000000000000000E+000
  0.000000000000000E+000
  0.000000000000000E+000
  0.000000000000000E+000
  0.000000000000000E+000
  0.000000000000000E+000
  0.000000000000000E+000
  0.000000000000000E+000
  0.000000000000000E+000
  0.000000000000000E+000
  0.000000000000000E+000
  0.000000000000000E+000
  0.000000000000000E+000
  0.000000000000000E+000
  0.000000000000000E+000
  0.000000000000000E+000
  0.000000000000000E+000
  0.000000000000000E+000
  0.000000000000000E+000
  0.000000000000000E+000
  0.000000000000000E+000
  0.000000000000000E+000
  0.000000000000000E+000
  0.000000000000000E+000
  0.000000000000000E+000
  0.000000000000000E+000
  0.000000000000000E+000
  0.000000000000000E+000
  0.000000000000000E+000
  0.000000000000000E+000
  0.000000000000000E+000
  0.000000000000000E+000
  0.000000000000000E+000
  0.000000000000000E+000
  0.000000000000000E+000
  0.000000000000000E+000
  0.000000000000000E+000
  0.000000000000000E+000
  0.000000000000000E+000
  0.000000000000000E+000
  0.000000000000000E+000
  0.000000000000000E+000
  0.000000000000000E+000
  0.000000000000000E+000
  0.000000000000000E+000
  0.000000000000000E+000
  0.000000000000000E+000
  0.000000000000000E+000
  0.000000000000000E+000
  0.000000000000000E+000
  0.000000000000000E+000
  0.000000000000000E+000
  0.000000000000000E+000
  0.000000000000000E+000
  0.000000000000000E+000
  0.000000000000000E+000
  0.000000000000000E+000
  0.000000000000000E+000
  0.000000000000000E+000
  0.000000000000000E+000
  0.000000000000000E+000
  0.000000000000000E+000
  0.000000000000000E+000
  0.000000000000000E+000
  0.000000000000000E+000
  0.000000000000000E+000
  0.000000000000000E+000
  0.000000000000000E+000
  0.000000000000000E+000
  0.000000000000000E+000
  0.000000000000000E+000
  0.000000000000000E+000
  0.000000000000000E+000
  0.000000000000000E+000
  0.000000000000000E+000
  0.000000000000000E+000
  0.000000000000000E+000
  0.000000000000000E+000
  0.000000000000000E+000
  0.000000000000000E+000
  0.000000000000000E+000
  0.000000000000000E+000
  0.000000000000000E+000
  0.000000000000000E+000
  0.000000000000000E+000
  0.000000000000000E+000
  0.000000000000000E+000
  0.000000000000000E+000
  0.000000000000000E+000
  0.000000000000000E+000
  0.000000000000000E+000
  0.000000000000000E+000
  0.000000000000000E+000
  0.000000000000000E+000
  0.000000000000000E+000
  0.000000000000000E+000
  0.000000000000000E+000
  0.000000000000000E+000
  0.000000000000000E+000
  0.000000000000000E+000
  0.000000000000000E+000
  0.000000000000000E+000
  0.000000000000000E+000
  0.000000000000000E+000
  0.000000000000000E+000
  0.000000000000000E+000
  0.000000000000000E+000
  0.000000000000000E+000
  0.000000000000000E+000
  0.000000000000000E+000
  0.000000000000000E+000
  0.000000000000000E+000
  0.000000000000000E+000
  0.000000000000000E+000
  0.000000000000000E+000
  0.000000000000000E+000
  0.000000000000000E+000
  0.000000000000000E+000
  0.000000000000000E+000
  0.000000000000000E+000
  0.000000000000000E+000
  0.000000000000000E+000
  0.000000000000000E+000
  0.000000000000000E+000
  0.000000000000000E+000
  0.000000000000000E+000
  0.000000000000000E+000
  0.000000000000000E+000
  0.000000000000000E+000
  0.000000000000000E+000
  0.000000000000000E+000
  0.000000000000000E+000
  0.000000000000000E+000
  0.000000000000000E+000
  0.000000000000000E+000
  0.000000000000000E+000
  0.000000000000000E+000
  0.000000000000000E+000
  0.000000000000000E+000
  0.000000000000000E+000
  0.000000000000000E+000
  0.000000000000000E+000
  0.000000000000000E+000
  0.000000000000000E+000
  0.000000000000000E+000
  0.000000000000000E+000
  0.000000000000000E+000
  0.000000000000000E+000
  0.000000000000000E+000
  0.000000000000000E+000
  0.000000000000000E+000
  0.000000000000000E+000
  0.000000000000000E+000
  0.000000000000000E+000
  0.000000000000000E+000
  0.000000000000000E+000
  0.000000000000000E+000
  0.000000000000000E+000
  0.000000000000000E+000
  0.000000000000000E+000
  0.000000000000000E+000
  0.000000000000000E+000
  0.000000000000000E+000
  0.000000000000000E+000
  0.000000000000000E+000
  0.000000000000000E+000
  0.000000000000000E+000
  0.000000000000000E+000
  0.000000000000000E+000
  0.000000000000000E+000
  0.000000000000000E+000
  0.000000000000000E+000
  0.000000000000000E+000
  0.000000000000000E+000
  0.000000000000000E+000
  0.000000000000000E+000
  0.000000000000000E+000
  0.000000000000000E+000
  0.000000000000000E+000
  0.000000000000000E+000
  0.000000000000000E+000
  0.000000000000000E+000
  0.000000000000000E+000
  0.000000000000000E+000
  0.000000000000000E+000
  0.000000000000000E+000
  0.000000000000000E+000
  0.000000000000000E+000
  0.000000000000000E+000
  0.000000000000000E+000
  0.000000000000000E+000
  0.000000000000000E+000
  0.000000000000000E+000
  0.000000000000000E+000
  0.000000000000000E+000
  0.000000000000000E+000
  0.000000000000000E+000
  0.000000000000000E+000
  0.000000000000000E+000
  0.000000000000000E+000
  0.000000000000000E+000
  0.000000000000000E+000
  0.000000000000000E+000
  0.000000000000000E+000
  0.000000000000000E+000
  0.000000000000000E+000
  0.000000000000000E+000
  0.000000000000000E+000
  0.000000000000000E+000
  0.000000000000000E+000
  0.000000000000000E+000
  0.000000000000000E+000
  0.000000000000000E+000
  0.000000000000000E+000
  0.000000000000000E+000
  0.000000000000000E+000
  0.000000000000000E+000
  0.000000000000000E+000
  0.000000000000000E+000
  0.000000000000000E+000
  0.000000000000000E+000
  0.000000000000000E+000
  0.000000000000000E+000
  0.000000000000000E+000
  0.000000000000000E+000
  0.000000000000000E+000
  0.000000000000000E+000
  0.000000000000000E+000
  0.000000000000000E+000
  0.000000000000000E+000
  0.000000000000000E+000
  0.000000000000000E+000
  0.000000000000000E+000
  0.000000000000000E+000
  0.000000000000000E+000
  0.000000000000000E+000
  0.000000000000000E+000
  0.000000000000000E+000
  0.000000000000000E+000
  0.000000000000000E+000
  0.000000000000000E+000
  0.000000000000000E+000
  0.000000000000000E+000
  0.000000000000000E+000
  0.000000000000000E+000
  0.000000000000000E+000
  0.000000000000000E+000
  0.000000000000000E+000
  0.000000000000000E+000
  0.000000000000000E+000
  0.000000000000000E+000
  0.000000000000000E+000
  0.000000000000000E+000
  0.000000000000000E+000
  0.000000000000000E+000
  0.000000000000000E+000
  0.000000000000000E+000
  0.000000000000000E+000
  0.000000000000000E+000
  0.000000000000000E+000
  0.000000000000000E+000
  0.000000000000000E+000
  0.000000000000000E+000
  0.000000000000000E+000
  0.000000000000000E+000
  0.000000000000000E+000
  0.000000000000000E+000
  0.000000000000000E+000
  0.000000000000000E+000
  0.000000000000000E+000
  0.000000000000000E+000
  0.000000000000000E+000
  0.000000000000000E+000
  0.000000000000000E+000
  0.000000000000000E+000
  0.000000000000000E+000
  0.000000000000000E+000
  0.000000000000000E+000
  0.000000000000000E+000
  0.000000000000000E+000
  0.000000000000000E+000
  0.000000000000000E+000
  0.000000000000000E+000
  0.000000000000000E+000
  0.000000000000000E+000
  0.000000000000000E+000
  0.000000000000000E+000
  0.000000000000000E+000
  0.000000000000000E+000
  0.000000000000000E+000
  0.000000000000000E+000
  0.000000000000000E+000
  0.000000000000000E+000
  0.000000000000000E+000
  0.000000000000000E+000
  0.000000000000000E+000
  0.000000000000000E+000
  0.000000000000000E+000
  0.000000000000000E+000
  0.000000000000000E+000
  0.000000000000000E+000
  0.000000000000000E+000
  0.000000000000000E+000
  0.000000000000000E+000
  0.000000000000000E+000
  0.000000000000000E+000
  0.000000000000000E+000
  0.000000000000000E+000
  0.000000000000000E+000
  0.000000000000000E+000
  0.000000000000000E+000
  0.000000000000000E+000
  0.000000000000000E+000
  0.000000000000000E+000
  0.000000000000000E+000
  0.000000000000000E+000
  0.000000000000000E+000
  0.000000000000000E+000
  0.000000000000000E+000
  0.000000000000000E+000
  0.000000000000000E+000
  0.000000000000000E+000
  0.000000000000000E+000
  0.000000000000000E+000
  0.000000000000000E+000
  0.000000000000000E+000
  0.000000000000000E+000
  0.000000000000000E+000
  0.000000000000000E+000
  0.000000000000000E+000
  0.000000000000000E+000
  0.000000000000000E+000
  0.000000000000000E+000
  0.000000000000000E+000
  0.000000000000000E+000
  0.000000000000000E+000
  0.000000000000000E+000
  0.000000000000000E+000
  0.000000000000000E+000
  0.000000000000000E+000
  0.000000000000000E+000
  0.000000000000000E+000
  0.000000000000000E+000
  0.000000000000000E+000
  0.000000000000000E+000
  0.000000000000000E+000
  0.000000000000000E+000
  0.000000000000000E+000
  0.000000000000000E+000
  0.000000000000000E+000
  0.000000000000000E+000
  0.000000000000000E+000
  0.000000000000000E+000
  0.000000000000000E+000
  0.000000000000000E+000
  0.000000000000000E+000
  0.000000000000000E+000
  0.000000000000000E+000
  0.000000000000000E+000
  0.000000000000000E+000
  0.000000000000000E+000
  0.000000000000000E+000
  0.000000000000000E+000
  0.000000000000000E+000
  0.000000000000000E+000
  0.000000000000000E+000
  0.000000000000000E+000
  0.000000000000000E+000
  0.000000000000000E+000
  0.000000000000000E+000
  0.000000000000000E+000
  0.000000000000000E+000
  0.000000000000000E+000
  0.000000000000000E+000
  0.000000000000000E+000
  0.000000000000000E+000
  0.000000000000000E+000
  0.000000000000000E+000
  0.000000000000000E+000
  0.000000000000000E+000
  0.000000000000000E+000
  0.000000000000000E+000
  0.000000000000000E+000
  0.000000000000000E+000
  0.000000000000000E+000
  0.000000000000000E+000
  0.000000000000000E+000
  0.000000000000000E+000
  0.000000000000000E+000
  0.000000000000000E+000
  0.000000000000000E+000
  0.000000000000000E+000
  0.000000000000000E+000
  0.000000000000000E+000
  0.000000000000000E+000
  0.000000000000000E+000
  0.000000000000000E+000
  0.000000000000000E+000
  0.000000000000000E+000
  0.000000000000000E+000
  0.000000000000000E+000
  0.000000000000000E+000
  0.000000000000000E+000
  0.000000000000000E+000
  0.000000000000000E+000
  0.000000000000000E+000
  0.000000000000000E+000
  0.000000000000000E+000
  0.000000000000000E+000
  0.000000000000000E+000
  0.000000000000000E+000
  0.000000000000000E+000
  0.000000000000000E+000
  0.000000000000000E+000
  0.000000000000000E+000
  0.000000000000000E+000
  0.000000000000000E+000
  0.000000000000000E+000
  0.000000000000000E+000
  0.000000000000000E+000
  0.000000000000000E+000
  0.000000000000000E+000
  0.000000000000000E+000
  0.000000000000000E+000
  0.000000000000000E+000
  0.000000000000000E+000
  0.000000000000000E+000
  0.000000000000000E+000
  0.000000000000000E+000
  0.000000000000000E+000
  0.000000000000000E+000
  0.000000000000000E+000
  0.000000000000000E+000
  0.000000000000000E+000
  0.000000000000000E+000
  0.000000000000000E+000
  0.000000000000000E+000
  0.000000000000000E+000
SCALARS poroL double 
LOOKUP_TABLE default
  0.156135025780341     
  0.156119714301245     
  0.156108079333601     
  0.156098486016364     
  0.156090295623692     
  0.156083136533843     
  0.156076764300095     
  0.156070999904147     
  0.156065699761307     
  0.156060736975589     
  0.156055985813008     
  0.156051303158196     
  0.156046494030025     
  0.156041239723233     
  0.156034611955329     
  0.156121277017416     
  0.156109066376004     
  0.156098434823542     
  0.156089381328626     
  0.156081519933558     
  0.156074586251936     
  0.156068382251296     
  0.156062754209026     
  0.156057574850827     
  0.156052730874251     
  0.156048112394983     
  0.156043601350353     
  0.156039061439353     
  0.156034300395159     
  0.156029516579062     
  0.156106161247469     
  0.156096385840606     
  0.156087298648816     
  0.156079131378983     
  0.156071853040977     
  0.156065332788923     
  0.156059444479686     
  0.156054075450260     
  0.156049126242552     
  0.156044506920037     
  0.156040133519205     
  0.156035927363654     
  0.156031818351005     
  0.156027819761759     
  0.156024043389411     
  0.156090819568782     
  0.156082830499082     
  0.156075152081295     
  0.156067999138107     
  0.156061443331014     
  0.156055464551291     
  0.156050003176326     
  0.156044990848035     
  0.156040360091303     
  0.156036048178259     
  0.156031999828815     
  0.156028172055146     
  0.156024551873319     
  0.156021173130448     
  0.156018140883028     
  0.156075500050870     
  0.156068902800390     
  0.156062427360640     
  0.156056247960472     
  0.156050458456224     
  0.156045087699107     
  0.156040124213495     
  0.156035536808370     
  0.156031287665472     
  0.156027339769094     
  0.156023662739032     
  0.156020240460188     
  0.156017080146899     
  0.156014223330225     
  0.156011749660607     
  0.156060299182478     
  0.156054830607526     
  0.156049381888968     
  0.156044091583097     
  0.156039050978739     
  0.156034307816393     
  0.156029877386909     
  0.156025754980980     
  0.156021926221241     
  0.156018374915129     
  0.156015089577058     
  0.156012069634108     
  0.156009331727755     
  0.156006914303216     
  0.156004878911569     
  0.156045258455101     
  0.156040731863351     
  0.156036167907318     
  0.156031677922440     
  0.156027343736725     
  0.156023217972440     
  0.156019329113297     
  0.156015688712462     
  0.156012298680407     
  0.156009157749518     
  0.156006267070375     
  0.156003635133572     
  0.156001281769953     
  0.155999240619033     
  0.155997559011422     
  0.156030395323574     
  0.156026670667160     
  0.156022877540207     
  0.156019106401050     
  0.156015428327513     
  0.156011894457799     
  0.156008538393385     
  0.156005380415539     
  0.156002432370087     
  0.155999702454756     
  0.155997199536700     
  0.155994936785880     
  0.155992934370094     
  0.155991220797473     
  0.155989832525995     
  0.156015713077786     
  0.156012681422248     
  0.156009566864475     
  0.156006443254415     
  0.156003371164912     
  0.156000397280039     
  0.155997555601454     
  0.155994869971566     
  0.155992357286690     
  0.155990030860041     
  0.155987903544349     
  0.155985990329739     
  0.155984310158490     
  0.155982886710332     
  0.155981747962814     
  0.156001205323634     
  0.155998780200690     
  0.155996269158220     
  0.155993732157986     
  0.155991219799908     
  0.155988772858066     
  0.155986422933175     
  0.155984194000271     
  0.155982104506725     
  0.155980169663225     
  0.155978403617588     
  0.155976821255902     
  0.155975439419079     
  0.155974277363434     
  0.155973356358626     
  0.155986858356503     
  0.155984970839173     
  0.155983002548395     
  0.155981001246530     
  0.155979008017606     
  0.155977056962594     
  0.155975175579734     
  0.155973385731624     
  0.155971705006209     
  0.155970148242974     
  0.155968729001601     
  0.155967460776928     
  0.155966357798117     
  0.155965435290979     
  0.155964709134144     
  0.155972652721812     
  0.155971248567328     
  0.155969774727498     
  0.155968267791482     
  0.155966759644334     
  0.155965277283213     
  0.155963843050420     
  0.155962475238980     
  0.155961188961793     
  0.155959997141364     
  0.155958911470104     
  0.155957943202528     
  0.155957103663557     
  0.155956404387869     
  0.155955856842852     
  0.155958564432004     
  0.155957602414296     
  0.155956586069936     
  0.155955541424637     
  0.155954491361378     
  0.155953455516511     
  0.155952450421339     
  0.155951489868944     
  0.155950585445397     
  0.155949747139646     
  0.155948983937563     
  0.155948304309905     
  0.155947716517568     
  0.155947228677801     
  0.155946848559640     
  0.155944566035643     
  0.155944016975987     
  0.155943431850621     
  0.155942826470776     
  0.155942214830090     
  0.155941609050210     
  0.155941019456068     
  0.155940454771877     
  0.155939922406761     
  0.155939428784264     
  0.155938979663792     
  0.155938580403281     
  0.155938236119522     
  0.155937951713886     
  0.155937731745058     
  0.155930627618381     
  0.155930473836694     
  0.155930303951702     
  0.155930123741086     
  0.155929938367283     
  0.155929752354921     
  0.155929569610741     
  0.155929393483187     
  0.155929226851682     
  0.155929072230692     
  0.155928931871436     
  0.155928807844369     
  0.155928702087854     
  0.155928616412213     
  0.155928552453010     
  0.155916717769647     
  0.155916952802772     
  0.155917192281429     
  0.155917432011249     
  0.155917668344922     
  0.155917898185831     
  0.155918118955971     
  0.155918328530108     
  0.155918525144716     
  0.155918707294701     
  0.155918873633009     
  0.155919022888049     
  0.155919153811863     
  0.155919265168796     
  0.155919355770395     
  0.155902804531491     
  0.155903433041522     
  0.155904086045537     
  0.155904749334331     
  0.155905410441433     
  0.155906058678786     
  0.155906685050222     
  0.155907282050732     
  0.155907843380976     
  0.155908363620648     
  0.155908837910346     
  0.155909261690455     
  0.155909630538789     
  0.155909940138032     
  0.155910186390897     
  0.155888856340354     
  0.155889894189490     
  0.155890974971573     
  0.155892074300740     
  0.155893170845004     
  0.155894246411809     
  0.155895285797110     
  0.155896276417050     
  0.155897207780996     
  0.155898070888968     
  0.155898857645104     
  0.155899560374744     
  0.155900171519510     
  0.155900683565227     
  0.155901089233791     
  0.155874842971348     
  0.155876317485968     
  0.155877850574493     
  0.155879407345585     
  0.155880957500360     
  0.155882475498261     
  0.155883940317854     
  0.155885334855186     
  0.155886645065742     
  0.155887858989343     
  0.155888965804256     
  0.155889955045739     
  0.155890816101982     
  0.155891538070515     
  0.155892110021667     
  0.155860736495818     
  0.155862686995444     
  0.155864707563223     
  0.155866752214963     
  0.155868781498784     
  0.155870762782320     
  0.155872669871250     
  0.155874482054731     
  0.155876182766074     
  0.155877758082233     
  0.155879195279821     
  0.155880481639398     
  0.155881603656436     
  0.155882546777324     
  0.155883295728401     
  0.155846512268481     
  0.155848991011013     
  0.155851545526899     
  0.155854117739599     
  0.155856658737398     
  0.155859129220497     
  0.155861498855611     
  0.155863744754214     
  0.155865849411983     
  0.155867798459374     
  0.155869578526998     
  0.155871175475783     
  0.155872573199153     
  0.155873753164808     
  0.155874694800544     
  0.155832149977555     
  0.155835223794099     
  0.155838371121556     
  0.155841520136667     
  0.155844612019540     
  0.155847601550453     
  0.155850455924972     
  0.155853152278046     
  0.155855674531479     
  0.155858010094425     
  0.155860146799393     
  0.155862070352175     
  0.155863762548306     
  0.155865200496773     
  0.155866357042056     
  0.155817634836111     
  0.155821387939327     
  0.155825201137142     
  0.155828986186529     
  0.155832673832057     
  0.155836214357659     
  0.155839575232402     
  0.155842736976077     
  0.155845688368382     
  0.155848421753359     
  0.155850928804693     
  0.155853196961702     
  0.155855206784222     
  0.155856930630861     
  0.155858333032238     
  0.155802959106536     
  0.155807497937163     
  0.155812067136239     
  0.155816557838653     
  0.155820890100478     
  0.155825012614735     
  0.155828897747781     
  0.155832534471485     
  0.155835921214956     
  0.155839059523770     
  0.155841948572036     
  0.155844580337138     
  0.155846935677705     
  0.155848981910373     
  0.155850672915468     
  0.155788124418145     
  0.155793586158819     
  0.155799022973733     
  0.155804299122193     
  0.155809325215764     
  0.155814054591426     
  0.155818472432324     
  0.155822583555098     
  0.155826402271975     
  0.155829944686257     
  0.155833222296828     
  0.155836235916820     
  0.155838969500585     
  0.155841385646450     
  0.155843424313349     
  0.155773146147642     
  0.155779714017272     
  0.155786157825456     
  0.155792306609648     
  0.155798068271595     
  0.155803414528631     
  0.155808356702612     
  0.155812925488805     
  0.155817158106250     
  0.155821091004875     
  0.155824754144806     
  0.155828163522934     
  0.155831312299065     
  0.155834160040333     
  0.155836628993667     
  0.155758063083746     
  0.155765995692312     
  0.155773619863146     
  0.155780724496244     
  0.155787239056460     
  0.155793183159945     
  0.155798615268279     
  0.155803602456077     
  0.155808210960189     
  0.155812502380258     
  0.155816531027667     
  0.155820339180792     
  0.155823939750048     
  0.155827299814292     
  0.155830316760274     
  0.155742967797077     
  0.155752653249331     
  0.155761660579599     
  0.155769761697053     
  0.155776986620520     
  0.155783463564015     
  0.155789316193959     
  0.155794654994461     
  0.155799577521530     
  0.155804172006003     
  0.155808520826367     
  0.155812701180785     
  0.155816781873335     
  0.155820750096590     
  0.155824496651360     
  0.155728101467843     
  0.155740178564203     
  0.155750703415695     
  0.155759676032109     
  0.155767474967847     
  0.155774359478994     
  0.155780523751132     
  0.155786118523095     
  0.155791268606016     
  0.155796085112411     
  0.155800675794926     
  0.155805156402351     
  0.155809660531476     
  0.155814376569837     
  0.155819110539234     
  0.155714582744213     
  0.155729707996050     
  0.155741220350925     
  0.155750725216852     
  0.155758849364527     
  0.155765957331603     
  0.155772288851288     
  0.155778019475752     
  0.155783290007616     
  0.155788224880000     
  0.155792947369479     
  0.155797597755395     
  0.155802367083605     
  0.155807567519650     
  0.155814108025728     
