# vtk DataFile Version 3.0
vtk output
ASCII
DATASET UNSTRUCTURED_GRID
POINTS       496 double 
  0.00000000E+00  3.00000000E+02  0.00000000E+00
  0.00000000E+00  2.80000000E+02  0.00000000E+00
  0.00000000E+00  2.60000000E+02  0.00000000E+00
  0.00000000E+00  2.40000000E+02  0.00000000E+00
  0.00000000E+00  2.20000000E+02  0.00000000E+00
  0.00000000E+00  2.00000000E+02  0.00000000E+00
  0.00000000E+00  1.80000000E+02  0.00000000E+00
  0.00000000E+00  1.60000000E+02  0.00000000E+00
  0.00000000E+00  1.40000000E+02  0.00000000E+00
  0.00000000E+00  1.20000000E+02  0.00000000E+00
  0.00000000E+00  1.00000000E+02  0.00000000E+00
  0.00000000E+00  8.00000000E+01  0.00000000E+00
  0.00000000E+00  6.00000000E+01  0.00000000E+00
  0.00000000E+00  4.00000000E+01  0.00000000E+00
  0.00000000E+00  2.00000000E+01  0.00000000E+00
  0.00000000E+00  4.99600361E-14  0.00000000E+00
  2.00000000E+01  3.00000000E+02  0.00000000E+00
  2.00000000E+01  2.80000000E+02  0.00000000E+00
  2.00000000E+01  2.60000000E+02  0.00000000E+00
  2.00000000E+01  2.40000000E+02  0.00000000E+00
  2.00000000E+01  2.20000000E+02  0.00000000E+00
  2.00000000E+01  2.00000000E+02  0.00000000E+00
  2.00000000E+01  1.80000000E+02  0.00000000E+00
  2.00000000E+01  1.60000000E+02  0.00000000E+00
  2.00000000E+01  1.40000000E+02  0.00000000E+00
  2.00000000E+01  1.20000000E+02  0.00000000E+00
  2.00000000E+01  1.00000000E+02  0.00000000E+00
  2.00000000E+01  8.00000000E+01  0.00000000E+00
  2.00000000E+01  6.00000000E+01  0.00000000E+00
  2.00000000E+01  4.00000000E+01  0.00000000E+00
  2.00000000E+01  2.00000000E+01  0.00000000E+00
  2.00000000E+01  4.99600361E-14  0.00000000E+00
  4.00000000E+01  3.00000000E+02  0.00000000E+00
  4.00000000E+01  2.80000000E+02  0.00000000E+00
  4.00000000E+01  2.60000000E+02  0.00000000E+00
  4.00000000E+01  2.40000000E+02  0.00000000E+00
  4.00000000E+01  2.20000000E+02  0.00000000E+00
  4.00000000E+01  2.00000000E+02  0.00000000E+00
  4.00000000E+01  1.80000000E+02  0.00000000E+00
  4.00000000E+01  1.60000000E+02  0.00000000E+00
  4.00000000E+01  1.40000000E+02  0.00000000E+00
  4.00000000E+01  1.20000000E+02  0.00000000E+00
  4.00000000E+01  1.00000000E+02  0.00000000E+00
  4.00000000E+01  8.00000000E+01  0.00000000E+00
  4.00000000E+01  6.00000000E+01  0.00000000E+00
  4.00000000E+01  4.00000000E+01  0.00000000E+00
  4.00000000E+01  2.00000000E+01  0.00000000E+00
  4.00000000E+01  4.99600361E-14  0.00000000E+00
  6.00000000E+01  3.00000000E+02  0.00000000E+00
  6.00000000E+01  2.80000000E+02  0.00000000E+00
  6.00000000E+01  2.60000000E+02  0.00000000E+00
  6.00000000E+01  2.40000000E+02  0.00000000E+00
  6.00000000E+01  2.20000000E+02  0.00000000E+00
  6.00000000E+01  2.00000000E+02  0.00000000E+00
  6.00000000E+01  1.80000000E+02  0.00000000E+00
  6.00000000E+01  1.60000000E+02  0.00000000E+00
  6.00000000E+01  1.40000000E+02  0.00000000E+00
  6.00000000E+01  1.20000000E+02  0.00000000E+00
  6.00000000E+01  1.00000000E+02  0.00000000E+00
  6.00000000E+01  8.00000000E+01  0.00000000E+00
  6.00000000E+01  6.00000000E+01  0.00000000E+00
  6.00000000E+01  4.00000000E+01  0.00000000E+00
  6.00000000E+01  2.00000000E+01  0.00000000E+00
  6.00000000E+01  4.99600361E-14  0.00000000E+00
  8.00000000E+01  3.00000000E+02  0.00000000E+00
  8.00000000E+01  2.80000000E+02  0.00000000E+00
  8.00000000E+01  2.60000000E+02  0.00000000E+00
  8.00000000E+01  2.40000000E+02  0.00000000E+00
  8.00000000E+01  2.20000000E+02  0.00000000E+00
  8.00000000E+01  2.00000000E+02  0.00000000E+00
  8.00000000E+01  1.80000000E+02  0.00000000E+00
  8.00000000E+01  1.60000000E+02  0.00000000E+00
  8.00000000E+01  1.40000000E+02  0.00000000E+00
  8.00000000E+01  1.20000000E+02  0.00000000E+00
  8.00000000E+01  1.00000000E+02  0.00000000E+00
  8.00000000E+01  8.00000000E+01  0.00000000E+00
  8.00000000E+01  6.00000000E+01  0.00000000E+00
  8.00000000E+01  4.00000000E+01  0.00000000E+00
  8.00000000E+01  2.00000000E+01  0.00000000E+00
  8.00000000E+01  4.99600361E-14  0.00000000E+00
  1.00000000E+02  3.00000000E+02  0.00000000E+00
  1.00000000E+02  2.80000000E+02  0.00000000E+00
  1.00000000E+02  2.60000000E+02  0.00000000E+00
  1.00000000E+02  2.40000000E+02  0.00000000E+00
  1.00000000E+02  2.20000000E+02  0.00000000E+00
  1.00000000E+02  2.00000000E+02  0.00000000E+00
  1.00000000E+02  1.80000000E+02  0.00000000E+00
  1.00000000E+02  1.60000000E+02  0.00000000E+00
  1.00000000E+02  1.40000000E+02  0.00000000E+00
  1.00000000E+02  1.20000000E+02  0.00000000E+00
  1.00000000E+02  1.00000000E+02  0.00000000E+00
  1.00000000E+02  8.00000000E+01  0.00000000E+00
  1.00000000E+02  6.00000000E+01  0.00000000E+00
  1.00000000E+02  4.00000000E+01  0.00000000E+00
  1.00000000E+02  2.00000000E+01  0.00000000E+00
  1.00000000E+02  4.99600361E-14  0.00000000E+00
  1.20000000E+02  3.00000000E+02  0.00000000E+00
  1.20000000E+02  2.80000000E+02  0.00000000E+00
  1.20000000E+02  2.60000000E+02  0.00000000E+00
  1.20000000E+02  2.40000000E+02  0.00000000E+00
  1.20000000E+02  2.20000000E+02  0.00000000E+00
  1.20000000E+02  2.00000000E+02  0.00000000E+00
  1.20000000E+02  1.80000000E+02  0.00000000E+00
  1.20000000E+02  1.60000000E+02  0.00000000E+00
  1.20000000E+02  1.40000000E+02  0.00000000E+00
  1.20000000E+02  1.20000000E+02  0.00000000E+00
  1.20000000E+02  1.00000000E+02  0.00000000E+00
  1.20000000E+02  8.00000000E+01  0.00000000E+00
  1.20000000E+02  6.00000000E+01  0.00000000E+00
  1.20000000E+02  4.00000000E+01  0.00000000E+00
  1.20000000E+02  2.00000000E+01  0.00000000E+00
  1.20000000E+02  4.99600361E-14  0.00000000E+00
  1.40000000E+02  3.00000000E+02  0.00000000E+00
  1.40000000E+02  2.80000000E+02  0.00000000E+00
  1.40000000E+02  2.60000000E+02  0.00000000E+00
  1.40000000E+02  2.40000000E+02  0.00000000E+00
  1.40000000E+02  2.20000000E+02  0.00000000E+00
  1.40000000E+02  2.00000000E+02  0.00000000E+00
  1.40000000E+02  1.80000000E+02  0.00000000E+00
  1.40000000E+02  1.60000000E+02  0.00000000E+00
  1.40000000E+02  1.40000000E+02  0.00000000E+00
  1.40000000E+02  1.20000000E+02  0.00000000E+00
  1.40000000E+02  1.00000000E+02  0.00000000E+00
  1.40000000E+02  8.00000000E+01  0.00000000E+00
  1.40000000E+02  6.00000000E+01  0.00000000E+00
  1.40000000E+02  4.00000000E+01  0.00000000E+00
  1.40000000E+02  2.00000000E+01  0.00000000E+00
  1.40000000E+02  4.99600361E-14  0.00000000E+00
  1.60000000E+02  3.00000000E+02  0.00000000E+00
  1.60000000E+02  2.80000000E+02  0.00000000E+00
  1.60000000E+02  2.60000000E+02  0.00000000E+00
  1.60000000E+02  2.40000000E+02  0.00000000E+00
  1.60000000E+02  2.20000000E+02  0.00000000E+00
  1.60000000E+02  2.00000000E+02  0.00000000E+00
  1.60000000E+02  1.80000000E+02  0.00000000E+00
  1.60000000E+02  1.60000000E+02  0.00000000E+00
  1.60000000E+02  1.40000000E+02  0.00000000E+00
  1.60000000E+02  1.20000000E+02  0.00000000E+00
  1.60000000E+02  1.00000000E+02  0.00000000E+00
  1.60000000E+02  8.00000000E+01  0.00000000E+00
  1.60000000E+02  6.00000000E+01  0.00000000E+00
  1.60000000E+02  4.00000000E+01  0.00000000E+00
  1.60000000E+02  2.00000000E+01  0.00000000E+00
  1.60000000E+02  4.99600361E-14  0.00000000E+00
  1.80000000E+02  3.00000000E+02  0.00000000E+00
  1.80000000E+02  2.80000000E+02  0.00000000E+00
  1.80000000E+02  2.60000000E+02  0.00000000E+00
  1.80000000E+02  2.40000000E+02  0.00000000E+00
  1.80000000E+02  2.20000000E+02  0.00000000E+00
  1.80000000E+02  2.00000000E+02  0.00000000E+00
  1.80000000E+02  1.80000000E+02  0.00000000E+00
  1.80000000E+02  1.60000000E+02  0.00000000E+00
  1.80000000E+02  1.40000000E+02  0.00000000E+00
  1.80000000E+02  1.20000000E+02  0.00000000E+00
  1.80000000E+02  1.00000000E+02  0.00000000E+00
  1.80000000E+02  8.00000000E+01  0.00000000E+00
  1.80000000E+02  6.00000000E+01  0.00000000E+00
  1.80000000E+02  4.00000000E+01  0.00000000E+00
  1.80000000E+02  2.00000000E+01  0.00000000E+00
  1.80000000E+02  4.99600361E-14  0.00000000E+00
  2.00000000E+02  3.00000000E+02  0.00000000E+00
  2.00000000E+02  2.80000000E+02  0.00000000E+00
  2.00000000E+02  2.60000000E+02  0.00000000E+00
  2.00000000E+02  2.40000000E+02  0.00000000E+00
  2.00000000E+02  2.20000000E+02  0.00000000E+00
  2.00000000E+02  2.00000000E+02  0.00000000E+00
  2.00000000E+02  1.80000000E+02  0.00000000E+00
  2.00000000E+02  1.60000000E+02  0.00000000E+00
  2.00000000E+02  1.40000000E+02  0.00000000E+00
  2.00000000E+02  1.20000000E+02  0.00000000E+00
  2.00000000E+02  1.00000000E+02  0.00000000E+00
  2.00000000E+02  8.00000000E+01  0.00000000E+00
  2.00000000E+02  6.00000000E+01  0.00000000E+00
  2.00000000E+02  4.00000000E+01  0.00000000E+00
  2.00000000E+02  2.00000000E+01  0.00000000E+00
  2.00000000E+02  4.99600361E-14  0.00000000E+00
  2.20000000E+02  3.00000000E+02  0.00000000E+00
  2.20000000E+02  2.80000000E+02  0.00000000E+00
  2.20000000E+02  2.60000000E+02  0.00000000E+00
  2.20000000E+02  2.40000000E+02  0.00000000E+00
  2.20000000E+02  2.20000000E+02  0.00000000E+00
  2.20000000E+02  2.00000000E+02  0.00000000E+00
  2.20000000E+02  1.80000000E+02  0.00000000E+00
  2.20000000E+02  1.60000000E+02  0.00000000E+00
  2.20000000E+02  1.40000000E+02  0.00000000E+00
  2.20000000E+02  1.20000000E+02  0.00000000E+00
  2.20000000E+02  1.00000000E+02  0.00000000E+00
  2.20000000E+02  8.00000000E+01  0.00000000E+00
  2.20000000E+02  6.00000000E+01  0.00000000E+00
  2.20000000E+02  4.00000000E+01  0.00000000E+00
  2.20000000E+02  2.00000000E+01  0.00000000E+00
  2.20000000E+02  4.99600361E-14  0.00000000E+00
  2.40000000E+02  3.00000000E+02  0.00000000E+00
  2.40000000E+02  2.80000000E+02  0.00000000E+00
  2.40000000E+02  2.60000000E+02  0.00000000E+00
  2.40000000E+02  2.40000000E+02  0.00000000E+00
  2.40000000E+02  2.20000000E+02  0.00000000E+00
  2.40000000E+02  2.00000000E+02  0.00000000E+00
  2.40000000E+02  1.80000000E+02  0.00000000E+00
  2.40000000E+02  1.60000000E+02  0.00000000E+00
  2.40000000E+02  1.40000000E+02  0.00000000E+00
  2.40000000E+02  1.20000000E+02  0.00000000E+00
  2.40000000E+02  1.00000000E+02  0.00000000E+00
  2.40000000E+02  8.00000000E+01  0.00000000E+00
  2.40000000E+02  6.00000000E+01  0.00000000E+00
  2.40000000E+02  4.00000000E+01  0.00000000E+00
  2.40000000E+02  2.00000000E+01  0.00000000E+00
  2.40000000E+02  4.99600361E-14  0.00000000E+00
  2.60000000E+02  3.00000000E+02  0.00000000E+00
  2.60000000E+02  2.80000000E+02  0.00000000E+00
  2.60000000E+02  2.60000000E+02  0.00000000E+00
  2.60000000E+02  2.40000000E+02  0.00000000E+00
  2.60000000E+02  2.20000000E+02  0.00000000E+00
  2.60000000E+02  2.00000000E+02  0.00000000E+00
  2.60000000E+02  1.80000000E+02  0.00000000E+00
  2.60000000E+02  1.60000000E+02  0.00000000E+00
  2.60000000E+02  1.40000000E+02  0.00000000E+00
  2.60000000E+02  1.20000000E+02  0.00000000E+00
  2.60000000E+02  1.00000000E+02  0.00000000E+00
  2.60000000E+02  8.00000000E+01  0.00000000E+00
  2.60000000E+02  6.00000000E+01  0.00000000E+00
  2.60000000E+02  4.00000000E+01  0.00000000E+00
  2.60000000E+02  2.00000000E+01  0.00000000E+00
  2.60000000E+02  4.99600361E-14  0.00000000E+00
  2.80000000E+02  3.00000000E+02  0.00000000E+00
  2.80000000E+02  2.80000000E+02  0.00000000E+00
  2.80000000E+02  2.60000000E+02  0.00000000E+00
  2.80000000E+02  2.40000000E+02  0.00000000E+00
  2.80000000E+02  2.20000000E+02  0.00000000E+00
  2.80000000E+02  2.00000000E+02  0.00000000E+00
  2.80000000E+02  1.80000000E+02  0.00000000E+00
  2.80000000E+02  1.60000000E+02  0.00000000E+00
  2.80000000E+02  1.40000000E+02  0.00000000E+00
  2.80000000E+02  1.20000000E+02  0.00000000E+00
  2.80000000E+02  1.00000000E+02  0.00000000E+00
  2.80000000E+02  8.00000000E+01  0.00000000E+00
  2.80000000E+02  6.00000000E+01  0.00000000E+00
  2.80000000E+02  4.00000000E+01  0.00000000E+00
  2.80000000E+02  2.00000000E+01  0.00000000E+00
  2.80000000E+02  4.99600361E-14  0.00000000E+00
  3.00000000E+02  3.00000000E+02  0.00000000E+00
  3.00000000E+02  2.80000000E+02  0.00000000E+00
  3.00000000E+02  2.60000000E+02  0.00000000E+00
  3.00000000E+02  2.40000000E+02  0.00000000E+00
  3.00000000E+02  2.20000000E+02  0.00000000E+00
  3.00000000E+02  2.00000000E+02  0.00000000E+00
  3.00000000E+02  1.80000000E+02  0.00000000E+00
  3.00000000E+02  1.60000000E+02  0.00000000E+00
  3.00000000E+02  1.40000000E+02  0.00000000E+00
  3.00000000E+02  1.20000000E+02  0.00000000E+00
  3.00000000E+02  1.00000000E+02  0.00000000E+00
  3.00000000E+02  8.00000000E+01  0.00000000E+00
  3.00000000E+02  6.00000000E+01  0.00000000E+00
  3.00000000E+02  4.00000000E+01  0.00000000E+00
  3.00000000E+02  2.00000000E+01  0.00000000E+00
  3.00000000E+02  4.99600361E-14  0.00000000E+00
  3.20000000E+02  3.00000000E+02  0.00000000E+00
  3.20000000E+02  2.80000000E+02  0.00000000E+00
  3.20000000E+02  2.60000000E+02  0.00000000E+00
  3.20000000E+02  2.40000000E+02  0.00000000E+00
  3.20000000E+02  2.20000000E+02  0.00000000E+00
  3.20000000E+02  2.00000000E+02  0.00000000E+00
  3.20000000E+02  1.80000000E+02  0.00000000E+00
  3.20000000E+02  1.60000000E+02  0.00000000E+00
  3.20000000E+02  1.40000000E+02  0.00000000E+00
  3.20000000E+02  1.20000000E+02  0.00000000E+00
  3.20000000E+02  1.00000000E+02  0.00000000E+00
  3.20000000E+02  8.00000000E+01  0.00000000E+00
  3.20000000E+02  6.00000000E+01  0.00000000E+00
  3.20000000E+02  4.00000000E+01  0.00000000E+00
  3.20000000E+02  2.00000000E+01  0.00000000E+00
  3.20000000E+02  4.99600361E-14  0.00000000E+00
  3.40000000E+02  3.00000000E+02  0.00000000E+00
  3.40000000E+02  2.80000000E+02  0.00000000E+00
  3.40000000E+02  2.60000000E+02  0.00000000E+00
  3.40000000E+02  2.40000000E+02  0.00000000E+00
  3.40000000E+02  2.20000000E+02  0.00000000E+00
  3.40000000E+02  2.00000000E+02  0.00000000E+00
  3.40000000E+02  1.80000000E+02  0.00000000E+00
  3.40000000E+02  1.60000000E+02  0.00000000E+00
  3.40000000E+02  1.40000000E+02  0.00000000E+00
  3.40000000E+02  1.20000000E+02  0.00000000E+00
  3.40000000E+02  1.00000000E+02  0.00000000E+00
  3.40000000E+02  8.00000000E+01  0.00000000E+00
  3.40000000E+02  6.00000000E+01  0.00000000E+00
  3.40000000E+02  4.00000000E+01  0.00000000E+00
  3.40000000E+02  2.00000000E+01  0.00000000E+00
  3.40000000E+02  4.99600361E-14  0.00000000E+00
  3.60000000E+02  3.00000000E+02  0.00000000E+00
  3.60000000E+02  2.80000000E+02  0.00000000E+00
  3.60000000E+02  2.60000000E+02  0.00000000E+00
  3.60000000E+02  2.40000000E+02  0.00000000E+00
  3.60000000E+02  2.20000000E+02  0.00000000E+00
  3.60000000E+02  2.00000000E+02  0.00000000E+00
  3.60000000E+02  1.80000000E+02  0.00000000E+00
  3.60000000E+02  1.60000000E+02  0.00000000E+00
  3.60000000E+02  1.40000000E+02  0.00000000E+00
  3.60000000E+02  1.20000000E+02  0.00000000E+00
  3.60000000E+02  1.00000000E+02  0.00000000E+00
  3.60000000E+02  8.00000000E+01  0.00000000E+00
  3.60000000E+02  6.00000000E+01  0.00000000E+00
  3.60000000E+02  4.00000000E+01  0.00000000E+00
  3.60000000E+02  2.00000000E+01  0.00000000E+00
  3.60000000E+02  4.99600361E-14  0.00000000E+00
  3.80000000E+02  3.00000000E+02  0.00000000E+00
  3.80000000E+02  2.80000000E+02  0.00000000E+00
  3.80000000E+02  2.60000000E+02  0.00000000E+00
  3.80000000E+02  2.40000000E+02  0.00000000E+00
  3.80000000E+02  2.20000000E+02  0.00000000E+00
  3.80000000E+02  2.00000000E+02  0.00000000E+00
  3.80000000E+02  1.80000000E+02  0.00000000E+00
  3.80000000E+02  1.60000000E+02  0.00000000E+00
  3.80000000E+02  1.40000000E+02  0.00000000E+00
  3.80000000E+02  1.20000000E+02  0.00000000E+00
  3.80000000E+02  1.00000000E+02  0.00000000E+00
  3.80000000E+02  8.00000000E+01  0.00000000E+00
  3.80000000E+02  6.00000000E+01  0.00000000E+00
  3.80000000E+02  4.00000000E+01  0.00000000E+00
  3.80000000E+02  2.00000000E+01  0.00000000E+00
  3.80000000E+02  4.99600361E-14  0.00000000E+00
  4.00000000E+02  3.00000000E+02  0.00000000E+00
  4.00000000E+02  2.80000000E+02  0.00000000E+00
  4.00000000E+02  2.60000000E+02  0.00000000E+00
  4.00000000E+02  2.40000000E+02  0.00000000E+00
  4.00000000E+02  2.20000000E+02  0.00000000E+00
  4.00000000E+02  2.00000000E+02  0.00000000E+00
  4.00000000E+02  1.80000000E+02  0.00000000E+00
  4.00000000E+02  1.60000000E+02  0.00000000E+00
  4.00000000E+02  1.40000000E+02  0.00000000E+00
  4.00000000E+02  1.20000000E+02  0.00000000E+00
  4.00000000E+02  1.00000000E+02  0.00000000E+00
  4.00000000E+02  8.00000000E+01  0.00000000E+00
  4.00000000E+02  6.00000000E+01  0.00000000E+00
  4.00000000E+02  4.00000000E+01  0.00000000E+00
  4.00000000E+02  2.00000000E+01  0.00000000E+00
  4.00000000E+02  4.99600361E-14  0.00000000E+00
  4.20000000E+02  3.00000000E+02  0.00000000E+00
  4.20000000E+02  2.80000000E+02  0.00000000E+00
  4.20000000E+02  2.60000000E+02  0.00000000E+00
  4.20000000E+02  2.40000000E+02  0.00000000E+00
  4.20000000E+02  2.20000000E+02  0.00000000E+00
  4.20000000E+02  2.00000000E+02  0.00000000E+00
  4.20000000E+02  1.80000000E+02  0.00000000E+00
  4.20000000E+02  1.60000000E+02  0.00000000E+00
  4.20000000E+02  1.40000000E+02  0.00000000E+00
  4.20000000E+02  1.20000000E+02  0.00000000E+00
  4.20000000E+02  1.00000000E+02  0.00000000E+00
  4.20000000E+02  8.00000000E+01  0.00000000E+00
  4.20000000E+02  6.00000000E+01  0.00000000E+00
  4.20000000E+02  4.00000000E+01  0.00000000E+00
  4.20000000E+02  2.00000000E+01  0.00000000E+00
  4.20000000E+02  4.99600361E-14  0.00000000E+00
  4.40000000E+02  3.00000000E+02  0.00000000E+00
  4.40000000E+02  2.80000000E+02  0.00000000E+00
  4.40000000E+02  2.60000000E+02  0.00000000E+00
  4.40000000E+02  2.40000000E+02  0.00000000E+00
  4.40000000E+02  2.20000000E+02  0.00000000E+00
  4.40000000E+02  2.00000000E+02  0.00000000E+00
  4.40000000E+02  1.80000000E+02  0.00000000E+00
  4.40000000E+02  1.60000000E+02  0.00000000E+00
  4.40000000E+02  1.40000000E+02  0.00000000E+00
  4.40000000E+02  1.20000000E+02  0.00000000E+00
  4.40000000E+02  1.00000000E+02  0.00000000E+00
  4.40000000E+02  8.00000000E+01  0.00000000E+00
  4.40000000E+02  6.00000000E+01  0.00000000E+00
  4.40000000E+02  4.00000000E+01  0.00000000E+00
  4.40000000E+02  2.00000000E+01  0.00000000E+00
  4.40000000E+02  4.99600361E-14  0.00000000E+00
  4.60000000E+02  3.00000000E+02  0.00000000E+00
  4.60000000E+02  2.80000000E+02  0.00000000E+00
  4.60000000E+02  2.60000000E+02  0.00000000E+00
  4.60000000E+02  2.40000000E+02  0.00000000E+00
  4.60000000E+02  2.20000000E+02  0.00000000E+00
  4.60000000E+02  2.00000000E+02  0.00000000E+00
  4.60000000E+02  1.80000000E+02  0.00000000E+00
  4.60000000E+02  1.60000000E+02  0.00000000E+00
  4.60000000E+02  1.40000000E+02  0.00000000E+00
  4.60000000E+02  1.20000000E+02  0.00000000E+00
  4.60000000E+02  1.00000000E+02  0.00000000E+00
  4.60000000E+02  8.00000000E+01  0.00000000E+00
  4.60000000E+02  6.00000000E+01  0.00000000E+00
  4.60000000E+02  4.00000000E+01  0.00000000E+00
  4.60000000E+02  2.00000000E+01  0.00000000E+00
  4.60000000E+02  4.99600361E-14  0.00000000E+00
  4.80000000E+02  3.00000000E+02  0.00000000E+00
  4.80000000E+02  2.80000000E+02  0.00000000E+00
  4.80000000E+02  2.60000000E+02  0.00000000E+00
  4.80000000E+02  2.40000000E+02  0.00000000E+00
  4.80000000E+02  2.20000000E+02  0.00000000E+00
  4.80000000E+02  2.00000000E+02  0.00000000E+00
  4.80000000E+02  1.80000000E+02  0.00000000E+00
  4.80000000E+02  1.60000000E+02  0.00000000E+00
  4.80000000E+02  1.40000000E+02  0.00000000E+00
  4.80000000E+02  1.20000000E+02  0.00000000E+00
  4.80000000E+02  1.00000000E+02  0.00000000E+00
  4.80000000E+02  8.00000000E+01  0.00000000E+00
  4.80000000E+02  6.00000000E+01  0.00000000E+00
  4.80000000E+02  4.00000000E+01  0.00000000E+00
  4.80000000E+02  2.00000000E+01  0.00000000E+00
  4.80000000E+02  4.99600361E-14  0.00000000E+00
  5.00000000E+02  3.00000000E+02  0.00000000E+00
  5.00000000E+02  2.80000000E+02  0.00000000E+00
  5.00000000E+02  2.60000000E+02  0.00000000E+00
  5.00000000E+02  2.40000000E+02  0.00000000E+00
  5.00000000E+02  2.20000000E+02  0.00000000E+00
  5.00000000E+02  2.00000000E+02  0.00000000E+00
  5.00000000E+02  1.80000000E+02  0.00000000E+00
  5.00000000E+02  1.60000000E+02  0.00000000E+00
  5.00000000E+02  1.40000000E+02  0.00000000E+00
  5.00000000E+02  1.20000000E+02  0.00000000E+00
  5.00000000E+02  1.00000000E+02  0.00000000E+00
  5.00000000E+02  8.00000000E+01  0.00000000E+00
  5.00000000E+02  6.00000000E+01  0.00000000E+00
  5.00000000E+02  4.00000000E+01  0.00000000E+00
  5.00000000E+02  2.00000000E+01  0.00000000E+00
  5.00000000E+02  4.99600361E-14  0.00000000E+00
  5.20000000E+02  3.00000000E+02  0.00000000E+00
  5.20000000E+02  2.80000000E+02  0.00000000E+00
  5.20000000E+02  2.60000000E+02  0.00000000E+00
  5.20000000E+02  2.40000000E+02  0.00000000E+00
  5.20000000E+02  2.20000000E+02  0.00000000E+00
  5.20000000E+02  2.00000000E+02  0.00000000E+00
  5.20000000E+02  1.80000000E+02  0.00000000E+00
  5.20000000E+02  1.60000000E+02  0.00000000E+00
  5.20000000E+02  1.40000000E+02  0.00000000E+00
  5.20000000E+02  1.20000000E+02  0.00000000E+00
  5.20000000E+02  1.00000000E+02  0.00000000E+00
  5.20000000E+02  8.00000000E+01  0.00000000E+00
  5.20000000E+02  6.00000000E+01  0.00000000E+00
  5.20000000E+02  4.00000000E+01  0.00000000E+00
  5.20000000E+02  2.00000000E+01  0.00000000E+00
  5.20000000E+02  4.99600361E-14  0.00000000E+00
  5.40000000E+02  3.00000000E+02  0.00000000E+00
  5.40000000E+02  2.80000000E+02  0.00000000E+00
  5.40000000E+02  2.60000000E+02  0.00000000E+00
  5.40000000E+02  2.40000000E+02  0.00000000E+00
  5.40000000E+02  2.20000000E+02  0.00000000E+00
  5.40000000E+02  2.00000000E+02  0.00000000E+00
  5.40000000E+02  1.80000000E+02  0.00000000E+00
  5.40000000E+02  1.60000000E+02  0.00000000E+00
  5.40000000E+02  1.40000000E+02  0.00000000E+00
  5.40000000E+02  1.20000000E+02  0.00000000E+00
  5.40000000E+02  1.00000000E+02  0.00000000E+00
  5.40000000E+02  8.00000000E+01  0.00000000E+00
  5.40000000E+02  6.00000000E+01  0.00000000E+00
  5.40000000E+02  4.00000000E+01  0.00000000E+00
  5.40000000E+02  2.00000000E+01  0.00000000E+00
  5.40000000E+02  4.99600361E-14  0.00000000E+00
  5.60000000E+02  3.00000000E+02  0.00000000E+00
  5.60000000E+02  2.80000000E+02  0.00000000E+00
  5.60000000E+02  2.60000000E+02  0.00000000E+00
  5.60000000E+02  2.40000000E+02  0.00000000E+00
  5.60000000E+02  2.20000000E+02  0.00000000E+00
  5.60000000E+02  2.00000000E+02  0.00000000E+00
  5.60000000E+02  1.80000000E+02  0.00000000E+00
  5.60000000E+02  1.60000000E+02  0.00000000E+00
  5.60000000E+02  1.40000000E+02  0.00000000E+00
  5.60000000E+02  1.20000000E+02  0.00000000E+00
  5.60000000E+02  1.00000000E+02  0.00000000E+00
  5.60000000E+02  8.00000000E+01  0.00000000E+00
  5.60000000E+02  6.00000000E+01  0.00000000E+00
  5.60000000E+02  4.00000000E+01  0.00000000E+00
  5.60000000E+02  2.00000000E+01  0.00000000E+00
  5.60000000E+02  4.99600361E-14  0.00000000E+00
  5.80000000E+02  3.00000000E+02  0.00000000E+00
  5.80000000E+02  2.80000000E+02  0.00000000E+00
  5.80000000E+02  2.60000000E+02  0.00000000E+00
  5.80000000E+02  2.40000000E+02  0.00000000E+00
  5.80000000E+02  2.20000000E+02  0.00000000E+00
  5.80000000E+02  2.00000000E+02  0.00000000E+00
  5.80000000E+02  1.80000000E+02  0.00000000E+00
  5.80000000E+02  1.60000000E+02  0.00000000E+00
  5.80000000E+02  1.40000000E+02  0.00000000E+00
  5.80000000E+02  1.20000000E+02  0.00000000E+00
  5.80000000E+02  1.00000000E+02  0.00000000E+00
  5.80000000E+02  8.00000000E+01  0.00000000E+00
  5.80000000E+02  6.00000000E+01  0.00000000E+00
  5.80000000E+02  4.00000000E+01  0.00000000E+00
  5.80000000E+02  2.00000000E+01  0.00000000E+00
  5.80000000E+02  4.99600361E-14  0.00000000E+00
  6.00000000E+02  3.00000000E+02  0.00000000E+00
  6.00000000E+02  2.80000000E+02  0.00000000E+00
  6.00000000E+02  2.60000000E+02  0.00000000E+00
  6.00000000E+02  2.40000000E+02  0.00000000E+00
  6.00000000E+02  2.20000000E+02  0.00000000E+00
  6.00000000E+02  2.00000000E+02  0.00000000E+00
  6.00000000E+02  1.80000000E+02  0.00000000E+00
  6.00000000E+02  1.60000000E+02  0.00000000E+00
  6.00000000E+02  1.40000000E+02  0.00000000E+00
  6.00000000E+02  1.20000000E+02  0.00000000E+00
  6.00000000E+02  1.00000000E+02  0.00000000E+00
  6.00000000E+02  8.00000000E+01  0.00000000E+00
  6.00000000E+02  6.00000000E+01  0.00000000E+00
  6.00000000E+02  4.00000000E+01  0.00000000E+00
  6.00000000E+02  2.00000000E+01  0.00000000E+00
  6.00000000E+02  4.99600361E-14  0.00000000E+00
CELLS       450      2250
         4           0           1          17          16
         4           1           2          18          17
         4           2           3          19          18
         4           3           4          20          19
         4           4           5          21          20
         4           5           6          22          21
         4           6           7          23          22
         4           7           8          24          23
         4           8           9          25          24
         4           9          10          26          25
         4          10          11          27          26
         4          11          12          28          27
         4          12          13          29          28
         4          13          14          30          29
         4          14          15          31          30
         4          16          17          33          32
         4          17          18          34          33
         4          18          19          35          34
         4          19          20          36          35
         4          20          21          37          36
         4          21          22          38          37
         4          22          23          39          38
         4          23          24          40          39
         4          24          25          41          40
         4          25          26          42          41
         4          26          27          43          42
         4          27          28          44          43
         4          28          29          45          44
         4          29          30          46          45
         4          30          31          47          46
         4          32          33          49          48
         4          33          34          50          49
         4          34          35          51          50
         4          35          36          52          51
         4          36          37          53          52
         4          37          38          54          53
         4          38          39          55          54
         4          39          40          56          55
         4          40          41          57          56
         4          41          42          58          57
         4          42          43          59          58
         4          43          44          60          59
         4          44          45          61          60
         4          45          46          62          61
         4          46          47          63          62
         4          48          49          65          64
         4          49          50          66          65
         4          50          51          67          66
         4          51          52          68          67
         4          52          53          69          68
         4          53          54          70          69
         4          54          55          71          70
         4          55          56          72          71
         4          56          57          73          72
         4          57          58          74          73
         4          58          59          75          74
         4          59          60          76          75
         4          60          61          77          76
         4          61          62          78          77
         4          62          63          79          78
         4          64          65          81          80
         4          65          66          82          81
         4          66          67          83          82
         4          67          68          84          83
         4          68          69          85          84
         4          69          70          86          85
         4          70          71          87          86
         4          71          72          88          87
         4          72          73          89          88
         4          73          74          90          89
         4          74          75          91          90
         4          75          76          92          91
         4          76          77          93          92
         4          77          78          94          93
         4          78          79          95          94
         4          80          81          97          96
         4          81          82          98          97
         4          82          83          99          98
         4          83          84         100          99
         4          84          85         101         100
         4          85          86         102         101
         4          86          87         103         102
         4          87          88         104         103
         4          88          89         105         104
         4          89          90         106         105
         4          90          91         107         106
         4          91          92         108         107
         4          92          93         109         108
         4          93          94         110         109
         4          94          95         111         110
         4          96          97         113         112
         4          97          98         114         113
         4          98          99         115         114
         4          99         100         116         115
         4         100         101         117         116
         4         101         102         118         117
         4         102         103         119         118
         4         103         104         120         119
         4         104         105         121         120
         4         105         106         122         121
         4         106         107         123         122
         4         107         108         124         123
         4         108         109         125         124
         4         109         110         126         125
         4         110         111         127         126
         4         112         113         129         128
         4         113         114         130         129
         4         114         115         131         130
         4         115         116         132         131
         4         116         117         133         132
         4         117         118         134         133
         4         118         119         135         134
         4         119         120         136         135
         4         120         121         137         136
         4         121         122         138         137
         4         122         123         139         138
         4         123         124         140         139
         4         124         125         141         140
         4         125         126         142         141
         4         126         127         143         142
         4         128         129         145         144
         4         129         130         146         145
         4         130         131         147         146
         4         131         132         148         147
         4         132         133         149         148
         4         133         134         150         149
         4         134         135         151         150
         4         135         136         152         151
         4         136         137         153         152
         4         137         138         154         153
         4         138         139         155         154
         4         139         140         156         155
         4         140         141         157         156
         4         141         142         158         157
         4         142         143         159         158
         4         144         145         161         160
         4         145         146         162         161
         4         146         147         163         162
         4         147         148         164         163
         4         148         149         165         164
         4         149         150         166         165
         4         150         151         167         166
         4         151         152         168         167
         4         152         153         169         168
         4         153         154         170         169
         4         154         155         171         170
         4         155         156         172         171
         4         156         157         173         172
         4         157         158         174         173
         4         158         159         175         174
         4         160         161         177         176
         4         161         162         178         177
         4         162         163         179         178
         4         163         164         180         179
         4         164         165         181         180
         4         165         166         182         181
         4         166         167         183         182
         4         167         168         184         183
         4         168         169         185         184
         4         169         170         186         185
         4         170         171         187         186
         4         171         172         188         187
         4         172         173         189         188
         4         173         174         190         189
         4         174         175         191         190
         4         176         177         193         192
         4         177         178         194         193
         4         178         179         195         194
         4         179         180         196         195
         4         180         181         197         196
         4         181         182         198         197
         4         182         183         199         198
         4         183         184         200         199
         4         184         185         201         200
         4         185         186         202         201
         4         186         187         203         202
         4         187         188         204         203
         4         188         189         205         204
         4         189         190         206         205
         4         190         191         207         206
         4         192         193         209         208
         4         193         194         210         209
         4         194         195         211         210
         4         195         196         212         211
         4         196         197         213         212
         4         197         198         214         213
         4         198         199         215         214
         4         199         200         216         215
         4         200         201         217         216
         4         201         202         218         217
         4         202         203         219         218
         4         203         204         220         219
         4         204         205         221         220
         4         205         206         222         221
         4         206         207         223         222
         4         208         209         225         224
         4         209         210         226         225
         4         210         211         227         226
         4         211         212         228         227
         4         212         213         229         228
         4         213         214         230         229
         4         214         215         231         230
         4         215         216         232         231
         4         216         217         233         232
         4         217         218         234         233
         4         218         219         235         234
         4         219         220         236         235
         4         220         221         237         236
         4         221         222         238         237
         4         222         223         239         238
         4         224         225         241         240
         4         225         226         242         241
         4         226         227         243         242
         4         227         228         244         243
         4         228         229         245         244
         4         229         230         246         245
         4         230         231         247         246
         4         231         232         248         247
         4         232         233         249         248
         4         233         234         250         249
         4         234         235         251         250
         4         235         236         252         251
         4         236         237         253         252
         4         237         238         254         253
         4         238         239         255         254
         4         240         241         257         256
         4         241         242         258         257
         4         242         243         259         258
         4         243         244         260         259
         4         244         245         261         260
         4         245         246         262         261
         4         246         247         263         262
         4         247         248         264         263
         4         248         249         265         264
         4         249         250         266         265
         4         250         251         267         266
         4         251         252         268         267
         4         252         253         269         268
         4         253         254         270         269
         4         254         255         271         270
         4         256         257         273         272
         4         257         258         274         273
         4         258         259         275         274
         4         259         260         276         275
         4         260         261         277         276
         4         261         262         278         277
         4         262         263         279         278
         4         263         264         280         279
         4         264         265         281         280
         4         265         266         282         281
         4         266         267         283         282
         4         267         268         284         283
         4         268         269         285         284
         4         269         270         286         285
         4         270         271         287         286
         4         272         273         289         288
         4         273         274         290         289
         4         274         275         291         290
         4         275         276         292         291
         4         276         277         293         292
         4         277         278         294         293
         4         278         279         295         294
         4         279         280         296         295
         4         280         281         297         296
         4         281         282         298         297
         4         282         283         299         298
         4         283         284         300         299
         4         284         285         301         300
         4         285         286         302         301
         4         286         287         303         302
         4         288         289         305         304
         4         289         290         306         305
         4         290         291         307         306
         4         291         292         308         307
         4         292         293         309         308
         4         293         294         310         309
         4         294         295         311         310
         4         295         296         312         311
         4         296         297         313         312
         4         297         298         314         313
         4         298         299         315         314
         4         299         300         316         315
         4         300         301         317         316
         4         301         302         318         317
         4         302         303         319         318
         4         304         305         321         320
         4         305         306         322         321
         4         306         307         323         322
         4         307         308         324         323
         4         308         309         325         324
         4         309         310         326         325
         4         310         311         327         326
         4         311         312         328         327
         4         312         313         329         328
         4         313         314         330         329
         4         314         315         331         330
         4         315         316         332         331
         4         316         317         333         332
         4         317         318         334         333
         4         318         319         335         334
         4         320         321         337         336
         4         321         322         338         337
         4         322         323         339         338
         4         323         324         340         339
         4         324         325         341         340
         4         325         326         342         341
         4         326         327         343         342
         4         327         328         344         343
         4         328         329         345         344
         4         329         330         346         345
         4         330         331         347         346
         4         331         332         348         347
         4         332         333         349         348
         4         333         334         350         349
         4         334         335         351         350
         4         336         337         353         352
         4         337         338         354         353
         4         338         339         355         354
         4         339         340         356         355
         4         340         341         357         356
         4         341         342         358         357
         4         342         343         359         358
         4         343         344         360         359
         4         344         345         361         360
         4         345         346         362         361
         4         346         347         363         362
         4         347         348         364         363
         4         348         349         365         364
         4         349         350         366         365
         4         350         351         367         366
         4         352         353         369         368
         4         353         354         370         369
         4         354         355         371         370
         4         355         356         372         371
         4         356         357         373         372
         4         357         358         374         373
         4         358         359         375         374
         4         359         360         376         375
         4         360         361         377         376
         4         361         362         378         377
         4         362         363         379         378
         4         363         364         380         379
         4         364         365         381         380
         4         365         366         382         381
         4         366         367         383         382
         4         368         369         385         384
         4         369         370         386         385
         4         370         371         387         386
         4         371         372         388         387
         4         372         373         389         388
         4         373         374         390         389
         4         374         375         391         390
         4         375         376         392         391
         4         376         377         393         392
         4         377         378         394         393
         4         378         379         395         394
         4         379         380         396         395
         4         380         381         397         396
         4         381         382         398         397
         4         382         383         399         398
         4         384         385         401         400
         4         385         386         402         401
         4         386         387         403         402
         4         387         388         404         403
         4         388         389         405         404
         4         389         390         406         405
         4         390         391         407         406
         4         391         392         408         407
         4         392         393         409         408
         4         393         394         410         409
         4         394         395         411         410
         4         395         396         412         411
         4         396         397         413         412
         4         397         398         414         413
         4         398         399         415         414
         4         400         401         417         416
         4         401         402         418         417
         4         402         403         419         418
         4         403         404         420         419
         4         404         405         421         420
         4         405         406         422         421
         4         406         407         423         422
         4         407         408         424         423
         4         408         409         425         424
         4         409         410         426         425
         4         410         411         427         426
         4         411         412         428         427
         4         412         413         429         428
         4         413         414         430         429
         4         414         415         431         430
         4         416         417         433         432
         4         417         418         434         433
         4         418         419         435         434
         4         419         420         436         435
         4         420         421         437         436
         4         421         422         438         437
         4         422         423         439         438
         4         423         424         440         439
         4         424         425         441         440
         4         425         426         442         441
         4         426         427         443         442
         4         427         428         444         443
         4         428         429         445         444
         4         429         430         446         445
         4         430         431         447         446
         4         432         433         449         448
         4         433         434         450         449
         4         434         435         451         450
         4         435         436         452         451
         4         436         437         453         452
         4         437         438         454         453
         4         438         439         455         454
         4         439         440         456         455
         4         440         441         457         456
         4         441         442         458         457
         4         442         443         459         458
         4         443         444         460         459
         4         444         445         461         460
         4         445         446         462         461
         4         446         447         463         462
         4         448         449         465         464
         4         449         450         466         465
         4         450         451         467         466
         4         451         452         468         467
         4         452         453         469         468
         4         453         454         470         469
         4         454         455         471         470
         4         455         456         472         471
         4         456         457         473         472
         4         457         458         474         473
         4         458         459         475         474
         4         459         460         476         475
         4         460         461         477         476
         4         461         462         478         477
         4         462         463         479         478
         4         464         465         481         480
         4         465         466         482         481
         4         466         467         483         482
         4         467         468         484         483
         4         468         469         485         484
         4         469         470         486         485
         4         470         471         487         486
         4         471         472         488         487
         4         472         473         489         488
         4         473         474         490         489
         4         474         475         491         490
         4         475         476         492         491
         4         476         477         493         492
         4         477         478         494         493
         4         478         479         495         494
CELL_TYPES        450
9
9
9
9
9
9
9
9
9
9
9
9
9
9
9
9
9
9
9
9
9
9
9
9
9
9
9
9
9
9
9
9
9
9
9
9
9
9
9
9
9
9
9
9
9
9
9
9
9
9
9
9
9
9
9
9
9
9
9
9
9
9
9
9
9
9
9
9
9
9
9
9
9
9
9
9
9
9
9
9
9
9
9
9
9
9
9
9
9
9
9
9
9
9
9
9
9
9
9
9
9
9
9
9
9
9
9
9
9
9
9
9
9
9
9
9
9
9
9
9
9
9
9
9
9
9
9
9
9
9
9
9
9
9
9
9
9
9
9
9
9
9
9
9
9
9
9
9
9
9
9
9
9
9
9
9
9
9
9
9
9
9
9
9
9
9
9
9
9
9
9
9
9
9
9
9
9
9
9
9
9
9
9
9
9
9
9
9
9
9
9
9
9
9
9
9
9
9
9
9
9
9
9
9
9
9
9
9
9
9
9
9
9
9
9
9
9
9
9
9
9
9
9
9
9
9
9
9
9
9
9
9
9
9
9
9
9
9
9
9
9
9
9
9
9
9
9
9
9
9
9
9
9
9
9
9
9
9
9
9
9
9
9
9
9
9
9
9
9
9
9
9
9
9
9
9
9
9
9
9
9
9
9
9
9
9
9
9
9
9
9
9
9
9
9
9
9
9
9
9
9
9
9
9
9
9
9
9
9
9
9
9
9
9
9
9
9
9
9
9
9
9
9
9
9
9
9
9
9
9
9
9
9
9
9
9
9
9
9
9
9
9
9
9
9
9
9
9
9
9
9
9
9
9
9
9
9
9
9
9
9
9
9
9
9
9
9
9
9
9
9
9
9
9
9
9
9
9
9
9
9
9
9
9
9
9
9
9
9
9
9
9
9
9
9
9
9
9
9
9
9
9
9
9
9
9
9
9
9
9
9
9
9
9
9
9
9
9
9
9
9
9
9
9
9
9
9
9
9
9
9
9
9
9
9
9
9
9
9
9
9
9
9
9
9
9
9
9
9
9
POINT_DATA       496
SCALARS p double 
LOOKUP_TABLE default
   64078596.9326511     
   64080513.4886093     
   64085533.5464952     
   64092766.2555035     
   64101612.4971469     
   64111553.7743672     
   64122134.9631013     
   64132949.7225780     
   64143631.2428145     
   64153844.7834540     
   64163281.2113775     
   64171651.0027488     
   64178678.3293408     
   64184093.5120401     
   64187627.8139518     
   64188919.4079062     
   62063227.9341071     
   62064937.7749900     
   62069579.2962445     
   62076484.7200120     
   62085035.5912885     
   62094708.8370854     
   62105044.4346830     
   62115632.5154447     
   62126103.4966907     
   62136120.2987109     
   62145371.5778838     
   62153565.4447532     
   62160423.0088693     
   62165671.5929973     
   62169028.0633726     
   62170224.4491281     
   60069740.7688333     
   60071361.3557726     
   60075766.9296276     
   60082365.7732152     
   60090596.1164300     
   60099948.8170261     
   60109971.0095648     
   60120256.8642315     
   60130439.6630564     
   60140184.6535071     
   60149182.6180857     
   60157143.8876547     
   60163792.7216857     
   60168861.4080322     
   60172092.3065049     
   60173244.5469005     
   58098123.9602230     
   58099673.7271223     
   58103884.0647864     
   58110196.0997857     
   58118087.0990266     
   58127075.8281172     
   58136725.6345986     
   58146641.8810676     
   58156466.3681453     
   58165871.5014029     
   58174554.6658897     
   58182233.0339165     
   58188638.9719172     
   58193517.5253691     
   58196626.0661487     
   58197734.8531034     
   56148170.9663130     
   56149650.3647865     
   56153666.6291475     
   56159685.8873541     
   56167214.5743088     
   56175798.3888342     
   56185022.0390088     
   56194507.3352655     
   56203909.4692461     
   56212912.4077238     
   56221224.2042772     
   56228572.6284939     
   56234701.5838866     
   56239368.5624985     
   56242342.9990544     
   56243404.4035635     
   54219543.5921112     
   54220947.6536982     
   54224757.1419754     
   54230463.2730364     
   54237599.0811303     
   54245736.1483891     
   54254482.3677368     
   54263479.4705808     
   54272399.8128179     
   54280942.5891569     
   54288829.8845964     
   54295802.9512147     
   54301618.9629792     
   54306048.3287492     
   54308872.2973920     
   54309880.3056053     
   52311794.8934945     
   52313116.9455185     
   52316701.9119708     
   52322068.2309530     
   52328775.9960560     
   52336423.0542433     
   52344641.8301658     
   52353096.3223442     
   52361478.9133497     
   52369506.9503515     
   52376919.2581774     
   52383472.7924820     
   52388939.5776713     
   52393103.9313689     
   52395759.8168709     
   52396708.0593469     
   50424382.7011730     
   50425615.6832613     
   50428956.8957525     
   50433954.4924617     
   50440197.2587557     
   50447310.6131056     
   50454953.0436361     
   50462812.7790749     
   50470604.5113914     
   50478066.1061834     
   50484955.3474413     
   50491046.8080351     
   50496128.9104494     
   50500001.1718588     
   50502471.5515259     
   50503353.7861974     
   48556679.5627696     
   48557816.5180367     
   48560894.7447642     
   48565494.5134853     
   48571235.3155519     
   48577771.9001120     
   48584790.5549208     
   48592005.5979892     
   48599156.0126450     
   48606002.1880293     
   48612322.7723611     
   48617911.6707231     
   48622575.2114633     
   48626129.4754488     
   48628397.7532213     
   48629208.0896171     
   46707980.7873834     
   46709015.0378290     
   46711811.6581403     
   46715985.2599115     
   46721188.1321636     
   46727106.2885709     
   46733455.6605123     
   46739978.4778252     
   46746439.8337486     
   46752624.4223566     
   46758333.4464046     
   46763381.7020027     
   46767594.8449460     
   46770806.8346186     
   46772857.5449886     
   46773590.5386685     
   44877511.3074853     
   44878436.4956191     
   44880933.7194711     
   44884654.0130026     
   44889284.5314450     
   44894544.5260141     
   44900181.4390959     
   44905967.1916001     
   44911694.6891062     
   44917174.5503507     
   44922232.0538441     
   44926704.2972710     
   44930437.5644336     
   44933284.8955491     
   44935103.8620007     
   44935754.5596420     
   43064431.6766526     
   43065241.7532752     
   43067422.6725749     
   43070663.8983633     
   43074689.4830516     
   43079253.8700450     
   43084137.8482384     
   43089144.7377220     
   43094096.8423581     
   43098832.1758086     
   43103201.4517290     
   43107065.3228707     
   43110291.8548295     
   43112754.2269090     
   43114328.6651105     
   43114892.6306113     
   41267843.3689225     
   41268532.5661527     
   41270381.1533241     
   41273119.0340333     
   41276509.1710015     
   41280343.1163078     
   41284436.7733013     
   41288626.4646926     
   41292765.3375212     
   41296720.1031656     
   41300368.0906671     
   41303594.5837303     
   41306290.4143717     
   41308349.7977658     
   41309668.4118835     
   41310141.7500875     
   39486793.4713298     
   39487356.2832751     
   39488857.4051708     
   39491069.2660196     
   39493795.7643402     
   39496867.4337679     
   39500136.9644479     
   39503475.1424542     
   39506767.2221914     
   39509909.7104352     
   39512807.5180730     
   39515371.4274291     
   39517515.8285492     
   39519156.6952028     
   39520209.7981368     
   39520589.1860461     
   37720278.8214842     
   37720710.0077996     
   37721849.5021778     
   37723514.4870145     
   37725551.8636487     
   37727832.9718420     
   37730248.8348721     
   37732705.9738881     
   37735122.7806510     
   37737426.3959636     
   37739550.0157738     
   37741430.5395421     
   37743006.4854160     
   37744216.1218887     
   37744995.8025746     
   37745278.5351416     
   35967249.6171898     
   35967544.2420160     
   35968309.0954268     
   35969408.5425410     
   35970734.6180688     
   35972201.2314440     
   35973739.1184555     
   35975291.5577429     
   35976810.8041171     
   35978255.1407430     
   35979586.4236015     
   35980767.9860031     
   35981762.7872831     
   35982531.7253517     
   35983032.0832309     
   35983216.1395940     
   34226612.5068093     
   34226766.0250347     
   34227144.6892206     
   34227662.7288307     
   34228259.5167368     
   34228893.2071015     
   34229535.4016417     
   34230166.8288150     
   34230773.9362504     
   34231346.2355929     
   34231874.2066011     
   34232347.5648611     
   34232753.7227687     
   34233076.3225965     
   34233293.7884204     
   34233377.9239263     
   32497233.1529806     
   32497241.5565419     
   32497224.4429593     
   32497148.8827862     
   32497003.8617217     
   32496793.3162534     
   32496530.5563878     
   32496234.0137294     
   32495924.1433011     
   32495621.2320911     
   32495343.8320195     
   32495107.5384505     
   32494923.8728776     
   32494799.0947192     
   32494732.8568772     
   32494716.7259982     
   30777938.2455024     
   30777798.2843154     
   30777378.4826556     
   30776702.0586054     
   30775809.9308536     
   30774753.1392447     
   30773587.1122648     
   30772367.6530157     
   30771148.3697380     
   30769979.1858934     
   30768905.5305845     
   30767967.8248020     
   30767200.9328780     
   30766633.3349218     
   30766285.8909890     
   30766170.2061414     
   29067516.9189955     
   29067226.4143912     
   29066400.6921544     
   29065122.7796776     
   29063487.8417741     
   29061595.0038441     
   29059541.6200564     
   29057419.7546601     
   29055314.4521439     
   29053303.2694835     
   29051456.5220743     
   29049837.7311932     
   29048503.8357986     
   29047504.8380422     
   29046882.6923210     
   29046669.4236142     
   27364721.5037007     
   27364279.7779571     
   27363049.9374976     
   27361178.8504299     
   27358818.1379953     
   27356115.4673158     
   27353209.0818481     
   27350225.1640385     
   27347277.3768782     
   27344467.8362623     
   27341888.7841765     
   27339624.3091813     
   27337751.5601737     
   27336341.0182345     
   27335455.5485733     
   27335148.1699410     
   25668267.4976351     
   25667675.9535893     
   25666050.6576923     
   25663606.7151526     
   25660554.1420915     
   25657088.7869922     
   25653387.5617484     
   25649607.2644068     
   25645885.9802770     
   25642346.0152087     
   25639097.4300323     
   25636241.3930824     
   25633872.6895321     
   25632080.8311523     
   25630949.3546831     
   25630553.1433822     
   23976832.5847690     
   23976095.4893391     
   23974092.7308736     
   23971112.3684357     
   23967424.1761539     
   23963270.5438923     
   23958863.1598642     
   23954384.1666701     
   23949990.2022620     
   23945817.8974995     
   23941989.7228985     
   23938619.3421589     
   23935815.7567257     
   23933685.5549037     
   23932332.6382286     
   23931855.0390402     
   22289054.4167147     
   22288179.9816679     
   22285830.4976362     
   22282371.8743745     
   22278133.8658133     
   22273401.7224400     
   22268415.6491740     
   22263375.6134289     
   22258449.0101868     
   22253779.3297764     
   22249494.6773978     
   22245715.4223746     
   22242560.3400830     
   22240150.4465992     
   22238609.5441602     
   22238060.6205500     
   20603526.6837590     
   20602528.6189596     
   20599880.8008610     
   20596031.6842749     
   20591368.9810148     
   20586213.8005722     
   20580825.2648777     
   20575410.9139193     
   20570139.0988452     
   20565151.2316047     
   20560573.0454952     
   20556524.6038353     
   20553128.7570412     
   20550517.2332845     
   20548832.8266750     
   20548225.8478723     
   18918792.6349444     
   18917692.5297992     
   18914819.9164967     
   18910709.2639281     
   18905799.7404609     
   18900435.8370376     
   18894881.4160649     
   18889338.3336952     
   18883964.4268071     
   18878889.1809767     
   18874227.2183174     
   18870090.2557604     
   18866597.9744886     
   18863887.3032395     
   18862117.9238430     
   18861470.1974579     
   17233334.4545239     
   17232165.7753358     
   17229179.4276387     
   17224995.3312201     
   17220088.4298895     
   17214805.2204386     
   17209394.4266689     
   17204036.4399967     
   17198866.5480500     
   17193992.7527365     
   17189510.1491843     
   17185513.6898773     
   17182110.8952167     
   17179435.2948724     
   17177658.3005335     
   17176992.5386904     
   15545555.1888790     
   15544370.8320024     
   15541441.9753193     
   15537460.9578900     
   15532903.8916176     
   15528084.5713068     
   15523211.6264550     
   15518427.8459122     
   15513835.5268010     
   15509513.8166643     
   15505531.8666684     
   15501960.5559974     
   15498885.1938249     
   15496422.2667135     
   15494742.6673417     
   15494089.4451236     
   13853745.1125496     
   13852634.9950873     
   13850041.1831851     
   13846677.9432917     
   13842948.7401924     
   13839087.6132230     
   13835238.8141195     
   13831495.4350578     
   13827921.0032958     
   13824562.8693967     
   13821461.8679369     
   13818660.9135239     
   13816215.0551771     
   13814206.4776736     
   13812774.8063402     
   13812179.7447411     
   12156012.9572234     
   12155148.4829998     
   12153390.0994404     
   12151269.0400717     
   12149005.2597761     
   12146715.4283315     
   12144466.7650944     
   12142300.3610540     
   12140242.7594347     
   12138312.7671829     
   12136526.1952933     
   12134900.0523636     
   12133457.5544168     
   12132236.6254724     
   12131306.6856468     
   12130836.1395436     
   10450000.0000000     
   10450000.0000000     
   10450000.0000000     
   10450000.0000000     
   10450000.0000000     
   10450000.0000000     
   10450000.0000000     
   10450000.0000000     
   10450000.0000000     
   10450000.0000000     
   10450000.0000000     
   10450000.0000000     
   10450000.0000000     
   10450000.0000000     
   10450000.0000000     
   10450000.0000000     
VECTORS u double 
    0.00000E+00        -0.46044E-02         0.00000E+00
    0.00000E+00        -0.42457E-02         0.00000E+00
    0.00000E+00        -0.39025E-02         0.00000E+00
    0.00000E+00        -0.35528E-02         0.00000E+00
    0.00000E+00        -0.31920E-02         0.00000E+00
    0.00000E+00        -0.28194E-02         0.00000E+00
    0.00000E+00        -0.24374E-02         0.00000E+00
    0.00000E+00        -0.20501E-02         0.00000E+00
    0.00000E+00        -0.16635E-02         0.00000E+00
    0.00000E+00        -0.12852E-02         0.00000E+00
    0.00000E+00        -0.92457E-03         0.00000E+00
    0.00000E+00        -0.59349E-03         0.00000E+00
    0.00000E+00        -0.30708E-03         0.00000E+00
    0.00000E+00        -0.85906E-04         0.00000E+00
    0.00000E+00         0.39424E-04         0.00000E+00
    0.00000E+00         0.00000E+00         0.00000E+00
    0.26660E-02        -0.49142E-02         0.00000E+00
    0.22672E-02        -0.44744E-02         0.00000E+00
    0.20157E-02        -0.40858E-02         0.00000E+00
    0.18261E-02        -0.37069E-02         0.00000E+00
    0.16726E-02        -0.33244E-02         0.00000E+00
    0.15417E-02        -0.29345E-02         0.00000E+00
    0.14250E-02        -0.25381E-02         0.00000E+00
    0.13166E-02        -0.21384E-02         0.00000E+00
    0.12115E-02        -0.17408E-02         0.00000E+00
    0.11055E-02        -0.13526E-02         0.00000E+00
    0.99410E-03        -0.98301E-03         0.00000E+00
    0.87197E-03        -0.64359E-03         0.00000E+00
    0.73205E-03        -0.34935E-03         0.00000E+00
    0.56300E-03        -0.12055E-03         0.00000E+00
    0.34319E-03         0.12344E-04         0.00000E+00
    0.00000E+00         0.00000E+00         0.00000E+00
    0.51113E-02        -0.56348E-02         0.00000E+00
    0.43934E-02        -0.50927E-02         0.00000E+00
    0.38931E-02        -0.46078E-02         0.00000E+00
    0.35134E-02        -0.41541E-02         0.00000E+00
    0.32054E-02        -0.37121E-02         0.00000E+00
    0.29427E-02        -0.32734E-02         0.00000E+00
    0.27089E-02        -0.28354E-02         0.00000E+00
    0.24918E-02        -0.23995E-02         0.00000E+00
    0.22818E-02        -0.19697E-02         0.00000E+00
    0.20704E-02        -0.15522E-02         0.00000E+00
    0.18485E-02        -0.11556E-02         0.00000E+00
    0.16062E-02        -0.79068E-03         0.00000E+00
    0.13299E-02        -0.47176E-03         0.00000E+00
    0.99950E-03        -0.21750E-03         0.00000E+00
    0.57816E-03        -0.52768E-04         0.00000E+00
    0.00000E+00         0.00000E+00         0.00000E+00
    0.73259E-02        -0.66421E-02         0.00000E+00
    0.63590E-02        -0.59991E-02         0.00000E+00
    0.56359E-02        -0.54084E-02         0.00000E+00
    0.50718E-02        -0.48572E-02         0.00000E+00
    0.46104E-02        -0.43306E-02         0.00000E+00
    0.42161E-02        -0.38186E-02         0.00000E+00
    0.38649E-02        -0.33164E-02         0.00000E+00
    0.35393E-02        -0.28232E-02         0.00000E+00
    0.32251E-02        -0.23415E-02         0.00000E+00
    0.29094E-02        -0.18762E-02         0.00000E+00
    0.25796E-02        -0.14346E-02         0.00000E+00
    0.22211E-02        -0.10263E-02         0.00000E+00
    0.18158E-02        -0.66387E-03         0.00000E+00
    0.13383E-02        -0.36227E-03         0.00000E+00
    0.75072E-03        -0.13732E-03         0.00000E+00
    0.00000E+00         0.00000E+00         0.00000E+00
    0.93168E-02        -0.78694E-02         0.00000E+00
    0.81510E-02        -0.71262E-02         0.00000E+00
    0.72370E-02        -0.64290E-02         0.00000E+00
    0.65031E-02        -0.57727E-02         0.00000E+00
    0.58943E-02        -0.51478E-02         0.00000E+00
    0.53708E-02        -0.45461E-02         0.00000E+00
    0.49038E-02        -0.39623E-02         0.00000E+00
    0.44710E-02        -0.33944E-02         0.00000E+00
    0.40542E-02        -0.28436E-02         0.00000E+00
    0.36369E-02        -0.23132E-02         0.00000E+00
    0.32029E-02        -0.18093E-02         0.00000E+00
    0.27344E-02        -0.13397E-02         0.00000E+00
    0.22106E-02        -0.91414E-03         0.00000E+00
    0.16046E-02        -0.54347E-03         0.00000E+00
    0.88188E-03        -0.23719E-03         0.00000E+00
    0.00000E+00         0.00000E+00         0.00000E+00
    0.11092E-01        -0.92704E-02         0.00000E+00
    0.97658E-02        -0.84275E-02         0.00000E+00
    0.86903E-02        -0.76245E-02         0.00000E+00
    0.78050E-02        -0.68605E-02         0.00000E+00
    0.70592E-02        -0.61307E-02         0.00000E+00
    0.64126E-02        -0.54291E-02         0.00000E+00
    0.58336E-02        -0.47513E-02         0.00000E+00
    0.52967E-02        -0.40950E-02         0.00000E+00
    0.47805E-02        -0.34604E-02         0.00000E+00
    0.42655E-02        -0.28497E-02         0.00000E+00
    0.37328E-02        -0.22674E-02         0.00000E+00
    0.31625E-02        -0.17194E-02         0.00000E+00
    0.25323E-02        -0.12127E-02         0.00000E+00
    0.18162E-02        -0.75435E-03         0.00000E+00
    0.98347E-03        -0.34973E-03         0.00000E+00
    0.00000E+00         0.00000E+00         0.00000E+00
    0.12661E-01        -0.10810E-01         0.00000E+00
    0.11204E-01        -0.98676E-02         0.00000E+00
    0.99929E-02        -0.89594E-02         0.00000E+00
    0.89756E-02        -0.80873E-02         0.00000E+00
    0.81059E-02        -0.72491E-02         0.00000E+00
    0.73449E-02        -0.64415E-02         0.00000E+00
    0.66601E-02        -0.56611E-02         0.00000E+00
    0.60243E-02        -0.49059E-02         0.00000E+00
    0.54137E-02        -0.41756E-02         0.00000E+00
    0.48065E-02        -0.34715E-02         0.00000E+00
    0.41821E-02        -0.27966E-02         0.00000E+00
    0.35191E-02        -0.21550E-02         0.00000E+00
    0.27951E-02        -0.15514E-02         0.00000E+00
    0.19854E-02        -0.98987E-03         0.00000E+00
    0.10630E-02        -0.47302E-03         0.00000E+00
    0.00000E+00         0.00000E+00         0.00000E+00
    0.14030E-01        -0.12460E-01         0.00000E+00
    0.12468E-01        -0.11418E-01         0.00000E+00
    0.11144E-01        -0.10406E-01         0.00000E+00
    0.10014E-01        -0.94252E-02         0.00000E+00
    0.90343E-02        -0.84771E-02         0.00000E+00
    0.81697E-02        -0.75596E-02         0.00000E+00
    0.73877E-02        -0.66706E-02         0.00000E+00
    0.66599E-02        -0.58087E-02         0.00000E+00
    0.59615E-02        -0.49731E-02         0.00000E+00
    0.52692E-02        -0.41647E-02         0.00000E+00
    0.45611E-02        -0.33852E-02         0.00000E+00
    0.38154E-02        -0.26372E-02         0.00000E+00
    0.30097E-02        -0.19234E-02         0.00000E+00
    0.21210E-02        -0.12459E-02         0.00000E+00
    0.11256E-02        -0.60541E-03         0.00000E+00
    0.00000E+00         0.00000E+00         0.00000E+00
    0.15209E-01        -0.14198E-01         0.00000E+00
    0.13563E-01        -0.13057E-01         0.00000E+00
    0.12146E-01        -0.11940E-01         0.00000E+00
    0.10919E-01        -0.10851E-01         0.00000E+00
    0.98451E-02        -0.97923E-02         0.00000E+00
    0.88888E-02        -0.87626E-02         0.00000E+00
    0.80193E-02        -0.77609E-02         0.00000E+00
    0.72084E-02        -0.67862E-02         0.00000E+00
    0.64303E-02        -0.58380E-02         0.00000E+00
    0.56611E-02        -0.49164E-02         0.00000E+00
    0.48784E-02        -0.40224E-02         0.00000E+00
    0.40600E-02        -0.31574E-02         0.00000E+00
    0.31843E-02        -0.23226E-02         0.00000E+00
    0.22296E-02        -0.15188E-02         0.00000E+00
    0.11749E-02        -0.74543E-03         0.00000E+00
    0.00000E+00         0.00000E+00         0.00000E+00
    0.16205E-01        -0.16004E-01         0.00000E+00
    0.14492E-01        -0.14763E-01         0.00000E+00
    0.13000E-01        -0.13543E-01         0.00000E+00
    0.11694E-01        -0.12346E-01         0.00000E+00
    0.10539E-01        -0.11176E-01         0.00000E+00
    0.95037E-02        -0.10032E-01         0.00000E+00
    0.85578E-02        -0.89150E-02         0.00000E+00
    0.76735E-02        -0.78232E-02         0.00000E+00
    0.68250E-02        -0.67565E-02         0.00000E+00
    0.59882E-02        -0.57149E-02         0.00000E+00
    0.51404E-02        -0.46986E-02         0.00000E+00
    0.42596E-02        -0.37081E-02         0.00000E+00
    0.33248E-02        -0.27437E-02         0.00000E+00
    0.23158E-02        -0.18054E-02         0.00000E+00
    0.12133E-02        -0.89169E-03         0.00000E+00
    0.00000E+00         0.00000E+00         0.00000E+00
    0.17024E-01        -0.17862E-01         0.00000E+00
    0.15261E-01        -0.16522E-01         0.00000E+00
    0.13709E-01        -0.15198E-01         0.00000E+00
    0.12338E-01        -0.13894E-01         0.00000E+00
    0.11117E-01        -0.12612E-01         0.00000E+00
    0.10016E-01        -0.11353E-01         0.00000E+00
    0.90052E-02        -0.10118E-01         0.00000E+00
    0.80583E-02        -0.89063E-02         0.00000E+00
    0.71496E-02        -0.77169E-02         0.00000E+00
    0.62552E-02        -0.65499E-02         0.00000E+00
    0.53522E-02        -0.54051E-02         0.00000E+00
    0.44192E-02        -0.42827E-02         0.00000E+00
    0.34358E-02        -0.31821E-02         0.00000E+00
    0.23828E-02        -0.21027E-02         0.00000E+00
    0.12427E-02        -0.10429E-02         0.00000E+00
    0.00000E+00         0.00000E+00         0.00000E+00
    0.17673E-01        -0.19758E-01         0.00000E+00
    0.15873E-01        -0.18319E-01         0.00000E+00
    0.14276E-01        -0.16891E-01         0.00000E+00
    0.12855E-01        -0.15480E-01         0.00000E+00
    0.11582E-01        -0.14086E-01         0.00000E+00
    0.10427E-01        -0.12712E-01         0.00000E+00
    0.93634E-02        -0.11358E-01         0.00000E+00
    0.83652E-02        -0.10024E-01         0.00000E+00
    0.74071E-02        -0.87085E-02         0.00000E+00
    0.64654E-02        -0.74122E-02         0.00000E+00
    0.55175E-02        -0.61346E-02         0.00000E+00
    0.45424E-02        -0.48753E-02         0.00000E+00
    0.35204E-02        -0.36335E-02         0.00000E+00
    0.24332E-02        -0.24083E-02         0.00000E+00
    0.12644E-02        -0.11980E-02         0.00000E+00
    0.00000E+00         0.00000E+00         0.00000E+00
    0.18158E-01        -0.21681E-01         0.00000E+00
    0.16333E-01        -0.20142E-01         0.00000E+00
    0.14704E-01        -0.18611E-01         0.00000E+00
    0.13246E-01        -0.17093E-01         0.00000E+00
    0.11933E-01        -0.15588E-01         0.00000E+00
    0.10738E-01        -0.14098E-01         0.00000E+00
    0.96342E-02        -0.12624E-01         0.00000E+00
    0.85963E-02        -0.11166E-01         0.00000E+00
    0.75999E-02        -0.97224E-02         0.00000E+00
    0.66215E-02        -0.82942E-02         0.00000E+00
    0.56391E-02        -0.68805E-02         0.00000E+00
    0.46320E-02        -0.54808E-02         0.00000E+00
    0.35810E-02        -0.40943E-02         0.00000E+00
    0.24686E-02        -0.27198E-02         0.00000E+00
    0.12793E-02        -0.13558E-02         0.00000E+00
    0.00000E+00         0.00000E+00         0.00000E+00
    0.18484E-01        -0.23618E-01         0.00000E+00
    0.16645E-01        -0.21980E-01         0.00000E+00
    0.14996E-01        -0.20347E-01         0.00000E+00
    0.13514E-01        -0.18722E-01         0.00000E+00
    0.12174E-01        -0.17106E-01         0.00000E+00
    0.10951E-01        -0.15501E-01         0.00000E+00
    0.98188E-02        -0.13906E-01         0.00000E+00
    0.87531E-02        -0.12323E-01         0.00000E+00
    0.77297E-02        -0.10751E-01         0.00000E+00
    0.67256E-02        -0.91887E-02         0.00000E+00
    0.57191E-02        -0.76369E-02         0.00000E+00
    0.46899E-02        -0.60946E-02         0.00000E+00
    0.36192E-02        -0.45611E-02         0.00000E+00
    0.24902E-02        -0.30351E-02         0.00000E+00
    0.12879E-02        -0.15154E-02         0.00000E+00
    0.00000E+00         0.00000E+00         0.00000E+00
    0.18655E-01        -0.25563E-01         0.00000E+00
    0.16811E-01        -0.23825E-01         0.00000E+00
    0.15154E-01        -0.22090E-01         0.00000E+00
    0.13659E-01        -0.20359E-01         0.00000E+00
    0.12305E-01        -0.18632E-01         0.00000E+00
    0.11067E-01        -0.16911E-01         0.00000E+00
    0.99186E-02        -0.15197E-01         0.00000E+00
    0.88370E-02        -0.13488E-01         0.00000E+00
    0.77980E-02        -0.11786E-01         0.00000E+00
    0.67791E-02        -0.10090E-01         0.00000E+00
    0.57589E-02        -0.83987E-02         0.00000E+00
    0.47173E-02        -0.67127E-02         0.00000E+00
    0.36361E-02        -0.50309E-02         0.00000E+00
    0.24987E-02        -0.33523E-02         0.00000E+00
    0.12907E-02        -0.16758E-02         0.00000E+00
    0.00000E+00         0.00000E+00         0.00000E+00
    0.18674E-01        -0.27504E-01         0.00000E+00
    0.16835E-01        -0.25669E-01         0.00000E+00
    0.15179E-01        -0.23832E-01         0.00000E+00
    0.13684E-01        -0.21995E-01         0.00000E+00
    0.12328E-01        -0.20158E-01         0.00000E+00
    0.11086E-01        -0.18322E-01         0.00000E+00
    0.99346E-02        -0.16488E-01         0.00000E+00
    0.88487E-02        -0.14654E-01         0.00000E+00
    0.78056E-02        -0.12822E-01         0.00000E+00
    0.67829E-02        -0.10991E-01         0.00000E+00
    0.57593E-02        -0.91613E-02         0.00000E+00
    0.47152E-02        -0.73313E-02         0.00000E+00
    0.36324E-02        -0.55010E-02         0.00000E+00
    0.24947E-02        -0.36696E-02         0.00000E+00
    0.12878E-02        -0.18362E-02         0.00000E+00
    0.00000E+00         0.00000E+00         0.00000E+00
    0.18543E-01        -0.29436E-01         0.00000E+00
    0.16718E-01        -0.27502E-01         0.00000E+00
    0.15074E-01        -0.25564E-01         0.00000E+00
    0.13590E-01        -0.23622E-01         0.00000E+00
    0.12244E-01        -0.21676E-01         0.00000E+00
    0.11011E-01        -0.19726E-01         0.00000E+00
    0.98675E-02        -0.17772E-01         0.00000E+00
    0.87892E-02        -0.15814E-01         0.00000E+00
    0.77533E-02        -0.13854E-01         0.00000E+00
    0.67375E-02        -0.11889E-01         0.00000E+00
    0.57209E-02        -0.99201E-02         0.00000E+00
    0.46839E-02        -0.79469E-02         0.00000E+00
    0.36084E-02        -0.59688E-02         0.00000E+00
    0.24783E-02        -0.39853E-02         0.00000E+00
    0.12794E-02        -0.19959E-02         0.00000E+00
    0.00000E+00         0.00000E+00         0.00000E+00
    0.18263E-01        -0.31349E-01         0.00000E+00
    0.16460E-01        -0.29318E-01         0.00000E+00
    0.14839E-01        -0.27280E-01         0.00000E+00
    0.13378E-01        -0.25233E-01         0.00000E+00
    0.12053E-01        -0.23178E-01         0.00000E+00
    0.10841E-01        -0.21115E-01         0.00000E+00
    0.97178E-02        -0.19043E-01         0.00000E+00
    0.86588E-02        -0.16962E-01         0.00000E+00
    0.76414E-02        -0.14874E-01         0.00000E+00
    0.66434E-02        -0.12777E-01         0.00000E+00
    0.56440E-02        -0.10671E-01         0.00000E+00
    0.46236E-02        -0.85559E-02         0.00000E+00
    0.35642E-02        -0.64317E-02         0.00000E+00
    0.24496E-02        -0.42978E-02         0.00000E+00
    0.12655E-02        -0.21539E-02         0.00000E+00
    0.00000E+00         0.00000E+00         0.00000E+00
    0.17834E-01        -0.33235E-01         0.00000E+00
    0.16063E-01        -0.31108E-01         0.00000E+00
    0.14475E-01        -0.28971E-01         0.00000E+00
    0.13048E-01        -0.26821E-01         0.00000E+00
    0.11757E-01        -0.24658E-01         0.00000E+00
    0.10578E-01        -0.22482E-01         0.00000E+00
    0.94860E-02        -0.20293E-01         0.00000E+00
    0.84578E-02        -0.18092E-01         0.00000E+00
    0.74699E-02        -0.15877E-01         0.00000E+00
    0.65003E-02        -0.13650E-01         0.00000E+00
    0.55282E-02        -0.11409E-01         0.00000E+00
    0.45340E-02        -0.91550E-02         0.00000E+00
    0.34996E-02        -0.68872E-02         0.00000E+00
    0.24084E-02        -0.46054E-02         0.00000E+00
    0.12460E-02        -0.23095E-02         0.00000E+00
    0.00000E+00         0.00000E+00         0.00000E+00
    0.17256E-01        -0.35087E-01         0.00000E+00
    0.15525E-01        -0.32865E-01         0.00000E+00
    0.13982E-01        -0.30629E-01         0.00000E+00
    0.12600E-01        -0.28376E-01         0.00000E+00
    0.11354E-01        -0.26107E-01         0.00000E+00
    0.10220E-01        -0.23820E-01         0.00000E+00
    0.91722E-02        -0.21516E-01         0.00000E+00
    0.81860E-02        -0.19195E-01         0.00000E+00
    0.72385E-02        -0.16857E-01         0.00000E+00
    0.63077E-02        -0.14502E-01         0.00000E+00
    0.53729E-02        -0.12130E-01         0.00000E+00
    0.44144E-02        -0.97403E-02         0.00000E+00
    0.34137E-02        -0.73325E-02         0.00000E+00
    0.23542E-02        -0.49063E-02         0.00000E+00
    0.12206E-02        -0.24619E-02         0.00000E+00
    0.00000E+00         0.00000E+00         0.00000E+00
    0.16525E-01        -0.36895E-01         0.00000E+00
    0.14847E-01        -0.34579E-01         0.00000E+00
    0.13359E-01        -0.32245E-01         0.00000E+00
    0.12034E-01        -0.29891E-01         0.00000E+00
    0.10847E-01        -0.27516E-01         0.00000E+00
    0.97693E-02        -0.25119E-01         0.00000E+00
    0.87762E-02        -0.22702E-01         0.00000E+00
    0.78430E-02        -0.20265E-01         0.00000E+00
    0.69465E-02        -0.17807E-01         0.00000E+00
    0.60647E-02        -0.15328E-01         0.00000E+00
    0.51769E-02        -0.12829E-01         0.00000E+00
    0.42635E-02        -0.10308E-01         0.00000E+00
    0.33057E-02        -0.77647E-02         0.00000E+00
    0.22862E-02        -0.51988E-02         0.00000E+00
    0.11889E-02        -0.26102E-02         0.00000E+00
    0.00000E+00         0.00000E+00         0.00000E+00
    0.15641E-01        -0.38649E-01         0.00000E+00
    0.14025E-01        -0.36239E-01         0.00000E+00
    0.12605E-01        -0.33809E-01         0.00000E+00
    0.11351E-01        -0.31354E-01         0.00000E+00
    0.10234E-01        -0.28875E-01         0.00000E+00
    0.92248E-02        -0.26371E-01         0.00000E+00
    0.82978E-02        -0.23843E-01         0.00000E+00
    0.74281E-02        -0.21293E-01         0.00000E+00
    0.65926E-02        -0.18719E-01         0.00000E+00
    0.57696E-02        -0.16121E-01         0.00000E+00
    0.49385E-02        -0.13500E-01         0.00000E+00
    0.40795E-02        -0.10853E-01         0.00000E+00
    0.31737E-02        -0.81807E-02         0.00000E+00
    0.22030E-02        -0.54807E-02         0.00000E+00
    0.11502E-02        -0.27535E-02         0.00000E+00
    0.00000E+00         0.00000E+00         0.00000E+00
    0.14599E-01        -0.40338E-01         0.00000E+00
    0.13059E-01        -0.37836E-01         0.00000E+00
    0.11721E-01        -0.35309E-01         0.00000E+00
    0.10550E-01        -0.32755E-01         0.00000E+00
    0.95155E-02        -0.30173E-01         0.00000E+00
    0.85865E-02        -0.27564E-01         0.00000E+00
    0.77364E-02        -0.24929E-01         0.00000E+00
    0.69402E-02        -0.22269E-01         0.00000E+00
    0.61752E-02        -0.19584E-01         0.00000E+00
    0.54201E-02        -0.16873E-01         0.00000E+00
    0.46548E-02        -0.14137E-01         0.00000E+00
    0.38597E-02        -0.11372E-01         0.00000E+00
    0.30154E-02        -0.85768E-02         0.00000E+00
    0.21029E-02        -0.57500E-02         0.00000E+00
    0.11036E-02        -0.28908E-02         0.00000E+00
    0.00000E+00         0.00000E+00         0.00000E+00
    0.13395E-01        -0.41947E-01         0.00000E+00
    0.11947E-01        -0.39354E-01         0.00000E+00
    0.10705E-01        -0.36733E-01         0.00000E+00
    0.96317E-02        -0.34080E-01         0.00000E+00
    0.86921E-02        -0.31397E-01         0.00000E+00
    0.78544E-02        -0.28685E-01         0.00000E+00
    0.70911E-02        -0.25946E-01         0.00000E+00
    0.63774E-02        -0.23181E-01         0.00000E+00
    0.56915E-02        -0.20392E-01         0.00000E+00
    0.50130E-02        -0.17576E-01         0.00000E+00
    0.43223E-02        -0.14732E-01         0.00000E+00
    0.36002E-02        -0.11858E-01         0.00000E+00
    0.28273E-02        -0.89493E-02         0.00000E+00
    0.19832E-02        -0.60042E-02         0.00000E+00
    0.10475E-02        -0.30210E-02         0.00000E+00
    0.00000E+00         0.00000E+00         0.00000E+00
    0.12024E-01        -0.43461E-01         0.00000E+00
    0.10684E-01        -0.40779E-01         0.00000E+00
    0.95562E-02        -0.38063E-01         0.00000E+00
    0.85956E-02        -0.35313E-01         0.00000E+00
    0.77640E-02        -0.32530E-01         0.00000E+00
    0.70283E-02        -0.29719E-01         0.00000E+00
    0.63607E-02        -0.26881E-01         0.00000E+00
    0.57375E-02        -0.24019E-01         0.00000E+00
    0.51382E-02        -0.21132E-01         0.00000E+00
    0.45438E-02        -0.18220E-01         0.00000E+00
    0.39358E-02        -0.15278E-01         0.00000E+00
    0.32960E-02        -0.12305E-01         0.00000E+00
    0.26045E-02        -0.92935E-02         0.00000E+00
    0.18402E-02        -0.62406E-02         0.00000E+00
    0.97997E-03        -0.31429E-02         0.00000E+00
    0.00000E+00         0.00000E+00         0.00000E+00
    0.10481E-01        -0.44862E-01         0.00000E+00
    0.92712E-02        -0.42091E-01         0.00000E+00
    0.82754E-02        -0.39281E-01         0.00000E+00
    0.74432E-02        -0.36435E-01         0.00000E+00
    0.67319E-02        -0.33555E-01         0.00000E+00
    0.61076E-02        -0.30649E-01         0.00000E+00
    0.55433E-02        -0.27718E-01         0.00000E+00
    0.50172E-02        -0.24766E-01         0.00000E+00
    0.45107E-02        -0.21792E-01         0.00000E+00
    0.40067E-02        -0.18793E-01         0.00000E+00
    0.34889E-02        -0.15766E-01         0.00000E+00
    0.29399E-02        -0.12706E-01         0.00000E+00
    0.23406E-02        -0.96045E-02         0.00000E+00
    0.16686E-02        -0.64563E-02         0.00000E+00
    0.89807E-03        -0.32555E-02         0.00000E+00
    0.00000E+00         0.00000E+00         0.00000E+00
    0.87609E-02        -0.46125E-01         0.00000E+00
    0.77055E-02        -0.43266E-01         0.00000E+00
    0.68640E-02        -0.40364E-01         0.00000E+00
    0.61764E-02        -0.37422E-01         0.00000E+00
    0.55968E-02        -0.34450E-01         0.00000E+00
    0.50917E-02        -0.31455E-01         0.00000E+00
    0.46364E-02        -0.28440E-01         0.00000E+00
    0.42121E-02        -0.25408E-01         0.00000E+00
    0.38029E-02        -0.22357E-01         0.00000E+00
    0.33947E-02        -0.19285E-01         0.00000E+00
    0.29732E-02        -0.16186E-01         0.00000E+00
    0.25233E-02        -0.13053E-01         0.00000E+00
    0.20269E-02        -0.98767E-02         0.00000E+00
    0.14614E-02        -0.66477E-02         0.00000E+00
    0.79763E-03        -0.33571E-02         0.00000E+00
    0.00000E+00         0.00000E+00         0.00000E+00
    0.68570E-02        -0.47223E-01         0.00000E+00
    0.59880E-02        -0.44277E-01         0.00000E+00
    0.53254E-02        -0.41281E-01         0.00000E+00
    0.47981E-02        -0.38248E-01         0.00000E+00
    0.43591E-02        -0.35190E-01         0.00000E+00
    0.39784E-02        -0.32115E-01         0.00000E+00
    0.36358E-02        -0.29028E-01         0.00000E+00
    0.33162E-02        -0.25929E-01         0.00000E+00
    0.30076E-02        -0.22816E-01         0.00000E+00
    0.26987E-02        -0.19684E-01         0.00000E+00
    0.23785E-02        -0.16528E-01         0.00000E+00
    0.20347E-02        -0.13338E-01         0.00000E+00
    0.16518E-02        -0.10103E-01         0.00000E+00
    0.12082E-02        -0.68108E-02         0.00000E+00
    0.67244E-03        -0.34464E-02         0.00000E+00
    0.00000E+00         0.00000E+00         0.00000E+00
    0.47635E-02        -0.48117E-01         0.00000E+00
    0.41227E-02        -0.45083E-01         0.00000E+00
    0.36655E-02        -0.41997E-01         0.00000E+00
    0.33109E-02        -0.38879E-01         0.00000E+00
    0.30177E-02        -0.35747E-01         0.00000E+00
    0.27639E-02        -0.32608E-01         0.00000E+00
    0.25354E-02        -0.29464E-01         0.00000E+00
    0.23221E-02        -0.26314E-01         0.00000E+00
    0.21157E-02        -0.23154E-01         0.00000E+00
    0.19086E-02        -0.19979E-01         0.00000E+00
    0.16933E-02        -0.16781E-01         0.00000E+00
    0.14611E-02        -0.13551E-01         0.00000E+00
    0.12006E-02        -0.10276E-01         0.00000E+00
    0.89469E-03        -0.69400E-02         0.00000E+00
    0.51277E-03        -0.35211E-02         0.00000E+00
    0.00000E+00         0.00000E+00         0.00000E+00
    0.24749E-02        -0.48751E-01         0.00000E+00
    0.21210E-02        -0.45630E-01         0.00000E+00
    0.18913E-02        -0.42461E-01         0.00000E+00
    0.17140E-02        -0.39279E-01         0.00000E+00
    0.15678E-02        -0.36096E-01         0.00000E+00
    0.14411E-02        -0.32914E-01         0.00000E+00
    0.13270E-02        -0.29733E-01         0.00000E+00
    0.12203E-02        -0.26551E-01         0.00000E+00
    0.11169E-02        -0.23362E-01         0.00000E+00
    0.10131E-02        -0.20160E-01         0.00000E+00
    0.90489E-03        -0.16937E-01         0.00000E+00
    0.78789E-03        -0.13684E-01         0.00000E+00
    0.65605E-03        -0.10386E-01         0.00000E+00
    0.49985E-03        -0.70257E-02         0.00000E+00
    0.30125E-03        -0.35778E-02         0.00000E+00
    0.00000E+00         0.00000E+00         0.00000E+00
    0.00000E+00        -0.49021E-01         0.00000E+00
    0.00000E+00        -0.45831E-01         0.00000E+00
    0.00000E+00        -0.42623E-01         0.00000E+00
    0.00000E+00        -0.39416E-01         0.00000E+00
    0.00000E+00        -0.36214E-01         0.00000E+00
    0.00000E+00        -0.33017E-01         0.00000E+00
    0.00000E+00        -0.29824E-01         0.00000E+00
    0.00000E+00        -0.26631E-01         0.00000E+00
    0.00000E+00        -0.23432E-01         0.00000E+00
    0.00000E+00        -0.20221E-01         0.00000E+00
    0.00000E+00        -0.16990E-01         0.00000E+00
    0.00000E+00        -0.13729E-01         0.00000E+00
    0.00000E+00        -0.10423E-01         0.00000E+00
    0.00000E+00        -0.70562E-02         0.00000E+00
    0.00000E+00        -0.36012E-02         0.00000E+00
    0.00000E+00         0.00000E+00         0.00000E+00
CELL_DATA        450
VECTORS vDarcy double 
    0.11537E-05         0.10379E-08         0.00000E+00
    0.11536E-05         0.27645E-08         0.00000E+00
    0.11535E-05         0.40447E-08         0.00000E+00
    0.11536E-05         0.49763E-08         0.00000E+00
    0.11536E-05         0.56098E-08         0.00000E+00
    0.11536E-05         0.59816E-08         0.00000E+00
    0.11536E-05         0.61200E-08         0.00000E+00
    0.11536E-05         0.60479E-08         0.00000E+00
    0.11537E-05         0.57838E-08         0.00000E+00
    0.11537E-05         0.53424E-08         0.00000E+00
    0.11537E-05         0.47348E-08         0.00000E+00
    0.11537E-05         0.39688E-08         0.00000E+00
    0.11537E-05         0.30479E-08         0.00000E+00
    0.11537E-05         0.19693E-08         0.00000E+00
    0.11537E-05         0.71097E-09         0.00000E+00
    0.11408E-05         0.95296E-09         0.00000E+00
    0.11407E-05         0.25882E-08         0.00000E+00
    0.11407E-05         0.38627E-08         0.00000E+00
    0.11407E-05         0.47994E-08         0.00000E+00
    0.11408E-05         0.54407E-08         0.00000E+00
    0.11408E-05         0.58210E-08         0.00000E+00
    0.11409E-05         0.59680E-08         0.00000E+00
    0.11410E-05         0.59045E-08         0.00000E+00
    0.11410E-05         0.56491E-08         0.00000E+00
    0.11411E-05         0.52163E-08         0.00000E+00
    0.11412E-05         0.46174E-08         0.00000E+00
    0.11412E-05         0.38601E-08         0.00000E+00
    0.11412E-05         0.29485E-08         0.00000E+00
    0.11412E-05         0.18824E-08         0.00000E+00
    0.11412E-05         0.67109E-09         0.00000E+00
    0.11281E-05         0.90693E-09         0.00000E+00
    0.11280E-05         0.24644E-08         0.00000E+00
    0.11279E-05         0.36923E-08         0.00000E+00
    0.11280E-05         0.46099E-08         0.00000E+00
    0.11281E-05         0.52441E-08         0.00000E+00
    0.11282E-05         0.56240E-08         0.00000E+00
    0.11283E-05         0.57751E-08         0.00000E+00
    0.11284E-05         0.57189E-08         0.00000E+00
    0.11285E-05         0.54735E-08         0.00000E+00
    0.11286E-05         0.50533E-08         0.00000E+00
    0.11287E-05         0.44695E-08         0.00000E+00
    0.11288E-05         0.37306E-08         0.00000E+00
    0.11288E-05         0.28424E-08         0.00000E+00
    0.11289E-05         0.18114E-08         0.00000E+00
    0.11288E-05         0.64600E-09         0.00000E+00
    0.11154E-05         0.86633E-09         0.00000E+00
    0.11153E-05         0.23525E-08         0.00000E+00
    0.11153E-05         0.35259E-08         0.00000E+00
    0.11154E-05         0.44085E-08         0.00000E+00
    0.11155E-05         0.50235E-08         0.00000E+00
    0.11156E-05         0.53949E-08         0.00000E+00
    0.11158E-05         0.55454E-08         0.00000E+00
    0.11160E-05         0.54950E-08         0.00000E+00
    0.11161E-05         0.52607E-08         0.00000E+00
    0.11163E-05         0.48565E-08         0.00000E+00
    0.11164E-05         0.42938E-08         0.00000E+00
    0.11165E-05         0.35816E-08         0.00000E+00
    0.11166E-05         0.27273E-08         0.00000E+00
    0.11166E-05         0.17379E-08         0.00000E+00
    0.11166E-05         0.61999E-09         0.00000E+00
    0.11029E-05         0.82446E-09         0.00000E+00
    0.11029E-05         0.22374E-08         0.00000E+00
    0.11029E-05         0.33520E-08         0.00000E+00
    0.11030E-05         0.41918E-08         0.00000E+00
    0.11032E-05         0.47792E-08         0.00000E+00
    0.11034E-05         0.51358E-08         0.00000E+00
    0.11035E-05         0.52818E-08         0.00000E+00
    0.11037E-05         0.52358E-08         0.00000E+00
    0.11039E-05         0.50135E-08         0.00000E+00
    0.11041E-05         0.46285E-08         0.00000E+00
    0.11043E-05         0.40918E-08         0.00000E+00
    0.11044E-05         0.34126E-08         0.00000E+00
    0.11046E-05         0.25986E-08         0.00000E+00
    0.11046E-05         0.16564E-08         0.00000E+00
    0.11046E-05         0.59114E-09         0.00000E+00
    0.10907E-05         0.77928E-09         0.00000E+00
    0.10907E-05         0.21136E-08         0.00000E+00
    0.10908E-05         0.31646E-08         0.00000E+00
    0.10909E-05         0.39564E-08         0.00000E+00
    0.10911E-05         0.45106E-08         0.00000E+00
    0.10913E-05         0.48477E-08         0.00000E+00
    0.10916E-05         0.49865E-08         0.00000E+00
    0.10918E-05         0.49437E-08         0.00000E+00
    0.10920E-05         0.47342E-08         0.00000E+00
    0.10923E-05         0.43708E-08         0.00000E+00
    0.10925E-05         0.38641E-08         0.00000E+00
    0.10926E-05         0.32230E-08         0.00000E+00
    0.10928E-05         0.24548E-08         0.00000E+00
    0.10929E-05         0.15652E-08         0.00000E+00
    0.10929E-05         0.55876E-09         0.00000E+00
    0.10788E-05         0.73021E-09         0.00000E+00
    0.10789E-05         0.19793E-08         0.00000E+00
    0.10790E-05         0.29615E-08         0.00000E+00
    0.10791E-05         0.37004E-08         0.00000E+00
    0.10794E-05         0.42173E-08         0.00000E+00
    0.10796E-05         0.45316E-08         0.00000E+00
    0.10799E-05         0.46607E-08         0.00000E+00
    0.10802E-05         0.46205E-08         0.00000E+00
    0.10804E-05         0.44247E-08         0.00000E+00
    0.10807E-05         0.40851E-08         0.00000E+00
    0.10809E-05         0.36118E-08         0.00000E+00
    0.10811E-05         0.30130E-08         0.00000E+00
    0.10813E-05         0.22953E-08         0.00000E+00
    0.10814E-05         0.14641E-08         0.00000E+00
    0.10814E-05         0.52277E-09         0.00000E+00
    0.10673E-05         0.67715E-09         0.00000E+00
    0.10674E-05         0.18341E-08         0.00000E+00
    0.10675E-05         0.27419E-08         0.00000E+00
    0.10677E-05         0.34235E-08         0.00000E+00
    0.10680E-05         0.38993E-08         0.00000E+00
    0.10682E-05         0.41879E-08         0.00000E+00
    0.10686E-05         0.43059E-08         0.00000E+00
    0.10689E-05         0.42678E-08         0.00000E+00
    0.10692E-05         0.40865E-08         0.00000E+00
    0.10695E-05         0.37727E-08         0.00000E+00
    0.10698E-05         0.33358E-08         0.00000E+00
    0.10700E-05         0.27832E-08         0.00000E+00
    0.10702E-05         0.21208E-08         0.00000E+00
    0.10703E-05         0.13532E-08         0.00000E+00
    0.10703E-05         0.48333E-09         0.00000E+00
    0.10562E-05         0.62023E-09         0.00000E+00
    0.10563E-05         0.16781E-08         0.00000E+00
    0.10565E-05         0.25060E-08         0.00000E+00
    0.10567E-05         0.31258E-08         0.00000E+00
    0.10570E-05         0.35572E-08         0.00000E+00
    0.10573E-05         0.38179E-08         0.00000E+00
    0.10576E-05         0.39234E-08         0.00000E+00
    0.10580E-05         0.38872E-08         0.00000E+00
    0.10583E-05         0.37212E-08         0.00000E+00
    0.10587E-05         0.34352E-08         0.00000E+00
    0.10590E-05         0.30374E-08         0.00000E+00
    0.10592E-05         0.25347E-08         0.00000E+00
    0.10594E-05         0.19320E-08         0.00000E+00
    0.10596E-05         0.12332E-08         0.00000E+00
    0.10596E-05         0.44066E-09         0.00000E+00
    0.10456E-05         0.55961E-09         0.00000E+00
    0.10457E-05         0.15119E-08         0.00000E+00
    0.10459E-05         0.22543E-08         0.00000E+00
    0.10461E-05         0.28081E-08         0.00000E+00
    0.10464E-05         0.31920E-08         0.00000E+00
    0.10468E-05         0.34227E-08         0.00000E+00
    0.10472E-05         0.35146E-08         0.00000E+00
    0.10475E-05         0.34803E-08         0.00000E+00
    0.10479E-05         0.33305E-08         0.00000E+00
    0.10483E-05         0.30740E-08         0.00000E+00
    0.10486E-05         0.27182E-08         0.00000E+00
    0.10489E-05         0.22687E-08         0.00000E+00
    0.10491E-05         0.17299E-08         0.00000E+00
    0.10493E-05         0.11048E-08         0.00000E+00
    0.10493E-05         0.39503E-09         0.00000E+00
    0.10354E-05         0.49548E-09         0.00000E+00
    0.10355E-05         0.13357E-08         0.00000E+00
    0.10357E-05         0.19877E-08         0.00000E+00
    0.10360E-05         0.24714E-08         0.00000E+00
    0.10364E-05         0.28049E-08         0.00000E+00
    0.10367E-05         0.30037E-08         0.00000E+00
    0.10372E-05         0.30812E-08         0.00000E+00
    0.10376E-05         0.30489E-08         0.00000E+00
    0.10380E-05         0.29162E-08         0.00000E+00
    0.10384E-05         0.26911E-08         0.00000E+00
    0.10387E-05         0.23797E-08         0.00000E+00
    0.10390E-05         0.19868E-08         0.00000E+00
    0.10393E-05         0.15157E-08         0.00000E+00
    0.10394E-05         0.96867E-09         0.00000E+00
    0.10395E-05         0.34673E-09         0.00000E+00
    0.10258E-05         0.42800E-09         0.00000E+00
    0.10259E-05         0.11503E-08         0.00000E+00
    0.10261E-05         0.17068E-08         0.00000E+00
    0.10264E-05         0.21169E-08         0.00000E+00
    0.10268E-05         0.23973E-08         0.00000E+00
    0.10272E-05         0.25627E-08         0.00000E+00
    0.10277E-05         0.26251E-08         0.00000E+00
    0.10281E-05         0.25949E-08         0.00000E+00
    0.10285E-05         0.24805E-08         0.00000E+00
    0.10290E-05         0.22884E-08         0.00000E+00
    0.10293E-05         0.20238E-08         0.00000E+00
    0.10297E-05         0.16904E-08         0.00000E+00
    0.10299E-05         0.12906E-08         0.00000E+00
    0.10301E-05         0.82573E-09         0.00000E+00
    0.10302E-05         0.29606E-09         0.00000E+00
    0.10167E-05         0.35734E-09         0.00000E+00
    0.10168E-05         0.95605E-09         0.00000E+00
    0.10171E-05         0.14127E-08         0.00000E+00
    0.10174E-05         0.17457E-08         0.00000E+00
    0.10178E-05         0.19709E-08         0.00000E+00
    0.10182E-05         0.21015E-08         0.00000E+00
    0.10187E-05         0.21484E-08         0.00000E+00
    0.10192E-05         0.21207E-08         0.00000E+00
    0.10196E-05         0.20255E-08         0.00000E+00
    0.10201E-05         0.18681E-08         0.00000E+00
    0.10205E-05         0.16525E-08         0.00000E+00
    0.10208E-05         0.13813E-08         0.00000E+00
    0.10211E-05         0.10560E-08         0.00000E+00
    0.10213E-05         0.67684E-09         0.00000E+00
    0.10214E-05         0.24335E-09         0.00000E+00
    0.10082E-05         0.28364E-09         0.00000E+00
    0.10083E-05         0.75351E-09         0.00000E+00
    0.10086E-05         0.11063E-08         0.00000E+00
    0.10090E-05         0.13594E-08         0.00000E+00
    0.10094E-05         0.15274E-08         0.00000E+00
    0.10098E-05         0.16223E-08         0.00000E+00
    0.10103E-05         0.16537E-08         0.00000E+00
    0.10108E-05         0.16290E-08         0.00000E+00
    0.10113E-05         0.15540E-08         0.00000E+00
    0.10118E-05         0.14328E-08         0.00000E+00
    0.10122E-05         0.12682E-08         0.00000E+00
    0.10125E-05         0.10616E-08         0.00000E+00
    0.10128E-05         0.81336E-09         0.00000E+00
    0.10130E-05         0.52296E-09         0.00000E+00
    0.10131E-05         0.18893E-09         0.00000E+00
    0.10003E-05         0.20707E-09         0.00000E+00
    0.10005E-05         0.54331E-09         0.00000E+00
    0.10007E-05         0.78869E-09         0.00000E+00
    0.10011E-05         0.95959E-09         0.00000E+00
    0.10015E-05         0.10692E-08         0.00000E+00
    0.10020E-05         0.11280E-08         0.00000E+00
    0.10025E-05         0.11439E-08         0.00000E+00
    0.10030E-05         0.11230E-08         0.00000E+00
    0.10035E-05         0.10693E-08         0.00000E+00
    0.10040E-05         0.98568E-09         0.00000E+00
    0.10044E-05         0.87361E-09         0.00000E+00
    0.10048E-05         0.73343E-09         0.00000E+00
    0.10051E-05         0.56449E-09         0.00000E+00
    0.10053E-05         0.36519E-09         0.00000E+00
    0.10054E-05         0.13317E-09         0.00000E+00
    0.99304E-06         0.12783E-09         0.00000E+00
    0.99320E-06         0.32618E-09         0.00000E+00
    0.99348E-06         0.46138E-09         0.00000E+00
    0.99387E-06         0.54849E-09         0.00000E+00
    0.99432E-06         0.59911E-09         0.00000E+00
    0.99482E-06         0.62187E-09         0.00000E+00
    0.99534E-06         0.62295E-09         0.00000E+00
    0.99587E-06         0.60655E-09         0.00000E+00
    0.99638E-06         0.57526E-09         0.00000E+00
    0.99686E-06         0.53036E-09         0.00000E+00
    0.99730E-06         0.47208E-09         0.00000E+00
    0.99767E-06         0.39964E-09         0.00000E+00
    0.99797E-06         0.31137E-09         0.00000E+00
    0.99818E-06         0.20477E-09         0.00000E+00
    0.99830E-06         0.76505E-10         0.00000E+00
    0.98642E-06         0.46178E-10         0.00000E+00
    0.98659E-06         0.10311E-09         0.00000E+00
    0.98689E-06         0.12619E-09         0.00000E+00
    0.98728E-06         0.12884E-09         0.00000E+00
    0.98775E-06         0.12068E-09         0.00000E+00
    0.98826E-06         0.10822E-09         0.00000E+00
    0.98879E-06         0.95511E-10         0.00000E+00
    0.98933E-06         0.84775E-10         0.00000E+00
    0.98985E-06         0.76833E-10         0.00000E+00
    0.99034E-06         0.71466E-10         0.00000E+00
    0.99078E-06         0.67615E-10         0.00000E+00
    0.99115E-06         0.63459E-10         0.00000E+00
    0.99146E-06         0.56423E-10         0.00000E+00
    0.99167E-06         0.43134E-10         0.00000E+00
    0.99179E-06         0.19397E-10         0.00000E+00
    0.98048E-06        -0.37511E-10         0.00000E+00
    0.98065E-06        -0.12458E-09         0.00000E+00
    0.98096E-06        -0.21442E-09         0.00000E+00
    0.98136E-06        -0.29574E-09         0.00000E+00
    0.98183E-06        -0.36138E-09         0.00000E+00
    0.98235E-06        -0.40742E-09         0.00000E+00
    0.98289E-06        -0.43230E-09         0.00000E+00
    0.98343E-06        -0.43606E-09         0.00000E+00
    0.98395E-06        -0.41979E-09         0.00000E+00
    0.98444E-06        -0.38528E-09         0.00000E+00
    0.98488E-06        -0.33480E-09         0.00000E+00
    0.98525E-06        -0.27108E-09         0.00000E+00
    0.98556E-06        -0.19745E-09         0.00000E+00
    0.98577E-06        -0.11798E-09         0.00000E+00
    0.98589E-06        -0.37592E-10         0.00000E+00
    0.97522E-06        -0.12271E-09         0.00000E+00
    0.97541E-06        -0.35507E-09         0.00000E+00
    0.97572E-06        -0.55715E-09         0.00000E+00
    0.97613E-06        -0.72045E-09         0.00000E+00
    0.97660E-06        -0.84094E-09         0.00000E+00
    0.97712E-06        -0.91787E-09         0.00000E+00
    0.97765E-06        -0.95265E-09         0.00000E+00
    0.97818E-06        -0.94790E-09         0.00000E+00
    0.97869E-06        -0.90680E-09         0.00000E+00
    0.97917E-06        -0.83269E-09         0.00000E+00
    0.97960E-06        -0.72895E-09         0.00000E+00
    0.97997E-06        -0.59902E-09         0.00000E+00
    0.98027E-06        -0.44670E-09         0.00000E+00
    0.98049E-06        -0.27648E-09         0.00000E+00
    0.98060E-06        -0.93801E-10         0.00000E+00
    0.97068E-06        -0.20870E-09         0.00000E+00
    0.97087E-06        -0.58588E-09         0.00000E+00
    0.97119E-06        -0.89756E-09         0.00000E+00
    0.97159E-06        -0.11389E-08         0.00000E+00
    0.97206E-06        -0.13099E-08         0.00000E+00
    0.97257E-06        -0.14138E-08         0.00000E+00
    0.97308E-06        -0.14555E-08         0.00000E+00
    0.97360E-06        -0.14405E-08         0.00000E+00
    0.97409E-06        -0.13743E-08         0.00000E+00
    0.97455E-06        -0.12617E-08         0.00000E+00
    0.97496E-06        -0.11071E-08         0.00000E+00
    0.97532E-06        -0.91422E-09         0.00000E+00
    0.97561E-06        -0.68697E-09         0.00000E+00
    0.97581E-06        -0.42984E-09         0.00000E+00
    0.97593E-06        -0.14844E-09         0.00000E+00
    0.96687E-06        -0.29444E-09         0.00000E+00
    0.96707E-06        -0.81362E-09         0.00000E+00
    0.96738E-06        -0.12297E-08         0.00000E+00
    0.96778E-06        -0.15427E-08         0.00000E+00
    0.96823E-06        -0.17579E-08         0.00000E+00
    0.96871E-06        -0.18832E-08         0.00000E+00
    0.96920E-06        -0.19279E-08         0.00000E+00
    0.96968E-06        -0.19009E-08         0.00000E+00
    0.97014E-06        -0.18099E-08         0.00000E+00
    0.97056E-06        -0.16612E-08         0.00000E+00
    0.97095E-06        -0.14596E-08         0.00000E+00
    0.97128E-06        -0.12091E-08         0.00000E+00
    0.97155E-06        -0.91290E-09         0.00000E+00
    0.97175E-06        -0.57498E-09         0.00000E+00
    0.97186E-06        -0.20058E-09         0.00000E+00
    0.96382E-06        -0.37853E-09         0.00000E+00
    0.96401E-06        -0.10337E-08         0.00000E+00
    0.96432E-06        -0.15455E-08         0.00000E+00
    0.96470E-06        -0.19207E-08         0.00000E+00
    0.96512E-06        -0.21710E-08         0.00000E+00
    0.96556E-06        -0.23107E-08         0.00000E+00
    0.96600E-06        -0.23537E-08         0.00000E+00
    0.96643E-06        -0.23128E-08         0.00000E+00
    0.96684E-06        -0.21980E-08         0.00000E+00
    0.96722E-06        -0.20169E-08         0.00000E+00
    0.96756E-06        -0.17746E-08         0.00000E+00
    0.96786E-06        -0.14742E-08         0.00000E+00
    0.96810E-06        -0.11179E-08         0.00000E+00
    0.96828E-06        -0.70815E-09         0.00000E+00
    0.96838E-06        -0.24907E-09         0.00000E+00
    0.96154E-06        -0.45903E-09         0.00000E+00
    0.96173E-06        -0.12398E-08         0.00000E+00
    0.96202E-06        -0.18343E-08         0.00000E+00
    0.96236E-06        -0.22581E-08         0.00000E+00
    0.96274E-06        -0.25316E-08         0.00000E+00
    0.96312E-06        -0.26764E-08         0.00000E+00
    0.96349E-06        -0.27123E-08         0.00000E+00
    0.96385E-06        -0.26559E-08         0.00000E+00
    0.96418E-06        -0.25196E-08         0.00000E+00
    0.96449E-06        -0.23119E-08         0.00000E+00
    0.96477E-06        -0.20375E-08         0.00000E+00
    0.96502E-06        -0.16982E-08         0.00000E+00
    0.96523E-06        -0.12939E-08         0.00000E+00
    0.96539E-06        -0.82475E-09         0.00000E+00
    0.96548E-06        -0.29257E-09         0.00000E+00
    0.96005E-06        -0.53326E-09         0.00000E+00
    0.96024E-06        -0.14232E-08         0.00000E+00
    0.96050E-06        -0.20814E-08         0.00000E+00
    0.96079E-06        -0.25353E-08         0.00000E+00
    0.96109E-06        -0.28165E-08         0.00000E+00
    0.96139E-06        -0.29555E-08         0.00000E+00
    0.96166E-06        -0.29784E-08         0.00000E+00
    0.96192E-06        -0.29056E-08         0.00000E+00
    0.96215E-06        -0.27516E-08         0.00000E+00
    0.96237E-06        -0.25253E-08         0.00000E+00
    0.96257E-06        -0.22305E-08         0.00000E+00
    0.96276E-06        -0.18667E-08         0.00000E+00
    0.96291E-06        -0.14309E-08         0.00000E+00
    0.96304E-06        -0.91913E-09         0.00000E+00
    0.96312E-06        -0.32941E-09         0.00000E+00
    0.95940E-06        -0.59740E-09         0.00000E+00
    0.95957E-06        -0.15719E-08         0.00000E+00
    0.95978E-06        -0.22667E-08         0.00000E+00
    0.96000E-06        -0.27261E-08         0.00000E+00
    0.96020E-06        -0.29960E-08         0.00000E+00
    0.96037E-06        -0.31169E-08         0.00000E+00
    0.96051E-06        -0.31212E-08         0.00000E+00
    0.96064E-06        -0.30326E-08         0.00000E+00
    0.96074E-06        -0.28668E-08         0.00000E+00
    0.96084E-06        -0.26325E-08         0.00000E+00
    0.96094E-06        -0.23321E-08         0.00000E+00
    0.96103E-06        -0.19626E-08         0.00000E+00
    0.96112E-06        -0.15165E-08         0.00000E+00
    0.96121E-06        -0.98413E-09         0.00000E+00
    0.96127E-06        -0.35753E-09         0.00000E+00
    0.95960E-06        -0.64584E-09         0.00000E+00
    0.95974E-06        -0.16680E-08         0.00000E+00
    0.95988E-06        -0.23617E-08         0.00000E+00
    0.95999E-06        -0.27952E-08         0.00000E+00
    0.96004E-06        -0.30319E-08         0.00000E+00
    0.96005E-06        -0.31228E-08         0.00000E+00
    0.96003E-06        -0.31047E-08         0.00000E+00
    0.95998E-06        -0.30032E-08         0.00000E+00
    0.95992E-06        -0.28339E-08         0.00000E+00
    0.95987E-06        -0.26049E-08         0.00000E+00
    0.95983E-06        -0.23170E-08         0.00000E+00
    0.95981E-06        -0.19643E-08         0.00000E+00
    0.95982E-06        -0.15346E-08         0.00000E+00
    0.95985E-06        -0.10104E-08         0.00000E+00
    0.95989E-06        -0.37424E-09         0.00000E+00
    0.96070E-06        -0.66968E-09         0.00000E+00
    0.96080E-06        -0.16837E-08         0.00000E+00
    0.96083E-06        -0.23243E-08         0.00000E+00
    0.96077E-06        -0.26944E-08         0.00000E+00
    0.96063E-06        -0.28764E-08         0.00000E+00
    0.96042E-06        -0.29283E-08         0.00000E+00
    0.96018E-06        -0.28881E-08         0.00000E+00
    0.95992E-06        -0.27802E-08         0.00000E+00
    0.95966E-06        -0.26190E-08         0.00000E+00
    0.95942E-06        -0.24109E-08         0.00000E+00
    0.95921E-06        -0.21556E-08         0.00000E+00
    0.95905E-06        -0.18454E-08         0.00000E+00
    0.95895E-06        -0.14638E-08         0.00000E+00
    0.95891E-06        -0.98474E-09         0.00000E+00
    0.95892E-06        -0.37578E-09         0.00000E+00
    0.96277E-06        -0.65288E-09         0.00000E+00
    0.96278E-06        -0.15717E-08         0.00000E+00
    0.96264E-06        -0.20903E-08         0.00000E+00
    0.96234E-06        -0.23587E-08         0.00000E+00
    0.96193E-06        -0.24712E-08         0.00000E+00
    0.96145E-06        -0.24832E-08         0.00000E+00
    0.96094E-06        -0.24280E-08         0.00000E+00
    0.96043E-06        -0.23255E-08         0.00000E+00
    0.95993E-06        -0.21870E-08         0.00000E+00
    0.95947E-06        -0.20172E-08         0.00000E+00
    0.95906E-06        -0.18149E-08         0.00000E+00
    0.95872E-06        -0.15726E-08         0.00000E+00
    0.95847E-06        -0.12737E-08         0.00000E+00
    0.95832E-06        -0.88628E-09         0.00000E+00
    0.95828E-06        -0.35560E-09         0.00000E+00
    0.96589E-06        -0.56174E-09         0.00000E+00
    0.96575E-06        -0.12383E-08         0.00000E+00
    0.96530E-06        -0.15607E-08         0.00000E+00
    0.96465E-06        -0.17057E-08         0.00000E+00
    0.96389E-06        -0.17508E-08         0.00000E+00
    0.96309E-06        -0.17358E-08         0.00000E+00
    0.96227E-06        -0.16825E-08         0.00000E+00
    0.96146E-06        -0.16035E-08         0.00000E+00
    0.96069E-06        -0.15057E-08         0.00000E+00
    0.95998E-06        -0.13918E-08         0.00000E+00
    0.95933E-06        -0.12607E-08         0.00000E+00
    0.95877E-06        -0.11074E-08         0.00000E+00
    0.95833E-06        -0.91981E-09         0.00000E+00
    0.95802E-06        -0.67267E-09         0.00000E+00
    0.95791E-06        -0.30354E-09         0.00000E+00
    0.97024E-06        -0.24588E-09         0.00000E+00
    0.96970E-06        -0.50024E-09         0.00000E+00
    0.96875E-06        -0.60352E-09         0.00000E+00
    0.96764E-06        -0.64422E-09         0.00000E+00
    0.96645E-06        -0.65171E-09         0.00000E+00
    0.96526E-06        -0.64005E-09         0.00000E+00
    0.96409E-06        -0.61670E-09         0.00000E+00
    0.96297E-06        -0.58577E-09         0.00000E+00
    0.96190E-06        -0.54949E-09         0.00000E+00
    0.96091E-06        -0.50869E-09         0.00000E+00
    0.96001E-06        -0.46304E-09         0.00000E+00
    0.95920E-06        -0.41078E-09         0.00000E+00
    0.95850E-06        -0.34770E-09         0.00000E+00
    0.95796E-06        -0.26485E-09         0.00000E+00
    0.95765E-06        -0.13403E-09         0.00000E+00
POINT_DATA        496
VECTORS vDarcyNodal double 
    0.11536E-05         0.10970E-08         0.00000E+00
    0.11536E-05         0.19849E-08         0.00000E+00
    0.11536E-05         0.35055E-08         0.00000E+00
    0.11536E-05         0.45995E-08         0.00000E+00
    0.11536E-05         0.53736E-08         0.00000E+00
    0.11536E-05         0.58692E-08         0.00000E+00
    0.11536E-05         0.61183E-08         0.00000E+00
    0.11536E-05         0.61465E-08         0.00000E+00
    0.11537E-05         0.59741E-08         0.00000E+00
    0.11537E-05         0.56177E-08         0.00000E+00
    0.11537E-05         0.50902E-08         0.00000E+00
    0.11537E-05         0.44012E-08         0.00000E+00
    0.11537E-05         0.35564E-08         0.00000E+00
    0.11537E-05         0.25578E-08         0.00000E+00
    0.11537E-05         0.13792E-08         0.00000E+00
    0.11537E-05         0.73817E-09         0.00000E+00
    0.11472E-05         0.97861E-09         0.00000E+00
    0.11472E-05         0.18173E-08         0.00000E+00
    0.11471E-05         0.33033E-08         0.00000E+00
    0.11471E-05         0.44211E-08         0.00000E+00
    0.11472E-05         0.52121E-08         0.00000E+00
    0.11472E-05         0.57219E-08         0.00000E+00
    0.11472E-05         0.59829E-08         0.00000E+00
    0.11473E-05         0.60211E-08         0.00000E+00
    0.11473E-05         0.58572E-08         0.00000E+00
    0.11474E-05         0.55081E-08         0.00000E+00
    0.11474E-05         0.49867E-08         0.00000E+00
    0.11475E-05         0.43021E-08         0.00000E+00
    0.11475E-05         0.34600E-08         0.00000E+00
    0.11475E-05         0.24592E-08         0.00000E+00
    0.11475E-05         0.13011E-08         0.00000E+00
    0.11475E-05         0.68373E-09         0.00000E+00
    0.11344E-05         0.92731E-09         0.00000E+00
    0.11344E-05         0.17239E-08         0.00000E+00
    0.11343E-05         0.31476E-08         0.00000E+00
    0.11343E-05         0.42410E-08         0.00000E+00
    0.11344E-05         0.50280E-08         0.00000E+00
    0.11344E-05         0.55398E-08         0.00000E+00
    0.11345E-05         0.58060E-08         0.00000E+00
    0.11346E-05         0.58514E-08         0.00000E+00
    0.11347E-05         0.56964E-08         0.00000E+00
    0.11348E-05         0.53573E-08         0.00000E+00
    0.11349E-05         0.48471E-08         0.00000E+00
    0.11350E-05         0.41754E-08         0.00000E+00
    0.11350E-05         0.33486E-08         0.00000E+00
    0.11351E-05         0.23716E-08         0.00000E+00
    0.11351E-05         0.12524E-08         0.00000E+00
    0.11350E-05         0.65845E-09         0.00000E+00
    0.11217E-05         0.88657E-09         0.00000E+00
    0.11217E-05         0.16474E-08         0.00000E+00
    0.11216E-05         0.30091E-08         0.00000E+00
    0.11217E-05         0.40612E-08         0.00000E+00
    0.11217E-05         0.48261E-08         0.00000E+00
    0.11218E-05         0.53284E-08         0.00000E+00
    0.11220E-05         0.55931E-08         0.00000E+00
    0.11221E-05         0.56425E-08         0.00000E+00
    0.11222E-05         0.54960E-08         0.00000E+00
    0.11224E-05         0.51695E-08         0.00000E+00
    0.11225E-05         0.46757E-08         0.00000E+00
    0.11226E-05         0.40247E-08         0.00000E+00
    0.11227E-05         0.32244E-08         0.00000E+00
    0.11227E-05         0.22821E-08         0.00000E+00
    0.11228E-05         0.12049E-08         0.00000E+00
    0.11228E-05         0.63356E-09         0.00000E+00
    0.11091E-05         0.84610E-09         0.00000E+00
    0.11091E-05         0.15714E-08         0.00000E+00
    0.11091E-05         0.28693E-08         0.00000E+00
    0.11092E-05         0.38731E-08         0.00000E+00
    0.11093E-05         0.46059E-08         0.00000E+00
    0.11094E-05         0.50900E-08         0.00000E+00
    0.11096E-05         0.53472E-08         0.00000E+00
    0.11098E-05         0.53978E-08         0.00000E+00
    0.11099E-05         0.52596E-08         0.00000E+00
    0.11101E-05         0.49477E-08         0.00000E+00
    0.11103E-05         0.44747E-08         0.00000E+00
    0.11104E-05         0.38507E-08         0.00000E+00
    0.11105E-05         0.30844E-08         0.00000E+00
    0.11106E-05         0.21831E-08         0.00000E+00
    0.11106E-05         0.11530E-08         0.00000E+00
    0.11106E-05         0.60643E-09         0.00000E+00
    0.10968E-05         0.80282E-09         0.00000E+00
    0.10968E-05         0.14904E-08         0.00000E+00
    0.10968E-05         0.27201E-08         0.00000E+00
    0.10969E-05         0.36706E-08         0.00000E+00
    0.10971E-05         0.43651E-08         0.00000E+00
    0.10972E-05         0.48250E-08         0.00000E+00
    0.10974E-05         0.50704E-08         0.00000E+00
    0.10977E-05         0.51198E-08         0.00000E+00
    0.10979E-05         0.49897E-08         0.00000E+00
    0.10981E-05         0.46943E-08         0.00000E+00
    0.10983E-05         0.42455E-08         0.00000E+00
    0.10985E-05         0.36536E-08         0.00000E+00
    0.10986E-05         0.29268E-08         0.00000E+00
    0.10987E-05         0.20720E-08         0.00000E+00
    0.10988E-05         0.10946E-08         0.00000E+00
    0.10988E-05         0.57586E-09         0.00000E+00
    0.10848E-05         0.75575E-09         0.00000E+00
    0.10848E-05         0.14025E-08         0.00000E+00
    0.10848E-05         0.25582E-08         0.00000E+00
    0.10849E-05         0.34504E-08         0.00000E+00
    0.10851E-05         0.41019E-08         0.00000E+00
    0.10853E-05         0.45334E-08         0.00000E+00
    0.10856E-05         0.47638E-08         0.00000E+00
    0.10858E-05         0.48103E-08         0.00000E+00
    0.10861E-05         0.46883E-08         0.00000E+00
    0.10864E-05         0.44108E-08         0.00000E+00
    0.10866E-05         0.39894E-08         0.00000E+00
    0.10868E-05         0.34335E-08         0.00000E+00
    0.10870E-05         0.27510E-08         0.00000E+00
    0.10871E-05         0.19480E-08         0.00000E+00
    0.10872E-05         0.10294E-08         0.00000E+00
    0.10872E-05         0.54166E-09         0.00000E+00
    0.10731E-05         0.70467E-09         0.00000E+00
    0.10731E-05         0.13071E-08         0.00000E+00
    0.10732E-05         0.23827E-08         0.00000E+00
    0.10733E-05         0.32115E-08         0.00000E+00
    0.10735E-05         0.38158E-08         0.00000E+00
    0.10738E-05         0.42155E-08         0.00000E+00
    0.10741E-05         0.44285E-08         0.00000E+00
    0.10744E-05         0.44709E-08         0.00000E+00
    0.10747E-05         0.43570E-08         0.00000E+00
    0.10750E-05         0.40990E-08         0.00000E+00
    0.10752E-05         0.37075E-08         0.00000E+00
    0.10755E-05         0.31912E-08         0.00000E+00
    0.10757E-05         0.25573E-08         0.00000E+00
    0.10758E-05         0.18114E-08         0.00000E+00
    0.10759E-05         0.95745E-09         0.00000E+00
    0.10759E-05         0.50389E-09         0.00000E+00
    0.10617E-05         0.64964E-09         0.00000E+00
    0.10618E-05         0.12042E-08         0.00000E+00
    0.10619E-05         0.21934E-08         0.00000E+00
    0.10621E-05         0.29539E-08         0.00000E+00
    0.10623E-05         0.35070E-08         0.00000E+00
    0.10626E-05         0.38718E-08         0.00000E+00
    0.10629E-05         0.40654E-08         0.00000E+00
    0.10633E-05         0.41029E-08         0.00000E+00
    0.10636E-05         0.39974E-08         0.00000E+00
    0.10639E-05         0.37602E-08         0.00000E+00
    0.10642E-05         0.34011E-08         0.00000E+00
    0.10645E-05         0.29278E-08         0.00000E+00
    0.10647E-05         0.23467E-08         0.00000E+00
    0.10649E-05         0.16626E-08         0.00000E+00
    0.10650E-05         0.87909E-09         0.00000E+00
    0.10650E-05         0.46277E-09         0.00000E+00
    0.10509E-05         0.59082E-09         0.00000E+00
    0.10509E-05         0.10942E-08         0.00000E+00
    0.10510E-05         0.19908E-08         0.00000E+00
    0.10513E-05         0.26779E-08         0.00000E+00
    0.10515E-05         0.31761E-08         0.00000E+00
    0.10519E-05         0.35034E-08         0.00000E+00
    0.10522E-05         0.36759E-08         0.00000E+00
    0.10526E-05         0.37078E-08         0.00000E+00
    0.10530E-05         0.36111E-08         0.00000E+00
    0.10533E-05         0.33961E-08         0.00000E+00
    0.10536E-05         0.30716E-08         0.00000E+00
    0.10539E-05         0.26444E-08         0.00000E+00
    0.10542E-05         0.21200E-08         0.00000E+00
    0.10544E-05         0.15026E-08         0.00000E+00
    0.10545E-05         0.79478E-09         0.00000E+00
    0.10545E-05         0.41855E-09         0.00000E+00
    0.10405E-05         0.52841E-09         0.00000E+00
    0.10405E-05         0.97731E-09         0.00000E+00
    0.10407E-05         0.17754E-08         0.00000E+00
    0.10409E-05         0.23845E-08         0.00000E+00
    0.10412E-05         0.28241E-08         0.00000E+00
    0.10416E-05         0.31114E-08         0.00000E+00
    0.10420E-05         0.32614E-08         0.00000E+00
    0.10424E-05         0.32872E-08         0.00000E+00
    0.10428E-05         0.31998E-08         0.00000E+00
    0.10432E-05         0.30084E-08         0.00000E+00
    0.10435E-05         0.27207E-08         0.00000E+00
    0.10438E-05         0.23426E-08         0.00000E+00
    0.10441E-05         0.18786E-08         0.00000E+00
    0.10443E-05         0.13321E-08         0.00000E+00
    0.10444E-05         0.70502E-09         0.00000E+00
    0.10445E-05         0.37151E-09         0.00000E+00
    0.10306E-05         0.46256E-09         0.00000E+00
    0.10306E-05         0.85393E-09         0.00000E+00
    0.10308E-05         0.15480E-08         0.00000E+00
    0.10311E-05         0.20746E-08         0.00000E+00
    0.10314E-05         0.24523E-08         0.00000E+00
    0.10318E-05         0.26973E-08         0.00000E+00
    0.10322E-05         0.28236E-08         0.00000E+00
    0.10326E-05         0.28429E-08         0.00000E+00
    0.10331E-05         0.27654E-08         0.00000E+00
    0.10335E-05         0.25989E-08         0.00000E+00
    0.10339E-05         0.23501E-08         0.00000E+00
    0.10342E-05         0.20239E-08         0.00000E+00
    0.10345E-05         0.16238E-08         0.00000E+00
    0.10347E-05         0.11523E-08         0.00000E+00
    0.10348E-05         0.61038E-09         0.00000E+00
    0.10349E-05         0.32195E-09         0.00000E+00
    0.10212E-05         0.39346E-09         0.00000E+00
    0.10213E-05         0.72439E-09         0.00000E+00
    0.10215E-05         0.13092E-08         0.00000E+00
    0.10217E-05         0.17492E-08         0.00000E+00
    0.10221E-05         0.20620E-08         0.00000E+00
    0.10225E-05         0.22627E-08         0.00000E+00
    0.10230E-05         0.23643E-08         0.00000E+00
    0.10234E-05         0.23771E-08         0.00000E+00
    0.10239E-05         0.23100E-08         0.00000E+00
    0.10243E-05         0.21699E-08         0.00000E+00
    0.10247E-05         0.19620E-08         0.00000E+00
    0.10251E-05         0.16903E-08         0.00000E+00
    0.10254E-05         0.13571E-08         0.00000E+00
    0.10256E-05         0.96408E-09         0.00000E+00
    0.10258E-05         0.51142E-09         0.00000E+00
    0.10258E-05         0.27018E-09         0.00000E+00
    0.10124E-05         0.32124E-09         0.00000E+00
    0.10125E-05         0.58901E-09         0.00000E+00
    0.10127E-05         0.10596E-08         0.00000E+00
    0.10130E-05         0.14093E-08         0.00000E+00
    0.10134E-05         0.16547E-08         0.00000E+00
    0.10138E-05         0.18096E-08         0.00000E+00
    0.10143E-05         0.18857E-08         0.00000E+00
    0.10148E-05         0.18921E-08         0.00000E+00
    0.10152E-05         0.18362E-08         0.00000E+00
    0.10157E-05         0.17237E-08         0.00000E+00
    0.10161E-05         0.15586E-08         0.00000E+00
    0.10165E-05         0.13436E-08         0.00000E+00
    0.10168E-05         0.10802E-08         0.00000E+00
    0.10171E-05         0.76875E-09         0.00000E+00
    0.10172E-05         0.40877E-09         0.00000E+00
    0.10173E-05         0.21652E-09         0.00000E+00
    0.10042E-05         0.24606E-09         0.00000E+00
    0.10043E-05         0.44816E-09         0.00000E+00
    0.10045E-05         0.80019E-09         0.00000E+00
    0.10048E-05         0.10564E-08         0.00000E+00
    0.10052E-05         0.12322E-08         0.00000E+00
    0.10057E-05         0.13402E-08         0.00000E+00
    0.10062E-05         0.13904E-08         0.00000E+00
    0.10067E-05         0.13907E-08         0.00000E+00
    0.10072E-05         0.13468E-08         0.00000E+00
    0.10077E-05         0.12632E-08         0.00000E+00
    0.10081E-05         0.11425E-08         0.00000E+00
    0.10085E-05         0.98620E-09         0.00000E+00
    0.10088E-05         0.79478E-09         0.00000E+00
    0.10091E-05         0.56759E-09         0.00000E+00
    0.10092E-05         0.30313E-09         0.00000E+00
    0.10093E-05         0.16134E-09         0.00000E+00
    0.99664E-06         0.16810E-09         0.00000E+00
    0.99672E-06         0.30224E-09         0.00000E+00
    0.99694E-06         0.53183E-09         0.00000E+00
    0.99727E-06         0.69194E-09         0.00000E+00
    0.99769E-06         0.79668E-09         0.00000E+00
    0.99816E-06         0.85711E-09         0.00000E+00
    0.99867E-06         0.88160E-09         0.00000E+00
    0.99919E-06         0.87628E-09         0.00000E+00
    0.99971E-06         0.84544E-09         0.00000E+00
    0.10002E-05         0.79182E-09         0.00000E+00
    0.10007E-05         0.71686E-09         0.00000E+00
    0.10011E-05         0.62087E-09         0.00000E+00
    0.10014E-05         0.50316E-09         0.00000E+00
    0.10017E-05         0.36210E-09         0.00000E+00
    0.10018E-05         0.19525E-09         0.00000E+00
    0.10019E-05         0.10502E-09         0.00000E+00
    0.98969E-06         0.87571E-10         0.00000E+00
    0.98978E-06         0.15179E-09         0.00000E+00
    0.99001E-06         0.25576E-09         0.00000E+00
    0.99036E-06         0.31797E-09         0.00000E+00
    0.99079E-06         0.35096E-09         0.00000E+00
    0.99128E-06         0.36391E-09         0.00000E+00
    0.99180E-06         0.36327E-09         0.00000E+00
    0.99233E-06         0.35327E-09         0.00000E+00
    0.99286E-06         0.33641E-09         0.00000E+00
    0.99337E-06         0.31384E-09         0.00000E+00
    0.99383E-06         0.28562E-09         0.00000E+00
    0.99424E-06         0.25087E-09         0.00000E+00
    0.99458E-06         0.20787E-09         0.00000E+00
    0.99484E-06         0.15405E-09         0.00000E+00
    0.99501E-06         0.86029E-10         0.00000E+00
    0.99507E-06         0.47998E-10         0.00000E+00
    0.98341E-06         0.47926E-11         0.00000E+00
    0.98350E-06        -0.24838E-11         0.00000E+00
    0.98374E-06        -0.26427E-10         0.00000E+00
    0.98410E-06        -0.62903E-10         0.00000E+00
    0.98454E-06        -0.10140E-09         0.00000E+00
    0.98504E-06        -0.13498E-09         0.00000E+00
    0.98557E-06        -0.15950E-09         0.00000E+00
    0.98611E-06        -0.17294E-09         0.00000E+00
    0.98664E-06        -0.17476E-09         0.00000E+00
    0.98715E-06        -0.16550E-09         0.00000E+00
    0.98762E-06        -0.14650E-09         0.00000E+00
    0.98803E-06        -0.11977E-09         0.00000E+00
    0.98838E-06        -0.87968E-10         0.00000E+00
    0.98864E-06        -0.54478E-10         0.00000E+00
    0.98881E-06        -0.23492E-10         0.00000E+00
    0.98887E-06        -0.92012E-11         0.00000E+00
    0.97781E-06        -0.79806E-10         0.00000E+00
    0.97790E-06        -0.15959E-09         0.00000E+00
    0.97816E-06        -0.31254E-09         0.00000E+00
    0.97852E-06        -0.44722E-09         0.00000E+00
    0.97897E-06        -0.55568E-09         0.00000E+00
    0.97947E-06        -0.63379E-09         0.00000E+00
    0.98000E-06        -0.68018E-09         0.00000E+00
    0.98054E-06        -0.69538E-09         0.00000E+00
    0.98107E-06        -0.68106E-09         0.00000E+00
    0.98157E-06        -0.63954E-09         0.00000E+00
    0.98204E-06        -0.57355E-09         0.00000E+00
    0.98244E-06        -0.48608E-09         0.00000E+00
    0.98278E-06        -0.38054E-09         0.00000E+00
    0.98304E-06        -0.26094E-09         0.00000E+00
    0.98321E-06        -0.13207E-09         0.00000E+00
    0.98327E-06        -0.65979E-10         0.00000E+00
    0.97291E-06        -0.16561E-09         0.00000E+00
    0.97301E-06        -0.31818E-09         0.00000E+00
    0.97327E-06        -0.59965E-09         0.00000E+00
    0.97364E-06        -0.83035E-09         0.00000E+00
    0.97408E-06        -0.10057E-08         0.00000E+00
    0.97458E-06        -0.11250E-08         0.00000E+00
    0.97510E-06        -0.11903E-08         0.00000E+00
    0.97563E-06        -0.12051E-08         0.00000E+00
    0.97615E-06        -0.11736E-08         0.00000E+00
    0.97664E-06        -0.10999E-08         0.00000E+00
    0.97708E-06        -0.98807E-09         0.00000E+00
    0.97748E-06        -0.84186E-09         0.00000E+00
    0.97781E-06        -0.66516E-09         0.00000E+00
    0.97807E-06        -0.46223E-09         0.00000E+00
    0.97823E-06        -0.23820E-09         0.00000E+00
    0.97829E-06        -0.12162E-09         0.00000E+00
    0.96874E-06        -0.25177E-09         0.00000E+00
    0.96884E-06        -0.47638E-09         0.00000E+00
    0.96910E-06        -0.88377E-09         0.00000E+00
    0.96947E-06        -0.12061E-08         0.00000E+00
    0.96991E-06        -0.14432E-08         0.00000E+00
    0.97039E-06        -0.15988E-08         0.00000E+00
    0.97089E-06        -0.16790E-08         0.00000E+00
    0.97139E-06        -0.16908E-08         0.00000E+00
    0.97188E-06        -0.16412E-08         0.00000E+00
    0.97234E-06        -0.15361E-08         0.00000E+00
    0.97277E-06        -0.13808E-08         0.00000E+00
    0.97314E-06        -0.11794E-08         0.00000E+00
    0.97346E-06        -0.93601E-09         0.00000E+00
    0.97370E-06        -0.65457E-09         0.00000E+00
    0.97386E-06        -0.34007E-09         0.00000E+00
    0.97392E-06        -0.17526E-09         0.00000E+00
    0.96530E-06        -0.33709E-09         0.00000E+00
    0.96541E-06        -0.63166E-09         0.00000E+00
    0.96567E-06        -0.11595E-08         0.00000E+00
    0.96603E-06        -0.15663E-08         0.00000E+00
    0.96645E-06        -0.18574E-08         0.00000E+00
    0.96690E-06        -0.20424E-08         0.00000E+00
    0.96737E-06        -0.21322E-08         0.00000E+00
    0.96783E-06        -0.21380E-08         0.00000E+00
    0.96828E-06        -0.20696E-08         0.00000E+00
    0.96870E-06        -0.19349E-08         0.00000E+00
    0.96908E-06        -0.17400E-08         0.00000E+00
    0.96942E-06        -0.14893E-08         0.00000E+00
    0.96971E-06        -0.11860E-08         0.00000E+00
    0.96994E-06        -0.83331E-09         0.00000E+00
    0.97009E-06        -0.43548E-09         0.00000E+00
    0.97015E-06        -0.22589E-09         0.00000E+00
    0.96264E-06        -0.41995E-09         0.00000E+00
    0.96274E-06        -0.78053E-09         0.00000E+00
    0.96300E-06        -0.14197E-08         0.00000E+00
    0.96334E-06        -0.18999E-08         0.00000E+00
    0.96372E-06        -0.22343E-08         0.00000E+00
    0.96413E-06        -0.24393E-08         0.00000E+00
    0.96454E-06        -0.25322E-08         0.00000E+00
    0.96494E-06        -0.25284E-08         0.00000E+00
    0.96533E-06        -0.24412E-08         0.00000E+00
    0.96569E-06        -0.22800E-08         0.00000E+00
    0.96602E-06        -0.20515E-08         0.00000E+00
    0.96631E-06        -0.17596E-08         0.00000E+00
    0.96656E-06        -0.14062E-08         0.00000E+00
    0.96676E-06        -0.99275E-09         0.00000E+00
    0.96690E-06        -0.52174E-09         0.00000E+00
    0.96695E-06        -0.27226E-09         0.00000E+00
    0.96076E-06        -0.49810E-09         0.00000E+00
    0.96086E-06        -0.91825E-09         0.00000E+00
    0.96110E-06        -0.16544E-08         0.00000E+00
    0.96141E-06        -0.21924E-08         0.00000E+00
    0.96175E-06        -0.25554E-08         0.00000E+00
    0.96209E-06        -0.27686E-08         0.00000E+00
    0.96242E-06        -0.28565E-08         0.00000E+00
    0.96273E-06        -0.28397E-08         0.00000E+00
    0.96303E-06        -0.27343E-08         0.00000E+00
    0.96330E-06        -0.25515E-08         0.00000E+00
    0.96356E-06        -0.22979E-08         0.00000E+00
    0.96379E-06        -0.19761E-08         0.00000E+00
    0.96399E-06        -0.15859E-08         0.00000E+00
    0.96415E-06        -0.11259E-08         0.00000E+00
    0.96427E-06        -0.59558E-09         0.00000E+00
    0.96432E-06        -0.31288E-09         0.00000E+00
    0.95969E-06        -0.56841E-09         0.00000E+00
    0.95979E-06        -0.10382E-08         0.00000E+00
    0.96001E-06        -0.18502E-08         0.00000E+00
    0.96027E-06        -0.24242E-08         0.00000E+00
    0.96052E-06        -0.27964E-08         0.00000E+00
    0.96077E-06        -0.30033E-08         0.00000E+00
    0.96099E-06        -0.30773E-08         0.00000E+00
    0.96119E-06        -0.30442E-08         0.00000E+00
    0.96137E-06        -0.29229E-08         0.00000E+00
    0.96153E-06        -0.27254E-08         0.00000E+00
    0.96168E-06        -0.24579E-08         0.00000E+00
    0.96183E-06        -0.21211E-08         0.00000E+00
    0.96196E-06        -0.17118E-08         0.00000E+00
    0.96208E-06        -0.12241E-08         0.00000E+00
    0.96217E-06        -0.65295E-09         0.00000E+00
    0.96221E-06        -0.34594E-09         0.00000E+00
    0.95947E-06        -0.62639E-09         0.00000E+00
    0.95956E-06        -0.11311E-08         0.00000E+00
    0.95974E-06        -0.19884E-08         0.00000E+00
    0.95992E-06        -0.25685E-08         0.00000E+00
    0.96006E-06        -0.29256E-08         0.00000E+00
    0.96017E-06        -0.31095E-08         0.00000E+00
    0.96025E-06        -0.31608E-08         0.00000E+00
    0.96029E-06        -0.31096E-08         0.00000E+00
    0.96032E-06        -0.29765E-08         0.00000E+00
    0.96034E-06        -0.27738E-08         0.00000E+00
    0.96037E-06        -0.25067E-08         0.00000E+00
    0.96040E-06        -0.21736E-08         0.00000E+00
    0.96044E-06        -0.17673E-08         0.00000E+00
    0.96050E-06        -0.12765E-08         0.00000E+00
    0.96056E-06        -0.68871E-09         0.00000E+00
    0.96059E-06        -0.36912E-09         0.00000E+00
    0.96014E-06        -0.66529E-09         0.00000E+00
    0.96021E-06        -0.11828E-08         0.00000E+00
    0.96033E-06        -0.20413E-08         0.00000E+00
    0.96038E-06        -0.25883E-08         0.00000E+00
    0.96037E-06        -0.29015E-08         0.00000E+00
    0.96030E-06        -0.30452E-08         0.00000E+00
    0.96018E-06        -0.30667E-08         0.00000E+00
    0.96003E-06        -0.29983E-08         0.00000E+00
    0.95987E-06        -0.28606E-08         0.00000E+00
    0.95971E-06        -0.26650E-08         0.00000E+00
    0.95958E-06        -0.24153E-08         0.00000E+00
    0.95947E-06        -0.21078E-08         0.00000E+00
    0.95939E-06        -0.17316E-08         0.00000E+00
    0.95937E-06        -0.12685E-08         0.00000E+00
    0.95938E-06        -0.69595E-09         0.00000E+00
    0.95940E-06        -0.37937E-09         0.00000E+00
    0.96174E-06        -0.67408E-09         0.00000E+00
    0.96179E-06        -0.11706E-08         0.00000E+00
    0.96179E-06        -0.19668E-08         0.00000E+00
    0.96167E-06        -0.24305E-08         0.00000E+00
    0.96143E-06        -0.26694E-08         0.00000E+00
    0.96112E-06        -0.27595E-08         0.00000E+00
    0.96075E-06        -0.27496E-08         0.00000E+00
    0.96037E-06        -0.26699E-08         0.00000E+00
    0.95998E-06        -0.25385E-08         0.00000E+00
    0.95961E-06        -0.23649E-08         0.00000E+00
    0.95928E-06        -0.21513E-08         0.00000E+00
    0.95899E-06        -0.18932E-08         0.00000E+00
    0.95878E-06        -0.15776E-08         0.00000E+00
    0.95864E-06        -0.11801E-08         0.00000E+00
    0.95859E-06        -0.66457E-09         0.00000E+00
    0.95859E-06        -0.37219E-09         0.00000E+00
    0.96437E-06        -0.63169E-09         0.00000E+00
    0.96436E-06        -0.10539E-08         0.00000E+00
    0.96416E-06        -0.16953E-08         0.00000E+00
    0.96376E-06        -0.20186E-08         0.00000E+00
    0.96322E-06        -0.21606E-08         0.00000E+00
    0.96260E-06        -0.21948E-08         0.00000E+00
    0.96194E-06        -0.21615E-08         0.00000E+00
    0.96127E-06        -0.20836E-08         0.00000E+00
    0.96062E-06        -0.19740E-08         0.00000E+00
    0.96001E-06        -0.18393E-08         0.00000E+00
    0.95944E-06        -0.16808E-08         0.00000E+00
    0.95895E-06        -0.14943E-08         0.00000E+00
    0.95854E-06        -0.12687E-08         0.00000E+00
    0.95825E-06        -0.97991E-09         0.00000E+00
    0.95809E-06        -0.57732E-09         0.00000E+00
    0.95807E-06        -0.33902E-09         0.00000E+00
    0.96822E-06        -0.49181E-09         0.00000E+00
    0.96800E-06        -0.74619E-09         0.00000E+00
    0.96743E-06        -0.11038E-08         0.00000E+00
    0.96661E-06        -0.12478E-08         0.00000E+00
    0.96567E-06        -0.12960E-08         0.00000E+00
    0.96467E-06        -0.12918E-08         0.00000E+00
    0.96367E-06        -0.12568E-08         0.00000E+00
    0.96268E-06        -0.12025E-08         0.00000E+00
    0.96174E-06        -0.11353E-08         0.00000E+00
    0.96085E-06        -0.10582E-08         0.00000E+00
    0.96004E-06        -0.97178E-09         0.00000E+00
    0.95930E-06        -0.87386E-09         0.00000E+00
    0.95867E-06        -0.75852E-09         0.00000E+00
    0.95816E-06        -0.61259E-09         0.00000E+00
    0.95783E-06        -0.39890E-09         0.00000E+00
    0.95769E-06        -0.26806E-09         0.00000E+00
    0.97048E-06         0.00000E+00         0.00000E+00
    0.97010E-06         0.00000E+00         0.00000E+00
    0.96928E-06        -0.26500E-20         0.00000E+00
    0.96822E-06         0.35783E-24         0.00000E+00
    0.96705E-06         0.26503E-20         0.00000E+00
    0.96585E-06         0.00000E+00         0.00000E+00
    0.96466E-06         0.00000E+00         0.00000E+00
    0.96351E-06        -0.26514E-20         0.00000E+00
    0.96242E-06        -0.26514E-20         0.00000E+00
    0.96139E-06         0.26517E-20         0.00000E+00
    0.96044E-06         0.26517E-20         0.00000E+00
    0.95958E-06        -0.26521E-20         0.00000E+00
    0.95882E-06        -0.33138E-21         0.00000E+00
    0.95819E-06         0.26523E-20         0.00000E+00
    0.95774E-06         0.66312E-21         0.00000E+00
    0.95752E-06         0.00000E+00         0.00000E+00
CELL_DATA        450
TENSORS stressef double 
    0.30768E+08        -0.34053E+06         0.00000E+00
   -0.34053E+06         0.28255E+07         0.00000E+00
    0.00000E+00         0.00000E+00         0.67187E+07
 
    0.26650E+08        -0.39103E+06         0.00000E+00
   -0.39103E+06         0.22036E+07         0.00000E+00
    0.00000E+00         0.00000E+00         0.57707E+07
 
    0.23788E+08        -0.36000E+06         0.00000E+00
   -0.36000E+06         0.15071E+07         0.00000E+00
    0.00000E+00         0.00000E+00         0.50590E+07
 
    0.21533E+08        -0.32407E+06         0.00000E+00
   -0.32407E+06         0.85317E+06         0.00000E+00
    0.00000E+00         0.00000E+00         0.44773E+07
 
    0.19654E+08        -0.28406E+06         0.00000E+00
   -0.28406E+06         0.26751E+06         0.00000E+00
    0.00000E+00         0.00000E+00         0.39843E+07
 
    0.18018E+08        -0.24145E+06         0.00000E+00
   -0.24145E+06        -0.23925E+06         0.00000E+00
    0.00000E+00         0.00000E+00         0.35558E+07
 
    0.16541E+08        -0.19613E+06         0.00000E+00
   -0.19613E+06        -0.66023E+06         0.00000E+00
    0.00000E+00         0.00000E+00         0.31762E+07
 
    0.15158E+08        -0.14751E+06         0.00000E+00
   -0.14751E+06        -0.98885E+06         0.00000E+00
    0.00000E+00         0.00000E+00         0.28339E+07
 
    0.13815E+08        -0.94465E+05         0.00000E+00
   -0.94465E+05        -0.12172E+07         0.00000E+00
    0.00000E+00         0.00000E+00         0.25196E+07
 
    0.12461E+08        -0.35233E+05         0.00000E+00
   -0.35233E+05        -0.13346E+07         0.00000E+00
    0.00000E+00         0.00000E+00         0.22253E+07
 
    0.11040E+08         0.33127E+05         0.00000E+00
    0.33127E+05        -0.13259E+07         0.00000E+00
    0.00000E+00         0.00000E+00         0.19428E+07
 
    0.94826E+07         0.11590E+06         0.00000E+00
    0.11590E+06        -0.11677E+07         0.00000E+00
    0.00000E+00         0.00000E+00         0.16630E+07
 
    0.76866E+07         0.22459E+06         0.00000E+00
    0.22459E+06        -0.82041E+06         0.00000E+00
    0.00000E+00         0.00000E+00         0.13732E+07
 
    0.54706E+07         0.38532E+06         0.00000E+00
    0.38532E+06        -0.20591E+06         0.00000E+00
    0.00000E+00         0.00000E+00         0.10529E+07
 
    0.23149E+07         0.77053E+06         0.00000E+00
    0.77053E+06         0.89418E+06         0.00000E+00
    0.00000E+00         0.00000E+00         0.64181E+06
 
    0.28119E+08        -0.54174E+06         0.00000E+00
   -0.54174E+06         0.10462E+07         0.00000E+00
    0.00000E+00         0.00000E+00         0.58331E+07
 
    0.24604E+08        -0.94713E+06         0.00000E+00
   -0.94713E+06         0.82812E+06         0.00000E+00
    0.00000E+00         0.00000E+00         0.50864E+07
 
    0.21818E+08        -0.97476E+06         0.00000E+00
   -0.97476E+06         0.38069E+06         0.00000E+00
    0.00000E+00         0.00000E+00         0.44397E+07
 
    0.19591E+08        -0.91001E+06         0.00000E+00
   -0.91001E+06        -0.12662E+06         0.00000E+00
    0.00000E+00         0.00000E+00         0.38929E+07
 
    0.17724E+08        -0.81184E+06         0.00000E+00
   -0.81184E+06        -0.61833E+06         0.00000E+00
    0.00000E+00         0.00000E+00         0.34211E+07
 
    0.16096E+08        -0.69618E+06         0.00000E+00
   -0.69618E+06        -0.10607E+07         0.00000E+00
    0.00000E+00         0.00000E+00         0.30071E+07
 
    0.14626E+08        -0.56770E+06         0.00000E+00
   -0.56770E+06        -0.14353E+07         0.00000E+00
    0.00000E+00         0.00000E+00         0.26382E+07
 
    0.13251E+08        -0.42660E+06         0.00000E+00
   -0.42660E+06        -0.17288E+07         0.00000E+00
    0.00000E+00         0.00000E+00         0.23045E+07
 
    0.11919E+08        -0.27056E+06         0.00000E+00
   -0.27056E+06        -0.19296E+07         0.00000E+00
    0.00000E+00         0.00000E+00         0.19979E+07
 
    0.10580E+08        -0.94776E+05         0.00000E+00
   -0.94776E+05        -0.20245E+07         0.00000E+00
    0.00000E+00         0.00000E+00         0.17111E+07
 
    0.91818E+07         0.10931E+06         0.00000E+00
    0.10931E+06        -0.19964E+07         0.00000E+00
    0.00000E+00         0.00000E+00         0.14371E+07
 
    0.76622E+07         0.35761E+06         0.00000E+00
    0.35761E+06        -0.18209E+07         0.00000E+00
    0.00000E+00         0.00000E+00         0.11683E+07
 
    0.59384E+07         0.68280E+06         0.00000E+00
    0.68280E+06        -0.14591E+07         0.00000E+00
    0.00000E+00         0.00000E+00         0.89587E+06
 
    0.38809E+07         0.11678E+07         0.00000E+00
    0.11678E+07        -0.84342E+06         0.00000E+00
    0.00000E+00         0.00000E+00         0.60750E+06
 
    0.14616E+07         0.20871E+07         0.00000E+00
    0.20871E+07         0.11907E+06         0.00000E+00
    0.00000E+00         0.00000E+00         0.31614E+06
 
    0.25245E+08        -0.55783E+06         0.00000E+00
   -0.55783E+06        -0.91058E+06         0.00000E+00
    0.00000E+00         0.00000E+00         0.48669E+07
 
    0.22356E+08        -0.11786E+07         0.00000E+00
   -0.11786E+07        -0.96529E+06         0.00000E+00
    0.00000E+00         0.00000E+00         0.42782E+07
 
    0.19825E+08        -0.13650E+07         0.00000E+00
   -0.13650E+07        -0.11677E+07         0.00000E+00
    0.00000E+00         0.00000E+00         0.37314E+07
 
    0.17689E+08        -0.13460E+07         0.00000E+00
   -0.13460E+07        -0.14797E+07         0.00000E+00
    0.00000E+00         0.00000E+00         0.32418E+07
 
    0.15865E+08        -0.12354E+07         0.00000E+00
   -0.12354E+07        -0.18276E+07         0.00000E+00
    0.00000E+00         0.00000E+00         0.28074E+07
 
    0.14263E+08        -0.10755E+07         0.00000E+00
   -0.10755E+07        -0.21637E+07         0.00000E+00
    0.00000E+00         0.00000E+00         0.24198E+07
 
    0.12813E+08        -0.88259E+06         0.00000E+00
   -0.88259E+06        -0.24581E+07         0.00000E+00
    0.00000E+00         0.00000E+00         0.20710E+07
 
    0.11459E+08        -0.66167E+06         0.00000E+00
   -0.66167E+06        -0.26898E+07         0.00000E+00
    0.00000E+00         0.00000E+00         0.17538E+07
 
    0.10151E+08        -0.41136E+06         0.00000E+00
   -0.41136E+06        -0.28418E+07         0.00000E+00
    0.00000E+00         0.00000E+00         0.14618E+07
 
    0.88434E+07        -0.12516E+06         0.00000E+00
   -0.12516E+06        -0.28975E+07         0.00000E+00
    0.00000E+00         0.00000E+00         0.11892E+07
 
    0.74920E+07         0.21000E+06         0.00000E+00
    0.21000E+06        -0.28382E+07         0.00000E+00
    0.00000E+00         0.00000E+00         0.93074E+06
 
    0.60475E+07         0.61858E+06         0.00000E+00
    0.61858E+06        -0.26404E+07         0.00000E+00
    0.00000E+00         0.00000E+00         0.68141E+06
 
    0.44567E+07         0.11482E+07         0.00000E+00
    0.11482E+07        -0.22731E+07         0.00000E+00
    0.00000E+00         0.00000E+00         0.43672E+06
 
    0.26903E+07         0.19002E+07         0.00000E+00
    0.19002E+07        -0.17020E+07         0.00000E+00
    0.00000E+00         0.00000E+00         0.19764E+06
 
    0.81274E+06         0.30331E+07         0.00000E+00
    0.30331E+07        -0.95513E+06         0.00000E+00
    0.00000E+00         0.00000E+00        -0.28480E+05
 
    0.22336E+08        -0.54003E+06         0.00000E+00
   -0.54003E+06        -0.28640E+07         0.00000E+00
    0.00000E+00         0.00000E+00         0.38945E+07
 
    0.19963E+08        -0.12449E+07         0.00000E+00
   -0.12449E+07        -0.28569E+07         0.00000E+00
    0.00000E+00         0.00000E+00         0.34212E+07
 
    0.17748E+08        -0.15554E+07         0.00000E+00
   -0.15554E+07        -0.29215E+07         0.00000E+00
    0.00000E+00         0.00000E+00         0.29653E+07
 
    0.15777E+08        -0.16147E+07         0.00000E+00
   -0.16147E+07        -0.30722E+07         0.00000E+00
    0.00000E+00         0.00000E+00         0.25409E+07
 
    0.14041E+08        -0.15279E+07         0.00000E+00
   -0.15279E+07        -0.32766E+07         0.00000E+00
    0.00000E+00         0.00000E+00         0.21528E+07
 
    0.12494E+08        -0.13531E+07         0.00000E+00
   -0.13531E+07        -0.34947E+07         0.00000E+00
    0.00000E+00         0.00000E+00         0.17998E+07
 
    0.11085E+08        -0.11181E+07         0.00000E+00
   -0.11181E+07        -0.36943E+07         0.00000E+00
    0.00000E+00         0.00000E+00         0.14781E+07
 
    0.97675E+07        -0.83409E+06         0.00000E+00
   -0.83409E+06        -0.38503E+07         0.00000E+00
    0.00000E+00         0.00000E+00         0.11834E+07
 
    0.84998E+07        -0.50238E+06         0.00000E+00
   -0.50238E+06        -0.39422E+07         0.00000E+00
    0.00000E+00         0.00000E+00         0.91150E+06
 
    0.72432E+07        -0.11654E+06         0.00000E+00
   -0.11654E+06        -0.39514E+07         0.00000E+00
    0.00000E+00         0.00000E+00         0.65836E+06
 
    0.59617E+07         0.33861E+06         0.00000E+00
    0.33861E+06        -0.38591E+07         0.00000E+00
    0.00000E+00         0.00000E+00         0.42051E+06
 
    0.46226E+07         0.89097E+06         0.00000E+00
    0.89097E+06        -0.36462E+07         0.00000E+00
    0.00000E+00         0.00000E+00         0.19528E+06
 
    0.32050E+07         0.15894E+07         0.00000E+00
    0.15894E+07        -0.32954E+07         0.00000E+00
    0.00000E+00         0.00000E+00        -0.18090E+05
 
    0.17205E+07         0.25086E+07         0.00000E+00
    0.25086E+07        -0.28070E+07         0.00000E+00
    0.00000E+00         0.00000E+00        -0.21730E+06
 
    0.24399E+06         0.37360E+07         0.00000E+00
    0.37360E+07        -0.22212E+07         0.00000E+00
    0.00000E+00         0.00000E+00        -0.39544E+06
 
    0.19459E+08        -0.51139E+06         0.00000E+00
   -0.51139E+06        -0.48008E+07         0.00000E+00
    0.00000E+00         0.00000E+00         0.29317E+07
 
    0.17505E+08        -0.12365E+07         0.00000E+00
   -0.12365E+07        -0.47652E+07         0.00000E+00
    0.00000E+00         0.00000E+00         0.25480E+07
 
    0.15601E+08        -0.16187E+07         0.00000E+00
   -0.16187E+07        -0.47545E+07         0.00000E+00
    0.00000E+00         0.00000E+00         0.21694E+07
 
    0.13834E+08        -0.17454E+07         0.00000E+00
   -0.17454E+07        -0.47970E+07         0.00000E+00
    0.00000E+00         0.00000E+00         0.18073E+07
 
    0.12226E+08        -0.16958E+07         0.00000E+00
   -0.16958E+07        -0.48856E+07         0.00000E+00
    0.00000E+00         0.00000E+00         0.14681E+07
 
    0.10765E+08        -0.15256E+07         0.00000E+00
   -0.15256E+07        -0.49967E+07         0.00000E+00
    0.00000E+00         0.00000E+00         0.11538E+07
 
    0.94219E+07        -0.12672E+07         0.00000E+00
   -0.12672E+07        -0.51040E+07         0.00000E+00
    0.00000E+00         0.00000E+00         0.86358E+06
 
    0.81620E+07        -0.93682E+06         0.00000E+00
   -0.93682E+06        -0.51835E+07         0.00000E+00
    0.00000E+00         0.00000E+00         0.59570E+06
 
    0.69533E+07        -0.53871E+06         0.00000E+00
   -0.53871E+06        -0.52143E+07         0.00000E+00
    0.00000E+00         0.00000E+00         0.34779E+06
 
    0.57658E+07        -0.67999E+05         0.00000E+00
   -0.67999E+05        -0.51780E+07         0.00000E+00
    0.00000E+00         0.00000E+00         0.11756E+06
 
    0.45737E+07         0.48960E+06         0.00000E+00
    0.48960E+06        -0.50580E+07         0.00000E+00
    0.00000E+00         0.00000E+00        -0.96860E+05
 
    0.33591E+07         0.11597E+07         0.00000E+00
    0.11597E+07        -0.48410E+07         0.00000E+00
    0.00000E+00         0.00000E+00        -0.29640E+06
 
    0.21194E+07         0.19811E+07         0.00000E+00
    0.19811E+07        -0.45218E+07         0.00000E+00
    0.00000E+00         0.00000E+00        -0.48048E+06
 
    0.88029E+06         0.30029E+07         0.00000E+00
    0.30029E+07        -0.41120E+07         0.00000E+00
    0.00000E+00         0.00000E+00        -0.64633E+06
 
   -0.29346E+06         0.42725E+07         0.00000E+00
    0.42725E+07        -0.36499E+07         0.00000E+00
    0.00000E+00         0.00000E+00        -0.78868E+06
 
    0.16642E+08        -0.47835E+06         0.00000E+00
   -0.47835E+06        -0.67180E+07         0.00000E+00
    0.00000E+00         0.00000E+00         0.19848E+07
 
    0.15035E+08        -0.11909E+07         0.00000E+00
   -0.11909E+07        -0.66684E+07         0.00000E+00
    0.00000E+00         0.00000E+00         0.16733E+07
 
    0.13417E+08        -0.16065E+07         0.00000E+00
   -0.16065E+07        -0.66157E+07         0.00000E+00
    0.00000E+00         0.00000E+00         0.13602E+07
 
    0.11864E+08        -0.17786E+07         0.00000E+00
   -0.17786E+07        -0.65893E+07         0.00000E+00
    0.00000E+00         0.00000E+00         0.10548E+07
 
    0.10410E+08        -0.17630E+07         0.00000E+00
   -0.17630E+07        -0.65944E+07         0.00000E+00
    0.00000E+00         0.00000E+00         0.76318E+06
 
    0.90627E+07        -0.16050E+07         0.00000E+00
   -0.16050E+07        -0.66203E+07         0.00000E+00
    0.00000E+00         0.00000E+00         0.48849E+06
 
    0.78083E+07        -0.13359E+07         0.00000E+00
   -0.13359E+07        -0.66489E+07         0.00000E+00
    0.00000E+00         0.00000E+00         0.23188E+06
 
    0.66267E+07        -0.97318E+06         0.00000E+00
   -0.97318E+06        -0.66608E+07         0.00000E+00
    0.00000E+00         0.00000E+00        -0.68100E+04
 
    0.54955E+07        -0.52374E+06         0.00000E+00
   -0.52374E+06        -0.66375E+07         0.00000E+00
    0.00000E+00         0.00000E+00        -0.22839E+06
 
    0.43937E+07         0.14977E+05         0.00000E+00
    0.14977E+05        -0.65626E+07         0.00000E+00
    0.00000E+00         0.00000E+00        -0.43378E+06
 
    0.33050E+07         0.65413E+06         0.00000E+00
    0.65413E+06        -0.64231E+07         0.00000E+00
    0.00000E+00         0.00000E+00        -0.62362E+06
 
    0.22218E+07         0.14134E+07         0.00000E+00
    0.14134E+07        -0.62109E+07         0.00000E+00
    0.00000E+00         0.00000E+00        -0.79783E+06
 
    0.11507E+07         0.23198E+07         0.00000E+00
    0.23198E+07        -0.59268E+07         0.00000E+00
    0.00000E+00         0.00000E+00        -0.95522E+06
 
    0.11935E+06         0.34033E+07         0.00000E+00
    0.34033E+07        -0.55854E+07         0.00000E+00
    0.00000E+00         0.00000E+00        -0.10932E+07
 
   -0.81998E+06         0.46878E+07         0.00000E+00
    0.46878E+07        -0.52186E+07         0.00000E+00
    0.00000E+00         0.00000E+00        -0.12077E+07
 
    0.13897E+08        -0.44367E+06         0.00000E+00
   -0.44367E+06        -0.86155E+07         0.00000E+00
    0.00000E+00         0.00000E+00         0.10563E+07
 
    0.12582E+08        -0.11262E+07         0.00000E+00
   -0.11262E+07        -0.85593E+07         0.00000E+00
    0.00000E+00         0.00000E+00         0.80457E+06
 
    0.11222E+08        -0.15500E+07         0.00000E+00
   -0.15500E+07        -0.84836E+07         0.00000E+00
    0.00000E+00         0.00000E+00         0.54764E+06
 
    0.98796E+07        -0.17475E+07         0.00000E+00
   -0.17475E+07        -0.84152E+07         0.00000E+00
    0.00000E+00         0.00000E+00         0.29288E+06
 
    0.85932E+07        -0.17563E+07         0.00000E+00
   -0.17563E+07        -0.83643E+07         0.00000E+00
    0.00000E+00         0.00000E+00         0.45770E+05
 
    0.73776E+07        -0.16109E+07         0.00000E+00
   -0.16109E+07        -0.83283E+07         0.00000E+00
    0.00000E+00         0.00000E+00        -0.19013E+06
 
    0.62324E+07        -0.13377E+07         0.00000E+00
   -0.13377E+07        -0.82965E+07         0.00000E+00
    0.00000E+00         0.00000E+00        -0.41284E+06
 
    0.51477E+07        -0.95351E+06         0.00000E+00
   -0.95351E+06        -0.82549E+07         0.00000E+00
    0.00000E+00         0.00000E+00        -0.62144E+06
 
    0.41105E+07        -0.46637E+06         0.00000E+00
   -0.46637E+06        -0.81889E+07         0.00000E+00
    0.00000E+00         0.00000E+00        -0.81569E+06
 
    0.31079E+07         0.12369E+06         0.00000E+00
    0.12369E+06        -0.80856E+07         0.00000E+00
    0.00000E+00         0.00000E+00        -0.99554E+06
 
    0.21314E+07         0.82371E+06         0.00000E+00
    0.82371E+06        -0.79353E+07         0.00000E+00
    0.00000E+00         0.00000E+00        -0.11608E+07
 
    0.11798E+07         0.16467E+07         0.00000E+00
    0.16467E+07        -0.77336E+07         0.00000E+00
    0.00000E+00         0.00000E+00        -0.13108E+07
 
    0.26368E+06         0.26093E+07         0.00000E+00
    0.26093E+07        -0.74840E+07         0.00000E+00
    0.00000E+00         0.00000E+00        -0.14441E+07
 
   -0.59180E+06         0.37279E+07         0.00000E+00
    0.37279E+07        -0.72004E+07         0.00000E+00
    0.00000E+00         0.00000E+00        -0.15584E+07
 
   -0.13455E+07         0.50120E+07         0.00000E+00
    0.50120E+07        -0.69081E+07         0.00000E+00
    0.00000E+00         0.00000E+00        -0.16507E+07
 
    0.11229E+08        -0.40903E+06         0.00000E+00
   -0.40903E+06        -0.10493E+08         0.00000E+00
    0.00000E+00         0.00000E+00         0.14720E+06
 
    0.10165E+08        -0.10526E+07         0.00000E+00
   -0.10526E+07        -0.10435E+08         0.00000E+00
    0.00000E+00         0.00000E+00        -0.54076E+05
 
    0.90358E+07        -0.14688E+07         0.00000E+00
   -0.14688E+07        -0.10349E+08         0.00000E+00
    0.00000E+00         0.00000E+00        -0.26257E+06
 
    0.78954E+07        -0.16764E+07         0.00000E+00
   -0.16764E+07        -0.10257E+08         0.00000E+00
    0.00000E+00         0.00000E+00        -0.47224E+06
 
    0.67796E+07        -0.16998E+07         0.00000E+00
   -0.16998E+07        -0.10171E+08         0.00000E+00
    0.00000E+00         0.00000E+00        -0.67831E+06
 
    0.57077E+07        -0.15640E+07         0.00000E+00
   -0.15640E+07        -0.10094E+08         0.00000E+00
    0.00000E+00         0.00000E+00        -0.87732E+06
 
    0.46862E+07        -0.12897E+07         0.00000E+00
   -0.12897E+07        -0.10021E+08         0.00000E+00
    0.00000E+00         0.00000E+00        -0.10669E+07
 
    0.37134E+07        -0.89159E+06         0.00000E+00
   -0.89159E+06        -0.99415E+07         0.00000E+00
    0.00000E+00         0.00000E+00        -0.12456E+07
 
    0.27834E+07        -0.37811E+06         0.00000E+00
   -0.37811E+06        -0.98461E+07         0.00000E+00
    0.00000E+00         0.00000E+00        -0.14125E+07
 
    0.18903E+07         0.24852E+06         0.00000E+00
    0.24852E+06        -0.97251E+07         0.00000E+00
    0.00000E+00         0.00000E+00        -0.15670E+07
 
    0.10308E+07         0.99136E+06         0.00000E+00
    0.99136E+06        -0.95721E+07         0.00000E+00
    0.00000E+00         0.00000E+00        -0.17082E+07
 
    0.20808E+06         0.18573E+07         0.00000E+00
    0.18573E+07        -0.93849E+07         0.00000E+00
    0.00000E+00         0.00000E+00        -0.18354E+07
 
   -0.56660E+06         0.28549E+07         0.00000E+00
    0.28549E+07        -0.91681E+07         0.00000E+00
    0.00000E+00         0.00000E+00        -0.19469E+07
 
   -0.12715E+07         0.39909E+07         0.00000E+00
    0.39909E+07        -0.89334E+07         0.00000E+00
    0.00000E+00         0.00000E+00        -0.20410E+07
 
   -0.18750E+07         0.52661E+07         0.00000E+00
    0.52661E+07        -0.87004E+07         0.00000E+00
    0.00000E+00         0.00000E+00        -0.21151E+07
 
    0.86401E+07        -0.37567E+06         0.00000E+00
   -0.37567E+06        -0.12353E+08         0.00000E+00
    0.00000E+00         0.00000E+00        -0.74249E+06
 
    0.77925E+07        -0.97643E+06         0.00000E+00
   -0.97643E+06        -0.12296E+08         0.00000E+00
    0.00000E+00         0.00000E+00        -0.90064E+06
 
    0.68714E+07        -0.13759E+07         0.00000E+00
   -0.13759E+07        -0.12206E+08         0.00000E+00
    0.00000E+00         0.00000E+00        -0.10669E+07
 
    0.59215E+07        -0.15831E+07         0.00000E+00
   -0.15831E+07        -0.12104E+08         0.00000E+00
    0.00000E+00         0.00000E+00        -0.12364E+07
 
    0.49752E+07        -0.16132E+07         0.00000E+00
   -0.16132E+07        -0.12000E+08         0.00000E+00
    0.00000E+00         0.00000E+00        -0.14050E+07
 
    0.40530E+07        -0.14831E+07         0.00000E+00
   -0.14831E+07        -0.11900E+08         0.00000E+00
    0.00000E+00         0.00000E+00        -0.15694E+07
 
    0.31651E+07        -0.12086E+07         0.00000E+00
   -0.12086E+07        -0.11801E+08         0.00000E+00
    0.00000E+00         0.00000E+00        -0.17273E+07
 
    0.23148E+07        -0.80185E+06         0.00000E+00
   -0.80185E+06        -0.11700E+08         0.00000E+00
    0.00000E+00         0.00000E+00        -0.18770E+07
 
    0.15019E+07        -0.27098E+06         0.00000E+00
   -0.27098E+06        -0.11588E+08         0.00000E+00
    0.00000E+00         0.00000E+00        -0.20172E+07
 
    0.72512E+06         0.38013E+06         0.00000E+00
    0.38013E+06        -0.11460E+08         0.00000E+00
    0.00000E+00         0.00000E+00        -0.21469E+07
 
   -0.14773E+05         0.11512E+07         0.00000E+00
    0.11512E+07        -0.11311E+08         0.00000E+00
    0.00000E+00         0.00000E+00        -0.22651E+07
 
   -0.71272E+06         0.20442E+07         0.00000E+00
    0.20442E+07        -0.11142E+08         0.00000E+00
    0.00000E+00         0.00000E+00        -0.23709E+07
 
   -0.13576E+07         0.30615E+07         0.00000E+00
    0.30615E+07        -0.10956E+08         0.00000E+00
    0.00000E+00         0.00000E+00        -0.24627E+07
 
   -0.19316E+07         0.42033E+07         0.00000E+00
    0.42033E+07        -0.10763E+08         0.00000E+00
    0.00000E+00         0.00000E+00        -0.25390E+07
 
   -0.24105E+07         0.54646E+07         0.00000E+00
    0.54646E+07        -0.10579E+08         0.00000E+00
    0.00000E+00         0.00000E+00        -0.25979E+07
 
    0.61265E+07        -0.34457E+06         0.00000E+00
   -0.34457E+06        -0.14193E+08         0.00000E+00
    0.00000E+00         0.00000E+00        -0.16134E+07
 
    0.54689E+07        -0.90244E+06         0.00000E+00
   -0.90244E+06        -0.14140E+08         0.00000E+00
    0.00000E+00         0.00000E+00        -0.17343E+07
 
    0.47360E+07        -0.12803E+07         0.00000E+00
   -0.12803E+07        -0.14054E+08         0.00000E+00
    0.00000E+00         0.00000E+00        -0.18635E+07
 
    0.39652E+07        -0.14807E+07         0.00000E+00
   -0.14807E+07        -0.13950E+08         0.00000E+00
    0.00000E+00         0.00000E+00        -0.19970E+07
 
    0.31847E+07        -0.15116E+07         0.00000E+00
   -0.15116E+07        -0.13841E+08         0.00000E+00
    0.00000E+00         0.00000E+00        -0.21313E+07
 
    0.24142E+07        -0.13842E+07         0.00000E+00
   -0.13842E+07        -0.13732E+08         0.00000E+00
    0.00000E+00         0.00000E+00        -0.22635E+07
 
    0.16656E+07        -0.11096E+07         0.00000E+00
   -0.11096E+07        -0.13623E+08         0.00000E+00
    0.00000E+00         0.00000E+00        -0.23914E+07
 
    0.94513E+06        -0.69772E+06         0.00000E+00
   -0.69772E+06        -0.13512E+08         0.00000E+00
    0.00000E+00         0.00000E+00        -0.25133E+07
 
    0.25588E+06        -0.15617E+06         0.00000E+00
   -0.15617E+06        -0.13395E+08         0.00000E+00
    0.00000E+00         0.00000E+00        -0.26278E+07
 
   -0.40012E+06         0.51010E+06         0.00000E+00
    0.51010E+06        -0.13269E+08         0.00000E+00
    0.00000E+00         0.00000E+00        -0.27338E+07
 
   -0.10197E+07         0.12982E+07         0.00000E+00
    0.12982E+07        -0.13131E+08         0.00000E+00
    0.00000E+00         0.00000E+00        -0.28301E+07
 
   -0.15970E+07         0.22065E+07         0.00000E+00
    0.22065E+07        -0.12982E+08         0.00000E+00
    0.00000E+00         0.00000E+00        -0.29158E+07
 
   -0.21218E+07         0.32328E+07         0.00000E+00
    0.32328E+07        -0.12826E+08         0.00000E+00
    0.00000E+00         0.00000E+00        -0.29896E+07
 
   -0.25797E+07         0.43728E+07         0.00000E+00
    0.43728E+07        -0.12671E+08         0.00000E+00
    0.00000E+00         0.00000E+00        -0.30501E+07
 
   -0.29524E+07         0.56179E+07         0.00000E+00
    0.56179E+07        -0.12527E+08         0.00000E+00
    0.00000E+00         0.00000E+00        -0.30959E+07
 
    0.36839E+07        -0.31660E+06         0.00000E+00
   -0.31660E+06        -0.16017E+08         0.00000E+00
    0.00000E+00         0.00000E+00        -0.24666E+07
 
    0.31944E+07        -0.83404E+06         0.00000E+00
   -0.83404E+06        -0.15969E+08         0.00000E+00
    0.00000E+00         0.00000E+00        -0.25550E+07
 
    0.26331E+07        -0.11890E+07         0.00000E+00
   -0.11890E+07        -0.15890E+08         0.00000E+00
    0.00000E+00         0.00000E+00        -0.26514E+07
 
    0.20307E+07        -0.13790E+07         0.00000E+00
   -0.13790E+07        -0.15793E+08         0.00000E+00
    0.00000E+00         0.00000E+00        -0.27525E+07
 
    0.14111E+07        -0.14072E+07         0.00000E+00
   -0.14072E+07        -0.15688E+08         0.00000E+00
    0.00000E+00         0.00000E+00        -0.28554E+07
 
    0.79209E+06        -0.12800E+07         0.00000E+00
   -0.12800E+07        -0.15580E+08         0.00000E+00
    0.00000E+00         0.00000E+00        -0.29576E+07
 
    0.18553E+06        -0.10053E+07         0.00000E+00
   -0.10053E+07        -0.15472E+08         0.00000E+00
    0.00000E+00         0.00000E+00        -0.30573E+07
 
   -0.40095E+06        -0.59077E+06         0.00000E+00
   -0.59077E+06        -0.15363E+08         0.00000E+00
    0.00000E+00         0.00000E+00        -0.31528E+07
 
   -0.96249E+06        -0.43400E+05         0.00000E+00
   -0.43400E+05        -0.15251E+08         0.00000E+00
    0.00000E+00         0.00000E+00        -0.32427E+07
 
   -0.14952E+07         0.63116E+06         0.00000E+00
    0.63116E+06        -0.15135E+08         0.00000E+00
    0.00000E+00         0.00000E+00        -0.33260E+07
 
   -0.19948E+07         0.14282E+07         0.00000E+00
    0.14282E+07        -0.15013E+08         0.00000E+00
    0.00000E+00         0.00000E+00        -0.34016E+07
 
   -0.24551E+07         0.23434E+07         0.00000E+00
    0.23434E+07        -0.14887E+08         0.00000E+00
    0.00000E+00         0.00000E+00        -0.34685E+07
 
   -0.28675E+07         0.33714E+07         0.00000E+00
    0.33714E+07        -0.14760E+08         0.00000E+00
    0.00000E+00         0.00000E+00        -0.35256E+07
 
   -0.32205E+07         0.45050E+07         0.00000E+00
    0.45050E+07        -0.14639E+08         0.00000E+00
    0.00000E+00         0.00000E+00        -0.35719E+07
 
   -0.35004E+07         0.57332E+07         0.00000E+00
    0.57332E+07        -0.14531E+08         0.00000E+00
    0.00000E+00         0.00000E+00        -0.36062E+07
 
    0.13057E+07        -0.29244E+06         0.00000E+00
   -0.29244E+06        -0.17824E+08         0.00000E+00
    0.00000E+00         0.00000E+00        -0.33036E+07
 
    0.96672E+06        -0.77388E+06         0.00000E+00
   -0.77388E+06        -0.17783E+08         0.00000E+00
    0.00000E+00         0.00000E+00        -0.33633E+07
 
    0.56335E+06        -0.11069E+07         0.00000E+00
   -0.11069E+07        -0.17715E+08         0.00000E+00
    0.00000E+00         0.00000E+00        -0.34303E+07
 
    0.11988E+06        -0.12855E+07         0.00000E+00
   -0.12855E+07        -0.17629E+08         0.00000E+00
    0.00000E+00         0.00000E+00        -0.35019E+07
 
   -0.34400E+06        -0.13091E+07         0.00000E+00
   -0.13091E+07        -0.17535E+08         0.00000E+00
    0.00000E+00         0.00000E+00        -0.35759E+07
 
   -0.81324E+06        -0.11809E+07         0.00000E+00
   -0.11809E+07        -0.17438E+08         0.00000E+00
    0.00000E+00         0.00000E+00        -0.36502E+07
 
   -0.12769E+07        -0.90592E+06         0.00000E+00
   -0.90592E+06        -0.17340E+08         0.00000E+00
    0.00000E+00         0.00000E+00        -0.37233E+07
 
   -0.17274E+07        -0.49045E+06         0.00000E+00
   -0.49045E+06        -0.17241E+08         0.00000E+00
    0.00000E+00         0.00000E+00        -0.37937E+07
 
   -0.21591E+07         0.59310E+05         0.00000E+00
    0.59310E+05        -0.17142E+08         0.00000E+00
    0.00000E+00         0.00000E+00        -0.38602E+07
 
   -0.25675E+07         0.73731E+06         0.00000E+00
    0.73731E+06        -0.17042E+08         0.00000E+00
    0.00000E+00         0.00000E+00        -0.39219E+07
 
   -0.29479E+07         0.15376E+07         0.00000E+00
    0.15376E+07        -0.16941E+08         0.00000E+00
    0.00000E+00         0.00000E+00        -0.39777E+07
 
   -0.32947E+07         0.24541E+07         0.00000E+00
    0.24541E+07        -0.16840E+08         0.00000E+00
    0.00000E+00         0.00000E+00        -0.40269E+07
 
   -0.36006E+07         0.34792E+07         0.00000E+00
    0.34792E+07        -0.16742E+08         0.00000E+00
    0.00000E+00         0.00000E+00        -0.40685E+07
 
   -0.38568E+07         0.46039E+07         0.00000E+00
    0.46039E+07        -0.16652E+08         0.00000E+00
    0.00000E+00         0.00000E+00        -0.41017E+07
 
   -0.40533E+07         0.58157E+07         0.00000E+00
    0.58157E+07        -0.16575E+08         0.00000E+00
    0.00000E+00         0.00000E+00        -0.41257E+07
 
   -0.10162E+07        -0.27266E+06         0.00000E+00
   -0.27266E+06        -0.19615E+08         0.00000E+00
    0.00000E+00         0.00000E+00        -0.41261E+07
 
   -0.12184E+07        -0.72398E+06         0.00000E+00
   -0.72398E+06        -0.19582E+08         0.00000E+00
    0.00000E+00         0.00000E+00        -0.41601E+07
 
   -0.14750E+07        -0.10377E+07         0.00000E+00
   -0.10377E+07        -0.19527E+08         0.00000E+00
    0.00000E+00         0.00000E+00        -0.42004E+07
 
   -0.17674E+07        -0.12055E+07         0.00000E+00
   -0.12055E+07        -0.19457E+08         0.00000E+00
    0.00000E+00         0.00000E+00        -0.42450E+07
 
   -0.20805E+07        -0.12241E+07         0.00000E+00
   -0.12241E+07        -0.19380E+08         0.00000E+00
    0.00000E+00         0.00000E+00        -0.42921E+07
 
   -0.24022E+07        -0.10943E+07         0.00000E+00
   -0.10943E+07        -0.19299E+08         0.00000E+00
    0.00000E+00         0.00000E+00        -0.43403E+07
 
   -0.27234E+07        -0.81933E+06         0.00000E+00
   -0.81933E+06        -0.19217E+08         0.00000E+00
    0.00000E+00         0.00000E+00        -0.43881E+07
 
   -0.30372E+07        -0.40410E+06         0.00000E+00
   -0.40410E+06        -0.19136E+08         0.00000E+00
    0.00000E+00         0.00000E+00        -0.44346E+07
 
   -0.33384E+07         0.14568E+06         0.00000E+00
    0.14568E+06        -0.19055E+08         0.00000E+00
    0.00000E+00         0.00000E+00        -0.44788E+07
 
   -0.36224E+07         0.82380E+06         0.00000E+00
    0.82380E+06        -0.18976E+08         0.00000E+00
    0.00000E+00         0.00000E+00        -0.45197E+07
 
   -0.38848E+07         0.16236E+07         0.00000E+00
    0.16236E+07        -0.18899E+08         0.00000E+00
    0.00000E+00         0.00000E+00        -0.45567E+07
 
   -0.41208E+07         0.25376E+07         0.00000E+00
    0.25376E+07        -0.18824E+08         0.00000E+00
    0.00000E+00         0.00000E+00        -0.45891E+07
 
   -0.43247E+07         0.35573E+07         0.00000E+00
    0.35573E+07        -0.18756E+08         0.00000E+00
    0.00000E+00         0.00000E+00        -0.46161E+07
 
   -0.44900E+07         0.46719E+07         0.00000E+00
    0.46719E+07        -0.18696E+08         0.00000E+00
    0.00000E+00         0.00000E+00        -0.46371E+07
 
   -0.46097E+07         0.58686E+07         0.00000E+00
    0.58686E+07        -0.18648E+08         0.00000E+00
    0.00000E+00         0.00000E+00        -0.46516E+07
 
   -0.32910E+07        -0.25768E+06         0.00000E+00
   -0.25768E+06        -0.21391E+08         0.00000E+00
    0.00000E+00         0.00000E+00        -0.49363E+07
 
   -0.33668E+07        -0.68581E+06         0.00000E+00
   -0.68581E+06        -0.21367E+08         0.00000E+00
    0.00000E+00         0.00000E+00        -0.49468E+07
 
   -0.34849E+07        -0.98425E+06         0.00000E+00
   -0.98425E+06        -0.21327E+08         0.00000E+00
    0.00000E+00         0.00000E+00        -0.49624E+07
 
   -0.36325E+07        -0.11430E+07         0.00000E+00
   -0.11430E+07        -0.21276E+08         0.00000E+00
    0.00000E+00         0.00000E+00        -0.49817E+07
 
   -0.37991E+07        -0.11571E+07         0.00000E+00
   -0.11571E+07        -0.21219E+08         0.00000E+00
    0.00000E+00         0.00000E+00        -0.50035E+07
 
   -0.39757E+07        -0.10259E+07         0.00000E+00
   -0.10259E+07        -0.21158E+08         0.00000E+00
    0.00000E+00         0.00000E+00        -0.50268E+07
 
   -0.41556E+07        -0.75121E+06         0.00000E+00
   -0.75121E+06        -0.21098E+08         0.00000E+00
    0.00000E+00         0.00000E+00        -0.50507E+07
 
   -0.43330E+07        -0.33712E+06         0.00000E+00
   -0.33712E+06        -0.21038E+08         0.00000E+00
    0.00000E+00         0.00000E+00        -0.50743E+07
 
   -0.45037E+07         0.21108E+06         0.00000E+00
    0.21108E+06        -0.20981E+08         0.00000E+00
    0.00000E+00         0.00000E+00        -0.50969E+07
 
   -0.46637E+07         0.88714E+06         0.00000E+00
    0.88714E+06        -0.20926E+08         0.00000E+00
    0.00000E+00         0.00000E+00        -0.51179E+07
 
   -0.48094E+07         0.16840E+07         0.00000E+00
    0.16840E+07        -0.20875E+08         0.00000E+00
    0.00000E+00         0.00000E+00        -0.51368E+07
 
   -0.49369E+07         0.25935E+07         0.00000E+00
    0.25935E+07        -0.20828E+08         0.00000E+00
    0.00000E+00         0.00000E+00        -0.51530E+07
 
   -0.50421E+07         0.36062E+07         0.00000E+00
    0.36062E+07        -0.20788E+08         0.00000E+00
    0.00000E+00         0.00000E+00        -0.51661E+07
 
   -0.51206E+07         0.47109E+07         0.00000E+00
    0.47109E+07        -0.20757E+08         0.00000E+00
    0.00000E+00         0.00000E+00        -0.51756E+07
 
   -0.51677E+07         0.58942E+07         0.00000E+00
    0.58942E+07        -0.20738E+08         0.00000E+00
    0.00000E+00         0.00000E+00        -0.51811E+07
 
   -0.55287E+07        -0.24779E+06         0.00000E+00
   -0.24779E+06        -0.23153E+08         0.00000E+00
    0.00000E+00         0.00000E+00        -0.57363E+07
 
   -0.54852E+07        -0.66035E+06         0.00000E+00
   -0.66035E+06        -0.23139E+08         0.00000E+00
    0.00000E+00         0.00000E+00        -0.57248E+07
 
   -0.54706E+07        -0.94821E+06         0.00000E+00
   -0.94821E+06        -0.23115E+08         0.00000E+00
    0.00000E+00         0.00000E+00        -0.57171E+07
 
   -0.54781E+07        -0.11005E+07         0.00000E+00
   -0.11005E+07        -0.23084E+08         0.00000E+00
    0.00000E+00         0.00000E+00        -0.57123E+07
 
   -0.55013E+07        -0.11114E+07         0.00000E+00
   -0.11114E+07        -0.23049E+08         0.00000E+00
    0.00000E+00         0.00000E+00        -0.57100E+07
 
   -0.55351E+07        -0.97925E+06         0.00000E+00
   -0.97925E+06        -0.23012E+08         0.00000E+00
    0.00000E+00         0.00000E+00        -0.57094E+07
 
   -0.55749E+07        -0.70530E+06         0.00000E+00
   -0.70530E+06        -0.22976E+08         0.00000E+00
    0.00000E+00         0.00000E+00        -0.57101E+07
 
   -0.56168E+07        -0.29307E+06         0.00000E+00
   -0.29307E+06        -0.22941E+08         0.00000E+00
    0.00000E+00         0.00000E+00        -0.57115E+07
 
   -0.56576E+07         0.25242E+06         0.00000E+00
    0.25242E+06        -0.22909E+08         0.00000E+00
    0.00000E+00         0.00000E+00        -0.57132E+07
 
   -0.56945E+07         0.92497E+06         0.00000E+00
    0.92497E+06        -0.22880E+08         0.00000E+00
    0.00000E+00         0.00000E+00        -0.57149E+07
 
   -0.57245E+07         0.17173E+07         0.00000E+00
    0.17173E+07        -0.22856E+08         0.00000E+00
    0.00000E+00         0.00000E+00        -0.57162E+07
 
   -0.57453E+07         0.26210E+07         0.00000E+00
    0.26210E+07        -0.22839E+08         0.00000E+00
    0.00000E+00         0.00000E+00        -0.57168E+07
 
   -0.57541E+07         0.36264E+07         0.00000E+00
    0.36264E+07        -0.22828E+08         0.00000E+00
    0.00000E+00         0.00000E+00        -0.57164E+07
 
   -0.57483E+07         0.47218E+07         0.00000E+00
    0.47218E+07        -0.22825E+08         0.00000E+00
    0.00000E+00         0.00000E+00        -0.57147E+07
 
   -0.57256E+07         0.58939E+07         0.00000E+00
    0.58939E+07        -0.22833E+08         0.00000E+00
    0.00000E+00         0.00000E+00        -0.57117E+07
 
   -0.77400E+07        -0.24314E+06         0.00000E+00
   -0.24314E+06        -0.24902E+08         0.00000E+00
    0.00000E+00         0.00000E+00        -0.65284E+07
 
   -0.75809E+07        -0.64811E+06         0.00000E+00
   -0.64811E+06        -0.24898E+08         0.00000E+00
    0.00000E+00         0.00000E+00        -0.64957E+07
 
   -0.74371E+07        -0.93054E+06         0.00000E+00
   -0.93054E+06        -0.24890E+08         0.00000E+00
    0.00000E+00         0.00000E+00        -0.64654E+07
 
   -0.73071E+07        -0.10794E+07         0.00000E+00
   -0.10794E+07        -0.24880E+08         0.00000E+00
    0.00000E+00         0.00000E+00        -0.64374E+07
 
   -0.71893E+07        -0.10886E+07         0.00000E+00
   -0.10886E+07        -0.24868E+08         0.00000E+00
    0.00000E+00         0.00000E+00        -0.64115E+07
 
   -0.70819E+07        -0.95632E+06         0.00000E+00
   -0.95632E+06        -0.24856E+08         0.00000E+00
    0.00000E+00         0.00000E+00        -0.63876E+07
 
   -0.69830E+07        -0.68363E+06         0.00000E+00
   -0.68363E+06        -0.24845E+08         0.00000E+00
    0.00000E+00         0.00000E+00        -0.63655E+07
 
   -0.68904E+07        -0.27386E+06         0.00000E+00
   -0.27386E+06        -0.24836E+08         0.00000E+00
    0.00000E+00         0.00000E+00        -0.63452E+07
 
   -0.68024E+07         0.26808E+06         0.00000E+00
    0.26808E+06        -0.24830E+08         0.00000E+00
    0.00000E+00         0.00000E+00        -0.63265E+07
 
   -0.67170E+07         0.93605E+06         0.00000E+00
    0.93605E+06        -0.24829E+08         0.00000E+00
    0.00000E+00         0.00000E+00        -0.63092E+07
 
   -0.66325E+07         0.17229E+07         0.00000E+00
    0.17229E+07        -0.24833E+08         0.00000E+00
    0.00000E+00         0.00000E+00        -0.62932E+07
 
   -0.65477E+07         0.26201E+07         0.00000E+00
    0.26201E+07        -0.24844E+08         0.00000E+00
    0.00000E+00         0.00000E+00        -0.62784E+07
 
   -0.64613E+07         0.36181E+07         0.00000E+00
    0.36181E+07        -0.24863E+08         0.00000E+00
    0.00000E+00         0.00000E+00        -0.62648E+07
 
   -0.63728E+07         0.47054E+07         0.00000E+00
    0.47054E+07        -0.24888E+08         0.00000E+00
    0.00000E+00         0.00000E+00        -0.62522E+07
 
   -0.62816E+07         0.58685E+07         0.00000E+00
    0.58685E+07        -0.24922E+08         0.00000E+00
    0.00000E+00         0.00000E+00        -0.62407E+07
 
   -0.99356E+07        -0.24375E+06         0.00000E+00
   -0.24375E+06        -0.26639E+08         0.00000E+00
    0.00000E+00         0.00000E+00        -0.73150E+07
 
   -0.96615E+07        -0.64916E+06         0.00000E+00
   -0.64916E+06        -0.26645E+08         0.00000E+00
    0.00000E+00         0.00000E+00        -0.72612E+07
 
   -0.93893E+07        -0.93137E+06         0.00000E+00
   -0.93137E+06        -0.26653E+08         0.00000E+00
    0.00000E+00         0.00000E+00        -0.72085E+07
 
   -0.91229E+07        -0.10798E+07         0.00000E+00
   -0.10798E+07        -0.26664E+08         0.00000E+00
    0.00000E+00         0.00000E+00        -0.71573E+07
 
   -0.88652E+07        -0.10890E+07         0.00000E+00
   -0.10890E+07        -0.26675E+08         0.00000E+00
    0.00000E+00         0.00000E+00        -0.71080E+07
 
   -0.86179E+07        -0.95742E+06         0.00000E+00
   -0.95742E+06        -0.26687E+08         0.00000E+00
    0.00000E+00         0.00000E+00        -0.70609E+07
 
   -0.83814E+07        -0.68652E+06         0.00000E+00
   -0.68652E+06        -0.26700E+08         0.00000E+00
    0.00000E+00         0.00000E+00        -0.70163E+07
 
   -0.81557E+07        -0.27980E+06         0.00000E+00
   -0.27980E+06        -0.26716E+08         0.00000E+00
    0.00000E+00         0.00000E+00        -0.69744E+07
 
   -0.79399E+07         0.25778E+06         0.00000E+00
    0.25778E+06        -0.26737E+08         0.00000E+00
    0.00000E+00         0.00000E+00        -0.69354E+07
 
   -0.77333E+07         0.92021E+06         0.00000E+00
    0.92021E+06        -0.26763E+08         0.00000E+00
    0.00000E+00         0.00000E+00        -0.68992E+07
 
   -0.75352E+07         0.17006E+07         0.00000E+00
    0.17006E+07        -0.26795E+08         0.00000E+00
    0.00000E+00         0.00000E+00        -0.68661E+07
 
   -0.73454E+07         0.25908E+07         0.00000E+00
    0.25908E+07        -0.26835E+08         0.00000E+00
    0.00000E+00         0.00000E+00        -0.68360E+07
 
   -0.71644E+07         0.35815E+07         0.00000E+00
    0.35815E+07        -0.26882E+08         0.00000E+00
    0.00000E+00         0.00000E+00        -0.68092E+07
 
   -0.69933E+07         0.46617E+07         0.00000E+00
    0.46617E+07        -0.26936E+08         0.00000E+00
    0.00000E+00         0.00000E+00        -0.67858E+07
 
   -0.68336E+07         0.58181E+07         0.00000E+00
    0.58181E+07        -0.26996E+08         0.00000E+00
    0.00000E+00         0.00000E+00        -0.67659E+07
 
   -0.12126E+08        -0.24950E+06         0.00000E+00
   -0.24950E+06        -0.28366E+08         0.00000E+00
    0.00000E+00         0.00000E+00        -0.80984E+07
 
   -0.11735E+08        -0.66312E+06         0.00000E+00
   -0.66312E+06        -0.28381E+08         0.00000E+00
    0.00000E+00         0.00000E+00        -0.80231E+07
 
   -0.11332E+08        -0.95007E+06         0.00000E+00
   -0.95007E+06        -0.28405E+08         0.00000E+00
    0.00000E+00         0.00000E+00        -0.79474E+07
 
   -0.10929E+08        -0.11010E+07         0.00000E+00
   -0.11010E+07        -0.28434E+08         0.00000E+00
    0.00000E+00         0.00000E+00        -0.78726E+07
 
   -0.10531E+08        -0.11115E+07         0.00000E+00
   -0.11115E+07        -0.28466E+08         0.00000E+00
    0.00000E+00         0.00000E+00        -0.77996E+07
 
   -0.10145E+08        -0.98132E+06         0.00000E+00
   -0.98132E+06        -0.28501E+08         0.00000E+00
    0.00000E+00         0.00000E+00        -0.77291E+07
 
   -0.97720E+07        -0.71268E+06         0.00000E+00
   -0.71268E+06        -0.28537E+08         0.00000E+00
    0.00000E+00         0.00000E+00        -0.76618E+07
 
   -0.94144E+07        -0.30965E+06         0.00000E+00
   -0.30965E+06        -0.28576E+08         0.00000E+00
    0.00000E+00         0.00000E+00        -0.75982E+07
 
   -0.90723E+07         0.22263E+06         0.00000E+00
    0.22263E+06        -0.28621E+08         0.00000E+00
    0.00000E+00         0.00000E+00        -0.75387E+07
 
   -0.87456E+07         0.87835E+06         0.00000E+00
    0.87835E+06        -0.28672E+08         0.00000E+00
    0.00000E+00         0.00000E+00        -0.74836E+07
 
   -0.84345E+07         0.16510E+07         0.00000E+00
    0.16510E+07        -0.28731E+08         0.00000E+00
    0.00000E+00         0.00000E+00        -0.74332E+07
 
   -0.81400E+07         0.25333E+07         0.00000E+00
    0.25333E+07        -0.28799E+08         0.00000E+00
    0.00000E+00         0.00000E+00        -0.73878E+07
 
   -0.78639E+07         0.35166E+07         0.00000E+00
    0.35166E+07        -0.28875E+08         0.00000E+00
    0.00000E+00         0.00000E+00        -0.73477E+07
 
   -0.76092E+07         0.45905E+07         0.00000E+00
    0.45905E+07        -0.28957E+08         0.00000E+00
    0.00000E+00         0.00000E+00        -0.73132E+07
 
   -0.73799E+07         0.57426E+07         0.00000E+00
    0.57426E+07        -0.29044E+08         0.00000E+00
    0.00000E+00         0.00000E+00        -0.72847E+07
 
   -0.14322E+08        -0.26014E+06         0.00000E+00
   -0.26014E+06        -0.30083E+08         0.00000E+00
    0.00000E+00         0.00000E+00        -0.88810E+07
 
   -0.13808E+08        -0.68920E+06         0.00000E+00
   -0.68920E+06        -0.30106E+08         0.00000E+00
    0.00000E+00         0.00000E+00        -0.87827E+07
 
   -0.13271E+08        -0.98521E+06         0.00000E+00
   -0.98521E+06        -0.30144E+08         0.00000E+00
    0.00000E+00         0.00000E+00        -0.86831E+07
 
   -0.12728E+08        -0.11408E+07         0.00000E+00
   -0.11408E+07        -0.30191E+08         0.00000E+00
    0.00000E+00         0.00000E+00        -0.85837E+07
 
   -0.12189E+08        -0.11536E+07         0.00000E+00
   -0.11536E+07        -0.30241E+08         0.00000E+00
    0.00000E+00         0.00000E+00        -0.84862E+07
 
   -0.11664E+08        -0.10251E+07         0.00000E+00
   -0.10251E+07        -0.30294E+08         0.00000E+00
    0.00000E+00         0.00000E+00        -0.83916E+07
 
   -0.11156E+08        -0.75916E+06         0.00000E+00
   -0.75916E+06        -0.30350E+08         0.00000E+00
    0.00000E+00         0.00000E+00        -0.83011E+07
 
   -0.10669E+08        -0.36059E+06         0.00000E+00
   -0.36059E+06        -0.30409E+08         0.00000E+00
    0.00000E+00         0.00000E+00        -0.82154E+07
 
   -0.10202E+08         0.16511E+06         0.00000E+00
    0.16511E+06        -0.30474E+08         0.00000E+00
    0.00000E+00         0.00000E+00        -0.81351E+07
 
   -0.97566E+07         0.81238E+06         0.00000E+00
    0.81238E+06        -0.30547E+08         0.00000E+00
    0.00000E+00         0.00000E+00        -0.80608E+07
 
   -0.93331E+07         0.15755E+07         0.00000E+00
    0.15755E+07        -0.30631E+08         0.00000E+00
    0.00000E+00         0.00000E+00        -0.79928E+07
 
   -0.89334E+07         0.24482E+07         0.00000E+00
    0.24482E+07        -0.30725E+08         0.00000E+00
    0.00000E+00         0.00000E+00        -0.79318E+07
 
   -0.85608E+07         0.34233E+07         0.00000E+00
    0.34233E+07        -0.30830E+08         0.00000E+00
    0.00000E+00         0.00000E+00        -0.78781E+07
 
   -0.82204E+07         0.44914E+07         0.00000E+00
    0.44914E+07        -0.30941E+08         0.00000E+00
    0.00000E+00         0.00000E+00        -0.78322E+07
 
   -0.79186E+07         0.56410E+07         0.00000E+00
    0.56410E+07        -0.31056E+08         0.00000E+00
    0.00000E+00         0.00000E+00        -0.77948E+07
 
   -0.16533E+08        -0.27529E+06         0.00000E+00
   -0.27529E+06        -0.31792E+08         0.00000E+00
    0.00000E+00         0.00000E+00        -0.96650E+07
 
   -0.15887E+08        -0.72614E+06         0.00000E+00
   -0.72614E+06        -0.31822E+08         0.00000E+00
    0.00000E+00         0.00000E+00        -0.95418E+07
 
   -0.15209E+08        -0.10345E+07         0.00000E+00
   -0.10345E+07        -0.31872E+08         0.00000E+00
    0.00000E+00         0.00000E+00        -0.94163E+07
 
   -0.14522E+08        -0.11960E+07         0.00000E+00
   -0.11960E+07        -0.31933E+08         0.00000E+00
    0.00000E+00         0.00000E+00        -0.92909E+07
 
   -0.13841E+08        -0.12112E+07         0.00000E+00
   -0.12112E+07        -0.31997E+08         0.00000E+00
    0.00000E+00         0.00000E+00        -0.91676E+07
 
   -0.13177E+08        -0.10843E+07         0.00000E+00
   -0.10843E+07        -0.32063E+08         0.00000E+00
    0.00000E+00         0.00000E+00        -0.90481E+07
 
   -0.12536E+08        -0.82123E+06         0.00000E+00
   -0.82123E+06        -0.32132E+08         0.00000E+00
    0.00000E+00         0.00000E+00        -0.89336E+07
 
   -0.11921E+08        -0.42813E+06         0.00000E+00
   -0.42813E+06        -0.32205E+08         0.00000E+00
    0.00000E+00         0.00000E+00        -0.88251E+07
 
   -0.11332E+08         0.89104E+05         0.00000E+00
    0.89104E+05        -0.32286E+08         0.00000E+00
    0.00000E+00         0.00000E+00        -0.87236E+07
 
   -0.10770E+08         0.72533E+06         0.00000E+00
    0.72533E+06        -0.32378E+08         0.00000E+00
    0.00000E+00         0.00000E+00        -0.86295E+07
 
   -0.10234E+08         0.14760E+07         0.00000E+00
    0.14760E+07        -0.32483E+08         0.00000E+00
    0.00000E+00         0.00000E+00        -0.85435E+07
 
   -0.97285E+07         0.23364E+07         0.00000E+00
    0.23364E+07        -0.32603E+08         0.00000E+00
    0.00000E+00         0.00000E+00        -0.84663E+07
 
   -0.92569E+07         0.33013E+07         0.00000E+00
    0.33013E+07        -0.32735E+08         0.00000E+00
    0.00000E+00         0.00000E+00        -0.83984E+07
 
   -0.88270E+07         0.43632E+07         0.00000E+00
    0.43632E+07        -0.32876E+08         0.00000E+00
    0.00000E+00         0.00000E+00        -0.83406E+07
 
   -0.84483E+07         0.55118E+07         0.00000E+00
    0.55118E+07        -0.33020E+08         0.00000E+00
    0.00000E+00         0.00000E+00        -0.82937E+07
 
   -0.18768E+08        -0.29448E+06         0.00000E+00
   -0.29448E+06        -0.33493E+08         0.00000E+00
    0.00000E+00         0.00000E+00        -0.10452E+08
 
   -0.17977E+08        -0.77218E+06         0.00000E+00
   -0.77218E+06        -0.33530E+08         0.00000E+00
    0.00000E+00         0.00000E+00        -0.10301E+08
 
   -0.17150E+08        -0.10948E+07         0.00000E+00
   -0.10948E+07        -0.33589E+08         0.00000E+00
    0.00000E+00         0.00000E+00        -0.10148E+08
 
   -0.16313E+08        -0.12620E+07         0.00000E+00
   -0.12620E+07        -0.33658E+08         0.00000E+00
    0.00000E+00         0.00000E+00        -0.99942E+07
 
   -0.15487E+08        -0.12785E+07         0.00000E+00
   -0.12785E+07        -0.33731E+08         0.00000E+00
    0.00000E+00         0.00000E+00        -0.98435E+07
 
   -0.14685E+08        -0.11524E+07         0.00000E+00
   -0.11524E+07        -0.33803E+08         0.00000E+00
    0.00000E+00         0.00000E+00        -0.96976E+07
 
   -0.13913E+08        -0.89227E+06         0.00000E+00
   -0.89227E+06        -0.33878E+08         0.00000E+00
    0.00000E+00         0.00000E+00        -0.95581E+07
 
   -0.13174E+08        -0.50603E+06         0.00000E+00
   -0.50603E+06        -0.33957E+08         0.00000E+00
    0.00000E+00         0.00000E+00        -0.94261E+07
 
   -0.12466E+08        -0.48248E+01         0.00000E+00
   -0.48248E+01        -0.34047E+08         0.00000E+00
    0.00000E+00         0.00000E+00        -0.93026E+07
 
   -0.11789E+08         0.62133E+06         0.00000E+00
    0.62133E+06        -0.34152E+08         0.00000E+00
    0.00000E+00         0.00000E+00        -0.91882E+07
 
   -0.11143E+08         0.13550E+07         0.00000E+00
    0.13550E+07        -0.34275E+08         0.00000E+00
    0.00000E+00         0.00000E+00        -0.90836E+07
 
   -0.10530E+08         0.21988E+07         0.00000E+00
    0.21988E+07        -0.34418E+08         0.00000E+00
    0.00000E+00         0.00000E+00        -0.89895E+07
 
   -0.99553E+07         0.31501E+07         0.00000E+00
    0.31501E+07        -0.34578E+08         0.00000E+00
    0.00000E+00         0.00000E+00        -0.89066E+07
 
   -0.94301E+07         0.42041E+07         0.00000E+00
    0.42041E+07        -0.34750E+08         0.00000E+00
    0.00000E+00         0.00000E+00        -0.88361E+07
 
   -0.89675E+07         0.53524E+07         0.00000E+00
    0.53524E+07        -0.34927E+08         0.00000E+00
    0.00000E+00         0.00000E+00        -0.87789E+07
 
   -0.21035E+08        -0.31707E+06         0.00000E+00
   -0.31707E+06        -0.35188E+08         0.00000E+00
    0.00000E+00         0.00000E+00        -0.11245E+08
 
   -0.20083E+08        -0.82506E+06         0.00000E+00
   -0.82506E+06        -0.35230E+08         0.00000E+00
    0.00000E+00         0.00000E+00        -0.11063E+08
 
   -0.19093E+08        -0.11618E+07         0.00000E+00
   -0.11618E+07        -0.35294E+08         0.00000E+00
    0.00000E+00         0.00000E+00        -0.10878E+08
 
   -0.18099E+08        -0.13325E+07         0.00000E+00
   -0.13325E+07        -0.35367E+08         0.00000E+00
    0.00000E+00         0.00000E+00        -0.10693E+08
 
   -0.17126E+08        -0.13478E+07         0.00000E+00
   -0.13478E+07        -0.35439E+08         0.00000E+00
    0.00000E+00         0.00000E+00        -0.10513E+08
 
   -0.16188E+08        -0.12208E+07         0.00000E+00
   -0.12208E+07        -0.35508E+08         0.00000E+00
    0.00000E+00         0.00000E+00        -0.10339E+08
 
   -0.15289E+08        -0.96359E+06         0.00000E+00
   -0.96359E+06        -0.35578E+08         0.00000E+00
    0.00000E+00         0.00000E+00        -0.10173E+08
 
   -0.14431E+08        -0.58621E+06         0.00000E+00
   -0.58621E+06        -0.35654E+08         0.00000E+00
    0.00000E+00         0.00000E+00        -0.10017E+08
 
   -0.13610E+08        -0.95304E+05         0.00000E+00
   -0.95304E+05        -0.35745E+08         0.00000E+00
    0.00000E+00         0.00000E+00        -0.98709E+07
 
   -0.12822E+08         0.50564E+06         0.00000E+00
    0.50564E+06        -0.35856E+08         0.00000E+00
    0.00000E+00         0.00000E+00        -0.97355E+07
 
   -0.12066E+08         0.12159E+07         0.00000E+00
    0.12159E+07        -0.35992E+08         0.00000E+00
    0.00000E+00         0.00000E+00        -0.96116E+07
 
   -0.11343E+08         0.20364E+07         0.00000E+00
    0.20364E+07        -0.36155E+08         0.00000E+00
    0.00000E+00         0.00000E+00        -0.94997E+07
 
   -0.10661E+08         0.29684E+07         0.00000E+00
    0.29684E+07        -0.36344E+08         0.00000E+00
    0.00000E+00         0.00000E+00        -0.94009E+07
 
   -0.10032E+08         0.40110E+07         0.00000E+00
    0.40110E+07        -0.36550E+08         0.00000E+00
    0.00000E+00         0.00000E+00        -0.93165E+07
 
   -0.94753E+07         0.51590E+07         0.00000E+00
    0.51590E+07        -0.36764E+08         0.00000E+00
    0.00000E+00         0.00000E+00        -0.92478E+07
 
   -0.23339E+08        -0.34234E+06         0.00000E+00
   -0.34234E+06        -0.36879E+08         0.00000E+00
    0.00000E+00         0.00000E+00        -0.12044E+08
 
   -0.22206E+08        -0.88179E+06         0.00000E+00
   -0.88179E+06        -0.36923E+08         0.00000E+00
    0.00000E+00         0.00000E+00        -0.11826E+08
 
   -0.21038E+08        -0.12297E+07         0.00000E+00
   -0.12297E+07        -0.36988E+08         0.00000E+00
    0.00000E+00         0.00000E+00        -0.11605E+08
 
   -0.19880E+08        -0.13991E+07         0.00000E+00
   -0.13991E+07        -0.37055E+08         0.00000E+00
    0.00000E+00         0.00000E+00        -0.11387E+08
 
   -0.18758E+08        -0.14088E+07         0.00000E+00
   -0.14088E+07        -0.37116E+08         0.00000E+00
    0.00000E+00         0.00000E+00        -0.11175E+08
 
   -0.17686E+08        -0.12784E+07         0.00000E+00
   -0.12784E+07        -0.37170E+08         0.00000E+00
    0.00000E+00         0.00000E+00        -0.10971E+08
 
   -0.16667E+08        -0.10243E+07         0.00000E+00
   -0.10243E+07        -0.37223E+08         0.00000E+00
    0.00000E+00         0.00000E+00        -0.10778E+08
 
   -0.15698E+08        -0.65872E+06         0.00000E+00
   -0.65872E+06        -0.37285E+08         0.00000E+00
    0.00000E+00         0.00000E+00        -0.10597E+08
 
   -0.14770E+08        -0.18839E+06         0.00000E+00
   -0.18839E+06        -0.37366E+08         0.00000E+00
    0.00000E+00         0.00000E+00        -0.10427E+08
 
   -0.13876E+08         0.38461E+06         0.00000E+00
    0.38461E+06        -0.37475E+08         0.00000E+00
    0.00000E+00         0.00000E+00        -0.10270E+08
 
   -0.13012E+08         0.10624E+07         0.00000E+00
    0.10624E+07        -0.37618E+08         0.00000E+00
    0.00000E+00         0.00000E+00        -0.10126E+08
 
   -0.12178E+08         0.18502E+07         0.00000E+00
    0.18502E+07        -0.37800E+08         0.00000E+00
    0.00000E+00         0.00000E+00        -0.99955E+07
 
   -0.11380E+08         0.27543E+07         0.00000E+00
    0.27543E+07        -0.38017E+08         0.00000E+00
    0.00000E+00         0.00000E+00        -0.98796E+07
 
   -0.10637E+08         0.37797E+07         0.00000E+00
    0.37797E+07        -0.38262E+08         0.00000E+00
    0.00000E+00         0.00000E+00        -0.97796E+07
 
   -0.99711E+07         0.49259E+07         0.00000E+00
    0.49259E+07        -0.38518E+08         0.00000E+00
    0.00000E+00         0.00000E+00        -0.96977E+07
 
   -0.25686E+08        -0.36943E+06         0.00000E+00
   -0.36943E+06        -0.38567E+08         0.00000E+00
    0.00000E+00         0.00000E+00        -0.12850E+08
 
   -0.24343E+08        -0.93844E+06         0.00000E+00
   -0.93844E+06        -0.38611E+08         0.00000E+00
    0.00000E+00         0.00000E+00        -0.12591E+08
 
   -0.22980E+08        -0.12906E+07         0.00000E+00
   -0.12906E+07        -0.38668E+08         0.00000E+00
    0.00000E+00         0.00000E+00        -0.12330E+08
 
   -0.21649E+08        -0.14506E+07         0.00000E+00
   -0.14506E+07        -0.38719E+08         0.00000E+00
    0.00000E+00         0.00000E+00        -0.12074E+08
 
   -0.20378E+08        -0.14484E+07         0.00000E+00
   -0.14484E+07        -0.38754E+08         0.00000E+00
    0.00000E+00         0.00000E+00        -0.11827E+08
 
   -0.19180E+08        -0.13116E+07         0.00000E+00
   -0.13116E+07        -0.38778E+08         0.00000E+00
    0.00000E+00         0.00000E+00        -0.11592E+08
 
   -0.18050E+08        -0.10616E+07         0.00000E+00
   -0.10616E+07        -0.38801E+08         0.00000E+00
    0.00000E+00         0.00000E+00        -0.11370E+08
 
   -0.16980E+08        -0.71204E+06         0.00000E+00
   -0.71204E+06        -0.38835E+08         0.00000E+00
    0.00000E+00         0.00000E+00        -0.11163E+08
 
   -0.15954E+08        -0.26959E+06         0.00000E+00
   -0.26959E+06        -0.38895E+08         0.00000E+00
    0.00000E+00         0.00000E+00        -0.10970E+08
 
   -0.14962E+08         0.26561E+06         0.00000E+00
    0.26561E+06        -0.38992E+08         0.00000E+00
    0.00000E+00         0.00000E+00        -0.10791E+08
 
   -0.13993E+08         0.89910E+06         0.00000E+00
    0.89910E+06        -0.39137E+08         0.00000E+00
    0.00000E+00         0.00000E+00        -0.10626E+08
 
   -0.13045E+08         0.16412E+07         0.00000E+00
    0.16412E+07        -0.39334E+08         0.00000E+00
    0.00000E+00         0.00000E+00        -0.10476E+08
 
   -0.12124E+08         0.25052E+07         0.00000E+00
    0.25052E+07        -0.39581E+08         0.00000E+00
    0.00000E+00         0.00000E+00        -0.10341E+08
 
   -0.11250E+08         0.35039E+07         0.00000E+00
    0.35039E+07        -0.39868E+08         0.00000E+00
    0.00000E+00         0.00000E+00        -0.10224E+08
 
   -0.10455E+08         0.46446E+07         0.00000E+00
    0.46446E+07        -0.40175E+08         0.00000E+00
    0.00000E+00         0.00000E+00        -0.10126E+08
 
   -0.28076E+08        -0.39727E+06         0.00000E+00
   -0.39727E+06        -0.40252E+08         0.00000E+00
    0.00000E+00         0.00000E+00        -0.13666E+08
 
   -0.26490E+08        -0.98950E+06         0.00000E+00
   -0.98950E+06        -0.40292E+08         0.00000E+00
    0.00000E+00         0.00000E+00        -0.13356E+08
 
   -0.24910E+08        -0.13335E+07         0.00000E+00
   -0.13335E+07        -0.40333E+08         0.00000E+00
    0.00000E+00         0.00000E+00        -0.13049E+08
 
   -0.23399E+08        -0.14719E+07         0.00000E+00
   -0.14719E+07        -0.40351E+08         0.00000E+00
    0.00000E+00         0.00000E+00        -0.12750E+08
 
   -0.21985E+08        -0.14499E+07         0.00000E+00
   -0.14499E+07        -0.40343E+08         0.00000E+00
    0.00000E+00         0.00000E+00        -0.12465E+08
 
   -0.20670E+08        -0.13044E+07         0.00000E+00
   -0.13044E+07        -0.40318E+08         0.00000E+00
    0.00000E+00         0.00000E+00        -0.12198E+08
 
   -0.19443E+08        -0.10609E+07         0.00000E+00
   -0.10609E+07        -0.40293E+08         0.00000E+00
    0.00000E+00         0.00000E+00        -0.11947E+08
 
   -0.18285E+08        -0.73375E+06         0.00000E+00
   -0.73375E+06        -0.40286E+08         0.00000E+00
    0.00000E+00         0.00000E+00        -0.11714E+08
 
   -0.17175E+08        -0.32852E+06         0.00000E+00
   -0.32852E+06        -0.40314E+08         0.00000E+00
    0.00000E+00         0.00000E+00        -0.11498E+08
 
   -0.16093E+08         0.15679E+06         0.00000E+00
    0.15679E+06        -0.40390E+08         0.00000E+00
    0.00000E+00         0.00000E+00        -0.11297E+08
 
   -0.15025E+08         0.73120E+06         0.00000E+00
    0.73120E+06        -0.40529E+08         0.00000E+00
    0.00000E+00         0.00000E+00        -0.11111E+08
 
   -0.13962E+08         0.14107E+07         0.00000E+00
    0.14107E+07        -0.40737E+08         0.00000E+00
    0.00000E+00         0.00000E+00        -0.10940E+08
 
   -0.12907E+08         0.22172E+07         0.00000E+00
    0.22172E+07        -0.41015E+08         0.00000E+00
    0.00000E+00         0.00000E+00        -0.10784E+08
 
   -0.11882E+08         0.31751E+07         0.00000E+00
    0.31751E+07        -0.41352E+08         0.00000E+00
    0.00000E+00         0.00000E+00        -0.10647E+08
 
   -0.10930E+08         0.43035E+07         0.00000E+00
    0.43035E+07        -0.41723E+08         0.00000E+00
    0.00000E+00         0.00000E+00        -0.10530E+08
 
   -0.30508E+08        -0.42447E+06         0.00000E+00
   -0.42447E+06        -0.41937E+08         0.00000E+00
    0.00000E+00         0.00000E+00        -0.14489E+08
 
   -0.28633E+08        -0.10264E+07         0.00000E+00
   -0.10264E+07        -0.41966E+08         0.00000E+00
    0.00000E+00         0.00000E+00        -0.14120E+08
 
   -0.26814E+08        -0.13419E+07         0.00000E+00
   -0.13419E+07        -0.41974E+08         0.00000E+00
    0.00000E+00         0.00000E+00        -0.13757E+08
 
   -0.25121E+08        -0.14424E+07         0.00000E+00
   -0.14424E+07        -0.41937E+08         0.00000E+00
    0.00000E+00         0.00000E+00        -0.13411E+08
 
   -0.23573E+08        -0.13929E+07         0.00000E+00
   -0.13929E+07        -0.41861E+08         0.00000E+00
    0.00000E+00         0.00000E+00        -0.13087E+08
 
   -0.22160E+08        -0.12391E+07         0.00000E+00
   -0.12391E+07        -0.41768E+08         0.00000E+00
    0.00000E+00         0.00000E+00        -0.12786E+08
 
   -0.20853E+08        -0.10078E+07         0.00000E+00
   -0.10078E+07        -0.41680E+08         0.00000E+00
    0.00000E+00         0.00000E+00        -0.12507E+08
 
   -0.19624E+08        -0.71195E+06         0.00000E+00
   -0.71195E+06        -0.41619E+08         0.00000E+00
    0.00000E+00         0.00000E+00        -0.12249E+08
 
   -0.18444E+08        -0.35520E+06         0.00000E+00
   -0.35520E+06        -0.41604E+08         0.00000E+00
    0.00000E+00         0.00000E+00        -0.12010E+08
 
   -0.17285E+08         0.66513E+05         0.00000E+00
    0.66513E+05        -0.41651E+08         0.00000E+00
    0.00000E+00         0.00000E+00        -0.11787E+08
 
   -0.16126E+08         0.56489E+06         0.00000E+00
    0.56489E+06        -0.41776E+08         0.00000E+00
    0.00000E+00         0.00000E+00        -0.11580E+08
 
   -0.14948E+08         0.11609E+07         0.00000E+00
    0.11609E+07        -0.41989E+08         0.00000E+00
    0.00000E+00         0.00000E+00        -0.11388E+08
 
   -0.13749E+08         0.18863E+07         0.00000E+00
    0.18863E+07        -0.42299E+08         0.00000E+00
    0.00000E+00         0.00000E+00        -0.11210E+08
 
   -0.12549E+08         0.27816E+07         0.00000E+00
    0.27816E+07        -0.42694E+08         0.00000E+00
    0.00000E+00         0.00000E+00        -0.11049E+08
 
   -0.11398E+08         0.38854E+07         0.00000E+00
    0.38854E+07        -0.43145E+08         0.00000E+00
    0.00000E+00         0.00000E+00        -0.10909E+08
 
   -0.32973E+08        -0.44871E+06         0.00000E+00
   -0.44871E+06        -0.43621E+08         0.00000E+00
    0.00000E+00         0.00000E+00        -0.15319E+08
 
   -0.30749E+08        -0.10338E+07         0.00000E+00
   -0.10338E+07        -0.43628E+08         0.00000E+00
    0.00000E+00         0.00000E+00        -0.14875E+08
 
   -0.28669E+08        -0.12894E+07         0.00000E+00
   -0.12894E+07        -0.43574E+08         0.00000E+00
    0.00000E+00         0.00000E+00        -0.14449E+08
 
   -0.26803E+08        -0.13338E+07         0.00000E+00
   -0.13338E+07        -0.43449E+08         0.00000E+00
    0.00000E+00         0.00000E+00        -0.14050E+08
 
   -0.25146E+08        -0.12543E+07         0.00000E+00
   -0.12543E+07        -0.43278E+08         0.00000E+00
    0.00000E+00         0.00000E+00        -0.13685E+08
 
   -0.23656E+08        -0.10989E+07         0.00000E+00
   -0.10989E+07        -0.43097E+08         0.00000E+00
    0.00000E+00         0.00000E+00        -0.13351E+08
 
   -0.22290E+08        -0.89035E+06         0.00000E+00
   -0.89035E+06        -0.42935E+08         0.00000E+00
    0.00000E+00         0.00000E+00        -0.13045E+08
 
   -0.21009E+08        -0.63766E+06         0.00000E+00
   -0.63766E+06        -0.42812E+08         0.00000E+00
    0.00000E+00         0.00000E+00        -0.12764E+08
 
   -0.19775E+08        -0.34188E+06         0.00000E+00
   -0.34188E+06        -0.42747E+08         0.00000E+00
    0.00000E+00         0.00000E+00        -0.12504E+08
 
   -0.18554E+08         0.23614E+04         0.00000E+00
    0.23614E+04        -0.42758E+08         0.00000E+00
    0.00000E+00         0.00000E+00        -0.12263E+08
 
   -0.17316E+08         0.40754E+06         0.00000E+00
    0.40754E+06        -0.42861E+08         0.00000E+00
    0.00000E+00         0.00000E+00        -0.12035E+08
 
   -0.16031E+08         0.89659E+06         0.00000E+00
    0.89659E+06        -0.43073E+08         0.00000E+00
    0.00000E+00         0.00000E+00        -0.11821E+08
 
   -0.14681E+08         0.15098E+07         0.00000E+00
    0.15098E+07        -0.43410E+08         0.00000E+00
    0.00000E+00         0.00000E+00        -0.11618E+08
 
   -0.13273E+08         0.23087E+07         0.00000E+00
    0.23087E+07        -0.43872E+08         0.00000E+00
    0.00000E+00         0.00000E+00        -0.11429E+08
 
   -0.11870E+08         0.33656E+07         0.00000E+00
    0.33656E+07        -0.44427E+08         0.00000E+00
    0.00000E+00         0.00000E+00        -0.11259E+08
 
   -0.35451E+08        -0.46457E+06         0.00000E+00
   -0.46457E+06        -0.45305E+08         0.00000E+00
    0.00000E+00         0.00000E+00        -0.16151E+08
 
   -0.32797E+08        -0.98015E+06         0.00000E+00
   -0.98015E+06        -0.45261E+08         0.00000E+00
    0.00000E+00         0.00000E+00        -0.15612E+08
 
   -0.30451E+08        -0.11322E+07         0.00000E+00
   -0.11322E+07        -0.45093E+08         0.00000E+00
    0.00000E+00         0.00000E+00        -0.15109E+08
 
   -0.28445E+08        -0.11120E+07         0.00000E+00
   -0.11120E+07        -0.44833E+08         0.00000E+00
    0.00000E+00         0.00000E+00        -0.14656E+08
 
   -0.26711E+08        -0.10140E+07         0.00000E+00
   -0.10140E+07        -0.44543E+08         0.00000E+00
    0.00000E+00         0.00000E+00        -0.14251E+08
 
   -0.25173E+08        -0.87336E+06         0.00000E+00
   -0.87336E+06        -0.44265E+08         0.00000E+00
    0.00000E+00         0.00000E+00        -0.13888E+08
 
   -0.23769E+08        -0.70334E+06         0.00000E+00
   -0.70334E+06        -0.44025E+08         0.00000E+00
    0.00000E+00         0.00000E+00        -0.13559E+08
 
   -0.22453E+08        -0.50776E+06         0.00000E+00
   -0.50776E+06        -0.43840E+08         0.00000E+00
    0.00000E+00         0.00000E+00        -0.13259E+08
 
   -0.21181E+08        -0.28539E+06         0.00000E+00
   -0.28539E+06        -0.43727E+08         0.00000E+00
    0.00000E+00         0.00000E+00        -0.12982E+08
 
   -0.19915E+08        -0.30809E+05         0.00000E+00
   -0.30809E+05        -0.43700E+08         0.00000E+00
    0.00000E+00         0.00000E+00        -0.12723E+08
 
   -0.18615E+08         0.26677E+06         0.00000E+00
    0.26677E+06        -0.43777E+08         0.00000E+00
    0.00000E+00         0.00000E+00        -0.12478E+08
 
   -0.17239E+08         0.62749E+06         0.00000E+00
    0.62749E+06        -0.43977E+08         0.00000E+00
    0.00000E+00         0.00000E+00        -0.12243E+08
 
   -0.15742E+08         0.10907E+07         0.00000E+00
    0.10907E+07        -0.44328E+08         0.00000E+00
    0.00000E+00         0.00000E+00        -0.12014E+08
 
   -0.14099E+08         0.17401E+07         0.00000E+00
    0.17401E+07        -0.44860E+08         0.00000E+00
    0.00000E+00         0.00000E+00        -0.11792E+08
 
   -0.12360E+08         0.27069E+07         0.00000E+00
    0.27069E+07        -0.45549E+08         0.00000E+00
    0.00000E+00         0.00000E+00        -0.11582E+08
 
   -0.37889E+08        -0.45272E+06         0.00000E+00
   -0.45272E+06        -0.46979E+08         0.00000E+00
    0.00000E+00         0.00000E+00        -0.16973E+08
 
   -0.34709E+08        -0.78916E+06         0.00000E+00
   -0.78916E+06        -0.46797E+08         0.00000E+00
    0.00000E+00         0.00000E+00        -0.16301E+08
 
   -0.32149E+08        -0.80902E+06         0.00000E+00
   -0.80902E+06        -0.46424E+08         0.00000E+00
    0.00000E+00         0.00000E+00        -0.15715E+08
 
   -0.30066E+08        -0.75168E+06         0.00000E+00
   -0.75168E+06        -0.46000E+08         0.00000E+00
    0.00000E+00         0.00000E+00        -0.15213E+08
 
   -0.28293E+08        -0.66604E+06         0.00000E+00
   -0.66604E+06        -0.45591E+08         0.00000E+00
    0.00000E+00         0.00000E+00        -0.14777E+08
 
   -0.26730E+08        -0.56506E+06         0.00000E+00
   -0.56506E+06        -0.45224E+08         0.00000E+00
    0.00000E+00         0.00000E+00        -0.14391E+08
 
   -0.25307E+08        -0.45232E+06         0.00000E+00
   -0.45232E+06        -0.44917E+08         0.00000E+00
    0.00000E+00         0.00000E+00        -0.14045E+08
 
   -0.23970E+08        -0.32783E+06         0.00000E+00
   -0.32783E+06        -0.44681E+08         0.00000E+00
    0.00000E+00         0.00000E+00        -0.13730E+08
 
   -0.22675E+08        -0.18957E+06         0.00000E+00
   -0.18957E+06        -0.44528E+08         0.00000E+00
    0.00000E+00         0.00000E+00        -0.13441E+08
 
   -0.21379E+08        -0.33522E+05         0.00000E+00
   -0.33522E+05        -0.44469E+08         0.00000E+00
    0.00000E+00         0.00000E+00        -0.13170E+08
 
   -0.20037E+08         0.14740E+06         0.00000E+00
    0.14740E+06        -0.44521E+08         0.00000E+00
    0.00000E+00         0.00000E+00        -0.12912E+08
 
   -0.18596E+08         0.36632E+06         0.00000E+00
    0.36632E+06        -0.44703E+08         0.00000E+00
    0.00000E+00         0.00000E+00        -0.12660E+08
 
   -0.16987E+08         0.65021E+06         0.00000E+00
    0.65021E+06        -0.45050E+08         0.00000E+00
    0.00000E+00         0.00000E+00        -0.12407E+08
 
   -0.15100E+08         0.10676E+07         0.00000E+00
    0.10676E+07        -0.45619E+08         0.00000E+00
    0.00000E+00         0.00000E+00        -0.12144E+08
 
   -0.12911E+08         0.18460E+07         0.00000E+00
    0.18460E+07        -0.46487E+08         0.00000E+00
    0.00000E+00         0.00000E+00        -0.11880E+08
 
   -0.40129E+08        -0.28565E+06         0.00000E+00
   -0.28565E+06        -0.48491E+08         0.00000E+00
    0.00000E+00         0.00000E+00        -0.17724E+08
 
   -0.36442E+08        -0.32616E+06         0.00000E+00
   -0.32616E+06        -0.47969E+08         0.00000E+00
    0.00000E+00         0.00000E+00        -0.16882E+08
 
   -0.33816E+08        -0.29874E+06         0.00000E+00
   -0.29874E+06        -0.47386E+08         0.00000E+00
    0.00000E+00         0.00000E+00        -0.16240E+08
 
   -0.31708E+08        -0.26749E+06         0.00000E+00
   -0.26749E+06        -0.46839E+08         0.00000E+00
    0.00000E+00         0.00000E+00        -0.15709E+08
 
   -0.29923E+08        -0.23279E+06         0.00000E+00
   -0.23279E+06        -0.46350E+08         0.00000E+00
    0.00000E+00         0.00000E+00        -0.15255E+08
 
   -0.28351E+08        -0.19571E+06         0.00000E+00
   -0.19571E+06        -0.45930E+08         0.00000E+00
    0.00000E+00         0.00000E+00        -0.14856E+08
 
   -0.26919E+08        -0.15605E+06         0.00000E+00
   -0.15605E+06        -0.45584E+08         0.00000E+00
    0.00000E+00         0.00000E+00        -0.14500E+08
 
   -0.25572E+08        -0.11324E+06         0.00000E+00
   -0.11324E+06        -0.45319E+08         0.00000E+00
    0.00000E+00         0.00000E+00        -0.14178E+08
 
   -0.24265E+08        -0.66316E+05         0.00000E+00
   -0.66316E+05        -0.45142E+08         0.00000E+00
    0.00000E+00         0.00000E+00        -0.13882E+08
 
   -0.22954E+08        -0.13794E+05         0.00000E+00
   -0.13794E+05        -0.45065E+08         0.00000E+00
    0.00000E+00         0.00000E+00        -0.13604E+08
 
   -0.21590E+08         0.46757E+05         0.00000E+00
    0.46757E+05        -0.45100E+08         0.00000E+00
    0.00000E+00         0.00000E+00        -0.13338E+08
 
   -0.20116E+08         0.11970E+06         0.00000E+00
    0.11970E+06        -0.45268E+08         0.00000E+00
    0.00000E+00         0.00000E+00        -0.13077E+08
 
   -0.18445E+08         0.21452E+06         0.00000E+00
    0.21452E+06        -0.45603E+08         0.00000E+00
    0.00000E+00         0.00000E+00        -0.12810E+08
 
   -0.16424E+08         0.35283E+06         0.00000E+00
    0.35283E+06        -0.46171E+08         0.00000E+00
    0.00000E+00         0.00000E+00        -0.12519E+08
 
   -0.13624E+08         0.67742E+06         0.00000E+00
    0.67742E+06        -0.47153E+08         0.00000E+00
    0.00000E+00         0.00000E+00        -0.12155E+08
 
TENSORS stresstot double 
   -0.32304E+08        -0.34053E+06         0.00000E+00
   -0.34053E+06        -0.60246E+08         0.00000E+00
    0.00000E+00         0.00000E+00        -0.56353E+08
 
   -0.36425E+08        -0.39103E+06         0.00000E+00
   -0.39103E+06        -0.60872E+08         0.00000E+00
    0.00000E+00         0.00000E+00        -0.57304E+08
 
   -0.39293E+08        -0.36000E+06         0.00000E+00
   -0.36000E+06        -0.61574E+08         0.00000E+00
    0.00000E+00         0.00000E+00        -0.58022E+08
 
   -0.41556E+08        -0.32407E+06         0.00000E+00
   -0.32407E+06        -0.62236E+08         0.00000E+00
    0.00000E+00         0.00000E+00        -0.58612E+08
 
   -0.43444E+08        -0.28406E+06         0.00000E+00
   -0.28406E+06        -0.62831E+08         0.00000E+00
    0.00000E+00         0.00000E+00        -0.59114E+08
 
   -0.45090E+08        -0.24145E+06         0.00000E+00
   -0.24145E+06        -0.63348E+08         0.00000E+00
    0.00000E+00         0.00000E+00        -0.59553E+08
 
   -0.46578E+08        -0.19613E+06         0.00000E+00
   -0.19613E+06        -0.63779E+08         0.00000E+00
    0.00000E+00         0.00000E+00        -0.59943E+08
 
   -0.47971E+08        -0.14751E+06         0.00000E+00
   -0.14751E+06        -0.64118E+08         0.00000E+00
    0.00000E+00         0.00000E+00        -0.60296E+08
 
   -0.49325E+08        -0.94465E+05         0.00000E+00
   -0.94465E+05        -0.64357E+08         0.00000E+00
    0.00000E+00         0.00000E+00        -0.60620E+08
 
   -0.50689E+08        -0.35233E+05         0.00000E+00
   -0.35233E+05        -0.64484E+08         0.00000E+00
    0.00000E+00         0.00000E+00        -0.60924E+08
 
   -0.52119E+08         0.33127E+05         0.00000E+00
    0.33127E+05        -0.64484E+08         0.00000E+00
    0.00000E+00         0.00000E+00        -0.61216E+08
 
   -0.53683E+08         0.11590E+06         0.00000E+00
    0.11590E+06        -0.64334E+08         0.00000E+00
    0.00000E+00         0.00000E+00        -0.61503E+08
 
   -0.55486E+08         0.22459E+06         0.00000E+00
    0.22459E+06        -0.63993E+08         0.00000E+00
    0.00000E+00         0.00000E+00        -0.61799E+08
 
   -0.57706E+08         0.38532E+06         0.00000E+00
    0.38532E+06        -0.63383E+08         0.00000E+00
    0.00000E+00         0.00000E+00        -0.62124E+08
 
   -0.60864E+08         0.77053E+06         0.00000E+00
    0.77053E+06        -0.62285E+08         0.00000E+00
    0.00000E+00         0.00000E+00        -0.62537E+08
 
   -0.32948E+08        -0.54174E+06         0.00000E+00
   -0.54174E+06        -0.60021E+08         0.00000E+00
    0.00000E+00         0.00000E+00        -0.55234E+08
 
   -0.36466E+08        -0.94713E+06         0.00000E+00
   -0.94713E+06        -0.60242E+08         0.00000E+00
    0.00000E+00         0.00000E+00        -0.55984E+08
 
   -0.39258E+08        -0.97476E+06         0.00000E+00
   -0.97476E+06        -0.60695E+08         0.00000E+00
    0.00000E+00         0.00000E+00        -0.56636E+08
 
   -0.41492E+08        -0.91001E+06         0.00000E+00
   -0.91001E+06        -0.61210E+08         0.00000E+00
    0.00000E+00         0.00000E+00        -0.57191E+08
 
   -0.43369E+08        -0.81184E+06         0.00000E+00
   -0.81184E+06        -0.61711E+08         0.00000E+00
    0.00000E+00         0.00000E+00        -0.57672E+08
 
   -0.45006E+08        -0.69618E+06         0.00000E+00
   -0.69618E+06        -0.62163E+08         0.00000E+00
    0.00000E+00         0.00000E+00        -0.58095E+08
 
   -0.46487E+08        -0.56770E+06         0.00000E+00
   -0.56770E+06        -0.62548E+08         0.00000E+00
    0.00000E+00         0.00000E+00        -0.58475E+08
 
   -0.47872E+08        -0.42660E+06         0.00000E+00
   -0.42660E+06        -0.62852E+08         0.00000E+00
    0.00000E+00         0.00000E+00        -0.58819E+08
 
   -0.49214E+08        -0.27056E+06         0.00000E+00
   -0.27056E+06        -0.63063E+08         0.00000E+00
    0.00000E+00         0.00000E+00        -0.59135E+08
 
   -0.50563E+08        -0.94776E+05         0.00000E+00
   -0.94776E+05        -0.63167E+08         0.00000E+00
    0.00000E+00         0.00000E+00        -0.59432E+08
 
   -0.51969E+08         0.10931E+06         0.00000E+00
    0.10931E+06        -0.63148E+08         0.00000E+00
    0.00000E+00         0.00000E+00        -0.59714E+08
 
   -0.53497E+08         0.35761E+06         0.00000E+00
    0.35761E+06        -0.62980E+08         0.00000E+00
    0.00000E+00         0.00000E+00        -0.59990E+08
 
   -0.55226E+08         0.68280E+06         0.00000E+00
    0.68280E+06        -0.62624E+08         0.00000E+00
    0.00000E+00         0.00000E+00        -0.60269E+08
 
   -0.57288E+08         0.11678E+07         0.00000E+00
    0.11678E+07        -0.62012E+08         0.00000E+00
    0.00000E+00         0.00000E+00        -0.60561E+08
 
   -0.59710E+08         0.20871E+07         0.00000E+00
    0.20871E+07        -0.61052E+08         0.00000E+00
    0.00000E+00         0.00000E+00        -0.60855E+08
 
   -0.33839E+08        -0.55783E+06         0.00000E+00
   -0.55783E+06        -0.59995E+08         0.00000E+00
    0.00000E+00         0.00000E+00        -0.54218E+08
 
   -0.36731E+08        -0.11786E+07         0.00000E+00
   -0.11786E+07        -0.60053E+08         0.00000E+00
    0.00000E+00         0.00000E+00        -0.54809E+08
 
   -0.39268E+08        -0.13650E+07         0.00000E+00
   -0.13650E+07        -0.60261E+08         0.00000E+00
    0.00000E+00         0.00000E+00        -0.55362E+08
 
   -0.41412E+08        -0.13460E+07         0.00000E+00
   -0.13460E+07        -0.60580E+08         0.00000E+00
    0.00000E+00         0.00000E+00        -0.55859E+08
 
   -0.43244E+08        -0.12354E+07         0.00000E+00
   -0.12354E+07        -0.60936E+08         0.00000E+00
    0.00000E+00         0.00000E+00        -0.56302E+08
 
   -0.44856E+08        -0.10755E+07         0.00000E+00
   -0.10755E+07        -0.61282E+08         0.00000E+00
    0.00000E+00         0.00000E+00        -0.56699E+08
 
   -0.46315E+08        -0.88259E+06         0.00000E+00
   -0.88259E+06        -0.61586E+08         0.00000E+00
    0.00000E+00         0.00000E+00        -0.57057E+08
 
   -0.47680E+08        -0.66167E+06         0.00000E+00
   -0.66167E+06        -0.61828E+08         0.00000E+00
    0.00000E+00         0.00000E+00        -0.57385E+08
 
   -0.48998E+08        -0.41136E+06         0.00000E+00
   -0.41136E+06        -0.61990E+08         0.00000E+00
    0.00000E+00         0.00000E+00        -0.57686E+08
 
   -0.50314E+08        -0.12516E+06         0.00000E+00
   -0.12516E+06        -0.62055E+08         0.00000E+00
    0.00000E+00         0.00000E+00        -0.57968E+08
 
   -0.51674E+08         0.21000E+06         0.00000E+00
    0.21000E+06        -0.62004E+08         0.00000E+00
    0.00000E+00         0.00000E+00        -0.58235E+08
 
   -0.53126E+08         0.61858E+06         0.00000E+00
    0.61858E+06        -0.61813E+08         0.00000E+00
    0.00000E+00         0.00000E+00        -0.58492E+08
 
   -0.54722E+08         0.11482E+07         0.00000E+00
    0.11482E+07        -0.61452E+08         0.00000E+00
    0.00000E+00         0.00000E+00        -0.58742E+08
 
   -0.56493E+08         0.19002E+07         0.00000E+00
    0.19002E+07        -0.60885E+08         0.00000E+00
    0.00000E+00         0.00000E+00        -0.58985E+08
 
   -0.58372E+08         0.30331E+07         0.00000E+00
    0.30331E+07        -0.60140E+08         0.00000E+00
    0.00000E+00         0.00000E+00        -0.59213E+08
 
   -0.34788E+08        -0.54003E+06         0.00000E+00
   -0.54003E+06        -0.59988E+08         0.00000E+00
    0.00000E+00         0.00000E+00        -0.53229E+08
 
   -0.37164E+08        -0.12449E+07         0.00000E+00
   -0.12449E+07        -0.59984E+08         0.00000E+00
    0.00000E+00         0.00000E+00        -0.53706E+08
 
   -0.39384E+08        -0.15554E+07         0.00000E+00
   -0.15554E+07        -0.60053E+08         0.00000E+00
    0.00000E+00         0.00000E+00        -0.54167E+08
 
   -0.41362E+08        -0.16147E+07         0.00000E+00
   -0.16147E+07        -0.60211E+08         0.00000E+00
    0.00000E+00         0.00000E+00        -0.54598E+08
 
   -0.43106E+08        -0.15279E+07         0.00000E+00
   -0.15279E+07        -0.60424E+08         0.00000E+00
    0.00000E+00         0.00000E+00        -0.54994E+08
 
   -0.44662E+08        -0.13531E+07         0.00000E+00
   -0.13531E+07        -0.60651E+08         0.00000E+00
    0.00000E+00         0.00000E+00        -0.55356E+08
 
   -0.46081E+08        -0.11181E+07         0.00000E+00
   -0.11181E+07        -0.60860E+08         0.00000E+00
    0.00000E+00         0.00000E+00        -0.55688E+08
 
   -0.47408E+08        -0.83409E+06         0.00000E+00
   -0.83409E+06        -0.61026E+08         0.00000E+00
    0.00000E+00         0.00000E+00        -0.55992E+08
 
   -0.48685E+08        -0.50238E+06         0.00000E+00
   -0.50238E+06        -0.61127E+08         0.00000E+00
    0.00000E+00         0.00000E+00        -0.56273E+08
 
   -0.49950E+08        -0.11654E+06         0.00000E+00
   -0.11654E+06        -0.61145E+08         0.00000E+00
    0.00000E+00         0.00000E+00        -0.56535E+08
 
   -0.51240E+08         0.33861E+06         0.00000E+00
    0.33861E+06        -0.61061E+08         0.00000E+00
    0.00000E+00         0.00000E+00        -0.56781E+08
 
   -0.52586E+08         0.89097E+06         0.00000E+00
    0.89097E+06        -0.60855E+08         0.00000E+00
    0.00000E+00         0.00000E+00        -0.57013E+08
 
   -0.54009E+08         0.15894E+07         0.00000E+00
    0.15894E+07        -0.60509E+08         0.00000E+00
    0.00000E+00         0.00000E+00        -0.57232E+08
 
   -0.55497E+08         0.25086E+07         0.00000E+00
    0.25086E+07        -0.60025E+08         0.00000E+00
    0.00000E+00         0.00000E+00        -0.57435E+08
 
   -0.56976E+08         0.37360E+07         0.00000E+00
    0.37360E+07        -0.59441E+08         0.00000E+00
    0.00000E+00         0.00000E+00        -0.57615E+08
 
   -0.35725E+08        -0.51139E+06         0.00000E+00
   -0.51139E+06        -0.59985E+08         0.00000E+00
    0.00000E+00         0.00000E+00        -0.52253E+08
 
   -0.37682E+08        -0.12365E+07         0.00000E+00
   -0.12365E+07        -0.59952E+08         0.00000E+00
    0.00000E+00         0.00000E+00        -0.52639E+08
 
   -0.39591E+08        -0.16187E+07         0.00000E+00
   -0.16187E+07        -0.59947E+08         0.00000E+00
    0.00000E+00         0.00000E+00        -0.53023E+08
 
   -0.41365E+08        -0.17454E+07         0.00000E+00
   -0.17454E+07        -0.59996E+08         0.00000E+00
    0.00000E+00         0.00000E+00        -0.53391E+08
 
   -0.42980E+08        -0.16958E+07         0.00000E+00
   -0.16958E+07        -0.60092E+08         0.00000E+00
    0.00000E+00         0.00000E+00        -0.53738E+08
 
   -0.44450E+08        -0.15256E+07         0.00000E+00
   -0.15256E+07        -0.60212E+08         0.00000E+00
    0.00000E+00         0.00000E+00        -0.54061E+08
 
   -0.45802E+08        -0.12672E+07         0.00000E+00
   -0.12672E+07        -0.60328E+08         0.00000E+00
    0.00000E+00         0.00000E+00        -0.54361E+08
 
   -0.47072E+08        -0.93682E+06         0.00000E+00
   -0.93682E+06        -0.60417E+08         0.00000E+00
    0.00000E+00         0.00000E+00        -0.54638E+08
 
   -0.48289E+08        -0.53871E+06         0.00000E+00
   -0.53871E+06        -0.60457E+08         0.00000E+00
    0.00000E+00         0.00000E+00        -0.54895E+08
 
   -0.49485E+08        -0.67999E+05         0.00000E+00
   -0.67999E+05        -0.60429E+08         0.00000E+00
    0.00000E+00         0.00000E+00        -0.55133E+08
 
   -0.50685E+08         0.48960E+06         0.00000E+00
    0.48960E+06        -0.60317E+08         0.00000E+00
    0.00000E+00         0.00000E+00        -0.55355E+08
 
   -0.51906E+08         0.11597E+07         0.00000E+00
    0.11597E+07        -0.60106E+08         0.00000E+00
    0.00000E+00         0.00000E+00        -0.55562E+08
 
   -0.53151E+08         0.19811E+07         0.00000E+00
    0.19811E+07        -0.59792E+08         0.00000E+00
    0.00000E+00         0.00000E+00        -0.55751E+08
 
   -0.54394E+08         0.30029E+07         0.00000E+00
    0.30029E+07        -0.59386E+08         0.00000E+00
    0.00000E+00         0.00000E+00        -0.55920E+08
 
   -0.55570E+08         0.42725E+07         0.00000E+00
    0.42725E+07        -0.58926E+08         0.00000E+00
    0.00000E+00         0.00000E+00        -0.56065E+08
 
   -0.36624E+08        -0.47835E+06         0.00000E+00
   -0.47835E+06        -0.59984E+08         0.00000E+00
    0.00000E+00         0.00000E+00        -0.51282E+08
 
   -0.38234E+08        -0.11909E+07         0.00000E+00
   -0.11909E+07        -0.59937E+08         0.00000E+00
    0.00000E+00         0.00000E+00        -0.51596E+08
 
   -0.39857E+08        -0.16065E+07         0.00000E+00
   -0.16065E+07        -0.59889E+08         0.00000E+00
    0.00000E+00         0.00000E+00        -0.51913E+08
 
   -0.41416E+08        -0.17786E+07         0.00000E+00
   -0.17786E+07        -0.59869E+08         0.00000E+00
    0.00000E+00         0.00000E+00        -0.52225E+08
 
   -0.42877E+08        -0.17630E+07         0.00000E+00
   -0.17630E+07        -0.59882E+08         0.00000E+00
    0.00000E+00         0.00000E+00        -0.52524E+08
 
   -0.44233E+08        -0.16050E+07         0.00000E+00
   -0.16050E+07        -0.59916E+08         0.00000E+00
    0.00000E+00         0.00000E+00        -0.52807E+08
 
   -0.45496E+08        -0.13359E+07         0.00000E+00
   -0.13359E+07        -0.59953E+08         0.00000E+00
    0.00000E+00         0.00000E+00        -0.53072E+08
 
   -0.46686E+08        -0.97318E+06         0.00000E+00
   -0.97318E+06        -0.59973E+08         0.00000E+00
    0.00000E+00         0.00000E+00        -0.53319E+08
 
   -0.47826E+08        -0.52374E+06         0.00000E+00
   -0.52374E+06        -0.59959E+08         0.00000E+00
    0.00000E+00         0.00000E+00        -0.53549E+08
 
   -0.48935E+08         0.14977E+05         0.00000E+00
    0.14977E+05        -0.59892E+08         0.00000E+00
    0.00000E+00         0.00000E+00        -0.53763E+08
 
   -0.50031E+08         0.65413E+06         0.00000E+00
    0.65413E+06        -0.59759E+08         0.00000E+00
    0.00000E+00         0.00000E+00        -0.53960E+08
 
   -0.51121E+08         0.14134E+07         0.00000E+00
    0.14134E+07        -0.59553E+08         0.00000E+00
    0.00000E+00         0.00000E+00        -0.54140E+08
 
   -0.52197E+08         0.23198E+07         0.00000E+00
    0.23198E+07        -0.59274E+08         0.00000E+00
    0.00000E+00         0.00000E+00        -0.54303E+08
 
   -0.53232E+08         0.34033E+07         0.00000E+00
    0.34033E+07        -0.58936E+08         0.00000E+00
    0.00000E+00         0.00000E+00        -0.54444E+08
 
   -0.54173E+08         0.46878E+07         0.00000E+00
    0.46878E+07        -0.58571E+08         0.00000E+00
    0.00000E+00         0.00000E+00        -0.54561E+08
 
   -0.37472E+08        -0.44367E+06         0.00000E+00
   -0.44367E+06        -0.59984E+08         0.00000E+00
    0.00000E+00         0.00000E+00        -0.50312E+08
 
   -0.38789E+08        -0.11262E+07         0.00000E+00
   -0.11262E+07        -0.59930E+08         0.00000E+00
    0.00000E+00         0.00000E+00        -0.50567E+08
 
   -0.40154E+08        -0.15500E+07         0.00000E+00
   -0.15500E+07        -0.59859E+08         0.00000E+00
    0.00000E+00         0.00000E+00        -0.50828E+08
 
   -0.41502E+08        -0.17475E+07         0.00000E+00
   -0.17475E+07        -0.59796E+08         0.00000E+00
    0.00000E+00         0.00000E+00        -0.51088E+08
 
   -0.42795E+08        -0.17563E+07         0.00000E+00
   -0.17563E+07        -0.59752E+08         0.00000E+00
    0.00000E+00         0.00000E+00        -0.51342E+08
 
   -0.44018E+08        -0.16109E+07         0.00000E+00
   -0.16109E+07        -0.59724E+08         0.00000E+00
    0.00000E+00         0.00000E+00        -0.51586E+08
 
   -0.45172E+08        -0.13377E+07         0.00000E+00
   -0.13377E+07        -0.59700E+08         0.00000E+00
    0.00000E+00         0.00000E+00        -0.51817E+08
 
   -0.46264E+08        -0.95351E+06         0.00000E+00
   -0.95351E+06        -0.59667E+08         0.00000E+00
    0.00000E+00         0.00000E+00        -0.52033E+08
 
   -0.47309E+08        -0.46637E+06         0.00000E+00
   -0.46637E+06        -0.59609E+08         0.00000E+00
    0.00000E+00         0.00000E+00        -0.52236E+08
 
   -0.48319E+08         0.12369E+06         0.00000E+00
    0.12369E+06        -0.59513E+08         0.00000E+00
    0.00000E+00         0.00000E+00        -0.52423E+08
 
   -0.49303E+08         0.82371E+06         0.00000E+00
    0.82371E+06        -0.59369E+08         0.00000E+00
    0.00000E+00         0.00000E+00        -0.52595E+08
 
   -0.50260E+08         0.16467E+07         0.00000E+00
    0.16467E+07        -0.59174E+08         0.00000E+00
    0.00000E+00         0.00000E+00        -0.52751E+08
 
   -0.51181E+08         0.26093E+07         0.00000E+00
    0.26093E+07        -0.58929E+08         0.00000E+00
    0.00000E+00         0.00000E+00        -0.52889E+08
 
   -0.52040E+08         0.37279E+07         0.00000E+00
    0.37279E+07        -0.58648E+08         0.00000E+00
    0.00000E+00         0.00000E+00        -0.53006E+08
 
   -0.52795E+08         0.50120E+07         0.00000E+00
    0.50120E+07        -0.58358E+08         0.00000E+00
    0.00000E+00         0.00000E+00        -0.53100E+08
 
   -0.38262E+08        -0.40903E+06         0.00000E+00
   -0.40903E+06        -0.59985E+08         0.00000E+00
    0.00000E+00         0.00000E+00        -0.49344E+08
 
   -0.39328E+08        -0.10526E+07         0.00000E+00
   -0.10526E+07        -0.59929E+08         0.00000E+00
    0.00000E+00         0.00000E+00        -0.49547E+08
 
   -0.40462E+08        -0.14688E+07         0.00000E+00
   -0.14688E+07        -0.59846E+08         0.00000E+00
    0.00000E+00         0.00000E+00        -0.49760E+08
 
   -0.41607E+08        -0.16764E+07         0.00000E+00
   -0.16764E+07        -0.59759E+08         0.00000E+00
    0.00000E+00         0.00000E+00        -0.49975E+08
 
   -0.42730E+08        -0.16998E+07         0.00000E+00
   -0.16998E+07        -0.59680E+08         0.00000E+00
    0.00000E+00         0.00000E+00        -0.50187E+08
 
   -0.43809E+08        -0.15640E+07         0.00000E+00
   -0.15640E+07        -0.59611E+08         0.00000E+00
    0.00000E+00         0.00000E+00        -0.50394E+08
 
   -0.44837E+08        -0.12897E+07         0.00000E+00
   -0.12897E+07        -0.59544E+08         0.00000E+00
    0.00000E+00         0.00000E+00        -0.50591E+08
 
   -0.45818E+08        -0.89159E+06         0.00000E+00
   -0.89159E+06        -0.59473E+08         0.00000E+00
    0.00000E+00         0.00000E+00        -0.50777E+08
 
   -0.46755E+08        -0.37811E+06         0.00000E+00
   -0.37811E+06        -0.59385E+08         0.00000E+00
    0.00000E+00         0.00000E+00        -0.50951E+08
 
   -0.47655E+08         0.24852E+06         0.00000E+00
    0.24852E+06        -0.59270E+08         0.00000E+00
    0.00000E+00         0.00000E+00        -0.51112E+08
 
   -0.48521E+08         0.99136E+06         0.00000E+00
    0.99136E+06        -0.59124E+08         0.00000E+00
    0.00000E+00         0.00000E+00        -0.51260E+08
 
   -0.49349E+08         0.18573E+07         0.00000E+00
    0.18573E+07        -0.58942E+08         0.00000E+00
    0.00000E+00         0.00000E+00        -0.51392E+08
 
   -0.50128E+08         0.28549E+07         0.00000E+00
    0.28549E+07        -0.58729E+08         0.00000E+00
    0.00000E+00         0.00000E+00        -0.51508E+08
 
   -0.50836E+08         0.39909E+07         0.00000E+00
    0.39909E+07        -0.58498E+08         0.00000E+00
    0.00000E+00         0.00000E+00        -0.51605E+08
 
   -0.51441E+08         0.52661E+07         0.00000E+00
    0.52661E+07        -0.58266E+08         0.00000E+00
    0.00000E+00         0.00000E+00        -0.51681E+08
 
   -0.38993E+08        -0.37567E+06         0.00000E+00
   -0.37567E+06        -0.59985E+08         0.00000E+00
    0.00000E+00         0.00000E+00        -0.48375E+08
 
   -0.39842E+08        -0.97643E+06         0.00000E+00
   -0.97643E+06        -0.59931E+08         0.00000E+00
    0.00000E+00         0.00000E+00        -0.48536E+08
 
   -0.40767E+08        -0.13759E+07         0.00000E+00
   -0.13759E+07        -0.59845E+08         0.00000E+00
    0.00000E+00         0.00000E+00        -0.48705E+08
 
   -0.41722E+08        -0.15831E+07         0.00000E+00
   -0.15831E+07        -0.59747E+08         0.00000E+00
    0.00000E+00         0.00000E+00        -0.48880E+08
 
   -0.42674E+08        -0.16132E+07         0.00000E+00
   -0.16132E+07        -0.59649E+08         0.00000E+00
    0.00000E+00         0.00000E+00        -0.49054E+08
 
   -0.43603E+08        -0.14831E+07         0.00000E+00
   -0.14831E+07        -0.59556E+08         0.00000E+00
    0.00000E+00         0.00000E+00        -0.49225E+08
 
   -0.44498E+08        -0.12086E+07         0.00000E+00
   -0.12086E+07        -0.59464E+08         0.00000E+00
    0.00000E+00         0.00000E+00        -0.49390E+08
 
   -0.45355E+08        -0.80185E+06         0.00000E+00
   -0.80185E+06        -0.59369E+08         0.00000E+00
    0.00000E+00         0.00000E+00        -0.49546E+08
 
   -0.46174E+08        -0.27098E+06         0.00000E+00
   -0.27098E+06        -0.59264E+08         0.00000E+00
    0.00000E+00         0.00000E+00        -0.49693E+08
 
   -0.46957E+08         0.38013E+06         0.00000E+00
    0.38013E+06        -0.59142E+08         0.00000E+00
    0.00000E+00         0.00000E+00        -0.49829E+08
 
   -0.47703E+08         0.11512E+07         0.00000E+00
    0.11512E+07        -0.58999E+08         0.00000E+00
    0.00000E+00         0.00000E+00        -0.49953E+08
 
   -0.48406E+08         0.20442E+07         0.00000E+00
    0.20442E+07        -0.58834E+08         0.00000E+00
    0.00000E+00         0.00000E+00        -0.50064E+08
 
   -0.49054E+08         0.30615E+07         0.00000E+00
    0.30615E+07        -0.58653E+08         0.00000E+00
    0.00000E+00         0.00000E+00        -0.50159E+08
 
   -0.49631E+08         0.42033E+07         0.00000E+00
    0.42033E+07        -0.58463E+08         0.00000E+00
    0.00000E+00         0.00000E+00        -0.50239E+08
 
   -0.50111E+08         0.54646E+07         0.00000E+00
    0.54646E+07        -0.58280E+08         0.00000E+00
    0.00000E+00         0.00000E+00        -0.50299E+08
 
   -0.39667E+08        -0.34457E+06         0.00000E+00
   -0.34457E+06        -0.59987E+08         0.00000E+00
    0.00000E+00         0.00000E+00        -0.47407E+08
 
   -0.40326E+08        -0.90244E+06         0.00000E+00
   -0.90244E+06        -0.59935E+08         0.00000E+00
    0.00000E+00         0.00000E+00        -0.47529E+08
 
   -0.41062E+08        -0.12803E+07         0.00000E+00
   -0.12803E+07        -0.59852E+08         0.00000E+00
    0.00000E+00         0.00000E+00        -0.47662E+08
 
   -0.41838E+08        -0.14807E+07         0.00000E+00
   -0.14807E+07        -0.59753E+08         0.00000E+00
    0.00000E+00         0.00000E+00        -0.47800E+08
 
   -0.42623E+08        -0.15116E+07         0.00000E+00
   -0.15116E+07        -0.59649E+08         0.00000E+00
    0.00000E+00         0.00000E+00        -0.47939E+08
 
   -0.43400E+08        -0.13842E+07         0.00000E+00
   -0.13842E+07        -0.59546E+08         0.00000E+00
    0.00000E+00         0.00000E+00        -0.48077E+08
 
   -0.44154E+08        -0.11096E+07         0.00000E+00
   -0.11096E+07        -0.59443E+08         0.00000E+00
    0.00000E+00         0.00000E+00        -0.48211E+08
 
   -0.44881E+08        -0.69772E+06         0.00000E+00
   -0.69772E+06        -0.59338E+08         0.00000E+00
    0.00000E+00         0.00000E+00        -0.48339E+08
 
   -0.45576E+08        -0.15617E+06         0.00000E+00
   -0.15617E+06        -0.59227E+08         0.00000E+00
    0.00000E+00         0.00000E+00        -0.48460E+08
 
   -0.46238E+08         0.51010E+06         0.00000E+00
    0.51010E+06        -0.59106E+08         0.00000E+00
    0.00000E+00         0.00000E+00        -0.48571E+08
 
   -0.46862E+08         0.12982E+07         0.00000E+00
    0.12982E+07        -0.58974E+08         0.00000E+00
    0.00000E+00         0.00000E+00        -0.48673E+08
 
   -0.47444E+08         0.22065E+07         0.00000E+00
    0.22065E+07        -0.58829E+08         0.00000E+00
    0.00000E+00         0.00000E+00        -0.48763E+08
 
   -0.47972E+08         0.32328E+07         0.00000E+00
    0.32328E+07        -0.58677E+08         0.00000E+00
    0.00000E+00         0.00000E+00        -0.48840E+08
 
   -0.48433E+08         0.43728E+07         0.00000E+00
    0.43728E+07        -0.58524E+08         0.00000E+00
    0.00000E+00         0.00000E+00        -0.48903E+08
 
   -0.48807E+08         0.56179E+07         0.00000E+00
    0.56179E+07        -0.58382E+08         0.00000E+00
    0.00000E+00         0.00000E+00        -0.48950E+08
 
   -0.40288E+08        -0.31660E+06         0.00000E+00
   -0.31660E+06        -0.59988E+08         0.00000E+00
    0.00000E+00         0.00000E+00        -0.46438E+08
 
   -0.40779E+08        -0.83404E+06         0.00000E+00
   -0.83404E+06        -0.59942E+08         0.00000E+00
    0.00000E+00         0.00000E+00        -0.46528E+08
 
   -0.41343E+08        -0.11890E+07         0.00000E+00
   -0.11890E+07        -0.59866E+08         0.00000E+00
    0.00000E+00         0.00000E+00        -0.46627E+08
 
   -0.41949E+08        -0.13790E+07         0.00000E+00
   -0.13790E+07        -0.59773E+08         0.00000E+00
    0.00000E+00         0.00000E+00        -0.46732E+08
 
   -0.42573E+08        -0.14072E+07         0.00000E+00
   -0.14072E+07        -0.59672E+08         0.00000E+00
    0.00000E+00         0.00000E+00        -0.46840E+08
 
   -0.43197E+08        -0.12800E+07         0.00000E+00
   -0.12800E+07        -0.59570E+08         0.00000E+00
    0.00000E+00         0.00000E+00        -0.46947E+08
 
   -0.43809E+08        -0.10053E+07         0.00000E+00
   -0.10053E+07        -0.59467E+08         0.00000E+00
    0.00000E+00         0.00000E+00        -0.47052E+08
 
   -0.44401E+08        -0.59077E+06         0.00000E+00
   -0.59077E+06        -0.59363E+08         0.00000E+00
    0.00000E+00         0.00000E+00        -0.47153E+08
 
   -0.44968E+08        -0.43400E+05         0.00000E+00
   -0.43400E+05        -0.59257E+08         0.00000E+00
    0.00000E+00         0.00000E+00        -0.47248E+08
 
   -0.45506E+08         0.63116E+06         0.00000E+00
    0.63116E+06        -0.59145E+08         0.00000E+00
    0.00000E+00         0.00000E+00        -0.47336E+08
 
   -0.46010E+08         0.14282E+07         0.00000E+00
    0.14282E+07        -0.59028E+08         0.00000E+00
    0.00000E+00         0.00000E+00        -0.47416E+08
 
   -0.46474E+08         0.23434E+07         0.00000E+00
    0.23434E+07        -0.58906E+08         0.00000E+00
    0.00000E+00         0.00000E+00        -0.47487E+08
 
   -0.46889E+08         0.33714E+07         0.00000E+00
    0.33714E+07        -0.58782E+08         0.00000E+00
    0.00000E+00         0.00000E+00        -0.47547E+08
 
   -0.47244E+08         0.45050E+07         0.00000E+00
    0.45050E+07        -0.58663E+08         0.00000E+00
    0.00000E+00         0.00000E+00        -0.47596E+08
 
   -0.47525E+08         0.57332E+07         0.00000E+00
    0.57332E+07        -0.58556E+08         0.00000E+00
    0.00000E+00         0.00000E+00        -0.47631E+08
 
   -0.40861E+08        -0.29244E+06         0.00000E+00
   -0.29244E+06        -0.59990E+08         0.00000E+00
    0.00000E+00         0.00000E+00        -0.45470E+08
 
   -0.41201E+08        -0.77388E+06         0.00000E+00
   -0.77388E+06        -0.59951E+08         0.00000E+00
    0.00000E+00         0.00000E+00        -0.45531E+08
 
   -0.41607E+08        -0.11069E+07         0.00000E+00
   -0.11069E+07        -0.59885E+08         0.00000E+00
    0.00000E+00         0.00000E+00        -0.45601E+08
 
   -0.42054E+08        -0.12855E+07         0.00000E+00
   -0.12855E+07        -0.59803E+08         0.00000E+00
    0.00000E+00         0.00000E+00        -0.45676E+08
 
   -0.42522E+08        -0.13091E+07         0.00000E+00
   -0.13091E+07        -0.59713E+08         0.00000E+00
    0.00000E+00         0.00000E+00        -0.45754E+08
 
   -0.42995E+08        -0.11809E+07         0.00000E+00
   -0.11809E+07        -0.59620E+08         0.00000E+00
    0.00000E+00         0.00000E+00        -0.45832E+08
 
   -0.43464E+08        -0.90592E+06         0.00000E+00
   -0.90592E+06        -0.59526E+08         0.00000E+00
    0.00000E+00         0.00000E+00        -0.45910E+08
 
   -0.43919E+08        -0.49045E+06         0.00000E+00
   -0.49045E+06        -0.59432E+08         0.00000E+00
    0.00000E+00         0.00000E+00        -0.45985E+08
 
   -0.44355E+08         0.59310E+05         0.00000E+00
    0.59310E+05        -0.59338E+08         0.00000E+00
    0.00000E+00         0.00000E+00        -0.46056E+08
 
   -0.44767E+08         0.73731E+06         0.00000E+00
    0.73731E+06        -0.59242E+08         0.00000E+00
    0.00000E+00         0.00000E+00        -0.46122E+08
 
   -0.45152E+08         0.15376E+07         0.00000E+00
    0.15376E+07        -0.59144E+08         0.00000E+00
    0.00000E+00         0.00000E+00        -0.46181E+08
 
   -0.45502E+08         0.24541E+07         0.00000E+00
    0.24541E+07        -0.59046E+08         0.00000E+00
    0.00000E+00         0.00000E+00        -0.46234E+08
 
   -0.45810E+08         0.34792E+07         0.00000E+00
    0.34792E+07        -0.58951E+08         0.00000E+00
    0.00000E+00         0.00000E+00        -0.46278E+08
 
   -0.46068E+08         0.46039E+07         0.00000E+00
    0.46039E+07        -0.58863E+08         0.00000E+00
    0.00000E+00         0.00000E+00        -0.46313E+08
 
   -0.46266E+08         0.58157E+07         0.00000E+00
    0.58157E+07        -0.58788E+08         0.00000E+00
    0.00000E+00         0.00000E+00        -0.46338E+08
 
   -0.41394E+08        -0.27266E+06         0.00000E+00
   -0.27266E+06        -0.59992E+08         0.00000E+00
    0.00000E+00         0.00000E+00        -0.44504E+08
 
   -0.41597E+08        -0.72398E+06         0.00000E+00
   -0.72398E+06        -0.59961E+08         0.00000E+00
    0.00000E+00         0.00000E+00        -0.44539E+08
 
   -0.41856E+08        -0.10377E+07         0.00000E+00
   -0.10377E+07        -0.59908E+08         0.00000E+00
    0.00000E+00         0.00000E+00        -0.44581E+08
 
   -0.42151E+08        -0.12055E+07         0.00000E+00
   -0.12055E+07        -0.59841E+08         0.00000E+00
    0.00000E+00         0.00000E+00        -0.44629E+08
 
   -0.42467E+08        -0.12241E+07         0.00000E+00
   -0.12241E+07        -0.59767E+08         0.00000E+00
    0.00000E+00         0.00000E+00        -0.44679E+08
 
   -0.42793E+08        -0.10943E+07         0.00000E+00
   -0.10943E+07        -0.59690E+08         0.00000E+00
    0.00000E+00         0.00000E+00        -0.44731E+08
 
   -0.43118E+08        -0.81933E+06         0.00000E+00
   -0.81933E+06        -0.59611E+08         0.00000E+00
    0.00000E+00         0.00000E+00        -0.44782E+08
 
   -0.43435E+08        -0.40410E+06         0.00000E+00
   -0.40410E+06        -0.59534E+08         0.00000E+00
    0.00000E+00         0.00000E+00        -0.44833E+08
 
   -0.43740E+08         0.14568E+06         0.00000E+00
    0.14568E+06        -0.59457E+08         0.00000E+00
    0.00000E+00         0.00000E+00        -0.44880E+08
 
   -0.44027E+08         0.82380E+06         0.00000E+00
    0.82380E+06        -0.59381E+08         0.00000E+00
    0.00000E+00         0.00000E+00        -0.44925E+08
 
   -0.44293E+08         0.16236E+07         0.00000E+00
    0.16236E+07        -0.59307E+08         0.00000E+00
    0.00000E+00         0.00000E+00        -0.44965E+08
 
   -0.44531E+08         0.25376E+07         0.00000E+00
    0.25376E+07        -0.59235E+08         0.00000E+00
    0.00000E+00         0.00000E+00        -0.45000E+08
 
   -0.44738E+08         0.35573E+07         0.00000E+00
    0.35573E+07        -0.59168E+08         0.00000E+00
    0.00000E+00         0.00000E+00        -0.45029E+08
 
   -0.44904E+08         0.46719E+07         0.00000E+00
    0.46719E+07        -0.59110E+08         0.00000E+00
    0.00000E+00         0.00000E+00        -0.45051E+08
 
   -0.45025E+08         0.58686E+07         0.00000E+00
    0.58686E+07        -0.59064E+08         0.00000E+00
    0.00000E+00         0.00000E+00        -0.45067E+08
 
   -0.41895E+08        -0.25768E+06         0.00000E+00
   -0.25768E+06        -0.59994E+08         0.00000E+00
    0.00000E+00         0.00000E+00        -0.43540E+08
 
   -0.41972E+08        -0.68581E+06         0.00000E+00
   -0.68581E+06        -0.59972E+08         0.00000E+00
    0.00000E+00         0.00000E+00        -0.43552E+08
 
   -0.42091E+08        -0.98425E+06         0.00000E+00
   -0.98425E+06        -0.59933E+08         0.00000E+00
    0.00000E+00         0.00000E+00        -0.43569E+08
 
   -0.42241E+08        -0.11430E+07         0.00000E+00
   -0.11430E+07        -0.59884E+08         0.00000E+00
    0.00000E+00         0.00000E+00        -0.43590E+08
 
   -0.42410E+08        -0.11571E+07         0.00000E+00
   -0.11571E+07        -0.59830E+08         0.00000E+00
    0.00000E+00         0.00000E+00        -0.43615E+08
 
   -0.42589E+08        -0.10259E+07         0.00000E+00
   -0.10259E+07        -0.59772E+08         0.00000E+00
    0.00000E+00         0.00000E+00        -0.43641E+08
 
   -0.42772E+08        -0.75121E+06         0.00000E+00
   -0.75121E+06        -0.59715E+08         0.00000E+00
    0.00000E+00         0.00000E+00        -0.43667E+08
 
   -0.42953E+08        -0.33712E+06         0.00000E+00
   -0.33712E+06        -0.59658E+08         0.00000E+00
    0.00000E+00         0.00000E+00        -0.43694E+08
 
   -0.43126E+08         0.21108E+06         0.00000E+00
    0.21108E+06        -0.59603E+08         0.00000E+00
    0.00000E+00         0.00000E+00        -0.43719E+08
 
   -0.43289E+08         0.88714E+06         0.00000E+00
    0.88714E+06        -0.59551E+08         0.00000E+00
    0.00000E+00         0.00000E+00        -0.43743E+08
 
   -0.43437E+08         0.16840E+07         0.00000E+00
    0.16840E+07        -0.59502E+08         0.00000E+00
    0.00000E+00         0.00000E+00        -0.43764E+08
 
   -0.43566E+08         0.25935E+07         0.00000E+00
    0.25935E+07        -0.59458E+08         0.00000E+00
    0.00000E+00         0.00000E+00        -0.43782E+08
 
   -0.43673E+08         0.36062E+07         0.00000E+00
    0.36062E+07        -0.59419E+08         0.00000E+00
    0.00000E+00         0.00000E+00        -0.43797E+08
 
   -0.43753E+08         0.47109E+07         0.00000E+00
    0.47109E+07        -0.59390E+08         0.00000E+00
    0.00000E+00         0.00000E+00        -0.43808E+08
 
   -0.43800E+08         0.58942E+07         0.00000E+00
    0.58942E+07        -0.59371E+08         0.00000E+00
    0.00000E+00         0.00000E+00        -0.43814E+08
 
   -0.42373E+08        -0.24779E+06         0.00000E+00
   -0.24779E+06        -0.59997E+08         0.00000E+00
    0.00000E+00         0.00000E+00        -0.42580E+08
 
   -0.42330E+08        -0.66035E+06         0.00000E+00
   -0.66035E+06        -0.59983E+08         0.00000E+00
    0.00000E+00         0.00000E+00        -0.42569E+08
 
   -0.42316E+08        -0.94821E+06         0.00000E+00
   -0.94821E+06        -0.59960E+08         0.00000E+00
    0.00000E+00         0.00000E+00        -0.42563E+08
 
   -0.42325E+08        -0.11005E+07         0.00000E+00
   -0.11005E+07        -0.59931E+08         0.00000E+00
    0.00000E+00         0.00000E+00        -0.42560E+08
 
   -0.42350E+08        -0.11114E+07         0.00000E+00
   -0.11114E+07        -0.59898E+08         0.00000E+00
    0.00000E+00         0.00000E+00        -0.42559E+08
 
   -0.42386E+08        -0.97925E+06         0.00000E+00
   -0.97925E+06        -0.59863E+08         0.00000E+00
    0.00000E+00         0.00000E+00        -0.42560E+08
 
   -0.42428E+08        -0.70530E+06         0.00000E+00
   -0.70530E+06        -0.59829E+08         0.00000E+00
    0.00000E+00         0.00000E+00        -0.42563E+08
 
   -0.42472E+08        -0.29307E+06         0.00000E+00
   -0.29307E+06        -0.59796E+08         0.00000E+00
    0.00000E+00         0.00000E+00        -0.42566E+08
 
   -0.42515E+08         0.25242E+06         0.00000E+00
    0.25242E+06        -0.59765E+08         0.00000E+00
    0.00000E+00         0.00000E+00        -0.42570E+08
 
   -0.42553E+08         0.92497E+06         0.00000E+00
    0.92497E+06        -0.59739E+08         0.00000E+00
    0.00000E+00         0.00000E+00        -0.42574E+08
 
   -0.42585E+08         0.17173E+07         0.00000E+00
    0.17173E+07        -0.59717E+08         0.00000E+00
    0.00000E+00         0.00000E+00        -0.42577E+08
 
   -0.42607E+08         0.26210E+07         0.00000E+00
    0.26210E+07        -0.59700E+08         0.00000E+00
    0.00000E+00         0.00000E+00        -0.42579E+08
 
   -0.42617E+08         0.36264E+07         0.00000E+00
    0.36264E+07        -0.59691E+08         0.00000E+00
    0.00000E+00         0.00000E+00        -0.42579E+08
 
   -0.42612E+08         0.47218E+07         0.00000E+00
    0.47218E+07        -0.59689E+08         0.00000E+00
    0.00000E+00         0.00000E+00        -0.42578E+08
 
   -0.42590E+08         0.58939E+07         0.00000E+00
    0.58939E+07        -0.59697E+08         0.00000E+00
    0.00000E+00         0.00000E+00        -0.42576E+08
 
   -0.42837E+08        -0.24314E+06         0.00000E+00
   -0.24314E+06        -0.59999E+08         0.00000E+00
    0.00000E+00         0.00000E+00        -0.41625E+08
 
   -0.42678E+08        -0.64811E+06         0.00000E+00
   -0.64811E+06        -0.59995E+08         0.00000E+00
    0.00000E+00         0.00000E+00        -0.41593E+08
 
   -0.42535E+08        -0.93054E+06         0.00000E+00
   -0.93054E+06        -0.59988E+08         0.00000E+00
    0.00000E+00         0.00000E+00        -0.41564E+08
 
   -0.42406E+08        -0.10794E+07         0.00000E+00
   -0.10794E+07        -0.59979E+08         0.00000E+00
    0.00000E+00         0.00000E+00        -0.41536E+08
 
   -0.42289E+08        -0.10886E+07         0.00000E+00
   -0.10886E+07        -0.59968E+08         0.00000E+00
    0.00000E+00         0.00000E+00        -0.41511E+08
 
   -0.42183E+08        -0.95632E+06         0.00000E+00
   -0.95632E+06        -0.59957E+08         0.00000E+00
    0.00000E+00         0.00000E+00        -0.41489E+08
 
   -0.42085E+08        -0.68363E+06         0.00000E+00
   -0.68363E+06        -0.59947E+08         0.00000E+00
    0.00000E+00         0.00000E+00        -0.41468E+08
 
   -0.41994E+08        -0.27386E+06         0.00000E+00
   -0.27386E+06        -0.59939E+08         0.00000E+00
    0.00000E+00         0.00000E+00        -0.41448E+08
 
   -0.41907E+08         0.26808E+06         0.00000E+00
    0.26808E+06        -0.59934E+08         0.00000E+00
    0.00000E+00         0.00000E+00        -0.41431E+08
 
   -0.41822E+08         0.93605E+06         0.00000E+00
    0.93605E+06        -0.59934E+08         0.00000E+00
    0.00000E+00         0.00000E+00        -0.41414E+08
 
   -0.41739E+08         0.17229E+07         0.00000E+00
    0.17229E+07        -0.59940E+08         0.00000E+00
    0.00000E+00         0.00000E+00        -0.41399E+08
 
   -0.41655E+08         0.26201E+07         0.00000E+00
    0.26201E+07        -0.59951E+08         0.00000E+00
    0.00000E+00         0.00000E+00        -0.41385E+08
 
   -0.41569E+08         0.36181E+07         0.00000E+00
    0.36181E+07        -0.59970E+08         0.00000E+00
    0.00000E+00         0.00000E+00        -0.41372E+08
 
   -0.41481E+08         0.47054E+07         0.00000E+00
    0.47054E+07        -0.59996E+08         0.00000E+00
    0.00000E+00         0.00000E+00        -0.41360E+08
 
   -0.41390E+08         0.58685E+07         0.00000E+00
    0.58685E+07        -0.60030E+08         0.00000E+00
    0.00000E+00         0.00000E+00        -0.41349E+08
 
   -0.43298E+08        -0.24375E+06         0.00000E+00
   -0.24375E+06        -0.60001E+08         0.00000E+00
    0.00000E+00         0.00000E+00        -0.40677E+08
 
   -0.43024E+08        -0.64916E+06         0.00000E+00
   -0.64916E+06        -0.60007E+08         0.00000E+00
    0.00000E+00         0.00000E+00        -0.40623E+08
 
   -0.42752E+08        -0.93137E+06         0.00000E+00
   -0.93137E+06        -0.60016E+08         0.00000E+00
    0.00000E+00         0.00000E+00        -0.40571E+08
 
   -0.42485E+08        -0.10798E+07         0.00000E+00
   -0.10798E+07        -0.60026E+08         0.00000E+00
    0.00000E+00         0.00000E+00        -0.40520E+08
 
   -0.42228E+08        -0.10890E+07         0.00000E+00
   -0.10890E+07        -0.60037E+08         0.00000E+00
    0.00000E+00         0.00000E+00        -0.40471E+08
 
   -0.41981E+08        -0.95742E+06         0.00000E+00
   -0.95742E+06        -0.60050E+08         0.00000E+00
    0.00000E+00         0.00000E+00        -0.40424E+08
 
   -0.41745E+08        -0.68652E+06         0.00000E+00
   -0.68652E+06        -0.60063E+08         0.00000E+00
    0.00000E+00         0.00000E+00        -0.40379E+08
 
   -0.41519E+08        -0.27980E+06         0.00000E+00
   -0.27980E+06        -0.60080E+08         0.00000E+00
    0.00000E+00         0.00000E+00        -0.40338E+08
 
   -0.41303E+08         0.25778E+06         0.00000E+00
    0.25778E+06        -0.60100E+08         0.00000E+00
    0.00000E+00         0.00000E+00        -0.40299E+08
 
   -0.41097E+08         0.92021E+06         0.00000E+00
    0.92021E+06        -0.60126E+08         0.00000E+00
    0.00000E+00         0.00000E+00        -0.40263E+08
 
   -0.40899E+08         0.17006E+07         0.00000E+00
    0.17006E+07        -0.60159E+08         0.00000E+00
    0.00000E+00         0.00000E+00        -0.40230E+08
 
   -0.40709E+08         0.25908E+07         0.00000E+00
    0.25908E+07        -0.60199E+08         0.00000E+00
    0.00000E+00         0.00000E+00        -0.40200E+08
 
   -0.40528E+08         0.35815E+07         0.00000E+00
    0.35815E+07        -0.60246E+08         0.00000E+00
    0.00000E+00         0.00000E+00        -0.40173E+08
 
   -0.40357E+08         0.46617E+07         0.00000E+00
    0.46617E+07        -0.60300E+08         0.00000E+00
    0.00000E+00         0.00000E+00        -0.40150E+08
 
   -0.40198E+08         0.58181E+07         0.00000E+00
    0.58181E+07        -0.60360E+08         0.00000E+00
    0.00000E+00         0.00000E+00        -0.40130E+08
 
   -0.43764E+08        -0.24950E+06         0.00000E+00
   -0.24950E+06        -0.60004E+08         0.00000E+00
    0.00000E+00         0.00000E+00        -0.39736E+08
 
   -0.43372E+08        -0.66312E+06         0.00000E+00
   -0.66312E+06        -0.60018E+08         0.00000E+00
    0.00000E+00         0.00000E+00        -0.39660E+08
 
   -0.42970E+08        -0.95007E+06         0.00000E+00
   -0.95007E+06        -0.60042E+08         0.00000E+00
    0.00000E+00         0.00000E+00        -0.39585E+08
 
   -0.42565E+08        -0.11010E+07         0.00000E+00
   -0.11010E+07        -0.60071E+08         0.00000E+00
    0.00000E+00         0.00000E+00        -0.39509E+08
 
   -0.42167E+08        -0.11115E+07         0.00000E+00
   -0.11115E+07        -0.60103E+08         0.00000E+00
    0.00000E+00         0.00000E+00        -0.39436E+08
 
   -0.41780E+08        -0.98132E+06         0.00000E+00
   -0.98132E+06        -0.60136E+08         0.00000E+00
    0.00000E+00         0.00000E+00        -0.39364E+08
 
   -0.41407E+08        -0.71268E+06         0.00000E+00
   -0.71268E+06        -0.60172E+08         0.00000E+00
    0.00000E+00         0.00000E+00        -0.39296E+08
 
   -0.41048E+08        -0.30965E+06         0.00000E+00
   -0.30965E+06        -0.60210E+08         0.00000E+00
    0.00000E+00         0.00000E+00        -0.39232E+08
 
   -0.40705E+08         0.22263E+06         0.00000E+00
    0.22263E+06        -0.60254E+08         0.00000E+00
    0.00000E+00         0.00000E+00        -0.39172E+08
 
   -0.40378E+08         0.87835E+06         0.00000E+00
    0.87835E+06        -0.60305E+08         0.00000E+00
    0.00000E+00         0.00000E+00        -0.39116E+08
 
   -0.40066E+08         0.16510E+07         0.00000E+00
    0.16510E+07        -0.60363E+08         0.00000E+00
    0.00000E+00         0.00000E+00        -0.39065E+08
 
   -0.39771E+08         0.25333E+07         0.00000E+00
    0.25333E+07        -0.60430E+08         0.00000E+00
    0.00000E+00         0.00000E+00        -0.39019E+08
 
   -0.39495E+08         0.35166E+07         0.00000E+00
    0.35166E+07        -0.60505E+08         0.00000E+00
    0.00000E+00         0.00000E+00        -0.38979E+08
 
   -0.39240E+08         0.45905E+07         0.00000E+00
    0.45905E+07        -0.60587E+08         0.00000E+00
    0.00000E+00         0.00000E+00        -0.38944E+08
 
   -0.39010E+08         0.57426E+07         0.00000E+00
    0.57426E+07        -0.60674E+08         0.00000E+00
    0.00000E+00         0.00000E+00        -0.38915E+08
 
   -0.44245E+08        -0.26014E+06         0.00000E+00
   -0.26014E+06        -0.60006E+08         0.00000E+00
    0.00000E+00         0.00000E+00        -0.38804E+08
 
   -0.43730E+08        -0.68920E+06         0.00000E+00
   -0.68920E+06        -0.60028E+08         0.00000E+00
    0.00000E+00         0.00000E+00        -0.38705E+08
 
   -0.43193E+08        -0.98521E+06         0.00000E+00
   -0.98521E+06        -0.60066E+08         0.00000E+00
    0.00000E+00         0.00000E+00        -0.38604E+08
 
   -0.42648E+08        -0.11408E+07         0.00000E+00
   -0.11408E+07        -0.60111E+08         0.00000E+00
    0.00000E+00         0.00000E+00        -0.38504E+08
 
   -0.42108E+08        -0.11536E+07         0.00000E+00
   -0.11536E+07        -0.60160E+08         0.00000E+00
    0.00000E+00         0.00000E+00        -0.38405E+08
 
   -0.41581E+08        -0.10251E+07         0.00000E+00
   -0.10251E+07        -0.60212E+08         0.00000E+00
    0.00000E+00         0.00000E+00        -0.38309E+08
 
   -0.41072E+08        -0.75916E+06         0.00000E+00
   -0.75916E+06        -0.60265E+08         0.00000E+00
    0.00000E+00         0.00000E+00        -0.38217E+08
 
   -0.40583E+08        -0.36059E+06         0.00000E+00
   -0.36059E+06        -0.60323E+08         0.00000E+00
    0.00000E+00         0.00000E+00        -0.38130E+08
 
   -0.40114E+08         0.16511E+06         0.00000E+00
    0.16511E+06        -0.60386E+08         0.00000E+00
    0.00000E+00         0.00000E+00        -0.38048E+08
 
   -0.39667E+08         0.81238E+06         0.00000E+00
    0.81238E+06        -0.60458E+08         0.00000E+00
    0.00000E+00         0.00000E+00        -0.37972E+08
 
   -0.39243E+08         0.15755E+07         0.00000E+00
    0.15755E+07        -0.60541E+08         0.00000E+00
    0.00000E+00         0.00000E+00        -0.37902E+08
 
   -0.38842E+08         0.24482E+07         0.00000E+00
    0.24482E+07        -0.60634E+08         0.00000E+00
    0.00000E+00         0.00000E+00        -0.37840E+08
 
   -0.38468E+08         0.34233E+07         0.00000E+00
    0.34233E+07        -0.60737E+08         0.00000E+00
    0.00000E+00         0.00000E+00        -0.37786E+08
 
   -0.38127E+08         0.44914E+07         0.00000E+00
    0.44914E+07        -0.60848E+08         0.00000E+00
    0.00000E+00         0.00000E+00        -0.37739E+08
 
   -0.37825E+08         0.56410E+07         0.00000E+00
    0.56410E+07        -0.60962E+08         0.00000E+00
    0.00000E+00         0.00000E+00        -0.37701E+08
 
   -0.44749E+08        -0.27529E+06         0.00000E+00
   -0.27529E+06        -0.60008E+08         0.00000E+00
    0.00000E+00         0.00000E+00        -0.37881E+08
 
   -0.44102E+08        -0.72614E+06         0.00000E+00
   -0.72614E+06        -0.60037E+08         0.00000E+00
    0.00000E+00         0.00000E+00        -0.37757E+08
 
   -0.43423E+08        -0.10345E+07         0.00000E+00
   -0.10345E+07        -0.60086E+08         0.00000E+00
    0.00000E+00         0.00000E+00        -0.37630E+08
 
   -0.42734E+08        -0.11960E+07         0.00000E+00
   -0.11960E+07        -0.60145E+08         0.00000E+00
    0.00000E+00         0.00000E+00        -0.37503E+08
 
   -0.42051E+08        -0.12112E+07         0.00000E+00
   -0.12112E+07        -0.60207E+08         0.00000E+00
    0.00000E+00         0.00000E+00        -0.37378E+08
 
   -0.41385E+08        -0.10843E+07         0.00000E+00
   -0.10843E+07        -0.60271E+08         0.00000E+00
    0.00000E+00         0.00000E+00        -0.37256E+08
 
   -0.40741E+08        -0.82123E+06         0.00000E+00
   -0.82123E+06        -0.60337E+08         0.00000E+00
    0.00000E+00         0.00000E+00        -0.37139E+08
 
   -0.40123E+08        -0.42813E+06         0.00000E+00
   -0.42813E+06        -0.60408E+08         0.00000E+00
    0.00000E+00         0.00000E+00        -0.37028E+08
 
   -0.39532E+08         0.89104E+05         0.00000E+00
    0.89104E+05        -0.60486E+08         0.00000E+00
    0.00000E+00         0.00000E+00        -0.36924E+08
 
   -0.38967E+08         0.72533E+06         0.00000E+00
    0.72533E+06        -0.60576E+08         0.00000E+00
    0.00000E+00         0.00000E+00        -0.36827E+08
 
   -0.38430E+08         0.14760E+07         0.00000E+00
    0.14760E+07        -0.60679E+08         0.00000E+00
    0.00000E+00         0.00000E+00        -0.36739E+08
 
   -0.37922E+08         0.23364E+07         0.00000E+00
    0.23364E+07        -0.60797E+08         0.00000E+00
    0.00000E+00         0.00000E+00        -0.36660E+08
 
   -0.37449E+08         0.33013E+07         0.00000E+00
    0.33013E+07        -0.60927E+08         0.00000E+00
    0.00000E+00         0.00000E+00        -0.36591E+08
 
   -0.37019E+08         0.43632E+07         0.00000E+00
    0.43632E+07        -0.61068E+08         0.00000E+00
    0.00000E+00         0.00000E+00        -0.36532E+08
 
   -0.36639E+08         0.55118E+07         0.00000E+00
    0.55118E+07        -0.61211E+08         0.00000E+00
    0.00000E+00         0.00000E+00        -0.36485E+08
 
   -0.45284E+08        -0.29448E+06         0.00000E+00
   -0.29448E+06        -0.60009E+08         0.00000E+00
    0.00000E+00         0.00000E+00        -0.36968E+08
 
   -0.44493E+08        -0.77218E+06         0.00000E+00
   -0.77218E+06        -0.60045E+08         0.00000E+00
    0.00000E+00         0.00000E+00        -0.36817E+08
 
   -0.43663E+08        -0.10948E+07         0.00000E+00
   -0.10948E+07        -0.60103E+08         0.00000E+00
    0.00000E+00         0.00000E+00        -0.36661E+08
 
   -0.42824E+08        -0.12620E+07         0.00000E+00
   -0.12620E+07        -0.60170E+08         0.00000E+00
    0.00000E+00         0.00000E+00        -0.36505E+08
 
   -0.41995E+08        -0.12785E+07         0.00000E+00
   -0.12785E+07        -0.60239E+08         0.00000E+00
    0.00000E+00         0.00000E+00        -0.36352E+08
 
   -0.41190E+08        -0.11524E+07         0.00000E+00
   -0.11524E+07        -0.60308E+08         0.00000E+00
    0.00000E+00         0.00000E+00        -0.36203E+08
 
   -0.40414E+08        -0.89227E+06         0.00000E+00
   -0.89227E+06        -0.60379E+08         0.00000E+00
    0.00000E+00         0.00000E+00        -0.36060E+08
 
   -0.39672E+08        -0.50603E+06         0.00000E+00
   -0.50603E+06        -0.60455E+08         0.00000E+00
    0.00000E+00         0.00000E+00        -0.35924E+08
 
   -0.38961E+08        -0.48248E+01         0.00000E+00
   -0.48248E+01        -0.60542E+08         0.00000E+00
    0.00000E+00         0.00000E+00        -0.35798E+08
 
   -0.38281E+08         0.62133E+06         0.00000E+00
    0.62133E+06        -0.60644E+08         0.00000E+00
    0.00000E+00         0.00000E+00        -0.35680E+08
 
   -0.37632E+08         0.13550E+07         0.00000E+00
    0.13550E+07        -0.60764E+08         0.00000E+00
    0.00000E+00         0.00000E+00        -0.35573E+08
 
   -0.37017E+08         0.21988E+07         0.00000E+00
    0.21988E+07        -0.60904E+08         0.00000E+00
    0.00000E+00         0.00000E+00        -0.35476E+08
 
   -0.36440E+08         0.31501E+07         0.00000E+00
    0.31501E+07        -0.61063E+08         0.00000E+00
    0.00000E+00         0.00000E+00        -0.35392E+08
 
   -0.35914E+08         0.42041E+07         0.00000E+00
    0.42041E+07        -0.61234E+08         0.00000E+00
    0.00000E+00         0.00000E+00        -0.35320E+08
 
   -0.35451E+08         0.53524E+07         0.00000E+00
    0.53524E+07        -0.61410E+08         0.00000E+00
    0.00000E+00         0.00000E+00        -0.35262E+08
 
   -0.45857E+08        -0.31707E+06         0.00000E+00
   -0.31707E+06        -0.60011E+08         0.00000E+00
    0.00000E+00         0.00000E+00        -0.36067E+08
 
   -0.44904E+08        -0.82506E+06         0.00000E+00
   -0.82506E+06        -0.60051E+08         0.00000E+00
    0.00000E+00         0.00000E+00        -0.35884E+08
 
   -0.43912E+08        -0.11618E+07         0.00000E+00
   -0.11618E+07        -0.60113E+08         0.00000E+00
    0.00000E+00         0.00000E+00        -0.35696E+08
 
   -0.42915E+08        -0.13325E+07         0.00000E+00
   -0.13325E+07        -0.60182E+08         0.00000E+00
    0.00000E+00         0.00000E+00        -0.35509E+08
 
   -0.41938E+08        -0.13478E+07         0.00000E+00
   -0.13478E+07        -0.60251E+08         0.00000E+00
    0.00000E+00         0.00000E+00        -0.35325E+08
 
   -0.40996E+08        -0.12208E+07         0.00000E+00
   -0.12208E+07        -0.60316E+08         0.00000E+00
    0.00000E+00         0.00000E+00        -0.35147E+08
 
   -0.40093E+08        -0.96359E+06         0.00000E+00
   -0.96359E+06        -0.60382E+08         0.00000E+00
    0.00000E+00         0.00000E+00        -0.34977E+08
 
   -0.39231E+08        -0.58621E+06         0.00000E+00
   -0.58621E+06        -0.60454E+08         0.00000E+00
    0.00000E+00         0.00000E+00        -0.34817E+08
 
   -0.38406E+08        -0.95304E+05         0.00000E+00
   -0.95304E+05        -0.60541E+08         0.00000E+00
    0.00000E+00         0.00000E+00        -0.34667E+08
 
   -0.37614E+08         0.50564E+06         0.00000E+00
    0.50564E+06        -0.60648E+08         0.00000E+00
    0.00000E+00         0.00000E+00        -0.34528E+08
 
   -0.36855E+08         0.12159E+07         0.00000E+00
    0.12159E+07        -0.60781E+08         0.00000E+00
    0.00000E+00         0.00000E+00        -0.34401E+08
 
   -0.36129E+08         0.20364E+07         0.00000E+00
    0.20364E+07        -0.60942E+08         0.00000E+00
    0.00000E+00         0.00000E+00        -0.34286E+08
 
   -0.35445E+08         0.29684E+07         0.00000E+00
    0.29684E+07        -0.61128E+08         0.00000E+00
    0.00000E+00         0.00000E+00        -0.34185E+08
 
   -0.34814E+08         0.40110E+07         0.00000E+00
    0.40110E+07        -0.61333E+08         0.00000E+00
    0.00000E+00         0.00000E+00        -0.34099E+08
 
   -0.34257E+08         0.51590E+07         0.00000E+00
    0.51590E+07        -0.61545E+08         0.00000E+00
    0.00000E+00         0.00000E+00        -0.34029E+08
 
   -0.46472E+08        -0.34234E+06         0.00000E+00
   -0.34234E+06        -0.60012E+08         0.00000E+00
    0.00000E+00         0.00000E+00        -0.35176E+08
 
   -0.45337E+08        -0.88179E+06         0.00000E+00
   -0.88179E+06        -0.60054E+08         0.00000E+00
    0.00000E+00         0.00000E+00        -0.34957E+08
 
   -0.44167E+08        -0.12297E+07         0.00000E+00
   -0.12297E+07        -0.60116E+08         0.00000E+00
    0.00000E+00         0.00000E+00        -0.34734E+08
 
   -0.43004E+08        -0.13991E+07         0.00000E+00
   -0.13991E+07        -0.60180E+08         0.00000E+00
    0.00000E+00         0.00000E+00        -0.34512E+08
 
   -0.41878E+08        -0.14088E+07         0.00000E+00
   -0.14088E+07        -0.60236E+08         0.00000E+00
    0.00000E+00         0.00000E+00        -0.34295E+08
 
   -0.40802E+08        -0.12784E+07         0.00000E+00
   -0.12784E+07        -0.60286E+08         0.00000E+00
    0.00000E+00         0.00000E+00        -0.34087E+08
 
   -0.39778E+08        -0.10243E+07         0.00000E+00
   -0.10243E+07        -0.60334E+08         0.00000E+00
    0.00000E+00         0.00000E+00        -0.33889E+08
 
   -0.38804E+08        -0.65872E+06         0.00000E+00
   -0.65872E+06        -0.60392E+08         0.00000E+00
    0.00000E+00         0.00000E+00        -0.33703E+08
 
   -0.37872E+08        -0.18839E+06         0.00000E+00
   -0.18839E+06        -0.60468E+08         0.00000E+00
    0.00000E+00         0.00000E+00        -0.33529E+08
 
   -0.36974E+08         0.38461E+06         0.00000E+00
    0.38461E+06        -0.60572E+08         0.00000E+00
    0.00000E+00         0.00000E+00        -0.33368E+08
 
   -0.36106E+08         0.10624E+07         0.00000E+00
    0.10624E+07        -0.60712E+08         0.00000E+00
    0.00000E+00         0.00000E+00        -0.33220E+08
 
   -0.35268E+08         0.18502E+07         0.00000E+00
    0.18502E+07        -0.60891E+08         0.00000E+00
    0.00000E+00         0.00000E+00        -0.33086E+08
 
   -0.34468E+08         0.27543E+07         0.00000E+00
    0.27543E+07        -0.61105E+08         0.00000E+00
    0.00000E+00         0.00000E+00        -0.32968E+08
 
   -0.33723E+08         0.37797E+07         0.00000E+00
    0.37797E+07        -0.61348E+08         0.00000E+00
    0.00000E+00         0.00000E+00        -0.32866E+08
 
   -0.33056E+08         0.49259E+07         0.00000E+00
    0.49259E+07        -0.61603E+08         0.00000E+00
    0.00000E+00         0.00000E+00        -0.32783E+08
 
   -0.47132E+08        -0.36943E+06         0.00000E+00
   -0.36943E+06        -0.60012E+08         0.00000E+00
    0.00000E+00         0.00000E+00        -0.34296E+08
 
   -0.45787E+08        -0.93844E+06         0.00000E+00
   -0.93844E+06        -0.60055E+08         0.00000E+00
    0.00000E+00         0.00000E+00        -0.34035E+08
 
   -0.44421E+08        -0.12906E+07         0.00000E+00
   -0.12906E+07        -0.60109E+08         0.00000E+00
    0.00000E+00         0.00000E+00        -0.33771E+08
 
   -0.43086E+08        -0.14506E+07         0.00000E+00
   -0.14506E+07        -0.60156E+08         0.00000E+00
    0.00000E+00         0.00000E+00        -0.33511E+08
 
   -0.41811E+08        -0.14484E+07         0.00000E+00
   -0.14484E+07        -0.60187E+08         0.00000E+00
    0.00000E+00         0.00000E+00        -0.33259E+08
 
   -0.40607E+08        -0.13116E+07         0.00000E+00
   -0.13116E+07        -0.60205E+08         0.00000E+00
    0.00000E+00         0.00000E+00        -0.33019E+08
 
   -0.39472E+08        -0.10616E+07         0.00000E+00
   -0.10616E+07        -0.60223E+08         0.00000E+00
    0.00000E+00         0.00000E+00        -0.32792E+08
 
   -0.38396E+08        -0.71204E+06         0.00000E+00
   -0.71204E+06        -0.60252E+08         0.00000E+00
    0.00000E+00         0.00000E+00        -0.32580E+08
 
   -0.37366E+08        -0.26959E+06         0.00000E+00
   -0.26959E+06        -0.60307E+08         0.00000E+00
    0.00000E+00         0.00000E+00        -0.32382E+08
 
   -0.36369E+08         0.26561E+06         0.00000E+00
    0.26561E+06        -0.60399E+08         0.00000E+00
    0.00000E+00         0.00000E+00        -0.32198E+08
 
   -0.35396E+08         0.89910E+06         0.00000E+00
    0.89910E+06        -0.60540E+08         0.00000E+00
    0.00000E+00         0.00000E+00        -0.32029E+08
 
   -0.34445E+08         0.16412E+07         0.00000E+00
    0.16412E+07        -0.60733E+08         0.00000E+00
    0.00000E+00         0.00000E+00        -0.31875E+08
 
   -0.33521E+08         0.25052E+07         0.00000E+00
    0.25052E+07        -0.60977E+08         0.00000E+00
    0.00000E+00         0.00000E+00        -0.31738E+08
 
   -0.32645E+08         0.35039E+07         0.00000E+00
    0.35039E+07        -0.61263E+08         0.00000E+00
    0.00000E+00         0.00000E+00        -0.31618E+08
 
   -0.31849E+08         0.46446E+07         0.00000E+00
    0.46446E+07        -0.61569E+08         0.00000E+00
    0.00000E+00         0.00000E+00        -0.31520E+08
 
   -0.47836E+08        -0.39727E+06         0.00000E+00
   -0.39727E+06        -0.60013E+08         0.00000E+00
    0.00000E+00         0.00000E+00        -0.33426E+08
 
   -0.46249E+08        -0.98950E+06         0.00000E+00
   -0.98950E+06        -0.60051E+08         0.00000E+00
    0.00000E+00         0.00000E+00        -0.33115E+08
 
   -0.44666E+08        -0.13335E+07         0.00000E+00
   -0.13335E+07        -0.60088E+08         0.00000E+00
    0.00000E+00         0.00000E+00        -0.32804E+08
 
   -0.43150E+08        -0.14719E+07         0.00000E+00
   -0.14719E+07        -0.60102E+08         0.00000E+00
    0.00000E+00         0.00000E+00        -0.32501E+08
 
   -0.41731E+08        -0.14499E+07         0.00000E+00
   -0.14499E+07        -0.60089E+08         0.00000E+00
    0.00000E+00         0.00000E+00        -0.32211E+08
 
   -0.40411E+08        -0.13044E+07         0.00000E+00
   -0.13044E+07        -0.60059E+08         0.00000E+00
    0.00000E+00         0.00000E+00        -0.31938E+08
 
   -0.39178E+08        -0.10609E+07         0.00000E+00
   -0.10609E+07        -0.60028E+08         0.00000E+00
    0.00000E+00         0.00000E+00        -0.31682E+08
 
   -0.38015E+08        -0.73375E+06         0.00000E+00
   -0.73375E+06        -0.60016E+08         0.00000E+00
    0.00000E+00         0.00000E+00        -0.31444E+08
 
   -0.36899E+08        -0.32852E+06         0.00000E+00
   -0.32852E+06        -0.60038E+08         0.00000E+00
    0.00000E+00         0.00000E+00        -0.31222E+08
 
   -0.35813E+08         0.15679E+06         0.00000E+00
    0.15679E+06        -0.60110E+08         0.00000E+00
    0.00000E+00         0.00000E+00        -0.31016E+08
 
   -0.34740E+08         0.73120E+06         0.00000E+00
    0.73120E+06        -0.60244E+08         0.00000E+00
    0.00000E+00         0.00000E+00        -0.30826E+08
 
   -0.33673E+08         0.14107E+07         0.00000E+00
    0.14107E+07        -0.60448E+08         0.00000E+00
    0.00000E+00         0.00000E+00        -0.30651E+08
 
   -0.32616E+08         0.22172E+07         0.00000E+00
    0.22172E+07        -0.60723E+08         0.00000E+00
    0.00000E+00         0.00000E+00        -0.30493E+08
 
   -0.31589E+08         0.31751E+07         0.00000E+00
    0.31751E+07        -0.61058E+08         0.00000E+00
    0.00000E+00         0.00000E+00        -0.30353E+08
 
   -0.30635E+08         0.43035E+07         0.00000E+00
    0.43035E+07        -0.61428E+08         0.00000E+00
    0.00000E+00         0.00000E+00        -0.30236E+08
 
   -0.48583E+08        -0.42447E+06         0.00000E+00
   -0.42447E+06        -0.60012E+08         0.00000E+00
    0.00000E+00         0.00000E+00        -0.32564E+08
 
   -0.46706E+08        -0.10264E+07         0.00000E+00
   -0.10264E+07        -0.60039E+08         0.00000E+00
    0.00000E+00         0.00000E+00        -0.32193E+08
 
   -0.44884E+08        -0.13419E+07         0.00000E+00
   -0.13419E+07        -0.60044E+08         0.00000E+00
    0.00000E+00         0.00000E+00        -0.31827E+08
 
   -0.43186E+08        -0.14424E+07         0.00000E+00
   -0.14424E+07        -0.60002E+08         0.00000E+00
    0.00000E+00         0.00000E+00        -0.31477E+08
 
   -0.41634E+08        -0.13929E+07         0.00000E+00
   -0.13929E+07        -0.59921E+08         0.00000E+00
    0.00000E+00         0.00000E+00        -0.31147E+08
 
   -0.40215E+08        -0.12391E+07         0.00000E+00
   -0.12391E+07        -0.59823E+08         0.00000E+00
    0.00000E+00         0.00000E+00        -0.30840E+08
 
   -0.38902E+08        -0.10078E+07         0.00000E+00
   -0.10078E+07        -0.59730E+08         0.00000E+00
    0.00000E+00         0.00000E+00        -0.30556E+08
 
   -0.37668E+08        -0.71195E+06         0.00000E+00
   -0.71195E+06        -0.59663E+08         0.00000E+00
    0.00000E+00         0.00000E+00        -0.30293E+08
 
   -0.36483E+08        -0.35520E+06         0.00000E+00
   -0.35520E+06        -0.59643E+08         0.00000E+00
    0.00000E+00         0.00000E+00        -0.30049E+08
 
   -0.35320E+08         0.66513E+05         0.00000E+00
    0.66513E+05        -0.59685E+08         0.00000E+00
    0.00000E+00         0.00000E+00        -0.29821E+08
 
   -0.34156E+08         0.56489E+06         0.00000E+00
    0.56489E+06        -0.59805E+08         0.00000E+00
    0.00000E+00         0.00000E+00        -0.29610E+08
 
   -0.32975E+08         0.11609E+07         0.00000E+00
    0.11609E+07        -0.60016E+08         0.00000E+00
    0.00000E+00         0.00000E+00        -0.29414E+08
 
   -0.31772E+08         0.18863E+07         0.00000E+00
    0.18863E+07        -0.60322E+08         0.00000E+00
    0.00000E+00         0.00000E+00        -0.29233E+08
 
   -0.30569E+08         0.27816E+07         0.00000E+00
    0.27816E+07        -0.60715E+08         0.00000E+00
    0.00000E+00         0.00000E+00        -0.29069E+08
 
   -0.29418E+08         0.38854E+07         0.00000E+00
    0.38854E+07        -0.61165E+08         0.00000E+00
    0.00000E+00         0.00000E+00        -0.28928E+08
 
   -0.49362E+08        -0.44871E+06         0.00000E+00
   -0.44871E+06        -0.60010E+08         0.00000E+00
    0.00000E+00         0.00000E+00        -0.31708E+08
 
   -0.47136E+08        -0.10338E+07         0.00000E+00
   -0.10338E+07        -0.60015E+08         0.00000E+00
    0.00000E+00         0.00000E+00        -0.31262E+08
 
   -0.45052E+08        -0.12894E+07         0.00000E+00
   -0.12894E+07        -0.59958E+08         0.00000E+00
    0.00000E+00         0.00000E+00        -0.30832E+08
 
   -0.43182E+08        -0.13338E+07         0.00000E+00
   -0.13338E+07        -0.59827E+08         0.00000E+00
    0.00000E+00         0.00000E+00        -0.30429E+08
 
   -0.41520E+08        -0.12543E+07         0.00000E+00
   -0.12543E+07        -0.59652E+08         0.00000E+00
    0.00000E+00         0.00000E+00        -0.30059E+08
 
   -0.40025E+08        -0.10989E+07         0.00000E+00
   -0.10989E+07        -0.59466E+08         0.00000E+00
    0.00000E+00         0.00000E+00        -0.29720E+08
 
   -0.38654E+08        -0.89035E+06         0.00000E+00
   -0.89035E+06        -0.59298E+08         0.00000E+00
    0.00000E+00         0.00000E+00        -0.29409E+08
 
   -0.37368E+08        -0.63766E+06         0.00000E+00
   -0.63766E+06        -0.59171E+08         0.00000E+00
    0.00000E+00         0.00000E+00        -0.29123E+08
 
   -0.36129E+08        -0.34188E+06         0.00000E+00
   -0.34188E+06        -0.59101E+08         0.00000E+00
    0.00000E+00         0.00000E+00        -0.28858E+08
 
   -0.34904E+08         0.23614E+04         0.00000E+00
    0.23614E+04        -0.59108E+08         0.00000E+00
    0.00000E+00         0.00000E+00        -0.28612E+08
 
   -0.33662E+08         0.40754E+06         0.00000E+00
    0.40754E+06        -0.59207E+08         0.00000E+00
    0.00000E+00         0.00000E+00        -0.28381E+08
 
   -0.32373E+08         0.89659E+06         0.00000E+00
    0.89659E+06        -0.59415E+08         0.00000E+00
    0.00000E+00         0.00000E+00        -0.28163E+08
 
   -0.31020E+08         0.15098E+07         0.00000E+00
    0.15098E+07        -0.59749E+08         0.00000E+00
    0.00000E+00         0.00000E+00        -0.27957E+08
 
   -0.29611E+08         0.23087E+07         0.00000E+00
    0.23087E+07        -0.60209E+08         0.00000E+00
    0.00000E+00         0.00000E+00        -0.27766E+08
 
   -0.28205E+08         0.33656E+07         0.00000E+00
    0.33656E+07        -0.60763E+08         0.00000E+00
    0.00000E+00         0.00000E+00        -0.27595E+08
 
   -0.50150E+08        -0.46457E+06         0.00000E+00
   -0.46457E+06        -0.60004E+08         0.00000E+00
    0.00000E+00         0.00000E+00        -0.30850E+08
 
   -0.47494E+08        -0.98015E+06         0.00000E+00
   -0.98015E+06        -0.59958E+08         0.00000E+00
    0.00000E+00         0.00000E+00        -0.30309E+08
 
   -0.45144E+08        -0.11322E+07         0.00000E+00
   -0.11322E+07        -0.59787E+08         0.00000E+00
    0.00000E+00         0.00000E+00        -0.29803E+08
 
   -0.43135E+08        -0.11120E+07         0.00000E+00
   -0.11120E+07        -0.59523E+08         0.00000E+00
    0.00000E+00         0.00000E+00        -0.29346E+08
 
   -0.41397E+08        -0.10140E+07         0.00000E+00
   -0.10140E+07        -0.59229E+08         0.00000E+00
    0.00000E+00         0.00000E+00        -0.28937E+08
 
   -0.39854E+08        -0.87336E+06         0.00000E+00
   -0.87336E+06        -0.58947E+08         0.00000E+00
    0.00000E+00         0.00000E+00        -0.28569E+08
 
   -0.38447E+08        -0.70334E+06         0.00000E+00
   -0.70334E+06        -0.58702E+08         0.00000E+00
    0.00000E+00         0.00000E+00        -0.28236E+08
 
   -0.37126E+08        -0.50776E+06         0.00000E+00
   -0.50776E+06        -0.58513E+08         0.00000E+00
    0.00000E+00         0.00000E+00        -0.27931E+08
 
   -0.35850E+08        -0.28539E+06         0.00000E+00
   -0.28539E+06        -0.58396E+08         0.00000E+00
    0.00000E+00         0.00000E+00        -0.27651E+08
 
   -0.34580E+08        -0.30809E+05         0.00000E+00
   -0.30809E+05        -0.58365E+08         0.00000E+00
    0.00000E+00         0.00000E+00        -0.27388E+08
 
   -0.33277E+08         0.26677E+06         0.00000E+00
    0.26677E+06        -0.58438E+08         0.00000E+00
    0.00000E+00         0.00000E+00        -0.27140E+08
 
   -0.31898E+08         0.62749E+06         0.00000E+00
    0.62749E+06        -0.58636E+08         0.00000E+00
    0.00000E+00         0.00000E+00        -0.26902E+08
 
   -0.30399E+08         0.10907E+07         0.00000E+00
    0.10907E+07        -0.58985E+08         0.00000E+00
    0.00000E+00         0.00000E+00        -0.26671E+08
 
   -0.28753E+08         0.17401E+07         0.00000E+00
    0.17401E+07        -0.59514E+08         0.00000E+00
    0.00000E+00         0.00000E+00        -0.26446E+08
 
   -0.27014E+08         0.27069E+07         0.00000E+00
    0.27069E+07        -0.60202E+08         0.00000E+00
    0.00000E+00         0.00000E+00        -0.26235E+08
 
   -0.50893E+08        -0.45272E+06         0.00000E+00
   -0.45272E+06        -0.59983E+08         0.00000E+00
    0.00000E+00         0.00000E+00        -0.29978E+08
 
   -0.47712E+08        -0.78916E+06         0.00000E+00
   -0.78916E+06        -0.59800E+08         0.00000E+00
    0.00000E+00         0.00000E+00        -0.29304E+08
 
   -0.45149E+08        -0.80902E+06         0.00000E+00
   -0.80902E+06        -0.59424E+08         0.00000E+00
    0.00000E+00         0.00000E+00        -0.28715E+08
 
   -0.43064E+08        -0.75168E+06         0.00000E+00
   -0.75168E+06        -0.58998E+08         0.00000E+00
    0.00000E+00         0.00000E+00        -0.28211E+08
 
   -0.41288E+08        -0.66604E+06         0.00000E+00
   -0.66604E+06        -0.58585E+08         0.00000E+00
    0.00000E+00         0.00000E+00        -0.27771E+08
 
   -0.39722E+08        -0.56506E+06         0.00000E+00
   -0.56506E+06        -0.58216E+08         0.00000E+00
    0.00000E+00         0.00000E+00        -0.27382E+08
 
   -0.38295E+08        -0.45232E+06         0.00000E+00
   -0.45232E+06        -0.57905E+08         0.00000E+00
    0.00000E+00         0.00000E+00        -0.27033E+08
 
   -0.36956E+08        -0.32783E+06         0.00000E+00
   -0.32783E+06        -0.57667E+08         0.00000E+00
    0.00000E+00         0.00000E+00        -0.26716E+08
 
   -0.35658E+08        -0.18957E+06         0.00000E+00
   -0.18957E+06        -0.57511E+08         0.00000E+00
    0.00000E+00         0.00000E+00        -0.26423E+08
 
   -0.34359E+08        -0.33522E+05         0.00000E+00
   -0.33522E+05        -0.57450E+08         0.00000E+00
    0.00000E+00         0.00000E+00        -0.26150E+08
 
   -0.33015E+08         0.14740E+06         0.00000E+00
    0.14740E+06        -0.57498E+08         0.00000E+00
    0.00000E+00         0.00000E+00        -0.25889E+08
 
   -0.31572E+08         0.36632E+06         0.00000E+00
    0.36632E+06        -0.57679E+08         0.00000E+00
    0.00000E+00         0.00000E+00        -0.25636E+08
 
   -0.29961E+08         0.65021E+06         0.00000E+00
    0.65021E+06        -0.58024E+08         0.00000E+00
    0.00000E+00         0.00000E+00        -0.25381E+08
 
   -0.28072E+08         0.10676E+07         0.00000E+00
    0.10676E+07        -0.58592E+08         0.00000E+00
    0.00000E+00         0.00000E+00        -0.25116E+08
 
   -0.25882E+08         0.18460E+07         0.00000E+00
    0.18460E+07        -0.59459E+08         0.00000E+00
    0.00000E+00         0.00000E+00        -0.24851E+08
 
   -0.51431E+08        -0.28565E+06         0.00000E+00
   -0.28565E+06        -0.59793E+08         0.00000E+00
    0.00000E+00         0.00000E+00        -0.29027E+08
 
   -0.47744E+08        -0.32616E+06         0.00000E+00
   -0.32616E+06        -0.59271E+08         0.00000E+00
    0.00000E+00         0.00000E+00        -0.28184E+08
 
   -0.45117E+08        -0.29874E+06         0.00000E+00
   -0.29874E+06        -0.58687E+08         0.00000E+00
    0.00000E+00         0.00000E+00        -0.27542E+08
 
   -0.43009E+08        -0.26749E+06         0.00000E+00
   -0.26749E+06        -0.58139E+08         0.00000E+00
    0.00000E+00         0.00000E+00        -0.27010E+08
 
   -0.41222E+08        -0.23279E+06         0.00000E+00
   -0.23279E+06        -0.57649E+08         0.00000E+00
    0.00000E+00         0.00000E+00        -0.26554E+08
 
   -0.39649E+08        -0.19571E+06         0.00000E+00
   -0.19571E+06        -0.57227E+08         0.00000E+00
    0.00000E+00         0.00000E+00        -0.26154E+08
 
   -0.38215E+08        -0.15605E+06         0.00000E+00
   -0.15605E+06        -0.56880E+08         0.00000E+00
    0.00000E+00         0.00000E+00        -0.25797E+08
 
   -0.36868E+08        -0.11324E+06         0.00000E+00
   -0.11324E+06        -0.56614E+08         0.00000E+00
    0.00000E+00         0.00000E+00        -0.25474E+08
 
   -0.35560E+08        -0.66316E+05         0.00000E+00
   -0.66316E+05        -0.56437E+08         0.00000E+00
    0.00000E+00         0.00000E+00        -0.25176E+08
 
   -0.34248E+08        -0.13794E+05         0.00000E+00
   -0.13794E+05        -0.56359E+08         0.00000E+00
    0.00000E+00         0.00000E+00        -0.24897E+08
 
   -0.32883E+08         0.46757E+05         0.00000E+00
    0.46757E+05        -0.56393E+08         0.00000E+00
    0.00000E+00         0.00000E+00        -0.24631E+08
 
   -0.31408E+08         0.11970E+06         0.00000E+00
    0.11970E+06        -0.56560E+08         0.00000E+00
    0.00000E+00         0.00000E+00        -0.24369E+08
 
   -0.29736E+08         0.21452E+06         0.00000E+00
    0.21452E+06        -0.56895E+08         0.00000E+00
    0.00000E+00         0.00000E+00        -0.24101E+08
 
   -0.27715E+08         0.35283E+06         0.00000E+00
    0.35283E+06        -0.57462E+08         0.00000E+00
    0.00000E+00         0.00000E+00        -0.23810E+08
 
   -0.24915E+08         0.67742E+06         0.00000E+00
    0.67742E+06        -0.58444E+08         0.00000E+00
    0.00000E+00         0.00000E+00        -0.23446E+08
 
SCALARS stressS double 
LOOKUP_TABLE default
  -49634346.2703522     
  -51533738.9718568     
  -52963181.4327875     
  -54134408.9455540     
  -55129711.5473551     
  -55996706.1411559     
  -56766520.7369122     
  -57461817.3141220     
  -58100687.6818711     
  -58699087.2626371     
  -59272850.6470351     
  -59840099.2505489     
  -60425721.1740256     
  -61070708.8064579     
  -61895323.6547479     
  -49401180.6091594     
  -50897511.4879860     
  -52196605.7323291     
  -53297774.6516884     
  -54250441.2481034     
  -55088275.4110362     
  -55836366.7666516     
  -56514085.3525671     
  -57137399.8385096     
  -57720496.1541946     
  -58277146.3145641     
  -58822212.7057097     
  -59372951.9803798     
  -59953916.0663607     
  -60538876.4774909     
  -49350865.7286912     
  -50531277.5746293     
  -51630205.1195656     
  -52616735.8273802     
  -53494153.2568105     
  -54278769.8864125     
  -54986330.2013386     
  -55630866.3816506     
  -56224730.8387767     
  -56779072.0522141     
  -57304292.9440323     
  -57810136.9890201     
  -58305257.8773513     
  -58787490.0181901     
  -59241883.8220037     
  -49334979.7279451     
  -50284372.5249754     
  -51201264.6369402     
  -52056963.9082834     
  -52841425.7362058     
  -53556575.1890446     
  -54209514.0336575     
  -54808517.9452328     
  -55361784.0822029     
  -55876926.4593490     
  -56360622.5163076     
  -56817980.9665171     
  -57250236.8955137     
  -57652562.9267986     
  -58010898.7212221     
  -49321173.2591051     
  -50091337.6776007     
  -50853431.9719744     
  -51584059.1514710     
  -52270303.9818002     
  -52907737.3089207     
  -53497209.0139910     
  -54042168.4583078     
  -54546962.0661639     
  -55015866.0449633     
  -55452326.4630979     
  -55857965.6867508     
  -56231402.4678771     
  -56566822.1332040     
  -56853480.7803205     
  -49296748.4794668     
  -49922379.6062684     
  -50553061.3608196     
  -51170047.5114168     
  -51760768.2376533     
  -52318348.3477745     
  -52840165.7428162     
  -53326233.5451089     
  -53777856.7770186     
  -54196610.8156521     
  -54583492.5225755     
  -54938112.3678070     
  -55257873.9917193     
  -55537376.2747537     
  -55768242.3839689     
  -49256105.4510644     
  -49761953.7453122     
  -50280145.7121168     
  -50795483.4959254     
  -51296635.8022965     
  -51776100.4487964     
  -52229547.0598232     
  -52654880.9317278     
  -53051295.9585648     
  -53418434.1005453     
  -53755657.3895662     
  -54061407.3817081     
  -54332684.2309486     
  -54564724.6642310     
  -54751015.7679125     
  -49196719.9050778     
  -49601473.6847493     
  -50022458.2803381     
  -50447195.9659705     
  -50865758.5193085     
  -51270841.9754820     
  -51657455.8878855     
  -52022376.3339759     
  -52363511.5589424     
  -52679279.8524423     
  -52968048.1591981     
  -53227659.3700172     
  -53455081.3770219     
  -53646231.7163411     
  -53796027.1770055     
  -49117862.4902442     
  -49436173.4771088     
  -49772424.4628892     
  -50116299.0209856     
  -50459236.8101129     
  -50794515.5246636     
  -51117095.9403476     
  -51423295.2467844     
  -51710370.2012167     
  -51976080.3970052     
  -52218282.4635518     
  -52434592.2427157     
  -52622148.5812374     
  -52777510.7679360     
  -52896714.9865266     
  -49020018.7103640     
  -49263632.6431479     
  -49525401.7415543     
  -49796812.8594564     
  -50070600.7044900     
  -50340810.9277903     
  -50602717.3704034     
  -50852622.3272699     
  -51087584.7638155     
  -51305123.0507622     
  -51502932.6498288     
  -51678652.0658483     
  -51829704.6884582     
  -51953238.8353295     
  -52046179.8487830     
  -48904583.0519860     
  -49082986.7674088     
  -49278688.7699900     
  -49484754.7324168     
  -49695150.9660972     
  -49904787.0538237     
  -50109468.5825245     
  -50305772.8957689     
  -50490873.0892530     
  -50662340.1380916     
  -50817952.2713210     
  -50955537.2375271     
  -51072868.6485844     
  -51167632.1996835     
  -51237470.7858118     
  -48773659.2746900     
  -48894459.5298581     
  -49030916.2980934     
  -49177535.2557044     
  -49329468.7625918     
  -49482542.9008102     
  -49633229.3290461     
  -49778567.8903554     
  -49916054.3432353     
  -50043512.0232325     
  -50158967.1628296     
  -50260546.1017364     
  -50346409.6124165     
  -50414735.5026909     
  -50463755.6995806     
  -48629906.0875116     
  -48699054.3591650     
  -48781646.9942852     
  -48873544.5727219     
  -48971055.3063322     
  -49070951.6768459     
  -49170453.9867415     
  -49267183.6627577     
  -49359094.4860870     
  -49444393.1909220     
  -49521462.0318235     
  -49588795.3517086     
  -49644960.3569471     
  -49688589.5935375     
  -49718409.3160166     
  -48476402.9980943     
  -48498330.1660843     
  -48531092.9603786     
  -48571855.3188810     
  -48618061.9047736     
  -48667448.1572526     
  -48718032.0677933     
  -48768089.0866787     
  -48816114.5356997     
  -48860779.8797806     
  -48900890.0540553     
  -48935348.8621271     
  -48963138.4699238     
  -48983317.4445725     
  -48995039.8430840     
  -48316526.1836966     
  -48294223.1866123     
  -48279900.9650401     
  -48271996.8113094     
  -48269079.4935830     
  -48269854.8968036     
  -48273164.3729037     
  -48277976.4338363     
  -48283373.5192109     
  -48288536.3356493     
  -48292728.6172858     
  -48295285.1084235     
  -48295605.1849157     
  -48293153.8947320     
  -48287471.4001498     
  -48153830.1796826     
  -48088894.6703634     
  -48028976.5365550     
  -47973771.6213717     
  -47922965.2533206     
  -47876234.1481097     
  -47833250.6360141     
  -47793689.2619421     
  -47757235.2328879     
  -47723593.8075901     
  -47692499.5516763     
  -47663724.3871391     
  -47637083.4984138     
  -47612438.3717152     
  -47589696.5001657     
  -47991933.4235748     
  -47884592.5794080     
  -47779329.0166581     
  -47677095.3867361     
  -47578690.0968014     
  -47484754.7509662     
  -47395784.2667412     
  -47312148.9895979     
  -47234125.8022927     
  -47161933.6975555     
  -47095768.6332581     
  -47035832.6060768     
  -46982352.5783846     
  -46935585.9929271     
  -46895810.9520116     
  -47834406.3871452     
  -47683519.3025931     
  -47531925.0314584     
  -47381845.8399628     
  -47235194.4956718     
  -47093565.1297082     
  -46958250.1388239     
  -46830281.1632072     
  -46710487.7363178     
  -46599564.4992238     
  -46498136.9141779     
  -46406815.8586369     
  -46326232.9236496     
  -46257050.3685810     
  -46199942.2585262     
  -47684661.1400902     
  -47487698.6244931     
  -47287539.6719800     
  -47087708.8851219     
  -46891241.5504034     
  -46700664.3623414     
  -46518021.6184269     
  -46344942.2166887     
  -46182735.6440261     
  -46032501.3945263     
  -45895235.4793480     
  -45771918.9314959     
  -45663575.6872756     
  -45571290.5480725     
  -45496181.9597383     
  -47545841.0113601     
  -47298834.4464682     
  -47046593.6794614     
  -46794008.6256638     
  -46545255.5637385     
  -46303762.9806974     
  -46072252.9896431     
  -45852847.6419315     
  -45647218.9672426     
  -45456757.5973851     
  -45282735.4861889     
  -45126441.1801292     
  -44989269.8441582     
  -44872754.7359918     
  -44778532.4343664     
  -47420708.3556465     
  -47118150.6651109     
  -46808960.7176333     
  -46499504.2992734     
  -46195131.6224068     
  -45900123.8392618     
  -45617763.2670262     
  -45350503.0198270     
  -45100197.9927488     
  -44868357.7153500     
  -44656386.8110845     
  -44465784.8886667     
  -44298282.5547775     
  -44155894.7173414     
  -44040879.3986600     
  -47311526.4996361     
  -46946194.5739222     
  -46573719.7280231     
  -46202129.1022786     
  -45837996.6835880     
  -45486371.5205903     
  -45150907.6768032     
  -44834140.6683402     
  -44537841.0719136     
  -44263385.4463166     
  -44012101.2908131     
  -43785554.5915397     
  -43585751.5781164     
  -43415227.7371219     
  -43277002.6776866     
  -47219926.9234506     
  -46782571.2482623     
  -46338809.6201576     
  -45898631.8719019     
  -45469895.5894553     
  -45058257.7848671     
  -44667435.3208527     
  -44299667.3816940     
  -43956253.2374695     
  -43638080.2285056     
  -43346100.3143554     
  -43081731.3353387     
  -42847155.1757887     
  -42645467.8284771     
  -42480639.9478833     
  -47146740.0656201     
  -46625544.6731530     
  -46100508.7536710     
  -45584059.4394354     
  -45085368.2133527     
  -44610374.6331827     
  -44162338.9217398     
  -43742633.8632366     
  -43351547.9000887     
  -42988998.5448090     
  -42655149.9286730     
  -42350955.1438456     
  -42078596.7785771     
  -41841759.6415086     
  -41645621.5287382     
  -47091738.2301275     
  -46471368.5186725     
  -45852592.5986955     
  -45250981.5861466     
  -44676884.8039026     
  -44135826.4045967     
  -43629721.0971287     
  -43158244.1172563     
  -42719971.5203074     
  -42313248.4478405     
  -41936909.2486756     
  -41590960.0536941     
  -41277268.9815544     
  -41000069.1590879     
  -40766103.9540188     
  -47053148.7278586     
  -46313038.5285290     
  -45584875.5286955     
  -44888318.8475035     
  -44234146.3000078     
  -43625928.8091379     
  -43062740.7935183     
  -42541431.6512241     
  -42058073.8404201     
  -41608788.7684216     
  -41190393.8972006     
  -40801239.5064091     
  -40442197.9009025     
  -40117857.9846290     
  -39836942.8749396     
  -47026577.5508295     
  -46137640.5353578     
  -45280562.1361106     
  -44479654.1423732     
  -43743412.3089100     
  -43070149.2928054     
  -42453742.5913177     
  -41887032.2674810     
  -41362895.8728308     
  -40874688.8553184     
  -40416552.3682565     
  -39983949.0797333     
  -39575584.1220584     
  -39195231.7583691     
  -38854374.7606816     
  -47001621.1635628     
  -45920189.2070185     
  -44911289.2995915     
  -44001318.1097544     
  -43187659.1594205     
  -42456570.4494978     
  -41794697.7543027     
  -41190072.3747354     
  -40632108.7021954     
  -40111222.7134056     
  -39618461.5321151     
  -39145440.3989161     
  -38684708.6664456     
  -38237822.4633707     
  -37816999.1743449     
  -46951279.7986518     
  -45605529.1728850     
  -44429448.4234853     
  -43424150.0127067     
  -42548178.1868610     
  -41773197.6643764     
  -41078005.8753976     
  -40446160.4207741     
  -39864052.8866488     
  -39319567.5164708     
  -38800949.1353771     
  -38295560.3778816     
  -37788806.2501105     
  -37260083.2214556     
  -36730903.3932538     
  -46750535.7216306     
  -45066448.6004784     
  -43781949.3750576     
  -42718971.3153157     
  -41808343.1273991     
  -41009971.6485327     
  -40297568.5725946     
  -39651923.9495015     
  -39057649.7067171     
  -38501152.0571301     
  -37968957.8912605     
  -37445719.4246772     
  -36910503.3540867     
  -36329055.1629520     
  -35601478.3095742     
SCALARS 2waySource double 
LOOKUP_TABLE default
  7.735103718841960E-004
  8.148564815394842E-004
  8.516316225589157E-004
  8.845801536909594E-004
  9.142723142456020E-004
  9.411658584955133E-004
  9.656438430624228E-004
  9.880365133723180E-004
  1.008635745828178E-003
  1.027705426493683E-003
  1.045489687071491E-003
  1.062220283469437E-003
  1.078124223853839E-003
  1.093433370496544E-003
  1.108394111759926E-003
  7.714296841154463E-004
  8.122853855760229E-004
  8.487057257814817E-004
  8.813821877411947E-004
  9.108530747934825E-004
  9.375605307610938E-004
  9.618782377218018E-004
  9.841304457364768E-004
  1.004604930535832E-003
  1.023562578912667E-003
  1.041245120084359E-003
  1.057882100983535E-003
  1.073698148894256E-003
  1.088921310210300E-003
  1.103797169008320E-003
  7.684873965643632E-004
  8.083411642933442E-004
  8.440428789785578E-004
  8.761581186578165E-004
  9.051692404924760E-004
  9.314862920126322E-004
  9.554638925527195E-004
  9.774139557151241E-004
  9.976156922819987E-004
  1.016323487152917E-003
  1.033773484440974E-003
  1.050189566561575E-003
  1.065789276389277E-003
  1.080790489207591E-003
  1.095418686472170E-003
  7.647552121170910E-004
  8.032244096644090E-004
  8.378774910801111E-004
  8.691579404905192E-004
  8.974764065479088E-004
  9.232006128611423E-004
  9.466583683216672E-004
  9.681437957084369E-004
  9.879234681593868E-004
  1.006241951087111E-003
  1.023326732331431E-003
  1.039392718526476E-003
  1.054646471587354E-003
  1.069290040930387E-003
  1.083523652093880E-003
  7.602700477478007E-004
  7.970751012309151E-004
  8.304040548113918E-004
  8.606006684296035E-004
  8.880054684889507E-004
  9.129395694394512E-004
  9.356996072391610E-004
  9.565580762875817E-004
  9.757657246111341E-004
  9.935545384884613E-004
  1.010140770599137E-003
  1.025727769784864E-003
  1.040508392237764E-003
  1.054666567963746E-003
  1.068376877591485E-003
  7.550718455268410E-004
  7.900036857804910E-004
  8.217833490550199E-004
  8.506764955570061E-004
  8.769624045521635E-004
  9.009172865997026E-004
  9.228055500524549E-004
  9.428762481663471E-004
  9.613623517303787E-004
  9.784813760633979E-004
  9.944365405541598E-004
  1.009417965704204E-003
  1.023603487653993E-003
  1.037158528100838E-003
  1.050234164710262E-003
  7.492103391791754E-004
  7.821087914878296E-004
  8.121539272521256E-004
  8.395514966971381E-004
  8.645302667849947E-004
  8.873265652621908E-004
  9.081742890297811E-004
  9.272991546194628E-004
  9.449157547026846E-004
  9.612262600430009E-004
  9.764199505107448E-004
  9.906729912264843E-004
  1.004147958746557E-003
  1.016992595494933E-003
  1.029337199572533E-003
  7.427471831643851E-004
  7.734856480897920E-004
  8.016407151029122E-004
  8.273732834241282E-004
  8.508721982597179E-004
  8.723403738931423E-004
  8.919846948099793E-004
  9.100092031130300E-004
  9.266107504215400E-004
  9.419762924939473E-004
  9.562811379052955E-004
  9.696875945884935E-004
  9.823435387189493E-004
  9.943804654109123E-004
  1.005910623336738E-003
  7.357566426389266E-004
  7.642304329748743E-004
  7.903605300249913E-004
  8.142756506152357E-004
  8.361345514455378E-004
  8.561136437593231E-004
  8.743972891973474E-004
  8.911706094213644E-004
  9.066143516393364E-004
  9.209012557277888E-004
  9.341933883333813E-004
  9.466399699497522E-004
  9.583752820836696E-004
  9.695162999926460E-004
  9.801597773108366E-004
  7.283256582754343E-004
  7.544425266552855E-004
  7.784254583382744E-004
  8.003818842504969E-004
  8.204494489439465E-004
  8.387849255568787E-004
  8.555551039033469E-004
  8.709296197794004E-004
  8.850754719405452E-004
  8.981528586816281E-004
  9.103119351434654E-004
  9.216901099574534E-004
  9.324095411398154E-004
  9.425745500104845E-004
  9.522687570566542E-004
  7.205534958808399E-004
  7.442255404266963E-004
  7.659447567665184E-004
  7.858068646481216E-004
  8.039365776897454E-004
  8.204776317732164E-004
  8.355843284385068E-004
  8.494146133081544E-004
  8.621245477740916E-004
  8.738639273257785E-004
  8.847727510460298E-004
  8.949782410234143E-004
  9.045921354847551E-004
  9.137080298913545E-004
  9.223986167545519E-004
  7.125510356038868E-004
  7.336874988528354E-004
  7.530256815985364E-004
  7.706581606896892E-004
  7.867042022739540E-004
  8.013007491851836E-004
  8.145946276326970E-004
  8.267360111355906E-004
  8.378730605922915E-004
  8.481475690829811E-004
  8.576913863628771E-004
  8.666233798322448E-004
  8.750467017259503E-004
  8.830461727119673E-004
  8.906856576508043E-004
  7.044396921160251E-004
  7.229403503094480E-004
  7.397734710355033E-004
  7.550362699176830E-004
  7.688494428446052E-004
  7.813489897372874E-004
  7.926790718479073E-004
  8.029859484395759E-004
  8.124129451429140E-004
  8.210963254705610E-004
  8.291618809513439E-004
  8.367220292719438E-004
  8.438732140210025E-004
  8.506934319565610E-004
  8.572397707129259E-004
  6.963499287000597E-004
  7.120988744291389E-004
  7.262905961034230E-004
  7.390341008861997E-004
  7.504578625441281E-004
  7.607023787409542E-004
  7.699136576026784E-004
  7.782376904029486E-004
  7.858158820853447E-004
  7.927813297066871E-004
  7.992557767479410E-004
  8.053470378987242E-004
  8.111466870996806E-004
  8.167278294065719E-004
  8.221428302081356E-004
  6.884193163119291E-004
  7.012789981652478E-004
  7.126753226826263E-004
  7.227357376800143E-004
  7.316023827527336E-004
  7.394252776989044E-004
  7.463564082730047E-004
  7.525447894070204E-004
  7.581324895664861E-004
  7.632515025233883E-004
  7.680212769154803E-004
  7.725466723656636E-004
  7.769161064260186E-004
  7.811996851085305E-004
  7.854471645903825E-004
  6.807900882480316E-004
  6.905954969371283E-004
  6.990195715523381E-004
  7.062144704584873E-004
  7.123415024680236E-004
  7.175648164622127E-004
  7.220460398566968E-004
  7.259399901361646E-004
  7.293914481572472E-004
  7.325328473195360E-004
  7.354826326054066E-004
  7.383439937689743E-004
  7.412036763327784E-004
  7.441306115856870E-004
  7.471741706612590E-004
  6.736061507451431E-004
  6.801590303436385E-004
  6.854060090230349E-004
  6.895300109727028E-004
  6.927167394591694E-004
  6.951486686589495E-004
  6.970001591183244E-004
  6.984338945439205E-004
  6.995986184946229E-004
  7.006279460250249E-004
  7.016398896644190E-004
  7.027366874435253E-004
  7.040045387726226E-004
  7.055129146699158E-004
  7.073131902598288E-004
  6.670095295485323E-004
  6.700724317290303E-004
  6.719042307564762E-004
  6.727247227422154E-004
  6.727491255737491E-004
  6.721820419294199E-004
  6.712129321490236E-004
  6.700134039067542E-004
  6.687362459642825E-004
  6.675158140900901E-004
  6.664691989550955E-004
  6.656975747713512E-004
  6.652871964451122E-004
  6.653096212903578E-004
  6.658208385392938E-004
  6.611362611417329E-004
  6.604261216639486E-004
  6.585657911762916E-004
  6.558185570846283E-004
  6.524344587726803E-004
  6.486436625819758E-004
  6.446521217194185E-004
  6.406399673831196E-004
  6.367624007066702E-004
  6.331523552277350E-004
  6.299239922271403E-004
  6.271761406631729E-004
  6.249949793020800E-004
  6.234554541937837E-004
  6.226210614361118E-004
  6.561117700016144E-004
  6.512924190661274E-004
  6.454176385121387E-004
  6.388021572270573E-004
  6.317368121345748E-004
  6.244804031852395E-004
  6.172553473124901E-004
  6.102476991936215E-004
  6.036108890484450E-004
  5.974717766739726E-004
  5.919374604049495E-004
  5.871015493060621E-004
  5.830490292947227E-004
  5.798592000494086E-004
  5.776063091969968E-004
  6.520457963333107E-004
  6.427183250534818E-004
  6.324531634854971E-004
  6.216272028197837E-004
  6.105794854982104E-004
  5.996000270453932E-004
  5.889253919806456E-004
  5.787415063065575E-004
  5.691920170825664E-004
  5.603894996151213E-004
  5.524269544948595E-004
  5.453878032297962E-004
  5.393534552113853E-004
  5.344080796377809E-004
  5.306403463799244E-004
  6.490269199610065E-004
  6.347159401796019E-004
  6.196194050648456E-004
  6.041923942424043E-004
  5.888321110162963E-004
  5.738613286752872E-004
  5.595244195984322E-004
  5.459955444868569E-004
  5.333948156474291E-004
  5.218073410209944E-004
  5.113011689133295E-004
  5.019419420390059E-004
  4.938035454218651E-004
  4.869749498647132E-004
  4.815633869029074E-004
  6.471166000572154E-004
  6.272487896283316E-004
  6.067976639021868E-004
  5.863223054054544E-004
  5.662919665269925E-004
  5.470608466768233E-004
  5.288672094923505E-004
  5.118526669869212E-004
  4.960916648547261E-004
  4.816220337928629E-004
  4.684712698415330E-004
  4.566764902145674E-004
  4.462982759163286E-004
  4.374294935841129E-004
  4.302004882870290E-004
  6.463422399222503E-004
  6.202103819399198E-004
  5.937721286158901E-004
  5.677343205600682E-004
  5.426568392404713E-004
  5.189156834378508E-004
  4.967142546141816E-004
  4.761261334027559E-004
  4.571465934792221E-004
  4.397384280416456E-004
  4.238674237211149E-004
  4.095278559051681E-004
  3.967588624895061E-004
  3.856551785939326E-004
  3.763745485857797E-004
  6.466878220811031E-004
  6.133865429600982E-004
  5.801755229551983E-004
  5.479855379649225E-004
  5.174867795486344E-004
  4.890438262512421E-004
  4.627673162212656E-004
  4.386056348738132E-004
  4.164286098206720E-004
  3.960885076979453E-004
  3.774626255987584E-004
  3.604828717617110E-004
  3.451563918067172E-004
  3.315747291055336E-004
  3.199263451608983E-004
  6.480769988581641E-004
  6.063810439166121E-004
  5.653877229122831E-004
  5.263873742357088E-004
  4.901558943837369E-004
  4.569488342100619E-004
  4.266734847696947E-004
  3.990700832316203E-004
  3.738300227196606E-004
  3.506566451898533E-004
  3.293047188340314E-004
  3.096183131978402E-004
  2.915522219660334E-004
  2.751909578879273E-004
  2.607457053224580E-004
  6.503365726489973E-004
  5.984423026923946E-004
  5.483363997271809E-004
  5.018773232639481E-004
  4.598116102793636E-004
  4.220295964032948E-004
  3.880461346034312E-004
  3.573086432154566E-004
  3.292867246284969E-004
  3.035047637405725E-004
  2.795603234620185E-004
  2.571537378517151E-004
  2.361691762031121E-004
  2.166470887585432E-004
  1.988304894913016E-004
  6.530444027223431E-004
  5.880151666525547E-004
  5.270909765405824E-004
  4.728848751324843E-004
  4.254222120664080E-004
  3.836382387686578E-004
  3.465101865002302E-004
  3.131480708495505E-004
  2.827925257967497E-004
  2.547846722559207E-004
  2.285426325483399E-004
  2.035627847054839E-004
  1.794705127872856E-004
  1.563849280792468E-004
  1.343771407711104E-004
  6.549915402935108E-004
  5.711938856824412E-004
  4.982567446222559E-004
  4.375927152010020E-004
  3.859570986488797E-004
  3.412010143212409E-004
  3.017665808985182E-004
  2.664799985927074E-004
  2.343989046148765E-004
  2.047161230427085E-004
  1.766891103449664E-004
  1.495816703755094E-004
  1.226342261632752E-004
  9.510526715161523E-005
  6.825561352707951E-005
  6.473958462081996E-004
  5.382177839673577E-004
  4.586387475014912E-004
  3.945173298949967E-004
  3.407050394829039E-004
  2.943606663556493E-004
  2.536567105826876E-004
  2.172792304979426E-004
  1.841970611524558E-004
  1.535275325841571E-004
  1.244371771142009E-004
  9.603950184109848E-005
  6.724894922460174E-005
  3.647013157217601E-005
  1.392341034296611E-006
SCALARS poroP double 
LOOKUP_TABLE default
  0.000000000000000E+000
  0.000000000000000E+000
  0.000000000000000E+000
  0.000000000000000E+000
  0.000000000000000E+000
  0.000000000000000E+000
  0.000000000000000E+000
  0.000000000000000E+000
  0.000000000000000E+000
  0.000000000000000E+000
  0.000000000000000E+000
  0.000000000000000E+000
  0.000000000000000E+000
  0.000000000000000E+000
  0.000000000000000E+000
  0.000000000000000E+000
  0.000000000000000E+000
  0.000000000000000E+000
  0.000000000000000E+000
  0.000000000000000E+000
  0.000000000000000E+000
  0.000000000000000E+000
  0.000000000000000E+000
  0.000000000000000E+000
  0.000000000000000E+000
  0.000000000000000E+000
  0.000000000000000E+000
  0.000000000000000E+000
  0.000000000000000E+000
  0.000000000000000E+000
  0.000000000000000E+000
  0.000000000000000E+000
  0.000000000000000E+000
  0.000000000000000E+000
  0.000000000000000E+000
  0.000000000000000E+000
  0.000000000000000E+000
  0.000000000000000E+000
  0.000000000000000E+000
  0.000000000000000E+000
  0.000000000000000E+000
  0.000000000000000E+000
  0.000000000000000E+000
  0.000000000000000E+000
  0.000000000000000E+000
  0.000000000000000E+000
  0.000000000000000E+000
  0.000000000000000E+000
  0.000000000000000E+000
  0.000000000000000E+000
  0.000000000000000E+000
  0.000000000000000E+000
  0.000000000000000E+000
  0.000000000000000E+000
  0.000000000000000E+000
  0.000000000000000E+000
  0.000000000000000E+000
  0.000000000000000E+000
  0.000000000000000E+000
  0.000000000000000E+000
  0.000000000000000E+000
  0.000000000000000E+000
  0.000000000000000E+000
  0.000000000000000E+000
  0.000000000000000E+000
  0.000000000000000E+000
  0.000000000000000E+000
  0.000000000000000E+000
  0.000000000000000E+000
  0.000000000000000E+000
  0.000000000000000E+000
  0.000000000000000E+000
  0.000000000000000E+000
  0.000000000000000E+000
  0.000000000000000E+000
  0.000000000000000E+000
  0.000000000000000E+000
  0.000000000000000E+000
  0.000000000000000E+000
  0.000000000000000E+000
  0.000000000000000E+000
  0.000000000000000E+000
  0.000000000000000E+000
  0.000000000000000E+000
  0.000000000000000E+000
  0.000000000000000E+000
  0.000000000000000E+000
  0.000000000000000E+000
  0.000000000000000E+000
  0.000000000000000E+000
  0.000000000000000E+000
  0.000000000000000E+000
  0.000000000000000E+000
  0.000000000000000E+000
  0.000000000000000E+000
  0.000000000000000E+000
  0.000000000000000E+000
  0.000000000000000E+000
  0.000000000000000E+000
  0.000000000000000E+000
  0.000000000000000E+000
  0.000000000000000E+000
  0.000000000000000E+000
  0.000000000000000E+000
  0.000000000000000E+000
  0.000000000000000E+000
  0.000000000000000E+000
  0.000000000000000E+000
  0.000000000000000E+000
  0.000000000000000E+000
  0.000000000000000E+000
  0.000000000000000E+000
  0.000000000000000E+000
  0.000000000000000E+000
  0.000000000000000E+000
  0.000000000000000E+000
  0.000000000000000E+000
  0.000000000000000E+000
  0.000000000000000E+000
  0.000000000000000E+000
  0.000000000000000E+000
  0.000000000000000E+000
  0.000000000000000E+000
  0.000000000000000E+000
  0.000000000000000E+000
  0.000000000000000E+000
  0.000000000000000E+000
  0.000000000000000E+000
  0.000000000000000E+000
  0.000000000000000E+000
  0.000000000000000E+000
  0.000000000000000E+000
  0.000000000000000E+000
  0.000000000000000E+000
  0.000000000000000E+000
  0.000000000000000E+000
  0.000000000000000E+000
  0.000000000000000E+000
  0.000000000000000E+000
  0.000000000000000E+000
  0.000000000000000E+000
  0.000000000000000E+000
  0.000000000000000E+000
  0.000000000000000E+000
  0.000000000000000E+000
  0.000000000000000E+000
  0.000000000000000E+000
  0.000000000000000E+000
  0.000000000000000E+000
  0.000000000000000E+000
  0.000000000000000E+000
  0.000000000000000E+000
  0.000000000000000E+000
  0.000000000000000E+000
  0.000000000000000E+000
  0.000000000000000E+000
  0.000000000000000E+000
  0.000000000000000E+000
  0.000000000000000E+000
  0.000000000000000E+000
  0.000000000000000E+000
  0.000000000000000E+000
  0.000000000000000E+000
  0.000000000000000E+000
  0.000000000000000E+000
  0.000000000000000E+000
  0.000000000000000E+000
  0.000000000000000E+000
  0.000000000000000E+000
  0.000000000000000E+000
  0.000000000000000E+000
  0.000000000000000E+000
  0.000000000000000E+000
  0.000000000000000E+000
  0.000000000000000E+000
  0.000000000000000E+000
  0.000000000000000E+000
  0.000000000000000E+000
  0.000000000000000E+000
  0.000000000000000E+000
  0.000000000000000E+000
  0.000000000000000E+000
  0.000000000000000E+000
  0.000000000000000E+000
  0.000000000000000E+000
  0.000000000000000E+000
  0.000000000000000E+000
  0.000000000000000E+000
  0.000000000000000E+000
  0.000000000000000E+000
  0.000000000000000E+000
  0.000000000000000E+000
  0.000000000000000E+000
  0.000000000000000E+000
  0.000000000000000E+000
  0.000000000000000E+000
  0.000000000000000E+000
  0.000000000000000E+000
  0.000000000000000E+000
  0.000000000000000E+000
  0.000000000000000E+000
  0.000000000000000E+000
  0.000000000000000E+000
  0.000000000000000E+000
  0.000000000000000E+000
  0.000000000000000E+000
  0.000000000000000E+000
  0.000000000000000E+000
  0.000000000000000E+000
  0.000000000000000E+000
  0.000000000000000E+000
  0.000000000000000E+000
  0.000000000000000E+000
  0.000000000000000E+000
  0.000000000000000E+000
  0.000000000000000E+000
  0.000000000000000E+000
  0.000000000000000E+000
  0.000000000000000E+000
  0.000000000000000E+000
  0.000000000000000E+000
  0.000000000000000E+000
  0.000000000000000E+000
  0.000000000000000E+000
  0.000000000000000E+000
  0.000000000000000E+000
  0.000000000000000E+000
  0.000000000000000E+000
  0.000000000000000E+000
  0.000000000000000E+000
  0.000000000000000E+000
  0.000000000000000E+000
  0.000000000000000E+000
  0.000000000000000E+000
  0.000000000000000E+000
  0.000000000000000E+000
  0.000000000000000E+000
  0.000000000000000E+000
  0.000000000000000E+000
  0.000000000000000E+000
  0.000000000000000E+000
  0.000000000000000E+000
  0.000000000000000E+000
  0.000000000000000E+000
  0.000000000000000E+000
  0.000000000000000E+000
  0.000000000000000E+000
  0.000000000000000E+000
  0.000000000000000E+000
  0.000000000000000E+000
  0.000000000000000E+000
  0.000000000000000E+000
  0.000000000000000E+000
  0.000000000000000E+000
  0.000000000000000E+000
  0.000000000000000E+000
  0.000000000000000E+000
  0.000000000000000E+000
  0.000000000000000E+000
  0.000000000000000E+000
  0.000000000000000E+000
  0.000000000000000E+000
  0.000000000000000E+000
  0.000000000000000E+000
  0.000000000000000E+000
  0.000000000000000E+000
  0.000000000000000E+000
  0.000000000000000E+000
  0.000000000000000E+000
  0.000000000000000E+000
  0.000000000000000E+000
  0.000000000000000E+000
  0.000000000000000E+000
  0.000000000000000E+000
  0.000000000000000E+000
  0.000000000000000E+000
  0.000000000000000E+000
  0.000000000000000E+000
  0.000000000000000E+000
  0.000000000000000E+000
  0.000000000000000E+000
  0.000000000000000E+000
  0.000000000000000E+000
  0.000000000000000E+000
  0.000000000000000E+000
  0.000000000000000E+000
  0.000000000000000E+000
  0.000000000000000E+000
  0.000000000000000E+000
  0.000000000000000E+000
  0.000000000000000E+000
  0.000000000000000E+000
  0.000000000000000E+000
  0.000000000000000E+000
  0.000000000000000E+000
  0.000000000000000E+000
  0.000000000000000E+000
  0.000000000000000E+000
  0.000000000000000E+000
  0.000000000000000E+000
  0.000000000000000E+000
  0.000000000000000E+000
  0.000000000000000E+000
  0.000000000000000E+000
  0.000000000000000E+000
  0.000000000000000E+000
  0.000000000000000E+000
  0.000000000000000E+000
  0.000000000000000E+000
  0.000000000000000E+000
  0.000000000000000E+000
  0.000000000000000E+000
  0.000000000000000E+000
  0.000000000000000E+000
  0.000000000000000E+000
  0.000000000000000E+000
  0.000000000000000E+000
  0.000000000000000E+000
  0.000000000000000E+000
  0.000000000000000E+000
  0.000000000000000E+000
  0.000000000000000E+000
  0.000000000000000E+000
  0.000000000000000E+000
  0.000000000000000E+000
  0.000000000000000E+000
  0.000000000000000E+000
  0.000000000000000E+000
  0.000000000000000E+000
  0.000000000000000E+000
  0.000000000000000E+000
  0.000000000000000E+000
  0.000000000000000E+000
  0.000000000000000E+000
  0.000000000000000E+000
  0.000000000000000E+000
  0.000000000000000E+000
  0.000000000000000E+000
  0.000000000000000E+000
  0.000000000000000E+000
  0.000000000000000E+000
  0.000000000000000E+000
  0.000000000000000E+000
  0.000000000000000E+000
  0.000000000000000E+000
  0.000000000000000E+000
  0.000000000000000E+000
  0.000000000000000E+000
  0.000000000000000E+000
  0.000000000000000E+000
  0.000000000000000E+000
  0.000000000000000E+000
  0.000000000000000E+000
  0.000000000000000E+000
  0.000000000000000E+000
  0.000000000000000E+000
  0.000000000000000E+000
  0.000000000000000E+000
  0.000000000000000E+000
  0.000000000000000E+000
  0.000000000000000E+000
  0.000000000000000E+000
  0.000000000000000E+000
  0.000000000000000E+000
  0.000000000000000E+000
  0.000000000000000E+000
  0.000000000000000E+000
  0.000000000000000E+000
  0.000000000000000E+000
  0.000000000000000E+000
  0.000000000000000E+000
  0.000000000000000E+000
  0.000000000000000E+000
  0.000000000000000E+000
  0.000000000000000E+000
  0.000000000000000E+000
  0.000000000000000E+000
  0.000000000000000E+000
  0.000000000000000E+000
  0.000000000000000E+000
  0.000000000000000E+000
  0.000000000000000E+000
  0.000000000000000E+000
  0.000000000000000E+000
  0.000000000000000E+000
  0.000000000000000E+000
  0.000000000000000E+000
  0.000000000000000E+000
  0.000000000000000E+000
  0.000000000000000E+000
  0.000000000000000E+000
  0.000000000000000E+000
  0.000000000000000E+000
  0.000000000000000E+000
  0.000000000000000E+000
  0.000000000000000E+000
  0.000000000000000E+000
  0.000000000000000E+000
  0.000000000000000E+000
  0.000000000000000E+000
  0.000000000000000E+000
  0.000000000000000E+000
  0.000000000000000E+000
  0.000000000000000E+000
  0.000000000000000E+000
  0.000000000000000E+000
  0.000000000000000E+000
  0.000000000000000E+000
  0.000000000000000E+000
  0.000000000000000E+000
  0.000000000000000E+000
  0.000000000000000E+000
  0.000000000000000E+000
  0.000000000000000E+000
  0.000000000000000E+000
  0.000000000000000E+000
  0.000000000000000E+000
  0.000000000000000E+000
  0.000000000000000E+000
  0.000000000000000E+000
  0.000000000000000E+000
  0.000000000000000E+000
  0.000000000000000E+000
  0.000000000000000E+000
  0.000000000000000E+000
  0.000000000000000E+000
  0.000000000000000E+000
  0.000000000000000E+000
  0.000000000000000E+000
  0.000000000000000E+000
  0.000000000000000E+000
  0.000000000000000E+000
  0.000000000000000E+000
  0.000000000000000E+000
  0.000000000000000E+000
  0.000000000000000E+000
  0.000000000000000E+000
  0.000000000000000E+000
  0.000000000000000E+000
  0.000000000000000E+000
  0.000000000000000E+000
  0.000000000000000E+000
  0.000000000000000E+000
  0.000000000000000E+000
  0.000000000000000E+000
  0.000000000000000E+000
  0.000000000000000E+000
  0.000000000000000E+000
  0.000000000000000E+000
  0.000000000000000E+000
SCALARS elementIsPlast double 
LOOKUP_TABLE default
  0.000000000000000E+000
  0.000000000000000E+000
  0.000000000000000E+000
  0.000000000000000E+000
  0.000000000000000E+000
  0.000000000000000E+000
  0.000000000000000E+000
  0.000000000000000E+000
  0.000000000000000E+000
  0.000000000000000E+000
  0.000000000000000E+000
  0.000000000000000E+000
  0.000000000000000E+000
  0.000000000000000E+000
  0.000000000000000E+000
  0.000000000000000E+000
  0.000000000000000E+000
  0.000000000000000E+000
  0.000000000000000E+000
  0.000000000000000E+000
  0.000000000000000E+000
  0.000000000000000E+000
  0.000000000000000E+000
  0.000000000000000E+000
  0.000000000000000E+000
  0.000000000000000E+000
  0.000000000000000E+000
  0.000000000000000E+000
  0.000000000000000E+000
  0.000000000000000E+000
  0.000000000000000E+000
  0.000000000000000E+000
  0.000000000000000E+000
  0.000000000000000E+000
  0.000000000000000E+000
  0.000000000000000E+000
  0.000000000000000E+000
  0.000000000000000E+000
  0.000000000000000E+000
  0.000000000000000E+000
  0.000000000000000E+000
  0.000000000000000E+000
  0.000000000000000E+000
  0.000000000000000E+000
  0.000000000000000E+000
  0.000000000000000E+000
  0.000000000000000E+000
  0.000000000000000E+000
  0.000000000000000E+000
  0.000000000000000E+000
  0.000000000000000E+000
  0.000000000000000E+000
  0.000000000000000E+000
  0.000000000000000E+000
  0.000000000000000E+000
  0.000000000000000E+000
  0.000000000000000E+000
  0.000000000000000E+000
  0.000000000000000E+000
  0.000000000000000E+000
  0.000000000000000E+000
  0.000000000000000E+000
  0.000000000000000E+000
  0.000000000000000E+000
  0.000000000000000E+000
  0.000000000000000E+000
  0.000000000000000E+000
  0.000000000000000E+000
  0.000000000000000E+000
  0.000000000000000E+000
  0.000000000000000E+000
  0.000000000000000E+000
  0.000000000000000E+000
  0.000000000000000E+000
  0.000000000000000E+000
  0.000000000000000E+000
  0.000000000000000E+000
  0.000000000000000E+000
  0.000000000000000E+000
  0.000000000000000E+000
  0.000000000000000E+000
  0.000000000000000E+000
  0.000000000000000E+000
  0.000000000000000E+000
  0.000000000000000E+000
  0.000000000000000E+000
  0.000000000000000E+000
  0.000000000000000E+000
  0.000000000000000E+000
  0.000000000000000E+000
  0.000000000000000E+000
  0.000000000000000E+000
  0.000000000000000E+000
  0.000000000000000E+000
  0.000000000000000E+000
  0.000000000000000E+000
  0.000000000000000E+000
  0.000000000000000E+000
  0.000000000000000E+000
  0.000000000000000E+000
  0.000000000000000E+000
  0.000000000000000E+000
  0.000000000000000E+000
  0.000000000000000E+000
  0.000000000000000E+000
  0.000000000000000E+000
  0.000000000000000E+000
  0.000000000000000E+000
  0.000000000000000E+000
  0.000000000000000E+000
  0.000000000000000E+000
  0.000000000000000E+000
  0.000000000000000E+000
  0.000000000000000E+000
  0.000000000000000E+000
  0.000000000000000E+000
  0.000000000000000E+000
  0.000000000000000E+000
  0.000000000000000E+000
  0.000000000000000E+000
  0.000000000000000E+000
  0.000000000000000E+000
  0.000000000000000E+000
  0.000000000000000E+000
  0.000000000000000E+000
  0.000000000000000E+000
  0.000000000000000E+000
  0.000000000000000E+000
  0.000000000000000E+000
  0.000000000000000E+000
  0.000000000000000E+000
  0.000000000000000E+000
  0.000000000000000E+000
  0.000000000000000E+000
  0.000000000000000E+000
  0.000000000000000E+000
  0.000000000000000E+000
  0.000000000000000E+000
  0.000000000000000E+000
  0.000000000000000E+000
  0.000000000000000E+000
  0.000000000000000E+000
  0.000000000000000E+000
  0.000000000000000E+000
  0.000000000000000E+000
  0.000000000000000E+000
  0.000000000000000E+000
  0.000000000000000E+000
  0.000000000000000E+000
  0.000000000000000E+000
  0.000000000000000E+000
  0.000000000000000E+000
  0.000000000000000E+000
  0.000000000000000E+000
  0.000000000000000E+000
  0.000000000000000E+000
  0.000000000000000E+000
  0.000000000000000E+000
  0.000000000000000E+000
  0.000000000000000E+000
  0.000000000000000E+000
  0.000000000000000E+000
  0.000000000000000E+000
  0.000000000000000E+000
  0.000000000000000E+000
  0.000000000000000E+000
  0.000000000000000E+000
  0.000000000000000E+000
  0.000000000000000E+000
  0.000000000000000E+000
  0.000000000000000E+000
  0.000000000000000E+000
  0.000000000000000E+000
  0.000000000000000E+000
  0.000000000000000E+000
  0.000000000000000E+000
  0.000000000000000E+000
  0.000000000000000E+000
  0.000000000000000E+000
  0.000000000000000E+000
  0.000000000000000E+000
  0.000000000000000E+000
  0.000000000000000E+000
  0.000000000000000E+000
  0.000000000000000E+000
  0.000000000000000E+000
  0.000000000000000E+000
  0.000000000000000E+000
  0.000000000000000E+000
  0.000000000000000E+000
  0.000000000000000E+000
  0.000000000000000E+000
  0.000000000000000E+000
  0.000000000000000E+000
  0.000000000000000E+000
  0.000000000000000E+000
  0.000000000000000E+000
  0.000000000000000E+000
  0.000000000000000E+000
  0.000000000000000E+000
  0.000000000000000E+000
  0.000000000000000E+000
  0.000000000000000E+000
  0.000000000000000E+000
  0.000000000000000E+000
  0.000000000000000E+000
  0.000000000000000E+000
  0.000000000000000E+000
  0.000000000000000E+000
  0.000000000000000E+000
  0.000000000000000E+000
  0.000000000000000E+000
  0.000000000000000E+000
  0.000000000000000E+000
  0.000000000000000E+000
  0.000000000000000E+000
  0.000000000000000E+000
  0.000000000000000E+000
  0.000000000000000E+000
  0.000000000000000E+000
  0.000000000000000E+000
  0.000000000000000E+000
  0.000000000000000E+000
  0.000000000000000E+000
  0.000000000000000E+000
  0.000000000000000E+000
  0.000000000000000E+000
  0.000000000000000E+000
  0.000000000000000E+000
  0.000000000000000E+000
  0.000000000000000E+000
  0.000000000000000E+000
  0.000000000000000E+000
  0.000000000000000E+000
  0.000000000000000E+000
  0.000000000000000E+000
  0.000000000000000E+000
  0.000000000000000E+000
  0.000000000000000E+000
  0.000000000000000E+000
  0.000000000000000E+000
  0.000000000000000E+000
  0.000000000000000E+000
  0.000000000000000E+000
  0.000000000000000E+000
  0.000000000000000E+000
  0.000000000000000E+000
  0.000000000000000E+000
  0.000000000000000E+000
  0.000000000000000E+000
  0.000000000000000E+000
  0.000000000000000E+000
  0.000000000000000E+000
  0.000000000000000E+000
  0.000000000000000E+000
  0.000000000000000E+000
  0.000000000000000E+000
  0.000000000000000E+000
  0.000000000000000E+000
  0.000000000000000E+000
  0.000000000000000E+000
  0.000000000000000E+000
  0.000000000000000E+000
  0.000000000000000E+000
  0.000000000000000E+000
  0.000000000000000E+000
  0.000000000000000E+000
  0.000000000000000E+000
  0.000000000000000E+000
  0.000000000000000E+000
  0.000000000000000E+000
  0.000000000000000E+000
  0.000000000000000E+000
  0.000000000000000E+000
  0.000000000000000E+000
  0.000000000000000E+000
  0.000000000000000E+000
  0.000000000000000E+000
  0.000000000000000E+000
  0.000000000000000E+000
  0.000000000000000E+000
  0.000000000000000E+000
  0.000000000000000E+000
  0.000000000000000E+000
  0.000000000000000E+000
  0.000000000000000E+000
  0.000000000000000E+000
  0.000000000000000E+000
  0.000000000000000E+000
  0.000000000000000E+000
  0.000000000000000E+000
  0.000000000000000E+000
  0.000000000000000E+000
  0.000000000000000E+000
  0.000000000000000E+000
  0.000000000000000E+000
  0.000000000000000E+000
  0.000000000000000E+000
  0.000000000000000E+000
  0.000000000000000E+000
  0.000000000000000E+000
  0.000000000000000E+000
  0.000000000000000E+000
  0.000000000000000E+000
  0.000000000000000E+000
  0.000000000000000E+000
  0.000000000000000E+000
  0.000000000000000E+000
  0.000000000000000E+000
  0.000000000000000E+000
  0.000000000000000E+000
  0.000000000000000E+000
  0.000000000000000E+000
  0.000000000000000E+000
  0.000000000000000E+000
  0.000000000000000E+000
  0.000000000000000E+000
  0.000000000000000E+000
  0.000000000000000E+000
  0.000000000000000E+000
  0.000000000000000E+000
  0.000000000000000E+000
  0.000000000000000E+000
  0.000000000000000E+000
  0.000000000000000E+000
  0.000000000000000E+000
  0.000000000000000E+000
  0.000000000000000E+000
  0.000000000000000E+000
  0.000000000000000E+000
  0.000000000000000E+000
  0.000000000000000E+000
  0.000000000000000E+000
  0.000000000000000E+000
  0.000000000000000E+000
  0.000000000000000E+000
  0.000000000000000E+000
  0.000000000000000E+000
  0.000000000000000E+000
  0.000000000000000E+000
  0.000000000000000E+000
  0.000000000000000E+000
  0.000000000000000E+000
  0.000000000000000E+000
  0.000000000000000E+000
  0.000000000000000E+000
  0.000000000000000E+000
  0.000000000000000E+000
  0.000000000000000E+000
  0.000000000000000E+000
  0.000000000000000E+000
  0.000000000000000E+000
  0.000000000000000E+000
  0.000000000000000E+000
  0.000000000000000E+000
  0.000000000000000E+000
  0.000000000000000E+000
  0.000000000000000E+000
  0.000000000000000E+000
  0.000000000000000E+000
  0.000000000000000E+000
  0.000000000000000E+000
  0.000000000000000E+000
  0.000000000000000E+000
  0.000000000000000E+000
  0.000000000000000E+000
  0.000000000000000E+000
  0.000000000000000E+000
  0.000000000000000E+000
  0.000000000000000E+000
  0.000000000000000E+000
  0.000000000000000E+000
  0.000000000000000E+000
  0.000000000000000E+000
  0.000000000000000E+000
  0.000000000000000E+000
  0.000000000000000E+000
  0.000000000000000E+000
  0.000000000000000E+000
  0.000000000000000E+000
  0.000000000000000E+000
  0.000000000000000E+000
  0.000000000000000E+000
  0.000000000000000E+000
  0.000000000000000E+000
  0.000000000000000E+000
  0.000000000000000E+000
  0.000000000000000E+000
  0.000000000000000E+000
  0.000000000000000E+000
  0.000000000000000E+000
  0.000000000000000E+000
  0.000000000000000E+000
  0.000000000000000E+000
  0.000000000000000E+000
  0.000000000000000E+000
  0.000000000000000E+000
  0.000000000000000E+000
  0.000000000000000E+000
  0.000000000000000E+000
  0.000000000000000E+000
  0.000000000000000E+000
  0.000000000000000E+000
  0.000000000000000E+000
  0.000000000000000E+000
  0.000000000000000E+000
  0.000000000000000E+000
  0.000000000000000E+000
  0.000000000000000E+000
  0.000000000000000E+000
  0.000000000000000E+000
  0.000000000000000E+000
  0.000000000000000E+000
  0.000000000000000E+000
  0.000000000000000E+000
  0.000000000000000E+000
  0.000000000000000E+000
  0.000000000000000E+000
  0.000000000000000E+000
  0.000000000000000E+000
  0.000000000000000E+000
  0.000000000000000E+000
  0.000000000000000E+000
  0.000000000000000E+000
  0.000000000000000E+000
  0.000000000000000E+000
  0.000000000000000E+000
  0.000000000000000E+000
  0.000000000000000E+000
  0.000000000000000E+000
  0.000000000000000E+000
  0.000000000000000E+000
  0.000000000000000E+000
  0.000000000000000E+000
  0.000000000000000E+000
  0.000000000000000E+000
  0.000000000000000E+000
  0.000000000000000E+000
  0.000000000000000E+000
  0.000000000000000E+000
  0.000000000000000E+000
  0.000000000000000E+000
  0.000000000000000E+000
  0.000000000000000E+000
  0.000000000000000E+000
  0.000000000000000E+000
  0.000000000000000E+000
  0.000000000000000E+000
  0.000000000000000E+000
  0.000000000000000E+000
SCALARS poroL double 
LOOKUP_TABLE default
  0.156103365175094     
  0.156088780015806     
  0.156077830073244     
  0.156068881275542     
  0.156061296277905     
  0.156054705033547     
  0.156048864766708     
  0.156043598168694     
  0.156038763363643     
  0.156034235132348     
  0.156029889358940     
  0.156025584463045     
  0.156021126887975     
  0.156016199203378     
  0.156009874048299     
  0.156089739510379     
  0.156078253075778     
  0.156068303411134     
  0.156059891122297     
  0.156052631777633     
  0.156046262637412     
  0.156040587380303     
  0.156035454021402     
  0.156030737016842     
  0.156026324758714     
  0.156022108996673     
  0.156017973219693     
  0.156013782578481     
  0.156009346132895     
  0.156004863622031     
  0.156074875840187     
  0.156065818414959     
  0.156057406523825     
  0.156049873657267     
  0.156043190566987     
  0.156037228157199     
  0.156031862066508     
  0.156026981421634     
  0.156022488536213     
  0.156018295202365     
  0.156014319120057     
  0.156010483193575     
  0.156006718805995     
  0.156003040648526     
  0.155999561850932     
  0.156059914807897     
  0.156052633432088     
  0.156045619950256     
  0.156039091015437     
  0.156033120140280     
  0.156027689079105     
  0.156022740078376     
  0.156018206640909     
  0.156014023121957     
  0.156010128571042     
  0.156006469412437     
  0.156003004273754     
  0.155999721690503     
  0.155996656929704     
  0.155993916371994     
  0.156045103114501     
  0.156039199367460     
  0.156033374702007     
  0.156027805242711     
  0.156022586792818     
  0.156017750172516     
  0.156013285875301     
  0.156009164658182     
  0.156005350607720     
  0.156001808547896     
  0.155998509853493     
  0.155995440064191     
  0.155992607937628     
  0.155990056430106     
  0.155987866494008     
  0.156030535402244     
  0.156025742317746     
  0.156020926432913     
  0.156016228301030     
  0.156011741271787     
  0.156007515173095     
  0.156003567378884     
  0.155999895231420     
  0.155996486348380     
  0.155993326452730     
  0.155990405874608     
  0.155987725740025     
  0.155985304259296     
  0.155983181306299     
  0.155981419713353     
  0.156016250939268     
  0.156012378031645     
  0.156008425189774     
  0.156004505888451     
  0.156000704160986     
  0.155997074859127     
  0.155993648684108     
  0.155990439363075     
  0.155987450908937     
  0.155984684060115     
  0.155982141855092     
  0.155979834535696     
  0.155977783532053     
  0.155976023918874     
  0.155974604288735     
  0.156002264643933     
  0.155999168055967     
  0.155995960514471     
  0.155992734803301     
  0.155989564386558     
  0.155986502804250     
  0.155983586035431     
  0.155980836679933     
  0.155978268812659     
  0.155975892744239     
  0.155973719315311     
  0.155971763509847     
  0.155970047133194     
  0.155968600140551     
  0.155967460235524     
  0.155988577003740     
  0.155986143930866     
  0.155983585554471     
  0.155980978282956     
  0.155978385296915     
  0.155975855889049     
  0.155973426627942     
  0.155971123844106     
  0.155968966810869     
  0.155966971079310     
  0.155965151576418     
  0.155963525181651     
  0.155962112523157     
  0.155960938747186     
  0.155960033065347     
  0.155975178593821     
  0.155973318589112     
  0.155971330341701     
  0.155969276654805     
  0.155967211001270     
  0.155965177008083     
  0.155963209064014     
  0.155961333828622     
  0.155959572297001     
  0.155957942062058     
  0.155956459463270     
  0.155955141365664     
  0.155954006356511     
  0.155953075188069     
  0.155952370359827     
  0.155962052478894     
  0.155960692476099     
  0.155959209460045     
  0.155957654371147     
  0.155956071477973     
  0.155954498018208     
  0.155952964532474     
  0.155951495792073     
  0.155950112126732     
  0.155948830922460     
  0.155947668065462     
  0.155946639134787     
  0.155945760180668     
  0.155945047967021     
  0.155944519608796     
  0.155949175792820     
  0.155948257192357     
  0.155947226772242     
  0.155946124693392     
  0.155944986385750     
  0.155943842307701     
  0.155942718131746     
  0.155941635311194     
  0.155940611917473     
  0.155939663603324     
  0.155938804539996     
  0.155938048188017     
  0.155937407784316     
  0.155936896459790     
  0.155936526939730     
  0.155936520964115     
  0.155935997903791     
  0.155935378536310     
  0.155934692913355     
  0.155933967873577     
  0.155933226879962     
  0.155932490114227     
  0.155931774806761     
  0.155931095739286     
  0.155930465832036     
  0.155929896718255     
  0.155929399213168     
  0.155928983598669     
  0.155928659666017     
  0.155928436484389     
  0.155924056781907     
  0.155923895101027     
  0.155923655613113     
  0.155923358673280     
  0.155923022693105     
  0.155922664026108     
  0.155922296997393     
  0.155921934066870     
  0.155921586092243     
  0.155921262642541     
  0.155920972306317     
  0.155920722940062     
  0.155920521810099     
  0.155920375593538     
  0.155920290219134     
  0.155911749380680     
  0.155911926000194     
  0.155912045149552     
  0.155912117735127     
  0.155912153851367     
  0.155912162697249     
  0.155912152553833     
  0.155912130818040     
  0.155912104078932     
  0.155912078216603     
  0.155912058500953     
  0.155912049668009     
  0.155912055954577     
  0.155912081077219     
  0.155912128148000     
  0.155899563176293     
  0.155900065741097     
  0.155900531959442     
  0.155900963421001     
  0.155901361976077     
  0.155901729677627     
  0.155902068712236     
  0.155902381319383     
  0.155902669702279     
  0.155902935936108     
  0.155903181880720     
  0.155903409104831     
  0.155903618828008     
  0.155903811885448     
  0.155903988719105     
  0.155887461768360     
  0.155888288473839     
  0.155889099739764     
  0.155889887872006     
  0.155890646518297     
  0.155891370641303     
  0.155892056403334     
  0.155892700967238     
  0.155893302235266     
  0.155893858559069     
  0.155894368458863     
  0.155894830388990     
  0.155895242582114     
  0.155895602996329     
  0.155895909379783     
  0.155875408818636     
  0.155876568395300     
  0.155877732218733     
  0.155878883233412     
  0.155880006888972     
  0.155881091160779     
  0.155882126382269     
  0.155883104902936     
  0.155884020619203     
  0.155884868445738     
  0.155885643802056     
  0.155886342186028     
  0.155886958895271     
  0.155887488941737     
  0.155887927185858     
  0.155863368914044     
  0.155864880787261     
  0.155866414317933     
  0.155867942859751     
  0.155869443614835     
  0.155870897729665     
  0.155872290057051     
  0.155873608618005     
  0.155874843851348     
  0.155875987767173     
  0.155877033126329     
  0.155877972758844     
  0.155878799115755     
  0.155879504124162     
  0.155880079385335     
  0.155851308424172     
  0.155853203113531     
  0.155855133418350     
  0.155857062640591     
  0.155858959604223     
  0.155860798863943     
  0.155862560353196     
  0.155864228550346     
  0.155865791321280     
  0.155867238626966     
  0.155868561279619     
  0.155869749909069     
  0.155870794272838     
  0.155871683009910     
  0.155872403896340     
  0.155839196367904     
  0.155841516257051     
  0.155843880852481     
  0.155846242578170     
  0.155848561634701     
  0.155850806356809     
  0.155852952646161     
  0.155854982660974     
  0.155856883048534     
  0.155858643017701     
  0.155860252508985     
  0.155861700673841     
  0.155862974838231     
  0.155864060092083     
  0.155864939593504     
  0.155827005318321     
  0.155829806031800     
  0.155832653814539     
  0.155835488809601     
  0.155838262213298     
  0.155840936776866     
  0.155843485791241     
  0.155845890971039     
  0.155848139761168     
  0.155850222517847     
  0.155852129889856     
  0.155853850636183     
  0.155855370093307     
  0.155856669495059     
  0.155857726306663     
  0.155814712413036     
  0.155818065218666     
  0.155821458017290     
  0.155824816374610     
  0.155828082015289     
  0.155831213307569     
  0.155834183264049     
  0.155836976018203     
  0.155839582737480     
  0.155841997616757     
  0.155844214265207     
  0.155846222664462     
  0.155848006906529     
  0.155849544051673     
  0.155850804419328     
  0.155802300633536     
  0.155806296617705     
  0.155810311692005     
  0.155814253208938     
  0.155818053164455     
  0.155821667995970     
  0.155825074368759     
  0.155828263152276     
  0.155831233321289     
  0.155833986546356     
  0.155836522515451     
  0.155838834824131     
  0.155840907633967     
  0.155842713599009     
  0.155844213928316     
  0.155789760745283     
  0.155794518168830     
  0.155799252060136     
  0.155803846121779     
  0.155808223613737     
  0.155812344328270     
  0.155816195329885     
  0.155819780531354     
  0.155823112034340     
  0.155826203551702     
  0.155829064957940     
  0.155831697118031     
  0.155834086644888     
  0.155836202074328     
  0.155837992751884     
  0.155777094981698     
  0.155782772506798     
  0.155788346541970     
  0.155793669841107     
  0.155798662584669     
  0.155803299618584     
  0.155807589783543     
  0.155811558613738     
  0.155815237341436     
  0.155818656661976     
  0.155821841857162     
  0.155824806451519     
  0.155827544692047     
  0.155830022436315     
  0.155832173975886     
  0.155764325223168     
  0.155771147299748     
  0.155777713132976     
  0.155783840061618     
  0.155789465832457     
  0.155794605574372     
  0.155799307884565     
  0.155803628917867     
  0.155807624279140     
  0.155811345756085     
  0.155814839051517     
  0.155818139757723     
  0.155821258686851     
  0.155824167945185     
  0.155826780738286     
  0.155751518887451     
  0.155759822561841     
  0.155767558586272     
  0.155774528305950     
  0.155780754592651     
  0.155786344886206     
  0.155791403043662     
  0.155796021904446     
  0.155800283458476     
  0.155804261883783     
  0.155808026478992     
  0.155811642231005     
  0.155815167104476     
  0.155818590108393     
  0.155821818826858     
  0.155738870042987     
  0.155749209803979     
  0.155758237662639     
  0.155765948655639     
  0.155772663546719     
  0.155778601380699     
  0.155783925918988     
  0.155788764072838     
  0.155793220822794     
  0.155797389603142     
  0.155801361062476     
  0.155805232677046     
  0.155809117097524     
  0.155813173445595     
  0.155817237468852     
  0.155727325035680     
  0.155740274508039     
  0.155750147810845     
  0.155758316132767     
  0.155765312208036     
  0.155771444799229     
  0.155776916332376     
  0.155781874706389     
  0.155786438378269     
  0.155790711982181     
  0.155794799220543     
  0.155798818230592     
  0.155802930155315     
  0.155807398697422     
  0.155812992749206     
