# vtk DataFile Version 3.0
vtk output
ASCII
DATASET UNSTRUCTURED_GRID
POINTS       496 double 
  0.00000000E+00  3.00000000E+02  0.00000000E+00
  0.00000000E+00  2.80000000E+02  0.00000000E+00
  0.00000000E+00  2.60000000E+02  0.00000000E+00
  0.00000000E+00  2.40000000E+02  0.00000000E+00
  0.00000000E+00  2.20000000E+02  0.00000000E+00
  0.00000000E+00  2.00000000E+02  0.00000000E+00
  0.00000000E+00  1.80000000E+02  0.00000000E+00
  0.00000000E+00  1.60000000E+02  0.00000000E+00
  0.00000000E+00  1.40000000E+02  0.00000000E+00
  0.00000000E+00  1.20000000E+02  0.00000000E+00
  0.00000000E+00  1.00000000E+02  0.00000000E+00
  0.00000000E+00  8.00000000E+01  0.00000000E+00
  0.00000000E+00  6.00000000E+01  0.00000000E+00
  0.00000000E+00  4.00000000E+01  0.00000000E+00
  0.00000000E+00  2.00000000E+01  0.00000000E+00
  0.00000000E+00  4.99600361E-14  0.00000000E+00
  2.00000000E+01  3.00000000E+02  0.00000000E+00
  2.00000000E+01  2.80000000E+02  0.00000000E+00
  2.00000000E+01  2.60000000E+02  0.00000000E+00
  2.00000000E+01  2.40000000E+02  0.00000000E+00
  2.00000000E+01  2.20000000E+02  0.00000000E+00
  2.00000000E+01  2.00000000E+02  0.00000000E+00
  2.00000000E+01  1.80000000E+02  0.00000000E+00
  2.00000000E+01  1.60000000E+02  0.00000000E+00
  2.00000000E+01  1.40000000E+02  0.00000000E+00
  2.00000000E+01  1.20000000E+02  0.00000000E+00
  2.00000000E+01  1.00000000E+02  0.00000000E+00
  2.00000000E+01  8.00000000E+01  0.00000000E+00
  2.00000000E+01  6.00000000E+01  0.00000000E+00
  2.00000000E+01  4.00000000E+01  0.00000000E+00
  2.00000000E+01  2.00000000E+01  0.00000000E+00
  2.00000000E+01  4.99600361E-14  0.00000000E+00
  4.00000000E+01  3.00000000E+02  0.00000000E+00
  4.00000000E+01  2.80000000E+02  0.00000000E+00
  4.00000000E+01  2.60000000E+02  0.00000000E+00
  4.00000000E+01  2.40000000E+02  0.00000000E+00
  4.00000000E+01  2.20000000E+02  0.00000000E+00
  4.00000000E+01  2.00000000E+02  0.00000000E+00
  4.00000000E+01  1.80000000E+02  0.00000000E+00
  4.00000000E+01  1.60000000E+02  0.00000000E+00
  4.00000000E+01  1.40000000E+02  0.00000000E+00
  4.00000000E+01  1.20000000E+02  0.00000000E+00
  4.00000000E+01  1.00000000E+02  0.00000000E+00
  4.00000000E+01  8.00000000E+01  0.00000000E+00
  4.00000000E+01  6.00000000E+01  0.00000000E+00
  4.00000000E+01  4.00000000E+01  0.00000000E+00
  4.00000000E+01  2.00000000E+01  0.00000000E+00
  4.00000000E+01  4.99600361E-14  0.00000000E+00
  6.00000000E+01  3.00000000E+02  0.00000000E+00
  6.00000000E+01  2.80000000E+02  0.00000000E+00
  6.00000000E+01  2.60000000E+02  0.00000000E+00
  6.00000000E+01  2.40000000E+02  0.00000000E+00
  6.00000000E+01  2.20000000E+02  0.00000000E+00
  6.00000000E+01  2.00000000E+02  0.00000000E+00
  6.00000000E+01  1.80000000E+02  0.00000000E+00
  6.00000000E+01  1.60000000E+02  0.00000000E+00
  6.00000000E+01  1.40000000E+02  0.00000000E+00
  6.00000000E+01  1.20000000E+02  0.00000000E+00
  6.00000000E+01  1.00000000E+02  0.00000000E+00
  6.00000000E+01  8.00000000E+01  0.00000000E+00
  6.00000000E+01  6.00000000E+01  0.00000000E+00
  6.00000000E+01  4.00000000E+01  0.00000000E+00
  6.00000000E+01  2.00000000E+01  0.00000000E+00
  6.00000000E+01  4.99600361E-14  0.00000000E+00
  8.00000000E+01  3.00000000E+02  0.00000000E+00
  8.00000000E+01  2.80000000E+02  0.00000000E+00
  8.00000000E+01  2.60000000E+02  0.00000000E+00
  8.00000000E+01  2.40000000E+02  0.00000000E+00
  8.00000000E+01  2.20000000E+02  0.00000000E+00
  8.00000000E+01  2.00000000E+02  0.00000000E+00
  8.00000000E+01  1.80000000E+02  0.00000000E+00
  8.00000000E+01  1.60000000E+02  0.00000000E+00
  8.00000000E+01  1.40000000E+02  0.00000000E+00
  8.00000000E+01  1.20000000E+02  0.00000000E+00
  8.00000000E+01  1.00000000E+02  0.00000000E+00
  8.00000000E+01  8.00000000E+01  0.00000000E+00
  8.00000000E+01  6.00000000E+01  0.00000000E+00
  8.00000000E+01  4.00000000E+01  0.00000000E+00
  8.00000000E+01  2.00000000E+01  0.00000000E+00
  8.00000000E+01  4.99600361E-14  0.00000000E+00
  1.00000000E+02  3.00000000E+02  0.00000000E+00
  1.00000000E+02  2.80000000E+02  0.00000000E+00
  1.00000000E+02  2.60000000E+02  0.00000000E+00
  1.00000000E+02  2.40000000E+02  0.00000000E+00
  1.00000000E+02  2.20000000E+02  0.00000000E+00
  1.00000000E+02  2.00000000E+02  0.00000000E+00
  1.00000000E+02  1.80000000E+02  0.00000000E+00
  1.00000000E+02  1.60000000E+02  0.00000000E+00
  1.00000000E+02  1.40000000E+02  0.00000000E+00
  1.00000000E+02  1.20000000E+02  0.00000000E+00
  1.00000000E+02  1.00000000E+02  0.00000000E+00
  1.00000000E+02  8.00000000E+01  0.00000000E+00
  1.00000000E+02  6.00000000E+01  0.00000000E+00
  1.00000000E+02  4.00000000E+01  0.00000000E+00
  1.00000000E+02  2.00000000E+01  0.00000000E+00
  1.00000000E+02  4.99600361E-14  0.00000000E+00
  1.20000000E+02  3.00000000E+02  0.00000000E+00
  1.20000000E+02  2.80000000E+02  0.00000000E+00
  1.20000000E+02  2.60000000E+02  0.00000000E+00
  1.20000000E+02  2.40000000E+02  0.00000000E+00
  1.20000000E+02  2.20000000E+02  0.00000000E+00
  1.20000000E+02  2.00000000E+02  0.00000000E+00
  1.20000000E+02  1.80000000E+02  0.00000000E+00
  1.20000000E+02  1.60000000E+02  0.00000000E+00
  1.20000000E+02  1.40000000E+02  0.00000000E+00
  1.20000000E+02  1.20000000E+02  0.00000000E+00
  1.20000000E+02  1.00000000E+02  0.00000000E+00
  1.20000000E+02  8.00000000E+01  0.00000000E+00
  1.20000000E+02  6.00000000E+01  0.00000000E+00
  1.20000000E+02  4.00000000E+01  0.00000000E+00
  1.20000000E+02  2.00000000E+01  0.00000000E+00
  1.20000000E+02  4.99600361E-14  0.00000000E+00
  1.40000000E+02  3.00000000E+02  0.00000000E+00
  1.40000000E+02  2.80000000E+02  0.00000000E+00
  1.40000000E+02  2.60000000E+02  0.00000000E+00
  1.40000000E+02  2.40000000E+02  0.00000000E+00
  1.40000000E+02  2.20000000E+02  0.00000000E+00
  1.40000000E+02  2.00000000E+02  0.00000000E+00
  1.40000000E+02  1.80000000E+02  0.00000000E+00
  1.40000000E+02  1.60000000E+02  0.00000000E+00
  1.40000000E+02  1.40000000E+02  0.00000000E+00
  1.40000000E+02  1.20000000E+02  0.00000000E+00
  1.40000000E+02  1.00000000E+02  0.00000000E+00
  1.40000000E+02  8.00000000E+01  0.00000000E+00
  1.40000000E+02  6.00000000E+01  0.00000000E+00
  1.40000000E+02  4.00000000E+01  0.00000000E+00
  1.40000000E+02  2.00000000E+01  0.00000000E+00
  1.40000000E+02  4.99600361E-14  0.00000000E+00
  1.60000000E+02  3.00000000E+02  0.00000000E+00
  1.60000000E+02  2.80000000E+02  0.00000000E+00
  1.60000000E+02  2.60000000E+02  0.00000000E+00
  1.60000000E+02  2.40000000E+02  0.00000000E+00
  1.60000000E+02  2.20000000E+02  0.00000000E+00
  1.60000000E+02  2.00000000E+02  0.00000000E+00
  1.60000000E+02  1.80000000E+02  0.00000000E+00
  1.60000000E+02  1.60000000E+02  0.00000000E+00
  1.60000000E+02  1.40000000E+02  0.00000000E+00
  1.60000000E+02  1.20000000E+02  0.00000000E+00
  1.60000000E+02  1.00000000E+02  0.00000000E+00
  1.60000000E+02  8.00000000E+01  0.00000000E+00
  1.60000000E+02  6.00000000E+01  0.00000000E+00
  1.60000000E+02  4.00000000E+01  0.00000000E+00
  1.60000000E+02  2.00000000E+01  0.00000000E+00
  1.60000000E+02  4.99600361E-14  0.00000000E+00
  1.80000000E+02  3.00000000E+02  0.00000000E+00
  1.80000000E+02  2.80000000E+02  0.00000000E+00
  1.80000000E+02  2.60000000E+02  0.00000000E+00
  1.80000000E+02  2.40000000E+02  0.00000000E+00
  1.80000000E+02  2.20000000E+02  0.00000000E+00
  1.80000000E+02  2.00000000E+02  0.00000000E+00
  1.80000000E+02  1.80000000E+02  0.00000000E+00
  1.80000000E+02  1.60000000E+02  0.00000000E+00
  1.80000000E+02  1.40000000E+02  0.00000000E+00
  1.80000000E+02  1.20000000E+02  0.00000000E+00
  1.80000000E+02  1.00000000E+02  0.00000000E+00
  1.80000000E+02  8.00000000E+01  0.00000000E+00
  1.80000000E+02  6.00000000E+01  0.00000000E+00
  1.80000000E+02  4.00000000E+01  0.00000000E+00
  1.80000000E+02  2.00000000E+01  0.00000000E+00
  1.80000000E+02  4.99600361E-14  0.00000000E+00
  2.00000000E+02  3.00000000E+02  0.00000000E+00
  2.00000000E+02  2.80000000E+02  0.00000000E+00
  2.00000000E+02  2.60000000E+02  0.00000000E+00
  2.00000000E+02  2.40000000E+02  0.00000000E+00
  2.00000000E+02  2.20000000E+02  0.00000000E+00
  2.00000000E+02  2.00000000E+02  0.00000000E+00
  2.00000000E+02  1.80000000E+02  0.00000000E+00
  2.00000000E+02  1.60000000E+02  0.00000000E+00
  2.00000000E+02  1.40000000E+02  0.00000000E+00
  2.00000000E+02  1.20000000E+02  0.00000000E+00
  2.00000000E+02  1.00000000E+02  0.00000000E+00
  2.00000000E+02  8.00000000E+01  0.00000000E+00
  2.00000000E+02  6.00000000E+01  0.00000000E+00
  2.00000000E+02  4.00000000E+01  0.00000000E+00
  2.00000000E+02  2.00000000E+01  0.00000000E+00
  2.00000000E+02  4.99600361E-14  0.00000000E+00
  2.20000000E+02  3.00000000E+02  0.00000000E+00
  2.20000000E+02  2.80000000E+02  0.00000000E+00
  2.20000000E+02  2.60000000E+02  0.00000000E+00
  2.20000000E+02  2.40000000E+02  0.00000000E+00
  2.20000000E+02  2.20000000E+02  0.00000000E+00
  2.20000000E+02  2.00000000E+02  0.00000000E+00
  2.20000000E+02  1.80000000E+02  0.00000000E+00
  2.20000000E+02  1.60000000E+02  0.00000000E+00
  2.20000000E+02  1.40000000E+02  0.00000000E+00
  2.20000000E+02  1.20000000E+02  0.00000000E+00
  2.20000000E+02  1.00000000E+02  0.00000000E+00
  2.20000000E+02  8.00000000E+01  0.00000000E+00
  2.20000000E+02  6.00000000E+01  0.00000000E+00
  2.20000000E+02  4.00000000E+01  0.00000000E+00
  2.20000000E+02  2.00000000E+01  0.00000000E+00
  2.20000000E+02  4.99600361E-14  0.00000000E+00
  2.40000000E+02  3.00000000E+02  0.00000000E+00
  2.40000000E+02  2.80000000E+02  0.00000000E+00
  2.40000000E+02  2.60000000E+02  0.00000000E+00
  2.40000000E+02  2.40000000E+02  0.00000000E+00
  2.40000000E+02  2.20000000E+02  0.00000000E+00
  2.40000000E+02  2.00000000E+02  0.00000000E+00
  2.40000000E+02  1.80000000E+02  0.00000000E+00
  2.40000000E+02  1.60000000E+02  0.00000000E+00
  2.40000000E+02  1.40000000E+02  0.00000000E+00
  2.40000000E+02  1.20000000E+02  0.00000000E+00
  2.40000000E+02  1.00000000E+02  0.00000000E+00
  2.40000000E+02  8.00000000E+01  0.00000000E+00
  2.40000000E+02  6.00000000E+01  0.00000000E+00
  2.40000000E+02  4.00000000E+01  0.00000000E+00
  2.40000000E+02  2.00000000E+01  0.00000000E+00
  2.40000000E+02  4.99600361E-14  0.00000000E+00
  2.60000000E+02  3.00000000E+02  0.00000000E+00
  2.60000000E+02  2.80000000E+02  0.00000000E+00
  2.60000000E+02  2.60000000E+02  0.00000000E+00
  2.60000000E+02  2.40000000E+02  0.00000000E+00
  2.60000000E+02  2.20000000E+02  0.00000000E+00
  2.60000000E+02  2.00000000E+02  0.00000000E+00
  2.60000000E+02  1.80000000E+02  0.00000000E+00
  2.60000000E+02  1.60000000E+02  0.00000000E+00
  2.60000000E+02  1.40000000E+02  0.00000000E+00
  2.60000000E+02  1.20000000E+02  0.00000000E+00
  2.60000000E+02  1.00000000E+02  0.00000000E+00
  2.60000000E+02  8.00000000E+01  0.00000000E+00
  2.60000000E+02  6.00000000E+01  0.00000000E+00
  2.60000000E+02  4.00000000E+01  0.00000000E+00
  2.60000000E+02  2.00000000E+01  0.00000000E+00
  2.60000000E+02  4.99600361E-14  0.00000000E+00
  2.80000000E+02  3.00000000E+02  0.00000000E+00
  2.80000000E+02  2.80000000E+02  0.00000000E+00
  2.80000000E+02  2.60000000E+02  0.00000000E+00
  2.80000000E+02  2.40000000E+02  0.00000000E+00
  2.80000000E+02  2.20000000E+02  0.00000000E+00
  2.80000000E+02  2.00000000E+02  0.00000000E+00
  2.80000000E+02  1.80000000E+02  0.00000000E+00
  2.80000000E+02  1.60000000E+02  0.00000000E+00
  2.80000000E+02  1.40000000E+02  0.00000000E+00
  2.80000000E+02  1.20000000E+02  0.00000000E+00
  2.80000000E+02  1.00000000E+02  0.00000000E+00
  2.80000000E+02  8.00000000E+01  0.00000000E+00
  2.80000000E+02  6.00000000E+01  0.00000000E+00
  2.80000000E+02  4.00000000E+01  0.00000000E+00
  2.80000000E+02  2.00000000E+01  0.00000000E+00
  2.80000000E+02  4.99600361E-14  0.00000000E+00
  3.00000000E+02  3.00000000E+02  0.00000000E+00
  3.00000000E+02  2.80000000E+02  0.00000000E+00
  3.00000000E+02  2.60000000E+02  0.00000000E+00
  3.00000000E+02  2.40000000E+02  0.00000000E+00
  3.00000000E+02  2.20000000E+02  0.00000000E+00
  3.00000000E+02  2.00000000E+02  0.00000000E+00
  3.00000000E+02  1.80000000E+02  0.00000000E+00
  3.00000000E+02  1.60000000E+02  0.00000000E+00
  3.00000000E+02  1.40000000E+02  0.00000000E+00
  3.00000000E+02  1.20000000E+02  0.00000000E+00
  3.00000000E+02  1.00000000E+02  0.00000000E+00
  3.00000000E+02  8.00000000E+01  0.00000000E+00
  3.00000000E+02  6.00000000E+01  0.00000000E+00
  3.00000000E+02  4.00000000E+01  0.00000000E+00
  3.00000000E+02  2.00000000E+01  0.00000000E+00
  3.00000000E+02  4.99600361E-14  0.00000000E+00
  3.20000000E+02  3.00000000E+02  0.00000000E+00
  3.20000000E+02  2.80000000E+02  0.00000000E+00
  3.20000000E+02  2.60000000E+02  0.00000000E+00
  3.20000000E+02  2.40000000E+02  0.00000000E+00
  3.20000000E+02  2.20000000E+02  0.00000000E+00
  3.20000000E+02  2.00000000E+02  0.00000000E+00
  3.20000000E+02  1.80000000E+02  0.00000000E+00
  3.20000000E+02  1.60000000E+02  0.00000000E+00
  3.20000000E+02  1.40000000E+02  0.00000000E+00
  3.20000000E+02  1.20000000E+02  0.00000000E+00
  3.20000000E+02  1.00000000E+02  0.00000000E+00
  3.20000000E+02  8.00000000E+01  0.00000000E+00
  3.20000000E+02  6.00000000E+01  0.00000000E+00
  3.20000000E+02  4.00000000E+01  0.00000000E+00
  3.20000000E+02  2.00000000E+01  0.00000000E+00
  3.20000000E+02  4.99600361E-14  0.00000000E+00
  3.40000000E+02  3.00000000E+02  0.00000000E+00
  3.40000000E+02  2.80000000E+02  0.00000000E+00
  3.40000000E+02  2.60000000E+02  0.00000000E+00
  3.40000000E+02  2.40000000E+02  0.00000000E+00
  3.40000000E+02  2.20000000E+02  0.00000000E+00
  3.40000000E+02  2.00000000E+02  0.00000000E+00
  3.40000000E+02  1.80000000E+02  0.00000000E+00
  3.40000000E+02  1.60000000E+02  0.00000000E+00
  3.40000000E+02  1.40000000E+02  0.00000000E+00
  3.40000000E+02  1.20000000E+02  0.00000000E+00
  3.40000000E+02  1.00000000E+02  0.00000000E+00
  3.40000000E+02  8.00000000E+01  0.00000000E+00
  3.40000000E+02  6.00000000E+01  0.00000000E+00
  3.40000000E+02  4.00000000E+01  0.00000000E+00
  3.40000000E+02  2.00000000E+01  0.00000000E+00
  3.40000000E+02  4.99600361E-14  0.00000000E+00
  3.60000000E+02  3.00000000E+02  0.00000000E+00
  3.60000000E+02  2.80000000E+02  0.00000000E+00
  3.60000000E+02  2.60000000E+02  0.00000000E+00
  3.60000000E+02  2.40000000E+02  0.00000000E+00
  3.60000000E+02  2.20000000E+02  0.00000000E+00
  3.60000000E+02  2.00000000E+02  0.00000000E+00
  3.60000000E+02  1.80000000E+02  0.00000000E+00
  3.60000000E+02  1.60000000E+02  0.00000000E+00
  3.60000000E+02  1.40000000E+02  0.00000000E+00
  3.60000000E+02  1.20000000E+02  0.00000000E+00
  3.60000000E+02  1.00000000E+02  0.00000000E+00
  3.60000000E+02  8.00000000E+01  0.00000000E+00
  3.60000000E+02  6.00000000E+01  0.00000000E+00
  3.60000000E+02  4.00000000E+01  0.00000000E+00
  3.60000000E+02  2.00000000E+01  0.00000000E+00
  3.60000000E+02  4.99600361E-14  0.00000000E+00
  3.80000000E+02  3.00000000E+02  0.00000000E+00
  3.80000000E+02  2.80000000E+02  0.00000000E+00
  3.80000000E+02  2.60000000E+02  0.00000000E+00
  3.80000000E+02  2.40000000E+02  0.00000000E+00
  3.80000000E+02  2.20000000E+02  0.00000000E+00
  3.80000000E+02  2.00000000E+02  0.00000000E+00
  3.80000000E+02  1.80000000E+02  0.00000000E+00
  3.80000000E+02  1.60000000E+02  0.00000000E+00
  3.80000000E+02  1.40000000E+02  0.00000000E+00
  3.80000000E+02  1.20000000E+02  0.00000000E+00
  3.80000000E+02  1.00000000E+02  0.00000000E+00
  3.80000000E+02  8.00000000E+01  0.00000000E+00
  3.80000000E+02  6.00000000E+01  0.00000000E+00
  3.80000000E+02  4.00000000E+01  0.00000000E+00
  3.80000000E+02  2.00000000E+01  0.00000000E+00
  3.80000000E+02  4.99600361E-14  0.00000000E+00
  4.00000000E+02  3.00000000E+02  0.00000000E+00
  4.00000000E+02  2.80000000E+02  0.00000000E+00
  4.00000000E+02  2.60000000E+02  0.00000000E+00
  4.00000000E+02  2.40000000E+02  0.00000000E+00
  4.00000000E+02  2.20000000E+02  0.00000000E+00
  4.00000000E+02  2.00000000E+02  0.00000000E+00
  4.00000000E+02  1.80000000E+02  0.00000000E+00
  4.00000000E+02  1.60000000E+02  0.00000000E+00
  4.00000000E+02  1.40000000E+02  0.00000000E+00
  4.00000000E+02  1.20000000E+02  0.00000000E+00
  4.00000000E+02  1.00000000E+02  0.00000000E+00
  4.00000000E+02  8.00000000E+01  0.00000000E+00
  4.00000000E+02  6.00000000E+01  0.00000000E+00
  4.00000000E+02  4.00000000E+01  0.00000000E+00
  4.00000000E+02  2.00000000E+01  0.00000000E+00
  4.00000000E+02  4.99600361E-14  0.00000000E+00
  4.20000000E+02  3.00000000E+02  0.00000000E+00
  4.20000000E+02  2.80000000E+02  0.00000000E+00
  4.20000000E+02  2.60000000E+02  0.00000000E+00
  4.20000000E+02  2.40000000E+02  0.00000000E+00
  4.20000000E+02  2.20000000E+02  0.00000000E+00
  4.20000000E+02  2.00000000E+02  0.00000000E+00
  4.20000000E+02  1.80000000E+02  0.00000000E+00
  4.20000000E+02  1.60000000E+02  0.00000000E+00
  4.20000000E+02  1.40000000E+02  0.00000000E+00
  4.20000000E+02  1.20000000E+02  0.00000000E+00
  4.20000000E+02  1.00000000E+02  0.00000000E+00
  4.20000000E+02  8.00000000E+01  0.00000000E+00
  4.20000000E+02  6.00000000E+01  0.00000000E+00
  4.20000000E+02  4.00000000E+01  0.00000000E+00
  4.20000000E+02  2.00000000E+01  0.00000000E+00
  4.20000000E+02  4.99600361E-14  0.00000000E+00
  4.40000000E+02  3.00000000E+02  0.00000000E+00
  4.40000000E+02  2.80000000E+02  0.00000000E+00
  4.40000000E+02  2.60000000E+02  0.00000000E+00
  4.40000000E+02  2.40000000E+02  0.00000000E+00
  4.40000000E+02  2.20000000E+02  0.00000000E+00
  4.40000000E+02  2.00000000E+02  0.00000000E+00
  4.40000000E+02  1.80000000E+02  0.00000000E+00
  4.40000000E+02  1.60000000E+02  0.00000000E+00
  4.40000000E+02  1.40000000E+02  0.00000000E+00
  4.40000000E+02  1.20000000E+02  0.00000000E+00
  4.40000000E+02  1.00000000E+02  0.00000000E+00
  4.40000000E+02  8.00000000E+01  0.00000000E+00
  4.40000000E+02  6.00000000E+01  0.00000000E+00
  4.40000000E+02  4.00000000E+01  0.00000000E+00
  4.40000000E+02  2.00000000E+01  0.00000000E+00
  4.40000000E+02  4.99600361E-14  0.00000000E+00
  4.60000000E+02  3.00000000E+02  0.00000000E+00
  4.60000000E+02  2.80000000E+02  0.00000000E+00
  4.60000000E+02  2.60000000E+02  0.00000000E+00
  4.60000000E+02  2.40000000E+02  0.00000000E+00
  4.60000000E+02  2.20000000E+02  0.00000000E+00
  4.60000000E+02  2.00000000E+02  0.00000000E+00
  4.60000000E+02  1.80000000E+02  0.00000000E+00
  4.60000000E+02  1.60000000E+02  0.00000000E+00
  4.60000000E+02  1.40000000E+02  0.00000000E+00
  4.60000000E+02  1.20000000E+02  0.00000000E+00
  4.60000000E+02  1.00000000E+02  0.00000000E+00
  4.60000000E+02  8.00000000E+01  0.00000000E+00
  4.60000000E+02  6.00000000E+01  0.00000000E+00
  4.60000000E+02  4.00000000E+01  0.00000000E+00
  4.60000000E+02  2.00000000E+01  0.00000000E+00
  4.60000000E+02  4.99600361E-14  0.00000000E+00
  4.80000000E+02  3.00000000E+02  0.00000000E+00
  4.80000000E+02  2.80000000E+02  0.00000000E+00
  4.80000000E+02  2.60000000E+02  0.00000000E+00
  4.80000000E+02  2.40000000E+02  0.00000000E+00
  4.80000000E+02  2.20000000E+02  0.00000000E+00
  4.80000000E+02  2.00000000E+02  0.00000000E+00
  4.80000000E+02  1.80000000E+02  0.00000000E+00
  4.80000000E+02  1.60000000E+02  0.00000000E+00
  4.80000000E+02  1.40000000E+02  0.00000000E+00
  4.80000000E+02  1.20000000E+02  0.00000000E+00
  4.80000000E+02  1.00000000E+02  0.00000000E+00
  4.80000000E+02  8.00000000E+01  0.00000000E+00
  4.80000000E+02  6.00000000E+01  0.00000000E+00
  4.80000000E+02  4.00000000E+01  0.00000000E+00
  4.80000000E+02  2.00000000E+01  0.00000000E+00
  4.80000000E+02  4.99600361E-14  0.00000000E+00
  5.00000000E+02  3.00000000E+02  0.00000000E+00
  5.00000000E+02  2.80000000E+02  0.00000000E+00
  5.00000000E+02  2.60000000E+02  0.00000000E+00
  5.00000000E+02  2.40000000E+02  0.00000000E+00
  5.00000000E+02  2.20000000E+02  0.00000000E+00
  5.00000000E+02  2.00000000E+02  0.00000000E+00
  5.00000000E+02  1.80000000E+02  0.00000000E+00
  5.00000000E+02  1.60000000E+02  0.00000000E+00
  5.00000000E+02  1.40000000E+02  0.00000000E+00
  5.00000000E+02  1.20000000E+02  0.00000000E+00
  5.00000000E+02  1.00000000E+02  0.00000000E+00
  5.00000000E+02  8.00000000E+01  0.00000000E+00
  5.00000000E+02  6.00000000E+01  0.00000000E+00
  5.00000000E+02  4.00000000E+01  0.00000000E+00
  5.00000000E+02  2.00000000E+01  0.00000000E+00
  5.00000000E+02  4.99600361E-14  0.00000000E+00
  5.20000000E+02  3.00000000E+02  0.00000000E+00
  5.20000000E+02  2.80000000E+02  0.00000000E+00
  5.20000000E+02  2.60000000E+02  0.00000000E+00
  5.20000000E+02  2.40000000E+02  0.00000000E+00
  5.20000000E+02  2.20000000E+02  0.00000000E+00
  5.20000000E+02  2.00000000E+02  0.00000000E+00
  5.20000000E+02  1.80000000E+02  0.00000000E+00
  5.20000000E+02  1.60000000E+02  0.00000000E+00
  5.20000000E+02  1.40000000E+02  0.00000000E+00
  5.20000000E+02  1.20000000E+02  0.00000000E+00
  5.20000000E+02  1.00000000E+02  0.00000000E+00
  5.20000000E+02  8.00000000E+01  0.00000000E+00
  5.20000000E+02  6.00000000E+01  0.00000000E+00
  5.20000000E+02  4.00000000E+01  0.00000000E+00
  5.20000000E+02  2.00000000E+01  0.00000000E+00
  5.20000000E+02  4.99600361E-14  0.00000000E+00
  5.40000000E+02  3.00000000E+02  0.00000000E+00
  5.40000000E+02  2.80000000E+02  0.00000000E+00
  5.40000000E+02  2.60000000E+02  0.00000000E+00
  5.40000000E+02  2.40000000E+02  0.00000000E+00
  5.40000000E+02  2.20000000E+02  0.00000000E+00
  5.40000000E+02  2.00000000E+02  0.00000000E+00
  5.40000000E+02  1.80000000E+02  0.00000000E+00
  5.40000000E+02  1.60000000E+02  0.00000000E+00
  5.40000000E+02  1.40000000E+02  0.00000000E+00
  5.40000000E+02  1.20000000E+02  0.00000000E+00
  5.40000000E+02  1.00000000E+02  0.00000000E+00
  5.40000000E+02  8.00000000E+01  0.00000000E+00
  5.40000000E+02  6.00000000E+01  0.00000000E+00
  5.40000000E+02  4.00000000E+01  0.00000000E+00
  5.40000000E+02  2.00000000E+01  0.00000000E+00
  5.40000000E+02  4.99600361E-14  0.00000000E+00
  5.60000000E+02  3.00000000E+02  0.00000000E+00
  5.60000000E+02  2.80000000E+02  0.00000000E+00
  5.60000000E+02  2.60000000E+02  0.00000000E+00
  5.60000000E+02  2.40000000E+02  0.00000000E+00
  5.60000000E+02  2.20000000E+02  0.00000000E+00
  5.60000000E+02  2.00000000E+02  0.00000000E+00
  5.60000000E+02  1.80000000E+02  0.00000000E+00
  5.60000000E+02  1.60000000E+02  0.00000000E+00
  5.60000000E+02  1.40000000E+02  0.00000000E+00
  5.60000000E+02  1.20000000E+02  0.00000000E+00
  5.60000000E+02  1.00000000E+02  0.00000000E+00
  5.60000000E+02  8.00000000E+01  0.00000000E+00
  5.60000000E+02  6.00000000E+01  0.00000000E+00
  5.60000000E+02  4.00000000E+01  0.00000000E+00
  5.60000000E+02  2.00000000E+01  0.00000000E+00
  5.60000000E+02  4.99600361E-14  0.00000000E+00
  5.80000000E+02  3.00000000E+02  0.00000000E+00
  5.80000000E+02  2.80000000E+02  0.00000000E+00
  5.80000000E+02  2.60000000E+02  0.00000000E+00
  5.80000000E+02  2.40000000E+02  0.00000000E+00
  5.80000000E+02  2.20000000E+02  0.00000000E+00
  5.80000000E+02  2.00000000E+02  0.00000000E+00
  5.80000000E+02  1.80000000E+02  0.00000000E+00
  5.80000000E+02  1.60000000E+02  0.00000000E+00
  5.80000000E+02  1.40000000E+02  0.00000000E+00
  5.80000000E+02  1.20000000E+02  0.00000000E+00
  5.80000000E+02  1.00000000E+02  0.00000000E+00
  5.80000000E+02  8.00000000E+01  0.00000000E+00
  5.80000000E+02  6.00000000E+01  0.00000000E+00
  5.80000000E+02  4.00000000E+01  0.00000000E+00
  5.80000000E+02  2.00000000E+01  0.00000000E+00
  5.80000000E+02  4.99600361E-14  0.00000000E+00
  6.00000000E+02  3.00000000E+02  0.00000000E+00
  6.00000000E+02  2.80000000E+02  0.00000000E+00
  6.00000000E+02  2.60000000E+02  0.00000000E+00
  6.00000000E+02  2.40000000E+02  0.00000000E+00
  6.00000000E+02  2.20000000E+02  0.00000000E+00
  6.00000000E+02  2.00000000E+02  0.00000000E+00
  6.00000000E+02  1.80000000E+02  0.00000000E+00
  6.00000000E+02  1.60000000E+02  0.00000000E+00
  6.00000000E+02  1.40000000E+02  0.00000000E+00
  6.00000000E+02  1.20000000E+02  0.00000000E+00
  6.00000000E+02  1.00000000E+02  0.00000000E+00
  6.00000000E+02  8.00000000E+01  0.00000000E+00
  6.00000000E+02  6.00000000E+01  0.00000000E+00
  6.00000000E+02  4.00000000E+01  0.00000000E+00
  6.00000000E+02  2.00000000E+01  0.00000000E+00
  6.00000000E+02  4.99600361E-14  0.00000000E+00
CELLS       450      2250
         4           0           1          17          16
         4           1           2          18          17
         4           2           3          19          18
         4           3           4          20          19
         4           4           5          21          20
         4           5           6          22          21
         4           6           7          23          22
         4           7           8          24          23
         4           8           9          25          24
         4           9          10          26          25
         4          10          11          27          26
         4          11          12          28          27
         4          12          13          29          28
         4          13          14          30          29
         4          14          15          31          30
         4          16          17          33          32
         4          17          18          34          33
         4          18          19          35          34
         4          19          20          36          35
         4          20          21          37          36
         4          21          22          38          37
         4          22          23          39          38
         4          23          24          40          39
         4          24          25          41          40
         4          25          26          42          41
         4          26          27          43          42
         4          27          28          44          43
         4          28          29          45          44
         4          29          30          46          45
         4          30          31          47          46
         4          32          33          49          48
         4          33          34          50          49
         4          34          35          51          50
         4          35          36          52          51
         4          36          37          53          52
         4          37          38          54          53
         4          38          39          55          54
         4          39          40          56          55
         4          40          41          57          56
         4          41          42          58          57
         4          42          43          59          58
         4          43          44          60          59
         4          44          45          61          60
         4          45          46          62          61
         4          46          47          63          62
         4          48          49          65          64
         4          49          50          66          65
         4          50          51          67          66
         4          51          52          68          67
         4          52          53          69          68
         4          53          54          70          69
         4          54          55          71          70
         4          55          56          72          71
         4          56          57          73          72
         4          57          58          74          73
         4          58          59          75          74
         4          59          60          76          75
         4          60          61          77          76
         4          61          62          78          77
         4          62          63          79          78
         4          64          65          81          80
         4          65          66          82          81
         4          66          67          83          82
         4          67          68          84          83
         4          68          69          85          84
         4          69          70          86          85
         4          70          71          87          86
         4          71          72          88          87
         4          72          73          89          88
         4          73          74          90          89
         4          74          75          91          90
         4          75          76          92          91
         4          76          77          93          92
         4          77          78          94          93
         4          78          79          95          94
         4          80          81          97          96
         4          81          82          98          97
         4          82          83          99          98
         4          83          84         100          99
         4          84          85         101         100
         4          85          86         102         101
         4          86          87         103         102
         4          87          88         104         103
         4          88          89         105         104
         4          89          90         106         105
         4          90          91         107         106
         4          91          92         108         107
         4          92          93         109         108
         4          93          94         110         109
         4          94          95         111         110
         4          96          97         113         112
         4          97          98         114         113
         4          98          99         115         114
         4          99         100         116         115
         4         100         101         117         116
         4         101         102         118         117
         4         102         103         119         118
         4         103         104         120         119
         4         104         105         121         120
         4         105         106         122         121
         4         106         107         123         122
         4         107         108         124         123
         4         108         109         125         124
         4         109         110         126         125
         4         110         111         127         126
         4         112         113         129         128
         4         113         114         130         129
         4         114         115         131         130
         4         115         116         132         131
         4         116         117         133         132
         4         117         118         134         133
         4         118         119         135         134
         4         119         120         136         135
         4         120         121         137         136
         4         121         122         138         137
         4         122         123         139         138
         4         123         124         140         139
         4         124         125         141         140
         4         125         126         142         141
         4         126         127         143         142
         4         128         129         145         144
         4         129         130         146         145
         4         130         131         147         146
         4         131         132         148         147
         4         132         133         149         148
         4         133         134         150         149
         4         134         135         151         150
         4         135         136         152         151
         4         136         137         153         152
         4         137         138         154         153
         4         138         139         155         154
         4         139         140         156         155
         4         140         141         157         156
         4         141         142         158         157
         4         142         143         159         158
         4         144         145         161         160
         4         145         146         162         161
         4         146         147         163         162
         4         147         148         164         163
         4         148         149         165         164
         4         149         150         166         165
         4         150         151         167         166
         4         151         152         168         167
         4         152         153         169         168
         4         153         154         170         169
         4         154         155         171         170
         4         155         156         172         171
         4         156         157         173         172
         4         157         158         174         173
         4         158         159         175         174
         4         160         161         177         176
         4         161         162         178         177
         4         162         163         179         178
         4         163         164         180         179
         4         164         165         181         180
         4         165         166         182         181
         4         166         167         183         182
         4         167         168         184         183
         4         168         169         185         184
         4         169         170         186         185
         4         170         171         187         186
         4         171         172         188         187
         4         172         173         189         188
         4         173         174         190         189
         4         174         175         191         190
         4         176         177         193         192
         4         177         178         194         193
         4         178         179         195         194
         4         179         180         196         195
         4         180         181         197         196
         4         181         182         198         197
         4         182         183         199         198
         4         183         184         200         199
         4         184         185         201         200
         4         185         186         202         201
         4         186         187         203         202
         4         187         188         204         203
         4         188         189         205         204
         4         189         190         206         205
         4         190         191         207         206
         4         192         193         209         208
         4         193         194         210         209
         4         194         195         211         210
         4         195         196         212         211
         4         196         197         213         212
         4         197         198         214         213
         4         198         199         215         214
         4         199         200         216         215
         4         200         201         217         216
         4         201         202         218         217
         4         202         203         219         218
         4         203         204         220         219
         4         204         205         221         220
         4         205         206         222         221
         4         206         207         223         222
         4         208         209         225         224
         4         209         210         226         225
         4         210         211         227         226
         4         211         212         228         227
         4         212         213         229         228
         4         213         214         230         229
         4         214         215         231         230
         4         215         216         232         231
         4         216         217         233         232
         4         217         218         234         233
         4         218         219         235         234
         4         219         220         236         235
         4         220         221         237         236
         4         221         222         238         237
         4         222         223         239         238
         4         224         225         241         240
         4         225         226         242         241
         4         226         227         243         242
         4         227         228         244         243
         4         228         229         245         244
         4         229         230         246         245
         4         230         231         247         246
         4         231         232         248         247
         4         232         233         249         248
         4         233         234         250         249
         4         234         235         251         250
         4         235         236         252         251
         4         236         237         253         252
         4         237         238         254         253
         4         238         239         255         254
         4         240         241         257         256
         4         241         242         258         257
         4         242         243         259         258
         4         243         244         260         259
         4         244         245         261         260
         4         245         246         262         261
         4         246         247         263         262
         4         247         248         264         263
         4         248         249         265         264
         4         249         250         266         265
         4         250         251         267         266
         4         251         252         268         267
         4         252         253         269         268
         4         253         254         270         269
         4         254         255         271         270
         4         256         257         273         272
         4         257         258         274         273
         4         258         259         275         274
         4         259         260         276         275
         4         260         261         277         276
         4         261         262         278         277
         4         262         263         279         278
         4         263         264         280         279
         4         264         265         281         280
         4         265         266         282         281
         4         266         267         283         282
         4         267         268         284         283
         4         268         269         285         284
         4         269         270         286         285
         4         270         271         287         286
         4         272         273         289         288
         4         273         274         290         289
         4         274         275         291         290
         4         275         276         292         291
         4         276         277         293         292
         4         277         278         294         293
         4         278         279         295         294
         4         279         280         296         295
         4         280         281         297         296
         4         281         282         298         297
         4         282         283         299         298
         4         283         284         300         299
         4         284         285         301         300
         4         285         286         302         301
         4         286         287         303         302
         4         288         289         305         304
         4         289         290         306         305
         4         290         291         307         306
         4         291         292         308         307
         4         292         293         309         308
         4         293         294         310         309
         4         294         295         311         310
         4         295         296         312         311
         4         296         297         313         312
         4         297         298         314         313
         4         298         299         315         314
         4         299         300         316         315
         4         300         301         317         316
         4         301         302         318         317
         4         302         303         319         318
         4         304         305         321         320
         4         305         306         322         321
         4         306         307         323         322
         4         307         308         324         323
         4         308         309         325         324
         4         309         310         326         325
         4         310         311         327         326
         4         311         312         328         327
         4         312         313         329         328
         4         313         314         330         329
         4         314         315         331         330
         4         315         316         332         331
         4         316         317         333         332
         4         317         318         334         333
         4         318         319         335         334
         4         320         321         337         336
         4         321         322         338         337
         4         322         323         339         338
         4         323         324         340         339
         4         324         325         341         340
         4         325         326         342         341
         4         326         327         343         342
         4         327         328         344         343
         4         328         329         345         344
         4         329         330         346         345
         4         330         331         347         346
         4         331         332         348         347
         4         332         333         349         348
         4         333         334         350         349
         4         334         335         351         350
         4         336         337         353         352
         4         337         338         354         353
         4         338         339         355         354
         4         339         340         356         355
         4         340         341         357         356
         4         341         342         358         357
         4         342         343         359         358
         4         343         344         360         359
         4         344         345         361         360
         4         345         346         362         361
         4         346         347         363         362
         4         347         348         364         363
         4         348         349         365         364
         4         349         350         366         365
         4         350         351         367         366
         4         352         353         369         368
         4         353         354         370         369
         4         354         355         371         370
         4         355         356         372         371
         4         356         357         373         372
         4         357         358         374         373
         4         358         359         375         374
         4         359         360         376         375
         4         360         361         377         376
         4         361         362         378         377
         4         362         363         379         378
         4         363         364         380         379
         4         364         365         381         380
         4         365         366         382         381
         4         366         367         383         382
         4         368         369         385         384
         4         369         370         386         385
         4         370         371         387         386
         4         371         372         388         387
         4         372         373         389         388
         4         373         374         390         389
         4         374         375         391         390
         4         375         376         392         391
         4         376         377         393         392
         4         377         378         394         393
         4         378         379         395         394
         4         379         380         396         395
         4         380         381         397         396
         4         381         382         398         397
         4         382         383         399         398
         4         384         385         401         400
         4         385         386         402         401
         4         386         387         403         402
         4         387         388         404         403
         4         388         389         405         404
         4         389         390         406         405
         4         390         391         407         406
         4         391         392         408         407
         4         392         393         409         408
         4         393         394         410         409
         4         394         395         411         410
         4         395         396         412         411
         4         396         397         413         412
         4         397         398         414         413
         4         398         399         415         414
         4         400         401         417         416
         4         401         402         418         417
         4         402         403         419         418
         4         403         404         420         419
         4         404         405         421         420
         4         405         406         422         421
         4         406         407         423         422
         4         407         408         424         423
         4         408         409         425         424
         4         409         410         426         425
         4         410         411         427         426
         4         411         412         428         427
         4         412         413         429         428
         4         413         414         430         429
         4         414         415         431         430
         4         416         417         433         432
         4         417         418         434         433
         4         418         419         435         434
         4         419         420         436         435
         4         420         421         437         436
         4         421         422         438         437
         4         422         423         439         438
         4         423         424         440         439
         4         424         425         441         440
         4         425         426         442         441
         4         426         427         443         442
         4         427         428         444         443
         4         428         429         445         444
         4         429         430         446         445
         4         430         431         447         446
         4         432         433         449         448
         4         433         434         450         449
         4         434         435         451         450
         4         435         436         452         451
         4         436         437         453         452
         4         437         438         454         453
         4         438         439         455         454
         4         439         440         456         455
         4         440         441         457         456
         4         441         442         458         457
         4         442         443         459         458
         4         443         444         460         459
         4         444         445         461         460
         4         445         446         462         461
         4         446         447         463         462
         4         448         449         465         464
         4         449         450         466         465
         4         450         451         467         466
         4         451         452         468         467
         4         452         453         469         468
         4         453         454         470         469
         4         454         455         471         470
         4         455         456         472         471
         4         456         457         473         472
         4         457         458         474         473
         4         458         459         475         474
         4         459         460         476         475
         4         460         461         477         476
         4         461         462         478         477
         4         462         463         479         478
         4         464         465         481         480
         4         465         466         482         481
         4         466         467         483         482
         4         467         468         484         483
         4         468         469         485         484
         4         469         470         486         485
         4         470         471         487         486
         4         471         472         488         487
         4         472         473         489         488
         4         473         474         490         489
         4         474         475         491         490
         4         475         476         492         491
         4         476         477         493         492
         4         477         478         494         493
         4         478         479         495         494
CELL_TYPES        450
9
9
9
9
9
9
9
9
9
9
9
9
9
9
9
9
9
9
9
9
9
9
9
9
9
9
9
9
9
9
9
9
9
9
9
9
9
9
9
9
9
9
9
9
9
9
9
9
9
9
9
9
9
9
9
9
9
9
9
9
9
9
9
9
9
9
9
9
9
9
9
9
9
9
9
9
9
9
9
9
9
9
9
9
9
9
9
9
9
9
9
9
9
9
9
9
9
9
9
9
9
9
9
9
9
9
9
9
9
9
9
9
9
9
9
9
9
9
9
9
9
9
9
9
9
9
9
9
9
9
9
9
9
9
9
9
9
9
9
9
9
9
9
9
9
9
9
9
9
9
9
9
9
9
9
9
9
9
9
9
9
9
9
9
9
9
9
9
9
9
9
9
9
9
9
9
9
9
9
9
9
9
9
9
9
9
9
9
9
9
9
9
9
9
9
9
9
9
9
9
9
9
9
9
9
9
9
9
9
9
9
9
9
9
9
9
9
9
9
9
9
9
9
9
9
9
9
9
9
9
9
9
9
9
9
9
9
9
9
9
9
9
9
9
9
9
9
9
9
9
9
9
9
9
9
9
9
9
9
9
9
9
9
9
9
9
9
9
9
9
9
9
9
9
9
9
9
9
9
9
9
9
9
9
9
9
9
9
9
9
9
9
9
9
9
9
9
9
9
9
9
9
9
9
9
9
9
9
9
9
9
9
9
9
9
9
9
9
9
9
9
9
9
9
9
9
9
9
9
9
9
9
9
9
9
9
9
9
9
9
9
9
9
9
9
9
9
9
9
9
9
9
9
9
9
9
9
9
9
9
9
9
9
9
9
9
9
9
9
9
9
9
9
9
9
9
9
9
9
9
9
9
9
9
9
9
9
9
9
9
9
9
9
9
9
9
9
9
9
9
9
9
9
9
9
9
9
9
9
9
9
9
9
9
9
9
9
9
9
9
9
9
9
9
9
9
9
9
9
9
9
9
9
9
9
9
9
9
9
9
9
9
9
9
9
9
9
9
9
9
POINT_DATA       496
SCALARS p double 
LOOKUP_TABLE default
   27524425.8030307     
   27524421.4466807     
   27524409.6058381     
   27524391.8614793     
   27524369.6598236     
   27524344.3234942     
   27524317.0628797     
   27524288.9875365     
   27524261.1174866     
   27524234.3942834     
   27524209.6917336     
   27524187.8261870     
   27524169.5663218     
   27524155.6423765     
   27524146.7547997     
   27524143.5823097     
   27522427.3194467     
   27522422.9758096     
   27522411.1704277     
   27522393.4805051     
   27522371.3484477     
   27522346.0930729     
   27522318.9210153     
   27522290.9381684     
   27522263.1610145     
   27522236.5277163     
   27522211.9088591     
   27522190.1177531     
   27522171.9202261     
   27522158.0438561     
   27522149.1866157     
   27522146.0249200     
   27516431.9892219     
   27516427.6837531     
   27516415.9848256     
   27516398.4583067     
   27516376.5351439     
   27516351.5227231     
   27516324.6164078     
   27516296.9110959     
   27516269.4126479     
   27516243.0490558     
   27516218.6812437     
   27516197.1134095     
   27516179.1028376     
   27516165.3691345     
   27516156.6028568     
   27516153.4735238     
   27506440.1735849     
   27506435.9318280     
   27506424.4105630     
   27506407.1566942     
   27506385.5820139     
   27506360.9748091     
   27506334.5116242     
   27506307.2690119     
   27506280.2351216     
   27506254.3209974     
   27506230.3714740     
   27506209.1755824     
   27506191.4763961     
   27506177.9802693     
   27506169.3654376     
   27506166.2899731     
   27492452.4734087     
   27492448.3210513     
   27492437.0490051     
   27492420.1774813     
   27492399.0913320     
   27492375.0520096     
   27492349.2096441     
   27492322.6150643     
   27492296.2316105     
   27492270.9466085     
   27492247.5823967     
   27492226.9068179     
   27492209.6431097     
   27492196.4791448     
   27492188.0759928     
   27492185.0757947     
   27474469.7274584     
   27474465.6903838     
   27474454.7395791     
   27474438.3606849     
   27474417.9037051     
   27474394.5954276     
   27474369.5519084     
   27474343.7908396     
   27474318.2436455     
   27474293.7671788     
   27474271.1549089     
   27474251.1475196     
   27474234.4428504     
   27474221.7051372     
   27474213.5735232     
   27474210.6698301     
   27452493.0099562     
   27452489.1142886     
   27452478.5573097     
   27452462.7820182     
   27452443.0955044     
   27452420.6819442     
   27452396.6155839     
   27452371.8735288     
   27452347.3481793     
   27452323.8591880     
   27452302.1648358     
   27452282.9727478     
   27452266.9498903     
   27452254.7318059     
   27452246.9310611     
   27452244.1448921     
   27426523.6274844     
   27426519.8996238     
   27426509.8096769     
   27426494.7496882     
   27426475.9755763     
   27426454.6208204     
   27426431.7100379     
   27426408.1722654     
   27426384.8537834     
   27426362.5303670     
   27426341.9188666     
   27426323.6880483     
   27426308.4686441     
   27426296.8625736     
   27426289.4513129     
   27426286.8033959     
   27396563.1152529     
   27396559.5818949     
   27396550.0328205     
   27396535.8005149     
   27396518.0812429     
   27396497.9495482     
   27396476.3725182     
   27396454.2236196     
   27396432.2959538     
   27396411.3148209     
   27396391.9495106     
   27396374.8242641     
   27396360.5283665     
   27396349.6253415     
   27396342.6612264     
   27396340.1719109     
   27362613.2327632     
   27362609.9208991     
   27362600.9871180     
   27362587.6953957     
   27362571.1736053     
   27362552.4289557     
   27362532.3630299     
   27362511.7862310     
   27362491.4314948     
   27362471.9671727     
   27362454.0090228     
   27362438.1312745     
   27362424.8767424     
   27362414.7659737     
   27362408.3054130     
   27362405.9945635     
   27324675.9589144     
   27324672.8958026     
   27324664.6521723     
   27324652.4141398     
   27324637.2321684     
   27324620.0375705     
   27324601.6584013     
   27324582.8345555     
   27324564.2319443     
   27324546.4556807     
   27324530.0622403     
   27324515.5705911     
   27324503.4722927     
   27324494.2405686     
   27324488.3383407     
   27324486.2252053     
   27282753.4866007     
   27282750.6997005     
   27282743.2212531     
   27282732.1497103     
   27282718.4488064     
   27282702.9652476     
   27282686.4455290     
   27282669.5517021     
   27282652.8759974     
   27282636.9542669     
   27282622.2782541     
   27282609.3067258     
   27282598.4755032     
   27282590.2064177     
   27282584.9151958     
   27282583.0182451     
   27236848.2168663     
   27236845.7337217     
   27236839.0952465     
   27236829.3019142     
   27236817.2210990     
   27236803.6060722     
   27236789.1137901     
   27236774.3213246     
   27236759.7408761     
   27236745.8333883     
   27236733.0208293     
   27236721.6972296     
   27236712.2385639     
   27236705.0115364     
   27236700.3812921     
   27236698.7180211     
   27186962.7526947     
   27186960.6007528     
   27186954.8761791     
   27186946.4705934     
   27186936.1450703     
   27186924.5505478     
   27186912.2466108     
   27186899.7185338     
   27186887.3925830     
   27186875.6496654     
   27186864.8374728     
   27186855.2812856     
   27186847.2935911     
   27186841.1826261     
   27186837.2598867     
   27186835.8465728     
   27133099.8925266     
   27133098.0988721     
   27133093.3603961     
   27133086.4483809     
   27133078.0073718     
   27133068.5770859     
   27133058.6121763     
   27133048.4997856     
   27133038.5749690     
   27133029.1341734     
   27133020.4470282     
   27133012.7667181     
   27133006.3391819     
   27133001.4113133     
   27132998.2382404     
   27132997.0896478     
   27075262.6236209     
   27075261.2146040     
   27075257.5314920     
   27075252.2130987     
   27075245.7769620     
   27075238.6428158     
   27075231.1532690     
   27075223.5916973     
   27075216.1975339     
   27075209.1792840     
   27075202.7256623     
   27075197.0152635     
   27075192.2251306     
   27075188.5384843     
   27075186.1517380     
   27075185.2807604     
   27013454.1153973     
   27013453.1161273     
   27013450.5531123     
   27013446.9198918     
   27013442.5963413     
   27013437.8737368     
   27013432.9762152     
   27013428.0787335     
   27013423.3218638     
   27013418.8239321     
   27013414.6910917     
   27013411.0259289     
   27013407.9351193     
   27013405.5365174     
   27013403.9658672     
   27013403.3830965     
   26947677.7129311     
   26947677.1466016     
   26947675.7617722     
   26947673.8932121     
   26947671.7724147     
   26947669.5542379     
   26947667.3389173     
   26947665.1896935     
   26947663.1466004     
   26947661.2371664     
   26947659.4848797     
   26947657.9162475     
   26947656.5671754     
   26947655.4891972     
   26947654.7558325     
   26947654.4690443     
   26877936.9308129     
   26877936.8178175     
   26877936.6598690     
   26877936.6187849     
   26877936.7670608     
   26877937.1160029     
   26877937.6379344     
   26877938.2829148     
   26877938.9908135     
   26877939.6998274     
   26877940.3526223     
   26877940.9012306     
   26877941.3116800     
   26877941.5690821     
   26877941.6835745     
   26877941.6971164     
   26804235.4476420     
   26804235.8044265     
   26804236.9091074     
   26804238.7357158     
   26804241.1874861     
   26804244.1263034     
   26804247.3945477     
   26804250.8300791     
   26804254.2756346     
   26804257.5841835     
   26804260.6218379     
   26804263.2698124     
   26804265.4267090     
   26804267.0120983     
   26804267.9719581     
   26804268.2860290     
   26726577.1015058     
   26726577.9390851     
   26726580.3246108     
   26726584.0289106     
   26726588.7764259     
   26726594.2756392     
   26726600.2396949     
   26726606.3984659     
   26726612.5039783     
   26726618.3313555     
   26726623.6773854     
   26726628.3586047     
   26726632.2105075     
   26726635.0891422     
   26726636.8759040     
   26726637.4857080     
   26644965.8869240     
   26644967.2089594     
   26644970.8700565     
   26644976.4219864     
   26644983.4021966     
   26644991.3645898     
   26644999.8975602     
   26645008.6314248     
   26645017.2381529     
   26645025.4263669     
   26645032.9342795     
   26645039.5228311     
   26645044.9709454     
   26645049.0745104     
   26645051.6502591     
   26645052.5450158     
   26559405.9539372     
   26559407.7542084     
   26559412.6542616     
   26559419.9708207     
   26559429.0484658     
   26559439.2895526     
   26559450.1674294     
   26559461.2267218     
   26559472.0751275     
   26559482.3707130     
   26559491.8078754     
   26559500.1044267     
   26559506.9918993     
   26559512.2110381     
   26559515.5142414     
   26559516.6760168     
   26469901.6103629     
   26469903.8693510     
   26469909.9297563     
   26469918.8577660     
   26469929.8033139     
   26469942.0266818     
   26469954.9031070     
   26469967.9122355     
   26469980.6192057     
   26469992.6524599     
   26470003.6816029     
   26470013.3975212     
   26470021.4966888     
   26470027.6719295     
   26470031.6123259     
   26470033.0146188     
   26376457.3288532     
   26376460.0089091     
   26376467.0939994     
   26376477.3862439     
   26376489.8465456     
   26376503.6126755     
   26376517.9886779     
   26376532.4182150     
   26376546.4518633     
   26376559.7141331     
   26376571.8728397     
   26376582.6119530     
   26376591.6090220     
   26376598.5194135     
   26376602.9714483     
   26376604.5773888     
   26279077.7615621     
   26279080.7996029     
   26279088.6939688     
   26279099.9746399     
   26279113.4329840     
   26279128.1198981     
   26279143.3086013     
   26279158.4449745     
   26279173.0985968     
   26279186.9191125     
   26279199.5982218     
   26279210.8362648     
   26279220.3125234     
   26279227.6605966     
   26279232.4542881     
   26279234.2141205     
   26177767.7676631     
   26177771.0630716     
   26177779.4346126     
   26177791.1464716     
   26177804.8670571     
   26177819.6214245     
   26177834.7090581     
   26177849.6245575     
   26177863.9928740     
   26177877.5179533     
   26177889.9408814     
   26177901.0030639     
   26177910.4111688     
   26177917.8013103     
   26177922.7079828     
   26177924.5550316     
   26072532.4643871     
   26072535.8566088     
   26072544.1899014     
   26072555.5089234     
   26072568.4594395     
   26072582.1389621     
   26072595.9463737     
   26072609.4748397     
   26072622.4377512     
   26072634.6170317     
   26072645.8235641     
   26072655.8623148     
   26072664.4955372     
   26072671.4000542     
   26072676.1063197     
   26072677.9495527     
   25963377.3287775     
   25963380.5455281     
   25963388.0077504     
   25963397.6991358     
   25963408.4495185     
   25963419.5637832     
   25963430.6183857     
   25963441.3452771     
   25963451.5664659     
   25963461.1526703     
   25963469.9934188     
   25963477.9705288     
   25963484.9280168     
   25963490.6268794     
   25963494.6818644     
   25963496.3859448     
   25850308.4128819     
   25850310.9467888     
   25850316.0535554     
   25850322.2547191     
   25850328.8686332     
   25850335.5427550     
   25850342.0776815     
   25850348.3557131     
   25850354.3041360     
   25850359.8737148     
   25850365.0237075     
   25850369.7086383     
   25850373.8622441     
   25850377.3720273     
   25850380.0164038     
   25850381.3786161     
   25733333.3333333     
   25733333.3333333     
   25733333.3333333     
   25733333.3333333     
   25733333.3333333     
   25733333.3333333     
   25733333.3333333     
   25733333.3333333     
   25733333.3333333     
   25733333.3333333     
   25733333.3333333     
   25733333.3333333     
   25733333.3333333     
   25733333.3333333     
   25733333.3333333     
   25733333.3333333     
VECTORS u double 
    0.00000E+00        -0.37549E-01         0.00000E+00
    0.00000E+00        -0.35038E-01         0.00000E+00
    0.00000E+00        -0.32529E-01         0.00000E+00
    0.00000E+00        -0.30020E-01         0.00000E+00
    0.00000E+00        -0.27512E-01         0.00000E+00
    0.00000E+00        -0.25006E-01         0.00000E+00
    0.00000E+00        -0.22500E-01         0.00000E+00
    0.00000E+00        -0.19995E-01         0.00000E+00
    0.00000E+00        -0.17491E-01         0.00000E+00
    0.00000E+00        -0.14988E-01         0.00000E+00
    0.00000E+00        -0.12486E-01         0.00000E+00
    0.00000E+00        -0.99860E-02         0.00000E+00
    0.00000E+00        -0.74869E-02         0.00000E+00
    0.00000E+00        -0.49895E-02         0.00000E+00
    0.00000E+00        -0.24937E-02         0.00000E+00
    0.00000E+00         0.00000E+00         0.00000E+00
    0.52718E-04        -0.37551E-01         0.00000E+00
    0.48185E-04        -0.35041E-01         0.00000E+00
    0.43919E-04        -0.32531E-01         0.00000E+00
    0.39902E-04        -0.30022E-01         0.00000E+00
    0.36110E-04        -0.27514E-01         0.00000E+00
    0.32514E-04        -0.25007E-01         0.00000E+00
    0.29084E-04        -0.22501E-01         0.00000E+00
    0.25785E-04        -0.19996E-01         0.00000E+00
    0.22584E-04        -0.17492E-01         0.00000E+00
    0.19445E-04        -0.14989E-01         0.00000E+00
    0.16332E-04        -0.12487E-01         0.00000E+00
    0.13210E-04        -0.99868E-02         0.00000E+00
    0.10048E-04        -0.74875E-02         0.00000E+00
    0.68115E-05        -0.49898E-02         0.00000E+00
    0.34718E-05        -0.24939E-02         0.00000E+00
    0.00000E+00         0.00000E+00         0.00000E+00
    0.10517E-03        -0.37558E-01         0.00000E+00
    0.96115E-04        -0.35047E-01         0.00000E+00
    0.87594E-04        -0.32537E-01         0.00000E+00
    0.79573E-04        -0.30028E-01         0.00000E+00
    0.72005E-04        -0.27520E-01         0.00000E+00
    0.64832E-04        -0.25012E-01         0.00000E+00
    0.57992E-04        -0.22506E-01         0.00000E+00
    0.51416E-04        -0.20001E-01         0.00000E+00
    0.45035E-04        -0.17496E-01         0.00000E+00
    0.38777E-04        -0.14993E-01         0.00000E+00
    0.32572E-04        -0.12490E-01         0.00000E+00
    0.26349E-04        -0.99890E-02         0.00000E+00
    0.20043E-04        -0.74892E-02         0.00000E+00
    0.13589E-04        -0.49910E-02         0.00000E+00
    0.69271E-05        -0.24945E-02         0.00000E+00
    0.00000E+00         0.00000E+00         0.00000E+00
    0.15711E-03        -0.37570E-01         0.00000E+00
    0.14353E-03        -0.35058E-01         0.00000E+00
    0.13078E-03        -0.32547E-01         0.00000E+00
    0.11878E-03        -0.30038E-01         0.00000E+00
    0.10747E-03        -0.27529E-01         0.00000E+00
    0.96758E-04        -0.25021E-01         0.00000E+00
    0.86547E-04        -0.22514E-01         0.00000E+00
    0.76736E-04        -0.20008E-01         0.00000E+00
    0.67218E-04        -0.17502E-01         0.00000E+00
    0.57885E-04        -0.14998E-01         0.00000E+00
    0.48629E-04        -0.12495E-01         0.00000E+00
    0.39346E-04        -0.99927E-02         0.00000E+00
    0.29935E-04        -0.74921E-02         0.00000E+00
    0.20299E-04        -0.49929E-02         0.00000E+00
    0.10350E-04        -0.24955E-02         0.00000E+00
    0.00000E+00         0.00000E+00         0.00000E+00
    0.20825E-03        -0.37586E-01         0.00000E+00
    0.19018E-03        -0.35074E-01         0.00000E+00
    0.17322E-03        -0.32562E-01         0.00000E+00
    0.15729E-03        -0.30051E-01         0.00000E+00
    0.14229E-03        -0.27542E-01         0.00000E+00
    0.12809E-03        -0.25033E-01         0.00000E+00
    0.11457E-03        -0.22525E-01         0.00000E+00
    0.10159E-03        -0.20017E-01         0.00000E+00
    0.89001E-04        -0.17511E-01         0.00000E+00
    0.76656E-04        -0.15006E-01         0.00000E+00
    0.64413E-04        -0.12501E-01         0.00000E+00
    0.52129E-04        -0.99980E-02         0.00000E+00
    0.39671E-04        -0.74961E-02         0.00000E+00
    0.26909E-04        -0.49956E-02         0.00000E+00
    0.13723E-04        -0.24969E-02         0.00000E+00
    0.00000E+00         0.00000E+00         0.00000E+00
    0.25832E-03        -0.37607E-01         0.00000E+00
    0.23578E-03        -0.35094E-01         0.00000E+00
    0.21467E-03        -0.32581E-01         0.00000E+00
    0.19486E-03        -0.30069E-01         0.00000E+00
    0.17624E-03        -0.27558E-01         0.00000E+00
    0.15864E-03        -0.25048E-01         0.00000E+00
    0.14189E-03        -0.22539E-01         0.00000E+00
    0.12583E-03        -0.20030E-01         0.00000E+00
    0.11025E-03        -0.17522E-01         0.00000E+00
    0.94979E-04        -0.15015E-01         0.00000E+00
    0.79832E-04        -0.12510E-01         0.00000E+00
    0.64630E-04        -0.10005E-01         0.00000E+00
    0.49202E-04        -0.75012E-02         0.00000E+00
    0.33386E-04        -0.49991E-02         0.00000E+00
    0.17033E-04        -0.24986E-02         0.00000E+00
    0.00000E+00         0.00000E+00         0.00000E+00
    0.30704E-03        -0.37633E-01         0.00000E+00
    0.28008E-03        -0.35118E-01         0.00000E+00
    0.25486E-03        -0.32604E-01         0.00000E+00
    0.23126E-03        -0.30091E-01         0.00000E+00
    0.20910E-03        -0.27578E-01         0.00000E+00
    0.18819E-03        -0.25067E-01         0.00000E+00
    0.16833E-03        -0.22556E-01         0.00000E+00
    0.14928E-03        -0.20045E-01         0.00000E+00
    0.13083E-03        -0.17536E-01         0.00000E+00
    0.11274E-03        -0.15027E-01         0.00000E+00
    0.94798E-04        -0.12520E-01         0.00000E+00
    0.76779E-04        -0.10013E-01         0.00000E+00
    0.58477E-04        -0.75074E-02         0.00000E+00
    0.39699E-04        -0.50033E-02         0.00000E+00
    0.20262E-04        -0.25008E-02         0.00000E+00
    0.00000E+00         0.00000E+00         0.00000E+00
    0.35412E-03        -0.37663E-01         0.00000E+00
    0.32277E-03        -0.35146E-01         0.00000E+00
    0.29353E-03        -0.32631E-01         0.00000E+00
    0.26622E-03        -0.30116E-01         0.00000E+00
    0.24064E-03        -0.27602E-01         0.00000E+00
    0.21655E-03        -0.25088E-01         0.00000E+00
    0.19369E-03        -0.22576E-01         0.00000E+00
    0.17180E-03        -0.20064E-01         0.00000E+00
    0.15061E-03        -0.17552E-01         0.00000E+00
    0.12984E-03        -0.15041E-01         0.00000E+00
    0.10922E-03        -0.12532E-01         0.00000E+00
    0.88508E-04        -0.10023E-01         0.00000E+00
    0.67449E-04        -0.75148E-02         0.00000E+00
    0.45816E-04        -0.50083E-02         0.00000E+00
    0.23398E-04        -0.25033E-02         0.00000E+00
    0.00000E+00         0.00000E+00         0.00000E+00
    0.39924E-03        -0.37698E-01         0.00000E+00
    0.36358E-03        -0.35179E-01         0.00000E+00
    0.33040E-03        -0.32662E-01         0.00000E+00
    0.29951E-03        -0.30145E-01         0.00000E+00
    0.27063E-03        -0.27629E-01         0.00000E+00
    0.24350E-03        -0.25114E-01         0.00000E+00
    0.21780E-03        -0.22599E-01         0.00000E+00
    0.19323E-03        -0.20085E-01         0.00000E+00
    0.16945E-03        -0.17571E-01         0.00000E+00
    0.14615E-03        -0.15058E-01         0.00000E+00
    0.12302E-03        -0.12545E-01         0.00000E+00
    0.99751E-04        -0.10034E-01         0.00000E+00
    0.76070E-04        -0.75233E-02         0.00000E+00
    0.51709E-04        -0.50140E-02         0.00000E+00
    0.26426E-04        -0.25062E-02         0.00000E+00
    0.00000E+00         0.00000E+00         0.00000E+00
    0.44209E-03        -0.37737E-01         0.00000E+00
    0.40219E-03        -0.35217E-01         0.00000E+00
    0.36519E-03        -0.32697E-01         0.00000E+00
    0.33084E-03        -0.30178E-01         0.00000E+00
    0.29883E-03        -0.27660E-01         0.00000E+00
    0.26883E-03        -0.25142E-01         0.00000E+00
    0.24047E-03        -0.22625E-01         0.00000E+00
    0.21339E-03        -0.20108E-01         0.00000E+00
    0.18722E-03        -0.17592E-01         0.00000E+00
    0.16157E-03        -0.15076E-01         0.00000E+00
    0.13609E-03        -0.12561E-01         0.00000E+00
    0.11044E-03        -0.10046E-01         0.00000E+00
    0.84294E-04        -0.75329E-02         0.00000E+00
    0.57349E-04        -0.50205E-02         0.00000E+00
    0.29333E-04        -0.25094E-02         0.00000E+00
    0.00000E+00         0.00000E+00         0.00000E+00
    0.48232E-03        -0.37781E-01         0.00000E+00
    0.43828E-03        -0.35258E-01         0.00000E+00
    0.39759E-03        -0.32736E-01         0.00000E+00
    0.35995E-03        -0.30215E-01         0.00000E+00
    0.32500E-03        -0.27694E-01         0.00000E+00
    0.29232E-03        -0.25174E-01         0.00000E+00
    0.26152E-03        -0.22654E-01         0.00000E+00
    0.23215E-03        -0.20134E-01         0.00000E+00
    0.20378E-03        -0.17615E-01         0.00000E+00
    0.17599E-03        -0.15096E-01         0.00000E+00
    0.14836E-03        -0.12578E-01         0.00000E+00
    0.12052E-03        -0.10060E-01         0.00000E+00
    0.92077E-04        -0.75435E-02         0.00000E+00
    0.62710E-04        -0.50277E-02         0.00000E+00
    0.32108E-04        -0.25131E-02         0.00000E+00
    0.00000E+00         0.00000E+00         0.00000E+00
    0.51958E-03        -0.37829E-01         0.00000E+00
    0.47151E-03        -0.35304E-01         0.00000E+00
    0.42730E-03        -0.32779E-01         0.00000E+00
    0.38656E-03        -0.30255E-01         0.00000E+00
    0.34887E-03        -0.27732E-01         0.00000E+00
    0.31376E-03        -0.25209E-01         0.00000E+00
    0.28074E-03        -0.22686E-01         0.00000E+00
    0.24932E-03        -0.20163E-01         0.00000E+00
    0.21900E-03        -0.17641E-01         0.00000E+00
    0.18929E-03        -0.15119E-01         0.00000E+00
    0.15975E-03        -0.12597E-01         0.00000E+00
    0.12991E-03        -0.10076E-01         0.00000E+00
    0.99376E-04        -0.75552E-02         0.00000E+00
    0.67764E-04        -0.50356E-02         0.00000E+00
    0.34738E-04        -0.25171E-02         0.00000E+00
    0.00000E+00         0.00000E+00         0.00000E+00
    0.55346E-03        -0.37881E-01         0.00000E+00
    0.50152E-03        -0.35353E-01         0.00000E+00
    0.45398E-03        -0.32826E-01         0.00000E+00
    0.41037E-03        -0.30299E-01         0.00000E+00
    0.37020E-03        -0.27773E-01         0.00000E+00
    0.33291E-03        -0.25247E-01         0.00000E+00
    0.29794E-03        -0.22721E-01         0.00000E+00
    0.26474E-03        -0.20195E-01         0.00000E+00
    0.23273E-03        -0.17669E-01         0.00000E+00
    0.20138E-03        -0.15143E-01         0.00000E+00
    0.17015E-03        -0.12618E-01         0.00000E+00
    0.13856E-03        -0.10092E-01         0.00000E+00
    0.10615E-03        -0.75679E-02         0.00000E+00
    0.72487E-04        -0.50441E-02         0.00000E+00
    0.37214E-04        -0.25214E-02         0.00000E+00
    0.00000E+00         0.00000E+00         0.00000E+00
    0.58358E-03        -0.37937E-01         0.00000E+00
    0.52795E-03        -0.35406E-01         0.00000E+00
    0.47730E-03        -0.32876E-01         0.00000E+00
    0.43108E-03        -0.30347E-01         0.00000E+00
    0.38870E-03        -0.27817E-01         0.00000E+00
    0.34953E-03        -0.25288E-01         0.00000E+00
    0.31293E-03        -0.22758E-01         0.00000E+00
    0.27824E-03        -0.20229E-01         0.00000E+00
    0.24485E-03        -0.17699E-01         0.00000E+00
    0.21213E-03        -0.15169E-01         0.00000E+00
    0.17950E-03        -0.12640E-01         0.00000E+00
    0.14640E-03        -0.10110E-01         0.00000E+00
    0.11234E-03        -0.75816E-02         0.00000E+00
    0.76854E-04        -0.50534E-02         0.00000E+00
    0.39523E-04        -0.25261E-02         0.00000E+00
    0.00000E+00         0.00000E+00         0.00000E+00
    0.60949E-03        -0.37997E-01         0.00000E+00
    0.55039E-03        -0.35464E-01         0.00000E+00
    0.49690E-03        -0.32930E-01         0.00000E+00
    0.44838E-03        -0.30397E-01         0.00000E+00
    0.40412E-03        -0.27865E-01         0.00000E+00
    0.36340E-03        -0.25332E-01         0.00000E+00
    0.32549E-03        -0.22798E-01         0.00000E+00
    0.28966E-03        -0.20265E-01         0.00000E+00
    0.25520E-03        -0.17731E-01         0.00000E+00
    0.22142E-03        -0.15197E-01         0.00000E+00
    0.18768E-03        -0.12663E-01         0.00000E+00
    0.15337E-03        -0.10130E-01         0.00000E+00
    0.11793E-03        -0.75962E-02         0.00000E+00
    0.80838E-04        -0.50632E-02         0.00000E+00
    0.41657E-04        -0.25311E-02         0.00000E+00
    0.00000E+00         0.00000E+00         0.00000E+00
    0.63073E-03        -0.38061E-01         0.00000E+00
    0.56843E-03        -0.35524E-01         0.00000E+00
    0.51242E-03        -0.32988E-01         0.00000E+00
    0.46193E-03        -0.30451E-01         0.00000E+00
    0.41616E-03        -0.27915E-01         0.00000E+00
    0.37426E-03        -0.25378E-01         0.00000E+00
    0.33541E-03        -0.22841E-01         0.00000E+00
    0.29880E-03        -0.20303E-01         0.00000E+00
    0.26363E-03        -0.17765E-01         0.00000E+00
    0.22914E-03        -0.15227E-01         0.00000E+00
    0.19462E-03        -0.12688E-01         0.00000E+00
    0.15940E-03        -0.10150E-01         0.00000E+00
    0.12285E-03        -0.76116E-02         0.00000E+00
    0.84412E-04        -0.50737E-02         0.00000E+00
    0.43603E-04        -0.25364E-02         0.00000E+00
    0.00000E+00         0.00000E+00         0.00000E+00
    0.64681E-03        -0.38129E-01         0.00000E+00
    0.58163E-03        -0.35588E-01         0.00000E+00
    0.52347E-03        -0.33048E-01         0.00000E+00
    0.47141E-03        -0.30508E-01         0.00000E+00
    0.42453E-03        -0.27968E-01         0.00000E+00
    0.38187E-03        -0.25427E-01         0.00000E+00
    0.34249E-03        -0.22885E-01         0.00000E+00
    0.30550E-03        -0.20343E-01         0.00000E+00
    0.27000E-03        -0.17801E-01         0.00000E+00
    0.23517E-03        -0.15258E-01         0.00000E+00
    0.20021E-03        -0.12715E-01         0.00000E+00
    0.16440E-03        -0.10171E-01         0.00000E+00
    0.12705E-03        -0.76279E-02         0.00000E+00
    0.87543E-04        -0.50846E-02         0.00000E+00
    0.45347E-04        -0.25419E-02         0.00000E+00
    0.00000E+00         0.00000E+00         0.00000E+00
    0.65721E-03        -0.38199E-01         0.00000E+00
    0.58954E-03        -0.35655E-01         0.00000E+00
    0.52965E-03        -0.33111E-01         0.00000E+00
    0.47647E-03        -0.30567E-01         0.00000E+00
    0.42893E-03        -0.28023E-01         0.00000E+00
    0.38596E-03        -0.25478E-01         0.00000E+00
    0.34650E-03        -0.22932E-01         0.00000E+00
    0.30955E-03        -0.20385E-01         0.00000E+00
    0.27414E-03        -0.17838E-01         0.00000E+00
    0.23935E-03        -0.15290E-01         0.00000E+00
    0.20434E-03        -0.12742E-01         0.00000E+00
    0.16829E-03        -0.10194E-01         0.00000E+00
    0.13046E-03        -0.76447E-02         0.00000E+00
    0.90192E-04        -0.50960E-02         0.00000E+00
    0.46873E-04        -0.25477E-02         0.00000E+00
    0.00000E+00         0.00000E+00         0.00000E+00
    0.66139E-03        -0.38272E-01         0.00000E+00
    0.59168E-03        -0.35724E-01         0.00000E+00
    0.53055E-03        -0.33177E-01         0.00000E+00
    0.47676E-03        -0.30628E-01         0.00000E+00
    0.42908E-03        -0.28080E-01         0.00000E+00
    0.38629E-03        -0.25530E-01         0.00000E+00
    0.34723E-03        -0.22980E-01         0.00000E+00
    0.31077E-03        -0.20429E-01         0.00000E+00
    0.27587E-03        -0.17877E-01         0.00000E+00
    0.24155E-03        -0.15324E-01         0.00000E+00
    0.20687E-03        -0.12770E-01         0.00000E+00
    0.17096E-03        -0.10216E-01         0.00000E+00
    0.13302E-03        -0.76622E-02         0.00000E+00
    0.92311E-04        -0.51078E-02         0.00000E+00
    0.48158E-04        -0.25537E-02         0.00000E+00
    0.00000E+00         0.00000E+00         0.00000E+00
    0.65877E-03        -0.38348E-01         0.00000E+00
    0.58756E-03        -0.35796E-01         0.00000E+00
    0.52576E-03        -0.33244E-01         0.00000E+00
    0.47194E-03        -0.30691E-01         0.00000E+00
    0.42467E-03        -0.28138E-01         0.00000E+00
    0.38260E-03        -0.25584E-01         0.00000E+00
    0.34442E-03        -0.23029E-01         0.00000E+00
    0.30894E-03        -0.20473E-01         0.00000E+00
    0.27501E-03        -0.17916E-01         0.00000E+00
    0.24158E-03        -0.15358E-01         0.00000E+00
    0.20765E-03        -0.12799E-01         0.00000E+00
    0.17230E-03        -0.10240E-01         0.00000E+00
    0.13463E-03        -0.76800E-02         0.00000E+00
    0.93834E-04        -0.51199E-02         0.00000E+00
    0.49173E-04        -0.25598E-02         0.00000E+00
    0.00000E+00         0.00000E+00         0.00000E+00
    0.64875E-03        -0.38425E-01         0.00000E+00
    0.57668E-03        -0.35869E-01         0.00000E+00
    0.51486E-03        -0.33313E-01         0.00000E+00
    0.46164E-03        -0.30756E-01         0.00000E+00
    0.41540E-03        -0.28198E-01         0.00000E+00
    0.37461E-03        -0.25639E-01         0.00000E+00
    0.33786E-03        -0.23079E-01         0.00000E+00
    0.30384E-03        -0.20518E-01         0.00000E+00
    0.27135E-03        -0.17956E-01         0.00000E+00
    0.23925E-03        -0.15392E-01         0.00000E+00
    0.20651E-03        -0.12828E-01         0.00000E+00
    0.17213E-03        -0.10264E-01         0.00000E+00
    0.13515E-03        -0.76981E-02         0.00000E+00
    0.94677E-04        -0.51322E-02         0.00000E+00
    0.49875E-04        -0.25660E-02         0.00000E+00
    0.00000E+00         0.00000E+00         0.00000E+00
    0.63070E-03        -0.38503E-01         0.00000E+00
    0.55852E-03        -0.35943E-01         0.00000E+00
    0.49744E-03        -0.33382E-01         0.00000E+00
    0.44554E-03        -0.30820E-01         0.00000E+00
    0.40098E-03        -0.28258E-01         0.00000E+00
    0.36208E-03        -0.25694E-01         0.00000E+00
    0.32730E-03        -0.23129E-01         0.00000E+00
    0.29524E-03        -0.20562E-01         0.00000E+00
    0.26464E-03        -0.17995E-01         0.00000E+00
    0.23433E-03        -0.15427E-01         0.00000E+00
    0.20322E-03        -0.12857E-01         0.00000E+00
    0.17026E-03        -0.10287E-01         0.00000E+00
    0.13442E-03        -0.77162E-02         0.00000E+00
    0.94722E-04        -0.51445E-02         0.00000E+00
    0.50205E-04        -0.25723E-02         0.00000E+00
    0.00000E+00         0.00000E+00         0.00000E+00
    0.60399E-03        -0.38581E-01         0.00000E+00
    0.53258E-03        -0.36017E-01         0.00000E+00
    0.47309E-03        -0.33451E-01         0.00000E+00
    0.42331E-03        -0.30885E-01         0.00000E+00
    0.38115E-03        -0.28317E-01         0.00000E+00
    0.34476E-03        -0.25748E-01         0.00000E+00
    0.31248E-03        -0.23178E-01         0.00000E+00
    0.28286E-03        -0.20606E-01         0.00000E+00
    0.25461E-03        -0.18034E-01         0.00000E+00
    0.22652E-03        -0.15461E-01         0.00000E+00
    0.19749E-03        -0.12886E-01         0.00000E+00
    0.16642E-03        -0.10311E-01         0.00000E+00
    0.13223E-03        -0.77341E-02         0.00000E+00
    0.93813E-04        -0.51567E-02         0.00000E+00
    0.50082E-04        -0.25785E-02         0.00000E+00
    0.00000E+00         0.00000E+00         0.00000E+00
    0.56796E-03        -0.38659E-01         0.00000E+00
    0.49835E-03        -0.36090E-01         0.00000E+00
    0.44144E-03        -0.33519E-01         0.00000E+00
    0.39465E-03        -0.30948E-01         0.00000E+00
    0.35565E-03        -0.28375E-01         0.00000E+00
    0.32239E-03        -0.25801E-01         0.00000E+00
    0.29315E-03        -0.23225E-01         0.00000E+00
    0.26642E-03        -0.20649E-01         0.00000E+00
    0.24093E-03        -0.18072E-01         0.00000E+00
    0.21549E-03        -0.15493E-01         0.00000E+00
    0.18898E-03        -0.12914E-01         0.00000E+00
    0.16029E-03        -0.10333E-01         0.00000E+00
    0.12828E-03        -0.77515E-02         0.00000E+00
    0.91734E-04        -0.51686E-02         0.00000E+00
    0.49394E-04        -0.25847E-02         0.00000E+00
    0.00000E+00         0.00000E+00         0.00000E+00
    0.52195E-03        -0.38735E-01         0.00000E+00
    0.45536E-03        -0.36161E-01         0.00000E+00
    0.40216E-03        -0.33585E-01         0.00000E+00
    0.35934E-03        -0.31008E-01         0.00000E+00
    0.32426E-03        -0.28430E-01         0.00000E+00
    0.29474E-03        -0.25851E-01         0.00000E+00
    0.26901E-03        -0.23270E-01         0.00000E+00
    0.24559E-03        -0.20689E-01         0.00000E+00
    0.22323E-03        -0.18107E-01         0.00000E+00
    0.20080E-03        -0.15524E-01         0.00000E+00
    0.17724E-03        -0.12940E-01         0.00000E+00
    0.15143E-03        -0.10355E-01         0.00000E+00
    0.12219E-03        -0.77681E-02         0.00000E+00
    0.88197E-04        -0.51801E-02         0.00000E+00
    0.47982E-04        -0.25907E-02         0.00000E+00
    0.00000E+00         0.00000E+00         0.00000E+00
    0.46527E-03        -0.38807E-01         0.00000E+00
    0.40317E-03        -0.36228E-01         0.00000E+00
    0.35499E-03        -0.33648E-01         0.00000E+00
    0.31717E-03        -0.31065E-01         0.00000E+00
    0.28679E-03        -0.28482E-01         0.00000E+00
    0.26158E-03        -0.25897E-01         0.00000E+00
    0.23976E-03        -0.23312E-01         0.00000E+00
    0.21996E-03        -0.20726E-01         0.00000E+00
    0.20103E-03        -0.18139E-01         0.00000E+00
    0.18195E-03        -0.15552E-01         0.00000E+00
    0.16171E-03        -0.12964E-01         0.00000E+00
    0.13929E-03        -0.10374E-01         0.00000E+00
    0.11346E-03        -0.77836E-02         0.00000E+00
    0.82807E-04        -0.51910E-02         0.00000E+00
    0.45629E-04        -0.25964E-02         0.00000E+00
    0.00000E+00         0.00000E+00         0.00000E+00
    0.39726E-03        -0.38875E-01         0.00000E+00
    0.34144E-03        -0.36291E-01         0.00000E+00
    0.29977E-03        -0.33705E-01         0.00000E+00
    0.26805E-03        -0.31117E-01         0.00000E+00
    0.24309E-03        -0.28528E-01         0.00000E+00
    0.22262E-03        -0.25938E-01         0.00000E+00
    0.20503E-03        -0.23348E-01         0.00000E+00
    0.18908E-03        -0.20758E-01         0.00000E+00
    0.17380E-03        -0.18168E-01         0.00000E+00
    0.15830E-03        -0.15577E-01         0.00000E+00
    0.14174E-03        -0.12985E-01         0.00000E+00
    0.12316E-03        -0.10392E-01         0.00000E+00
    0.10142E-03        -0.77975E-02         0.00000E+00
    0.75026E-04        -0.52009E-02         0.00000E+00
    0.42028E-04        -0.26018E-02         0.00000E+00
    0.00000E+00         0.00000E+00         0.00000E+00
    0.31725E-03        -0.38936E-01         0.00000E+00
    0.26995E-03        -0.36346E-01         0.00000E+00
    0.23650E-03        -0.33755E-01         0.00000E+00
    0.21193E-03        -0.31161E-01         0.00000E+00
    0.19297E-03        -0.28567E-01         0.00000E+00
    0.17756E-03        -0.25973E-01         0.00000E+00
    0.16435E-03        -0.23379E-01         0.00000E+00
    0.15238E-03        -0.20785E-01         0.00000E+00
    0.14087E-03        -0.18191E-01         0.00000E+00
    0.12914E-03        -0.15597E-01         0.00000E+00
    0.11652E-03        -0.13002E-01         0.00000E+00
    0.10221E-03        -0.10407E-01         0.00000E+00
    0.85216E-04        -0.78094E-02         0.00000E+00
    0.64109E-04        -0.52097E-02         0.00000E+00
    0.36727E-04        -0.26067E-02         0.00000E+00
    0.00000E+00         0.00000E+00         0.00000E+00
    0.22459E-03        -0.38987E-01         0.00000E+00
    0.18875E-03        -0.36392E-01         0.00000E+00
    0.16538E-03        -0.33794E-01         0.00000E+00
    0.14880E-03        -0.31196E-01         0.00000E+00
    0.13615E-03        -0.28597E-01         0.00000E+00
    0.12591E-03        -0.25999E-01         0.00000E+00
    0.11714E-03        -0.23401E-01         0.00000E+00
    0.10918E-03        -0.20805E-01         0.00000E+00
    0.10150E-03        -0.18208E-01         0.00000E+00
    0.93648E-04        -0.15612E-01         0.00000E+00
    0.85140E-04        -0.13015E-01         0.00000E+00
    0.75426E-04        -0.10418E-01         0.00000E+00
    0.63762E-04        -0.78186E-02         0.00000E+00
    0.49003E-04        -0.52168E-02         0.00000E+00
    0.29026E-04        -0.26110E-02         0.00000E+00
    0.00000E+00         0.00000E+00         0.00000E+00
    0.11869E-03        -0.39024E-01         0.00000E+00
    0.98435E-04        -0.36424E-01         0.00000E+00
    0.86674E-04        -0.33821E-01         0.00000E+00
    0.78398E-04        -0.31218E-01         0.00000E+00
    0.72106E-04        -0.28616E-01         0.00000E+00
    0.67016E-04        -0.26015E-01         0.00000E+00
    0.62653E-04        -0.23416E-01         0.00000E+00
    0.58686E-04        -0.20817E-01         0.00000E+00
    0.54851E-04        -0.18219E-01         0.00000E+00
    0.50916E-04        -0.15621E-01         0.00000E+00
    0.46638E-04        -0.13024E-01         0.00000E+00
    0.41731E-04        -0.10425E-01         0.00000E+00
    0.35801E-04        -0.78246E-02         0.00000E+00
    0.28201E-04        -0.52217E-02         0.00000E+00
    0.17682E-04        -0.26144E-02         0.00000E+00
    0.00000E+00         0.00000E+00         0.00000E+00
    0.00000E+00        -0.39041E-01         0.00000E+00
    0.00000E+00        -0.36435E-01         0.00000E+00
    0.00000E+00        -0.33830E-01         0.00000E+00
    0.00000E+00        -0.31225E-01         0.00000E+00
    0.00000E+00        -0.28622E-01         0.00000E+00
    0.00000E+00        -0.26021E-01         0.00000E+00
    0.00000E+00        -0.23420E-01         0.00000E+00
    0.00000E+00        -0.20821E-01         0.00000E+00
    0.00000E+00        -0.18223E-01         0.00000E+00
    0.00000E+00        -0.15625E-01         0.00000E+00
    0.00000E+00        -0.13026E-01         0.00000E+00
    0.00000E+00        -0.10427E-01         0.00000E+00
    0.00000E+00        -0.78267E-02         0.00000E+00
    0.00000E+00        -0.52234E-02         0.00000E+00
    0.00000E+00        -0.26158E-02         0.00000E+00
    0.00000E+00         0.00000E+00         0.00000E+00
CELL_DATA        450
VECTORS vDarcy double 
    0.11397E-08        -0.24807E-11         0.00000E+00
    0.11397E-08        -0.67423E-11         0.00000E+00
    0.11396E-08        -0.10103E-10         0.00000E+00
    0.11396E-08        -0.12641E-10         0.00000E+00
    0.11395E-08        -0.14425E-10         0.00000E+00
    0.11395E-08        -0.15520E-10         0.00000E+00
    0.11394E-08        -0.15984E-10         0.00000E+00
    0.11394E-08        -0.15867E-10         0.00000E+00
    0.11393E-08        -0.15214E-10         0.00000E+00
    0.11393E-08        -0.14063E-10         0.00000E+00
    0.11392E-08        -0.12448E-10         0.00000E+00
    0.11392E-08        -0.10395E-10         0.00000E+00
    0.11392E-08        -0.79266E-11         0.00000E+00
    0.11391E-08        -0.50595E-11         0.00000E+00
    0.11391E-08        -0.18060E-11         0.00000E+00
    0.34189E-08        -0.24662E-11         0.00000E+00
    0.34189E-08        -0.67019E-11         0.00000E+00
    0.34188E-08        -0.10041E-10         0.00000E+00
    0.34187E-08        -0.12562E-10         0.00000E+00
    0.34186E-08        -0.14333E-10         0.00000E+00
    0.34184E-08        -0.15419E-10         0.00000E+00
    0.34182E-08        -0.15878E-10         0.00000E+00
    0.34181E-08        -0.15761E-10         0.00000E+00
    0.34179E-08        -0.15111E-10         0.00000E+00
    0.34178E-08        -0.13968E-10         0.00000E+00
    0.34176E-08        -0.12363E-10         0.00000E+00
    0.34175E-08        -0.10324E-10         0.00000E+00
    0.34174E-08        -0.78724E-11         0.00000E+00
    0.34173E-08        -0.50249E-11         0.00000E+00
    0.34173E-08        -0.17937E-11         0.00000E+00
    0.56980E-08        -0.24371E-11         0.00000E+00
    0.56979E-08        -0.66209E-11         0.00000E+00
    0.56978E-08        -0.99170E-11         0.00000E+00
    0.56976E-08        -0.12403E-10         0.00000E+00
    0.56974E-08        -0.14148E-10         0.00000E+00
    0.56971E-08        -0.15217E-10         0.00000E+00
    0.56968E-08        -0.15667E-10         0.00000E+00
    0.56966E-08        -0.15549E-10         0.00000E+00
    0.56963E-08        -0.14906E-10         0.00000E+00
    0.56960E-08        -0.13777E-10         0.00000E+00
    0.56958E-08        -0.12193E-10         0.00000E+00
    0.56956E-08        -0.10182E-10         0.00000E+00
    0.56954E-08        -0.77640E-11         0.00000E+00
    0.56953E-08        -0.49558E-11         0.00000E+00
    0.56952E-08        -0.17692E-11         0.00000E+00
    0.79767E-08        -0.23934E-11         0.00000E+00
    0.79766E-08        -0.64991E-11         0.00000E+00
    0.79764E-08        -0.97303E-11         0.00000E+00
    0.79761E-08        -0.12164E-10         0.00000E+00
    0.79758E-08        -0.13871E-10         0.00000E+00
    0.79754E-08        -0.14914E-10         0.00000E+00
    0.79751E-08        -0.15351E-10         0.00000E+00
    0.79747E-08        -0.15231E-10         0.00000E+00
    0.79743E-08        -0.14598E-10         0.00000E+00
    0.79739E-08        -0.13490E-10         0.00000E+00
    0.79736E-08        -0.11939E-10         0.00000E+00
    0.79733E-08        -0.99689E-11         0.00000E+00
    0.79731E-08        -0.76015E-11         0.00000E+00
    0.79729E-08        -0.48523E-11         0.00000E+00
    0.79729E-08        -0.17323E-11         0.00000E+00
    0.10255E-07        -0.23351E-11         0.00000E+00
    0.10255E-07        -0.63365E-11         0.00000E+00
    0.10255E-07        -0.94808E-11         0.00000E+00
    0.10254E-07        -0.11845E-10         0.00000E+00
    0.10254E-07        -0.13500E-10         0.00000E+00
    0.10253E-07        -0.14509E-10         0.00000E+00
    0.10253E-07        -0.14928E-10         0.00000E+00
    0.10252E-07        -0.14807E-10         0.00000E+00
    0.10252E-07        -0.14188E-10         0.00000E+00
    0.10251E-07        -0.13109E-10         0.00000E+00
    0.10251E-07        -0.11600E-10         0.00000E+00
    0.10251E-07        -0.96853E-11         0.00000E+00
    0.10250E-07        -0.73853E-11         0.00000E+00
    0.10250E-07        -0.47145E-11         0.00000E+00
    0.10250E-07        -0.16834E-11         0.00000E+00
    0.12533E-07        -0.22619E-11         0.00000E+00
    0.12532E-07        -0.61326E-11         0.00000E+00
    0.12532E-07        -0.91682E-11         0.00000E+00
    0.12532E-07        -0.11446E-10         0.00000E+00
    0.12531E-07        -0.13037E-10         0.00000E+00
    0.12531E-07        -0.14003E-10         0.00000E+00
    0.12530E-07        -0.14400E-10         0.00000E+00
    0.12529E-07        -0.14277E-10         0.00000E+00
    0.12529E-07        -0.13676E-10         0.00000E+00
    0.12528E-07        -0.12633E-10         0.00000E+00
    0.12528E-07        -0.11177E-10         0.00000E+00
    0.12527E-07        -0.93315E-11         0.00000E+00
    0.12527E-07        -0.71156E-11         0.00000E+00
    0.12527E-07        -0.45427E-11         0.00000E+00
    0.12526E-07        -0.16223E-11         0.00000E+00
    0.14809E-07        -0.21737E-11         0.00000E+00
    0.14809E-07        -0.58871E-11         0.00000E+00
    0.14809E-07        -0.87921E-11         0.00000E+00
    0.14808E-07        -0.10966E-10         0.00000E+00
    0.14808E-07        -0.12480E-10         0.00000E+00
    0.14807E-07        -0.13395E-10         0.00000E+00
    0.14806E-07        -0.13766E-10         0.00000E+00
    0.14806E-07        -0.13642E-10         0.00000E+00
    0.14805E-07        -0.13062E-10         0.00000E+00
    0.14804E-07        -0.12063E-10         0.00000E+00
    0.14804E-07        -0.10670E-10         0.00000E+00
    0.14803E-07        -0.89080E-11         0.00000E+00
    0.14803E-07        -0.67929E-11         0.00000E+00
    0.14802E-07        -0.43373E-11         0.00000E+00
    0.14802E-07        -0.15494E-11         0.00000E+00
    0.17085E-07        -0.20704E-11         0.00000E+00
    0.17085E-07        -0.55997E-11         0.00000E+00
    0.17085E-07        -0.83521E-11         0.00000E+00
    0.17084E-07        -0.10405E-10         0.00000E+00
    0.17083E-07        -0.11829E-10         0.00000E+00
    0.17083E-07        -0.12685E-10         0.00000E+00
    0.17082E-07        -0.13027E-10         0.00000E+00
    0.17081E-07        -0.12901E-10         0.00000E+00
    0.17080E-07        -0.12347E-10         0.00000E+00
    0.17079E-07        -0.11398E-10         0.00000E+00
    0.17079E-07        -0.10081E-10         0.00000E+00
    0.17078E-07        -0.84156E-11         0.00000E+00
    0.17078E-07        -0.64179E-11         0.00000E+00
    0.17077E-07        -0.40988E-11         0.00000E+00
    0.17077E-07        -0.14648E-11         0.00000E+00
    0.19360E-07        -0.19518E-11         0.00000E+00
    0.19360E-07        -0.52700E-11         0.00000E+00
    0.19359E-07        -0.78479E-11         0.00000E+00
    0.19359E-07        -0.97631E-11         0.00000E+00
    0.19358E-07        -0.11085E-10         0.00000E+00
    0.19357E-07        -0.11874E-10         0.00000E+00
    0.19356E-07        -0.12182E-10         0.00000E+00
    0.19355E-07        -0.12056E-10         0.00000E+00
    0.19354E-07        -0.11532E-10         0.00000E+00
    0.19354E-07        -0.10642E-10         0.00000E+00
    0.19353E-07        -0.94100E-11         0.00000E+00
    0.19352E-07        -0.78553E-11         0.00000E+00
    0.19352E-07        -0.59915E-11         0.00000E+00
    0.19351E-07        -0.38277E-11         0.00000E+00
    0.19351E-07        -0.13686E-11         0.00000E+00
    0.21634E-07        -0.18177E-11         0.00000E+00
    0.21634E-07        -0.48978E-11         0.00000E+00
    0.21633E-07        -0.72792E-11         0.00000E+00
    0.21632E-07        -0.90396E-11         0.00000E+00
    0.21632E-07        -0.10247E-10         0.00000E+00
    0.21631E-07        -0.10962E-10         0.00000E+00
    0.21630E-07        -0.11234E-10         0.00000E+00
    0.21629E-07        -0.11108E-10         0.00000E+00
    0.21627E-07        -0.10618E-10         0.00000E+00
    0.21627E-07        -0.97945E-11         0.00000E+00
    0.21626E-07        -0.86590E-11         0.00000E+00
    0.21625E-07        -0.72287E-11         0.00000E+00
    0.21624E-07        -0.55150E-11         0.00000E+00
    0.21624E-07        -0.35249E-11         0.00000E+00
    0.21624E-07        -0.12614E-11         0.00000E+00
    0.23906E-07        -0.16680E-11         0.00000E+00
    0.23906E-07        -0.44828E-11         0.00000E+00
    0.23906E-07        -0.66462E-11         0.00000E+00
    0.23905E-07        -0.82353E-11         0.00000E+00
    0.23904E-07        -0.93174E-11         0.00000E+00
    0.23903E-07        -0.99505E-11         0.00000E+00
    0.23902E-07        -0.10184E-10         0.00000E+00
    0.23900E-07        -0.10059E-10         0.00000E+00
    0.23899E-07        -0.96081E-11         0.00000E+00
    0.23898E-07        -0.88586E-11         0.00000E+00
    0.23897E-07        -0.78304E-11         0.00000E+00
    0.23897E-07        -0.65377E-11         0.00000E+00
    0.23896E-07        -0.49899E-11         0.00000E+00
    0.23895E-07        -0.31915E-11         0.00000E+00
    0.23895E-07        -0.11434E-11         0.00000E+00
    0.26178E-07        -0.15026E-11         0.00000E+00
    0.26177E-07        -0.40251E-11         0.00000E+00
    0.26176E-07        -0.59491E-11         0.00000E+00
    0.26176E-07        -0.73510E-11         0.00000E+00
    0.26175E-07        -0.82967E-11         0.00000E+00
    0.26173E-07        -0.88423E-11         0.00000E+00
    0.26172E-07        -0.90345E-11         0.00000E+00
    0.26171E-07        -0.89118E-11         0.00000E+00
    0.26170E-07        -0.85050E-11         0.00000E+00
    0.26169E-07        -0.78376E-11         0.00000E+00
    0.26168E-07        -0.69271E-11         0.00000E+00
    0.26167E-07        -0.57851E-11         0.00000E+00
    0.26166E-07        -0.44183E-11         0.00000E+00
    0.26166E-07        -0.28288E-11         0.00000E+00
    0.26165E-07        -0.10151E-11         0.00000E+00
    0.28447E-07        -0.13216E-11         0.00000E+00
    0.28447E-07        -0.35250E-11         0.00000E+00
    0.28446E-07        -0.51889E-11         0.00000E+00
    0.28445E-07        -0.63886E-11         0.00000E+00
    0.28444E-07        -0.71878E-11         0.00000E+00
    0.28443E-07        -0.76402E-11         0.00000E+00
    0.28441E-07        -0.77897E-11         0.00000E+00
    0.28440E-07        -0.76716E-11         0.00000E+00
    0.28439E-07        -0.73135E-11         0.00000E+00
    0.28438E-07        -0.67359E-11         0.00000E+00
    0.28436E-07        -0.59533E-11         0.00000E+00
    0.28435E-07        -0.49743E-11         0.00000E+00
    0.28435E-07        -0.38029E-11         0.00000E+00
    0.28434E-07        -0.24386E-11         0.00000E+00
    0.28434E-07        -0.87720E-12         0.00000E+00
    0.30715E-07        -0.11250E-11         0.00000E+00
    0.30715E-07        -0.29833E-11         0.00000E+00
    0.30714E-07        -0.43674E-11         0.00000E+00
    0.30713E-07        -0.53507E-11         0.00000E+00
    0.30712E-07        -0.59946E-11         0.00000E+00
    0.30710E-07        -0.63493E-11         0.00000E+00
    0.30709E-07        -0.64553E-11         0.00000E+00
    0.30707E-07        -0.63441E-11         0.00000E+00
    0.30706E-07        -0.60399E-11         0.00000E+00
    0.30705E-07        -0.55596E-11         0.00000E+00
    0.30704E-07        -0.49145E-11         0.00000E+00
    0.30703E-07        -0.41101E-11         0.00000E+00
    0.30702E-07        -0.31474E-11         0.00000E+00
    0.30701E-07        -0.20232E-11         0.00000E+00
    0.30701E-07        -0.73045E-12         0.00000E+00
    0.32981E-07        -0.91315E-12         0.00000E+00
    0.32981E-07        -0.24012E-11         0.00000E+00
    0.32980E-07        -0.34871E-11         0.00000E+00
    0.32979E-07        -0.42418E-11         0.00000E+00
    0.32978E-07        -0.47228E-11         0.00000E+00
    0.32976E-07        -0.49766E-11         0.00000E+00
    0.32975E-07        -0.50392E-11         0.00000E+00
    0.32973E-07        -0.49380E-11         0.00000E+00
    0.32972E-07        -0.46928E-11         0.00000E+00
    0.32970E-07        -0.43169E-11         0.00000E+00
    0.32969E-07        -0.38179E-11         0.00000E+00
    0.32968E-07        -0.31984E-11         0.00000E+00
    0.32967E-07        -0.24562E-11         0.00000E+00
    0.32967E-07        -0.15852E-11         0.00000E+00
    0.32966E-07        -0.57582E-12         0.00000E+00
    0.35246E-07        -0.68665E-12         0.00000E+00
    0.35245E-07        -0.17809E-11         0.00000E+00
    0.35244E-07        -0.25523E-11         0.00000E+00
    0.35243E-07        -0.30678E-11         0.00000E+00
    0.35242E-07        -0.33806E-11         0.00000E+00
    0.35240E-07        -0.35318E-11         0.00000E+00
    0.35239E-07        -0.35523E-11         0.00000E+00
    0.35237E-07        -0.34645E-11         0.00000E+00
    0.35236E-07        -0.32835E-11         0.00000E+00
    0.35234E-07        -0.30184E-11         0.00000E+00
    0.35233E-07        -0.26731E-11         0.00000E+00
    0.35232E-07        -0.22470E-11         0.00000E+00
    0.35231E-07        -0.17350E-11         0.00000E+00
    0.35230E-07        -0.11283E-11         0.00000E+00
    0.35230E-07        -0.41449E-12         0.00000E+00
    0.37508E-07        -0.44638E-12         0.00000E+00
    0.37507E-07        -0.11256E-11         0.00000E+00
    0.37506E-07        -0.15686E-11         0.00000E+00
    0.37505E-07        -0.18374E-11         0.00000E+00
    0.37504E-07        -0.19789E-11         0.00000E+00
    0.37502E-07        -0.20280E-11         0.00000E+00
    0.37501E-07        -0.20091E-11         0.00000E+00
    0.37499E-07        -0.19388E-11         0.00000E+00
    0.37498E-07        -0.18268E-11         0.00000E+00
    0.37496E-07        -0.16779E-11         0.00000E+00
    0.37495E-07        -0.14922E-11         0.00000E+00
    0.37494E-07        -0.12659E-11         0.00000E+00
    0.37493E-07        -0.99123E-12         0.00000E+00
    0.37492E-07        -0.65691E-12         0.00000E+00
    0.37492E-07        -0.24792E-12         0.00000E+00
    0.39768E-07        -0.19369E-12         0.00000E+00
    0.39768E-07        -0.43987E-12         0.00000E+00
    0.39767E-07        -0.54447E-12         0.00000E+00
    0.39766E-07        -0.56239E-12         0.00000E+00
    0.39764E-07        -0.53295E-12         0.00000E+00
    0.39763E-07        -0.48281E-12         0.00000E+00
    0.39761E-07        -0.42888E-12         0.00000E+00
    0.39759E-07        -0.38068E-12         0.00000E+00
    0.39758E-07        -0.34226E-12         0.00000E+00
    0.39756E-07        -0.31348E-12         0.00000E+00
    0.39755E-07        -0.29082E-12         0.00000E+00
    0.39754E-07        -0.26761E-12         0.00000E+00
    0.39753E-07        -0.23396E-12         0.00000E+00
    0.39753E-07        -0.17645E-12         0.00000E+00
    0.39752E-07        -0.77906E-13         0.00000E+00
    0.42026E-07         0.69507E-13         0.00000E+00
    0.42026E-07         0.26993E-12         0.00000E+00
    0.42025E-07         0.50908E-12         0.00000E+00
    0.42024E-07         0.74130E-12         0.00000E+00
    0.42022E-07         0.93738E-12         0.00000E+00
    0.42021E-07         0.10806E-11         0.00000E+00
    0.42019E-07         0.11634E-11         0.00000E+00
    0.42018E-07         0.11842E-11         0.00000E+00
    0.42016E-07         0.11455E-11         0.00000E+00
    0.42015E-07         0.10522E-11         0.00000E+00
    0.42013E-07         0.91138E-12         0.00000E+00
    0.42012E-07         0.73198E-12         0.00000E+00
    0.42011E-07         0.52540E-12         0.00000E+00
    0.42011E-07         0.30631E-12         0.00000E+00
    0.42010E-07         0.93406E-13         0.00000E+00
    0.44282E-07         0.34053E-12         0.00000E+00
    0.44282E-07         0.99509E-12         0.00000E+00
    0.44281E-07         0.15769E-11         0.00000E+00
    0.44280E-07         0.20526E-11         0.00000E+00
    0.44278E-07         0.24058E-11         0.00000E+00
    0.44277E-07         0.26322E-11         0.00000E+00
    0.44275E-07         0.27354E-11         0.00000E+00
    0.44274E-07         0.27231E-11         0.00000E+00
    0.44272E-07         0.26047E-11         0.00000E+00
    0.44271E-07         0.23903E-11         0.00000E+00
    0.44270E-07         0.20896E-11         0.00000E+00
    0.44269E-07         0.17132E-11         0.00000E+00
    0.44268E-07         0.12727E-11         0.00000E+00
    0.44267E-07         0.78309E-12         0.00000E+00
    0.44267E-07         0.26341E-12         0.00000E+00
    0.46536E-07         0.61572E-12         0.00000E+00
    0.46535E-07         0.17239E-11         0.00000E+00
    0.46534E-07         0.26390E-11         0.00000E+00
    0.46533E-07         0.33437E-11         0.00000E+00
    0.46532E-07         0.38380E-11         0.00000E+00
    0.46531E-07         0.41332E-11         0.00000E+00
    0.46529E-07         0.42460E-11         0.00000E+00
    0.46528E-07         0.41946E-11         0.00000E+00
    0.46526E-07         0.39960E-11         0.00000E+00
    0.46525E-07         0.36648E-11         0.00000E+00
    0.46524E-07         0.32131E-11         0.00000E+00
    0.46523E-07         0.26515E-11         0.00000E+00
    0.46522E-07         0.19907E-11         0.00000E+00
    0.46522E-07         0.12438E-11         0.00000E+00
    0.46521E-07         0.42896E-12         0.00000E+00
    0.48787E-07         0.89018E-12         0.00000E+00
    0.48786E-07         0.24408E-11         0.00000E+00
    0.48786E-07         0.36689E-11         0.00000E+00
    0.48785E-07         0.45782E-11         0.00000E+00
    0.48783E-07         0.51899E-11         0.00000E+00
    0.48782E-07         0.55341E-11         0.00000E+00
    0.48781E-07         0.56431E-11         0.00000E+00
    0.48780E-07         0.55468E-11         0.00000E+00
    0.48778E-07         0.52699E-11         0.00000E+00
    0.48777E-07         0.48312E-11         0.00000E+00
    0.48776E-07         0.42438E-11         0.00000E+00
    0.48775E-07         0.35170E-11         0.00000E+00
    0.48775E-07         0.26580E-11         0.00000E+00
    0.48774E-07         0.16761E-11         0.00000E+00
    0.48774E-07         0.58633E-12         0.00000E+00
    0.51035E-07         0.11573E-11         0.00000E+00
    0.51035E-07         0.31248E-11         0.00000E+00
    0.51034E-07         0.46314E-11         0.00000E+00
    0.51033E-07         0.57087E-11         0.00000E+00
    0.51032E-07         0.64047E-11         0.00000E+00
    0.51031E-07         0.67724E-11         0.00000E+00
    0.51030E-07         0.68620E-11         0.00000E+00
    0.51029E-07         0.67157E-11         0.00000E+00
    0.51028E-07         0.63661E-11         0.00000E+00
    0.51027E-07         0.58350E-11         0.00000E+00
    0.51027E-07         0.51354E-11         0.00000E+00
    0.51026E-07         0.42728E-11         0.00000E+00
    0.51025E-07         0.32486E-11         0.00000E+00
    0.51025E-07         0.20652E-11         0.00000E+00
    0.51025E-07         0.73103E-12         0.00000E+00
    0.53281E-07         0.14081E-11         0.00000E+00
    0.53281E-07         0.37478E-11         0.00000E+00
    0.53281E-07         0.54797E-11         0.00000E+00
    0.53280E-07         0.66730E-11         0.00000E+00
    0.53279E-07         0.74096E-11         0.00000E+00
    0.53278E-07         0.77697E-11         0.00000E+00
    0.53278E-07         0.78228E-11         0.00000E+00
    0.53277E-07         0.76238E-11         0.00000E+00
    0.53276E-07         0.72118E-11         0.00000E+00
    0.53276E-07         0.66109E-11         0.00000E+00
    0.53275E-07         0.58318E-11         0.00000E+00
    0.53275E-07         0.48742E-11         0.00000E+00
    0.53274E-07         0.37308E-11         0.00000E+00
    0.53274E-07         0.23927E-11         0.00000E+00
    0.53274E-07         0.85766E-12         0.00000E+00
    0.55525E-07         0.16302E-11         0.00000E+00
    0.55524E-07         0.42706E-11         0.00000E+00
    0.55524E-07         0.61504E-11         0.00000E+00
    0.55524E-07         0.73893E-11         0.00000E+00
    0.55523E-07         0.81119E-11         0.00000E+00
    0.55523E-07         0.84289E-11         0.00000E+00
    0.55523E-07         0.84292E-11         0.00000E+00
    0.55522E-07         0.81787E-11         0.00000E+00
    0.55522E-07         0.77213E-11         0.00000E+00
    0.55522E-07         0.70813E-11         0.00000E+00
    0.55522E-07         0.62657E-11         0.00000E+00
    0.55522E-07         0.52668E-11         0.00000E+00
    0.55521E-07         0.40651E-11         0.00000E+00
    0.55521E-07         0.26360E-11         0.00000E+00
    0.55521E-07         0.95959E-12         0.00000E+00
    0.57765E-07         0.18056E-11         0.00000E+00
    0.57765E-07         0.46373E-11         0.00000E+00
    0.57765E-07         0.65550E-11         0.00000E+00
    0.57765E-07         0.77486E-11         0.00000E+00
    0.57765E-07         0.83936E-11         0.00000E+00
    0.57765E-07         0.86317E-11         0.00000E+00
    0.57766E-07         0.85677E-11         0.00000E+00
    0.57766E-07         0.82741E-11         0.00000E+00
    0.57766E-07         0.77962E-11         0.00000E+00
    0.57766E-07         0.71566E-11         0.00000E+00
    0.57767E-07         0.63578E-11         0.00000E+00
    0.57767E-07         0.53839E-11         0.00000E+00
    0.57767E-07         0.42019E-11         0.00000E+00
    0.57767E-07         0.27656E-11         0.00000E+00
    0.57767E-07         0.10283E-11         0.00000E+00
    0.60002E-07         0.19066E-11         0.00000E+00
    0.60003E-07         0.47624E-11         0.00000E+00
    0.60003E-07         0.65659E-11         0.00000E+00
    0.60004E-07         0.76037E-11         0.00000E+00
    0.60005E-07         0.81063E-11         0.00000E+00
    0.60005E-07         0.82378E-11         0.00000E+00
    0.60006E-07         0.81092E-11         0.00000E+00
    0.60007E-07         0.77920E-11         0.00000E+00
    0.60008E-07         0.73282E-11         0.00000E+00
    0.60009E-07         0.67367E-11         0.00000E+00
    0.60010E-07         0.60158E-11         0.00000E+00
    0.60011E-07         0.51436E-11         0.00000E+00
    0.60011E-07         0.40754E-11         0.00000E+00
    0.60011E-07         0.27406E-11         0.00000E+00
    0.60012E-07         0.10521E-11         0.00000E+00
    0.62237E-07         0.18841E-11         0.00000E+00
    0.62237E-07         0.45031E-11         0.00000E+00
    0.62238E-07         0.59898E-11         0.00000E+00
    0.62240E-07         0.67569E-11         0.00000E+00
    0.62242E-07         0.70685E-11         0.00000E+00
    0.62243E-07         0.70879E-11         0.00000E+00
    0.62245E-07         0.69150E-11         0.00000E+00
    0.62247E-07         0.66096E-11         0.00000E+00
    0.62249E-07         0.62052E-11         0.00000E+00
    0.62250E-07         0.57154E-11         0.00000E+00
    0.62252E-07         0.51362E-11         0.00000E+00
    0.62253E-07         0.44449E-11         0.00000E+00
    0.62254E-07         0.35932E-11         0.00000E+00
    0.62255E-07         0.24978E-11         0.00000E+00
    0.62255E-07         0.10113E-11         0.00000E+00
    0.64467E-07         0.16394E-11         0.00000E+00
    0.64469E-07         0.35832E-11         0.00000E+00
    0.64471E-07         0.45307E-11         0.00000E+00
    0.64474E-07         0.49503E-11         0.00000E+00
    0.64476E-07         0.50712E-11         0.00000E+00
    0.64479E-07         0.50146E-11         0.00000E+00
    0.64482E-07         0.48479E-11         0.00000E+00
    0.64485E-07         0.46098E-11         0.00000E+00
    0.64487E-07         0.43208E-11         0.00000E+00
    0.64490E-07         0.39887E-11         0.00000E+00
    0.64492E-07         0.36099E-11         0.00000E+00
    0.64494E-07         0.31677E-11         0.00000E+00
    0.64496E-07         0.26253E-11         0.00000E+00
    0.64497E-07         0.19100E-11         0.00000E+00
    0.64498E-07         0.87419E-12         0.00000E+00
    0.66694E-07         0.72235E-12         0.00000E+00
    0.66697E-07         0.14558E-11         0.00000E+00
    0.66701E-07         0.17678E-11         0.00000E+00
    0.66705E-07         0.18855E-11         0.00000E+00
    0.66709E-07         0.19027E-11         0.00000E+00
    0.66713E-07         0.18630E-11         0.00000E+00
    0.66717E-07         0.17898E-11         0.00000E+00
    0.66721E-07         0.16958E-11         0.00000E+00
    0.66725E-07         0.15878E-11         0.00000E+00
    0.66728E-07         0.14682E-11         0.00000E+00
    0.66731E-07         0.13356E-11         0.00000E+00
    0.66734E-07         0.11842E-11         0.00000E+00
    0.66736E-07         0.10006E-11         0.00000E+00
    0.66738E-07         0.75390E-12         0.00000E+00
    0.66740E-07         0.38836E-12         0.00000E+00
POINT_DATA        496
VECTORS vDarcyNodal double 
    0.11397E-08        -0.24843E-11         0.00000E+00
    0.11397E-08        -0.46184E-11         0.00000E+00
    0.11396E-08        -0.84357E-11         0.00000E+00
    0.11396E-08        -0.11390E-10         0.00000E+00
    0.11396E-08        -0.13555E-10         0.00000E+00
    0.11395E-08        -0.14997E-10         0.00000E+00
    0.11395E-08        -0.15778E-10         0.00000E+00
    0.11394E-08        -0.15952E-10         0.00000E+00
    0.11394E-08        -0.15566E-10         0.00000E+00
    0.11393E-08        -0.14663E-10         0.00000E+00
    0.11393E-08        -0.13278E-10         0.00000E+00
    0.11392E-08        -0.11441E-10         0.00000E+00
    0.11392E-08        -0.91765E-11         0.00000E+00
    0.11391E-08        -0.65042E-11         0.00000E+00
    0.11391E-08        -0.34387E-11         0.00000E+00
    0.11391E-08        -0.18091E-11         0.00000E+00
    0.22793E-08        -0.24770E-11         0.00000E+00
    0.22793E-08        -0.46046E-11         0.00000E+00
    0.22792E-08        -0.84101E-11         0.00000E+00
    0.22792E-08        -0.11355E-10         0.00000E+00
    0.22791E-08        -0.13512E-10         0.00000E+00
    0.22790E-08        -0.14949E-10         0.00000E+00
    0.22789E-08        -0.15726E-10         0.00000E+00
    0.22788E-08        -0.15899E-10         0.00000E+00
    0.22787E-08        -0.15514E-10         0.00000E+00
    0.22786E-08        -0.14613E-10         0.00000E+00
    0.22785E-08        -0.13233E-10         0.00000E+00
    0.22784E-08        -0.11402E-10         0.00000E+00
    0.22783E-08        -0.91452E-11         0.00000E+00
    0.22782E-08        -0.64820E-11         0.00000E+00
    0.22782E-08        -0.34269E-11         0.00000E+00
    0.22782E-08        -0.18030E-11         0.00000E+00
    0.45585E-08        -0.24553E-11         0.00000E+00
    0.45584E-08        -0.45634E-11         0.00000E+00
    0.45584E-08        -0.83331E-11         0.00000E+00
    0.45582E-08        -0.11248E-10         0.00000E+00
    0.45581E-08        -0.13383E-10         0.00000E+00
    0.45579E-08        -0.14804E-10         0.00000E+00
    0.45576E-08        -0.15571E-10         0.00000E+00
    0.45574E-08        -0.15740E-10         0.00000E+00
    0.45572E-08        -0.15358E-10         0.00000E+00
    0.45570E-08        -0.14465E-10         0.00000E+00
    0.45568E-08        -0.13098E-10         0.00000E+00
    0.45566E-08        -0.11285E-10         0.00000E+00
    0.45565E-08        -0.90512E-11         0.00000E+00
    0.45564E-08        -0.64154E-11         0.00000E+00
    0.45563E-08        -0.33918E-11         0.00000E+00
    0.45563E-08        -0.17845E-11         0.00000E+00
    0.68374E-08        -0.24189E-11         0.00000E+00
    0.68373E-08        -0.44946E-11         0.00000E+00
    0.68372E-08        -0.82047E-11         0.00000E+00
    0.68370E-08        -0.11071E-10         0.00000E+00
    0.68367E-08        -0.13168E-10         0.00000E+00
    0.68364E-08        -0.14562E-10         0.00000E+00
    0.68361E-08        -0.15313E-10         0.00000E+00
    0.68358E-08        -0.15476E-10         0.00000E+00
    0.68355E-08        -0.15097E-10         0.00000E+00
    0.68351E-08        -0.14218E-10         0.00000E+00
    0.68348E-08        -0.12872E-10         0.00000E+00
    0.68346E-08        -0.11090E-10         0.00000E+00
    0.68344E-08        -0.88946E-11         0.00000E+00
    0.68342E-08        -0.63044E-11         0.00000E+00
    0.68341E-08        -0.33332E-11         0.00000E+00
    0.68340E-08        -0.17538E-11         0.00000E+00
    0.91159E-08        -0.23680E-11         0.00000E+00
    0.91158E-08        -0.43980E-11         0.00000E+00
    0.91156E-08        -0.80246E-11         0.00000E+00
    0.91153E-08        -0.10823E-10         0.00000E+00
    0.91150E-08        -0.12867E-10         0.00000E+00
    0.91146E-08        -0.14223E-10         0.00000E+00
    0.91142E-08        -0.14951E-10         0.00000E+00
    0.91137E-08        -0.15106E-10         0.00000E+00
    0.91133E-08        -0.14732E-10         0.00000E+00
    0.91129E-08        -0.13871E-10         0.00000E+00
    0.91125E-08        -0.12557E-10         0.00000E+00
    0.91121E-08        -0.10818E-10         0.00000E+00
    0.91118E-08        -0.86758E-11         0.00000E+00
    0.91116E-08        -0.61494E-11         0.00000E+00
    0.91114E-08        -0.32514E-11         0.00000E+00
    0.91114E-08        -0.17109E-11         0.00000E+00
    0.11394E-07        -0.23022E-11         0.00000E+00
    0.11394E-07        -0.42735E-11         0.00000E+00
    0.11393E-07        -0.77926E-11         0.00000E+00
    0.11393E-07        -0.10503E-10         0.00000E+00
    0.11393E-07        -0.12479E-10         0.00000E+00
    0.11392E-07        -0.13787E-10         0.00000E+00
    0.11392E-07        -0.14486E-10         0.00000E+00
    0.11391E-07        -0.14629E-10         0.00000E+00
    0.11391E-07        -0.14263E-10         0.00000E+00
    0.11390E-07        -0.13426E-10         0.00000E+00
    0.11390E-07        -0.12152E-10         0.00000E+00
    0.11389E-07        -0.10468E-10         0.00000E+00
    0.11389E-07        -0.83948E-11         0.00000E+00
    0.11388E-07        -0.59504E-11         0.00000E+00
    0.11388E-07        -0.31465E-11         0.00000E+00
    0.11388E-07        -0.16558E-11         0.00000E+00
    0.13671E-07        -0.22216E-11         0.00000E+00
    0.13671E-07        -0.41209E-11         0.00000E+00
    0.13671E-07        -0.75082E-11         0.00000E+00
    0.13670E-07        -0.10111E-10         0.00000E+00
    0.13670E-07        -0.12004E-10         0.00000E+00
    0.13669E-07        -0.13253E-10         0.00000E+00
    0.13668E-07        -0.13917E-10         0.00000E+00
    0.13668E-07        -0.14048E-10         0.00000E+00
    0.13667E-07        -0.13690E-10         0.00000E+00
    0.13667E-07        -0.12883E-10         0.00000E+00
    0.13666E-07        -0.11658E-10         0.00000E+00
    0.13665E-07        -0.10041E-10         0.00000E+00
    0.13665E-07        -0.80522E-11         0.00000E+00
    0.13665E-07        -0.57079E-11         0.00000E+00
    0.13664E-07        -0.30186E-11         0.00000E+00
    0.13664E-07        -0.15888E-11         0.00000E+00
    0.15947E-07        -0.21259E-11         0.00000E+00
    0.15947E-07        -0.39399E-11         0.00000E+00
    0.15947E-07        -0.71710E-11         0.00000E+00
    0.15946E-07        -0.96471E-11         0.00000E+00
    0.15946E-07        -0.11442E-10         0.00000E+00
    0.15945E-07        -0.12621E-10         0.00000E+00
    0.15944E-07        -0.13244E-10         0.00000E+00
    0.15944E-07        -0.13360E-10         0.00000E+00
    0.15943E-07        -0.13014E-10         0.00000E+00
    0.15942E-07        -0.12242E-10         0.00000E+00
    0.15941E-07        -0.11075E-10         0.00000E+00
    0.15941E-07        -0.95375E-11         0.00000E+00
    0.15940E-07        -0.76486E-11         0.00000E+00
    0.15940E-07        -0.54223E-11         0.00000E+00
    0.15940E-07        -0.28681E-11         0.00000E+00
    0.15940E-07        -0.15100E-11         0.00000E+00
    0.18223E-07        -0.20149E-11         0.00000E+00
    0.18223E-07        -0.37302E-11         0.00000E+00
    0.18222E-07        -0.67808E-11         0.00000E+00
    0.18222E-07        -0.91103E-11         0.00000E+00
    0.18221E-07        -0.10792E-10         0.00000E+00
    0.18220E-07        -0.11892E-10         0.00000E+00
    0.18219E-07        -0.12467E-10         0.00000E+00
    0.18219E-07        -0.12567E-10         0.00000E+00
    0.18218E-07        -0.12234E-10         0.00000E+00
    0.18217E-07        -0.11504E-10         0.00000E+00
    0.18216E-07        -0.10404E-10         0.00000E+00
    0.18215E-07        -0.89590E-11         0.00000E+00
    0.18215E-07        -0.71848E-11         0.00000E+00
    0.18214E-07        -0.50944E-11         0.00000E+00
    0.18214E-07        -0.26954E-11         0.00000E+00
    0.18214E-07        -0.14195E-11         0.00000E+00
    0.20497E-07        -0.18886E-11         0.00000E+00
    0.20497E-07        -0.34916E-11         0.00000E+00
    0.20497E-07        -0.63371E-11         0.00000E+00
    0.20496E-07        -0.85007E-11         0.00000E+00
    0.20495E-07        -0.10055E-10         0.00000E+00
    0.20494E-07        -0.11066E-10         0.00000E+00
    0.20493E-07        -0.11588E-10         0.00000E+00
    0.20492E-07        -0.11671E-10         0.00000E+00
    0.20491E-07        -0.11353E-10         0.00000E+00
    0.20490E-07        -0.10670E-10         0.00000E+00
    0.20490E-07        -0.96475E-11         0.00000E+00
    0.20489E-07        -0.83063E-11         0.00000E+00
    0.20488E-07        -0.66620E-11         0.00000E+00
    0.20488E-07        -0.47249E-11         0.00000E+00
    0.20487E-07        -0.25009E-11         0.00000E+00
    0.20487E-07        -0.13178E-11         0.00000E+00
    0.22770E-07        -0.17468E-11         0.00000E+00
    0.22770E-07        -0.32239E-11         0.00000E+00
    0.22770E-07        -0.58399E-11         0.00000E+00
    0.22769E-07        -0.78182E-11         0.00000E+00
    0.22768E-07        -0.92314E-11         0.00000E+00
    0.22767E-07        -0.10143E-10         0.00000E+00
    0.22766E-07        -0.10608E-10         0.00000E+00
    0.22765E-07        -0.10671E-10         0.00000E+00
    0.22764E-07        -0.10373E-10         0.00000E+00
    0.22763E-07        -0.97426E-11         0.00000E+00
    0.22762E-07        -0.88061E-11         0.00000E+00
    0.22761E-07        -0.75814E-11         0.00000E+00
    0.22760E-07        -0.60817E-11         0.00000E+00
    0.22760E-07        -0.43150E-11         0.00000E+00
    0.22759E-07        -0.22854E-11         0.00000E+00
    0.22759E-07        -0.12050E-11         0.00000E+00
    0.25042E-07        -0.15892E-11         0.00000E+00
    0.25042E-07        -0.29269E-11         0.00000E+00
    0.25041E-07        -0.52891E-11         0.00000E+00
    0.25041E-07        -0.70633E-11         0.00000E+00
    0.25040E-07        -0.83212E-11         0.00000E+00
    0.25039E-07        -0.91249E-11         0.00000E+00
    0.25037E-07        -0.95270E-11         0.00000E+00
    0.25036E-07        -0.95715E-11         0.00000E+00
    0.25035E-07        -0.92943E-11         0.00000E+00
    0.25034E-07        -0.87241E-11         0.00000E+00
    0.25033E-07        -0.78829E-11         0.00000E+00
    0.25032E-07        -0.67867E-11         0.00000E+00
    0.25031E-07        -0.54459E-11         0.00000E+00
    0.25031E-07        -0.38663E-11         0.00000E+00
    0.25030E-07        -0.20495E-11         0.00000E+00
    0.25030E-07        -0.10817E-11         0.00000E+00
    0.27312E-07        -0.14160E-11         0.00000E+00
    0.27312E-07        -0.26008E-11         0.00000E+00
    0.27312E-07        -0.46851E-11         0.00000E+00
    0.27311E-07        -0.62369E-11         0.00000E+00
    0.27310E-07        -0.73265E-11         0.00000E+00
    0.27309E-07        -0.80141E-11         0.00000E+00
    0.27307E-07        -0.83498E-11         0.00000E+00
    0.27306E-07        -0.83749E-11         0.00000E+00
    0.27305E-07        -0.81225E-11         0.00000E+00
    0.27304E-07        -0.76185E-11         0.00000E+00
    0.27303E-07        -0.68817E-11         0.00000E+00
    0.27302E-07        -0.59255E-11         0.00000E+00
    0.27301E-07        -0.47574E-11         0.00000E+00
    0.27300E-07        -0.33808E-11         0.00000E+00
    0.27300E-07        -0.17944E-11         0.00000E+00
    0.27299E-07        -0.94847E-12         0.00000E+00
    0.29581E-07        -0.12271E-11         0.00000E+00
    0.29581E-07        -0.22458E-11         0.00000E+00
    0.29580E-07        -0.40288E-11         0.00000E+00
    0.29579E-07        -0.53407E-11         0.00000E+00
    0.29578E-07        -0.62499E-11         0.00000E+00
    0.29577E-07        -0.68140E-11         0.00000E+00
    0.29576E-07        -0.70801E-11         0.00000E+00
    0.29574E-07        -0.70864E-11         0.00000E+00
    0.29573E-07        -0.68625E-11         0.00000E+00
    0.29572E-07        -0.64309E-11         0.00000E+00
    0.29571E-07        -0.58074E-11         0.00000E+00
    0.29570E-07        -0.50021E-11         0.00000E+00
    0.29569E-07        -0.40198E-11         0.00000E+00
    0.29568E-07        -0.28608E-11         0.00000E+00
    0.29568E-07        -0.15214E-11         0.00000E+00
    0.29567E-07        -0.80593E-12         0.00000E+00
    0.31848E-07        -0.10228E-11         0.00000E+00
    0.31848E-07        -0.18625E-11         0.00000E+00
    0.31847E-07        -0.33218E-11         0.00000E+00
    0.31846E-07        -0.43775E-11         0.00000E+00
    0.31845E-07        -0.50955E-11         0.00000E+00
    0.31844E-07        -0.55300E-11         0.00000E+00
    0.31843E-07        -0.57244E-11         0.00000E+00
    0.31841E-07        -0.57130E-11         0.00000E+00
    0.31840E-07        -0.55215E-11         0.00000E+00
    0.31838E-07        -0.51686E-11         0.00000E+00
    0.31837E-07        -0.46667E-11         0.00000E+00
    0.31836E-07        -0.40224E-11         0.00000E+00
    0.31835E-07        -0.32376E-11         0.00000E+00
    0.31834E-07        -0.23097E-11         0.00000E+00
    0.31834E-07        -0.12322E-11         0.00000E+00
    0.31834E-07        -0.65497E-12         0.00000E+00
    0.34113E-07        -0.80348E-12         0.00000E+00
    0.34113E-07        -0.14519E-11         0.00000E+00
    0.34113E-07        -0.25665E-11         0.00000E+00
    0.34112E-07        -0.33514E-11         0.00000E+00
    0.34110E-07        -0.38691E-11         0.00000E+00
    0.34109E-07        -0.41695E-11         0.00000E+00
    0.34107E-07        -0.42914E-11         0.00000E+00
    0.34106E-07        -0.42642E-11         0.00000E+00
    0.34104E-07        -0.41092E-11         0.00000E+00
    0.34103E-07        -0.38411E-11         0.00000E+00
    0.34102E-07        -0.34682E-11         0.00000E+00
    0.34101E-07        -0.29939E-11         0.00000E+00
    0.34100E-07        -0.24169E-11         0.00000E+00
    0.34099E-07        -0.17316E-11         0.00000E+00
    0.34098E-07        -0.92883E-12         0.00000E+00
    0.34098E-07        -0.49666E-12         0.00000E+00
    0.36377E-07        -0.56982E-12         0.00000E+00
    0.36377E-07        -0.10157E-11         0.00000E+00
    0.36376E-07        -0.17667E-11         0.00000E+00
    0.36375E-07        -0.22686E-11         0.00000E+00
    0.36374E-07        -0.25792E-11         0.00000E+00
    0.36372E-07        -0.27429E-11         0.00000E+00
    0.36371E-07        -0.27927E-11         0.00000E+00
    0.36369E-07        -0.27526E-11         0.00000E+00
    0.36367E-07        -0.26387E-11         0.00000E+00
    0.36366E-07        -0.24608E-11         0.00000E+00
    0.36365E-07        -0.22233E-11         0.00000E+00
    0.36363E-07        -0.19262E-11         0.00000E+00
    0.36362E-07        -0.15651E-11         0.00000E+00
    0.36362E-07        -0.11317E-11         0.00000E+00
    0.36361E-07        -0.61397E-12         0.00000E+00
    0.36361E-07        -0.33231E-12         0.00000E+00
    0.38638E-07        -0.32294E-12         0.00000E+00
    0.38638E-07        -0.55631E-12         0.00000E+00
    0.38637E-07        -0.92759E-12         0.00000E+00
    0.38636E-07        -0.11374E-11         0.00000E+00
    0.38635E-07        -0.12371E-11         0.00000E+00
    0.38633E-07        -0.12641E-11         0.00000E+00
    0.38632E-07        -0.12444E-11         0.00000E+00
    0.38630E-07        -0.11953E-11         0.00000E+00
    0.38629E-07        -0.11269E-11         0.00000E+00
    0.38627E-07        -0.10440E-11         0.00000E+00
    0.38626E-07        -0.94684E-12         0.00000E+00
    0.38625E-07        -0.83188E-12         0.00000E+00
    0.38623E-07        -0.69199E-12         0.00000E+00
    0.38623E-07        -0.51644E-12         0.00000E+00
    0.38622E-07        -0.29086E-12         0.00000E+00
    0.38622E-07        -0.16353E-12         0.00000E+00
    0.40897E-07        -0.64433E-13         0.00000E+00
    0.40897E-07        -0.77250E-13         0.00000E+00
    0.40896E-07        -0.56747E-13         0.00000E+00
    0.40895E-07         0.30562E-13         0.00000E+00
    0.40894E-07         0.14176E-12         0.00000E+00
    0.40892E-07         0.24830E-12         0.00000E+00
    0.40891E-07         0.33270E-12         0.00000E+00
    0.40889E-07         0.38572E-12         0.00000E+00
    0.40888E-07         0.40398E-12         0.00000E+00
    0.40886E-07         0.38827E-12         0.00000E+00
    0.40885E-07         0.34254E-12         0.00000E+00
    0.40884E-07         0.27344E-12         0.00000E+00
    0.40883E-07         0.19041E-12         0.00000E+00
    0.40882E-07         0.10603E-12         0.00000E+00
    0.40881E-07         0.36504E-13         0.00000E+00
    0.40881E-07         0.77220E-14         0.00000E+00
    0.43154E-07         0.20345E-12         0.00000E+00
    0.43154E-07         0.41668E-12         0.00000E+00
    0.43153E-07         0.83574E-12         0.00000E+00
    0.43152E-07         0.12198E-11         0.00000E+00
    0.43151E-07         0.15369E-11         0.00000E+00
    0.43150E-07         0.17697E-11         0.00000E+00
    0.43148E-07         0.19113E-11         0.00000E+00
    0.43146E-07         0.19619E-11         0.00000E+00
    0.43145E-07         0.19257E-11         0.00000E+00
    0.43143E-07         0.18094E-11         0.00000E+00
    0.43142E-07         0.16210E-11         0.00000E+00
    0.43141E-07         0.13699E-11         0.00000E+00
    0.43140E-07         0.10670E-11         0.00000E+00
    0.43139E-07         0.72568E-12         0.00000E+00
    0.43139E-07         0.36321E-12         0.00000E+00
    0.43139E-07         0.17909E-12         0.00000E+00
    0.45409E-07         0.47760E-12         0.00000E+00
    0.45409E-07         0.91894E-12         0.00000E+00
    0.45408E-07         0.17363E-11         0.00000E+00
    0.45407E-07         0.24097E-11         0.00000E+00
    0.45406E-07         0.29214E-11         0.00000E+00
    0.45404E-07         0.32683E-11         0.00000E+00
    0.45403E-07         0.34563E-11         0.00000E+00
    0.45401E-07         0.34967E-11         0.00000E+00
    0.45400E-07         0.34022E-11         0.00000E+00
    0.45399E-07         0.31856E-11         0.00000E+00
    0.45397E-07         0.28589E-11         0.00000E+00
    0.45396E-07         0.24329E-11         0.00000E+00
    0.45395E-07         0.19189E-11         0.00000E+00
    0.45395E-07         0.13302E-11         0.00000E+00
    0.45394E-07         0.68328E-12         0.00000E+00
    0.45394E-07         0.34772E-12         0.00000E+00
    0.47661E-07         0.75384E-12         0.00000E+00
    0.47661E-07         0.14207E-11         0.00000E+00
    0.47661E-07         0.26267E-11         0.00000E+00
    0.47659E-07         0.35730E-11         0.00000E+00
    0.47658E-07         0.42602E-11         0.00000E+00
    0.47657E-07         0.47029E-11         0.00000E+00
    0.47656E-07         0.49229E-11         0.00000E+00
    0.47654E-07         0.49439E-11         0.00000E+00
    0.47653E-07         0.47884E-11         0.00000E+00
    0.47652E-07         0.44751E-11         0.00000E+00
    0.47651E-07         0.40190E-11         0.00000E+00
    0.47650E-07         0.34317E-11         0.00000E+00
    0.47649E-07         0.27233E-11         0.00000E+00
    0.47648E-07         0.19043E-11         0.00000E+00
    0.47648E-07         0.98947E-12         0.00000E+00
    0.47648E-07         0.51021E-12         0.00000E+00
    0.49911E-07         0.10265E-11         0.00000E+00
    0.49911E-07         0.19103E-11         0.00000E+00
    0.49910E-07         0.34830E-11         0.00000E+00
    0.49910E-07         0.46740E-11         0.00000E+00
    0.49908E-07         0.55078E-11         0.00000E+00
    0.49907E-07         0.60211E-11         0.00000E+00
    0.49906E-07         0.62544E-11         0.00000E+00
    0.49905E-07         0.62460E-11         0.00000E+00
    0.49904E-07         0.60283E-11         0.00000E+00
    0.49903E-07         0.56259E-11         0.00000E+00
    0.49902E-07         0.50560E-11         0.00000E+00
    0.49901E-07         0.43291E-11         0.00000E+00
    0.49900E-07         0.34517E-11         0.00000E+00
    0.49900E-07         0.24298E-11         0.00000E+00
    0.49899E-07         0.12730E-11         0.00000E+00
    0.49899E-07         0.66246E-12         0.00000E+00
    0.52159E-07         0.12881E-11         0.00000E+00
    0.52158E-07         0.23719E-11         0.00000E+00
    0.52158E-07         0.42732E-11         0.00000E+00
    0.52157E-07         0.56660E-11         0.00000E+00
    0.52156E-07         0.66055E-11         0.00000E+00
    0.52155E-07         0.71560E-11         0.00000E+00
    0.52154E-07         0.73800E-11         0.00000E+00
    0.52154E-07         0.73317E-11         0.00000E+00
    0.52153E-07         0.70535E-11         0.00000E+00
    0.52152E-07         0.65752E-11         0.00000E+00
    0.52151E-07         0.59145E-11         0.00000E+00
    0.52151E-07         0.50792E-11         0.00000E+00
    0.52150E-07         0.40697E-11         0.00000E+00
    0.52150E-07         0.28840E-11         0.00000E+00
    0.52149E-07         0.15232E-11         0.00000E+00
    0.52149E-07         0.79960E-12         0.00000E+00
    0.54403E-07         0.15281E-11         0.00000E+00
    0.54403E-07         0.27840E-11         0.00000E+00
    0.54403E-07         0.49542E-11         0.00000E+00
    0.54402E-07         0.64867E-11         0.00000E+00
    0.54401E-07         0.74771E-11         0.00000E+00
    0.54401E-07         0.80233E-11         0.00000E+00
    0.54400E-07         0.82125E-11         0.00000E+00
    0.54400E-07         0.81149E-11         0.00000E+00
    0.54399E-07         0.77821E-11         0.00000E+00
    0.54399E-07         0.72476E-11         0.00000E+00
    0.54399E-07         0.65282E-11         0.00000E+00
    0.54398E-07         0.56268E-11         0.00000E+00
    0.54398E-07         0.45353E-11         0.00000E+00
    0.54398E-07         0.32395E-11         0.00000E+00
    0.54398E-07         0.17272E-11         0.00000E+00
    0.54397E-07         0.91572E-12         0.00000E+00
    0.56645E-07         0.17322E-11         0.00000E+00
    0.56645E-07         0.31168E-11         0.00000E+00
    0.56645E-07         0.54667E-11         0.00000E+00
    0.56644E-07         0.70530E-11         0.00000E+00
    0.56644E-07         0.80241E-11         0.00000E+00
    0.56644E-07         0.85174E-11         0.00000E+00
    0.56644E-07         0.86456E-11         0.00000E+00
    0.56644E-07         0.84931E-11         0.00000E+00
    0.56644E-07         0.81179E-11         0.00000E+00
    0.56644E-07         0.75550E-11         0.00000E+00
    0.56644E-07         0.68188E-11         0.00000E+00
    0.56644E-07         0.59057E-11         0.00000E+00
    0.56644E-07         0.47966E-11         0.00000E+00
    0.56644E-07         0.34616E-11         0.00000E+00
    0.56644E-07         0.18684E-11         0.00000E+00
    0.56644E-07         0.10035E-11         0.00000E+00
    0.58884E-07         0.18790E-11         0.00000E+00
    0.58884E-07         0.33261E-11         0.00000E+00
    0.58884E-07         0.57256E-11         0.00000E+00
    0.58884E-07         0.72506E-11         0.00000E+00
    0.58885E-07         0.81180E-11         0.00000E+00
    0.58885E-07         0.85078E-11         0.00000E+00
    0.58886E-07         0.85537E-11         0.00000E+00
    0.58886E-07         0.83487E-11         0.00000E+00
    0.58887E-07         0.79523E-11         0.00000E+00
    0.58888E-07         0.73977E-11         0.00000E+00
    0.58888E-07         0.66956E-11         0.00000E+00
    0.58889E-07         0.58361E-11         0.00000E+00
    0.58889E-07         0.47892E-11         0.00000E+00
    0.58889E-07         0.35058E-11         0.00000E+00
    0.58889E-07         0.19255E-11         0.00000E+00
    0.58889E-07         0.10532E-11         0.00000E+00
    0.61120E-07         0.19341E-11         0.00000E+00
    0.61120E-07         0.33428E-11         0.00000E+00
    0.61120E-07         0.56026E-11         0.00000E+00
    0.61121E-07         0.69190E-11         0.00000E+00
    0.61122E-07         0.75920E-11         0.00000E+00
    0.61124E-07         0.78363E-11         0.00000E+00
    0.61125E-07         0.77933E-11         0.00000E+00
    0.61126E-07         0.75525E-11         0.00000E+00
    0.61128E-07         0.71679E-11         0.00000E+00
    0.61129E-07         0.66672E-11         0.00000E+00
    0.61130E-07         0.60570E-11         0.00000E+00
    0.61131E-07         0.53233E-11         0.00000E+00
    0.61132E-07         0.44298E-11         0.00000E+00
    0.61133E-07         0.33102E-11         0.00000E+00
    0.61133E-07         0.18673E-11         0.00000E+00
    0.61133E-07         0.10510E-11         0.00000E+00
    0.63352E-07         0.18341E-11         0.00000E+00
    0.63352E-07         0.30444E-11         0.00000E+00
    0.63354E-07         0.48902E-11         0.00000E+00
    0.63356E-07         0.58277E-11         0.00000E+00
    0.63358E-07         0.62333E-11         0.00000E+00
    0.63360E-07         0.63201E-11         0.00000E+00
    0.63362E-07         0.62097E-11         0.00000E+00
    0.63365E-07         0.59721E-11         0.00000E+00
    0.63367E-07         0.56469E-11         0.00000E+00
    0.63369E-07         0.52534E-11         0.00000E+00
    0.63371E-07         0.47947E-11         0.00000E+00
    0.63373E-07         0.42578E-11         0.00000E+00
    0.63374E-07         0.36083E-11         0.00000E+00
    0.63375E-07         0.27808E-11         0.00000E+00
    0.63376E-07         0.16419E-11         0.00000E+00
    0.63376E-07         0.97166E-12         0.00000E+00
    0.65580E-07         0.14447E-11         0.00000E+00
    0.65582E-07         0.21782E-11         0.00000E+00
    0.65584E-07         0.32237E-11         0.00000E+00
    0.65588E-07         0.36534E-11         0.00000E+00
    0.65591E-07         0.37882E-11         0.00000E+00
    0.65595E-07         0.37657E-11         0.00000E+00
    0.65598E-07         0.36528E-11         0.00000E+00
    0.65601E-07         0.34856E-11         0.00000E+00
    0.65604E-07         0.32837E-11         0.00000E+00
    0.65607E-07         0.30561E-11         0.00000E+00
    0.65610E-07         0.28039E-11         0.00000E+00
    0.65613E-07         0.25198E-11         0.00000E+00
    0.65615E-07         0.21848E-11         0.00000E+00
    0.65617E-07         0.17545E-11         0.00000E+00
    0.65618E-07         0.11423E-11         0.00000E+00
    0.65619E-07         0.77672E-12         0.00000E+00
    0.66693E-07         0.00000E+00         0.00000E+00
    0.66695E-07         0.00000E+00         0.00000E+00
    0.66699E-07        -0.13275E-20         0.00000E+00
    0.66703E-07         0.00000E+00         0.00000E+00
    0.66707E-07         0.13275E-20         0.00000E+00
    0.66711E-07         0.00000E+00         0.00000E+00
    0.66715E-07         0.00000E+00         0.00000E+00
    0.66719E-07        -0.13275E-20         0.00000E+00
    0.66723E-07         0.00000E+00         0.00000E+00
    0.66726E-07         0.00000E+00         0.00000E+00
    0.66729E-07         0.13276E-20         0.00000E+00
    0.66732E-07         0.00000E+00         0.00000E+00
    0.66735E-07        -0.13276E-20         0.00000E+00
    0.66737E-07        -0.13276E-20         0.00000E+00
    0.66739E-07         0.00000E+00         0.00000E+00
    0.66740E-07         0.00000E+00         0.00000E+00
CELL_DATA        450
TENSORS stressef double 
   -0.75043E+07        -0.40395E+02         0.00000E+00
   -0.40395E+02        -0.32477E+08         0.00000E+00
    0.00000E+00         0.00000E+00        -0.79962E+07
 
   -0.75579E+07        -0.92302E+02         0.00000E+00
   -0.92302E+02        -0.32477E+08         0.00000E+00
    0.00000E+00         0.00000E+00        -0.80069E+07
 
   -0.76085E+07        -0.86986E+02         0.00000E+00
   -0.86986E+02        -0.32477E+08         0.00000E+00
    0.00000E+00         0.00000E+00        -0.80171E+07
 
   -0.76561E+07        -0.55518E+01         0.00000E+00
   -0.55518E+01        -0.32477E+08         0.00000E+00
    0.00000E+00         0.00000E+00        -0.80266E+07
 
   -0.77011E+07         0.16702E+03         0.00000E+00
    0.16702E+03        -0.32477E+08         0.00000E+00
    0.00000E+00         0.00000E+00        -0.80356E+07
 
   -0.77437E+07         0.44205E+03         0.00000E+00
    0.44205E+03        -0.32476E+08         0.00000E+00
    0.00000E+00         0.00000E+00        -0.80440E+07
 
   -0.77844E+07         0.82744E+03         0.00000E+00
    0.82744E+03        -0.32475E+08         0.00000E+00
    0.00000E+00         0.00000E+00        -0.80519E+07
 
   -0.78235E+07         0.13280E+04         0.00000E+00
    0.13280E+04        -0.32473E+08         0.00000E+00
    0.00000E+00         0.00000E+00        -0.80593E+07
 
   -0.78614E+07         0.19457E+04         0.00000E+00
    0.19457E+04        -0.32470E+08         0.00000E+00
    0.00000E+00         0.00000E+00        -0.80662E+07
 
   -0.78983E+07         0.26804E+04         0.00000E+00
    0.26804E+04        -0.32465E+08         0.00000E+00
    0.00000E+00         0.00000E+00        -0.80727E+07
 
   -0.79348E+07         0.35297E+04         0.00000E+00
    0.35297E+04        -0.32459E+08         0.00000E+00
    0.00000E+00         0.00000E+00        -0.80788E+07
 
   -0.79711E+07         0.44899E+04         0.00000E+00
    0.44899E+04        -0.32451E+08         0.00000E+00
    0.00000E+00         0.00000E+00        -0.80844E+07
 
   -0.80075E+07         0.55562E+04         0.00000E+00
    0.55562E+04        -0.32441E+08         0.00000E+00
    0.00000E+00         0.00000E+00        -0.80897E+07
 
   -0.80446E+07         0.67232E+04         0.00000E+00
    0.67232E+04        -0.32429E+08         0.00000E+00
    0.00000E+00         0.00000E+00        -0.80947E+07
 
   -0.80824E+07         0.79858E+04         0.00000E+00
    0.79858E+04        -0.32414E+08         0.00000E+00
    0.00000E+00         0.00000E+00        -0.80993E+07
 
   -0.75084E+07        -0.12767E+03         0.00000E+00
   -0.12767E+03        -0.32481E+08         0.00000E+00
    0.00000E+00         0.00000E+00        -0.79978E+07
 
   -0.75620E+07        -0.29487E+03         0.00000E+00
   -0.29487E+03        -0.32481E+08         0.00000E+00
    0.00000E+00         0.00000E+00        -0.80086E+07
 
   -0.76124E+07        -0.28838E+03         0.00000E+00
   -0.28838E+03        -0.32481E+08         0.00000E+00
    0.00000E+00         0.00000E+00        -0.80187E+07
 
   -0.76598E+07        -0.51581E+02         0.00000E+00
   -0.51581E+02        -0.32481E+08         0.00000E+00
    0.00000E+00         0.00000E+00        -0.80282E+07
 
   -0.77046E+07         0.46046E+03         0.00000E+00
    0.46046E+03        -0.32481E+08         0.00000E+00
    0.00000E+00         0.00000E+00        -0.80372E+07
 
   -0.77471E+07         0.12816E+04         0.00000E+00
    0.12816E+04        -0.32481E+08         0.00000E+00
    0.00000E+00         0.00000E+00        -0.80456E+07
 
   -0.77876E+07         0.24353E+04         0.00000E+00
    0.24353E+04        -0.32480E+08         0.00000E+00
    0.00000E+00         0.00000E+00        -0.80534E+07
 
   -0.78264E+07         0.39357E+04         0.00000E+00
    0.39357E+04        -0.32478E+08         0.00000E+00
    0.00000E+00         0.00000E+00        -0.80608E+07
 
   -0.78640E+07         0.57888E+04         0.00000E+00
    0.57888E+04        -0.32474E+08         0.00000E+00
    0.00000E+00         0.00000E+00        -0.80677E+07
 
   -0.79007E+07         0.79935E+04         0.00000E+00
    0.79935E+04        -0.32470E+08         0.00000E+00
    0.00000E+00         0.00000E+00        -0.80741E+07
 
   -0.79369E+07         0.10543E+05         0.00000E+00
    0.10543E+05        -0.32464E+08         0.00000E+00
    0.00000E+00         0.00000E+00        -0.80802E+07
 
   -0.79730E+07         0.13425E+05         0.00000E+00
    0.13425E+05        -0.32456E+08         0.00000E+00
    0.00000E+00         0.00000E+00        -0.80858E+07
 
   -0.80093E+07         0.16626E+05         0.00000E+00
    0.16626E+05        -0.32446E+08         0.00000E+00
    0.00000E+00         0.00000E+00        -0.80911E+07
 
   -0.80461E+07         0.20129E+05         0.00000E+00
    0.20129E+05        -0.32434E+08         0.00000E+00
    0.00000E+00         0.00000E+00        -0.80960E+07
 
   -0.80838E+07         0.23918E+05         0.00000E+00
    0.23918E+05        -0.32419E+08         0.00000E+00
    0.00000E+00         0.00000E+00        -0.81006E+07
 
   -0.75168E+07        -0.23442E+03         0.00000E+00
   -0.23442E+03        -0.32489E+08         0.00000E+00
    0.00000E+00         0.00000E+00        -0.80011E+07
 
   -0.75701E+07        -0.55135E+03         0.00000E+00
   -0.55135E+03        -0.32489E+08         0.00000E+00
    0.00000E+00         0.00000E+00        -0.80118E+07
 
   -0.76202E+07        -0.57205E+03         0.00000E+00
   -0.57205E+03        -0.32489E+08         0.00000E+00
    0.00000E+00         0.00000E+00        -0.80219E+07
 
   -0.76673E+07        -0.20235E+03         0.00000E+00
   -0.20235E+03        -0.32490E+08         0.00000E+00
    0.00000E+00         0.00000E+00        -0.80314E+07
 
   -0.77117E+07         0.63222E+03         0.00000E+00
    0.63222E+03        -0.32490E+08         0.00000E+00
    0.00000E+00         0.00000E+00        -0.80403E+07
 
   -0.77538E+07         0.19875E+04         0.00000E+00
    0.19875E+04        -0.32489E+08         0.00000E+00
    0.00000E+00         0.00000E+00        -0.80486E+07
 
   -0.77938E+07         0.39021E+04         0.00000E+00
    0.39021E+04        -0.32488E+08         0.00000E+00
    0.00000E+00         0.00000E+00        -0.80564E+07
 
   -0.78322E+07         0.63988E+04         0.00000E+00
    0.63988E+04        -0.32487E+08         0.00000E+00
    0.00000E+00         0.00000E+00        -0.80637E+07
 
   -0.78693E+07         0.94870E+04         0.00000E+00
    0.94870E+04        -0.32484E+08         0.00000E+00
    0.00000E+00         0.00000E+00        -0.80706E+07
 
   -0.79055E+07         0.13164E+05         0.00000E+00
    0.13164E+05        -0.32479E+08         0.00000E+00
    0.00000E+00         0.00000E+00        -0.80770E+07
 
   -0.79413E+07         0.17417E+05         0.00000E+00
    0.17417E+05        -0.32473E+08         0.00000E+00
    0.00000E+00         0.00000E+00        -0.80829E+07
 
   -0.79770E+07         0.22227E+05         0.00000E+00
    0.22227E+05        -0.32466E+08         0.00000E+00
    0.00000E+00         0.00000E+00        -0.80885E+07
 
   -0.80128E+07         0.27568E+05         0.00000E+00
    0.27568E+05        -0.32456E+08         0.00000E+00
    0.00000E+00         0.00000E+00        -0.80938E+07
 
   -0.80492E+07         0.33412E+05         0.00000E+00
    0.33412E+05        -0.32444E+08         0.00000E+00
    0.00000E+00         0.00000E+00        -0.80986E+07
 
   -0.80865E+07         0.39731E+05         0.00000E+00
    0.39731E+05        -0.32430E+08         0.00000E+00
    0.00000E+00         0.00000E+00        -0.81032E+07
 
   -0.75293E+07        -0.37372E+03         0.00000E+00
   -0.37372E+03        -0.32501E+08         0.00000E+00
    0.00000E+00         0.00000E+00        -0.80060E+07
 
   -0.75824E+07        -0.89779E+03         0.00000E+00
   -0.89779E+03        -0.32501E+08         0.00000E+00
    0.00000E+00         0.00000E+00        -0.80167E+07
 
   -0.76321E+07        -0.99285E+03         0.00000E+00
   -0.99285E+03        -0.32501E+08         0.00000E+00
    0.00000E+00         0.00000E+00        -0.80267E+07
 
   -0.76786E+07        -0.52756E+03         0.00000E+00
   -0.52756E+03        -0.32502E+08         0.00000E+00
    0.00000E+00         0.00000E+00        -0.80361E+07
 
   -0.77224E+07         0.60147E+03         0.00000E+00
    0.60147E+03        -0.32502E+08         0.00000E+00
    0.00000E+00         0.00000E+00        -0.80449E+07
 
   -0.77638E+07         0.24713E+04         0.00000E+00
    0.24713E+04        -0.32502E+08         0.00000E+00
    0.00000E+00         0.00000E+00        -0.80532E+07
 
   -0.78031E+07         0.51344E+04         0.00000E+00
    0.51344E+04        -0.32502E+08         0.00000E+00
    0.00000E+00         0.00000E+00        -0.80609E+07
 
   -0.78408E+07         0.86217E+04         0.00000E+00
    0.86217E+04        -0.32500E+08         0.00000E+00
    0.00000E+00         0.00000E+00        -0.80682E+07
 
   -0.78772E+07         0.12944E+05         0.00000E+00
    0.12944E+05        -0.32497E+08         0.00000E+00
    0.00000E+00         0.00000E+00        -0.80749E+07
 
   -0.79128E+07         0.18097E+05         0.00000E+00
    0.18097E+05        -0.32493E+08         0.00000E+00
    0.00000E+00         0.00000E+00        -0.80812E+07
 
   -0.79478E+07         0.24062E+05         0.00000E+00
    0.24062E+05        -0.32488E+08         0.00000E+00
    0.00000E+00         0.00000E+00        -0.80871E+07
 
   -0.79828E+07         0.30807E+05         0.00000E+00
    0.30807E+05        -0.32480E+08         0.00000E+00
    0.00000E+00         0.00000E+00        -0.80926E+07
 
   -0.80181E+07         0.38298E+05         0.00000E+00
    0.38298E+05        -0.32471E+08         0.00000E+00
    0.00000E+00         0.00000E+00        -0.80978E+07
 
   -0.80539E+07         0.46492E+05         0.00000E+00
    0.46492E+05        -0.32459E+08         0.00000E+00
    0.00000E+00         0.00000E+00        -0.81026E+07
 
   -0.80906E+07         0.55348E+05         0.00000E+00
    0.55348E+05        -0.32445E+08         0.00000E+00
    0.00000E+00         0.00000E+00        -0.81071E+07
 
   -0.75461E+07        -0.55869E+03         0.00000E+00
   -0.55869E+03        -0.32517E+08         0.00000E+00
    0.00000E+00         0.00000E+00        -0.80126E+07
 
   -0.75988E+07        -0.13703E+04         0.00000E+00
   -0.13703E+04        -0.32517E+08         0.00000E+00
    0.00000E+00         0.00000E+00        -0.80232E+07
 
   -0.76479E+07        -0.16056E+04         0.00000E+00
   -0.16056E+04        -0.32518E+08         0.00000E+00
    0.00000E+00         0.00000E+00        -0.80331E+07
 
   -0.76938E+07        -0.10966E+04         0.00000E+00
   -0.10966E+04        -0.32518E+08         0.00000E+00
    0.00000E+00         0.00000E+00        -0.80424E+07
 
   -0.77367E+07         0.28797E+03         0.00000E+00
    0.28797E+03        -0.32519E+08         0.00000E+00
    0.00000E+00         0.00000E+00        -0.80512E+07
 
   -0.77772E+07         0.26451E+04         0.00000E+00
    0.26451E+04        -0.32519E+08         0.00000E+00
    0.00000E+00         0.00000E+00        -0.80593E+07
 
   -0.78156E+07         0.60401E+04         0.00000E+00
    0.60401E+04        -0.32519E+08         0.00000E+00
    0.00000E+00         0.00000E+00        -0.80669E+07
 
   -0.78523E+07         0.10510E+05         0.00000E+00
    0.10510E+05        -0.32518E+08         0.00000E+00
    0.00000E+00         0.00000E+00        -0.80740E+07
 
   -0.78878E+07         0.16067E+05         0.00000E+00
    0.16067E+05        -0.32516E+08         0.00000E+00
    0.00000E+00         0.00000E+00        -0.80807E+07
 
   -0.79224E+07         0.22701E+05         0.00000E+00
    0.22701E+05        -0.32512E+08         0.00000E+00
    0.00000E+00         0.00000E+00        -0.80869E+07
 
   -0.79566E+07         0.30386E+05         0.00000E+00
    0.30386E+05        -0.32507E+08         0.00000E+00
    0.00000E+00         0.00000E+00        -0.80927E+07
 
   -0.79907E+07         0.39080E+05         0.00000E+00
    0.39080E+05        -0.32500E+08         0.00000E+00
    0.00000E+00         0.00000E+00        -0.80981E+07
 
   -0.80251E+07         0.48733E+05         0.00000E+00
    0.48733E+05        -0.32491E+08         0.00000E+00
    0.00000E+00         0.00000E+00        -0.81031E+07
 
   -0.80601E+07         0.59290E+05         0.00000E+00
    0.59290E+05        -0.32479E+08         0.00000E+00
    0.00000E+00         0.00000E+00        -0.81078E+07
 
   -0.80961E+07         0.70693E+05         0.00000E+00
    0.70693E+05        -0.32465E+08         0.00000E+00
    0.00000E+00         0.00000E+00        -0.81123E+07
 
   -0.75674E+07        -0.80261E+03         0.00000E+00
   -0.80261E+03        -0.32537E+08         0.00000E+00
    0.00000E+00         0.00000E+00        -0.80208E+07
 
   -0.76195E+07        -0.20052E+04         0.00000E+00
   -0.20052E+04        -0.32537E+08         0.00000E+00
    0.00000E+00         0.00000E+00        -0.80313E+07
 
   -0.76678E+07        -0.24650E+04         0.00000E+00
   -0.24650E+04        -0.32538E+08         0.00000E+00
    0.00000E+00         0.00000E+00        -0.80412E+07
 
   -0.77128E+07        -0.19784E+04         0.00000E+00
   -0.19784E+04        -0.32539E+08         0.00000E+00
    0.00000E+00         0.00000E+00        -0.80504E+07
 
   -0.77547E+07        -0.38756E+03         0.00000E+00
   -0.38756E+03        -0.32540E+08         0.00000E+00
    0.00000E+00         0.00000E+00        -0.80590E+07
 
   -0.77940E+07         0.24226E+04         0.00000E+00
    0.24226E+04        -0.32541E+08         0.00000E+00
    0.00000E+00         0.00000E+00        -0.80670E+07
 
   -0.78312E+07         0.65284E+04         0.00000E+00
    0.65284E+04        -0.32541E+08         0.00000E+00
    0.00000E+00         0.00000E+00        -0.80744E+07
 
   -0.78667E+07         0.11971E+05         0.00000E+00
    0.11971E+05        -0.32540E+08         0.00000E+00
    0.00000E+00         0.00000E+00        -0.80814E+07
 
   -0.79010E+07         0.18761E+05         0.00000E+00
    0.18761E+05        -0.32538E+08         0.00000E+00
    0.00000E+00         0.00000E+00        -0.80879E+07
 
   -0.79344E+07         0.26884E+05         0.00000E+00
    0.26884E+05        -0.32535E+08         0.00000E+00
    0.00000E+00         0.00000E+00        -0.80939E+07
 
   -0.79674E+07         0.36302E+05         0.00000E+00
    0.36302E+05        -0.32531E+08         0.00000E+00
    0.00000E+00         0.00000E+00        -0.80996E+07
 
   -0.80004E+07         0.46960E+05         0.00000E+00
    0.46960E+05        -0.32524E+08         0.00000E+00
    0.00000E+00         0.00000E+00        -0.81049E+07
 
   -0.80338E+07         0.58794E+05         0.00000E+00
    0.58794E+05        -0.32515E+08         0.00000E+00
    0.00000E+00         0.00000E+00        -0.81098E+07
 
   -0.80679E+07         0.71730E+05         0.00000E+00
    0.71730E+05        -0.32504E+08         0.00000E+00
    0.00000E+00         0.00000E+00        -0.81144E+07
 
   -0.81030E+07         0.85692E+05         0.00000E+00
    0.85692E+05        -0.32491E+08         0.00000E+00
    0.00000E+00         0.00000E+00        -0.81187E+07
 
   -0.75931E+07        -0.11188E+04         0.00000E+00
   -0.11188E+04        -0.32561E+08         0.00000E+00
    0.00000E+00         0.00000E+00        -0.80308E+07
 
   -0.76445E+07        -0.28385E+04         0.00000E+00
   -0.28385E+04        -0.32561E+08         0.00000E+00
    0.00000E+00         0.00000E+00        -0.80412E+07
 
   -0.76919E+07        -0.36250E+04         0.00000E+00
   -0.36250E+04        -0.32563E+08         0.00000E+00
    0.00000E+00         0.00000E+00        -0.80509E+07
 
   -0.77357E+07        -0.32406E+04         0.00000E+00
   -0.32406E+04        -0.32564E+08         0.00000E+00
    0.00000E+00         0.00000E+00        -0.80599E+07
 
   -0.77763E+07        -0.15028E+04         0.00000E+00
   -0.15028E+04        -0.32565E+08         0.00000E+00
    0.00000E+00         0.00000E+00        -0.80683E+07
 
   -0.78143E+07         0.17196E+04         0.00000E+00
    0.17196E+04        -0.32567E+08         0.00000E+00
    0.00000E+00         0.00000E+00        -0.80762E+07
 
   -0.78500E+07         0.65111E+04         0.00000E+00
    0.65111E+04        -0.32567E+08         0.00000E+00
    0.00000E+00         0.00000E+00        -0.80835E+07
 
   -0.78840E+07         0.12915E+05         0.00000E+00
    0.12915E+05        -0.32567E+08         0.00000E+00
    0.00000E+00         0.00000E+00        -0.80902E+07
 
   -0.79168E+07         0.20939E+05         0.00000E+00
    0.20939E+05        -0.32566E+08         0.00000E+00
    0.00000E+00         0.00000E+00        -0.80965E+07
 
   -0.79488E+07         0.30558E+05         0.00000E+00
    0.30558E+05        -0.32563E+08         0.00000E+00
    0.00000E+00         0.00000E+00        -0.81024E+07
 
   -0.79804E+07         0.41724E+05         0.00000E+00
    0.41724E+05        -0.32559E+08         0.00000E+00
    0.00000E+00         0.00000E+00        -0.81079E+07
 
   -0.80121E+07         0.54367E+05         0.00000E+00
    0.54367E+05        -0.32553E+08         0.00000E+00
    0.00000E+00         0.00000E+00        -0.81130E+07
 
   -0.80442E+07         0.68403E+05         0.00000E+00
    0.68403E+05        -0.32545E+08         0.00000E+00
    0.00000E+00         0.00000E+00        -0.81178E+07
 
   -0.80771E+07         0.83737E+05         0.00000E+00
    0.83737E+05        -0.32534E+08         0.00000E+00
    0.00000E+00         0.00000E+00        -0.81223E+07
 
   -0.81112E+07         0.10028E+06         0.00000E+00
    0.10028E+06        -0.32521E+08         0.00000E+00
    0.00000E+00         0.00000E+00        -0.81265E+07
 
   -0.76235E+07        -0.15205E+04         0.00000E+00
   -0.15205E+04        -0.32589E+08         0.00000E+00
    0.00000E+00         0.00000E+00        -0.80424E+07
 
   -0.76740E+07        -0.39061E+04         0.00000E+00
   -0.39061E+04        -0.32590E+08         0.00000E+00
    0.00000E+00         0.00000E+00        -0.80527E+07
 
   -0.77203E+07        -0.51390E+04         0.00000E+00
   -0.51390E+04        -0.32591E+08         0.00000E+00
    0.00000E+00         0.00000E+00        -0.80623E+07
 
   -0.77627E+07        -0.49494E+04         0.00000E+00
   -0.49494E+04        -0.32593E+08         0.00000E+00
    0.00000E+00         0.00000E+00        -0.80711E+07
 
   -0.78017E+07        -0.31328E+04         0.00000E+00
   -0.31328E+04        -0.32595E+08         0.00000E+00
    0.00000E+00         0.00000E+00        -0.80793E+07
 
   -0.78380E+07         0.45490E+03         0.00000E+00
    0.45490E+03        -0.32597E+08         0.00000E+00
    0.00000E+00         0.00000E+00        -0.80869E+07
 
   -0.78720E+07         0.59038E+04         0.00000E+00
    0.59038E+04        -0.32598E+08         0.00000E+00
    0.00000E+00         0.00000E+00        -0.80940E+07
 
   -0.79042E+07         0.13256E+05         0.00000E+00
    0.13256E+05        -0.32598E+08         0.00000E+00
    0.00000E+00         0.00000E+00        -0.81005E+07
 
   -0.79352E+07         0.22513E+05         0.00000E+00
    0.22513E+05        -0.32598E+08         0.00000E+00
    0.00000E+00         0.00000E+00        -0.81066E+07
 
   -0.79655E+07         0.33640E+05         0.00000E+00
    0.33640E+05        -0.32596E+08         0.00000E+00
    0.00000E+00         0.00000E+00        -0.81123E+07
 
   -0.79955E+07         0.46572E+05         0.00000E+00
    0.46572E+05        -0.32592E+08         0.00000E+00
    0.00000E+00         0.00000E+00        -0.81175E+07
 
   -0.80256E+07         0.61221E+05         0.00000E+00
    0.61221E+05        -0.32587E+08         0.00000E+00
    0.00000E+00         0.00000E+00        -0.81225E+07
 
   -0.80563E+07         0.77484E+05         0.00000E+00
    0.77484E+05        -0.32579E+08         0.00000E+00
    0.00000E+00         0.00000E+00        -0.81271E+07
 
   -0.80879E+07         0.95243E+05         0.00000E+00
    0.95243E+05        -0.32569E+08         0.00000E+00
    0.00000E+00         0.00000E+00        -0.81314E+07
 
   -0.81207E+07         0.11438E+06         0.00000E+00
    0.11438E+06        -0.32557E+08         0.00000E+00
    0.00000E+00         0.00000E+00        -0.81354E+07
 
   -0.76588E+07        -0.20211E+04         0.00000E+00
   -0.20211E+04        -0.32621E+08         0.00000E+00
    0.00000E+00         0.00000E+00        -0.80559E+07
 
   -0.77082E+07        -0.52431E+04         0.00000E+00
   -0.52431E+04        -0.32622E+08         0.00000E+00
    0.00000E+00         0.00000E+00        -0.80660E+07
 
   -0.77530E+07        -0.70585E+04         0.00000E+00
   -0.70585E+04        -0.32624E+08         0.00000E+00
    0.00000E+00         0.00000E+00        -0.80753E+07
 
   -0.77937E+07        -0.71680E+04         0.00000E+00
   -0.71680E+04        -0.32626E+08         0.00000E+00
    0.00000E+00         0.00000E+00        -0.80839E+07
 
   -0.78309E+07        -0.53490E+04         0.00000E+00
   -0.53490E+04        -0.32628E+08         0.00000E+00
    0.00000E+00         0.00000E+00        -0.80919E+07
 
   -0.78652E+07        -0.14479E+04         0.00000E+00
   -0.14479E+04        -0.32631E+08         0.00000E+00
    0.00000E+00         0.00000E+00        -0.80992E+07
 
   -0.78971E+07         0.46273E+04         0.00000E+00
    0.46273E+04        -0.32633E+08         0.00000E+00
    0.00000E+00         0.00000E+00        -0.81060E+07
 
   -0.79273E+07         0.12914E+05         0.00000E+00
    0.12914E+05        -0.32634E+08         0.00000E+00
    0.00000E+00         0.00000E+00        -0.81123E+07
 
   -0.79563E+07         0.23404E+05         0.00000E+00
    0.23404E+05        -0.32634E+08         0.00000E+00
    0.00000E+00         0.00000E+00        -0.81181E+07
 
   -0.79846E+07         0.36049E+05         0.00000E+00
    0.36049E+05        -0.32633E+08         0.00000E+00
    0.00000E+00         0.00000E+00        -0.81235E+07
 
   -0.80127E+07         0.50767E+05         0.00000E+00
    0.50767E+05        -0.32630E+08         0.00000E+00
    0.00000E+00         0.00000E+00        -0.81285E+07
 
   -0.80410E+07         0.67450E+05         0.00000E+00
    0.67450E+05        -0.32625E+08         0.00000E+00
    0.00000E+00         0.00000E+00        -0.81332E+07
 
   -0.80700E+07         0.85968E+05         0.00000E+00
    0.85968E+05        -0.32618E+08         0.00000E+00
    0.00000E+00         0.00000E+00        -0.81376E+07
 
   -0.81001E+07         0.10618E+06         0.00000E+00
    0.10618E+06        -0.32609E+08         0.00000E+00
    0.00000E+00         0.00000E+00        -0.81418E+07
 
   -0.81315E+07         0.12794E+06         0.00000E+00
    0.12794E+06        -0.32597E+08         0.00000E+00
    0.00000E+00         0.00000E+00        -0.81457E+07
 
   -0.76991E+07        -0.26335E+04         0.00000E+00
   -0.26335E+04        -0.32657E+08         0.00000E+00
    0.00000E+00         0.00000E+00        -0.80712E+07
 
   -0.77471E+07        -0.68834E+04         0.00000E+00
   -0.68834E+04        -0.32658E+08         0.00000E+00
    0.00000E+00         0.00000E+00        -0.80810E+07
 
   -0.77902E+07        -0.94322E+04         0.00000E+00
   -0.94322E+04        -0.32660E+08         0.00000E+00
    0.00000E+00         0.00000E+00        -0.80901E+07
 
   -0.78289E+07        -0.99557E+04         0.00000E+00
   -0.99557E+04        -0.32663E+08         0.00000E+00
    0.00000E+00         0.00000E+00        -0.80984E+07
 
   -0.78640E+07        -0.82172E+04         0.00000E+00
   -0.82172E+04        -0.32666E+08         0.00000E+00
    0.00000E+00         0.00000E+00        -0.81060E+07
 
   -0.78959E+07        -0.40586E+04         0.00000E+00
   -0.40586E+04        -0.32669E+08         0.00000E+00
    0.00000E+00         0.00000E+00        -0.81131E+07
 
   -0.79255E+07         0.26094E+04         0.00000E+00
    0.26094E+04        -0.32672E+08         0.00000E+00
    0.00000E+00         0.00000E+00        -0.81195E+07
 
   -0.79533E+07         0.11816E+05         0.00000E+00
    0.11816E+05        -0.32674E+08         0.00000E+00
    0.00000E+00         0.00000E+00        -0.81255E+07
 
   -0.79800E+07         0.23540E+05         0.00000E+00
    0.23540E+05        -0.32675E+08         0.00000E+00
    0.00000E+00         0.00000E+00        -0.81310E+07
 
   -0.80060E+07         0.37715E+05         0.00000E+00
    0.37715E+05        -0.32675E+08         0.00000E+00
    0.00000E+00         0.00000E+00        -0.81361E+07
 
   -0.80319E+07         0.54240E+05         0.00000E+00
    0.54240E+05        -0.32672E+08         0.00000E+00
    0.00000E+00         0.00000E+00        -0.81409E+07
 
   -0.80582E+07         0.72983E+05         0.00000E+00
    0.72983E+05        -0.32668E+08         0.00000E+00
    0.00000E+00         0.00000E+00        -0.81453E+07
 
   -0.80854E+07         0.93790E+05         0.00000E+00
    0.93790E+05        -0.32662E+08         0.00000E+00
    0.00000E+00         0.00000E+00        -0.81495E+07
 
   -0.81137E+07         0.11649E+06         0.00000E+00
    0.11649E+06        -0.32653E+08         0.00000E+00
    0.00000E+00         0.00000E+00        -0.81534E+07
 
   -0.81436E+07         0.14089E+06         0.00000E+00
    0.14089E+06        -0.32642E+08         0.00000E+00
    0.00000E+00         0.00000E+00        -0.81571E+07
 
   -0.77447E+07        -0.33700E+04         0.00000E+00
   -0.33700E+04        -0.32697E+08         0.00000E+00
    0.00000E+00         0.00000E+00        -0.80883E+07
 
   -0.77910E+07        -0.88585E+04         0.00000E+00
   -0.88585E+04        -0.32698E+08         0.00000E+00
    0.00000E+00         0.00000E+00        -0.80978E+07
 
   -0.78321E+07        -0.12305E+05         0.00000E+00
   -0.12305E+05        -0.32701E+08         0.00000E+00
    0.00000E+00         0.00000E+00        -0.81066E+07
 
   -0.78684E+07        -0.13366E+05         0.00000E+00
   -0.13366E+05        -0.32704E+08         0.00000E+00
    0.00000E+00         0.00000E+00        -0.81145E+07
 
   -0.79009E+07        -0.11796E+05         0.00000E+00
   -0.11796E+05        -0.32708E+08         0.00000E+00
    0.00000E+00         0.00000E+00        -0.81218E+07
 
   -0.79303E+07        -0.74383E+04         0.00000E+00
   -0.74383E+04        -0.32712E+08         0.00000E+00
    0.00000E+00         0.00000E+00        -0.81285E+07
 
   -0.79571E+07        -0.21225E+03         0.00000E+00
   -0.21225E+03        -0.32716E+08         0.00000E+00
    0.00000E+00         0.00000E+00        -0.81345E+07
 
   -0.79822E+07         0.98984E+04         0.00000E+00
    0.98984E+04        -0.32718E+08         0.00000E+00
    0.00000E+00         0.00000E+00        -0.81401E+07
 
   -0.80062E+07         0.22855E+05         0.00000E+00
    0.22855E+05        -0.32720E+08         0.00000E+00
    0.00000E+00         0.00000E+00        -0.81453E+07
 
   -0.80297E+07         0.38572E+05         0.00000E+00
    0.38572E+05        -0.32721E+08         0.00000E+00
    0.00000E+00         0.00000E+00        -0.81500E+07
 
   -0.80532E+07         0.56925E+05         0.00000E+00
    0.56925E+05        -0.32719E+08         0.00000E+00
    0.00000E+00         0.00000E+00        -0.81545E+07
 
   -0.80773E+07         0.77758E+05         0.00000E+00
    0.77758E+05        -0.32716E+08         0.00000E+00
    0.00000E+00         0.00000E+00        -0.81586E+07
 
   -0.81023E+07         0.10089E+06         0.00000E+00
    0.10089E+06        -0.32710E+08         0.00000E+00
    0.00000E+00         0.00000E+00        -0.81625E+07
 
   -0.81288E+07         0.12611E+06         0.00000E+00
    0.12611E+06        -0.32702E+08         0.00000E+00
    0.00000E+00         0.00000E+00        -0.81662E+07
 
   -0.81569E+07         0.15320E+06         0.00000E+00
    0.15320E+06        -0.32692E+08         0.00000E+00
    0.00000E+00         0.00000E+00        -0.81698E+07
 
   -0.77957E+07        -0.42422E+04         0.00000E+00
   -0.42422E+04        -0.32741E+08         0.00000E+00
    0.00000E+00         0.00000E+00        -0.81073E+07
 
   -0.78401E+07        -0.11197E+05         0.00000E+00
   -0.11197E+05        -0.32742E+08         0.00000E+00
    0.00000E+00         0.00000E+00        -0.81165E+07
 
   -0.78787E+07        -0.15716E+05         0.00000E+00
   -0.15716E+05        -0.32746E+08         0.00000E+00
    0.00000E+00         0.00000E+00        -0.81248E+07
 
   -0.79124E+07        -0.17443E+05         0.00000E+00
   -0.17443E+05        -0.32750E+08         0.00000E+00
    0.00000E+00         0.00000E+00        -0.81324E+07
 
   -0.79419E+07        -0.16132E+05         0.00000E+00
   -0.16132E+05        -0.32754E+08         0.00000E+00
    0.00000E+00         0.00000E+00        -0.81392E+07
 
   -0.79682E+07        -0.11636E+05         0.00000E+00
   -0.11636E+05        -0.32759E+08         0.00000E+00
    0.00000E+00         0.00000E+00        -0.81454E+07
 
   -0.79920E+07        -0.38868E+04         0.00000E+00
   -0.38868E+04        -0.32763E+08         0.00000E+00
    0.00000E+00         0.00000E+00        -0.81511E+07
 
   -0.80141E+07         0.71114E+04         0.00000E+00
    0.71114E+04        -0.32767E+08         0.00000E+00
    0.00000E+00         0.00000E+00        -0.81562E+07
 
   -0.80351E+07         0.21299E+05         0.00000E+00
    0.21299E+05        -0.32770E+08         0.00000E+00
    0.00000E+00         0.00000E+00        -0.81609E+07
 
   -0.80557E+07         0.38568E+05         0.00000E+00
    0.38568E+05        -0.32771E+08         0.00000E+00
    0.00000E+00         0.00000E+00        -0.81653E+07
 
   -0.80765E+07         0.58769E+05         0.00000E+00
    0.58769E+05        -0.32770E+08         0.00000E+00
    0.00000E+00         0.00000E+00        -0.81694E+07
 
   -0.80980E+07         0.81719E+05         0.00000E+00
    0.81719E+05        -0.32768E+08         0.00000E+00
    0.00000E+00         0.00000E+00        -0.81732E+07
 
   -0.81208E+07         0.10720E+06         0.00000E+00
    0.10720E+06        -0.32763E+08         0.00000E+00
    0.00000E+00         0.00000E+00        -0.81768E+07
 
   -0.81452E+07         0.13498E+06         0.00000E+00
    0.13498E+06        -0.32756E+08         0.00000E+00
    0.00000E+00         0.00000E+00        -0.81803E+07
 
   -0.81715E+07         0.16480E+06         0.00000E+00
    0.16480E+06        -0.32746E+08         0.00000E+00
    0.00000E+00         0.00000E+00        -0.81836E+07
 
   -0.78526E+07        -0.52602E+04         0.00000E+00
   -0.52602E+04        -0.32789E+08         0.00000E+00
    0.00000E+00         0.00000E+00        -0.81282E+07
 
   -0.78945E+07        -0.13924E+05         0.00000E+00
   -0.13924E+05        -0.32791E+08         0.00000E+00
    0.00000E+00         0.00000E+00        -0.81370E+07
 
   -0.79302E+07        -0.19697E+05         0.00000E+00
   -0.19697E+05        -0.32794E+08         0.00000E+00
    0.00000E+00         0.00000E+00        -0.81449E+07
 
   -0.79608E+07        -0.22221E+05         0.00000E+00
   -0.22221E+05        -0.32799E+08         0.00000E+00
    0.00000E+00         0.00000E+00        -0.81520E+07
 
   -0.79870E+07        -0.21260E+05         0.00000E+00
   -0.21260E+05        -0.32804E+08         0.00000E+00
    0.00000E+00         0.00000E+00        -0.81583E+07
 
   -0.80098E+07        -0.16683E+05         0.00000E+00
   -0.16683E+05        -0.32810E+08         0.00000E+00
    0.00000E+00         0.00000E+00        -0.81639E+07
 
   -0.80302E+07        -0.84463E+04         0.00000E+00
   -0.84463E+04        -0.32815E+08         0.00000E+00
    0.00000E+00         0.00000E+00        -0.81691E+07
 
   -0.80488E+07         0.34219E+04         0.00000E+00
    0.34219E+04        -0.32820E+08         0.00000E+00
    0.00000E+00         0.00000E+00        -0.81737E+07
 
   -0.80665E+07         0.18836E+05         0.00000E+00
    0.18836E+05        -0.32823E+08         0.00000E+00
    0.00000E+00         0.00000E+00        -0.81780E+07
 
   -0.80839E+07         0.37662E+05         0.00000E+00
    0.37662E+05        -0.32825E+08         0.00000E+00
    0.00000E+00         0.00000E+00        -0.81819E+07
 
   -0.81018E+07         0.59726E+05         0.00000E+00
    0.59726E+05        -0.32826E+08         0.00000E+00
    0.00000E+00         0.00000E+00        -0.81855E+07
 
   -0.81205E+07         0.84817E+05         0.00000E+00
    0.84817E+05        -0.32824E+08         0.00000E+00
    0.00000E+00         0.00000E+00        -0.81890E+07
 
   -0.81408E+07         0.11269E+06         0.00000E+00
    0.11269E+06        -0.32821E+08         0.00000E+00
    0.00000E+00         0.00000E+00        -0.81923E+07
 
   -0.81629E+07         0.14307E+06         0.00000E+00
    0.14307E+06        -0.32814E+08         0.00000E+00
    0.00000E+00         0.00000E+00        -0.81954E+07
 
   -0.81872E+07         0.17566E+06         0.00000E+00
    0.17566E+06        -0.32805E+08         0.00000E+00
    0.00000E+00         0.00000E+00        -0.81985E+07
 
   -0.79155E+07        -0.64325E+04         0.00000E+00
   -0.64325E+04        -0.32841E+08         0.00000E+00
    0.00000E+00         0.00000E+00        -0.81512E+07
 
   -0.79545E+07        -0.17056E+05         0.00000E+00
   -0.17056E+05        -0.32843E+08         0.00000E+00
    0.00000E+00         0.00000E+00        -0.81595E+07
 
   -0.79869E+07        -0.24268E+05         0.00000E+00
   -0.24268E+05        -0.32847E+08         0.00000E+00
    0.00000E+00         0.00000E+00        -0.81668E+07
 
   -0.80138E+07        -0.27719E+05         0.00000E+00
   -0.27719E+05        -0.32852E+08         0.00000E+00
    0.00000E+00         0.00000E+00        -0.81732E+07
 
   -0.80362E+07        -0.27194E+05         0.00000E+00
   -0.27194E+05        -0.32859E+08         0.00000E+00
    0.00000E+00         0.00000E+00        -0.81789E+07
 
   -0.80552E+07        -0.22592E+05         0.00000E+00
   -0.22592E+05        -0.32865E+08         0.00000E+00
    0.00000E+00         0.00000E+00        -0.81840E+07
 
   -0.80717E+07        -0.13900E+05         0.00000E+00
   -0.13900E+05        -0.32871E+08         0.00000E+00
    0.00000E+00         0.00000E+00        -0.81885E+07
 
   -0.80865E+07        -0.11810E+04         0.00000E+00
   -0.11810E+04        -0.32877E+08         0.00000E+00
    0.00000E+00         0.00000E+00        -0.81926E+07
 
   -0.81005E+07         0.15450E+05         0.00000E+00
    0.15450E+05        -0.32881E+08         0.00000E+00
    0.00000E+00         0.00000E+00        -0.81963E+07
 
   -0.81145E+07         0.35832E+05         0.00000E+00
    0.35832E+05        -0.32884E+08         0.00000E+00
    0.00000E+00         0.00000E+00        -0.81997E+07
 
   -0.81290E+07         0.59765E+05         0.00000E+00
    0.59765E+05        -0.32885E+08         0.00000E+00
    0.00000E+00         0.00000E+00        -0.82029E+07
 
   -0.81447E+07         0.87012E+05         0.00000E+00
    0.87012E+05        -0.32885E+08         0.00000E+00
    0.00000E+00         0.00000E+00        -0.82059E+07
 
   -0.81622E+07         0.11730E+06         0.00000E+00
    0.11730E+06        -0.32882E+08         0.00000E+00
    0.00000E+00         0.00000E+00        -0.82088E+07
 
   -0.81818E+07         0.15032E+06         0.00000E+00
    0.15032E+06        -0.32876E+08         0.00000E+00
    0.00000E+00         0.00000E+00        -0.82116E+07
 
   -0.82040E+07         0.18572E+06         0.00000E+00
    0.18572E+06        -0.32868E+08         0.00000E+00
    0.00000E+00         0.00000E+00        -0.82144E+07
 
   -0.79848E+07        -0.77649E+04         0.00000E+00
   -0.77649E+04        -0.32896E+08         0.00000E+00
    0.00000E+00         0.00000E+00        -0.81762E+07
 
   -0.80203E+07        -0.20604E+05         0.00000E+00
   -0.20604E+05        -0.32899E+08         0.00000E+00
    0.00000E+00         0.00000E+00        -0.81839E+07
 
   -0.80488E+07        -0.29437E+05         0.00000E+00
   -0.29437E+05        -0.32904E+08         0.00000E+00
    0.00000E+00         0.00000E+00        -0.81905E+07
 
   -0.80715E+07        -0.33936E+05         0.00000E+00
   -0.33936E+05        -0.32910E+08         0.00000E+00
    0.00000E+00         0.00000E+00        -0.81962E+07
 
   -0.80896E+07        -0.33925E+05         0.00000E+00
   -0.33925E+05        -0.32917E+08         0.00000E+00
    0.00000E+00         0.00000E+00        -0.82012E+07
 
   -0.81043E+07        -0.29345E+05         0.00000E+00
   -0.29345E+05        -0.32924E+08         0.00000E+00
    0.00000E+00         0.00000E+00        -0.82056E+07
 
   -0.81165E+07        -0.20229E+05         0.00000E+00
   -0.20229E+05        -0.32931E+08         0.00000E+00
    0.00000E+00         0.00000E+00        -0.82094E+07
 
   -0.81271E+07        -0.66802E+04         0.00000E+00
   -0.66802E+04        -0.32937E+08         0.00000E+00
    0.00000E+00         0.00000E+00        -0.82129E+07
 
   -0.81372E+07         0.11151E+05         0.00000E+00
    0.11151E+05        -0.32942E+08         0.00000E+00
    0.00000E+00         0.00000E+00        -0.82159E+07
 
   -0.81473E+07         0.33075E+05         0.00000E+00
    0.33075E+05        -0.32946E+08         0.00000E+00
    0.00000E+00         0.00000E+00        -0.82187E+07
 
   -0.81582E+07         0.58868E+05         0.00000E+00
    0.58868E+05        -0.32949E+08         0.00000E+00
    0.00000E+00         0.00000E+00        -0.82214E+07
 
   -0.81706E+07         0.88273E+05         0.00000E+00
    0.88273E+05        -0.32949E+08         0.00000E+00
    0.00000E+00         0.00000E+00        -0.82239E+07
 
   -0.81850E+07         0.12099E+06         0.00000E+00
    0.12099E+06        -0.32947E+08         0.00000E+00
    0.00000E+00         0.00000E+00        -0.82264E+07
 
   -0.82020E+07         0.15668E+06         0.00000E+00
    0.15668E+06        -0.32943E+08         0.00000E+00
    0.00000E+00         0.00000E+00        -0.82289E+07
 
   -0.82219E+07         0.19496E+06         0.00000E+00
    0.19496E+06        -0.32935E+08         0.00000E+00
    0.00000E+00         0.00000E+00        -0.82314E+07
 
   -0.80606E+07        -0.92601E+04         0.00000E+00
   -0.92601E+04        -0.32956E+08         0.00000E+00
    0.00000E+00         0.00000E+00        -0.82034E+07
 
   -0.80920E+07        -0.24568E+05         0.00000E+00
   -0.24568E+05        -0.32959E+08         0.00000E+00
    0.00000E+00         0.00000E+00        -0.82103E+07
 
   -0.81160E+07        -0.35191E+05         0.00000E+00
   -0.35191E+05        -0.32964E+08         0.00000E+00
    0.00000E+00         0.00000E+00        -0.82161E+07
 
   -0.81340E+07        -0.40846E+05         0.00000E+00
   -0.40846E+05        -0.32971E+08         0.00000E+00
    0.00000E+00         0.00000E+00        -0.82210E+07
 
   -0.81473E+07        -0.41411E+05         0.00000E+00
   -0.41411E+05        -0.32979E+08         0.00000E+00
    0.00000E+00         0.00000E+00        -0.82252E+07
 
   -0.81571E+07        -0.36891E+05         0.00000E+00
   -0.36891E+05        -0.32987E+08         0.00000E+00
    0.00000E+00         0.00000E+00        -0.82287E+07
 
   -0.81646E+07        -0.27377E+05         0.00000E+00
   -0.27377E+05        -0.32994E+08         0.00000E+00
    0.00000E+00         0.00000E+00        -0.82318E+07
 
   -0.81707E+07        -0.13023E+05         0.00000E+00
   -0.13023E+05        -0.33001E+08         0.00000E+00
    0.00000E+00         0.00000E+00        -0.82344E+07
 
   -0.81764E+07         0.59804E+04         0.00000E+00
    0.59804E+04        -0.33008E+08         0.00000E+00
    0.00000E+00         0.00000E+00        -0.82368E+07
 
   -0.81823E+07         0.29415E+05         0.00000E+00
    0.29415E+05        -0.33012E+08         0.00000E+00
    0.00000E+00         0.00000E+00        -0.82390E+07
 
   -0.81894E+07         0.57038E+05         0.00000E+00
    0.57038E+05        -0.33016E+08         0.00000E+00
    0.00000E+00         0.00000E+00        -0.82410E+07
 
   -0.81981E+07         0.88579E+05         0.00000E+00
    0.88579E+05        -0.33017E+08         0.00000E+00
    0.00000E+00         0.00000E+00        -0.82430E+07
 
   -0.82093E+07         0.12373E+06         0.00000E+00
    0.12373E+06        -0.33016E+08         0.00000E+00
    0.00000E+00         0.00000E+00        -0.82450E+07
 
   -0.82234E+07         0.16211E+06         0.00000E+00
    0.16211E+06        -0.33012E+08         0.00000E+00
    0.00000E+00         0.00000E+00        -0.82471E+07
 
   -0.82408E+07         0.20330E+06         0.00000E+00
    0.20330E+06        -0.33006E+08         0.00000E+00
    0.00000E+00         0.00000E+00        -0.82493E+07
 
   -0.81435E+07        -0.10917E+05         0.00000E+00
   -0.10917E+05        -0.33020E+08         0.00000E+00
    0.00000E+00         0.00000E+00        -0.82327E+07
 
   -0.81700E+07        -0.28935E+05         0.00000E+00
   -0.28935E+05        -0.33023E+08         0.00000E+00
    0.00000E+00         0.00000E+00        -0.82387E+07
 
   -0.81888E+07        -0.41498E+05         0.00000E+00
   -0.41498E+05        -0.33029E+08         0.00000E+00
    0.00000E+00         0.00000E+00        -0.82436E+07
 
   -0.82014E+07        -0.48390E+05         0.00000E+00
   -0.48390E+05        -0.33036E+08         0.00000E+00
    0.00000E+00         0.00000E+00        -0.82475E+07
 
   -0.82093E+07        -0.49573E+05         0.00000E+00
   -0.49573E+05        -0.33044E+08         0.00000E+00
    0.00000E+00         0.00000E+00        -0.82507E+07
 
   -0.82138E+07        -0.45132E+05         0.00000E+00
   -0.45132E+05        -0.33053E+08         0.00000E+00
    0.00000E+00         0.00000E+00        -0.82533E+07
 
   -0.82162E+07        -0.35240E+05         0.00000E+00
   -0.35240E+05        -0.33061E+08         0.00000E+00
    0.00000E+00         0.00000E+00        -0.82555E+07
 
   -0.82173E+07        -0.20111E+05         0.00000E+00
   -0.20111E+05        -0.33069E+08         0.00000E+00
    0.00000E+00         0.00000E+00        -0.82573E+07
 
   -0.82183E+07         0.18693E+02         0.00000E+00
    0.18693E+02        -0.33076E+08         0.00000E+00
    0.00000E+00         0.00000E+00        -0.82588E+07
 
   -0.82198E+07         0.24904E+05         0.00000E+00
    0.24904E+05        -0.33082E+08         0.00000E+00
    0.00000E+00         0.00000E+00        -0.82603E+07
 
   -0.82226E+07         0.54295E+05         0.00000E+00
    0.54295E+05        -0.33086E+08         0.00000E+00
    0.00000E+00         0.00000E+00        -0.82616E+07
 
   -0.82274E+07         0.87917E+05         0.00000E+00
    0.87917E+05        -0.33088E+08         0.00000E+00
    0.00000E+00         0.00000E+00        -0.82630E+07
 
   -0.82350E+07         0.12546E+06         0.00000E+00
    0.12546E+06        -0.33088E+08         0.00000E+00
    0.00000E+00         0.00000E+00        -0.82645E+07
 
   -0.82459E+07         0.16654E+06         0.00000E+00
    0.16654E+06        -0.33085E+08         0.00000E+00
    0.00000E+00         0.00000E+00        -0.82662E+07
 
   -0.82607E+07         0.21070E+06         0.00000E+00
    0.21070E+06        -0.33080E+08         0.00000E+00
    0.00000E+00         0.00000E+00        -0.82681E+07
 
   -0.82335E+07        -0.12730E+05         0.00000E+00
   -0.12730E+05        -0.33088E+08         0.00000E+00
    0.00000E+00         0.00000E+00        -0.82643E+07
 
   -0.82543E+07        -0.33676E+05         0.00000E+00
   -0.33676E+05        -0.33091E+08         0.00000E+00
    0.00000E+00         0.00000E+00        -0.82692E+07
 
   -0.82671E+07        -0.48296E+05         0.00000E+00
   -0.48296E+05        -0.33097E+08         0.00000E+00
    0.00000E+00         0.00000E+00        -0.82729E+07
 
   -0.82736E+07        -0.56473E+05         0.00000E+00
   -0.56473E+05        -0.33105E+08         0.00000E+00
    0.00000E+00         0.00000E+00        -0.82758E+07
 
   -0.82755E+07        -0.58279E+05         0.00000E+00
   -0.58279E+05        -0.33114E+08         0.00000E+00
    0.00000E+00         0.00000E+00        -0.82779E+07
 
   -0.82743E+07        -0.53916E+05         0.00000E+00
   -0.53916E+05        -0.33123E+08         0.00000E+00
    0.00000E+00         0.00000E+00        -0.82794E+07
 
   -0.82711E+07        -0.43656E+05         0.00000E+00
   -0.43656E+05        -0.33132E+08         0.00000E+00
    0.00000E+00         0.00000E+00        -0.82805E+07
 
   -0.82670E+07        -0.27790E+05         0.00000E+00
   -0.27790E+05        -0.33140E+08         0.00000E+00
    0.00000E+00         0.00000E+00        -0.82814E+07
 
   -0.82629E+07        -0.66047E+04         0.00000E+00
   -0.66047E+04        -0.33147E+08         0.00000E+00
    0.00000E+00         0.00000E+00        -0.82820E+07
 
   -0.82596E+07         0.19636E+05         0.00000E+00
    0.19636E+05        -0.33153E+08         0.00000E+00
    0.00000E+00         0.00000E+00        -0.82826E+07
 
   -0.82578E+07         0.50685E+05         0.00000E+00
    0.50685E+05        -0.33158E+08         0.00000E+00
    0.00000E+00         0.00000E+00        -0.82832E+07
 
   -0.82584E+07         0.86286E+05         0.00000E+00
    0.86286E+05        -0.33161E+08         0.00000E+00
    0.00000E+00         0.00000E+00        -0.82840E+07
 
   -0.82621E+07         0.12615E+06         0.00000E+00
    0.12615E+06        -0.33162E+08         0.00000E+00
    0.00000E+00         0.00000E+00        -0.82849E+07
 
   -0.82695E+07         0.16991E+06         0.00000E+00
    0.16991E+06        -0.33161E+08         0.00000E+00
    0.00000E+00         0.00000E+00        -0.82861E+07
 
   -0.82813E+07         0.21707E+06         0.00000E+00
    0.21707E+06        -0.33157E+08         0.00000E+00
    0.00000E+00         0.00000E+00        -0.82876E+07
 
   -0.83310E+07        -0.14687E+05         0.00000E+00
   -0.14687E+05        -0.33160E+08         0.00000E+00
    0.00000E+00         0.00000E+00        -0.82982E+07
 
   -0.83452E+07        -0.38745E+05         0.00000E+00
   -0.38745E+05        -0.33163E+08         0.00000E+00
    0.00000E+00         0.00000E+00        -0.83017E+07
 
   -0.83510E+07        -0.55490E+05         0.00000E+00
   -0.55490E+05        -0.33170E+08         0.00000E+00
    0.00000E+00         0.00000E+00        -0.83042E+07
 
   -0.83508E+07        -0.64944E+05         0.00000E+00
   -0.64944E+05        -0.33178E+08         0.00000E+00
    0.00000E+00         0.00000E+00        -0.83057E+07
 
   -0.83461E+07        -0.67336E+05         0.00000E+00
   -0.67336E+05        -0.33187E+08         0.00000E+00
    0.00000E+00         0.00000E+00        -0.83066E+07
 
   -0.83386E+07        -0.63018E+05         0.00000E+00
   -0.63018E+05        -0.33196E+08         0.00000E+00
    0.00000E+00         0.00000E+00        -0.83069E+07
 
   -0.83294E+07        -0.52390E+05         0.00000E+00
   -0.52390E+05        -0.33205E+08         0.00000E+00
    0.00000E+00         0.00000E+00        -0.83068E+07
 
   -0.83197E+07        -0.35839E+05         0.00000E+00
   -0.35839E+05        -0.33213E+08         0.00000E+00
    0.00000E+00         0.00000E+00        -0.83066E+07
 
   -0.83103E+07        -0.13702E+05         0.00000E+00
   -0.13702E+05        -0.33221E+08         0.00000E+00
    0.00000E+00         0.00000E+00        -0.83062E+07
 
   -0.83019E+07         0.13746E+05         0.00000E+00
    0.13746E+05        -0.33228E+08         0.00000E+00
    0.00000E+00         0.00000E+00        -0.83059E+07
 
   -0.82954E+07         0.46280E+05         0.00000E+00
    0.46280E+05        -0.33233E+08         0.00000E+00
    0.00000E+00         0.00000E+00        -0.83057E+07
 
   -0.82914E+07         0.83691E+05         0.00000E+00
    0.83691E+05        -0.33237E+08         0.00000E+00
    0.00000E+00         0.00000E+00        -0.83057E+07
 
   -0.82907E+07         0.12574E+06         0.00000E+00
    0.12574E+06        -0.33239E+08         0.00000E+00
    0.00000E+00         0.00000E+00        -0.83060E+07
 
   -0.82942E+07         0.17211E+06         0.00000E+00
    0.17211E+06        -0.33239E+08         0.00000E+00
    0.00000E+00         0.00000E+00        -0.83066E+07
 
   -0.83027E+07         0.22231E+06         0.00000E+00
    0.22231E+06        -0.33236E+08         0.00000E+00
    0.00000E+00         0.00000E+00        -0.83077E+07
 
   -0.84363E+07        -0.16770E+05         0.00000E+00
   -0.16770E+05        -0.33236E+08         0.00000E+00
    0.00000E+00         0.00000E+00        -0.83344E+07
 
   -0.84426E+07        -0.44071E+05         0.00000E+00
   -0.44071E+05        -0.33239E+08         0.00000E+00
    0.00000E+00         0.00000E+00        -0.83364E+07
 
   -0.84406E+07        -0.62941E+05         0.00000E+00
   -0.62941E+05        -0.33246E+08         0.00000E+00
    0.00000E+00         0.00000E+00        -0.83373E+07
 
   -0.84327E+07        -0.73595E+05         0.00000E+00
   -0.73595E+05        -0.33254E+08         0.00000E+00
    0.00000E+00         0.00000E+00        -0.83373E+07
 
   -0.84209E+07        -0.76471E+05         0.00000E+00
   -0.76471E+05        -0.33263E+08         0.00000E+00
    0.00000E+00         0.00000E+00        -0.83367E+07
 
   -0.84066E+07        -0.72124E+05         0.00000E+00
   -0.72124E+05        -0.33272E+08         0.00000E+00
    0.00000E+00         0.00000E+00        -0.83357E+07
 
   -0.83912E+07        -0.61118E+05         0.00000E+00
   -0.61118E+05        -0.33281E+08         0.00000E+00
    0.00000E+00         0.00000E+00        -0.83344E+07
 
   -0.83756E+07        -0.43951E+05         0.00000E+00
   -0.43951E+05        -0.33289E+08         0.00000E+00
    0.00000E+00         0.00000E+00        -0.83329E+07
 
   -0.83607E+07        -0.21015E+05         0.00000E+00
   -0.21015E+05        -0.33297E+08         0.00000E+00
    0.00000E+00         0.00000E+00        -0.83314E+07
 
   -0.83470E+07         0.74207E+04         0.00000E+00
    0.74207E+04        -0.33303E+08         0.00000E+00
    0.00000E+00         0.00000E+00        -0.83301E+07
 
   -0.83353E+07         0.41181E+05         0.00000E+00
    0.41181E+05        -0.33309E+08         0.00000E+00
    0.00000E+00         0.00000E+00        -0.83289E+07
 
   -0.83264E+07         0.80142E+05         0.00000E+00
    0.80142E+05        -0.33314E+08         0.00000E+00
    0.00000E+00         0.00000E+00        -0.83281E+07
 
   -0.83210E+07         0.12417E+06         0.00000E+00
    0.12417E+06        -0.33317E+08         0.00000E+00
    0.00000E+00         0.00000E+00        -0.83276E+07
 
   -0.83201E+07         0.17301E+06         0.00000E+00
    0.17301E+06        -0.33318E+08         0.00000E+00
    0.00000E+00         0.00000E+00        -0.83277E+07
 
   -0.83249E+07         0.22624E+06         0.00000E+00
    0.22624E+06        -0.33317E+08         0.00000E+00
    0.00000E+00         0.00000E+00        -0.83283E+07
 
   -0.85494E+07        -0.18957E+05         0.00000E+00
   -0.18957E+05        -0.33315E+08         0.00000E+00
    0.00000E+00         0.00000E+00        -0.83729E+07
 
   -0.85466E+07        -0.49557E+05         0.00000E+00
   -0.49557E+05        -0.33319E+08         0.00000E+00
    0.00000E+00         0.00000E+00        -0.83732E+07
 
   -0.85357E+07        -0.70458E+05         0.00000E+00
   -0.70458E+05        -0.33326E+08         0.00000E+00
    0.00000E+00         0.00000E+00        -0.83723E+07
 
   -0.85194E+07        -0.82134E+05         0.00000E+00
   -0.82134E+05        -0.33334E+08         0.00000E+00
    0.00000E+00         0.00000E+00        -0.83706E+07
 
   -0.84997E+07        -0.85314E+05         0.00000E+00
   -0.85314E+05        -0.33342E+08         0.00000E+00
    0.00000E+00         0.00000E+00        -0.83684E+07
 
   -0.84783E+07        -0.80816E+05         0.00000E+00
   -0.80816E+05        -0.33350E+08         0.00000E+00
    0.00000E+00         0.00000E+00        -0.83658E+07
 
   -0.84564E+07        -0.69409E+05         0.00000E+00
   -0.69409E+05        -0.33359E+08         0.00000E+00
    0.00000E+00         0.00000E+00        -0.83630E+07
 
   -0.84349E+07        -0.51725E+05         0.00000E+00
   -0.51725E+05        -0.33366E+08         0.00000E+00
    0.00000E+00         0.00000E+00        -0.83602E+07
 
   -0.84142E+07        -0.28204E+05         0.00000E+00
   -0.28204E+05        -0.33373E+08         0.00000E+00
    0.00000E+00         0.00000E+00        -0.83575E+07
 
   -0.83951E+07         0.90584E+03         0.00000E+00
    0.90584E+03        -0.33380E+08         0.00000E+00
    0.00000E+00         0.00000E+00        -0.83550E+07
 
   -0.83780E+07         0.35520E+05         0.00000E+00
    0.35520E+05        -0.33386E+08         0.00000E+00
    0.00000E+00         0.00000E+00        -0.83529E+07
 
   -0.83638E+07         0.75651E+05         0.00000E+00
    0.75651E+05        -0.33392E+08         0.00000E+00
    0.00000E+00         0.00000E+00        -0.83511E+07
 
   -0.83531E+07         0.12132E+06         0.00000E+00
    0.12132E+06        -0.33396E+08         0.00000E+00
    0.00000E+00         0.00000E+00        -0.83498E+07
 
   -0.83473E+07         0.17242E+06         0.00000E+00
    0.17242E+06        -0.33398E+08         0.00000E+00
    0.00000E+00         0.00000E+00        -0.83492E+07
 
   -0.83476E+07         0.22865E+06         0.00000E+00
    0.22865E+06        -0.33398E+08         0.00000E+00
    0.00000E+00         0.00000E+00        -0.83492E+07
 
   -0.86706E+07        -0.21216E+05         0.00000E+00
   -0.21216E+05        -0.33399E+08         0.00000E+00
    0.00000E+00         0.00000E+00        -0.84139E+07
 
   -0.86572E+07        -0.55074E+05         0.00000E+00
   -0.55074E+05        -0.33403E+08         0.00000E+00
    0.00000E+00         0.00000E+00        -0.84120E+07
 
   -0.86361E+07        -0.77778E+05         0.00000E+00
   -0.77778E+05        -0.33409E+08         0.00000E+00
    0.00000E+00         0.00000E+00        -0.84090E+07
 
   -0.86105E+07        -0.90170E+05         0.00000E+00
   -0.90170E+05        -0.33416E+08         0.00000E+00
    0.00000E+00         0.00000E+00        -0.84054E+07
 
   -0.85824E+07        -0.93370E+05         0.00000E+00
   -0.93370E+05        -0.33424E+08         0.00000E+00
    0.00000E+00         0.00000E+00        -0.84013E+07
 
   -0.85537E+07        -0.88541E+05         0.00000E+00
   -0.88541E+05        -0.33431E+08         0.00000E+00
    0.00000E+00         0.00000E+00        -0.83970E+07
 
   -0.85252E+07        -0.76709E+05         0.00000E+00
   -0.76709E+05        -0.33438E+08         0.00000E+00
    0.00000E+00         0.00000E+00        -0.83926E+07
 
   -0.84976E+07        -0.58649E+05         0.00000E+00
   -0.58649E+05        -0.33444E+08         0.00000E+00
    0.00000E+00         0.00000E+00        -0.83884E+07
 
   -0.84713E+07        -0.34844E+05         0.00000E+00
   -0.34844E+05        -0.33451E+08         0.00000E+00
    0.00000E+00         0.00000E+00        -0.83844E+07
 
   -0.84467E+07        -0.54893E+04         0.00000E+00
   -0.54893E+04        -0.33457E+08         0.00000E+00
    0.00000E+00         0.00000E+00        -0.83807E+07
 
   -0.84240E+07         0.29463E+05         0.00000E+00
    0.29463E+05        -0.33463E+08         0.00000E+00
    0.00000E+00         0.00000E+00        -0.83774E+07
 
   -0.84040E+07         0.70224E+05         0.00000E+00
    0.70224E+05        -0.33469E+08         0.00000E+00
    0.00000E+00         0.00000E+00        -0.83746E+07
 
   -0.83875E+07         0.11705E+06         0.00000E+00
    0.11705E+06        -0.33474E+08         0.00000E+00
    0.00000E+00         0.00000E+00        -0.83724E+07
 
   -0.83760E+07         0.17009E+06         0.00000E+00
    0.17009E+06        -0.33479E+08         0.00000E+00
    0.00000E+00         0.00000E+00        -0.83709E+07
 
   -0.83709E+07         0.22920E+06         0.00000E+00
    0.22920E+06        -0.33481E+08         0.00000E+00
    0.00000E+00         0.00000E+00        -0.83703E+07
 
   -0.87997E+07        -0.23508E+05         0.00000E+00
   -0.23508E+05        -0.33486E+08         0.00000E+00
    0.00000E+00         0.00000E+00        -0.84572E+07
 
   -0.87740E+07        -0.60446E+05         0.00000E+00
   -0.60446E+05        -0.33490E+08         0.00000E+00
    0.00000E+00         0.00000E+00        -0.84528E+07
 
   -0.87415E+07        -0.84546E+05         0.00000E+00
   -0.84546E+05        -0.33496E+08         0.00000E+00
    0.00000E+00         0.00000E+00        -0.84475E+07
 
   -0.87056E+07        -0.97173E+05         0.00000E+00
   -0.97173E+05        -0.33502E+08         0.00000E+00
    0.00000E+00         0.00000E+00        -0.84416E+07
 
   -0.86688E+07        -0.99987E+05         0.00000E+00
   -0.99987E+05        -0.33508E+08         0.00000E+00
    0.00000E+00         0.00000E+00        -0.84354E+07
 
   -0.86325E+07        -0.94597E+05         0.00000E+00
   -0.94597E+05        -0.33513E+08         0.00000E+00
    0.00000E+00         0.00000E+00        -0.84292E+07
 
   -0.85975E+07        -0.82326E+05         0.00000E+00
   -0.82326E+05        -0.33518E+08         0.00000E+00
    0.00000E+00         0.00000E+00        -0.84231E+07
 
   -0.85641E+07        -0.64097E+05         0.00000E+00
   -0.64097E+05        -0.33523E+08         0.00000E+00
    0.00000E+00         0.00000E+00        -0.84173E+07
 
   -0.85324E+07        -0.40416E+05         0.00000E+00
   -0.40416E+05        -0.33527E+08         0.00000E+00
    0.00000E+00         0.00000E+00        -0.84119E+07
 
   -0.85022E+07        -0.11390E+05         0.00000E+00
   -0.11390E+05        -0.33532E+08         0.00000E+00
    0.00000E+00         0.00000E+00        -0.84069E+07
 
   -0.84738E+07         0.23210E+05         0.00000E+00
    0.23210E+05        -0.33538E+08         0.00000E+00
    0.00000E+00         0.00000E+00        -0.84024E+07
 
   -0.84476E+07         0.63865E+05         0.00000E+00
    0.63865E+05        -0.33545E+08         0.00000E+00
    0.00000E+00         0.00000E+00        -0.83985E+07
 
   -0.84246E+07         0.11118E+06         0.00000E+00
    0.11118E+06        -0.33552E+08         0.00000E+00
    0.00000E+00         0.00000E+00        -0.83952E+07
 
   -0.84063E+07         0.16565E+06         0.00000E+00
    0.16565E+06        -0.33558E+08         0.00000E+00
    0.00000E+00         0.00000E+00        -0.83928E+07
 
   -0.83948E+07         0.22745E+06         0.00000E+00
    0.22745E+06        -0.33562E+08         0.00000E+00
    0.00000E+00         0.00000E+00        -0.83914E+07
 
   -0.89369E+07        -0.25786E+05         0.00000E+00
   -0.25786E+05        -0.33578E+08         0.00000E+00
    0.00000E+00         0.00000E+00        -0.85029E+07
 
   -0.88967E+07        -0.65433E+05         0.00000E+00
   -0.65433E+05        -0.33581E+08         0.00000E+00
    0.00000E+00         0.00000E+00        -0.84956E+07
 
   -0.88512E+07        -0.90266E+05         0.00000E+00
   -0.90266E+05        -0.33586E+08         0.00000E+00
    0.00000E+00         0.00000E+00        -0.84875E+07
 
   -0.88042E+07        -0.10242E+06         0.00000E+00
   -0.10242E+06        -0.33591E+08         0.00000E+00
    0.00000E+00         0.00000E+00        -0.84790E+07
 
   -0.87583E+07        -0.10432E+06         0.00000E+00
   -0.10432E+06        -0.33594E+08         0.00000E+00
    0.00000E+00         0.00000E+00        -0.84705E+07
 
   -0.87147E+07        -0.98110E+05         0.00000E+00
   -0.98110E+05        -0.33596E+08         0.00000E+00
    0.00000E+00         0.00000E+00        -0.84622E+07
 
   -0.86736E+07        -0.85436E+05         0.00000E+00
   -0.85436E+05        -0.33598E+08         0.00000E+00
    0.00000E+00         0.00000E+00        -0.84543E+07
 
   -0.86348E+07        -0.67344E+05         0.00000E+00
   -0.67344E+05        -0.33600E+08         0.00000E+00
    0.00000E+00         0.00000E+00        -0.84469E+07
 
   -0.85979E+07        -0.44322E+05         0.00000E+00
   -0.44322E+05        -0.33602E+08         0.00000E+00
    0.00000E+00         0.00000E+00        -0.84400E+07
 
   -0.85625E+07        -0.16359E+05         0.00000E+00
   -0.16359E+05        -0.33606E+08         0.00000E+00
    0.00000E+00         0.00000E+00        -0.84336E+07
 
   -0.85283E+07         0.16997E+05         0.00000E+00
    0.16997E+05        -0.33611E+08         0.00000E+00
    0.00000E+00         0.00000E+00        -0.84278E+07
 
   -0.84955E+07         0.56570E+05         0.00000E+00
    0.56570E+05        -0.33618E+08         0.00000E+00
    0.00000E+00         0.00000E+00        -0.84227E+07
 
   -0.84652E+07         0.10342E+06         0.00000E+00
    0.10342E+06        -0.33626E+08         0.00000E+00
    0.00000E+00         0.00000E+00        -0.84183E+07
 
   -0.84389E+07         0.15859E+06         0.00000E+00
    0.15859E+06        -0.33635E+08         0.00000E+00
    0.00000E+00         0.00000E+00        -0.84147E+07
 
   -0.84192E+07         0.22275E+06         0.00000E+00
    0.22275E+06        -0.33642E+08         0.00000E+00
    0.00000E+00         0.00000E+00        -0.84123E+07
 
   -0.90817E+07        -0.27990E+05         0.00000E+00
   -0.27990E+05        -0.33673E+08         0.00000E+00
    0.00000E+00         0.00000E+00        -0.85510E+07
 
   -0.90245E+07        -0.69685E+05         0.00000E+00
   -0.69685E+05        -0.33676E+08         0.00000E+00
    0.00000E+00         0.00000E+00        -0.85402E+07
 
   -0.89643E+07        -0.94220E+05         0.00000E+00
   -0.94220E+05        -0.33679E+08         0.00000E+00
    0.00000E+00         0.00000E+00        -0.85288E+07
 
   -0.89056E+07        -0.10494E+06         0.00000E+00
   -0.10494E+06        -0.33681E+08         0.00000E+00
    0.00000E+00         0.00000E+00        -0.85173E+07
 
   -0.88506E+07        -0.10528E+06         0.00000E+00
   -0.10528E+06        -0.33681E+08         0.00000E+00
    0.00000E+00         0.00000E+00        -0.85063E+07
 
   -0.88001E+07        -0.98040E+05         0.00000E+00
   -0.98040E+05        -0.33679E+08         0.00000E+00
    0.00000E+00         0.00000E+00        -0.84958E+07
 
   -0.87536E+07        -0.85119E+05         0.00000E+00
   -0.85119E+05        -0.33677E+08         0.00000E+00
    0.00000E+00         0.00000E+00        -0.84861E+07
 
   -0.87101E+07        -0.67609E+05         0.00000E+00
   -0.67609E+05        -0.33675E+08         0.00000E+00
    0.00000E+00         0.00000E+00        -0.84770E+07
 
   -0.86687E+07        -0.45925E+05         0.00000E+00
   -0.45925E+05        -0.33674E+08         0.00000E+00
    0.00000E+00         0.00000E+00        -0.84685E+07
 
   -0.86283E+07        -0.19914E+05         0.00000E+00
   -0.19914E+05        -0.33675E+08         0.00000E+00
    0.00000E+00         0.00000E+00        -0.84608E+07
 
   -0.85885E+07         0.11110E+05         0.00000E+00
    0.11110E+05        -0.33680E+08         0.00000E+00
    0.00000E+00         0.00000E+00        -0.84536E+07
 
   -0.85489E+07         0.48348E+05         0.00000E+00
    0.48348E+05        -0.33687E+08         0.00000E+00
    0.00000E+00         0.00000E+00        -0.84471E+07
 
   -0.85102E+07         0.93450E+05         0.00000E+00
    0.93450E+05        -0.33697E+08         0.00000E+00
    0.00000E+00         0.00000E+00        -0.84414E+07
 
   -0.84743E+07         0.14825E+06         0.00000E+00
    0.14825E+06        -0.33708E+08         0.00000E+00
    0.00000E+00         0.00000E+00        -0.84365E+07
 
   -0.84444E+07         0.21421E+06         0.00000E+00
    0.21421E+06        -0.33720E+08         0.00000E+00
    0.00000E+00         0.00000E+00        -0.84329E+07
 
   -0.92337E+07        -0.30032E+05         0.00000E+00
   -0.30032E+05        -0.33772E+08         0.00000E+00
    0.00000E+00         0.00000E+00        -0.86012E+07
 
   -0.91563E+07        -0.72637E+05         0.00000E+00
   -0.72637E+05        -0.33775E+08         0.00000E+00
    0.00000E+00         0.00000E+00        -0.85862E+07
 
   -0.90796E+07        -0.95309E+05         0.00000E+00
   -0.95309E+05        -0.33775E+08         0.00000E+00
    0.00000E+00         0.00000E+00        -0.85709E+07
 
   -0.90088E+07        -0.10334E+06         0.00000E+00
   -0.10334E+06        -0.33772E+08         0.00000E+00
    0.00000E+00         0.00000E+00        -0.85562E+07
 
   -0.89454E+07        -0.10153E+06         0.00000E+00
   -0.10153E+06        -0.33767E+08         0.00000E+00
    0.00000E+00         0.00000E+00        -0.85425E+07
 
   -0.88890E+07        -0.93243E+05         0.00000E+00
   -0.93243E+05        -0.33760E+08         0.00000E+00
    0.00000E+00         0.00000E+00        -0.85297E+07
 
   -0.88379E+07        -0.80457E+05         0.00000E+00
   -0.80457E+05        -0.33752E+08         0.00000E+00
    0.00000E+00         0.00000E+00        -0.85180E+07
 
   -0.87906E+07        -0.64157E+05         0.00000E+00
   -0.64157E+05        -0.33746E+08         0.00000E+00
    0.00000E+00         0.00000E+00        -0.85073E+07
 
   -0.87455E+07        -0.44620E+05         0.00000E+00
   -0.44620E+05        -0.33742E+08         0.00000E+00
    0.00000E+00         0.00000E+00        -0.84974E+07
 
   -0.87009E+07        -0.21556E+05         0.00000E+00
   -0.21556E+05        -0.33740E+08         0.00000E+00
    0.00000E+00         0.00000E+00        -0.84883E+07
 
   -0.86557E+07         0.58967E+04         0.00000E+00
    0.58967E+04        -0.33743E+08         0.00000E+00
    0.00000E+00         0.00000E+00        -0.84797E+07
 
   -0.86091E+07         0.39276E+05         0.00000E+00
    0.39276E+05        -0.33750E+08         0.00000E+00
    0.00000E+00         0.00000E+00        -0.84718E+07
 
   -0.85612E+07         0.80902E+05         0.00000E+00
    0.80902E+05        -0.33762E+08         0.00000E+00
    0.00000E+00         0.00000E+00        -0.84646E+07
 
   -0.85137E+07         0.13372E+06         0.00000E+00
    0.13372E+06        -0.33777E+08         0.00000E+00
    0.00000E+00         0.00000E+00        -0.84582E+07
 
   -0.84705E+07         0.20057E+06         0.00000E+00
    0.20057E+06        -0.33794E+08         0.00000E+00
    0.00000E+00         0.00000E+00        -0.84530E+07
 
   -0.93921E+07        -0.31762E+05         0.00000E+00
   -0.31762E+05        -0.33876E+08         0.00000E+00
    0.00000E+00         0.00000E+00        -0.86535E+07
 
   -0.92902E+07        -0.73262E+05         0.00000E+00
   -0.73262E+05        -0.33876E+08         0.00000E+00
    0.00000E+00         0.00000E+00        -0.86332E+07
 
   -0.91954E+07        -0.91747E+05         0.00000E+00
   -0.91747E+05        -0.33872E+08         0.00000E+00
    0.00000E+00         0.00000E+00        -0.86135E+07
 
   -0.91130E+07        -0.95749E+05         0.00000E+00
   -0.95749E+05        -0.33863E+08         0.00000E+00
    0.00000E+00         0.00000E+00        -0.85951E+07
 
   -0.90425E+07        -0.91552E+05         0.00000E+00
   -0.91552E+05        -0.33850E+08         0.00000E+00
    0.00000E+00         0.00000E+00        -0.85785E+07
 
   -0.89816E+07        -0.82648E+05         0.00000E+00
   -0.82648E+05        -0.33836E+08         0.00000E+00
    0.00000E+00         0.00000E+00        -0.85636E+07
 
   -0.89273E+07        -0.70717E+05         0.00000E+00
   -0.70717E+05        -0.33823E+08         0.00000E+00
    0.00000E+00         0.00000E+00        -0.85501E+07
 
   -0.88772E+07        -0.56455E+05         0.00000E+00
   -0.56455E+05        -0.33812E+08         0.00000E+00
    0.00000E+00         0.00000E+00        -0.85378E+07
 
   -0.88292E+07        -0.39958E+05         0.00000E+00
   -0.39958E+05        -0.33804E+08         0.00000E+00
    0.00000E+00         0.00000E+00        -0.85266E+07
 
   -0.87812E+07        -0.20845E+05         0.00000E+00
   -0.20845E+05        -0.33799E+08         0.00000E+00
    0.00000E+00         0.00000E+00        -0.85161E+07
 
   -0.87314E+07         0.17877E+04         0.00000E+00
    0.17877E+04        -0.33800E+08         0.00000E+00
    0.00000E+00         0.00000E+00        -0.85063E+07
 
   -0.86781E+07         0.29604E+05         0.00000E+00
    0.29604E+05        -0.33807E+08         0.00000E+00
    0.00000E+00         0.00000E+00        -0.84969E+07
 
   -0.86202E+07         0.65504E+05         0.00000E+00
    0.65504E+05        -0.33820E+08         0.00000E+00
    0.00000E+00         0.00000E+00        -0.84880E+07
 
   -0.85588E+07         0.11392E+06         0.00000E+00
    0.11392E+06        -0.33840E+08         0.00000E+00
    0.00000E+00         0.00000E+00        -0.84797E+07
 
   -0.84983E+07         0.18001E+06         0.00000E+00
    0.18001E+06        -0.33864E+08         0.00000E+00
    0.00000E+00         0.00000E+00        -0.84724E+07
 
   -0.95551E+07        -0.32815E+05         0.00000E+00
   -0.32815E+05        -0.33982E+08         0.00000E+00
    0.00000E+00         0.00000E+00        -0.87075E+07
 
   -0.94229E+07        -0.69388E+05         0.00000E+00
   -0.69388E+05        -0.33979E+08         0.00000E+00
    0.00000E+00         0.00000E+00        -0.86804E+07
 
   -0.93097E+07        -0.80556E+05         0.00000E+00
   -0.80556E+05        -0.33967E+08         0.00000E+00
    0.00000E+00         0.00000E+00        -0.86553E+07
 
   -0.92179E+07        -0.79851E+05         0.00000E+00
   -0.79851E+05        -0.33948E+08         0.00000E+00
    0.00000E+00         0.00000E+00        -0.86331E+07
 
   -0.91426E+07        -0.74019E+05         0.00000E+00
   -0.74019E+05        -0.33927E+08         0.00000E+00
    0.00000E+00         0.00000E+00        -0.86138E+07
 
   -0.90788E+07        -0.65614E+05         0.00000E+00
   -0.65614E+05        -0.33906E+08         0.00000E+00
    0.00000E+00         0.00000E+00        -0.85969E+07
 
   -0.90226E+07        -0.55633E+05         0.00000E+00
   -0.55633E+05        -0.33887E+08         0.00000E+00
    0.00000E+00         0.00000E+00        -0.85818E+07
 
   -0.89708E+07        -0.44389E+05         0.00000E+00
   -0.44389E+05        -0.33871E+08         0.00000E+00
    0.00000E+00         0.00000E+00        -0.85683E+07
 
   -0.89209E+07        -0.31816E+05         0.00000E+00
   -0.31816E+05        -0.33859E+08         0.00000E+00
    0.00000E+00         0.00000E+00        -0.85559E+07
 
   -0.88704E+07        -0.17534E+05         0.00000E+00
   -0.17534E+05        -0.33851E+08         0.00000E+00
    0.00000E+00         0.00000E+00        -0.85444E+07
 
   -0.88169E+07        -0.76506E+03         0.00000E+00
   -0.76506E+03        -0.33850E+08         0.00000E+00
    0.00000E+00         0.00000E+00        -0.85334E+07
 
   -0.87578E+07         0.19942E+05         0.00000E+00
    0.19942E+05        -0.33855E+08         0.00000E+00
    0.00000E+00         0.00000E+00        -0.85226E+07
 
   -0.86902E+07         0.47406E+05         0.00000E+00
    0.47406E+05        -0.33869E+08         0.00000E+00
    0.00000E+00         0.00000E+00        -0.85119E+07
 
   -0.86125E+07         0.87595E+05         0.00000E+00
    0.87595E+05        -0.33894E+08         0.00000E+00
    0.00000E+00         0.00000E+00        -0.85013E+07
 
   -0.85288E+07         0.14985E+06         0.00000E+00
    0.14985E+06        -0.33927E+08         0.00000E+00
    0.00000E+00         0.00000E+00        -0.84913E+07
 
   -0.97186E+07        -0.31850E+05         0.00000E+00
   -0.31850E+05        -0.34092E+08         0.00000E+00
    0.00000E+00         0.00000E+00        -0.87621E+07
 
   -0.95497E+07        -0.55746E+05         0.00000E+00
   -0.55746E+05        -0.34079E+08         0.00000E+00
    0.00000E+00         0.00000E+00        -0.87257E+07
 
   -0.94217E+07        -0.57520E+05         0.00000E+00
   -0.57520E+05        -0.34052E+08         0.00000E+00
    0.00000E+00         0.00000E+00        -0.86948E+07
 
   -0.93247E+07        -0.53977E+05         0.00000E+00
   -0.53977E+05        -0.34022E+08         0.00000E+00
    0.00000E+00         0.00000E+00        -0.86693E+07
 
   -0.92471E+07        -0.48623E+05         0.00000E+00
   -0.48623E+05        -0.33992E+08         0.00000E+00
    0.00000E+00         0.00000E+00        -0.86478E+07
 
   -0.91820E+07        -0.42430E+05         0.00000E+00
   -0.42430E+05        -0.33964E+08         0.00000E+00
    0.00000E+00         0.00000E+00        -0.86293E+07
 
   -0.91249E+07        -0.35695E+05         0.00000E+00
   -0.35695E+05        -0.33941E+08         0.00000E+00
    0.00000E+00         0.00000E+00        -0.86131E+07
 
   -0.90722E+07        -0.28448E+05         0.00000E+00
   -0.28448E+05        -0.33921E+08         0.00000E+00
    0.00000E+00         0.00000E+00        -0.85986E+07
 
   -0.90212E+07        -0.20559E+05         0.00000E+00
   -0.20559E+05        -0.33906E+08         0.00000E+00
    0.00000E+00         0.00000E+00        -0.85854E+07
 
   -0.89691E+07        -0.11748E+05         0.00000E+00
   -0.11748E+05        -0.33896E+08         0.00000E+00
    0.00000E+00         0.00000E+00        -0.85731E+07
 
   -0.89131E+07        -0.15068E+04         0.00000E+00
   -0.15068E+04        -0.33893E+08         0.00000E+00
    0.00000E+00         0.00000E+00        -0.85612E+07
 
   -0.88499E+07         0.11108E+05         0.00000E+00
    0.11108E+05        -0.33897E+08         0.00000E+00
    0.00000E+00         0.00000E+00        -0.85493E+07
 
   -0.87747E+07         0.28028E+05         0.00000E+00
    0.28028E+05        -0.33910E+08         0.00000E+00
    0.00000E+00         0.00000E+00        -0.85370E+07
 
   -0.86802E+07         0.54132E+05         0.00000E+00
    0.54132E+05        -0.33937E+08         0.00000E+00
    0.00000E+00         0.00000E+00        -0.85235E+07
 
   -0.85650E+07         0.10554E+06         0.00000E+00
    0.10554E+06        -0.33983E+08         0.00000E+00
    0.00000E+00         0.00000E+00        -0.85097E+07
 
   -0.98716E+07        -0.20005E+05         0.00000E+00
   -0.20005E+05        -0.34194E+08         0.00000E+00
    0.00000E+00         0.00000E+00        -0.88131E+07
 
   -0.96672E+07        -0.23006E+05         0.00000E+00
   -0.23006E+05        -0.34157E+08         0.00000E+00
    0.00000E+00         0.00000E+00        -0.87648E+07
 
   -0.95348E+07        -0.21238E+05         0.00000E+00
   -0.21238E+05        -0.34116E+08         0.00000E+00
    0.00000E+00         0.00000E+00        -0.87301E+07
 
   -0.94362E+07        -0.19218E+05         0.00000E+00
   -0.19218E+05        -0.34076E+08         0.00000E+00
    0.00000E+00         0.00000E+00        -0.87025E+07
 
   -0.93580E+07        -0.17008E+05         0.00000E+00
   -0.17008E+05        -0.34041E+08         0.00000E+00
    0.00000E+00         0.00000E+00        -0.86798E+07
 
   -0.92926E+07        -0.14706E+05         0.00000E+00
   -0.14706E+05        -0.34010E+08         0.00000E+00
    0.00000E+00         0.00000E+00        -0.86605E+07
 
   -0.92352E+07        -0.12316E+05         0.00000E+00
   -0.12316E+05        -0.33983E+08         0.00000E+00
    0.00000E+00         0.00000E+00        -0.86437E+07
 
   -0.91822E+07        -0.98069E+04         0.00000E+00
   -0.98069E+04        -0.33961E+08         0.00000E+00
    0.00000E+00         0.00000E+00        -0.86287E+07
 
   -0.91307E+07        -0.71167E+04         0.00000E+00
   -0.71167E+04        -0.33945E+08         0.00000E+00
    0.00000E+00         0.00000E+00        -0.86150E+07
 
   -0.90778E+07        -0.41416E+04         0.00000E+00
   -0.41416E+04        -0.33933E+08         0.00000E+00
    0.00000E+00         0.00000E+00        -0.86023E+07
 
   -0.90207E+07        -0.70759E+03         0.00000E+00
   -0.70759E+03        -0.33929E+08         0.00000E+00
    0.00000E+00         0.00000E+00        -0.85899E+07
 
   -0.89554E+07         0.34991E+04         0.00000E+00
    0.34991E+04        -0.33932E+08         0.00000E+00
    0.00000E+00         0.00000E+00        -0.85774E+07
 
   -0.88761E+07         0.91570E+04         0.00000E+00
    0.91570E+04        -0.33944E+08         0.00000E+00
    0.00000E+00         0.00000E+00        -0.85641E+07
 
   -0.87724E+07         0.17805E+05         0.00000E+00
    0.17805E+05        -0.33971E+08         0.00000E+00
    0.00000E+00         0.00000E+00        -0.85487E+07
 
   -0.86141E+07         0.39560E+05         0.00000E+00
    0.39560E+05        -0.34025E+08         0.00000E+00
    0.00000E+00         0.00000E+00        -0.85279E+07
 
TENSORS stresstot double 
   -0.35028E+08        -0.40395E+02         0.00000E+00
   -0.40395E+02        -0.60000E+08         0.00000E+00
    0.00000E+00         0.00000E+00        -0.35520E+08
 
   -0.35081E+08        -0.92302E+02         0.00000E+00
   -0.92302E+02        -0.60000E+08         0.00000E+00
    0.00000E+00         0.00000E+00        -0.35530E+08
 
   -0.35132E+08        -0.86986E+02         0.00000E+00
   -0.86986E+02        -0.60000E+08         0.00000E+00
    0.00000E+00         0.00000E+00        -0.35540E+08
 
   -0.35179E+08        -0.55518E+01         0.00000E+00
   -0.55518E+01        -0.60001E+08         0.00000E+00
    0.00000E+00         0.00000E+00        -0.35550E+08
 
   -0.35224E+08         0.16702E+03         0.00000E+00
    0.16702E+03        -0.60000E+08         0.00000E+00
    0.00000E+00         0.00000E+00        -0.35559E+08
 
   -0.35267E+08         0.44205E+03         0.00000E+00
    0.44205E+03        -0.60000E+08         0.00000E+00
    0.00000E+00         0.00000E+00        -0.35567E+08
 
   -0.35308E+08         0.82744E+03         0.00000E+00
    0.82744E+03        -0.59999E+08         0.00000E+00
    0.00000E+00         0.00000E+00        -0.35575E+08
 
   -0.35347E+08         0.13280E+04         0.00000E+00
    0.13280E+04        -0.59996E+08         0.00000E+00
    0.00000E+00         0.00000E+00        -0.35583E+08
 
   -0.35385E+08         0.19457E+04         0.00000E+00
    0.19457E+04        -0.59993E+08         0.00000E+00
    0.00000E+00         0.00000E+00        -0.35589E+08
 
   -0.35422E+08         0.26804E+04         0.00000E+00
    0.26804E+04        -0.59989E+08         0.00000E+00
    0.00000E+00         0.00000E+00        -0.35596E+08
 
   -0.35458E+08         0.35297E+04         0.00000E+00
    0.35297E+04        -0.59982E+08         0.00000E+00
    0.00000E+00         0.00000E+00        -0.35602E+08
 
   -0.35494E+08         0.44899E+04         0.00000E+00
    0.44899E+04        -0.59974E+08         0.00000E+00
    0.00000E+00         0.00000E+00        -0.35608E+08
 
   -0.35531E+08         0.55562E+04         0.00000E+00
    0.55562E+04        -0.59964E+08         0.00000E+00
    0.00000E+00         0.00000E+00        -0.35613E+08
 
   -0.35568E+08         0.67232E+04         0.00000E+00
    0.67232E+04        -0.59952E+08         0.00000E+00
    0.00000E+00         0.00000E+00        -0.35618E+08
 
   -0.35606E+08         0.79858E+04         0.00000E+00
    0.79858E+04        -0.59937E+08         0.00000E+00
    0.00000E+00         0.00000E+00        -0.35622E+08
 
   -0.35028E+08        -0.12767E+03         0.00000E+00
   -0.12767E+03        -0.60000E+08         0.00000E+00
    0.00000E+00         0.00000E+00        -0.35517E+08
 
   -0.35081E+08        -0.29487E+03         0.00000E+00
   -0.29487E+03        -0.60000E+08         0.00000E+00
    0.00000E+00         0.00000E+00        -0.35528E+08
 
   -0.35132E+08        -0.28838E+03         0.00000E+00
   -0.28838E+03        -0.60000E+08         0.00000E+00
    0.00000E+00         0.00000E+00        -0.35538E+08
 
   -0.35179E+08        -0.51581E+02         0.00000E+00
   -0.51581E+02        -0.60001E+08         0.00000E+00
    0.00000E+00         0.00000E+00        -0.35548E+08
 
   -0.35224E+08         0.46046E+03         0.00000E+00
    0.46046E+03        -0.60001E+08         0.00000E+00
    0.00000E+00         0.00000E+00        -0.35557E+08
 
   -0.35266E+08         0.12816E+04         0.00000E+00
    0.12816E+04        -0.60000E+08         0.00000E+00
    0.00000E+00         0.00000E+00        -0.35565E+08
 
   -0.35307E+08         0.24353E+04         0.00000E+00
    0.24353E+04        -0.59999E+08         0.00000E+00
    0.00000E+00         0.00000E+00        -0.35573E+08
 
   -0.35346E+08         0.39357E+04         0.00000E+00
    0.39357E+04        -0.59997E+08         0.00000E+00
    0.00000E+00         0.00000E+00        -0.35580E+08
 
   -0.35383E+08         0.57888E+04         0.00000E+00
    0.57888E+04        -0.59994E+08         0.00000E+00
    0.00000E+00         0.00000E+00        -0.35587E+08
 
   -0.35420E+08         0.79935E+04         0.00000E+00
    0.79935E+04        -0.59989E+08         0.00000E+00
    0.00000E+00         0.00000E+00        -0.35593E+08
 
   -0.35456E+08         0.10543E+05         0.00000E+00
    0.10543E+05        -0.59983E+08         0.00000E+00
    0.00000E+00         0.00000E+00        -0.35599E+08
 
   -0.35492E+08         0.13425E+05         0.00000E+00
    0.13425E+05        -0.59975E+08         0.00000E+00
    0.00000E+00         0.00000E+00        -0.35605E+08
 
   -0.35528E+08         0.16626E+05         0.00000E+00
    0.16626E+05        -0.59965E+08         0.00000E+00
    0.00000E+00         0.00000E+00        -0.35610E+08
 
   -0.35565E+08         0.20129E+05         0.00000E+00
    0.20129E+05        -0.59953E+08         0.00000E+00
    0.00000E+00         0.00000E+00        -0.35615E+08
 
   -0.35603E+08         0.23918E+05         0.00000E+00
    0.23918E+05        -0.59938E+08         0.00000E+00
    0.00000E+00         0.00000E+00        -0.35620E+08
 
   -0.35028E+08        -0.23442E+03         0.00000E+00
   -0.23442E+03        -0.60000E+08         0.00000E+00
    0.00000E+00         0.00000E+00        -0.35513E+08
 
   -0.35082E+08        -0.55135E+03         0.00000E+00
   -0.55135E+03        -0.60000E+08         0.00000E+00
    0.00000E+00         0.00000E+00        -0.35523E+08
 
   -0.35132E+08        -0.57205E+03         0.00000E+00
   -0.57205E+03        -0.60001E+08         0.00000E+00
    0.00000E+00         0.00000E+00        -0.35533E+08
 
   -0.35179E+08        -0.20235E+03         0.00000E+00
   -0.20235E+03        -0.60001E+08         0.00000E+00
    0.00000E+00         0.00000E+00        -0.35543E+08
 
   -0.35223E+08         0.63222E+03         0.00000E+00
    0.63222E+03        -0.60001E+08         0.00000E+00
    0.00000E+00         0.00000E+00        -0.35552E+08
 
   -0.35265E+08         0.19875E+04         0.00000E+00
    0.19875E+04        -0.60001E+08         0.00000E+00
    0.00000E+00         0.00000E+00        -0.35560E+08
 
   -0.35305E+08         0.39021E+04         0.00000E+00
    0.39021E+04        -0.60000E+08         0.00000E+00
    0.00000E+00         0.00000E+00        -0.35568E+08
 
   -0.35343E+08         0.63988E+04         0.00000E+00
    0.63988E+04        -0.59998E+08         0.00000E+00
    0.00000E+00         0.00000E+00        -0.35575E+08
 
   -0.35381E+08         0.94870E+04         0.00000E+00
    0.94870E+04        -0.59995E+08         0.00000E+00
    0.00000E+00         0.00000E+00        -0.35582E+08
 
   -0.35417E+08         0.13164E+05         0.00000E+00
    0.13164E+05        -0.59991E+08         0.00000E+00
    0.00000E+00         0.00000E+00        -0.35588E+08
 
   -0.35453E+08         0.17417E+05         0.00000E+00
    0.17417E+05        -0.59985E+08         0.00000E+00
    0.00000E+00         0.00000E+00        -0.35594E+08
 
   -0.35488E+08         0.22227E+05         0.00000E+00
    0.22227E+05        -0.59977E+08         0.00000E+00
    0.00000E+00         0.00000E+00        -0.35600E+08
 
   -0.35524E+08         0.27568E+05         0.00000E+00
    0.27568E+05        -0.59967E+08         0.00000E+00
    0.00000E+00         0.00000E+00        -0.35605E+08
 
   -0.35560E+08         0.33412E+05         0.00000E+00
    0.33412E+05        -0.59955E+08         0.00000E+00
    0.00000E+00         0.00000E+00        -0.35610E+08
 
   -0.35598E+08         0.39731E+05         0.00000E+00
    0.39731E+05        -0.59941E+08         0.00000E+00
    0.00000E+00         0.00000E+00        -0.35614E+08
 
   -0.35029E+08        -0.37372E+03         0.00000E+00
   -0.37372E+03        -0.60000E+08         0.00000E+00
    0.00000E+00         0.00000E+00        -0.35505E+08
 
   -0.35082E+08        -0.89779E+03         0.00000E+00
   -0.89779E+03        -0.60000E+08         0.00000E+00
    0.00000E+00         0.00000E+00        -0.35516E+08
 
   -0.35131E+08        -0.99285E+03         0.00000E+00
   -0.99285E+03        -0.60001E+08         0.00000E+00
    0.00000E+00         0.00000E+00        -0.35526E+08
 
   -0.35178E+08        -0.52756E+03         0.00000E+00
   -0.52756E+03        -0.60001E+08         0.00000E+00
    0.00000E+00         0.00000E+00        -0.35536E+08
 
   -0.35222E+08         0.60147E+03         0.00000E+00
    0.60147E+03        -0.60002E+08         0.00000E+00
    0.00000E+00         0.00000E+00        -0.35544E+08
 
   -0.35263E+08         0.24713E+04         0.00000E+00
    0.24713E+04        -0.60002E+08         0.00000E+00
    0.00000E+00         0.00000E+00        -0.35553E+08
 
   -0.35302E+08         0.51344E+04         0.00000E+00
    0.51344E+04        -0.60001E+08         0.00000E+00
    0.00000E+00         0.00000E+00        -0.35560E+08
 
   -0.35340E+08         0.86217E+04         0.00000E+00
    0.86217E+04        -0.59999E+08         0.00000E+00
    0.00000E+00         0.00000E+00        -0.35567E+08
 
   -0.35376E+08         0.12944E+05         0.00000E+00
    0.12944E+05        -0.59997E+08         0.00000E+00
    0.00000E+00         0.00000E+00        -0.35574E+08
 
   -0.35412E+08         0.18097E+05         0.00000E+00
    0.18097E+05        -0.59993E+08         0.00000E+00
    0.00000E+00         0.00000E+00        -0.35580E+08
 
   -0.35447E+08         0.24062E+05         0.00000E+00
    0.24062E+05        -0.59987E+08         0.00000E+00
    0.00000E+00         0.00000E+00        -0.35586E+08
 
   -0.35482E+08         0.30807E+05         0.00000E+00
    0.30807E+05        -0.59979E+08         0.00000E+00
    0.00000E+00         0.00000E+00        -0.35592E+08
 
   -0.35517E+08         0.38298E+05         0.00000E+00
    0.38298E+05        -0.59970E+08         0.00000E+00
    0.00000E+00         0.00000E+00        -0.35597E+08
 
   -0.35553E+08         0.46492E+05         0.00000E+00
    0.46492E+05        -0.59958E+08         0.00000E+00
    0.00000E+00         0.00000E+00        -0.35602E+08
 
   -0.35590E+08         0.55348E+05         0.00000E+00
    0.55348E+05        -0.59944E+08         0.00000E+00
    0.00000E+00         0.00000E+00        -0.35606E+08
 
   -0.35030E+08        -0.55869E+03         0.00000E+00
   -0.55869E+03        -0.60000E+08         0.00000E+00
    0.00000E+00         0.00000E+00        -0.35496E+08
 
   -0.35082E+08        -0.13703E+04         0.00000E+00
   -0.13703E+04        -0.60001E+08         0.00000E+00
    0.00000E+00         0.00000E+00        -0.35507E+08
 
   -0.35131E+08        -0.16056E+04         0.00000E+00
   -0.16056E+04        -0.60001E+08         0.00000E+00
    0.00000E+00         0.00000E+00        -0.35517E+08
 
   -0.35177E+08        -0.10966E+04         0.00000E+00
   -0.10966E+04        -0.60002E+08         0.00000E+00
    0.00000E+00         0.00000E+00        -0.35526E+08
 
   -0.35220E+08         0.28797E+03         0.00000E+00
    0.28797E+03        -0.60002E+08         0.00000E+00
    0.00000E+00         0.00000E+00        -0.35535E+08
 
   -0.35261E+08         0.26451E+04         0.00000E+00
    0.26451E+04        -0.60003E+08         0.00000E+00
    0.00000E+00         0.00000E+00        -0.35543E+08
 
   -0.35299E+08         0.60401E+04         0.00000E+00
    0.60401E+04        -0.60002E+08         0.00000E+00
    0.00000E+00         0.00000E+00        -0.35550E+08
 
   -0.35336E+08         0.10510E+05         0.00000E+00
    0.10510E+05        -0.60001E+08         0.00000E+00
    0.00000E+00         0.00000E+00        -0.35557E+08
 
   -0.35371E+08         0.16067E+05         0.00000E+00
    0.16067E+05        -0.59999E+08         0.00000E+00
    0.00000E+00         0.00000E+00        -0.35564E+08
 
   -0.35406E+08         0.22701E+05         0.00000E+00
    0.22701E+05        -0.59995E+08         0.00000E+00
    0.00000E+00         0.00000E+00        -0.35570E+08
 
   -0.35440E+08         0.30386E+05         0.00000E+00
    0.30386E+05        -0.59990E+08         0.00000E+00
    0.00000E+00         0.00000E+00        -0.35576E+08
 
   -0.35474E+08         0.39080E+05         0.00000E+00
    0.39080E+05        -0.59983E+08         0.00000E+00
    0.00000E+00         0.00000E+00        -0.35581E+08
 
   -0.35508E+08         0.48733E+05         0.00000E+00
    0.48733E+05        -0.59974E+08         0.00000E+00
    0.00000E+00         0.00000E+00        -0.35586E+08
 
   -0.35543E+08         0.59290E+05         0.00000E+00
    0.59290E+05        -0.59962E+08         0.00000E+00
    0.00000E+00         0.00000E+00        -0.35591E+08
 
   -0.35579E+08         0.70693E+05         0.00000E+00
    0.70693E+05        -0.59948E+08         0.00000E+00
    0.00000E+00         0.00000E+00        -0.35595E+08
 
   -0.35031E+08        -0.80261E+03         0.00000E+00
   -0.80261E+03        -0.60000E+08         0.00000E+00
    0.00000E+00         0.00000E+00        -0.35484E+08
 
   -0.35083E+08        -0.20052E+04         0.00000E+00
   -0.20052E+04        -0.60001E+08         0.00000E+00
    0.00000E+00         0.00000E+00        -0.35495E+08
 
   -0.35131E+08        -0.24650E+04         0.00000E+00
   -0.24650E+04        -0.60002E+08         0.00000E+00
    0.00000E+00         0.00000E+00        -0.35505E+08
 
   -0.35176E+08        -0.19784E+04         0.00000E+00
   -0.19784E+04        -0.60003E+08         0.00000E+00
    0.00000E+00         0.00000E+00        -0.35514E+08
 
   -0.35218E+08        -0.38756E+03         0.00000E+00
   -0.38756E+03        -0.60004E+08         0.00000E+00
    0.00000E+00         0.00000E+00        -0.35522E+08
 
   -0.35257E+08         0.24226E+04         0.00000E+00
    0.24226E+04        -0.60004E+08         0.00000E+00
    0.00000E+00         0.00000E+00        -0.35530E+08
 
   -0.35295E+08         0.65284E+04         0.00000E+00
    0.65284E+04        -0.60004E+08         0.00000E+00
    0.00000E+00         0.00000E+00        -0.35538E+08
 
   -0.35330E+08         0.11971E+05         0.00000E+00
    0.11971E+05        -0.60004E+08         0.00000E+00
    0.00000E+00         0.00000E+00        -0.35545E+08
 
   -0.35364E+08         0.18761E+05         0.00000E+00
    0.18761E+05        -0.60002E+08         0.00000E+00
    0.00000E+00         0.00000E+00        -0.35551E+08
 
   -0.35398E+08         0.26884E+05         0.00000E+00
    0.26884E+05        -0.59999E+08         0.00000E+00
    0.00000E+00         0.00000E+00        -0.35557E+08
 
   -0.35431E+08         0.36302E+05         0.00000E+00
    0.36302E+05        -0.59994E+08         0.00000E+00
    0.00000E+00         0.00000E+00        -0.35563E+08
 
   -0.35464E+08         0.46960E+05         0.00000E+00
    0.46960E+05        -0.59987E+08         0.00000E+00
    0.00000E+00         0.00000E+00        -0.35568E+08
 
   -0.35497E+08         0.58794E+05         0.00000E+00
    0.58794E+05        -0.59978E+08         0.00000E+00
    0.00000E+00         0.00000E+00        -0.35573E+08
 
   -0.35531E+08         0.71730E+05         0.00000E+00
    0.71730E+05        -0.59967E+08         0.00000E+00
    0.00000E+00         0.00000E+00        -0.35578E+08
 
   -0.35566E+08         0.85692E+05         0.00000E+00
    0.85692E+05        -0.59954E+08         0.00000E+00
    0.00000E+00         0.00000E+00        -0.35582E+08
 
   -0.35033E+08        -0.11188E+04         0.00000E+00
   -0.11188E+04        -0.60000E+08         0.00000E+00
    0.00000E+00         0.00000E+00        -0.35470E+08
 
   -0.35084E+08        -0.28385E+04         0.00000E+00
   -0.28385E+04        -0.60001E+08         0.00000E+00
    0.00000E+00         0.00000E+00        -0.35481E+08
 
   -0.35131E+08        -0.36250E+04         0.00000E+00
   -0.36250E+04        -0.60002E+08         0.00000E+00
    0.00000E+00         0.00000E+00        -0.35490E+08
 
   -0.35175E+08        -0.32406E+04         0.00000E+00
   -0.32406E+04        -0.60003E+08         0.00000E+00
    0.00000E+00         0.00000E+00        -0.35499E+08
 
   -0.35216E+08        -0.15028E+04         0.00000E+00
   -0.15028E+04        -0.60005E+08         0.00000E+00
    0.00000E+00         0.00000E+00        -0.35508E+08
 
   -0.35254E+08         0.17196E+04         0.00000E+00
    0.17196E+04        -0.60006E+08         0.00000E+00
    0.00000E+00         0.00000E+00        -0.35516E+08
 
   -0.35289E+08         0.65111E+04         0.00000E+00
    0.65111E+04        -0.60007E+08         0.00000E+00
    0.00000E+00         0.00000E+00        -0.35523E+08
 
   -0.35323E+08         0.12915E+05         0.00000E+00
    0.12915E+05        -0.60006E+08         0.00000E+00
    0.00000E+00         0.00000E+00        -0.35530E+08
 
   -0.35356E+08         0.20939E+05         0.00000E+00
    0.20939E+05        -0.60005E+08         0.00000E+00
    0.00000E+00         0.00000E+00        -0.35536E+08
 
   -0.35388E+08         0.30558E+05         0.00000E+00
    0.30558E+05        -0.60003E+08         0.00000E+00
    0.00000E+00         0.00000E+00        -0.35542E+08
 
   -0.35420E+08         0.41724E+05         0.00000E+00
    0.41724E+05        -0.59998E+08         0.00000E+00
    0.00000E+00         0.00000E+00        -0.35547E+08
 
   -0.35451E+08         0.54367E+05         0.00000E+00
    0.54367E+05        -0.59992E+08         0.00000E+00
    0.00000E+00         0.00000E+00        -0.35552E+08
 
   -0.35484E+08         0.68403E+05         0.00000E+00
    0.68403E+05        -0.59984E+08         0.00000E+00
    0.00000E+00         0.00000E+00        -0.35557E+08
 
   -0.35516E+08         0.83737E+05         0.00000E+00
    0.83737E+05        -0.59973E+08         0.00000E+00
    0.00000E+00         0.00000E+00        -0.35562E+08
 
   -0.35550E+08         0.10028E+06         0.00000E+00
    0.10028E+06        -0.59960E+08         0.00000E+00
    0.00000E+00         0.00000E+00        -0.35566E+08
 
   -0.35035E+08        -0.15205E+04         0.00000E+00
   -0.15205E+04        -0.60000E+08         0.00000E+00
    0.00000E+00         0.00000E+00        -0.35454E+08
 
   -0.35086E+08        -0.39061E+04         0.00000E+00
   -0.39061E+04        -0.60001E+08         0.00000E+00
    0.00000E+00         0.00000E+00        -0.35464E+08
 
   -0.35132E+08        -0.51390E+04         0.00000E+00
   -0.51390E+04        -0.60003E+08         0.00000E+00
    0.00000E+00         0.00000E+00        -0.35474E+08
 
   -0.35174E+08        -0.49494E+04         0.00000E+00
   -0.49494E+04        -0.60004E+08         0.00000E+00
    0.00000E+00         0.00000E+00        -0.35483E+08
 
   -0.35213E+08        -0.31328E+04         0.00000E+00
   -0.31328E+04        -0.60006E+08         0.00000E+00
    0.00000E+00         0.00000E+00        -0.35491E+08
 
   -0.35249E+08         0.45490E+03         0.00000E+00
    0.45490E+03        -0.60008E+08         0.00000E+00
    0.00000E+00         0.00000E+00        -0.35498E+08
 
   -0.35283E+08         0.59038E+04         0.00000E+00
    0.59038E+04        -0.60009E+08         0.00000E+00
    0.00000E+00         0.00000E+00        -0.35505E+08
 
   -0.35316E+08         0.13256E+05         0.00000E+00
    0.13256E+05        -0.60010E+08         0.00000E+00
    0.00000E+00         0.00000E+00        -0.35512E+08
 
   -0.35347E+08         0.22513E+05         0.00000E+00
    0.22513E+05        -0.60009E+08         0.00000E+00
    0.00000E+00         0.00000E+00        -0.35518E+08
 
   -0.35377E+08         0.33640E+05         0.00000E+00
    0.33640E+05        -0.60007E+08         0.00000E+00
    0.00000E+00         0.00000E+00        -0.35524E+08
 
   -0.35407E+08         0.46572E+05         0.00000E+00
    0.46572E+05        -0.60004E+08         0.00000E+00
    0.00000E+00         0.00000E+00        -0.35529E+08
 
   -0.35437E+08         0.61221E+05         0.00000E+00
    0.61221E+05        -0.59998E+08         0.00000E+00
    0.00000E+00         0.00000E+00        -0.35534E+08
 
   -0.35468E+08         0.77484E+05         0.00000E+00
    0.77484E+05        -0.59990E+08         0.00000E+00
    0.00000E+00         0.00000E+00        -0.35538E+08
 
   -0.35499E+08         0.95243E+05         0.00000E+00
    0.95243E+05        -0.59980E+08         0.00000E+00
    0.00000E+00         0.00000E+00        -0.35543E+08
 
   -0.35532E+08         0.11438E+06         0.00000E+00
    0.11438E+06        -0.59968E+08         0.00000E+00
    0.00000E+00         0.00000E+00        -0.35547E+08
 
   -0.35038E+08        -0.20211E+04         0.00000E+00
   -0.20211E+04        -0.60000E+08         0.00000E+00
    0.00000E+00         0.00000E+00        -0.35435E+08
 
   -0.35088E+08        -0.52431E+04         0.00000E+00
   -0.52431E+04        -0.60001E+08         0.00000E+00
    0.00000E+00         0.00000E+00        -0.35446E+08
 
   -0.35133E+08        -0.70585E+04         0.00000E+00
   -0.70585E+04        -0.60003E+08         0.00000E+00
    0.00000E+00         0.00000E+00        -0.35455E+08
 
   -0.35173E+08        -0.71680E+04         0.00000E+00
   -0.71680E+04        -0.60005E+08         0.00000E+00
    0.00000E+00         0.00000E+00        -0.35463E+08
 
   -0.35210E+08        -0.53490E+04         0.00000E+00
   -0.53490E+04        -0.60008E+08         0.00000E+00
    0.00000E+00         0.00000E+00        -0.35471E+08
 
   -0.35245E+08        -0.14479E+04         0.00000E+00
   -0.14479E+04        -0.60010E+08         0.00000E+00
    0.00000E+00         0.00000E+00        -0.35479E+08
 
   -0.35277E+08         0.46273E+04         0.00000E+00
    0.46273E+04        -0.60012E+08         0.00000E+00
    0.00000E+00         0.00000E+00        -0.35485E+08
 
   -0.35307E+08         0.12914E+05         0.00000E+00
    0.12914E+05        -0.60014E+08         0.00000E+00
    0.00000E+00         0.00000E+00        -0.35492E+08
 
   -0.35336E+08         0.23404E+05         0.00000E+00
    0.23404E+05        -0.60014E+08         0.00000E+00
    0.00000E+00         0.00000E+00        -0.35498E+08
 
   -0.35364E+08         0.36049E+05         0.00000E+00
    0.36049E+05        -0.60012E+08         0.00000E+00
    0.00000E+00         0.00000E+00        -0.35503E+08
 
   -0.35392E+08         0.50767E+05         0.00000E+00
    0.50767E+05        -0.60009E+08         0.00000E+00
    0.00000E+00         0.00000E+00        -0.35508E+08
 
   -0.35420E+08         0.67450E+05         0.00000E+00
    0.67450E+05        -0.60005E+08         0.00000E+00
    0.00000E+00         0.00000E+00        -0.35513E+08
 
   -0.35449E+08         0.85968E+05         0.00000E+00
    0.85968E+05        -0.59998E+08         0.00000E+00
    0.00000E+00         0.00000E+00        -0.35517E+08
 
   -0.35479E+08         0.10618E+06         0.00000E+00
    0.10618E+06        -0.59988E+08         0.00000E+00
    0.00000E+00         0.00000E+00        -0.35521E+08
 
   -0.35511E+08         0.12794E+06         0.00000E+00
    0.12794E+06        -0.59976E+08         0.00000E+00
    0.00000E+00         0.00000E+00        -0.35525E+08
 
   -0.35043E+08        -0.26335E+04         0.00000E+00
   -0.26335E+04        -0.60000E+08         0.00000E+00
    0.00000E+00         0.00000E+00        -0.35415E+08
 
   -0.35091E+08        -0.68834E+04         0.00000E+00
   -0.68834E+04        -0.60002E+08         0.00000E+00
    0.00000E+00         0.00000E+00        -0.35425E+08
 
   -0.35134E+08        -0.94322E+04         0.00000E+00
   -0.94322E+04        -0.60004E+08         0.00000E+00
    0.00000E+00         0.00000E+00        -0.35434E+08
 
   -0.35173E+08        -0.99557E+04         0.00000E+00
   -0.99557E+04        -0.60007E+08         0.00000E+00
    0.00000E+00         0.00000E+00        -0.35442E+08
 
   -0.35208E+08        -0.82172E+04         0.00000E+00
   -0.82172E+04        -0.60010E+08         0.00000E+00
    0.00000E+00         0.00000E+00        -0.35450E+08
 
   -0.35240E+08        -0.40586E+04         0.00000E+00
   -0.40586E+04        -0.60013E+08         0.00000E+00
    0.00000E+00         0.00000E+00        -0.35457E+08
 
   -0.35269E+08         0.26094E+04         0.00000E+00
    0.26094E+04        -0.60016E+08         0.00000E+00
    0.00000E+00         0.00000E+00        -0.35463E+08
 
   -0.35297E+08         0.11816E+05         0.00000E+00
    0.11816E+05        -0.60018E+08         0.00000E+00
    0.00000E+00         0.00000E+00        -0.35469E+08
 
   -0.35323E+08         0.23540E+05         0.00000E+00
    0.23540E+05        -0.60019E+08         0.00000E+00
    0.00000E+00         0.00000E+00        -0.35475E+08
 
   -0.35349E+08         0.37715E+05         0.00000E+00
    0.37715E+05        -0.60018E+08         0.00000E+00
    0.00000E+00         0.00000E+00        -0.35480E+08
 
   -0.35375E+08         0.54240E+05         0.00000E+00
    0.54240E+05        -0.60016E+08         0.00000E+00
    0.00000E+00         0.00000E+00        -0.35484E+08
 
   -0.35402E+08         0.72983E+05         0.00000E+00
    0.72983E+05        -0.60012E+08         0.00000E+00
    0.00000E+00         0.00000E+00        -0.35489E+08
 
   -0.35429E+08         0.93790E+05         0.00000E+00
    0.93790E+05        -0.60005E+08         0.00000E+00
    0.00000E+00         0.00000E+00        -0.35493E+08
 
   -0.35457E+08         0.11649E+06         0.00000E+00
    0.11649E+06        -0.59997E+08         0.00000E+00
    0.00000E+00         0.00000E+00        -0.35497E+08
 
   -0.35487E+08         0.14089E+06         0.00000E+00
    0.14089E+06        -0.59985E+08         0.00000E+00
    0.00000E+00         0.00000E+00        -0.35501E+08
 
   -0.35048E+08        -0.33700E+04         0.00000E+00
   -0.33700E+04        -0.60000E+08         0.00000E+00
    0.00000E+00         0.00000E+00        -0.35392E+08
 
   -0.35095E+08        -0.88585E+04         0.00000E+00
   -0.88585E+04        -0.60002E+08         0.00000E+00
    0.00000E+00         0.00000E+00        -0.35402E+08
 
   -0.35136E+08        -0.12305E+05         0.00000E+00
   -0.12305E+05        -0.60005E+08         0.00000E+00
    0.00000E+00         0.00000E+00        -0.35410E+08
 
   -0.35172E+08        -0.13366E+05         0.00000E+00
   -0.13366E+05        -0.60008E+08         0.00000E+00
    0.00000E+00         0.00000E+00        -0.35418E+08
 
   -0.35205E+08        -0.11796E+05         0.00000E+00
   -0.11796E+05        -0.60012E+08         0.00000E+00
    0.00000E+00         0.00000E+00        -0.35425E+08
 
   -0.35234E+08        -0.74383E+04         0.00000E+00
   -0.74383E+04        -0.60016E+08         0.00000E+00
    0.00000E+00         0.00000E+00        -0.35432E+08
 
   -0.35261E+08        -0.21225E+03         0.00000E+00
   -0.21225E+03        -0.60019E+08         0.00000E+00
    0.00000E+00         0.00000E+00        -0.35438E+08
 
   -0.35286E+08         0.98984E+04         0.00000E+00
    0.98984E+04        -0.60022E+08         0.00000E+00
    0.00000E+00         0.00000E+00        -0.35444E+08
 
   -0.35310E+08         0.22855E+05         0.00000E+00
    0.22855E+05        -0.60024E+08         0.00000E+00
    0.00000E+00         0.00000E+00        -0.35449E+08
 
   -0.35333E+08         0.38572E+05         0.00000E+00
    0.38572E+05        -0.60024E+08         0.00000E+00
    0.00000E+00         0.00000E+00        -0.35454E+08
 
   -0.35357E+08         0.56925E+05         0.00000E+00
    0.56925E+05        -0.60023E+08         0.00000E+00
    0.00000E+00         0.00000E+00        -0.35458E+08
 
   -0.35381E+08         0.77758E+05         0.00000E+00
    0.77758E+05        -0.60019E+08         0.00000E+00
    0.00000E+00         0.00000E+00        -0.35462E+08
 
   -0.35406E+08         0.10089E+06         0.00000E+00
    0.10089E+06        -0.60014E+08         0.00000E+00
    0.00000E+00         0.00000E+00        -0.35466E+08
 
   -0.35432E+08         0.12611E+06         0.00000E+00
    0.12611E+06        -0.60006E+08         0.00000E+00
    0.00000E+00         0.00000E+00        -0.35470E+08
 
   -0.35460E+08         0.15320E+06         0.00000E+00
    0.15320E+06        -0.59995E+08         0.00000E+00
    0.00000E+00         0.00000E+00        -0.35473E+08
 
   -0.35056E+08        -0.42422E+04         0.00000E+00
   -0.42422E+04        -0.60000E+08         0.00000E+00
    0.00000E+00         0.00000E+00        -0.35367E+08
 
   -0.35100E+08        -0.11197E+05         0.00000E+00
   -0.11197E+05        -0.60002E+08         0.00000E+00
    0.00000E+00         0.00000E+00        -0.35376E+08
 
   -0.35138E+08        -0.15716E+05         0.00000E+00
   -0.15716E+05        -0.60005E+08         0.00000E+00
    0.00000E+00         0.00000E+00        -0.35385E+08
 
   -0.35172E+08        -0.17443E+05         0.00000E+00
   -0.17443E+05        -0.60009E+08         0.00000E+00
    0.00000E+00         0.00000E+00        -0.35392E+08
 
   -0.35202E+08        -0.16132E+05         0.00000E+00
   -0.16132E+05        -0.60014E+08         0.00000E+00
    0.00000E+00         0.00000E+00        -0.35399E+08
 
   -0.35228E+08        -0.11636E+05         0.00000E+00
   -0.11636E+05        -0.60019E+08         0.00000E+00
    0.00000E+00         0.00000E+00        -0.35405E+08
 
   -0.35252E+08        -0.38868E+04         0.00000E+00
   -0.38868E+04        -0.60023E+08         0.00000E+00
    0.00000E+00         0.00000E+00        -0.35411E+08
 
   -0.35274E+08         0.71114E+04         0.00000E+00
    0.71114E+04        -0.60027E+08         0.00000E+00
    0.00000E+00         0.00000E+00        -0.35416E+08
 
   -0.35295E+08         0.21299E+05         0.00000E+00
    0.21299E+05        -0.60029E+08         0.00000E+00
    0.00000E+00         0.00000E+00        -0.35421E+08
 
   -0.35315E+08         0.38568E+05         0.00000E+00
    0.38568E+05        -0.60031E+08         0.00000E+00
    0.00000E+00         0.00000E+00        -0.35425E+08
 
   -0.35336E+08         0.58769E+05         0.00000E+00
    0.58769E+05        -0.60030E+08         0.00000E+00
    0.00000E+00         0.00000E+00        -0.35429E+08
 
   -0.35358E+08         0.81719E+05         0.00000E+00
    0.81719E+05        -0.60028E+08         0.00000E+00
    0.00000E+00         0.00000E+00        -0.35433E+08
 
   -0.35380E+08         0.10720E+06         0.00000E+00
    0.10720E+06        -0.60023E+08         0.00000E+00
    0.00000E+00         0.00000E+00        -0.35436E+08
 
   -0.35405E+08         0.13498E+06         0.00000E+00
    0.13498E+06        -0.60016E+08         0.00000E+00
    0.00000E+00         0.00000E+00        -0.35440E+08
 
   -0.35431E+08         0.16480E+06         0.00000E+00
    0.16480E+06        -0.60006E+08         0.00000E+00
    0.00000E+00         0.00000E+00        -0.35443E+08
 
   -0.35065E+08        -0.52602E+04         0.00000E+00
   -0.52602E+04        -0.60001E+08         0.00000E+00
    0.00000E+00         0.00000E+00        -0.35340E+08
 
   -0.35106E+08        -0.13924E+05         0.00000E+00
   -0.13924E+05        -0.60003E+08         0.00000E+00
    0.00000E+00         0.00000E+00        -0.35349E+08
 
   -0.35142E+08        -0.19697E+05         0.00000E+00
   -0.19697E+05        -0.60006E+08         0.00000E+00
    0.00000E+00         0.00000E+00        -0.35357E+08
 
   -0.35173E+08        -0.22221E+05         0.00000E+00
   -0.22221E+05        -0.60011E+08         0.00000E+00
    0.00000E+00         0.00000E+00        -0.35364E+08
 
   -0.35199E+08        -0.21260E+05         0.00000E+00
   -0.21260E+05        -0.60016E+08         0.00000E+00
    0.00000E+00         0.00000E+00        -0.35370E+08
 
   -0.35222E+08        -0.16683E+05         0.00000E+00
   -0.16683E+05        -0.60022E+08         0.00000E+00
    0.00000E+00         0.00000E+00        -0.35376E+08
 
   -0.35242E+08        -0.84463E+04         0.00000E+00
   -0.84463E+04        -0.60027E+08         0.00000E+00
    0.00000E+00         0.00000E+00        -0.35381E+08
 
   -0.35261E+08         0.34219E+04         0.00000E+00
    0.34219E+04        -0.60032E+08         0.00000E+00
    0.00000E+00         0.00000E+00        -0.35386E+08
 
   -0.35278E+08         0.18836E+05         0.00000E+00
    0.18836E+05        -0.60035E+08         0.00000E+00
    0.00000E+00         0.00000E+00        -0.35390E+08
 
   -0.35296E+08         0.37662E+05         0.00000E+00
    0.37662E+05        -0.60037E+08         0.00000E+00
    0.00000E+00         0.00000E+00        -0.35394E+08
 
   -0.35314E+08         0.59726E+05         0.00000E+00
    0.59726E+05        -0.60038E+08         0.00000E+00
    0.00000E+00         0.00000E+00        -0.35397E+08
 
   -0.35332E+08         0.84817E+05         0.00000E+00
    0.84817E+05        -0.60036E+08         0.00000E+00
    0.00000E+00         0.00000E+00        -0.35401E+08
 
   -0.35353E+08         0.11269E+06         0.00000E+00
    0.11269E+06        -0.60032E+08         0.00000E+00
    0.00000E+00         0.00000E+00        -0.35404E+08
 
   -0.35375E+08         0.14307E+06         0.00000E+00
    0.14307E+06        -0.60026E+08         0.00000E+00
    0.00000E+00         0.00000E+00        -0.35407E+08
 
   -0.35399E+08         0.17566E+06         0.00000E+00
    0.17566E+06        -0.60017E+08         0.00000E+00
    0.00000E+00         0.00000E+00        -0.35410E+08
 
   -0.35076E+08        -0.64325E+04         0.00000E+00
   -0.64325E+04        -0.60001E+08         0.00000E+00
    0.00000E+00         0.00000E+00        -0.35311E+08
 
   -0.35115E+08        -0.17056E+05         0.00000E+00
   -0.17056E+05        -0.60003E+08         0.00000E+00
    0.00000E+00         0.00000E+00        -0.35320E+08
 
   -0.35147E+08        -0.24268E+05         0.00000E+00
   -0.24268E+05        -0.60007E+08         0.00000E+00
    0.00000E+00         0.00000E+00        -0.35327E+08
 
   -0.35174E+08        -0.27719E+05         0.00000E+00
   -0.27719E+05        -0.60012E+08         0.00000E+00
    0.00000E+00         0.00000E+00        -0.35333E+08
 
   -0.35196E+08        -0.27194E+05         0.00000E+00
   -0.27194E+05        -0.60019E+08         0.00000E+00
    0.00000E+00         0.00000E+00        -0.35339E+08
 
   -0.35215E+08        -0.22592E+05         0.00000E+00
   -0.22592E+05        -0.60025E+08         0.00000E+00
    0.00000E+00         0.00000E+00        -0.35344E+08
 
   -0.35232E+08        -0.13900E+05         0.00000E+00
   -0.13900E+05        -0.60031E+08         0.00000E+00
    0.00000E+00         0.00000E+00        -0.35349E+08
 
   -0.35246E+08        -0.11810E+04         0.00000E+00
   -0.11810E+04        -0.60036E+08         0.00000E+00
    0.00000E+00         0.00000E+00        -0.35353E+08
 
   -0.35260E+08         0.15450E+05         0.00000E+00
    0.15450E+05        -0.60041E+08         0.00000E+00
    0.00000E+00         0.00000E+00        -0.35356E+08
 
   -0.35274E+08         0.35832E+05         0.00000E+00
    0.35832E+05        -0.60044E+08         0.00000E+00
    0.00000E+00         0.00000E+00        -0.35360E+08
 
   -0.35289E+08         0.59765E+05         0.00000E+00
    0.59765E+05        -0.60045E+08         0.00000E+00
    0.00000E+00         0.00000E+00        -0.35363E+08
 
   -0.35305E+08         0.87012E+05         0.00000E+00
    0.87012E+05        -0.60045E+08         0.00000E+00
    0.00000E+00         0.00000E+00        -0.35366E+08
 
   -0.35322E+08         0.11730E+06         0.00000E+00
    0.11730E+06        -0.60042E+08         0.00000E+00
    0.00000E+00         0.00000E+00        -0.35369E+08
 
   -0.35342E+08         0.15032E+06         0.00000E+00
    0.15032E+06        -0.60036E+08         0.00000E+00
    0.00000E+00         0.00000E+00        -0.35372E+08
 
   -0.35364E+08         0.18572E+06         0.00000E+00
    0.18572E+06        -0.60028E+08         0.00000E+00
    0.00000E+00         0.00000E+00        -0.35374E+08
 
   -0.35089E+08        -0.77649E+04         0.00000E+00
   -0.77649E+04        -0.60001E+08         0.00000E+00
    0.00000E+00         0.00000E+00        -0.35280E+08
 
   -0.35124E+08        -0.20604E+05         0.00000E+00
   -0.20604E+05        -0.60003E+08         0.00000E+00
    0.00000E+00         0.00000E+00        -0.35288E+08
 
   -0.35153E+08        -0.29437E+05         0.00000E+00
   -0.29437E+05        -0.60008E+08         0.00000E+00
    0.00000E+00         0.00000E+00        -0.35295E+08
 
   -0.35176E+08        -0.33936E+05         0.00000E+00
   -0.33936E+05        -0.60014E+08         0.00000E+00
    0.00000E+00         0.00000E+00        -0.35300E+08
 
   -0.35194E+08        -0.33925E+05         0.00000E+00
   -0.33925E+05        -0.60021E+08         0.00000E+00
    0.00000E+00         0.00000E+00        -0.35305E+08
 
   -0.35208E+08        -0.29345E+05         0.00000E+00
   -0.29345E+05        -0.60028E+08         0.00000E+00
    0.00000E+00         0.00000E+00        -0.35310E+08
 
   -0.35221E+08        -0.20229E+05         0.00000E+00
   -0.20229E+05        -0.60035E+08         0.00000E+00
    0.00000E+00         0.00000E+00        -0.35314E+08
 
   -0.35231E+08        -0.66802E+04         0.00000E+00
   -0.66802E+04        -0.60041E+08         0.00000E+00
    0.00000E+00         0.00000E+00        -0.35317E+08
 
   -0.35241E+08         0.11151E+05         0.00000E+00
    0.11151E+05        -0.60047E+08         0.00000E+00
    0.00000E+00         0.00000E+00        -0.35320E+08
 
   -0.35251E+08         0.33075E+05         0.00000E+00
    0.33075E+05        -0.60051E+08         0.00000E+00
    0.00000E+00         0.00000E+00        -0.35323E+08
 
   -0.35262E+08         0.58868E+05         0.00000E+00
    0.58868E+05        -0.60053E+08         0.00000E+00
    0.00000E+00         0.00000E+00        -0.35326E+08
 
   -0.35275E+08         0.88273E+05         0.00000E+00
    0.88273E+05        -0.60053E+08         0.00000E+00
    0.00000E+00         0.00000E+00        -0.35328E+08
 
   -0.35289E+08         0.12099E+06         0.00000E+00
    0.12099E+06        -0.60051E+08         0.00000E+00
    0.00000E+00         0.00000E+00        -0.35331E+08
 
   -0.35306E+08         0.15668E+06         0.00000E+00
    0.15668E+06        -0.60047E+08         0.00000E+00
    0.00000E+00         0.00000E+00        -0.35333E+08
 
   -0.35326E+08         0.19496E+06         0.00000E+00
    0.19496E+06        -0.60039E+08         0.00000E+00
    0.00000E+00         0.00000E+00        -0.35336E+08
 
   -0.35105E+08        -0.92601E+04         0.00000E+00
   -0.92601E+04        -0.60001E+08         0.00000E+00
    0.00000E+00         0.00000E+00        -0.35248E+08
 
   -0.35136E+08        -0.24568E+05         0.00000E+00
   -0.24568E+05        -0.60004E+08         0.00000E+00
    0.00000E+00         0.00000E+00        -0.35255E+08
 
   -0.35160E+08        -0.35191E+05         0.00000E+00
   -0.35191E+05        -0.60009E+08         0.00000E+00
    0.00000E+00         0.00000E+00        -0.35260E+08
 
   -0.35178E+08        -0.40846E+05         0.00000E+00
   -0.40846E+05        -0.60015E+08         0.00000E+00
    0.00000E+00         0.00000E+00        -0.35265E+08
 
   -0.35192E+08        -0.41411E+05         0.00000E+00
   -0.41411E+05        -0.60023E+08         0.00000E+00
    0.00000E+00         0.00000E+00        -0.35270E+08
 
   -0.35201E+08        -0.36891E+05         0.00000E+00
   -0.36891E+05        -0.60031E+08         0.00000E+00
    0.00000E+00         0.00000E+00        -0.35273E+08
 
   -0.35209E+08        -0.27377E+05         0.00000E+00
   -0.27377E+05        -0.60039E+08         0.00000E+00
    0.00000E+00         0.00000E+00        -0.35276E+08
 
   -0.35215E+08        -0.13023E+05         0.00000E+00
   -0.13023E+05        -0.60046E+08         0.00000E+00
    0.00000E+00         0.00000E+00        -0.35279E+08
 
   -0.35221E+08         0.59804E+04         0.00000E+00
    0.59804E+04        -0.60052E+08         0.00000E+00
    0.00000E+00         0.00000E+00        -0.35281E+08
 
   -0.35227E+08         0.29415E+05         0.00000E+00
    0.29415E+05        -0.60057E+08         0.00000E+00
    0.00000E+00         0.00000E+00        -0.35283E+08
 
   -0.35234E+08         0.57038E+05         0.00000E+00
    0.57038E+05        -0.60060E+08         0.00000E+00
    0.00000E+00         0.00000E+00        -0.35285E+08
 
   -0.35242E+08         0.88579E+05         0.00000E+00
    0.88579E+05        -0.60061E+08         0.00000E+00
    0.00000E+00         0.00000E+00        -0.35287E+08
 
   -0.35254E+08         0.12373E+06         0.00000E+00
    0.12373E+06        -0.60060E+08         0.00000E+00
    0.00000E+00         0.00000E+00        -0.35289E+08
 
   -0.35268E+08         0.16211E+06         0.00000E+00
    0.16211E+06        -0.60057E+08         0.00000E+00
    0.00000E+00         0.00000E+00        -0.35291E+08
 
   -0.35285E+08         0.20330E+06         0.00000E+00
    0.20330E+06        -0.60050E+08         0.00000E+00
    0.00000E+00         0.00000E+00        -0.35294E+08
 
   -0.35124E+08        -0.10917E+05         0.00000E+00
   -0.10917E+05        -0.60001E+08         0.00000E+00
    0.00000E+00         0.00000E+00        -0.35213E+08
 
   -0.35151E+08        -0.28935E+05         0.00000E+00
   -0.28935E+05        -0.60004E+08         0.00000E+00
    0.00000E+00         0.00000E+00        -0.35219E+08
 
   -0.35169E+08        -0.41498E+05         0.00000E+00
   -0.41498E+05        -0.60010E+08         0.00000E+00
    0.00000E+00         0.00000E+00        -0.35224E+08
 
   -0.35182E+08        -0.48390E+05         0.00000E+00
   -0.48390E+05        -0.60017E+08         0.00000E+00
    0.00000E+00         0.00000E+00        -0.35228E+08
 
   -0.35190E+08        -0.49573E+05         0.00000E+00
   -0.49573E+05        -0.60025E+08         0.00000E+00
    0.00000E+00         0.00000E+00        -0.35231E+08
 
   -0.35194E+08        -0.45132E+05         0.00000E+00
   -0.45132E+05        -0.60033E+08         0.00000E+00
    0.00000E+00         0.00000E+00        -0.35234E+08
 
   -0.35197E+08        -0.35240E+05         0.00000E+00
   -0.35240E+05        -0.60042E+08         0.00000E+00
    0.00000E+00         0.00000E+00        -0.35236E+08
 
   -0.35198E+08        -0.20111E+05         0.00000E+00
   -0.20111E+05        -0.60050E+08         0.00000E+00
    0.00000E+00         0.00000E+00        -0.35238E+08
 
   -0.35199E+08         0.18693E+02         0.00000E+00
    0.18693E+02        -0.60056E+08         0.00000E+00
    0.00000E+00         0.00000E+00        -0.35239E+08
 
   -0.35200E+08         0.24904E+05         0.00000E+00
    0.24904E+05        -0.60062E+08         0.00000E+00
    0.00000E+00         0.00000E+00        -0.35241E+08
 
   -0.35203E+08         0.54295E+05         0.00000E+00
    0.54295E+05        -0.60066E+08         0.00000E+00
    0.00000E+00         0.00000E+00        -0.35242E+08
 
   -0.35208E+08         0.87917E+05         0.00000E+00
    0.87917E+05        -0.60068E+08         0.00000E+00
    0.00000E+00         0.00000E+00        -0.35244E+08
 
   -0.35215E+08         0.12546E+06         0.00000E+00
    0.12546E+06        -0.60068E+08         0.00000E+00
    0.00000E+00         0.00000E+00        -0.35245E+08
 
   -0.35226E+08         0.16654E+06         0.00000E+00
    0.16654E+06        -0.60066E+08         0.00000E+00
    0.00000E+00         0.00000E+00        -0.35247E+08
 
   -0.35241E+08         0.21070E+06         0.00000E+00
    0.21070E+06        -0.60060E+08         0.00000E+00
    0.00000E+00         0.00000E+00        -0.35249E+08
 
   -0.35146E+08        -0.12730E+05         0.00000E+00
   -0.12730E+05        -0.60001E+08         0.00000E+00
    0.00000E+00         0.00000E+00        -0.35177E+08
 
   -0.35167E+08        -0.33676E+05         0.00000E+00
   -0.33676E+05        -0.60004E+08         0.00000E+00
    0.00000E+00         0.00000E+00        -0.35182E+08
 
   -0.35180E+08        -0.48296E+05         0.00000E+00
   -0.48296E+05        -0.60010E+08         0.00000E+00
    0.00000E+00         0.00000E+00        -0.35186E+08
 
   -0.35186E+08        -0.56473E+05         0.00000E+00
   -0.56473E+05        -0.60018E+08         0.00000E+00
    0.00000E+00         0.00000E+00        -0.35189E+08
 
   -0.35188E+08        -0.58279E+05         0.00000E+00
   -0.58279E+05        -0.60027E+08         0.00000E+00
    0.00000E+00         0.00000E+00        -0.35191E+08
 
   -0.35187E+08        -0.53916E+05         0.00000E+00
   -0.53916E+05        -0.60036E+08         0.00000E+00
    0.00000E+00         0.00000E+00        -0.35192E+08
 
   -0.35184E+08        -0.43656E+05         0.00000E+00
   -0.43656E+05        -0.60044E+08         0.00000E+00
    0.00000E+00         0.00000E+00        -0.35193E+08
 
   -0.35180E+08        -0.27790E+05         0.00000E+00
   -0.27790E+05        -0.60053E+08         0.00000E+00
    0.00000E+00         0.00000E+00        -0.35194E+08
 
   -0.35176E+08        -0.66047E+04         0.00000E+00
   -0.66047E+04        -0.60060E+08         0.00000E+00
    0.00000E+00         0.00000E+00        -0.35195E+08
 
   -0.35172E+08         0.19636E+05         0.00000E+00
    0.19636E+05        -0.60066E+08         0.00000E+00
    0.00000E+00         0.00000E+00        -0.35195E+08
 
   -0.35171E+08         0.50685E+05         0.00000E+00
    0.50685E+05        -0.60071E+08         0.00000E+00
    0.00000E+00         0.00000E+00        -0.35196E+08
 
   -0.35171E+08         0.86286E+05         0.00000E+00
    0.86286E+05        -0.60074E+08         0.00000E+00
    0.00000E+00         0.00000E+00        -0.35197E+08
 
   -0.35175E+08         0.12615E+06         0.00000E+00
    0.12615E+06        -0.60075E+08         0.00000E+00
    0.00000E+00         0.00000E+00        -0.35198E+08
 
   -0.35182E+08         0.16991E+06         0.00000E+00
    0.16991E+06        -0.60074E+08         0.00000E+00
    0.00000E+00         0.00000E+00        -0.35199E+08
 
   -0.35194E+08         0.21707E+06         0.00000E+00
    0.21707E+06        -0.60069E+08         0.00000E+00
    0.00000E+00         0.00000E+00        -0.35200E+08
 
   -0.35172E+08        -0.14687E+05         0.00000E+00
   -0.14687E+05        -0.60001E+08         0.00000E+00
    0.00000E+00         0.00000E+00        -0.35139E+08
 
   -0.35186E+08        -0.38745E+05         0.00000E+00
   -0.38745E+05        -0.60005E+08         0.00000E+00
    0.00000E+00         0.00000E+00        -0.35143E+08
 
   -0.35192E+08        -0.55490E+05         0.00000E+00
   -0.55490E+05        -0.60011E+08         0.00000E+00
    0.00000E+00         0.00000E+00        -0.35145E+08
 
   -0.35192E+08        -0.64944E+05         0.00000E+00
   -0.64944E+05        -0.60019E+08         0.00000E+00
    0.00000E+00         0.00000E+00        -0.35147E+08
 
   -0.35187E+08        -0.67336E+05         0.00000E+00
   -0.67336E+05        -0.60028E+08         0.00000E+00
    0.00000E+00         0.00000E+00        -0.35148E+08
 
   -0.35180E+08        -0.63018E+05         0.00000E+00
   -0.63018E+05        -0.60037E+08         0.00000E+00
    0.00000E+00         0.00000E+00        -0.35148E+08
 
   -0.35171E+08        -0.52390E+05         0.00000E+00
   -0.52390E+05        -0.60046E+08         0.00000E+00
    0.00000E+00         0.00000E+00        -0.35148E+08
 
   -0.35161E+08        -0.35839E+05         0.00000E+00
   -0.35839E+05        -0.60054E+08         0.00000E+00
    0.00000E+00         0.00000E+00        -0.35148E+08
 
   -0.35151E+08        -0.13702E+05         0.00000E+00
   -0.13702E+05        -0.60062E+08         0.00000E+00
    0.00000E+00         0.00000E+00        -0.35147E+08
 
   -0.35143E+08         0.13746E+05         0.00000E+00
    0.13746E+05        -0.60069E+08         0.00000E+00
    0.00000E+00         0.00000E+00        -0.35147E+08
 
   -0.35136E+08         0.46280E+05         0.00000E+00
    0.46280E+05        -0.60074E+08         0.00000E+00
    0.00000E+00         0.00000E+00        -0.35147E+08
 
   -0.35132E+08         0.83691E+05         0.00000E+00
    0.83691E+05        -0.60078E+08         0.00000E+00
    0.00000E+00         0.00000E+00        -0.35147E+08
 
   -0.35132E+08         0.12574E+06         0.00000E+00
    0.12574E+06        -0.60080E+08         0.00000E+00
    0.00000E+00         0.00000E+00        -0.35147E+08
 
   -0.35135E+08         0.17211E+06         0.00000E+00
    0.17211E+06        -0.60080E+08         0.00000E+00
    0.00000E+00         0.00000E+00        -0.35148E+08
 
   -0.35144E+08         0.22231E+06         0.00000E+00
    0.22231E+06        -0.60077E+08         0.00000E+00
    0.00000E+00         0.00000E+00        -0.35149E+08
 
   -0.35202E+08        -0.16770E+05         0.00000E+00
   -0.16770E+05        -0.60001E+08         0.00000E+00
    0.00000E+00         0.00000E+00        -0.35100E+08
 
   -0.35208E+08        -0.44071E+05         0.00000E+00
   -0.44071E+05        -0.60005E+08         0.00000E+00
    0.00000E+00         0.00000E+00        -0.35102E+08
 
   -0.35206E+08        -0.62941E+05         0.00000E+00
   -0.62941E+05        -0.60011E+08         0.00000E+00
    0.00000E+00         0.00000E+00        -0.35103E+08
 
   -0.35198E+08        -0.73595E+05         0.00000E+00
   -0.73595E+05        -0.60019E+08         0.00000E+00
    0.00000E+00         0.00000E+00        -0.35103E+08
 
   -0.35186E+08        -0.76471E+05         0.00000E+00
   -0.76471E+05        -0.60028E+08         0.00000E+00
    0.00000E+00         0.00000E+00        -0.35102E+08
 
   -0.35172E+08        -0.72124E+05         0.00000E+00
   -0.72124E+05        -0.60037E+08         0.00000E+00
    0.00000E+00         0.00000E+00        -0.35101E+08
 
   -0.35157E+08        -0.61118E+05         0.00000E+00
   -0.61118E+05        -0.60046E+08         0.00000E+00
    0.00000E+00         0.00000E+00        -0.35100E+08
 
   -0.35141E+08        -0.43951E+05         0.00000E+00
   -0.43951E+05        -0.60054E+08         0.00000E+00
    0.00000E+00         0.00000E+00        -0.35098E+08
 
   -0.35126E+08        -0.21015E+05         0.00000E+00
   -0.21015E+05        -0.60062E+08         0.00000E+00
    0.00000E+00         0.00000E+00        -0.35097E+08
 
   -0.35112E+08         0.74207E+04         0.00000E+00
    0.74207E+04        -0.60069E+08         0.00000E+00
    0.00000E+00         0.00000E+00        -0.35096E+08
 
   -0.35101E+08         0.41181E+05         0.00000E+00
    0.41181E+05        -0.60075E+08         0.00000E+00
    0.00000E+00         0.00000E+00        -0.35094E+08
 
   -0.35092E+08         0.80142E+05         0.00000E+00
    0.80142E+05        -0.60080E+08         0.00000E+00
    0.00000E+00         0.00000E+00        -0.35094E+08
 
   -0.35086E+08         0.12417E+06         0.00000E+00
    0.12417E+06        -0.60083E+08         0.00000E+00
    0.00000E+00         0.00000E+00        -0.35093E+08
 
   -0.35086E+08         0.17301E+06         0.00000E+00
    0.17301E+06        -0.60084E+08         0.00000E+00
    0.00000E+00         0.00000E+00        -0.35093E+08
 
   -0.35090E+08         0.22624E+06         0.00000E+00
    0.22624E+06        -0.60082E+08         0.00000E+00
    0.00000E+00         0.00000E+00        -0.35094E+08
 
   -0.35235E+08        -0.18957E+05         0.00000E+00
   -0.18957E+05        -0.60001E+08         0.00000E+00
    0.00000E+00         0.00000E+00        -0.35059E+08
 
   -0.35232E+08        -0.49557E+05         0.00000E+00
   -0.49557E+05        -0.60005E+08         0.00000E+00
    0.00000E+00         0.00000E+00        -0.35059E+08
 
   -0.35222E+08        -0.70458E+05         0.00000E+00
   -0.70458E+05        -0.60011E+08         0.00000E+00
    0.00000E+00         0.00000E+00        -0.35058E+08
 
   -0.35205E+08        -0.82134E+05         0.00000E+00
   -0.82134E+05        -0.60019E+08         0.00000E+00
    0.00000E+00         0.00000E+00        -0.35056E+08
 
   -0.35185E+08        -0.85314E+05         0.00000E+00
   -0.85314E+05        -0.60028E+08         0.00000E+00
    0.00000E+00         0.00000E+00        -0.35054E+08
 
   -0.35164E+08        -0.80816E+05         0.00000E+00
   -0.80816E+05        -0.60036E+08         0.00000E+00
    0.00000E+00         0.00000E+00        -0.35052E+08
 
   -0.35142E+08        -0.69409E+05         0.00000E+00
   -0.69409E+05        -0.60044E+08         0.00000E+00
    0.00000E+00         0.00000E+00        -0.35049E+08
 
   -0.35121E+08        -0.51725E+05         0.00000E+00
   -0.51725E+05        -0.60052E+08         0.00000E+00
    0.00000E+00         0.00000E+00        -0.35046E+08
 
   -0.35100E+08        -0.28204E+05         0.00000E+00
   -0.28204E+05        -0.60059E+08         0.00000E+00
    0.00000E+00         0.00000E+00        -0.35043E+08
 
   -0.35081E+08         0.90584E+03         0.00000E+00
    0.90584E+03        -0.60066E+08         0.00000E+00
    0.00000E+00         0.00000E+00        -0.35041E+08
 
   -0.35064E+08         0.35520E+05         0.00000E+00
    0.35520E+05        -0.60072E+08         0.00000E+00
    0.00000E+00         0.00000E+00        -0.35039E+08
 
   -0.35050E+08         0.75651E+05         0.00000E+00
    0.75651E+05        -0.60078E+08         0.00000E+00
    0.00000E+00         0.00000E+00        -0.35037E+08
 
   -0.35039E+08         0.12132E+06         0.00000E+00
    0.12132E+06        -0.60082E+08         0.00000E+00
    0.00000E+00         0.00000E+00        -0.35036E+08
 
   -0.35033E+08         0.17242E+06         0.00000E+00
    0.17242E+06        -0.60084E+08         0.00000E+00
    0.00000E+00         0.00000E+00        -0.35035E+08
 
   -0.35033E+08         0.22865E+06         0.00000E+00
    0.22865E+06        -0.60084E+08         0.00000E+00
    0.00000E+00         0.00000E+00        -0.35035E+08
 
   -0.35273E+08        -0.21216E+05         0.00000E+00
   -0.21216E+05        -0.60001E+08         0.00000E+00
    0.00000E+00         0.00000E+00        -0.35016E+08
 
   -0.35259E+08        -0.55074E+05         0.00000E+00
   -0.55074E+05        -0.60005E+08         0.00000E+00
    0.00000E+00         0.00000E+00        -0.35014E+08
 
   -0.35238E+08        -0.77778E+05         0.00000E+00
   -0.77778E+05        -0.60011E+08         0.00000E+00
    0.00000E+00         0.00000E+00        -0.35011E+08
 
   -0.35213E+08        -0.90170E+05         0.00000E+00
   -0.90170E+05        -0.60019E+08         0.00000E+00
    0.00000E+00         0.00000E+00        -0.35008E+08
 
   -0.35185E+08        -0.93370E+05         0.00000E+00
   -0.93370E+05        -0.60026E+08         0.00000E+00
    0.00000E+00         0.00000E+00        -0.35003E+08
 
   -0.35156E+08        -0.88541E+05         0.00000E+00
   -0.88541E+05        -0.60033E+08         0.00000E+00
    0.00000E+00         0.00000E+00        -0.34999E+08
 
   -0.35127E+08        -0.76709E+05         0.00000E+00
   -0.76709E+05        -0.60040E+08         0.00000E+00
    0.00000E+00         0.00000E+00        -0.34995E+08
 
   -0.35100E+08        -0.58649E+05         0.00000E+00
   -0.58649E+05        -0.60047E+08         0.00000E+00
    0.00000E+00         0.00000E+00        -0.34991E+08
 
   -0.35074E+08        -0.34844E+05         0.00000E+00
   -0.34844E+05        -0.60053E+08         0.00000E+00
    0.00000E+00         0.00000E+00        -0.34987E+08
 
   -0.35049E+08        -0.54893E+04         0.00000E+00
   -0.54893E+04        -0.60059E+08         0.00000E+00
    0.00000E+00         0.00000E+00        -0.34983E+08
 
   -0.35026E+08         0.29463E+05         0.00000E+00
    0.29463E+05        -0.60065E+08         0.00000E+00
    0.00000E+00         0.00000E+00        -0.34980E+08
 
   -0.35006E+08         0.70224E+05         0.00000E+00
    0.70224E+05        -0.60071E+08         0.00000E+00
    0.00000E+00         0.00000E+00        -0.34977E+08
 
   -0.34990E+08         0.11705E+06         0.00000E+00
    0.11705E+06        -0.60077E+08         0.00000E+00
    0.00000E+00         0.00000E+00        -0.34975E+08
 
   -0.34978E+08         0.17009E+06         0.00000E+00
    0.17009E+06        -0.60081E+08         0.00000E+00
    0.00000E+00         0.00000E+00        -0.34973E+08
 
   -0.34973E+08         0.22920E+06         0.00000E+00
    0.22920E+06        -0.60083E+08         0.00000E+00
    0.00000E+00         0.00000E+00        -0.34973E+08
 
   -0.35314E+08        -0.23508E+05         0.00000E+00
   -0.23508E+05        -0.60001E+08         0.00000E+00
    0.00000E+00         0.00000E+00        -0.34972E+08
 
   -0.35289E+08        -0.60446E+05         0.00000E+00
   -0.60446E+05        -0.60005E+08         0.00000E+00
    0.00000E+00         0.00000E+00        -0.34968E+08
 
   -0.35256E+08        -0.84546E+05         0.00000E+00
   -0.84546E+05        -0.60011E+08         0.00000E+00
    0.00000E+00         0.00000E+00        -0.34962E+08
 
   -0.35220E+08        -0.97173E+05         0.00000E+00
   -0.97173E+05        -0.60017E+08         0.00000E+00
    0.00000E+00         0.00000E+00        -0.34956E+08
 
   -0.35183E+08        -0.99987E+05         0.00000E+00
   -0.99987E+05        -0.60023E+08         0.00000E+00
    0.00000E+00         0.00000E+00        -0.34950E+08
 
   -0.35147E+08        -0.94597E+05         0.00000E+00
   -0.94597E+05        -0.60028E+08         0.00000E+00
    0.00000E+00         0.00000E+00        -0.34944E+08
 
   -0.35112E+08        -0.82326E+05         0.00000E+00
   -0.82326E+05        -0.60033E+08         0.00000E+00
    0.00000E+00         0.00000E+00        -0.34938E+08
 
   -0.35079E+08        -0.64097E+05         0.00000E+00
   -0.64097E+05        -0.60037E+08         0.00000E+00
    0.00000E+00         0.00000E+00        -0.34932E+08
 
   -0.35047E+08        -0.40416E+05         0.00000E+00
   -0.40416E+05        -0.60042E+08         0.00000E+00
    0.00000E+00         0.00000E+00        -0.34927E+08
 
   -0.35017E+08        -0.11390E+05         0.00000E+00
   -0.11390E+05        -0.60047E+08         0.00000E+00
    0.00000E+00         0.00000E+00        -0.34922E+08
 
   -0.34989E+08         0.23210E+05         0.00000E+00
    0.23210E+05        -0.60053E+08         0.00000E+00
    0.00000E+00         0.00000E+00        -0.34917E+08
 
   -0.34962E+08         0.63865E+05         0.00000E+00
    0.63865E+05        -0.60060E+08         0.00000E+00
    0.00000E+00         0.00000E+00        -0.34913E+08
 
   -0.34939E+08         0.11118E+06         0.00000E+00
    0.11118E+06        -0.60066E+08         0.00000E+00
    0.00000E+00         0.00000E+00        -0.34910E+08
 
   -0.34921E+08         0.16565E+06         0.00000E+00
    0.16565E+06        -0.60073E+08         0.00000E+00
    0.00000E+00         0.00000E+00        -0.34908E+08
 
   -0.34910E+08         0.22745E+06         0.00000E+00
    0.22745E+06        -0.60077E+08         0.00000E+00
    0.00000E+00         0.00000E+00        -0.34906E+08
 
   -0.35360E+08        -0.25786E+05         0.00000E+00
   -0.25786E+05        -0.60001E+08         0.00000E+00
    0.00000E+00         0.00000E+00        -0.34926E+08
 
   -0.35320E+08        -0.65433E+05         0.00000E+00
   -0.65433E+05        -0.60005E+08         0.00000E+00
    0.00000E+00         0.00000E+00        -0.34919E+08
 
   -0.35274E+08        -0.90266E+05         0.00000E+00
   -0.90266E+05        -0.60009E+08         0.00000E+00
    0.00000E+00         0.00000E+00        -0.34911E+08
 
   -0.35227E+08        -0.10242E+06         0.00000E+00
   -0.10242E+06        -0.60014E+08         0.00000E+00
    0.00000E+00         0.00000E+00        -0.34902E+08
 
   -0.35182E+08        -0.10432E+06         0.00000E+00
   -0.10432E+06        -0.60017E+08         0.00000E+00
    0.00000E+00         0.00000E+00        -0.34894E+08
 
   -0.35138E+08        -0.98110E+05         0.00000E+00
   -0.98110E+05        -0.60020E+08         0.00000E+00
    0.00000E+00         0.00000E+00        -0.34885E+08
 
   -0.35097E+08        -0.85436E+05         0.00000E+00
   -0.85436E+05        -0.60021E+08         0.00000E+00
    0.00000E+00         0.00000E+00        -0.34878E+08
 
   -0.35058E+08        -0.67344E+05         0.00000E+00
   -0.67344E+05        -0.60023E+08         0.00000E+00
    0.00000E+00         0.00000E+00        -0.34870E+08
 
   -0.35021E+08        -0.44322E+05         0.00000E+00
   -0.44322E+05        -0.60025E+08         0.00000E+00
    0.00000E+00         0.00000E+00        -0.34863E+08
 
   -0.34986E+08        -0.16359E+05         0.00000E+00
   -0.16359E+05        -0.60029E+08         0.00000E+00
    0.00000E+00         0.00000E+00        -0.34857E+08
 
   -0.34952E+08         0.16997E+05         0.00000E+00
    0.16997E+05        -0.60034E+08         0.00000E+00
    0.00000E+00         0.00000E+00        -0.34851E+08
 
   -0.34919E+08         0.56570E+05         0.00000E+00
    0.56570E+05        -0.60041E+08         0.00000E+00
    0.00000E+00         0.00000E+00        -0.34846E+08
 
   -0.34888E+08         0.10342E+06         0.00000E+00
    0.10342E+06        -0.60049E+08         0.00000E+00
    0.00000E+00         0.00000E+00        -0.34842E+08
 
   -0.34862E+08         0.15859E+06         0.00000E+00
    0.15859E+06        -0.60058E+08         0.00000E+00
    0.00000E+00         0.00000E+00        -0.34838E+08
 
   -0.34843E+08         0.22275E+06         0.00000E+00
    0.22275E+06        -0.60066E+08         0.00000E+00
    0.00000E+00         0.00000E+00        -0.34836E+08
 
   -0.35409E+08        -0.27990E+05         0.00000E+00
   -0.27990E+05        -0.60001E+08         0.00000E+00
    0.00000E+00         0.00000E+00        -0.34879E+08
 
   -0.35352E+08        -0.69685E+05         0.00000E+00
   -0.69685E+05        -0.60004E+08         0.00000E+00
    0.00000E+00         0.00000E+00        -0.34868E+08
 
   -0.35292E+08        -0.94220E+05         0.00000E+00
   -0.94220E+05        -0.60007E+08         0.00000E+00
    0.00000E+00         0.00000E+00        -0.34857E+08
 
   -0.35233E+08        -0.10494E+06         0.00000E+00
   -0.10494E+06        -0.60009E+08         0.00000E+00
    0.00000E+00         0.00000E+00        -0.34845E+08
 
   -0.35178E+08        -0.10528E+06         0.00000E+00
   -0.10528E+06        -0.60009E+08         0.00000E+00
    0.00000E+00         0.00000E+00        -0.34834E+08
 
   -0.35128E+08        -0.98040E+05         0.00000E+00
   -0.98040E+05        -0.60007E+08         0.00000E+00
    0.00000E+00         0.00000E+00        -0.34824E+08
 
   -0.35081E+08        -0.85119E+05         0.00000E+00
   -0.85119E+05        -0.60005E+08         0.00000E+00
    0.00000E+00         0.00000E+00        -0.34814E+08
 
   -0.35038E+08        -0.67609E+05         0.00000E+00
   -0.67609E+05        -0.60003E+08         0.00000E+00
    0.00000E+00         0.00000E+00        -0.34805E+08
 
   -0.34997E+08        -0.45925E+05         0.00000E+00
   -0.45925E+05        -0.60002E+08         0.00000E+00
    0.00000E+00         0.00000E+00        -0.34796E+08
 
   -0.34956E+08        -0.19914E+05         0.00000E+00
   -0.19914E+05        -0.60003E+08         0.00000E+00
    0.00000E+00         0.00000E+00        -0.34789E+08
 
   -0.34916E+08         0.11110E+05         0.00000E+00
    0.11110E+05        -0.60007E+08         0.00000E+00
    0.00000E+00         0.00000E+00        -0.34781E+08
 
   -0.34877E+08         0.48348E+05         0.00000E+00
    0.48348E+05        -0.60015E+08         0.00000E+00
    0.00000E+00         0.00000E+00        -0.34775E+08
 
   -0.34838E+08         0.93450E+05         0.00000E+00
    0.93450E+05        -0.60025E+08         0.00000E+00
    0.00000E+00         0.00000E+00        -0.34769E+08
 
   -0.34802E+08         0.14825E+06         0.00000E+00
    0.14825E+06        -0.60036E+08         0.00000E+00
    0.00000E+00         0.00000E+00        -0.34764E+08
 
   -0.34772E+08         0.21421E+06         0.00000E+00
    0.21421E+06        -0.60048E+08         0.00000E+00
    0.00000E+00         0.00000E+00        -0.34761E+08
 
   -0.35462E+08        -0.30032E+05         0.00000E+00
   -0.30032E+05        -0.60001E+08         0.00000E+00
    0.00000E+00         0.00000E+00        -0.34830E+08
 
   -0.35385E+08        -0.72637E+05         0.00000E+00
   -0.72637E+05        -0.60003E+08         0.00000E+00
    0.00000E+00         0.00000E+00        -0.34815E+08
 
   -0.35308E+08        -0.95309E+05         0.00000E+00
   -0.95309E+05        -0.60004E+08         0.00000E+00
    0.00000E+00         0.00000E+00        -0.34799E+08
 
   -0.35237E+08        -0.10334E+06         0.00000E+00
   -0.10334E+06        -0.60001E+08         0.00000E+00
    0.00000E+00         0.00000E+00        -0.34785E+08
 
   -0.35174E+08        -0.10153E+06         0.00000E+00
   -0.10153E+06        -0.59995E+08         0.00000E+00
    0.00000E+00         0.00000E+00        -0.34771E+08
 
   -0.35117E+08        -0.93243E+05         0.00000E+00
   -0.93243E+05        -0.59988E+08         0.00000E+00
    0.00000E+00         0.00000E+00        -0.34758E+08
 
   -0.35066E+08        -0.80457E+05         0.00000E+00
   -0.80457E+05        -0.59981E+08         0.00000E+00
    0.00000E+00         0.00000E+00        -0.34747E+08
 
   -0.35019E+08        -0.64157E+05         0.00000E+00
   -0.64157E+05        -0.59974E+08         0.00000E+00
    0.00000E+00         0.00000E+00        -0.34736E+08
 
   -0.34974E+08        -0.44620E+05         0.00000E+00
   -0.44620E+05        -0.59970E+08         0.00000E+00
    0.00000E+00         0.00000E+00        -0.34726E+08
 
   -0.34929E+08        -0.21556E+05         0.00000E+00
   -0.21556E+05        -0.59969E+08         0.00000E+00
    0.00000E+00         0.00000E+00        -0.34717E+08
 
   -0.34884E+08         0.58967E+04         0.00000E+00
    0.58967E+04        -0.59972E+08         0.00000E+00
    0.00000E+00         0.00000E+00        -0.34708E+08
 
   -0.34838E+08         0.39276E+05         0.00000E+00
    0.39276E+05        -0.59979E+08         0.00000E+00
    0.00000E+00         0.00000E+00        -0.34700E+08
 
   -0.34790E+08         0.80902E+05         0.00000E+00
    0.80902E+05        -0.59990E+08         0.00000E+00
    0.00000E+00         0.00000E+00        -0.34693E+08
 
   -0.34742E+08         0.13372E+06         0.00000E+00
    0.13372E+06        -0.60006E+08         0.00000E+00
    0.00000E+00         0.00000E+00        -0.34687E+08
 
   -0.34699E+08         0.20057E+06         0.00000E+00
    0.20057E+06        -0.60023E+08         0.00000E+00
    0.00000E+00         0.00000E+00        -0.34682E+08
 
   -0.35517E+08        -0.31762E+05         0.00000E+00
   -0.31762E+05        -0.60001E+08         0.00000E+00
    0.00000E+00         0.00000E+00        -0.34779E+08
 
   -0.35415E+08        -0.73262E+05         0.00000E+00
   -0.73262E+05        -0.60001E+08         0.00000E+00
    0.00000E+00         0.00000E+00        -0.34758E+08
 
   -0.35321E+08        -0.91747E+05         0.00000E+00
   -0.91747E+05        -0.59997E+08         0.00000E+00
    0.00000E+00         0.00000E+00        -0.34739E+08
 
   -0.35238E+08        -0.95749E+05         0.00000E+00
   -0.95749E+05        -0.59988E+08         0.00000E+00
    0.00000E+00         0.00000E+00        -0.34720E+08
 
   -0.35168E+08        -0.91552E+05         0.00000E+00
   -0.91552E+05        -0.59975E+08         0.00000E+00
    0.00000E+00         0.00000E+00        -0.34704E+08
 
   -0.35107E+08        -0.82648E+05         0.00000E+00
   -0.82648E+05        -0.59961E+08         0.00000E+00
    0.00000E+00         0.00000E+00        -0.34689E+08
 
   -0.35053E+08        -0.70717E+05         0.00000E+00
   -0.70717E+05        -0.59948E+08         0.00000E+00
    0.00000E+00         0.00000E+00        -0.34675E+08
 
   -0.35002E+08        -0.56455E+05         0.00000E+00
   -0.56455E+05        -0.59937E+08         0.00000E+00
    0.00000E+00         0.00000E+00        -0.34663E+08
 
   -0.34954E+08        -0.39958E+05         0.00000E+00
   -0.39958E+05        -0.59929E+08         0.00000E+00
    0.00000E+00         0.00000E+00        -0.34652E+08
 
   -0.34906E+08        -0.20845E+05         0.00000E+00
   -0.20845E+05        -0.59925E+08         0.00000E+00
    0.00000E+00         0.00000E+00        -0.34641E+08
 
   -0.34857E+08         0.17877E+04         0.00000E+00
    0.17877E+04        -0.59925E+08         0.00000E+00
    0.00000E+00         0.00000E+00        -0.34632E+08
 
   -0.34803E+08         0.29604E+05         0.00000E+00
    0.29604E+05        -0.59932E+08         0.00000E+00
    0.00000E+00         0.00000E+00        -0.34622E+08
 
   -0.34746E+08         0.65504E+05         0.00000E+00
    0.65504E+05        -0.59945E+08         0.00000E+00
    0.00000E+00         0.00000E+00        -0.34613E+08
 
   -0.34684E+08         0.11392E+06         0.00000E+00
    0.11392E+06        -0.59965E+08         0.00000E+00
    0.00000E+00         0.00000E+00        -0.34605E+08
 
   -0.34624E+08         0.18001E+06         0.00000E+00
    0.18001E+06        -0.59989E+08         0.00000E+00
    0.00000E+00         0.00000E+00        -0.34598E+08
 
   -0.35573E+08        -0.32815E+05         0.00000E+00
   -0.32815E+05        -0.60000E+08         0.00000E+00
    0.00000E+00         0.00000E+00        -0.34725E+08
 
   -0.35441E+08        -0.69388E+05         0.00000E+00
   -0.69388E+05        -0.59997E+08         0.00000E+00
    0.00000E+00         0.00000E+00        -0.34698E+08
 
   -0.35328E+08        -0.80556E+05         0.00000E+00
   -0.80556E+05        -0.59985E+08         0.00000E+00
    0.00000E+00         0.00000E+00        -0.34673E+08
 
   -0.35236E+08        -0.79851E+05         0.00000E+00
   -0.79851E+05        -0.59966E+08         0.00000E+00
    0.00000E+00         0.00000E+00        -0.34651E+08
 
   -0.35161E+08        -0.74019E+05         0.00000E+00
   -0.74019E+05        -0.59945E+08         0.00000E+00
    0.00000E+00         0.00000E+00        -0.34632E+08
 
   -0.35097E+08        -0.65614E+05         0.00000E+00
   -0.65614E+05        -0.59924E+08         0.00000E+00
    0.00000E+00         0.00000E+00        -0.34615E+08
 
   -0.35041E+08        -0.55633E+05         0.00000E+00
   -0.55633E+05        -0.59905E+08         0.00000E+00
    0.00000E+00         0.00000E+00        -0.34600E+08
 
   -0.34989E+08        -0.44389E+05         0.00000E+00
   -0.44389E+05        -0.59889E+08         0.00000E+00
    0.00000E+00         0.00000E+00        -0.34586E+08
 
   -0.34939E+08        -0.31816E+05         0.00000E+00
   -0.31816E+05        -0.59877E+08         0.00000E+00
    0.00000E+00         0.00000E+00        -0.34574E+08
 
   -0.34888E+08        -0.17534E+05         0.00000E+00
   -0.17534E+05        -0.59870E+08         0.00000E+00
    0.00000E+00         0.00000E+00        -0.34562E+08
 
   -0.34835E+08        -0.76506E+03         0.00000E+00
   -0.76506E+03        -0.59868E+08         0.00000E+00
    0.00000E+00         0.00000E+00        -0.34551E+08
 
   -0.34776E+08         0.19942E+05         0.00000E+00
    0.19942E+05        -0.59873E+08         0.00000E+00
    0.00000E+00         0.00000E+00        -0.34541E+08
 
   -0.34708E+08         0.47406E+05         0.00000E+00
    0.47406E+05        -0.59888E+08         0.00000E+00
    0.00000E+00         0.00000E+00        -0.34530E+08
 
   -0.34631E+08         0.87595E+05         0.00000E+00
    0.87595E+05        -0.59912E+08         0.00000E+00
    0.00000E+00         0.00000E+00        -0.34519E+08
 
   -0.34547E+08         0.14985E+06         0.00000E+00
    0.14985E+06        -0.59946E+08         0.00000E+00
    0.00000E+00         0.00000E+00        -0.34509E+08
 
   -0.35625E+08        -0.31850E+05         0.00000E+00
   -0.31850E+05        -0.59999E+08         0.00000E+00
    0.00000E+00         0.00000E+00        -0.34669E+08
 
   -0.35457E+08        -0.55746E+05         0.00000E+00
   -0.55746E+05        -0.59986E+08         0.00000E+00
    0.00000E+00         0.00000E+00        -0.34633E+08
 
   -0.35329E+08        -0.57520E+05         0.00000E+00
   -0.57520E+05        -0.59959E+08         0.00000E+00
    0.00000E+00         0.00000E+00        -0.34602E+08
 
   -0.35232E+08        -0.53977E+05         0.00000E+00
   -0.53977E+05        -0.59929E+08         0.00000E+00
    0.00000E+00         0.00000E+00        -0.34576E+08
 
   -0.35154E+08        -0.48623E+05         0.00000E+00
   -0.48623E+05        -0.59899E+08         0.00000E+00
    0.00000E+00         0.00000E+00        -0.34555E+08
 
   -0.35089E+08        -0.42430E+05         0.00000E+00
   -0.42430E+05        -0.59871E+08         0.00000E+00
    0.00000E+00         0.00000E+00        -0.34536E+08
 
   -0.35032E+08        -0.35695E+05         0.00000E+00
   -0.35695E+05        -0.59848E+08         0.00000E+00
    0.00000E+00         0.00000E+00        -0.34520E+08
 
   -0.34979E+08        -0.28448E+05         0.00000E+00
   -0.28448E+05        -0.59828E+08         0.00000E+00
    0.00000E+00         0.00000E+00        -0.34506E+08
 
   -0.34928E+08        -0.20559E+05         0.00000E+00
   -0.20559E+05        -0.59813E+08         0.00000E+00
    0.00000E+00         0.00000E+00        -0.34492E+08
 
   -0.34876E+08        -0.11748E+05         0.00000E+00
   -0.11748E+05        -0.59803E+08         0.00000E+00
    0.00000E+00         0.00000E+00        -0.34480E+08
 
   -0.34820E+08        -0.15068E+04         0.00000E+00
   -0.15068E+04        -0.59800E+08         0.00000E+00
    0.00000E+00         0.00000E+00        -0.34468E+08
 
   -0.34757E+08         0.11108E+05         0.00000E+00
    0.11108E+05        -0.59804E+08         0.00000E+00
    0.00000E+00         0.00000E+00        -0.34456E+08
 
   -0.34682E+08         0.28028E+05         0.00000E+00
    0.28028E+05        -0.59817E+08         0.00000E+00
    0.00000E+00         0.00000E+00        -0.34444E+08
 
   -0.34587E+08         0.54132E+05         0.00000E+00
    0.54132E+05        -0.59844E+08         0.00000E+00
    0.00000E+00         0.00000E+00        -0.34430E+08
 
   -0.34472E+08         0.10554E+06         0.00000E+00
    0.10554E+06        -0.59890E+08         0.00000E+00
    0.00000E+00         0.00000E+00        -0.34417E+08
 
   -0.35663E+08        -0.20005E+05         0.00000E+00
   -0.20005E+05        -0.59986E+08         0.00000E+00
    0.00000E+00         0.00000E+00        -0.34605E+08
 
   -0.35459E+08        -0.23006E+05         0.00000E+00
   -0.23006E+05        -0.59949E+08         0.00000E+00
    0.00000E+00         0.00000E+00        -0.34557E+08
 
   -0.35327E+08        -0.21238E+05         0.00000E+00
   -0.21238E+05        -0.59907E+08         0.00000E+00
    0.00000E+00         0.00000E+00        -0.34522E+08
 
   -0.35228E+08        -0.19218E+05         0.00000E+00
   -0.19218E+05        -0.59868E+08         0.00000E+00
    0.00000E+00         0.00000E+00        -0.34494E+08
 
   -0.35150E+08        -0.17008E+05         0.00000E+00
   -0.17008E+05        -0.59833E+08         0.00000E+00
    0.00000E+00         0.00000E+00        -0.34472E+08
 
   -0.35084E+08        -0.14706E+05         0.00000E+00
   -0.14706E+05        -0.59802E+08         0.00000E+00
    0.00000E+00         0.00000E+00        -0.34452E+08
 
   -0.35027E+08        -0.12316E+05         0.00000E+00
   -0.12316E+05        -0.59775E+08         0.00000E+00
    0.00000E+00         0.00000E+00        -0.34436E+08
 
   -0.34974E+08        -0.98069E+04         0.00000E+00
   -0.98069E+04        -0.59753E+08         0.00000E+00
    0.00000E+00         0.00000E+00        -0.34421E+08
 
   -0.34922E+08        -0.71167E+04         0.00000E+00
   -0.71167E+04        -0.59736E+08         0.00000E+00
    0.00000E+00         0.00000E+00        -0.34407E+08
 
   -0.34870E+08        -0.41416E+04         0.00000E+00
   -0.41416E+04        -0.59725E+08         0.00000E+00
    0.00000E+00         0.00000E+00        -0.34394E+08
 
   -0.34813E+08        -0.70759E+03         0.00000E+00
   -0.70759E+03        -0.59721E+08         0.00000E+00
    0.00000E+00         0.00000E+00        -0.34382E+08
 
   -0.34747E+08         0.34991E+04         0.00000E+00
    0.34991E+04        -0.59723E+08         0.00000E+00
    0.00000E+00         0.00000E+00        -0.34369E+08
 
   -0.34668E+08         0.91570E+04         0.00000E+00
    0.91570E+04        -0.59736E+08         0.00000E+00
    0.00000E+00         0.00000E+00        -0.34356E+08
 
   -0.34564E+08         0.17805E+05         0.00000E+00
    0.17805E+05        -0.59763E+08         0.00000E+00
    0.00000E+00         0.00000E+00        -0.34341E+08
 
   -0.34406E+08         0.39560E+05         0.00000E+00
    0.39560E+05        -0.59817E+08         0.00000E+00
    0.00000E+00         0.00000E+00        -0.34320E+08
 
SCALARS stressS double 
LOOKUP_TABLE default
  -43515796.8819330     
  -43537307.5445938     
  -43557584.2978079     
  -43576663.2039245     
  -43594587.0417435     
  -43611403.7975438     
  -43627165.2279698     
  -43641925.5190256     
  -43655740.0616070     
  -43668664.3609329     
  -43680753.0949208     
  -43692059.3348648     
  -43702633.9406007     
  -43712525.1414830     
  -43721778.3137227     
  -43515059.7934839     
  -43536542.9025316     
  -43556783.7886888     
  -43575820.0810929     
  -43593696.0803878     
  -43610461.2211502     
  -43626168.6107850     
  -43640873.6683679     
  -43654632.8830682     
  -43667502.7087693     
  -43679538.6092610     
  -43690794.2668424     
  -43701320.9661837     
  -43711167.1646767     
  -43720378.2599930     
  -43513595.6630946     
  -43535022.0681173     
  -43555189.6366507     
  -43574139.1651345     
  -43591918.0262500     
  -43608578.5748811     
  -43624176.6398256     
  -43638770.1231363     
  -43652417.7251005     
  -43665177.8099207     
  -43677107.4250870     
  -43688261.4861796     
  -43698692.1382347     
  -43708448.3046769     
  -43717575.4348611     
  -43511424.6073985     
  -43532761.9248173     
  -43552815.5246458     
  -43571631.0379310     
  -43589260.5155278     
  -43605760.7512523     
  -43621191.7048452     
  -43635615.0441213     
  -43649092.8217639     
  -43661686.2993645     
  -43673454.9294835     
  -43684455.5056762     
  -43694741.4904289     
  -43704362.5315688     
  -43713364.1786365     
  -43508576.8537157     
  -43529787.7518197     
  -43549681.8480317     
  -43568311.3738033     
  -43585734.7462887     
  -43602014.7847204     
  -43617217.0456042     
  -43631408.2925890     
  -43644655.1128599     
  -43657022.6891185     
  -43668573.7347010     
  -43679367.5991106     
  -43689459.5520706     
  -43698900.2558930     
  -43707735.4381414     
  -43505092.7840436     
  -43526133.1515367     
  -43545815.5443335     
  -43564200.6881443     
  -43581355.1601768     
  -43597349.4780840     
  -43612256.3319317     
  -43626148.9703846     
  -43639099.7480999     
  -43651178.8385612     
  -43662453.1153941     
  -43672985.2056246     
  -43682832.7202430     
  -43692047.6705646     
  -43700676.0827877     
  -43501022.9617758     
  -43521839.9237582     
  -43541249.8404000     
  -43559323.9801430     
  -43576138.9999246     
  -43591774.8903911     
  -43606313.0938890     
  -43619834.8005000     
  -43632419.4227919     
  -43644143.2470684     
  -43655078.2579977     
  -43665291.1347025     
  -43674842.4196517     
  -43683785.8666943     
  -43692167.9808053     
  -43496428.1128116     
  -43516957.8607296     
  -43536023.8942492     
  -43553710.2502705     
  -43570105.7269906     
  -43585301.6744921     
  -43599389.9939752     
  -43612461.3435961     
  -43624603.5435362     
  -43635900.1696053     
  -43646429.3238954     
  -43656262.5730504     
  -43665464.0496226     
  -43674089.7194103     
  -43682186.8269571     
  -43491379.0245990     
  -43511544.4301850     
  -43530182.3025563     
  -43547391.8678437     
  -43563276.2794311     
  -43577940.2494531     
  -43591487.9317960     
  -43604021.0458613     
  -43615637.2236215     
  -43626428.5581695     
  -43636480.3309539     
  -43645869.8977562     
  -43654665.7203584     
  -43662926.5413702     
  -43670700.7130077     
  -43485956.3181145     
  -43505664.3057138     
  -43523774.4379342     
  -43540403.7581649     
  -43555672.1455273     
  -43569699.7899813     
  -43582604.9702998     
  -43594502.1141322     
  -43605500.1101315     
  -43615700.8358001     
  -43625197.8628404     
  -43634075.3053446     
  -43642406.7854169     
  -43650254.5053234     
  -43657668.4338996     
  -43480250.0390584     
  -43499388.6958057     
  -43516853.5727351     
  -43532782.3721683     
  -43547314.2234160     
  -43560587.0115385     
  -43572735.0714528     
  -43583887.2154475     
  -43594165.0484854     
  -43603681.5157309     
  -43612539.6229653     
  -43620831.2744955     
  -43628636.1852824     
  -43636020.8436719     
  -43643037.5267751     
  -43474359.0060725     
  -43492794.4145556     
  -43509475.7377879     
  -43524564.3936807     
  -43538221.4304363     
  -43550604.7254623     
  -43561866.6277995     
  -43572152.0001802     
  -43581596.5955609     
  -43590325.6867852     
  -43598452.8607455     
  -43606078.8923119     
  -43613290.6289712     
  -43620159.8435842     
  -43626742.0476937     
  -43468389.8462793     
  -43485962.6283583     
  -43501698.2547199     
  -43515785.1294411     
  -43528409.0171339     
  -43539750.1323369     
  -43549980.7742360     
  -43559263.4505094     
  -43567749.4000768     
  -43575577.3980814     
  -43582872.7132895     
  -43589746.0914228     
  -43596292.6582970     
  -43602590.6723197     
  -43608700.1035299     
  -43462455.6429068     
  -43478977.2038232     
  -43493577.8682725     
  -43506476.5133532     
  -43517886.5282039     
  -43528012.8126963     
  -43537049.4606938     
  -43545178.0591009     
  -43552566.4790161     
  -43559367.9925940     
  -43565720.5270555     
  -43571745.8696808     
  -43577548.6646278     
  -43583215.0909365     
  -43588811.1759271     
  -43456674.1174978     
  -43471922.5720155     
  -43485168.3882795     
  -43496664.6363659     
  -43506655.3334010     
  -43515372.3597617     
  -43523033.2600259     
  -43529839.8462040     
  -43535977.4322798     
  -43541614.4615935     
  -43546902.2535698     
  -43551974.5981157     
  -43556946.9631858     
  -43561915.1479541     
  -43566953.3027123     
  -43451165.2716477     
  -43464881.0113382     
  -43476517.7260275     
  -43486366.6822706     
  -43494705.6212478     
  -43501795.5760193     
  -43507878.8744272     
  -43513178.2267108     
  -43517896.6555581     
  -43522217.9225997     
  -43526307.0537468     
  -43530310.5693061     
  -43534356.0783726     
  -43538550.9908758     
  -43542980.2227120     
  -43446048.4214681     
  -43457929.2321553     
  -43467664.1697089     
  -43475587.0998062     
  -43482012.7003666     
  -43487233.1192752     
  -43491516.2859054     
  -43495105.7420589     
  -43498221.6354667     
  -43501062.3654235     
  -43503806.3007030     
  -43506613.0017191     
  -43509623.4593975     
  -43512958.9964495     
  -43516718.6457108     
  -43441438.5718556     
  -43451134.1126337     
  -43458631.6762391     
  -43464312.7598187     
  -43468532.3769414     
  -43471615.4278058     
  -43473855.4691405     
  -43475515.6760032     
  -43476831.4444680     
  -43478013.8688324     
  -43479253.2468304     
  -43480721.8017496     
  -43482574.9341139     
  -43484950.5045797     
  -43487965.8835753     
  -43437442.0935192     
  -43444547.3710291     
  -43449423.8395648     
  -43452506.7114244     
  -43454195.0565305     
  -43454847.6701917     
  -43454782.5468720     
  -43454279.5809277     
  -43453585.6011859     
  -43452920.5710995     
  -43452483.7251487     
  -43452458.5024949     
  -43453015.3280323     
  -43454311.5512986     
  -43456488.1738708     
  -43434151.6724504     
  -43438198.8326053     
  -43440015.9883799     
  -43440099.9278755     
  -43438898.0320520     
  -43436803.3454226     
  -43434155.2207725     
  -43431244.7592437     
  -43428323.5324285     
  -43425613.7900130     
  -43423318.3979917     
  -43421628.9588929     
  -43420730.8366364     
  -43420804.1408822     
  -43422020.1445860     
  -43431640.4723976     
  -43432087.6954056     
  -43430344.4946496     
  -43426980.0630032     
  -43422495.1388557     
  -43417316.0012643     
  -43411797.2673001     
  -43406231.7867423     
  -43400864.9771177     
  -43395910.8403921     
  -43391567.2604724     
  -43388028.6008676     
  -43385493.9631214     
  -43384169.7898119     
  -43384266.0072524     
  -43429955.3262792     
  -43426170.6880539     
  -43420291.6971313     
  -43412975.6275519     
  -43404782.5539777     
  -43396168.3664303     
  -43387491.8869585     
  -43379032.2593100     
  -43371011.8170337     
  -43363620.2911708     
  -43357037.3607879     
  -43351451.3599775     
  -43347072.1600958     
  -43344136.3484431     
  -43342903.2253525     
  -43429108.4256636     
  -43420344.9629589     
  -43409663.5839068     
  -43397832.9864337     
  -43385478.9907154     
  -43373078.0980630     
  -43360973.8361525     
  -43349407.1354524     
  -43338551.9969764     
  -43328550.6022835     
  -43319545.0149920     
  -43311703.8312756     
  -43305241.8389388     
  -43300429.5329831     
  -43297589.6022079     
  -43429066.0918791     
  -43414421.3551626     
  -43398154.9444651     
  -43381181.9490990     
  -43364198.0170387     
  -43347679.6103748     
  -43331920.7729098     
  -43317086.4028385     
  -43303266.3126127     
  -43290523.1844288     
  -43278934.0731257     
  -43268626.9335898     
  -43259810.2926821     
  -43252791.4238248     
  -43247975.0046488     
  -43429731.1213337     
  -43408078.5671901     
  -43385291.8958073     
  -43362483.2228238     
  -43340410.2743282     
  -43319502.8170568     
  -43299945.5265376     
  -43281771.3230529     
  -43264938.7226079     
  -43249390.4413766     
  -43235102.0127438     
  -43222128.1555048     
  -43210650.0470333     
  -43201009.7265861     
  -43193719.6439703     
  -43430908.8988382     
  -43400776.9602396     
  -43370331.4476120     
  -43340948.1033531     
  -43313396.1264107     
  -43287953.5347327     
  -43264593.7123450     
  -43243141.0947025     
  -43223369.6197520     
  -43205058.1662932     
  -43188033.9668105     
  -43172229.8798108     
  -43157752.7696911     
  -43144966.7336872     
  -43134521.7539436     
  -43432232.3013009     
  -43391574.6563974     
  -43352078.3032378     
  -43315422.2328889     
  -43282200.1011330     
  -43252310.4621940     
  -43225353.8154226     
  -43200865.9635214     
  -43178390.0630066     
  -43157504.9212164     
  -43137844.5648847     
  -43119134.3163414     
  -43101325.1494537     
  -43084721.4615303     
  -43070166.6301300     
  -43432925.6786212     
  -43378699.8537357     
  -43328541.3618725     
  -43284253.7065698     
  -43245642.9279735     
  -43211758.2992333     
  -43181688.6737695     
  -43154628.0547916     
  -43129872.2236212     
  -43106789.5032798     
  -43084792.7020301     
  -43063333.0498963     
  -43041924.6010650     
  -43020714.1832913     
  -43000596.3510277     
  -43431068.2004210     
  -43358294.1386506     
  -43296401.8579515     
  -43245416.8285267     
  -43202433.5013287     
  -43165479.2784921     
  -43133091.7285661     
  -43104149.0432909     
  -43077732.5186263     
  -43053030.2638537     
  -43029255.7369544     
  -43005558.4998220     
  -42980946.8707195     
  -42953999.7919744     
  -42926272.1124119     
  -43417935.2049647     
  -43321505.3625991     
  -43251973.0157875     
  -43196893.6636596     
  -43151431.2627151     
  -43112793.3539851     
  -43079161.8816766     
  -43049220.6950806     
  -43021925.4589947     
  -42996359.5464766     
  -42971614.6490437     
  -42946648.5577606     
  -42920021.5645276     
  -42889348.0552304     
  -42847591.3673620     
SCALARS 2waySource double 
LOOKUP_TABLE default
 -2.444207709708838E-004
 -2.445259996819428E-004
 -2.446227327787425E-004
 -2.447116549482374E-004
 -2.447934283288844E-004
 -2.448686911827183E-004
 -2.449380567637338E-004
 -2.450021124259457E-004
 -2.450614190036838E-004
 -2.451165104886473E-004
 -2.451678940222838E-004
 -2.452160502191713E-004
 -2.452614338357448E-004
 -2.453044747999445E-004
 -2.453455796194079E-004
 -2.444156969883330E-004
 -2.445205203198515E-004
 -2.446168613520042E-004
 -2.447054056059412E-004
 -2.447868160146999E-004
 -2.448617315631556E-004
 -2.449307661272593E-004
 -2.449945075561508E-004
 -2.450535170297653E-004
 -2.451083287164757E-004
 -2.451594497494238E-004
 -2.452073605366725E-004
 -2.452525154191770E-004
 -2.452953436911351E-004
 -2.453362509992665E-004
 -2.444077814738756E-004
 -2.445117587834227E-004
 -2.446072735250381E-004
 -2.446950140943294E-004
 -2.447756461361183E-004
 -2.448498110881200E-004
 -2.449181249400488E-004
 -2.449811772495229E-004
 -2.450395304449963E-004
 -2.450937194380722E-004
 -2.451442515614066E-004
 -2.451916068451997E-004
 -2.452362386439034E-004
 -2.452785746257005E-004
 -2.453190181394200E-004
 -2.443971100370430E-004
 -2.444997945976775E-004
 -2.445940428093107E-004
 -2.446805481335785E-004
 -2.447599809737422E-004
 -2.448329870604769E-004
 -2.449001860826539E-004
 -2.449621705993184E-004
 -2.450195052586606E-004
 -2.450727263414997E-004
 -2.451223416408905E-004
 -2.451688306865320E-004
 -2.452126453214156E-004
 -2.452542106399182E-004
 -2.452939262992743E-004
 -2.443838079351107E-004
 -2.444847435374038E-004
 -2.445772756485822E-004
 -2.446621052220317E-004
 -2.447399096627365E-004
 -2.448113409987612E-004
 -2.448770243403378E-004
 -2.449375566554448E-004
 -2.449935058804658E-004
 -2.450454103761236E-004
 -2.450937787333708E-004
 -2.451390899310366E-004
 -2.451817938466515E-004
 -2.452223121241096E-004
 -2.452610394068251E-004
 -2.443680399196108E-004
 -2.444667571521188E-004
 -2.445571106688738E-004
 -2.446398116526823E-004
 -2.447155470121972E-004
 -2.447849772901111E-004
 -2.448487349148332E-004
 -2.449074228148320E-004
 -2.449616134041522E-004
 -2.450118479394714E-004
 -2.450586362436546E-004
 -2.451024567878916E-004
 -2.451437571252019E-004
 -2.451829546714473E-004
 -2.452204378370659E-004
 -2.443500099501189E-004
 -2.444460220575435E-004
 -2.445337176127851E-004
 -2.446138211481497E-004
 -2.446870318907307E-004
 -2.447540213683188E-004
 -2.448154314284613E-004
 -2.448718726770372E-004
 -2.449239233322469E-004
 -2.449721284818254E-004
 -2.450169997252150E-004
 -2.450590151801377E-004
 -2.450986198339415E-004
 -2.451362262254977E-004
 -2.451722154529225E-004
 -2.443299606970523E-004
 -2.444227589222757E-004
 -2.445072958946353E-004
 -2.445843130589915E-004
 -2.446545251318804E-004
 -2.447186173795550E-004
 -2.447772433921485E-004
 -2.448310233452430E-004
 -2.448805427297494E-004
 -2.449263515219397E-004
 -2.449689637589027E-004
 -2.450088574815010E-004
 -2.450464750084586E-004
 -2.450822235127215E-004
 -2.451164758837751E-004
 -2.443081727322180E-004
 -2.443972210577211E-004
 -2.444780726952017E-004
 -2.445514900551274E-004
 -2.446182069010541E-004
 -2.446789252897705E-004
 -2.447343131038489E-004
 -2.447850021513330E-004
 -2.448315867961400E-004
 -2.448746230721475E-004
 -2.449146282248260E-004
 -2.449520806196360E-004
 -2.449874199580582E-004
 -2.450210477510791E-004
 -2.450533280177029E-004
 -2.442849632812469E-004
 -2.443696924986295E-004
 -2.444463004962255E-004
 -2.445155752247139E-004
 -2.445782734531987E-004
 -2.446351173789994E-004
 -2.446867919394242E-004
 -2.447339427836814E-004
 -2.447771748502334E-004
 -2.448170514801471E-004
 -2.448540939830365E-004
 -2.448887815643140E-004
 -2.449215515224982E-004
 -2.449527996370105E-004
 -2.449828806899661E-004
 -2.442606843874851E-004
 -2.443404854391221E-004
 -2.444122539357216E-004
 -2.444768084774773E-004
 -2.445349331958614E-004
 -2.445873740574086E-004
 -2.446348359931492E-004
 -2.446779807984073E-004
 -2.447174257306384E-004
 -2.447537427091135E-004
 -2.447874579982500E-004
 -2.448190522410502E-004
 -2.448489607070216E-004
 -2.448775736328753E-004
 -2.449052365646951E-004
 -2.442357203122074E-004
 -2.443099368676486E-004
 -2.443762258430855E-004
 -2.444354421290659E-004
 -2.444884019554001E-004
 -2.445358789261564E-004
 -2.445786010201720E-004
 -2.446172484980350E-004
 -2.446524526274424E-004
 -2.446847950997562E-004
 -2.447148079722591E-004
 -2.447429739439594E-004
 -2.447697267665608E-004
 -2.447954516086316E-004
 -2.448204852318839E-004
 -2.442104839754976E-004
 -2.442784042216450E-004
 -2.443385222897729E-004
 -2.443917355181095E-004
 -2.444388973201071E-004
 -2.444808129877318E-004
 -2.445182366251972E-004
 -2.445518691664629E-004
 -2.445823573792847E-004
 -2.446102936888259E-004
 -2.446362165896253E-004
 -2.446606113700662E-004
 -2.446839108607243E-004
 -2.447064959395670E-004
 -2.447286955820050E-004
 -2.441854122276792E-004
 -2.442462598623175E-004
 -2.442994564607397E-004
 -2.443459484722252E-004
 -2.443866318996520E-004
 -2.444223478843282E-004
 -2.444538796288538E-004
 -2.444819506547702E-004
 -2.445072242953532E-004
 -2.445303042028432E-004
 -2.445517355412350E-004
 -2.445720064662163E-004
 -2.445915494739895E-004
 -2.446107422321033E-004
 -2.446299075815595E-004
 -2.441609597383061E-004
 -2.442138841482624E-004
 -2.442593411123336E-004
 -2.442983333861749E-004
 -2.443318052857820E-004
 -2.443606379983610E-004
 -2.443856465211401E-004
 -2.444075783177419E-004
 -2.444271135967801E-004
 -2.444448669076385E-004
 -2.444613895731308E-004
 -2.444771723763277E-004
 -2.444926478975717E-004
 -2.445081919488243E-004
 -2.445241236610357E-004
 -2.441375913053109E-004
 -2.441816568623467E-004
 -2.442184793202587E-004
 -2.442491255902421E-004
 -2.442745944099532E-004
 -2.442958111784978E-004
 -2.443136248737125E-004
 -2.443288073068146E-004
 -2.443420546212576E-004
 -2.443539905813826E-004
 -2.443651709241547E-004
 -2.443760879108092E-004
 -2.443871742106077E-004
 -2.443988053416272E-004
 -2.444113000507264E-004
 -2.441157724256733E-004
 -2.441499467103451E-004
 -2.441771531175865E-004
 -2.441985315427128E-004
 -2.442151418463135E-004
 -2.442279577381359E-004
 -2.442378635232406E-004
 -2.442456542319649E-004
 -2.442520390061304E-004
 -2.442576470035329E-004
 -2.442630346780854E-004
 -2.442686931438671E-004
 -2.442750543896604E-004
 -2.442824952879013E-004
 -2.442913385691248E-004
 -2.440959580381442E-004
 -2.441190985406177E-004
 -2.441356094393564E-004
 -2.441467141340088E-004
 -2.441535413636822E-004
 -2.441571171879749E-004
 -2.441583612483595E-004
 -2.441580882213632E-004
 -2.441570141755130E-004
 -2.441557665334906E-004
 -2.441548957832414E-004
 -2.441548869954068E-004
 -2.441561694321462E-004
 -2.441591228715551E-004
 -2.441640795921901E-004
 -2.440785794458145E-004
 -2.440894177900239E-004
 -2.440940424542099E-004
 -2.440937739625915E-004
 -2.440898196270144E-004
 -2.440832618787079E-004
 -2.440750535409906E-004
 -2.440660214505259E-004
 -2.440568776338089E-004
 -2.440482356205421E-004
 -2.440406288113013E-004
 -2.440345279939265E-004
 -2.440303557184282E-004
 -2.440284958722041E-004
 -2.440292972190078E-004
 -2.440640295368399E-004
 -2.440611513519432E-004
 -2.440525707418371E-004
 -2.440397247018756E-004
 -2.440239122946238E-004
 -2.440062763079208E-004
 -2.439877969345609E-004
 -2.439692993265702E-004
 -2.439514728614729E-004
 -2.439348974842047E-004
 -2.439200719715192E-004
 -2.439074398725688E-004
 -2.438974102822869E-004
 -2.438903717398057E-004
 -2.438866980078950E-004
 -2.440526465009364E-004
 -2.440344634062450E-004
 -2.440112066107492E-004
 -2.439844593886336E-004
 -2.439556317201776E-004
 -2.439259302733758E-004
 -2.438963502599007E-004
 -2.438676907842811E-004
 -2.438405880937741E-004
 -2.438155577850722E-004
 -2.437930375069289E-004
 -2.437734242565166E-004
 -2.437571032460236E-004
 -2.437444671695658E-004
 -2.437359250997916E-004
 -2.440446961778434E-004
 -2.440094033696233E-004
 -2.439698126352023E-004
 -2.439277022203283E-004
 -2.438846218885783E-004
 -2.438418434092312E-004
 -2.438003523366360E-004
 -2.437608797435383E-004
 -2.437239600317125E-004
 -2.436899979176150E-004
 -2.436593314031700E-004
 -2.436322835084108E-004
 -2.436092004658519E-004
 -2.435904771308204E-004
 -2.435765701081575E-004
 -2.440403527534252E-004
 -2.439858601607912E-004
 -2.439280361655246E-004
 -2.438689365330981E-004
 -2.438102940163690E-004
 -2.437534382982712E-004
 -2.436992964229316E-004
 -2.436484599392382E-004
 -2.436012856403776E-004
 -2.435579995372449E-004
 -2.435187863635786E-004
 -2.434838578546293E-004
 -2.434535006095976E-004
 -2.434281072993589E-004
 -2.434081959797738E-004
 -2.440396761417665E-004
 -2.439634904493968E-004
 -2.438852037099663E-004
 -2.438072928894721E-004
 -2.437317338590100E-004
 -2.436598805438098E-004
 -2.435925042153358E-004
 -2.435299373546568E-004
 -2.434722463255212E-004
 -2.434193848730440E-004
 -2.433713130027752E-004
 -2.433280825846773E-004
 -2.432898926158400E-004
 -2.432571259469468E-004
 -2.432303754070202E-004
 -2.440425811528891E-004
 -2.439415925368455E-004
 -2.438401383439272E-004
 -2.437413700389278E-004
 -2.436475717419809E-004
 -2.435600103942697E-004
 -2.434791080249705E-004
 -2.434047471237468E-004
 -2.433365490603670E-004
 -2.432740766999152E-004
 -2.432169757377558E-004
 -2.431650727895721E-004
 -2.431184438244788E-004
 -2.430774445774775E-004
 -2.430427530503156E-004
 -2.440487812604658E-004
 -2.439188572577033E-004
 -2.437908195870792E-004
 -2.436689476092757E-004
 -2.435558190545055E-004
 -2.434522887917193E-004
 -2.433580613049616E-004
 -2.432722930695392E-004
 -2.431939843540475E-004
 -2.431221794959073E-004
 -2.430560965235755E-004
 -2.429952520546261E-004
 -2.429395313078575E-004
 -2.428892504024714E-004
 -2.428451453525848E-004
 -2.440576664098176E-004
 -2.438927875878348E-004
 -2.437337151859951E-004
 -2.435865551205602E-004
 -2.434537293873153E-004
 -2.433348269940202E-004
 -2.432282055056940E-004
 -2.431320147953962E-004
 -2.430444909514100E-004
 -2.429640606666537E-004
 -2.428893991759691E-004
 -2.428195265278599E-004
 -2.427540772162366E-004
 -2.426932045968705E-004
 -2.426377339895737E-004
 -2.440677933791813E-004
 -2.438581979032053E-004
 -2.436624210184676E-004
 -2.434890210294123E-004
 -2.433379544796612E-004
 -2.432055767909130E-004
 -2.430884179789197E-004
 -2.429834758286799E-004
 -2.428882007907092E-004
 -2.428003892478231E-004
 -2.427181003464813E-004
 -2.426396566240221E-004
 -2.425638111507175E-004
 -2.424909699876377E-004
 -2.424213652535269E-004
 -2.440750829102561E-004
 -2.438020367148578E-004
 -2.435656324274841E-004
 -2.433703436999835E-004
 -2.432051431398186E-004
 -2.430627307774914E-004
 -2.429378238644586E-004
 -2.428264515815586E-004
 -2.427254353484711E-004
 -2.426320601756307E-004
 -2.425438333441657E-004
 -2.424582848461701E-004
 -2.423728639382284E-004
 -2.422850744391730E-004
 -2.421991410538286E-004
 -2.440501121025571E-004
 -2.436916637594154E-004
 -2.434327106720879E-004
 -2.432256282641605E-004
 -2.430530004335890E-004
 -2.429051938454478E-004
 -2.427760077438015E-004
 -2.426609873969606E-004
 -2.425566430323492E-004
 -2.424599938587343E-004
 -2.423682303321964E-004
 -2.422783669846917E-004
 -2.421867481492910E-004
 -2.420879997407370E-004
 -2.419743346955913E-004
SCALARS poroP double 
LOOKUP_TABLE default
  0.000000000000000E+000
  0.000000000000000E+000
  0.000000000000000E+000
  0.000000000000000E+000
  0.000000000000000E+000
  0.000000000000000E+000
  0.000000000000000E+000
  0.000000000000000E+000
  0.000000000000000E+000
  0.000000000000000E+000
  0.000000000000000E+000
  0.000000000000000E+000
  0.000000000000000E+000
  0.000000000000000E+000
  0.000000000000000E+000
  0.000000000000000E+000
  0.000000000000000E+000
  0.000000000000000E+000
  0.000000000000000E+000
  0.000000000000000E+000
  0.000000000000000E+000
  0.000000000000000E+000
  0.000000000000000E+000
  0.000000000000000E+000
  0.000000000000000E+000
  0.000000000000000E+000
  0.000000000000000E+000
  0.000000000000000E+000
  0.000000000000000E+000
  0.000000000000000E+000
  0.000000000000000E+000
  0.000000000000000E+000
  0.000000000000000E+000
  0.000000000000000E+000
  0.000000000000000E+000
  0.000000000000000E+000
  0.000000000000000E+000
  0.000000000000000E+000
  0.000000000000000E+000
  0.000000000000000E+000
  0.000000000000000E+000
  0.000000000000000E+000
  0.000000000000000E+000
  0.000000000000000E+000
  0.000000000000000E+000
  0.000000000000000E+000
  0.000000000000000E+000
  0.000000000000000E+000
  0.000000000000000E+000
  0.000000000000000E+000
  0.000000000000000E+000
  0.000000000000000E+000
  0.000000000000000E+000
  0.000000000000000E+000
  0.000000000000000E+000
  0.000000000000000E+000
  0.000000000000000E+000
  0.000000000000000E+000
  0.000000000000000E+000
  0.000000000000000E+000
  0.000000000000000E+000
  0.000000000000000E+000
  0.000000000000000E+000
  0.000000000000000E+000
  0.000000000000000E+000
  0.000000000000000E+000
  0.000000000000000E+000
  0.000000000000000E+000
  0.000000000000000E+000
  0.000000000000000E+000
  0.000000000000000E+000
  0.000000000000000E+000
  0.000000000000000E+000
  0.000000000000000E+000
  0.000000000000000E+000
  0.000000000000000E+000
  0.000000000000000E+000
  0.000000000000000E+000
  0.000000000000000E+000
  0.000000000000000E+000
  0.000000000000000E+000
  0.000000000000000E+000
  0.000000000000000E+000
  0.000000000000000E+000
  0.000000000000000E+000
  0.000000000000000E+000
  0.000000000000000E+000
  0.000000000000000E+000
  0.000000000000000E+000
  0.000000000000000E+000
  0.000000000000000E+000
  0.000000000000000E+000
  0.000000000000000E+000
  0.000000000000000E+000
  0.000000000000000E+000
  0.000000000000000E+000
  0.000000000000000E+000
  0.000000000000000E+000
  0.000000000000000E+000
  0.000000000000000E+000
  0.000000000000000E+000
  0.000000000000000E+000
  0.000000000000000E+000
  0.000000000000000E+000
  0.000000000000000E+000
  0.000000000000000E+000
  0.000000000000000E+000
  0.000000000000000E+000
  0.000000000000000E+000
  0.000000000000000E+000
  0.000000000000000E+000
  0.000000000000000E+000
  0.000000000000000E+000
  0.000000000000000E+000
  0.000000000000000E+000
  0.000000000000000E+000
  0.000000000000000E+000
  0.000000000000000E+000
  0.000000000000000E+000
  0.000000000000000E+000
  0.000000000000000E+000
  0.000000000000000E+000
  0.000000000000000E+000
  0.000000000000000E+000
  0.000000000000000E+000
  0.000000000000000E+000
  0.000000000000000E+000
  0.000000000000000E+000
  0.000000000000000E+000
  0.000000000000000E+000
  0.000000000000000E+000
  0.000000000000000E+000
  0.000000000000000E+000
  0.000000000000000E+000
  0.000000000000000E+000
  0.000000000000000E+000
  0.000000000000000E+000
  0.000000000000000E+000
  0.000000000000000E+000
  0.000000000000000E+000
  0.000000000000000E+000
  0.000000000000000E+000
  0.000000000000000E+000
  0.000000000000000E+000
  0.000000000000000E+000
  0.000000000000000E+000
  0.000000000000000E+000
  0.000000000000000E+000
  0.000000000000000E+000
  0.000000000000000E+000
  0.000000000000000E+000
  0.000000000000000E+000
  0.000000000000000E+000
  0.000000000000000E+000
  0.000000000000000E+000
  0.000000000000000E+000
  0.000000000000000E+000
  0.000000000000000E+000
  0.000000000000000E+000
  0.000000000000000E+000
  0.000000000000000E+000
  0.000000000000000E+000
  0.000000000000000E+000
  0.000000000000000E+000
  0.000000000000000E+000
  0.000000000000000E+000
  0.000000000000000E+000
  0.000000000000000E+000
  0.000000000000000E+000
  0.000000000000000E+000
  0.000000000000000E+000
  0.000000000000000E+000
  0.000000000000000E+000
  0.000000000000000E+000
  0.000000000000000E+000
  0.000000000000000E+000
  0.000000000000000E+000
  0.000000000000000E+000
  0.000000000000000E+000
  0.000000000000000E+000
  0.000000000000000E+000
  0.000000000000000E+000
  0.000000000000000E+000
  0.000000000000000E+000
  0.000000000000000E+000
  0.000000000000000E+000
  0.000000000000000E+000
  0.000000000000000E+000
  0.000000000000000E+000
  0.000000000000000E+000
  0.000000000000000E+000
  0.000000000000000E+000
  0.000000000000000E+000
  0.000000000000000E+000
  0.000000000000000E+000
  0.000000000000000E+000
  0.000000000000000E+000
  0.000000000000000E+000
  0.000000000000000E+000
  0.000000000000000E+000
  0.000000000000000E+000
  0.000000000000000E+000
  0.000000000000000E+000
  0.000000000000000E+000
  0.000000000000000E+000
  0.000000000000000E+000
  0.000000000000000E+000
  0.000000000000000E+000
  0.000000000000000E+000
  0.000000000000000E+000
  0.000000000000000E+000
  0.000000000000000E+000
  0.000000000000000E+000
  0.000000000000000E+000
  0.000000000000000E+000
  0.000000000000000E+000
  0.000000000000000E+000
  0.000000000000000E+000
  0.000000000000000E+000
  0.000000000000000E+000
  0.000000000000000E+000
  0.000000000000000E+000
  0.000000000000000E+000
  0.000000000000000E+000
  0.000000000000000E+000
  0.000000000000000E+000
  0.000000000000000E+000
  0.000000000000000E+000
  0.000000000000000E+000
  0.000000000000000E+000
  0.000000000000000E+000
  0.000000000000000E+000
  0.000000000000000E+000
  0.000000000000000E+000
  0.000000000000000E+000
  0.000000000000000E+000
  0.000000000000000E+000
  0.000000000000000E+000
  0.000000000000000E+000
  0.000000000000000E+000
  0.000000000000000E+000
  0.000000000000000E+000
  0.000000000000000E+000
  0.000000000000000E+000
  0.000000000000000E+000
  0.000000000000000E+000
  0.000000000000000E+000
  0.000000000000000E+000
  0.000000000000000E+000
  0.000000000000000E+000
  0.000000000000000E+000
  0.000000000000000E+000
  0.000000000000000E+000
  0.000000000000000E+000
  0.000000000000000E+000
  0.000000000000000E+000
  0.000000000000000E+000
  0.000000000000000E+000
  0.000000000000000E+000
  0.000000000000000E+000
  0.000000000000000E+000
  0.000000000000000E+000
  0.000000000000000E+000
  0.000000000000000E+000
  0.000000000000000E+000
  0.000000000000000E+000
  0.000000000000000E+000
  0.000000000000000E+000
  0.000000000000000E+000
  0.000000000000000E+000
  0.000000000000000E+000
  0.000000000000000E+000
  0.000000000000000E+000
  0.000000000000000E+000
  0.000000000000000E+000
  0.000000000000000E+000
  0.000000000000000E+000
  0.000000000000000E+000
  0.000000000000000E+000
  0.000000000000000E+000
  0.000000000000000E+000
  0.000000000000000E+000
  0.000000000000000E+000
  0.000000000000000E+000
  0.000000000000000E+000
  0.000000000000000E+000
  0.000000000000000E+000
  0.000000000000000E+000
  0.000000000000000E+000
  0.000000000000000E+000
  0.000000000000000E+000
  0.000000000000000E+000
  0.000000000000000E+000
  0.000000000000000E+000
  0.000000000000000E+000
  0.000000000000000E+000
  0.000000000000000E+000
  0.000000000000000E+000
  0.000000000000000E+000
  0.000000000000000E+000
  0.000000000000000E+000
  0.000000000000000E+000
  0.000000000000000E+000
  0.000000000000000E+000
  0.000000000000000E+000
  0.000000000000000E+000
  0.000000000000000E+000
  0.000000000000000E+000
  0.000000000000000E+000
  0.000000000000000E+000
  0.000000000000000E+000
  0.000000000000000E+000
  0.000000000000000E+000
  0.000000000000000E+000
  0.000000000000000E+000
  0.000000000000000E+000
  0.000000000000000E+000
  0.000000000000000E+000
  0.000000000000000E+000
  0.000000000000000E+000
  0.000000000000000E+000
  0.000000000000000E+000
  0.000000000000000E+000
  0.000000000000000E+000
  0.000000000000000E+000
  0.000000000000000E+000
  0.000000000000000E+000
  0.000000000000000E+000
  0.000000000000000E+000
  0.000000000000000E+000
  0.000000000000000E+000
  0.000000000000000E+000
  0.000000000000000E+000
  0.000000000000000E+000
  0.000000000000000E+000
  0.000000000000000E+000
  0.000000000000000E+000
  0.000000000000000E+000
  0.000000000000000E+000
  0.000000000000000E+000
  0.000000000000000E+000
  0.000000000000000E+000
  0.000000000000000E+000
  0.000000000000000E+000
  0.000000000000000E+000
  0.000000000000000E+000
  0.000000000000000E+000
  0.000000000000000E+000
  0.000000000000000E+000
  0.000000000000000E+000
  0.000000000000000E+000
  0.000000000000000E+000
  0.000000000000000E+000
  0.000000000000000E+000
  0.000000000000000E+000
  0.000000000000000E+000
  0.000000000000000E+000
  0.000000000000000E+000
  0.000000000000000E+000
  0.000000000000000E+000
  0.000000000000000E+000
  0.000000000000000E+000
  0.000000000000000E+000
  0.000000000000000E+000
  0.000000000000000E+000
  0.000000000000000E+000
  0.000000000000000E+000
  0.000000000000000E+000
  0.000000000000000E+000
  0.000000000000000E+000
  0.000000000000000E+000
  0.000000000000000E+000
  0.000000000000000E+000
  0.000000000000000E+000
  0.000000000000000E+000
  0.000000000000000E+000
  0.000000000000000E+000
  0.000000000000000E+000
  0.000000000000000E+000
  0.000000000000000E+000
  0.000000000000000E+000
  0.000000000000000E+000
  0.000000000000000E+000
  0.000000000000000E+000
  0.000000000000000E+000
  0.000000000000000E+000
  0.000000000000000E+000
  0.000000000000000E+000
  0.000000000000000E+000
  0.000000000000000E+000
  0.000000000000000E+000
  0.000000000000000E+000
  0.000000000000000E+000
  0.000000000000000E+000
  0.000000000000000E+000
  0.000000000000000E+000
  0.000000000000000E+000
  0.000000000000000E+000
  0.000000000000000E+000
  0.000000000000000E+000
  0.000000000000000E+000
  0.000000000000000E+000
  0.000000000000000E+000
  0.000000000000000E+000
  0.000000000000000E+000
  0.000000000000000E+000
  0.000000000000000E+000
  0.000000000000000E+000
  0.000000000000000E+000
  0.000000000000000E+000
  0.000000000000000E+000
  0.000000000000000E+000
  0.000000000000000E+000
  0.000000000000000E+000
  0.000000000000000E+000
  0.000000000000000E+000
  0.000000000000000E+000
  0.000000000000000E+000
  0.000000000000000E+000
  0.000000000000000E+000
  0.000000000000000E+000
  0.000000000000000E+000
  0.000000000000000E+000
  0.000000000000000E+000
  0.000000000000000E+000
  0.000000000000000E+000
  0.000000000000000E+000
  0.000000000000000E+000
  0.000000000000000E+000
  0.000000000000000E+000
  0.000000000000000E+000
  0.000000000000000E+000
  0.000000000000000E+000
  0.000000000000000E+000
  0.000000000000000E+000
  0.000000000000000E+000
  0.000000000000000E+000
  0.000000000000000E+000
  0.000000000000000E+000
  0.000000000000000E+000
  0.000000000000000E+000
  0.000000000000000E+000
  0.000000000000000E+000
  0.000000000000000E+000
  0.000000000000000E+000
  0.000000000000000E+000
  0.000000000000000E+000
  0.000000000000000E+000
  0.000000000000000E+000
  0.000000000000000E+000
SCALARS elementIsPlast double 
LOOKUP_TABLE default
  0.000000000000000E+000
  0.000000000000000E+000
  0.000000000000000E+000
  0.000000000000000E+000
  0.000000000000000E+000
  0.000000000000000E+000
  0.000000000000000E+000
  0.000000000000000E+000
  0.000000000000000E+000
  0.000000000000000E+000
  0.000000000000000E+000
  0.000000000000000E+000
  0.000000000000000E+000
  0.000000000000000E+000
  0.000000000000000E+000
  0.000000000000000E+000
  0.000000000000000E+000
  0.000000000000000E+000
  0.000000000000000E+000
  0.000000000000000E+000
  0.000000000000000E+000
  0.000000000000000E+000
  0.000000000000000E+000
  0.000000000000000E+000
  0.000000000000000E+000
  0.000000000000000E+000
  0.000000000000000E+000
  0.000000000000000E+000
  0.000000000000000E+000
  0.000000000000000E+000
  0.000000000000000E+000
  0.000000000000000E+000
  0.000000000000000E+000
  0.000000000000000E+000
  0.000000000000000E+000
  0.000000000000000E+000
  0.000000000000000E+000
  0.000000000000000E+000
  0.000000000000000E+000
  0.000000000000000E+000
  0.000000000000000E+000
  0.000000000000000E+000
  0.000000000000000E+000
  0.000000000000000E+000
  0.000000000000000E+000
  0.000000000000000E+000
  0.000000000000000E+000
  0.000000000000000E+000
  0.000000000000000E+000
  0.000000000000000E+000
  0.000000000000000E+000
  0.000000000000000E+000
  0.000000000000000E+000
  0.000000000000000E+000
  0.000000000000000E+000
  0.000000000000000E+000
  0.000000000000000E+000
  0.000000000000000E+000
  0.000000000000000E+000
  0.000000000000000E+000
  0.000000000000000E+000
  0.000000000000000E+000
  0.000000000000000E+000
  0.000000000000000E+000
  0.000000000000000E+000
  0.000000000000000E+000
  0.000000000000000E+000
  0.000000000000000E+000
  0.000000000000000E+000
  0.000000000000000E+000
  0.000000000000000E+000
  0.000000000000000E+000
  0.000000000000000E+000
  0.000000000000000E+000
  0.000000000000000E+000
  0.000000000000000E+000
  0.000000000000000E+000
  0.000000000000000E+000
  0.000000000000000E+000
  0.000000000000000E+000
  0.000000000000000E+000
  0.000000000000000E+000
  0.000000000000000E+000
  0.000000000000000E+000
  0.000000000000000E+000
  0.000000000000000E+000
  0.000000000000000E+000
  0.000000000000000E+000
  0.000000000000000E+000
  0.000000000000000E+000
  0.000000000000000E+000
  0.000000000000000E+000
  0.000000000000000E+000
  0.000000000000000E+000
  0.000000000000000E+000
  0.000000000000000E+000
  0.000000000000000E+000
  0.000000000000000E+000
  0.000000000000000E+000
  0.000000000000000E+000
  0.000000000000000E+000
  0.000000000000000E+000
  0.000000000000000E+000
  0.000000000000000E+000
  0.000000000000000E+000
  0.000000000000000E+000
  0.000000000000000E+000
  0.000000000000000E+000
  0.000000000000000E+000
  0.000000000000000E+000
  0.000000000000000E+000
  0.000000000000000E+000
  0.000000000000000E+000
  0.000000000000000E+000
  0.000000000000000E+000
  0.000000000000000E+000
  0.000000000000000E+000
  0.000000000000000E+000
  0.000000000000000E+000
  0.000000000000000E+000
  0.000000000000000E+000
  0.000000000000000E+000
  0.000000000000000E+000
  0.000000000000000E+000
  0.000000000000000E+000
  0.000000000000000E+000
  0.000000000000000E+000
  0.000000000000000E+000
  0.000000000000000E+000
  0.000000000000000E+000
  0.000000000000000E+000
  0.000000000000000E+000
  0.000000000000000E+000
  0.000000000000000E+000
  0.000000000000000E+000
  0.000000000000000E+000
  0.000000000000000E+000
  0.000000000000000E+000
  0.000000000000000E+000
  0.000000000000000E+000
  0.000000000000000E+000
  0.000000000000000E+000
  0.000000000000000E+000
  0.000000000000000E+000
  0.000000000000000E+000
  0.000000000000000E+000
  0.000000000000000E+000
  0.000000000000000E+000
  0.000000000000000E+000
  0.000000000000000E+000
  0.000000000000000E+000
  0.000000000000000E+000
  0.000000000000000E+000
  0.000000000000000E+000
  0.000000000000000E+000
  0.000000000000000E+000
  0.000000000000000E+000
  0.000000000000000E+000
  0.000000000000000E+000
  0.000000000000000E+000
  0.000000000000000E+000
  0.000000000000000E+000
  0.000000000000000E+000
  0.000000000000000E+000
  0.000000000000000E+000
  0.000000000000000E+000
  0.000000000000000E+000
  0.000000000000000E+000
  0.000000000000000E+000
  0.000000000000000E+000
  0.000000000000000E+000
  0.000000000000000E+000
  0.000000000000000E+000
  0.000000000000000E+000
  0.000000000000000E+000
  0.000000000000000E+000
  0.000000000000000E+000
  0.000000000000000E+000
  0.000000000000000E+000
  0.000000000000000E+000
  0.000000000000000E+000
  0.000000000000000E+000
  0.000000000000000E+000
  0.000000000000000E+000
  0.000000000000000E+000
  0.000000000000000E+000
  0.000000000000000E+000
  0.000000000000000E+000
  0.000000000000000E+000
  0.000000000000000E+000
  0.000000000000000E+000
  0.000000000000000E+000
  0.000000000000000E+000
  0.000000000000000E+000
  0.000000000000000E+000
  0.000000000000000E+000
  0.000000000000000E+000
  0.000000000000000E+000
  0.000000000000000E+000
  0.000000000000000E+000
  0.000000000000000E+000
  0.000000000000000E+000
  0.000000000000000E+000
  0.000000000000000E+000
  0.000000000000000E+000
  0.000000000000000E+000
  0.000000000000000E+000
  0.000000000000000E+000
  0.000000000000000E+000
  0.000000000000000E+000
  0.000000000000000E+000
  0.000000000000000E+000
  0.000000000000000E+000
  0.000000000000000E+000
  0.000000000000000E+000
  0.000000000000000E+000
  0.000000000000000E+000
  0.000000000000000E+000
  0.000000000000000E+000
  0.000000000000000E+000
  0.000000000000000E+000
  0.000000000000000E+000
  0.000000000000000E+000
  0.000000000000000E+000
  0.000000000000000E+000
  0.000000000000000E+000
  0.000000000000000E+000
  0.000000000000000E+000
  0.000000000000000E+000
  0.000000000000000E+000
  0.000000000000000E+000
  0.000000000000000E+000
  0.000000000000000E+000
  0.000000000000000E+000
  0.000000000000000E+000
  0.000000000000000E+000
  0.000000000000000E+000
  0.000000000000000E+000
  0.000000000000000E+000
  0.000000000000000E+000
  0.000000000000000E+000
  0.000000000000000E+000
  0.000000000000000E+000
  0.000000000000000E+000
  0.000000000000000E+000
  0.000000000000000E+000
  0.000000000000000E+000
  0.000000000000000E+000
  0.000000000000000E+000
  0.000000000000000E+000
  0.000000000000000E+000
  0.000000000000000E+000
  0.000000000000000E+000
  0.000000000000000E+000
  0.000000000000000E+000
  0.000000000000000E+000
  0.000000000000000E+000
  0.000000000000000E+000
  0.000000000000000E+000
  0.000000000000000E+000
  0.000000000000000E+000
  0.000000000000000E+000
  0.000000000000000E+000
  0.000000000000000E+000
  0.000000000000000E+000
  0.000000000000000E+000
  0.000000000000000E+000
  0.000000000000000E+000
  0.000000000000000E+000
  0.000000000000000E+000
  0.000000000000000E+000
  0.000000000000000E+000
  0.000000000000000E+000
  0.000000000000000E+000
  0.000000000000000E+000
  0.000000000000000E+000
  0.000000000000000E+000
  0.000000000000000E+000
  0.000000000000000E+000
  0.000000000000000E+000
  0.000000000000000E+000
  0.000000000000000E+000
  0.000000000000000E+000
  0.000000000000000E+000
  0.000000000000000E+000
  0.000000000000000E+000
  0.000000000000000E+000
  0.000000000000000E+000
  0.000000000000000E+000
  0.000000000000000E+000
  0.000000000000000E+000
  0.000000000000000E+000
  0.000000000000000E+000
  0.000000000000000E+000
  0.000000000000000E+000
  0.000000000000000E+000
  0.000000000000000E+000
  0.000000000000000E+000
  0.000000000000000E+000
  0.000000000000000E+000
  0.000000000000000E+000
  0.000000000000000E+000
  0.000000000000000E+000
  0.000000000000000E+000
  0.000000000000000E+000
  0.000000000000000E+000
  0.000000000000000E+000
  0.000000000000000E+000
  0.000000000000000E+000
  0.000000000000000E+000
  0.000000000000000E+000
  0.000000000000000E+000
  0.000000000000000E+000
  0.000000000000000E+000
  0.000000000000000E+000
  0.000000000000000E+000
  0.000000000000000E+000
  0.000000000000000E+000
  0.000000000000000E+000
  0.000000000000000E+000
  0.000000000000000E+000
  0.000000000000000E+000
  0.000000000000000E+000
  0.000000000000000E+000
  0.000000000000000E+000
  0.000000000000000E+000
  0.000000000000000E+000
  0.000000000000000E+000
  0.000000000000000E+000
  0.000000000000000E+000
  0.000000000000000E+000
  0.000000000000000E+000
  0.000000000000000E+000
  0.000000000000000E+000
  0.000000000000000E+000
  0.000000000000000E+000
  0.000000000000000E+000
  0.000000000000000E+000
  0.000000000000000E+000
  0.000000000000000E+000
  0.000000000000000E+000
  0.000000000000000E+000
  0.000000000000000E+000
  0.000000000000000E+000
  0.000000000000000E+000
  0.000000000000000E+000
  0.000000000000000E+000
  0.000000000000000E+000
  0.000000000000000E+000
  0.000000000000000E+000
  0.000000000000000E+000
  0.000000000000000E+000
  0.000000000000000E+000
  0.000000000000000E+000
  0.000000000000000E+000
  0.000000000000000E+000
  0.000000000000000E+000
  0.000000000000000E+000
  0.000000000000000E+000
  0.000000000000000E+000
  0.000000000000000E+000
  0.000000000000000E+000
  0.000000000000000E+000
  0.000000000000000E+000
  0.000000000000000E+000
  0.000000000000000E+000
  0.000000000000000E+000
  0.000000000000000E+000
  0.000000000000000E+000
  0.000000000000000E+000
  0.000000000000000E+000
  0.000000000000000E+000
  0.000000000000000E+000
  0.000000000000000E+000
  0.000000000000000E+000
  0.000000000000000E+000
  0.000000000000000E+000
  0.000000000000000E+000
  0.000000000000000E+000
  0.000000000000000E+000
  0.000000000000000E+000
  0.000000000000000E+000
  0.000000000000000E+000
  0.000000000000000E+000
  0.000000000000000E+000
  0.000000000000000E+000
  0.000000000000000E+000
  0.000000000000000E+000
  0.000000000000000E+000
  0.000000000000000E+000
  0.000000000000000E+000
  0.000000000000000E+000
  0.000000000000000E+000
  0.000000000000000E+000
  0.000000000000000E+000
  0.000000000000000E+000
  0.000000000000000E+000
  0.000000000000000E+000
  0.000000000000000E+000
  0.000000000000000E+000
  0.000000000000000E+000
  0.000000000000000E+000
  0.000000000000000E+000
  0.000000000000000E+000
  0.000000000000000E+000
  0.000000000000000E+000
  0.000000000000000E+000
  0.000000000000000E+000
  0.000000000000000E+000
  0.000000000000000E+000
  0.000000000000000E+000
  0.000000000000000E+000
  0.000000000000000E+000
  0.000000000000000E+000
  0.000000000000000E+000
  0.000000000000000E+000
  0.000000000000000E+000
  0.000000000000000E+000
  0.000000000000000E+000
  0.000000000000000E+000
  0.000000000000000E+000
  0.000000000000000E+000
  0.000000000000000E+000
  0.000000000000000E+000
  0.000000000000000E+000
  0.000000000000000E+000
  0.000000000000000E+000
  0.000000000000000E+000
  0.000000000000000E+000
  0.000000000000000E+000
  0.000000000000000E+000
  0.000000000000000E+000
  0.000000000000000E+000
  0.000000000000000E+000
  0.000000000000000E+000
  0.000000000000000E+000
  0.000000000000000E+000
  0.000000000000000E+000
  0.000000000000000E+000
  0.000000000000000E+000
  0.000000000000000E+000
  0.000000000000000E+000
  0.000000000000000E+000
  0.000000000000000E+000
  0.000000000000000E+000
  0.000000000000000E+000
  0.000000000000000E+000
  0.000000000000000E+000
  0.000000000000000E+000
  0.000000000000000E+000
SCALARS poroL double 
LOOKUP_TABLE default
  0.155876981750033     
  0.155876816221193     
  0.155876660132552     
  0.155876513218336     
  0.155876375160111     
  0.155876245598481     
  0.155876124144226     
  0.155876010388708     
  0.155875903913373     
  0.155875804298229     
  0.155875711129163     
  0.155875624004021     
  0.155875542537328     
  0.155875466363580     
  0.155875395139026     
  0.155876956674604     
  0.155876791358086     
  0.155876635546037     
  0.155876488960573     
  0.155876351271496     
  0.155876222108209     
  0.155876101071045     
  0.155875987741826     
  0.155875881693496     
  0.155875782498715     
  0.155875689737277     
  0.155875603002282     
  0.155875521904945     
  0.155875446077969     
  0.155875375177400     
  0.155876906448319     
  0.155876741568728     
  0.155876586322046     
  0.155876440405907     
  0.155876303466365     
  0.155876175110242     
  0.155876054916825     
  0.155875942448722     
  0.155875837261764     
  0.155875738913814     
  0.155875646972387     
  0.155875561021007     
  0.155875480664184     
  0.155875405530960     
  0.155875335276908     
  0.155876830920135     
  0.155876666726948     
  0.155876512359029     
  0.155876367476646     
  0.155876231689689     
  0.155876104570660     
  0.155875985666896     
  0.155875874511874     
  0.155875770635476     
  0.155875673573123     
  0.155875582873689     
  0.155875498106114     
  0.155875418864648     
  0.155875344772643     
  0.155875275484794     
  0.155876729863072     
  0.155876566643832     
  0.155876413505644     
  0.155876270057765     
  0.155876135860879     
  0.155876010440904     
  0.155875893301894     
  0.155875783937905     
  0.155875681843726     
  0.155875586524413     
  0.155875497503563     
  0.155875414330277     
  0.155875336584735     
  0.155875263882327     
  0.155875195876236     
  0.155876602973858     
  0.155876441068260     
  0.155876289562043     
  0.155876147998826     
  0.155876015876223     
  0.155875892660639     
  0.155875777800969     
  0.155875670741105     
  0.155875570931203     
  0.155875477837677     
  0.155875390951882     
  0.155875309797482     
  0.155875233936440     
  0.155875162973576     
  0.155875096559593     
  0.155876449872700     
  0.155876289687857     
  0.155876140281802     
  0.155876001116697     
  0.155875871612258     
  0.155875751161667     
  0.155875639146146     
  0.155875534948165     
  0.155875437963270     
  0.155875347610548     
  0.155875263341755     
  0.155875184649116     
  0.155875111071797     
  0.155875042200981     
  0.155874977683476     
  0.155876270103410     
  0.155876112130541     
  0.155875965374646     
  0.155875829199242     
  0.155875702930229     
  0.155875585872990     
  0.155875477327890     
  0.155875376604175     
  0.155875283032348     
  0.155875195975068     
  0.155875114836702     
  0.155875039071571     
  0.155874968190935     
  0.155874901768698     
  0.155874839445731     
  0.155876063134139     
  0.155875907966927     
  0.155875764510203     
  0.155875632010153     
  0.155875509681761     
  0.155875396727147     
  0.155875292351958     
  0.155875195779911     
  0.155875106265606     
  0.155875023105784     
  0.155874945649212     
  0.155874873305326     
  0.155874805551760     
  0.155874741940755     
  0.155874682104387     
  0.155875828359108     
  0.155875676713910     
  0.155875537323071     
  0.155875409295159     
  0.155875291715943     
  0.155875183667939     
  0.155875084247617     
  0.155874992580438     
  0.155874907833934     
  0.155874829229136     
  0.155874756050619     
  0.155874687655441     
  0.155874623481181     
  0.155874563053133     
  0.155874505990631     
  0.155875565101702     
  0.155875417839780     
  0.155875283419512     
  0.155875160789916     
  0.155875048888058     
  0.155874946659732     
  0.155874853077316     
  0.155874767155062     
  0.155874687962161     
  0.155874614634014     
  0.155874546382165     
  0.155874482503321     
  0.155874422387795     
  0.155874365527550     
  0.155874311523827     
  0.155875272619447     
  0.155875130771330     
  0.155875002386186     
  0.155874886229898     
  0.155874781070230     
  0.155874685698517     
  0.155874598947925     
  0.155874519708633     
  0.155874446940427     
  0.155874379683345     
  0.155874317067039     
  0.155874258319517     
  0.155874202775800     
  0.155874149886808     
  0.155874099228542     
  0.155874950111383     
  0.155874814903447     
  0.155874693801394     
  0.155874585362733     
  0.155874488164335     
  0.155874400824976     
  0.155874322023660     
  0.155874250514176     
  0.155874185136570     
  0.155874124826440     
  0.155874068623046     
  0.155874015677202     
  0.155873965259794     
  0.155873916771435     
  0.155873869753445     
  0.155874596728410     
  0.155874469611771     
  0.155874357249389     
  0.155874257963496     
  0.155874170117629     
  0.155874092139876     
  0.155874022540835     
  0.155873959926826     
  0.155873903009299     
  0.155873850611727     
  0.155873801675431     
  0.155873755265773     
  0.155873710579939     
  0.155873666957170     
  0.155873623891790     
  0.155874211587230     
  0.155874094269072     
  0.155873992338462     
  0.155873903853655     
  0.155873826941674     
  0.155873759822204     
  0.155873700824648     
  0.155873648398998     
  0.155873601121840     
  0.155873557699307     
  0.155873516969116     
  0.155873477903757     
  0.155873439616656     
  0.155873401372592     
  0.155873362602980     
  0.155873793788429     
  0.155873688266096     
  0.155873598723680     
  0.155873522924572     
  0.155873458735394     
  0.155873404150658     
  0.155873357308273     
  0.155873316496698     
  0.155873280155578     
  0.155873246872557     
  0.155873215379313     
  0.155873184549854     
  0.155873153403696     
  0.155873121115825     
  0.155873087034405     
  0.155873342439241     
  0.155873251037787     
  0.155873176135479     
  0.155873115166890     
  0.155873065713452     
  0.155873025529358     
  0.155872992554692     
  0.155872964916863     
  0.155872940923053     
  0.155872919047645     
  0.155872897919068     
  0.155872876310457     
  0.155872853137866     
  0.155872827468772     
  0.155872798542290     
  0.155872856681386     
  0.155872782096030     
  0.155872724415824     
  0.155872680707716     
  0.155872648241735     
  0.155872624519107     
  0.155872607281871     
  0.155872594505588     
  0.155872584379416     
  0.155872575279421     
  0.155872565741669     
  0.155872554441326     
  0.155872540183078     
  0.155872521906691     
  0.155872498709752     
  0.155872335724282     
  0.155872281070591     
  0.155872243564548     
  0.155872219858583     
  0.155872206882636     
  0.155872201876142     
  0.155872202392227     
  0.155872206277030     
  0.155872211631049     
  0.155872216761489     
  0.155872220135086     
  0.155872220340191     
  0.155872216065399     
  0.155872206100061     
  0.155872189359506     
  0.155871778883852     
  0.155871747760859     
  0.155871733800086     
  0.155871733178879     
  0.155871742454303     
  0.155871758601259     
  0.155871779007653     
  0.155871801432637     
  0.155871823939549     
  0.155871844817413     
  0.155871862504492     
  0.155871875525827     
  0.155871882454600     
  0.155871881904588     
  0.155871872557772     
  0.155871185627398     
  0.155871182203002     
  0.155871195641667     
  0.155871221562264     
  0.155871256110122     
  0.155871296003409     
  0.155871338511727     
  0.155871381380048     
  0.155871422718445     
  0.155871460878861     
  0.155871494337406     
  0.155871521597422     
  0.155871541125947     
  0.155871551333713     
  0.155871550604861     
  0.155870555625959     
  0.155870584761029     
  0.155870630025247     
  0.155870686358333     
  0.155870749447863     
  0.155870815783180     
  0.155870882600722     
  0.155870947750258     
  0.155871009518927     
  0.155871066444951     
  0.155871117144089     
  0.155871160165673     
  0.155871193893477     
  0.155871216505877     
  0.155871226006700     
  0.155869888818241     
  0.155869956258376     
  0.155870038475148     
  0.155870129549490     
  0.155870224661933     
  0.155870320142297     
  0.155870413343971     
  0.155870502410176     
  0.155870585999480     
  0.155870663015584     
  0.155870732363330     
  0.155870792743587     
  0.155870842501953     
  0.155870879555534     
  0.155870901420016     
  0.155869185497019     
  0.155869298183618     
  0.155869423372096     
  0.155869554015572     
  0.155869684756194     
  0.155869811923249     
  0.155869933250251     
  0.155870047464981     
  0.155870153873437     
  0.155870251990737     
  0.155870341221676     
  0.155870420579579     
  0.155870488457935     
  0.155870542490538     
  0.155870579561841     
  0.155868446445026     
  0.155868613042938     
  0.155868788395319     
  0.155868963937979     
  0.155869133834452     
  0.155869294772619     
  0.155869445327028     
  0.155869585240618     
  0.155869714829410     
  0.155869834531421     
  0.155869944532439     
  0.155870044409130     
  0.155870132765218     
  0.155870206966730     
  0.155870263068541     
  0.155867673195763     
  0.155867905023366     
  0.155868139295114     
  0.155868365417323     
  0.155868577464492     
  0.155868773291577     
  0.155868953098534     
  0.155869118232273     
  0.155869270428941     
  0.155869411387137     
  0.155869542433675     
  0.155869664082776     
  0.155869775509821     
  0.155869873910941     
  0.155869954282530     
  0.155866868611436     
  0.155867181407536     
  0.155867485302052     
  0.155867767367404     
  0.155868023028235     
  0.155868253058783     
  0.155868460527871     
  0.155868649003223     
  0.155868821996757     
  0.155868982746566     
  0.155869134066097     
  0.155869278066359     
  0.155869415122135     
  0.155869542888788     
  0.155869654874612     
  0.155866038699002     
  0.155866455863817     
  0.155866841769150     
  0.155867182529405     
  0.155867479628653     
  0.155867740375136     
  0.155867971774403     
  0.155868180024241     
  0.155868370540153     
  0.155868548179949     
  0.155868717459311     
  0.155868882598186     
  0.155869047332781     
  0.155869210530927     
  0.155869365307153     
  0.155865198277754     
  0.155865758113460     
  0.155866234262660     
  0.155866626519150     
  0.155866957227730     
  0.155867241559017     
  0.155867490760544     
  0.155867713460382     
  0.155867916724659     
  0.155868106798054     
  0.155868289730286     
  0.155868472062443     
  0.155868661421743     
  0.155868868737556     
  0.155869082046179     
  0.155864414510012     
  0.155865156292724     
  0.155865691178677     
  0.155866114890645     
  0.155866464626975     
  0.155866761867060     
  0.155867020595333     
  0.155867250935666     
  0.155867460921170     
  0.155867657602650     
  0.155867847966929     
  0.155868040030782     
  0.155868244868544     
  0.155868480830450     
  0.155868802043447     
