# vtk DataFile Version 3.0
vtk output
ASCII
DATASET UNSTRUCTURED_GRID
POINTS       496 double 
  0.00000000E+00  3.00000000E+02  0.00000000E+00
  0.00000000E+00  2.80000000E+02  0.00000000E+00
  0.00000000E+00  2.60000000E+02  0.00000000E+00
  0.00000000E+00  2.40000000E+02  0.00000000E+00
  0.00000000E+00  2.20000000E+02  0.00000000E+00
  0.00000000E+00  2.00000000E+02  0.00000000E+00
  0.00000000E+00  1.80000000E+02  0.00000000E+00
  0.00000000E+00  1.60000000E+02  0.00000000E+00
  0.00000000E+00  1.40000000E+02  0.00000000E+00
  0.00000000E+00  1.20000000E+02  0.00000000E+00
  0.00000000E+00  1.00000000E+02  0.00000000E+00
  0.00000000E+00  8.00000000E+01  0.00000000E+00
  0.00000000E+00  6.00000000E+01  0.00000000E+00
  0.00000000E+00  4.00000000E+01  0.00000000E+00
  0.00000000E+00  2.00000000E+01  0.00000000E+00
  0.00000000E+00  4.99600361E-14  0.00000000E+00
  2.00000000E+01  3.00000000E+02  0.00000000E+00
  2.00000000E+01  2.80000000E+02  0.00000000E+00
  2.00000000E+01  2.60000000E+02  0.00000000E+00
  2.00000000E+01  2.40000000E+02  0.00000000E+00
  2.00000000E+01  2.20000000E+02  0.00000000E+00
  2.00000000E+01  2.00000000E+02  0.00000000E+00
  2.00000000E+01  1.80000000E+02  0.00000000E+00
  2.00000000E+01  1.60000000E+02  0.00000000E+00
  2.00000000E+01  1.40000000E+02  0.00000000E+00
  2.00000000E+01  1.20000000E+02  0.00000000E+00
  2.00000000E+01  1.00000000E+02  0.00000000E+00
  2.00000000E+01  8.00000000E+01  0.00000000E+00
  2.00000000E+01  6.00000000E+01  0.00000000E+00
  2.00000000E+01  4.00000000E+01  0.00000000E+00
  2.00000000E+01  2.00000000E+01  0.00000000E+00
  2.00000000E+01  4.99600361E-14  0.00000000E+00
  4.00000000E+01  3.00000000E+02  0.00000000E+00
  4.00000000E+01  2.80000000E+02  0.00000000E+00
  4.00000000E+01  2.60000000E+02  0.00000000E+00
  4.00000000E+01  2.40000000E+02  0.00000000E+00
  4.00000000E+01  2.20000000E+02  0.00000000E+00
  4.00000000E+01  2.00000000E+02  0.00000000E+00
  4.00000000E+01  1.80000000E+02  0.00000000E+00
  4.00000000E+01  1.60000000E+02  0.00000000E+00
  4.00000000E+01  1.40000000E+02  0.00000000E+00
  4.00000000E+01  1.20000000E+02  0.00000000E+00
  4.00000000E+01  1.00000000E+02  0.00000000E+00
  4.00000000E+01  8.00000000E+01  0.00000000E+00
  4.00000000E+01  6.00000000E+01  0.00000000E+00
  4.00000000E+01  4.00000000E+01  0.00000000E+00
  4.00000000E+01  2.00000000E+01  0.00000000E+00
  4.00000000E+01  4.99600361E-14  0.00000000E+00
  6.00000000E+01  3.00000000E+02  0.00000000E+00
  6.00000000E+01  2.80000000E+02  0.00000000E+00
  6.00000000E+01  2.60000000E+02  0.00000000E+00
  6.00000000E+01  2.40000000E+02  0.00000000E+00
  6.00000000E+01  2.20000000E+02  0.00000000E+00
  6.00000000E+01  2.00000000E+02  0.00000000E+00
  6.00000000E+01  1.80000000E+02  0.00000000E+00
  6.00000000E+01  1.60000000E+02  0.00000000E+00
  6.00000000E+01  1.40000000E+02  0.00000000E+00
  6.00000000E+01  1.20000000E+02  0.00000000E+00
  6.00000000E+01  1.00000000E+02  0.00000000E+00
  6.00000000E+01  8.00000000E+01  0.00000000E+00
  6.00000000E+01  6.00000000E+01  0.00000000E+00
  6.00000000E+01  4.00000000E+01  0.00000000E+00
  6.00000000E+01  2.00000000E+01  0.00000000E+00
  6.00000000E+01  4.99600361E-14  0.00000000E+00
  8.00000000E+01  3.00000000E+02  0.00000000E+00
  8.00000000E+01  2.80000000E+02  0.00000000E+00
  8.00000000E+01  2.60000000E+02  0.00000000E+00
  8.00000000E+01  2.40000000E+02  0.00000000E+00
  8.00000000E+01  2.20000000E+02  0.00000000E+00
  8.00000000E+01  2.00000000E+02  0.00000000E+00
  8.00000000E+01  1.80000000E+02  0.00000000E+00
  8.00000000E+01  1.60000000E+02  0.00000000E+00
  8.00000000E+01  1.40000000E+02  0.00000000E+00
  8.00000000E+01  1.20000000E+02  0.00000000E+00
  8.00000000E+01  1.00000000E+02  0.00000000E+00
  8.00000000E+01  8.00000000E+01  0.00000000E+00
  8.00000000E+01  6.00000000E+01  0.00000000E+00
  8.00000000E+01  4.00000000E+01  0.00000000E+00
  8.00000000E+01  2.00000000E+01  0.00000000E+00
  8.00000000E+01  4.99600361E-14  0.00000000E+00
  1.00000000E+02  3.00000000E+02  0.00000000E+00
  1.00000000E+02  2.80000000E+02  0.00000000E+00
  1.00000000E+02  2.60000000E+02  0.00000000E+00
  1.00000000E+02  2.40000000E+02  0.00000000E+00
  1.00000000E+02  2.20000000E+02  0.00000000E+00
  1.00000000E+02  2.00000000E+02  0.00000000E+00
  1.00000000E+02  1.80000000E+02  0.00000000E+00
  1.00000000E+02  1.60000000E+02  0.00000000E+00
  1.00000000E+02  1.40000000E+02  0.00000000E+00
  1.00000000E+02  1.20000000E+02  0.00000000E+00
  1.00000000E+02  1.00000000E+02  0.00000000E+00
  1.00000000E+02  8.00000000E+01  0.00000000E+00
  1.00000000E+02  6.00000000E+01  0.00000000E+00
  1.00000000E+02  4.00000000E+01  0.00000000E+00
  1.00000000E+02  2.00000000E+01  0.00000000E+00
  1.00000000E+02  4.99600361E-14  0.00000000E+00
  1.20000000E+02  3.00000000E+02  0.00000000E+00
  1.20000000E+02  2.80000000E+02  0.00000000E+00
  1.20000000E+02  2.60000000E+02  0.00000000E+00
  1.20000000E+02  2.40000000E+02  0.00000000E+00
  1.20000000E+02  2.20000000E+02  0.00000000E+00
  1.20000000E+02  2.00000000E+02  0.00000000E+00
  1.20000000E+02  1.80000000E+02  0.00000000E+00
  1.20000000E+02  1.60000000E+02  0.00000000E+00
  1.20000000E+02  1.40000000E+02  0.00000000E+00
  1.20000000E+02  1.20000000E+02  0.00000000E+00
  1.20000000E+02  1.00000000E+02  0.00000000E+00
  1.20000000E+02  8.00000000E+01  0.00000000E+00
  1.20000000E+02  6.00000000E+01  0.00000000E+00
  1.20000000E+02  4.00000000E+01  0.00000000E+00
  1.20000000E+02  2.00000000E+01  0.00000000E+00
  1.20000000E+02  4.99600361E-14  0.00000000E+00
  1.40000000E+02  3.00000000E+02  0.00000000E+00
  1.40000000E+02  2.80000000E+02  0.00000000E+00
  1.40000000E+02  2.60000000E+02  0.00000000E+00
  1.40000000E+02  2.40000000E+02  0.00000000E+00
  1.40000000E+02  2.20000000E+02  0.00000000E+00
  1.40000000E+02  2.00000000E+02  0.00000000E+00
  1.40000000E+02  1.80000000E+02  0.00000000E+00
  1.40000000E+02  1.60000000E+02  0.00000000E+00
  1.40000000E+02  1.40000000E+02  0.00000000E+00
  1.40000000E+02  1.20000000E+02  0.00000000E+00
  1.40000000E+02  1.00000000E+02  0.00000000E+00
  1.40000000E+02  8.00000000E+01  0.00000000E+00
  1.40000000E+02  6.00000000E+01  0.00000000E+00
  1.40000000E+02  4.00000000E+01  0.00000000E+00
  1.40000000E+02  2.00000000E+01  0.00000000E+00
  1.40000000E+02  4.99600361E-14  0.00000000E+00
  1.60000000E+02  3.00000000E+02  0.00000000E+00
  1.60000000E+02  2.80000000E+02  0.00000000E+00
  1.60000000E+02  2.60000000E+02  0.00000000E+00
  1.60000000E+02  2.40000000E+02  0.00000000E+00
  1.60000000E+02  2.20000000E+02  0.00000000E+00
  1.60000000E+02  2.00000000E+02  0.00000000E+00
  1.60000000E+02  1.80000000E+02  0.00000000E+00
  1.60000000E+02  1.60000000E+02  0.00000000E+00
  1.60000000E+02  1.40000000E+02  0.00000000E+00
  1.60000000E+02  1.20000000E+02  0.00000000E+00
  1.60000000E+02  1.00000000E+02  0.00000000E+00
  1.60000000E+02  8.00000000E+01  0.00000000E+00
  1.60000000E+02  6.00000000E+01  0.00000000E+00
  1.60000000E+02  4.00000000E+01  0.00000000E+00
  1.60000000E+02  2.00000000E+01  0.00000000E+00
  1.60000000E+02  4.99600361E-14  0.00000000E+00
  1.80000000E+02  3.00000000E+02  0.00000000E+00
  1.80000000E+02  2.80000000E+02  0.00000000E+00
  1.80000000E+02  2.60000000E+02  0.00000000E+00
  1.80000000E+02  2.40000000E+02  0.00000000E+00
  1.80000000E+02  2.20000000E+02  0.00000000E+00
  1.80000000E+02  2.00000000E+02  0.00000000E+00
  1.80000000E+02  1.80000000E+02  0.00000000E+00
  1.80000000E+02  1.60000000E+02  0.00000000E+00
  1.80000000E+02  1.40000000E+02  0.00000000E+00
  1.80000000E+02  1.20000000E+02  0.00000000E+00
  1.80000000E+02  1.00000000E+02  0.00000000E+00
  1.80000000E+02  8.00000000E+01  0.00000000E+00
  1.80000000E+02  6.00000000E+01  0.00000000E+00
  1.80000000E+02  4.00000000E+01  0.00000000E+00
  1.80000000E+02  2.00000000E+01  0.00000000E+00
  1.80000000E+02  4.99600361E-14  0.00000000E+00
  2.00000000E+02  3.00000000E+02  0.00000000E+00
  2.00000000E+02  2.80000000E+02  0.00000000E+00
  2.00000000E+02  2.60000000E+02  0.00000000E+00
  2.00000000E+02  2.40000000E+02  0.00000000E+00
  2.00000000E+02  2.20000000E+02  0.00000000E+00
  2.00000000E+02  2.00000000E+02  0.00000000E+00
  2.00000000E+02  1.80000000E+02  0.00000000E+00
  2.00000000E+02  1.60000000E+02  0.00000000E+00
  2.00000000E+02  1.40000000E+02  0.00000000E+00
  2.00000000E+02  1.20000000E+02  0.00000000E+00
  2.00000000E+02  1.00000000E+02  0.00000000E+00
  2.00000000E+02  8.00000000E+01  0.00000000E+00
  2.00000000E+02  6.00000000E+01  0.00000000E+00
  2.00000000E+02  4.00000000E+01  0.00000000E+00
  2.00000000E+02  2.00000000E+01  0.00000000E+00
  2.00000000E+02  4.99600361E-14  0.00000000E+00
  2.20000000E+02  3.00000000E+02  0.00000000E+00
  2.20000000E+02  2.80000000E+02  0.00000000E+00
  2.20000000E+02  2.60000000E+02  0.00000000E+00
  2.20000000E+02  2.40000000E+02  0.00000000E+00
  2.20000000E+02  2.20000000E+02  0.00000000E+00
  2.20000000E+02  2.00000000E+02  0.00000000E+00
  2.20000000E+02  1.80000000E+02  0.00000000E+00
  2.20000000E+02  1.60000000E+02  0.00000000E+00
  2.20000000E+02  1.40000000E+02  0.00000000E+00
  2.20000000E+02  1.20000000E+02  0.00000000E+00
  2.20000000E+02  1.00000000E+02  0.00000000E+00
  2.20000000E+02  8.00000000E+01  0.00000000E+00
  2.20000000E+02  6.00000000E+01  0.00000000E+00
  2.20000000E+02  4.00000000E+01  0.00000000E+00
  2.20000000E+02  2.00000000E+01  0.00000000E+00
  2.20000000E+02  4.99600361E-14  0.00000000E+00
  2.40000000E+02  3.00000000E+02  0.00000000E+00
  2.40000000E+02  2.80000000E+02  0.00000000E+00
  2.40000000E+02  2.60000000E+02  0.00000000E+00
  2.40000000E+02  2.40000000E+02  0.00000000E+00
  2.40000000E+02  2.20000000E+02  0.00000000E+00
  2.40000000E+02  2.00000000E+02  0.00000000E+00
  2.40000000E+02  1.80000000E+02  0.00000000E+00
  2.40000000E+02  1.60000000E+02  0.00000000E+00
  2.40000000E+02  1.40000000E+02  0.00000000E+00
  2.40000000E+02  1.20000000E+02  0.00000000E+00
  2.40000000E+02  1.00000000E+02  0.00000000E+00
  2.40000000E+02  8.00000000E+01  0.00000000E+00
  2.40000000E+02  6.00000000E+01  0.00000000E+00
  2.40000000E+02  4.00000000E+01  0.00000000E+00
  2.40000000E+02  2.00000000E+01  0.00000000E+00
  2.40000000E+02  4.99600361E-14  0.00000000E+00
  2.60000000E+02  3.00000000E+02  0.00000000E+00
  2.60000000E+02  2.80000000E+02  0.00000000E+00
  2.60000000E+02  2.60000000E+02  0.00000000E+00
  2.60000000E+02  2.40000000E+02  0.00000000E+00
  2.60000000E+02  2.20000000E+02  0.00000000E+00
  2.60000000E+02  2.00000000E+02  0.00000000E+00
  2.60000000E+02  1.80000000E+02  0.00000000E+00
  2.60000000E+02  1.60000000E+02  0.00000000E+00
  2.60000000E+02  1.40000000E+02  0.00000000E+00
  2.60000000E+02  1.20000000E+02  0.00000000E+00
  2.60000000E+02  1.00000000E+02  0.00000000E+00
  2.60000000E+02  8.00000000E+01  0.00000000E+00
  2.60000000E+02  6.00000000E+01  0.00000000E+00
  2.60000000E+02  4.00000000E+01  0.00000000E+00
  2.60000000E+02  2.00000000E+01  0.00000000E+00
  2.60000000E+02  4.99600361E-14  0.00000000E+00
  2.80000000E+02  3.00000000E+02  0.00000000E+00
  2.80000000E+02  2.80000000E+02  0.00000000E+00
  2.80000000E+02  2.60000000E+02  0.00000000E+00
  2.80000000E+02  2.40000000E+02  0.00000000E+00
  2.80000000E+02  2.20000000E+02  0.00000000E+00
  2.80000000E+02  2.00000000E+02  0.00000000E+00
  2.80000000E+02  1.80000000E+02  0.00000000E+00
  2.80000000E+02  1.60000000E+02  0.00000000E+00
  2.80000000E+02  1.40000000E+02  0.00000000E+00
  2.80000000E+02  1.20000000E+02  0.00000000E+00
  2.80000000E+02  1.00000000E+02  0.00000000E+00
  2.80000000E+02  8.00000000E+01  0.00000000E+00
  2.80000000E+02  6.00000000E+01  0.00000000E+00
  2.80000000E+02  4.00000000E+01  0.00000000E+00
  2.80000000E+02  2.00000000E+01  0.00000000E+00
  2.80000000E+02  4.99600361E-14  0.00000000E+00
  3.00000000E+02  3.00000000E+02  0.00000000E+00
  3.00000000E+02  2.80000000E+02  0.00000000E+00
  3.00000000E+02  2.60000000E+02  0.00000000E+00
  3.00000000E+02  2.40000000E+02  0.00000000E+00
  3.00000000E+02  2.20000000E+02  0.00000000E+00
  3.00000000E+02  2.00000000E+02  0.00000000E+00
  3.00000000E+02  1.80000000E+02  0.00000000E+00
  3.00000000E+02  1.60000000E+02  0.00000000E+00
  3.00000000E+02  1.40000000E+02  0.00000000E+00
  3.00000000E+02  1.20000000E+02  0.00000000E+00
  3.00000000E+02  1.00000000E+02  0.00000000E+00
  3.00000000E+02  8.00000000E+01  0.00000000E+00
  3.00000000E+02  6.00000000E+01  0.00000000E+00
  3.00000000E+02  4.00000000E+01  0.00000000E+00
  3.00000000E+02  2.00000000E+01  0.00000000E+00
  3.00000000E+02  4.99600361E-14  0.00000000E+00
  3.20000000E+02  3.00000000E+02  0.00000000E+00
  3.20000000E+02  2.80000000E+02  0.00000000E+00
  3.20000000E+02  2.60000000E+02  0.00000000E+00
  3.20000000E+02  2.40000000E+02  0.00000000E+00
  3.20000000E+02  2.20000000E+02  0.00000000E+00
  3.20000000E+02  2.00000000E+02  0.00000000E+00
  3.20000000E+02  1.80000000E+02  0.00000000E+00
  3.20000000E+02  1.60000000E+02  0.00000000E+00
  3.20000000E+02  1.40000000E+02  0.00000000E+00
  3.20000000E+02  1.20000000E+02  0.00000000E+00
  3.20000000E+02  1.00000000E+02  0.00000000E+00
  3.20000000E+02  8.00000000E+01  0.00000000E+00
  3.20000000E+02  6.00000000E+01  0.00000000E+00
  3.20000000E+02  4.00000000E+01  0.00000000E+00
  3.20000000E+02  2.00000000E+01  0.00000000E+00
  3.20000000E+02  4.99600361E-14  0.00000000E+00
  3.40000000E+02  3.00000000E+02  0.00000000E+00
  3.40000000E+02  2.80000000E+02  0.00000000E+00
  3.40000000E+02  2.60000000E+02  0.00000000E+00
  3.40000000E+02  2.40000000E+02  0.00000000E+00
  3.40000000E+02  2.20000000E+02  0.00000000E+00
  3.40000000E+02  2.00000000E+02  0.00000000E+00
  3.40000000E+02  1.80000000E+02  0.00000000E+00
  3.40000000E+02  1.60000000E+02  0.00000000E+00
  3.40000000E+02  1.40000000E+02  0.00000000E+00
  3.40000000E+02  1.20000000E+02  0.00000000E+00
  3.40000000E+02  1.00000000E+02  0.00000000E+00
  3.40000000E+02  8.00000000E+01  0.00000000E+00
  3.40000000E+02  6.00000000E+01  0.00000000E+00
  3.40000000E+02  4.00000000E+01  0.00000000E+00
  3.40000000E+02  2.00000000E+01  0.00000000E+00
  3.40000000E+02  4.99600361E-14  0.00000000E+00
  3.60000000E+02  3.00000000E+02  0.00000000E+00
  3.60000000E+02  2.80000000E+02  0.00000000E+00
  3.60000000E+02  2.60000000E+02  0.00000000E+00
  3.60000000E+02  2.40000000E+02  0.00000000E+00
  3.60000000E+02  2.20000000E+02  0.00000000E+00
  3.60000000E+02  2.00000000E+02  0.00000000E+00
  3.60000000E+02  1.80000000E+02  0.00000000E+00
  3.60000000E+02  1.60000000E+02  0.00000000E+00
  3.60000000E+02  1.40000000E+02  0.00000000E+00
  3.60000000E+02  1.20000000E+02  0.00000000E+00
  3.60000000E+02  1.00000000E+02  0.00000000E+00
  3.60000000E+02  8.00000000E+01  0.00000000E+00
  3.60000000E+02  6.00000000E+01  0.00000000E+00
  3.60000000E+02  4.00000000E+01  0.00000000E+00
  3.60000000E+02  2.00000000E+01  0.00000000E+00
  3.60000000E+02  4.99600361E-14  0.00000000E+00
  3.80000000E+02  3.00000000E+02  0.00000000E+00
  3.80000000E+02  2.80000000E+02  0.00000000E+00
  3.80000000E+02  2.60000000E+02  0.00000000E+00
  3.80000000E+02  2.40000000E+02  0.00000000E+00
  3.80000000E+02  2.20000000E+02  0.00000000E+00
  3.80000000E+02  2.00000000E+02  0.00000000E+00
  3.80000000E+02  1.80000000E+02  0.00000000E+00
  3.80000000E+02  1.60000000E+02  0.00000000E+00
  3.80000000E+02  1.40000000E+02  0.00000000E+00
  3.80000000E+02  1.20000000E+02  0.00000000E+00
  3.80000000E+02  1.00000000E+02  0.00000000E+00
  3.80000000E+02  8.00000000E+01  0.00000000E+00
  3.80000000E+02  6.00000000E+01  0.00000000E+00
  3.80000000E+02  4.00000000E+01  0.00000000E+00
  3.80000000E+02  2.00000000E+01  0.00000000E+00
  3.80000000E+02  4.99600361E-14  0.00000000E+00
  4.00000000E+02  3.00000000E+02  0.00000000E+00
  4.00000000E+02  2.80000000E+02  0.00000000E+00
  4.00000000E+02  2.60000000E+02  0.00000000E+00
  4.00000000E+02  2.40000000E+02  0.00000000E+00
  4.00000000E+02  2.20000000E+02  0.00000000E+00
  4.00000000E+02  2.00000000E+02  0.00000000E+00
  4.00000000E+02  1.80000000E+02  0.00000000E+00
  4.00000000E+02  1.60000000E+02  0.00000000E+00
  4.00000000E+02  1.40000000E+02  0.00000000E+00
  4.00000000E+02  1.20000000E+02  0.00000000E+00
  4.00000000E+02  1.00000000E+02  0.00000000E+00
  4.00000000E+02  8.00000000E+01  0.00000000E+00
  4.00000000E+02  6.00000000E+01  0.00000000E+00
  4.00000000E+02  4.00000000E+01  0.00000000E+00
  4.00000000E+02  2.00000000E+01  0.00000000E+00
  4.00000000E+02  4.99600361E-14  0.00000000E+00
  4.20000000E+02  3.00000000E+02  0.00000000E+00
  4.20000000E+02  2.80000000E+02  0.00000000E+00
  4.20000000E+02  2.60000000E+02  0.00000000E+00
  4.20000000E+02  2.40000000E+02  0.00000000E+00
  4.20000000E+02  2.20000000E+02  0.00000000E+00
  4.20000000E+02  2.00000000E+02  0.00000000E+00
  4.20000000E+02  1.80000000E+02  0.00000000E+00
  4.20000000E+02  1.60000000E+02  0.00000000E+00
  4.20000000E+02  1.40000000E+02  0.00000000E+00
  4.20000000E+02  1.20000000E+02  0.00000000E+00
  4.20000000E+02  1.00000000E+02  0.00000000E+00
  4.20000000E+02  8.00000000E+01  0.00000000E+00
  4.20000000E+02  6.00000000E+01  0.00000000E+00
  4.20000000E+02  4.00000000E+01  0.00000000E+00
  4.20000000E+02  2.00000000E+01  0.00000000E+00
  4.20000000E+02  4.99600361E-14  0.00000000E+00
  4.40000000E+02  3.00000000E+02  0.00000000E+00
  4.40000000E+02  2.80000000E+02  0.00000000E+00
  4.40000000E+02  2.60000000E+02  0.00000000E+00
  4.40000000E+02  2.40000000E+02  0.00000000E+00
  4.40000000E+02  2.20000000E+02  0.00000000E+00
  4.40000000E+02  2.00000000E+02  0.00000000E+00
  4.40000000E+02  1.80000000E+02  0.00000000E+00
  4.40000000E+02  1.60000000E+02  0.00000000E+00
  4.40000000E+02  1.40000000E+02  0.00000000E+00
  4.40000000E+02  1.20000000E+02  0.00000000E+00
  4.40000000E+02  1.00000000E+02  0.00000000E+00
  4.40000000E+02  8.00000000E+01  0.00000000E+00
  4.40000000E+02  6.00000000E+01  0.00000000E+00
  4.40000000E+02  4.00000000E+01  0.00000000E+00
  4.40000000E+02  2.00000000E+01  0.00000000E+00
  4.40000000E+02  4.99600361E-14  0.00000000E+00
  4.60000000E+02  3.00000000E+02  0.00000000E+00
  4.60000000E+02  2.80000000E+02  0.00000000E+00
  4.60000000E+02  2.60000000E+02  0.00000000E+00
  4.60000000E+02  2.40000000E+02  0.00000000E+00
  4.60000000E+02  2.20000000E+02  0.00000000E+00
  4.60000000E+02  2.00000000E+02  0.00000000E+00
  4.60000000E+02  1.80000000E+02  0.00000000E+00
  4.60000000E+02  1.60000000E+02  0.00000000E+00
  4.60000000E+02  1.40000000E+02  0.00000000E+00
  4.60000000E+02  1.20000000E+02  0.00000000E+00
  4.60000000E+02  1.00000000E+02  0.00000000E+00
  4.60000000E+02  8.00000000E+01  0.00000000E+00
  4.60000000E+02  6.00000000E+01  0.00000000E+00
  4.60000000E+02  4.00000000E+01  0.00000000E+00
  4.60000000E+02  2.00000000E+01  0.00000000E+00
  4.60000000E+02  4.99600361E-14  0.00000000E+00
  4.80000000E+02  3.00000000E+02  0.00000000E+00
  4.80000000E+02  2.80000000E+02  0.00000000E+00
  4.80000000E+02  2.60000000E+02  0.00000000E+00
  4.80000000E+02  2.40000000E+02  0.00000000E+00
  4.80000000E+02  2.20000000E+02  0.00000000E+00
  4.80000000E+02  2.00000000E+02  0.00000000E+00
  4.80000000E+02  1.80000000E+02  0.00000000E+00
  4.80000000E+02  1.60000000E+02  0.00000000E+00
  4.80000000E+02  1.40000000E+02  0.00000000E+00
  4.80000000E+02  1.20000000E+02  0.00000000E+00
  4.80000000E+02  1.00000000E+02  0.00000000E+00
  4.80000000E+02  8.00000000E+01  0.00000000E+00
  4.80000000E+02  6.00000000E+01  0.00000000E+00
  4.80000000E+02  4.00000000E+01  0.00000000E+00
  4.80000000E+02  2.00000000E+01  0.00000000E+00
  4.80000000E+02  4.99600361E-14  0.00000000E+00
  5.00000000E+02  3.00000000E+02  0.00000000E+00
  5.00000000E+02  2.80000000E+02  0.00000000E+00
  5.00000000E+02  2.60000000E+02  0.00000000E+00
  5.00000000E+02  2.40000000E+02  0.00000000E+00
  5.00000000E+02  2.20000000E+02  0.00000000E+00
  5.00000000E+02  2.00000000E+02  0.00000000E+00
  5.00000000E+02  1.80000000E+02  0.00000000E+00
  5.00000000E+02  1.60000000E+02  0.00000000E+00
  5.00000000E+02  1.40000000E+02  0.00000000E+00
  5.00000000E+02  1.20000000E+02  0.00000000E+00
  5.00000000E+02  1.00000000E+02  0.00000000E+00
  5.00000000E+02  8.00000000E+01  0.00000000E+00
  5.00000000E+02  6.00000000E+01  0.00000000E+00
  5.00000000E+02  4.00000000E+01  0.00000000E+00
  5.00000000E+02  2.00000000E+01  0.00000000E+00
  5.00000000E+02  4.99600361E-14  0.00000000E+00
  5.20000000E+02  3.00000000E+02  0.00000000E+00
  5.20000000E+02  2.80000000E+02  0.00000000E+00
  5.20000000E+02  2.60000000E+02  0.00000000E+00
  5.20000000E+02  2.40000000E+02  0.00000000E+00
  5.20000000E+02  2.20000000E+02  0.00000000E+00
  5.20000000E+02  2.00000000E+02  0.00000000E+00
  5.20000000E+02  1.80000000E+02  0.00000000E+00
  5.20000000E+02  1.60000000E+02  0.00000000E+00
  5.20000000E+02  1.40000000E+02  0.00000000E+00
  5.20000000E+02  1.20000000E+02  0.00000000E+00
  5.20000000E+02  1.00000000E+02  0.00000000E+00
  5.20000000E+02  8.00000000E+01  0.00000000E+00
  5.20000000E+02  6.00000000E+01  0.00000000E+00
  5.20000000E+02  4.00000000E+01  0.00000000E+00
  5.20000000E+02  2.00000000E+01  0.00000000E+00
  5.20000000E+02  4.99600361E-14  0.00000000E+00
  5.40000000E+02  3.00000000E+02  0.00000000E+00
  5.40000000E+02  2.80000000E+02  0.00000000E+00
  5.40000000E+02  2.60000000E+02  0.00000000E+00
  5.40000000E+02  2.40000000E+02  0.00000000E+00
  5.40000000E+02  2.20000000E+02  0.00000000E+00
  5.40000000E+02  2.00000000E+02  0.00000000E+00
  5.40000000E+02  1.80000000E+02  0.00000000E+00
  5.40000000E+02  1.60000000E+02  0.00000000E+00
  5.40000000E+02  1.40000000E+02  0.00000000E+00
  5.40000000E+02  1.20000000E+02  0.00000000E+00
  5.40000000E+02  1.00000000E+02  0.00000000E+00
  5.40000000E+02  8.00000000E+01  0.00000000E+00
  5.40000000E+02  6.00000000E+01  0.00000000E+00
  5.40000000E+02  4.00000000E+01  0.00000000E+00
  5.40000000E+02  2.00000000E+01  0.00000000E+00
  5.40000000E+02  4.99600361E-14  0.00000000E+00
  5.60000000E+02  3.00000000E+02  0.00000000E+00
  5.60000000E+02  2.80000000E+02  0.00000000E+00
  5.60000000E+02  2.60000000E+02  0.00000000E+00
  5.60000000E+02  2.40000000E+02  0.00000000E+00
  5.60000000E+02  2.20000000E+02  0.00000000E+00
  5.60000000E+02  2.00000000E+02  0.00000000E+00
  5.60000000E+02  1.80000000E+02  0.00000000E+00
  5.60000000E+02  1.60000000E+02  0.00000000E+00
  5.60000000E+02  1.40000000E+02  0.00000000E+00
  5.60000000E+02  1.20000000E+02  0.00000000E+00
  5.60000000E+02  1.00000000E+02  0.00000000E+00
  5.60000000E+02  8.00000000E+01  0.00000000E+00
  5.60000000E+02  6.00000000E+01  0.00000000E+00
  5.60000000E+02  4.00000000E+01  0.00000000E+00
  5.60000000E+02  2.00000000E+01  0.00000000E+00
  5.60000000E+02  4.99600361E-14  0.00000000E+00
  5.80000000E+02  3.00000000E+02  0.00000000E+00
  5.80000000E+02  2.80000000E+02  0.00000000E+00
  5.80000000E+02  2.60000000E+02  0.00000000E+00
  5.80000000E+02  2.40000000E+02  0.00000000E+00
  5.80000000E+02  2.20000000E+02  0.00000000E+00
  5.80000000E+02  2.00000000E+02  0.00000000E+00
  5.80000000E+02  1.80000000E+02  0.00000000E+00
  5.80000000E+02  1.60000000E+02  0.00000000E+00
  5.80000000E+02  1.40000000E+02  0.00000000E+00
  5.80000000E+02  1.20000000E+02  0.00000000E+00
  5.80000000E+02  1.00000000E+02  0.00000000E+00
  5.80000000E+02  8.00000000E+01  0.00000000E+00
  5.80000000E+02  6.00000000E+01  0.00000000E+00
  5.80000000E+02  4.00000000E+01  0.00000000E+00
  5.80000000E+02  2.00000000E+01  0.00000000E+00
  5.80000000E+02  4.99600361E-14  0.00000000E+00
  6.00000000E+02  3.00000000E+02  0.00000000E+00
  6.00000000E+02  2.80000000E+02  0.00000000E+00
  6.00000000E+02  2.60000000E+02  0.00000000E+00
  6.00000000E+02  2.40000000E+02  0.00000000E+00
  6.00000000E+02  2.20000000E+02  0.00000000E+00
  6.00000000E+02  2.00000000E+02  0.00000000E+00
  6.00000000E+02  1.80000000E+02  0.00000000E+00
  6.00000000E+02  1.60000000E+02  0.00000000E+00
  6.00000000E+02  1.40000000E+02  0.00000000E+00
  6.00000000E+02  1.20000000E+02  0.00000000E+00
  6.00000000E+02  1.00000000E+02  0.00000000E+00
  6.00000000E+02  8.00000000E+01  0.00000000E+00
  6.00000000E+02  6.00000000E+01  0.00000000E+00
  6.00000000E+02  4.00000000E+01  0.00000000E+00
  6.00000000E+02  2.00000000E+01  0.00000000E+00
  6.00000000E+02  4.99600361E-14  0.00000000E+00
CELLS       450      2250
         4           0           1          17          16
         4           1           2          18          17
         4           2           3          19          18
         4           3           4          20          19
         4           4           5          21          20
         4           5           6          22          21
         4           6           7          23          22
         4           7           8          24          23
         4           8           9          25          24
         4           9          10          26          25
         4          10          11          27          26
         4          11          12          28          27
         4          12          13          29          28
         4          13          14          30          29
         4          14          15          31          30
         4          16          17          33          32
         4          17          18          34          33
         4          18          19          35          34
         4          19          20          36          35
         4          20          21          37          36
         4          21          22          38          37
         4          22          23          39          38
         4          23          24          40          39
         4          24          25          41          40
         4          25          26          42          41
         4          26          27          43          42
         4          27          28          44          43
         4          28          29          45          44
         4          29          30          46          45
         4          30          31          47          46
         4          32          33          49          48
         4          33          34          50          49
         4          34          35          51          50
         4          35          36          52          51
         4          36          37          53          52
         4          37          38          54          53
         4          38          39          55          54
         4          39          40          56          55
         4          40          41          57          56
         4          41          42          58          57
         4          42          43          59          58
         4          43          44          60          59
         4          44          45          61          60
         4          45          46          62          61
         4          46          47          63          62
         4          48          49          65          64
         4          49          50          66          65
         4          50          51          67          66
         4          51          52          68          67
         4          52          53          69          68
         4          53          54          70          69
         4          54          55          71          70
         4          55          56          72          71
         4          56          57          73          72
         4          57          58          74          73
         4          58          59          75          74
         4          59          60          76          75
         4          60          61          77          76
         4          61          62          78          77
         4          62          63          79          78
         4          64          65          81          80
         4          65          66          82          81
         4          66          67          83          82
         4          67          68          84          83
         4          68          69          85          84
         4          69          70          86          85
         4          70          71          87          86
         4          71          72          88          87
         4          72          73          89          88
         4          73          74          90          89
         4          74          75          91          90
         4          75          76          92          91
         4          76          77          93          92
         4          77          78          94          93
         4          78          79          95          94
         4          80          81          97          96
         4          81          82          98          97
         4          82          83          99          98
         4          83          84         100          99
         4          84          85         101         100
         4          85          86         102         101
         4          86          87         103         102
         4          87          88         104         103
         4          88          89         105         104
         4          89          90         106         105
         4          90          91         107         106
         4          91          92         108         107
         4          92          93         109         108
         4          93          94         110         109
         4          94          95         111         110
         4          96          97         113         112
         4          97          98         114         113
         4          98          99         115         114
         4          99         100         116         115
         4         100         101         117         116
         4         101         102         118         117
         4         102         103         119         118
         4         103         104         120         119
         4         104         105         121         120
         4         105         106         122         121
         4         106         107         123         122
         4         107         108         124         123
         4         108         109         125         124
         4         109         110         126         125
         4         110         111         127         126
         4         112         113         129         128
         4         113         114         130         129
         4         114         115         131         130
         4         115         116         132         131
         4         116         117         133         132
         4         117         118         134         133
         4         118         119         135         134
         4         119         120         136         135
         4         120         121         137         136
         4         121         122         138         137
         4         122         123         139         138
         4         123         124         140         139
         4         124         125         141         140
         4         125         126         142         141
         4         126         127         143         142
         4         128         129         145         144
         4         129         130         146         145
         4         130         131         147         146
         4         131         132         148         147
         4         132         133         149         148
         4         133         134         150         149
         4         134         135         151         150
         4         135         136         152         151
         4         136         137         153         152
         4         137         138         154         153
         4         138         139         155         154
         4         139         140         156         155
         4         140         141         157         156
         4         141         142         158         157
         4         142         143         159         158
         4         144         145         161         160
         4         145         146         162         161
         4         146         147         163         162
         4         147         148         164         163
         4         148         149         165         164
         4         149         150         166         165
         4         150         151         167         166
         4         151         152         168         167
         4         152         153         169         168
         4         153         154         170         169
         4         154         155         171         170
         4         155         156         172         171
         4         156         157         173         172
         4         157         158         174         173
         4         158         159         175         174
         4         160         161         177         176
         4         161         162         178         177
         4         162         163         179         178
         4         163         164         180         179
         4         164         165         181         180
         4         165         166         182         181
         4         166         167         183         182
         4         167         168         184         183
         4         168         169         185         184
         4         169         170         186         185
         4         170         171         187         186
         4         171         172         188         187
         4         172         173         189         188
         4         173         174         190         189
         4         174         175         191         190
         4         176         177         193         192
         4         177         178         194         193
         4         178         179         195         194
         4         179         180         196         195
         4         180         181         197         196
         4         181         182         198         197
         4         182         183         199         198
         4         183         184         200         199
         4         184         185         201         200
         4         185         186         202         201
         4         186         187         203         202
         4         187         188         204         203
         4         188         189         205         204
         4         189         190         206         205
         4         190         191         207         206
         4         192         193         209         208
         4         193         194         210         209
         4         194         195         211         210
         4         195         196         212         211
         4         196         197         213         212
         4         197         198         214         213
         4         198         199         215         214
         4         199         200         216         215
         4         200         201         217         216
         4         201         202         218         217
         4         202         203         219         218
         4         203         204         220         219
         4         204         205         221         220
         4         205         206         222         221
         4         206         207         223         222
         4         208         209         225         224
         4         209         210         226         225
         4         210         211         227         226
         4         211         212         228         227
         4         212         213         229         228
         4         213         214         230         229
         4         214         215         231         230
         4         215         216         232         231
         4         216         217         233         232
         4         217         218         234         233
         4         218         219         235         234
         4         219         220         236         235
         4         220         221         237         236
         4         221         222         238         237
         4         222         223         239         238
         4         224         225         241         240
         4         225         226         242         241
         4         226         227         243         242
         4         227         228         244         243
         4         228         229         245         244
         4         229         230         246         245
         4         230         231         247         246
         4         231         232         248         247
         4         232         233         249         248
         4         233         234         250         249
         4         234         235         251         250
         4         235         236         252         251
         4         236         237         253         252
         4         237         238         254         253
         4         238         239         255         254
         4         240         241         257         256
         4         241         242         258         257
         4         242         243         259         258
         4         243         244         260         259
         4         244         245         261         260
         4         245         246         262         261
         4         246         247         263         262
         4         247         248         264         263
         4         248         249         265         264
         4         249         250         266         265
         4         250         251         267         266
         4         251         252         268         267
         4         252         253         269         268
         4         253         254         270         269
         4         254         255         271         270
         4         256         257         273         272
         4         257         258         274         273
         4         258         259         275         274
         4         259         260         276         275
         4         260         261         277         276
         4         261         262         278         277
         4         262         263         279         278
         4         263         264         280         279
         4         264         265         281         280
         4         265         266         282         281
         4         266         267         283         282
         4         267         268         284         283
         4         268         269         285         284
         4         269         270         286         285
         4         270         271         287         286
         4         272         273         289         288
         4         273         274         290         289
         4         274         275         291         290
         4         275         276         292         291
         4         276         277         293         292
         4         277         278         294         293
         4         278         279         295         294
         4         279         280         296         295
         4         280         281         297         296
         4         281         282         298         297
         4         282         283         299         298
         4         283         284         300         299
         4         284         285         301         300
         4         285         286         302         301
         4         286         287         303         302
         4         288         289         305         304
         4         289         290         306         305
         4         290         291         307         306
         4         291         292         308         307
         4         292         293         309         308
         4         293         294         310         309
         4         294         295         311         310
         4         295         296         312         311
         4         296         297         313         312
         4         297         298         314         313
         4         298         299         315         314
         4         299         300         316         315
         4         300         301         317         316
         4         301         302         318         317
         4         302         303         319         318
         4         304         305         321         320
         4         305         306         322         321
         4         306         307         323         322
         4         307         308         324         323
         4         308         309         325         324
         4         309         310         326         325
         4         310         311         327         326
         4         311         312         328         327
         4         312         313         329         328
         4         313         314         330         329
         4         314         315         331         330
         4         315         316         332         331
         4         316         317         333         332
         4         317         318         334         333
         4         318         319         335         334
         4         320         321         337         336
         4         321         322         338         337
         4         322         323         339         338
         4         323         324         340         339
         4         324         325         341         340
         4         325         326         342         341
         4         326         327         343         342
         4         327         328         344         343
         4         328         329         345         344
         4         329         330         346         345
         4         330         331         347         346
         4         331         332         348         347
         4         332         333         349         348
         4         333         334         350         349
         4         334         335         351         350
         4         336         337         353         352
         4         337         338         354         353
         4         338         339         355         354
         4         339         340         356         355
         4         340         341         357         356
         4         341         342         358         357
         4         342         343         359         358
         4         343         344         360         359
         4         344         345         361         360
         4         345         346         362         361
         4         346         347         363         362
         4         347         348         364         363
         4         348         349         365         364
         4         349         350         366         365
         4         350         351         367         366
         4         352         353         369         368
         4         353         354         370         369
         4         354         355         371         370
         4         355         356         372         371
         4         356         357         373         372
         4         357         358         374         373
         4         358         359         375         374
         4         359         360         376         375
         4         360         361         377         376
         4         361         362         378         377
         4         362         363         379         378
         4         363         364         380         379
         4         364         365         381         380
         4         365         366         382         381
         4         366         367         383         382
         4         368         369         385         384
         4         369         370         386         385
         4         370         371         387         386
         4         371         372         388         387
         4         372         373         389         388
         4         373         374         390         389
         4         374         375         391         390
         4         375         376         392         391
         4         376         377         393         392
         4         377         378         394         393
         4         378         379         395         394
         4         379         380         396         395
         4         380         381         397         396
         4         381         382         398         397
         4         382         383         399         398
         4         384         385         401         400
         4         385         386         402         401
         4         386         387         403         402
         4         387         388         404         403
         4         388         389         405         404
         4         389         390         406         405
         4         390         391         407         406
         4         391         392         408         407
         4         392         393         409         408
         4         393         394         410         409
         4         394         395         411         410
         4         395         396         412         411
         4         396         397         413         412
         4         397         398         414         413
         4         398         399         415         414
         4         400         401         417         416
         4         401         402         418         417
         4         402         403         419         418
         4         403         404         420         419
         4         404         405         421         420
         4         405         406         422         421
         4         406         407         423         422
         4         407         408         424         423
         4         408         409         425         424
         4         409         410         426         425
         4         410         411         427         426
         4         411         412         428         427
         4         412         413         429         428
         4         413         414         430         429
         4         414         415         431         430
         4         416         417         433         432
         4         417         418         434         433
         4         418         419         435         434
         4         419         420         436         435
         4         420         421         437         436
         4         421         422         438         437
         4         422         423         439         438
         4         423         424         440         439
         4         424         425         441         440
         4         425         426         442         441
         4         426         427         443         442
         4         427         428         444         443
         4         428         429         445         444
         4         429         430         446         445
         4         430         431         447         446
         4         432         433         449         448
         4         433         434         450         449
         4         434         435         451         450
         4         435         436         452         451
         4         436         437         453         452
         4         437         438         454         453
         4         438         439         455         454
         4         439         440         456         455
         4         440         441         457         456
         4         441         442         458         457
         4         442         443         459         458
         4         443         444         460         459
         4         444         445         461         460
         4         445         446         462         461
         4         446         447         463         462
         4         448         449         465         464
         4         449         450         466         465
         4         450         451         467         466
         4         451         452         468         467
         4         452         453         469         468
         4         453         454         470         469
         4         454         455         471         470
         4         455         456         472         471
         4         456         457         473         472
         4         457         458         474         473
         4         458         459         475         474
         4         459         460         476         475
         4         460         461         477         476
         4         461         462         478         477
         4         462         463         479         478
         4         464         465         481         480
         4         465         466         482         481
         4         466         467         483         482
         4         467         468         484         483
         4         468         469         485         484
         4         469         470         486         485
         4         470         471         487         486
         4         471         472         488         487
         4         472         473         489         488
         4         473         474         490         489
         4         474         475         491         490
         4         475         476         492         491
         4         476         477         493         492
         4         477         478         494         493
         4         478         479         495         494
CELL_TYPES        450
9
9
9
9
9
9
9
9
9
9
9
9
9
9
9
9
9
9
9
9
9
9
9
9
9
9
9
9
9
9
9
9
9
9
9
9
9
9
9
9
9
9
9
9
9
9
9
9
9
9
9
9
9
9
9
9
9
9
9
9
9
9
9
9
9
9
9
9
9
9
9
9
9
9
9
9
9
9
9
9
9
9
9
9
9
9
9
9
9
9
9
9
9
9
9
9
9
9
9
9
9
9
9
9
9
9
9
9
9
9
9
9
9
9
9
9
9
9
9
9
9
9
9
9
9
9
9
9
9
9
9
9
9
9
9
9
9
9
9
9
9
9
9
9
9
9
9
9
9
9
9
9
9
9
9
9
9
9
9
9
9
9
9
9
9
9
9
9
9
9
9
9
9
9
9
9
9
9
9
9
9
9
9
9
9
9
9
9
9
9
9
9
9
9
9
9
9
9
9
9
9
9
9
9
9
9
9
9
9
9
9
9
9
9
9
9
9
9
9
9
9
9
9
9
9
9
9
9
9
9
9
9
9
9
9
9
9
9
9
9
9
9
9
9
9
9
9
9
9
9
9
9
9
9
9
9
9
9
9
9
9
9
9
9
9
9
9
9
9
9
9
9
9
9
9
9
9
9
9
9
9
9
9
9
9
9
9
9
9
9
9
9
9
9
9
9
9
9
9
9
9
9
9
9
9
9
9
9
9
9
9
9
9
9
9
9
9
9
9
9
9
9
9
9
9
9
9
9
9
9
9
9
9
9
9
9
9
9
9
9
9
9
9
9
9
9
9
9
9
9
9
9
9
9
9
9
9
9
9
9
9
9
9
9
9
9
9
9
9
9
9
9
9
9
9
9
9
9
9
9
9
9
9
9
9
9
9
9
9
9
9
9
9
9
9
9
9
9
9
9
9
9
9
9
9
9
9
9
9
9
9
9
9
9
9
9
9
9
9
9
9
9
9
9
9
9
9
9
9
9
9
9
9
9
9
9
9
9
9
9
9
9
9
9
9
9
9
9
9
9
POINT_DATA       496
SCALARS p double 
LOOKUP_TABLE default
   71203897.3843265     
   71204136.1903857     
   71204817.3916142     
   71205820.7971266     
   71207007.2543781     
   71208279.8370007     
   71209563.4952706     
   71210769.0492802     
   71211862.0505172     
   71212850.6213194     
   71213749.9505397     
   71214555.2453738     
   71215257.4913393     
   71215841.2792884     
   71216284.5377578     
   71216468.3517624     
   69179543.6822007     
   69179722.4222208     
   69180138.9820910     
   69180656.5383144     
   69181253.5150012     
   69181921.6261491     
   69182626.4525676     
   69183362.1530161     
   69184131.8090585     
   69184881.0174813     
   69185575.8889267     
   69186198.3801334     
   69186730.0343119     
   69187148.8074305     
   69187415.8274962     
   69187505.1687443     
   67154086.5411548     
   67154156.5623076     
   67154331.7333331     
   67154562.4235177     
   67154833.2296799     
   67155165.6906715     
   67155574.6582171     
   67156057.3706770     
   67156580.5589775     
   67157109.0563311     
   67157613.2805936     
   67158067.0659136     
   67158448.3938327     
   67158734.7235864     
   67158908.1688491     
   67158965.5788511     
   65127727.2820436     
   65127707.1132830     
   65127704.0736019     
   65127788.4268537     
   65127956.4135404     
   65128190.4764827     
   65128464.7079981     
   65128778.1775461     
   65129121.4855796     
   65129476.1824429     
   65129819.5605261     
   65130130.3213307     
   65130388.7836363     
   65130579.1052338     
   65130692.1563568     
   65130729.2020078     
   63100835.6921359     
   63100825.4074659     
   63100833.6232506     
   63100895.0343913     
   63100997.5148857     
   63101139.4560673     
   63101310.3068375     
   63101504.8120992     
   63101717.6621863     
   63101939.1607158     
   63102155.7215763     
   63102352.2700279     
   63102515.0822813     
   63102633.8080047     
   63102703.6789063     
   63102726.7082253     
   61073896.5207329     
   61073894.1595154     
   61073898.1006619     
   61073922.9797707     
   61073972.5282206     
   61074043.1979821     
   61074131.6756869     
   61074234.6766762     
   61074349.0192151     
   61074469.4252990     
   61074588.2356343     
   61074696.5433552     
   61074785.9960492     
   61074850.6575296     
   61074888.3217976     
   61074900.9058712     
   59046913.1307519     
   59046907.7693007     
   59046897.9829584     
   59046892.9725736     
   59046896.8111656     
   59046910.4311672     
   59046933.0711023     
   59046963.9112462     
   59047001.7494997     
   59047044.3604413     
   59047088.1692234     
   59047128.8073758     
   59047162.1854778     
   59047185.6400857     
   59047198.7279925     
   59047203.3007164     
   57019872.6697511     
   57019863.3873062     
   57019839.3435476     
   57019808.1427690     
   57019774.7430516     
   57019741.9464376     
   57019711.4794516     
   57019684.5188550     
   57019661.8563471     
   57019643.6424212     
   57019629.2787358     
   57019617.6767094     
   57019607.8379981     
   57019599.4902415     
   57019593.4909820     
   57019591.7787383     
   54992771.4083987     
   54992758.1666405     
   54992721.3681364     
   54992668.0905426     
   54992603.9088867     
   54992533.1492326     
   54992459.3067590     
   54992385.3920597     
   54992314.0122156     
   54992247.3227174     
   54992186.9926313     
   54992134.3340805     
   54992090.5831955     
   54992057.2065854     
   54992036.0653728     
   54992029.3088518     
   52965604.5707617     
   52965587.8457794     
   52965540.0553091     
   52965468.1063192     
   52965378.1798915     
   52965275.7785482     
   52965165.8828580     
   52965053.0809164     
   52964941.6136650     
   52964835.3480902     
   52964737.7592798     
   52964651.9758360     
   52964580.8898656     
   52964527.2683634     
   52964493.7782918     
   52964482.8586046     
   50938365.7616481     
   50938345.9475915     
   50938288.5648206     
   50938200.4756640     
   50938088.4308773     
   50937958.9475934     
   50937818.2791508     
   50937672.4091550     
   50937527.0250116     
   50937387.4718457     
   50937258.7106693     
   50937145.3039949     
   50937051.4249716     
   50936980.8586595     
   50936936.9518122     
   50936922.4808107     
   48911046.3094193     
   48911023.6410466     
   48910957.5356075     
   48910854.9313073     
   48910723.1527714     
   48910569.6439087     
   48910401.8014701     
   48910226.8606274     
   48910051.8006325     
   48909883.2586998     
   48909727.4551176     
   48909590.1330989     
   48909476.5075237     
   48909391.2052275     
   48909338.1762534     
   48909320.5650722     
   46883635.1994919     
   46883609.7364263     
   46883535.2630249     
   46883418.9575061     
   46883268.7742078     
   46883093.0599000     
   46882900.2806330     
   46882698.8215360     
   46882496.8316303     
   46882302.0970375     
   46882121.9340718     
   46881963.0962421     
   46881831.6868796     
   46881733.0664189     
   46881671.7447185     
   46881651.2567962     
   44856119.1110799     
   44856090.7631052     
   44856007.8414712     
   44855877.9806267     
   44855709.8736868     
   44855512.7984755     
   44855296.2619455     
   44855069.7330502     
   44854842.4388530     
   44854623.2043944     
   44854420.3216893     
   44854241.4359808     
   44854093.4386408     
   44853982.3576752     
   44853913.2407766     
   44853890.0332635     
   42828482.5133886     
   42828451.0738897     
   42828359.2892249     
   42828215.5112262     
   42828029.3271161     
   42827811.0167994     
   42827571.1354499     
   42827320.1975869     
   42827068.4392896     
   42826825.6371146     
   42826600.9647605     
   42826402.8710805     
   42826238.9658877     
   42826115.9039249     
   42826039.2629795     
   42826013.4196996     
   40800707.7757253     
   40800672.9567256     
   40800571.6628740     
   40800413.2606455     
   40800208.4237067     
   40799968.5376775     
   40799705.2386235     
   40799430.0661724     
   40799154.2088564     
   40798888.3180017     
   40798642.3669295     
   40798425.5343541     
   40798246.0946210     
   40798111.3027173     
   40798027.2690661     
   40797998.8276189     
   38772775.2767694     
   38772736.7427730     
   38772625.1626649     
   38772451.2437317     
   38772226.9663720     
   38771964.9476174     
   38771677.9508863     
   38771378.5262139     
   38771078.7580683     
   38770790.0934563     
   38770523.2217018     
   38770287.9789555     
   38770093.2548676     
   38769946.8854896     
   38769855.5251485     
   38769824.5001458     
   36744663.5054561     
   36744620.9057993     
   36744498.2286512     
   36744307.8727218     
   36744063.3655921     
   36743778.6927969     
   36743467.7925932     
   36743144.2024925     
   36742820.8319757     
   36742509.8280785     
   36742222.4975977     
   36741969.2513474     
   36741759.5409833     
   36741601.7671155     
   36741503.1482093     
   36741469.5521126     
   34716349.1502494     
   34716302.1503820     
   34716167.6272602     
   34715960.0446986     
   34715694.7317966     
   34715387.1801779     
   34715052.5370740     
   34714705.2801294     
   34714359.0420621     
   34714026.5421120     
   34713719.5773386     
   34713449.0290055     
   34713224.8457944     
   34713055.9758155     
   34712950.2325517     
   34712914.0951430     
   32687807.1752158     
   32687755.4876048     
   32687608.5279801     
   32687383.2241898     
   32687096.9700482     
   32686766.8893905     
   32686409.3424035     
   32686039.6561583     
   32685672.0353048     
   32685319.5945128     
   32684994.4510623     
   32684707.8199891     
   32684470.0631658     
   32684290.6561189     
   32684178.0517508     
   32684139.4388978     
   30659010.8816478     
   30658954.2972363     
   30658794.5701905     
   30658551.5229802     
   30658244.8816349     
   30657893.5020260     
   30657514.9100629     
   30657125.1256610     
   30656738.7039874     
   30656368.9122578     
   30656027.9611885     
   30655727.2195087     
   30655477.3522493     
   30655288.3368236     
   30655169.3272538     
   30655128.3593432     
   28629931.9536489     
   28629870.3751957     
   28629697.9207952     
   28629437.7813960     
   28629112.2807806     
   28628742.0590734     
   28628345.6810763     
   28627939.6099874     
   28627538.4389541     
   28627155.2635499     
   28626802.0925528     
   28626490.2145959     
   28626230.4533209     
   28626033.2533544     
   28625908.5527489     
   28625865.4230486     
   26600540.4854018     
   26600473.9649462     
   26600289.3251387     
   26600013.6603217     
   26599672.1427971     
   26599287.1662758     
   26598878.0871833     
   26598461.4378021     
   26598051.4278434     
   26597660.5677414     
   26597300.2946247     
   26596981.5210522     
   26596715.0393835     
   26596511.7097889     
   26596382.3602737     
   26596337.3535666     
   24570804.9854751     
   24570733.7704749     
   24570538.1573302     
   24570249.7643386     
   24569896.8168153     
   24569503.2845147     
   24569088.8876593     
   24568669.6951491     
   24568258.9973404     
   24567868.2259731     
   24567507.8103670     
   24567187.9247040     
   24566919.0782604     
   24566712.4595068     
   24566579.9098905     
   24566533.4225245     
   22540692.3462025     
   22540616.9454125     
   22540412.4855619     
   22540115.8397021     
   22539758.3676662     
   22539365.1724882     
   22538955.6423260     
   22538544.6673226     
   22538143.9927099     
   22537763.4411422     
   22537411.9657329     
   22537098.5783857     
   22536833.1642189     
   22536627.0746232     
   22536493.2804150     
   22536445.8452133     
   20510167.7641402     
   20510089.0551692     
   20509879.1898366     
   20509581.1417546     
   20509229.1737778     
   20508848.5965430     
   20508457.3944426     
   20508068.3973250     
   20507691.1744735     
   20507333.4719494     
   20507002.3404595     
   20506705.1714368     
   20506450.7508733     
   20506250.2600209     
   20506117.8351468     
   20506070.1574411     
   18479194.5908265     
   18479114.0224635     
   18478904.2402111     
   18478615.1879633     
   18478283.0220204     
   18477931.4838906     
   18477575.6442745     
   18477225.3679537     
   18476887.5951028     
   18476567.7380057     
   18476270.6997249     
   18476001.8262729     
   18475768.1645691     
   18475580.0423612     
   18475452.5288256     
   18475405.5646671     
   16447734.0191673     
   16447654.0851336     
   16447453.4594337     
   16447189.4101338     
   16446897.1389177     
   16446595.7090833     
   16446295.6150721     
   16446003.2626702     
   16445722.9011638     
   16445457.7091411     
   16445210.5138172     
   16444984.4939934     
   16444784.1462259     
   16444617.6872144     
   16444500.1477690     
   16444455.2135241     
   14415744.6007873     
   14415670.0612795     
   14415494.7511574     
   14415280.9973385     
   14415055.7020732     
   14414829.3744631     
   14414607.6309129     
   14414393.6687391     
   14414189.5076683     
   14413996.5748146     
   14413816.0803749     
   14413649.3558473     
   14413498.4456320     
   14413366.9927682     
   14413267.2507034     
   14413226.7619296     
   12383181.1000817     
   12383123.3941311     
   12383006.4563635     
   12382880.9518228     
   12382753.8179856     
   12382628.9428734     
   12382508.1610550     
   12382392.5112348     
   12382282.6054834     
   12382178.8330563     
   12382081.4791973     
   12381990.8273481     
   12381907.2477621     
   12381831.7214524     
   12381764.6614168     
   12381731.1598654     
   10350000.0000000     
   10350000.0000000     
   10350000.0000000     
   10350000.0000000     
   10350000.0000000     
   10350000.0000000     
   10350000.0000000     
   10350000.0000000     
   10350000.0000000     
   10350000.0000000     
   10350000.0000000     
   10350000.0000000     
   10350000.0000000     
   10350000.0000000     
   10350000.0000000     
   10350000.0000000     
VECTORS u double 
    0.00000E+00        -0.36254E-02         0.00000E+00
    0.00000E+00        -0.23441E-02         0.00000E+00
    0.00000E+00        -0.13200E-02         0.00000E+00
    0.00000E+00        -0.68202E-03         0.00000E+00
    0.00000E+00        -0.38941E-03         0.00000E+00
    0.00000E+00        -0.27731E-03         0.00000E+00
    0.00000E+00        -0.21777E-03         0.00000E+00
    0.00000E+00        -0.12942E-03         0.00000E+00
    0.00000E+00        -0.17782E-04         0.00000E+00
    0.00000E+00         0.10648E-03         0.00000E+00
    0.00000E+00         0.22702E-03         0.00000E+00
    0.00000E+00         0.32617E-03         0.00000E+00
    0.00000E+00         0.38432E-03         0.00000E+00
    0.00000E+00         0.37753E-03         0.00000E+00
    0.00000E+00         0.27281E-03         0.00000E+00
    0.00000E+00         0.00000E+00         0.00000E+00
    0.46669E-02        -0.35922E-02         0.00000E+00
    0.44285E-02        -0.24588E-02         0.00000E+00
    0.38684E-02        -0.16232E-02         0.00000E+00
    0.32024E-02        -0.10899E-02         0.00000E+00
    0.25985E-02        -0.78288E-03         0.00000E+00
    0.21290E-02        -0.60255E-03         0.00000E+00
    0.17571E-02        -0.45744E-03         0.00000E+00
    0.14950E-02        -0.30473E-03         0.00000E+00
    0.13346E-02        -0.15004E-03         0.00000E+00
    0.11966E-02         0.19098E-05         0.00000E+00
    0.10621E-02         0.14273E-03         0.00000E+00
    0.92113E-03         0.25806E-03         0.00000E+00
    0.76506E-03         0.32994E-03         0.00000E+00
    0.58205E-03         0.33551E-03         0.00000E+00
    0.35083E-03         0.24233E-03         0.00000E+00
    0.00000E+00         0.00000E+00         0.00000E+00
    0.84374E-02        -0.37453E-02         0.00000E+00
    0.76722E-02        -0.29922E-02         0.00000E+00
    0.66316E-02        -0.24470E-02         0.00000E+00
    0.55709E-02        -0.20187E-02         0.00000E+00
    0.46256E-02        -0.16556E-02         0.00000E+00
    0.38487E-02        -0.13352E-02         0.00000E+00
    0.32739E-02        -0.10406E-02         0.00000E+00
    0.28630E-02        -0.76993E-03         0.00000E+00
    0.25425E-02        -0.52174E-03         0.00000E+00
    0.22630E-02        -0.29861E-03         0.00000E+00
    0.19918E-02        -0.10189E-03         0.00000E+00
    0.17097E-02         0.59978E-04         0.00000E+00
    0.13997E-02         0.17290E-03         0.00000E+00
    0.10403E-02         0.21734E-03         0.00000E+00
    0.59497E-03         0.16741E-03         0.00000E+00
    0.00000E+00         0.00000E+00         0.00000E+00
    0.11175E-01        -0.46637E-02         0.00000E+00
    0.98723E-02        -0.41023E-02         0.00000E+00
    0.85263E-02        -0.36250E-02         0.00000E+00
    0.72963E-02        -0.31589E-02         0.00000E+00
    0.62369E-02        -0.26973E-02         0.00000E+00
    0.53657E-02        -0.22495E-02         0.00000E+00
    0.46660E-02        -0.18249E-02         0.00000E+00
    0.41067E-02        -0.14336E-02         0.00000E+00
    0.36387E-02        -0.10801E-02         0.00000E+00
    0.32173E-02        -0.76363E-03         0.00000E+00
    0.28089E-02        -0.48584E-03         0.00000E+00
    0.23873E-02        -0.25188E-03         0.00000E+00
    0.19287E-02        -0.71853E-04         0.00000E+00
    0.14053E-02         0.39904E-04         0.00000E+00
    0.77934E-03         0.67614E-04         0.00000E+00
    0.00000E+00         0.00000E+00         0.00000E+00
    0.13102E-01        -0.61361E-02         0.00000E+00
    0.11530E-01        -0.55465E-02         0.00000E+00
    0.10108E-01        -0.49776E-02         0.00000E+00
    0.88246E-02        -0.44062E-02         0.00000E+00
    0.76982E-02        -0.38362E-02         0.00000E+00
    0.67349E-02        -0.32778E-02         0.00000E+00
    0.59217E-02        -0.27428E-02         0.00000E+00
    0.52311E-02        -0.22407E-02         0.00000E+00
    0.46265E-02        -0.17782E-02         0.00000E+00
    0.40701E-02        -0.13583E-02         0.00000E+00
    0.35283E-02        -0.98315E-03         0.00000E+00
    0.29721E-02        -0.65702E-03         0.00000E+00
    0.23737E-02        -0.38696E-03         0.00000E+00
    0.17032E-02        -0.18216E-03         0.00000E+00
    0.92548E-03        -0.51584E-04         0.00000E+00
    0.00000E+00         0.00000E+00         0.00000E+00
    0.14714E-01        -0.78335E-02         0.00000E+00
    0.13051E-01        -0.71271E-02         0.00000E+00
    0.11551E-01        -0.64346E-02         0.00000E+00
    0.10204E-01        -0.57512E-02         0.00000E+00
    0.90077E-02        -0.50741E-02         0.00000E+00
    0.79586E-02        -0.44097E-02         0.00000E+00
    0.70427E-02        -0.37674E-02         0.00000E+00
    0.62362E-02        -0.31563E-02         0.00000E+00
    0.55086E-02        -0.25835E-02         0.00000E+00
    0.48272E-02        -0.20533E-02         0.00000E+00
    0.41603E-02        -0.15695E-02         0.00000E+00
    0.34781E-02        -0.11356E-02         0.00000E+00
    0.27517E-02        -0.75692E-03         0.00000E+00
    0.19513E-02        -0.43886E-03         0.00000E+00
    0.10450E-02        -0.18611E-03         0.00000E+00
    0.00000E+00         0.00000E+00         0.00000E+00
    0.16177E-01        -0.96283E-02         0.00000E+00
    0.14430E-01        -0.88028E-02         0.00000E+00
    0.12855E-01        -0.79928E-02         0.00000E+00
    0.11439E-01        -0.71940E-02         0.00000E+00
    0.10172E-01        -0.64063E-02         0.00000E+00
    0.90422E-02        -0.56333E-02         0.00000E+00
    0.80340E-02        -0.48820E-02         0.00000E+00
    0.71249E-02        -0.41597E-02         0.00000E+00
    0.62879E-02        -0.34729E-02         0.00000E+00
    0.54938E-02        -0.28266E-02         0.00000E+00
    0.47128E-02        -0.22249E-02         0.00000E+00
    0.39160E-02        -0.16712E-02         0.00000E+00
    0.30747E-02        -0.11693E-02         0.00000E+00
    0.21606E-02        -0.72249E-03         0.00000E+00
    0.11449E-02        -0.33284E-03         0.00000E+00
    0.00000E+00         0.00000E+00         0.00000E+00
    0.17488E-01        -0.11510E-01         0.00000E+00
    0.15663E-01        -0.10567E-01         0.00000E+00
    0.14017E-01        -0.96395E-02         0.00000E+00
    0.12533E-01        -0.87249E-02         0.00000E+00
    0.11197E-01        -0.78234E-02         0.00000E+00
    0.99926E-02        -0.69379E-02         0.00000E+00
    0.89015E-02        -0.60733E-02         0.00000E+00
    0.79018E-02        -0.52356E-02         0.00000E+00
    0.69686E-02        -0.44301E-02         0.00000E+00
    0.60747E-02        -0.36617E-02         0.00000E+00
    0.51922E-02        -0.29342E-02         0.00000E+00
    0.42934E-02        -0.22509E-02         0.00000E+00
    0.33510E-02        -0.16145E-02         0.00000E+00
    0.23383E-02        -0.10271E-02         0.00000E+00
    0.12293E-02        -0.48927E-03         0.00000E+00
    0.00000E+00         0.00000E+00         0.00000E+00
    0.18640E-01        -0.13468E-01         0.00000E+00
    0.16745E-01        -0.12409E-01         0.00000E+00
    0.15035E-01        -0.11364E-01         0.00000E+00
    0.13488E-01        -0.10332E-01         0.00000E+00
    0.12088E-01        -0.93143E-02         0.00000E+00
    0.10815E-01        -0.83123E-02         0.00000E+00
    0.96508E-02        -0.73300E-02         0.00000E+00
    0.85722E-02        -0.63719E-02         0.00000E+00
    0.75553E-02        -0.54426E-02         0.00000E+00
    0.65746E-02        -0.45461E-02         0.00000E+00
    0.56036E-02        -0.36859E-02         0.00000E+00
    0.46161E-02        -0.28649E-02         0.00000E+00
    0.35862E-02        -0.20852E-02         0.00000E+00
    0.24890E-02        -0.13480E-02         0.00000E+00
    0.13007E-02        -0.65335E-03         0.00000E+00
    0.00000E+00         0.00000E+00         0.00000E+00
    0.19631E-01        -0.15493E-01         0.00000E+00
    0.17677E-01        -0.14318E-01         0.00000E+00
    0.15909E-01        -0.13155E-01         0.00000E+00
    0.14306E-01        -0.12005E-01         0.00000E+00
    0.12848E-01        -0.10868E-01         0.00000E+00
    0.11515E-01        -0.97459E-02         0.00000E+00
    0.10287E-01        -0.86416E-02         0.00000E+00
    0.91407E-02        -0.75584E-02         0.00000E+00
    0.80525E-02        -0.65001E-02         0.00000E+00
    0.69978E-02        -0.54699E-02         0.00000E+00
    0.59515E-02        -0.44710E-02         0.00000E+00
    0.48885E-02        -0.35057E-02         0.00000E+00
    0.37844E-02        -0.25756E-02         0.00000E+00
    0.26158E-02        -0.16816E-02         0.00000E+00
    0.13609E-02        -0.82348E-03         0.00000E+00
    0.00000E+00         0.00000E+00         0.00000E+00
    0.20459E-01        -0.17574E-01         0.00000E+00
    0.18455E-01        -0.16282E-01         0.00000E+00
    0.16638E-01        -0.15002E-01         0.00000E+00
    0.14987E-01        -0.13732E-01         0.00000E+00
    0.13480E-01        -0.12474E-01         0.00000E+00
    0.12096E-01        -0.11229E-01         0.00000E+00
    0.10814E-01        -0.99985E-02         0.00000E+00
    0.96116E-02        -0.87860E-02         0.00000E+00
    0.84642E-02        -0.75941E-02         0.00000E+00
    0.73482E-02        -0.64254E-02         0.00000E+00
    0.62395E-02        -0.52826E-02         0.00000E+00
    0.51139E-02        -0.41674E-02         0.00000E+00
    0.39484E-02        -0.30814E-02         0.00000E+00
    0.27208E-02        -0.20251E-02         0.00000E+00
    0.14107E-02        -0.99832E-03         0.00000E+00
    0.00000E+00         0.00000E+00         0.00000E+00
    0.21124E-01        -0.19700E-01         0.00000E+00
    0.19080E-01        -0.18292E-01         0.00000E+00
    0.17223E-01        -0.16893E-01         0.00000E+00
    0.15533E-01        -0.15503E-01         0.00000E+00
    0.13986E-01        -0.14122E-01         0.00000E+00
    0.12561E-01        -0.12751E-01         0.00000E+00
    0.11236E-01        -0.11392E-01         0.00000E+00
    0.99885E-02        -0.10047E-01         0.00000E+00
    0.87940E-02        -0.87171E-02         0.00000E+00
    0.76292E-02        -0.74058E-02         0.00000E+00
    0.64706E-02        -0.61147E-02         0.00000E+00
    0.52952E-02        -0.48454E-02         0.00000E+00
    0.40804E-02        -0.35991E-02         0.00000E+00
    0.28055E-02        -0.23762E-02         0.00000E+00
    0.14511E-02        -0.11768E-02         0.00000E+00
    0.00000E+00         0.00000E+00         0.00000E+00
    0.21626E-01        -0.21862E-01         0.00000E+00
    0.19552E-01        -0.20337E-01         0.00000E+00
    0.17665E-01        -0.18820E-01         0.00000E+00
    0.15944E-01        -0.17308E-01         0.00000E+00
    0.14368E-01        -0.15803E-01         0.00000E+00
    0.12912E-01        -0.14304E-01         0.00000E+00
    0.11556E-01        -0.12814E-01         0.00000E+00
    0.10274E-01        -0.11333E-01         0.00000E+00
    0.90446E-02        -0.98624E-02         0.00000E+00
    0.78434E-02        -0.84052E-02         0.00000E+00
    0.66475E-02        -0.69624E-02         0.00000E+00
    0.54342E-02        -0.55355E-02         0.00000E+00
    0.41821E-02        -0.41255E-02         0.00000E+00
    0.28710E-02        -0.27330E-02         0.00000E+00
    0.14825E-02        -0.13580E-02         0.00000E+00
    0.00000E+00         0.00000E+00         0.00000E+00
    0.21965E-01        -0.24049E-01         0.00000E+00
    0.19869E-01        -0.22409E-01         0.00000E+00
    0.17962E-01        -0.20772E-01         0.00000E+00
    0.16222E-01        -0.19139E-01         0.00000E+00
    0.14626E-01        -0.17508E-01         0.00000E+00
    0.13151E-01        -0.15880E-01         0.00000E+00
    0.11774E-01        -0.14256E-01         0.00000E+00
    0.10471E-01        -0.12637E-01         0.00000E+00
    0.92185E-02        -0.11024E-01         0.00000E+00
    0.79931E-02        -0.94181E-02         0.00000E+00
    0.67719E-02        -0.78212E-02         0.00000E+00
    0.55328E-02        -0.62342E-02         0.00000E+00
    0.42548E-02        -0.46582E-02         0.00000E+00
    0.29182E-02        -0.30937E-02         0.00000E+00
    0.15052E-02        -0.15410E-02         0.00000E+00
    0.00000E+00         0.00000E+00         0.00000E+00
    0.22139E-01        -0.26253E-01         0.00000E+00
    0.20032E-01        -0.24497E-01         0.00000E+00
    0.18115E-01        -0.22741E-01         0.00000E+00
    0.16367E-01        -0.20986E-01         0.00000E+00
    0.14762E-01        -0.19229E-01         0.00000E+00
    0.13279E-01        -0.17471E-01         0.00000E+00
    0.11893E-01        -0.15712E-01         0.00000E+00
    0.10581E-01        -0.13954E-01         0.00000E+00
    0.93174E-02        -0.12196E-01         0.00000E+00
    0.80799E-02        -0.10440E-01         0.00000E+00
    0.68455E-02        -0.86867E-02         0.00000E+00
    0.55922E-02        -0.69380E-02         0.00000E+00
    0.42993E-02        -0.51944E-02         0.00000E+00
    0.29477E-02        -0.34566E-02         0.00000E+00
    0.15197E-02        -0.17250E-02         0.00000E+00
    0.00000E+00         0.00000E+00         0.00000E+00
    0.22149E-01        -0.28464E-01         0.00000E+00
    0.20040E-01        -0.26593E-01         0.00000E+00
    0.18124E-01        -0.24719E-01         0.00000E+00
    0.16377E-01        -0.22841E-01         0.00000E+00
    0.14776E-01        -0.20958E-01         0.00000E+00
    0.13297E-01        -0.19069E-01         0.00000E+00
    0.11915E-01        -0.17175E-01         0.00000E+00
    0.10604E-01        -0.15275E-01         0.00000E+00
    0.93425E-02        -0.13372E-01         0.00000E+00
    0.81050E-02        -0.11465E-01         0.00000E+00
    0.68692E-02        -0.95550E-02         0.00000E+00
    0.56133E-02        -0.76438E-02         0.00000E+00
    0.43165E-02        -0.57319E-02         0.00000E+00
    0.29598E-02        -0.38203E-02         0.00000E+00
    0.15261E-02        -0.19094E-02         0.00000E+00
    0.00000E+00         0.00000E+00         0.00000E+00
    0.21993E-01        -0.30675E-01         0.00000E+00
    0.19892E-01        -0.28688E-01         0.00000E+00
    0.17987E-01        -0.26696E-01         0.00000E+00
    0.16254E-01        -0.24696E-01         0.00000E+00
    0.14668E-01        -0.22686E-01         0.00000E+00
    0.13205E-01        -0.20666E-01         0.00000E+00
    0.11838E-01        -0.18636E-01         0.00000E+00
    0.10543E-01        -0.16596E-01         0.00000E+00
    0.92946E-02        -0.14547E-01         0.00000E+00
    0.80693E-02        -0.12488E-01         0.00000E+00
    0.68439E-02        -0.10422E-01         0.00000E+00
    0.55966E-02        -0.83481E-02         0.00000E+00
    0.43066E-02        -0.62682E-02         0.00000E+00
    0.29550E-02        -0.41830E-02         0.00000E+00
    0.15245E-02        -0.20933E-02         0.00000E+00
    0.00000E+00         0.00000E+00         0.00000E+00
    0.21668E-01        -0.32875E-01         0.00000E+00
    0.19585E-01        -0.30774E-01         0.00000E+00
    0.17703E-01        -0.28664E-01         0.00000E+00
    0.15996E-01        -0.26542E-01         0.00000E+00
    0.14438E-01        -0.24406E-01         0.00000E+00
    0.13003E-01        -0.22255E-01         0.00000E+00
    0.11664E-01        -0.20090E-01         0.00000E+00
    0.10397E-01        -0.17909E-01         0.00000E+00
    0.91741E-02        -0.15714E-01         0.00000E+00
    0.79729E-02        -0.13505E-01         0.00000E+00
    0.67697E-02        -0.11282E-01         0.00000E+00
    0.55423E-02        -0.90474E-02         0.00000E+00
    0.42699E-02        -0.68007E-02         0.00000E+00
    0.29334E-02        -0.45432E-02         0.00000E+00
    0.15152E-02        -0.22759E-02         0.00000E+00
    0.00000E+00         0.00000E+00         0.00000E+00
    0.21172E-01        -0.35055E-01         0.00000E+00
    0.19118E-01        -0.32840E-01         0.00000E+00
    0.17270E-01        -0.30613E-01         0.00000E+00
    0.15602E-01        -0.28369E-01         0.00000E+00
    0.14084E-01        -0.26108E-01         0.00000E+00
    0.12691E-01        -0.23827E-01         0.00000E+00
    0.11393E-01        -0.21526E-01         0.00000E+00
    0.10165E-01        -0.19206E-01         0.00000E+00
    0.89810E-02        -0.16867E-01         0.00000E+00
    0.78159E-02        -0.14508E-01         0.00000E+00
    0.66465E-02        -0.12132E-01         0.00000E+00
    0.54503E-02        -0.97379E-02         0.00000E+00
    0.42062E-02        -0.73266E-02         0.00000E+00
    0.28947E-02        -0.48991E-02         0.00000E+00
    0.14978E-02        -0.24564E-02         0.00000E+00
    0.00000E+00         0.00000E+00         0.00000E+00
    0.20502E-01        -0.37205E-01         0.00000E+00
    0.18488E-01        -0.34877E-01         0.00000E+00
    0.16687E-01        -0.32533E-01         0.00000E+00
    0.15070E-01        -0.30169E-01         0.00000E+00
    0.13607E-01        -0.27782E-01         0.00000E+00
    0.12268E-01        -0.25372E-01         0.00000E+00
    0.11024E-01        -0.22938E-01         0.00000E+00
    0.98485E-02        -0.20479E-01         0.00000E+00
    0.87146E-02        -0.17998E-01         0.00000E+00
    0.75976E-02        -0.15493E-01         0.00000E+00
    0.64735E-02        -0.12966E-01         0.00000E+00
    0.53197E-02        -0.10415E-01         0.00000E+00
    0.41148E-02        -0.78428E-02         0.00000E+00
    0.28385E-02        -0.52486E-02         0.00000E+00
    0.14724E-02        -0.26337E-02         0.00000E+00
    0.00000E+00         0.00000E+00         0.00000E+00
    0.19651E-01        -0.39312E-01         0.00000E+00
    0.17691E-01        -0.36872E-01         0.00000E+00
    0.15952E-01        -0.34413E-01         0.00000E+00
    0.14401E-01        -0.31928E-01         0.00000E+00
    0.13005E-01        -0.29418E-01         0.00000E+00
    0.11734E-01        -0.26879E-01         0.00000E+00
    0.10557E-01        -0.24313E-01         0.00000E+00
    0.94456E-02        -0.21720E-01         0.00000E+00
    0.83740E-02        -0.19099E-01         0.00000E+00
    0.73166E-02        -0.16452E-01         0.00000E+00
    0.62494E-02        -0.13777E-01         0.00000E+00
    0.51493E-02        -0.11075E-01         0.00000E+00
    0.39945E-02        -0.83459E-02         0.00000E+00
    0.27640E-02        -0.55896E-02         0.00000E+00
    0.14383E-02        -0.28070E-02         0.00000E+00
    0.00000E+00         0.00000E+00         0.00000E+00
    0.18617E-01        -0.41363E-01         0.00000E+00
    0.16725E-01        -0.38813E-01         0.00000E+00
    0.15062E-01        -0.36239E-01         0.00000E+00
    0.13591E-01        -0.33636E-01         0.00000E+00
    0.12277E-01        -0.31002E-01         0.00000E+00
    0.11087E-01        -0.28337E-01         0.00000E+00
    0.99896E-02        -0.25642E-01         0.00000E+00
    0.89553E-02        -0.22916E-01         0.00000E+00
    0.79575E-02        -0.20161E-01         0.00000E+00
    0.69711E-02        -0.17375E-01         0.00000E+00
    0.59719E-02        -0.14559E-01         0.00000E+00
    0.49368E-02        -0.11712E-01         0.00000E+00
    0.38434E-02        -0.88321E-02         0.00000E+00
    0.26697E-02        -0.59197E-02         0.00000E+00
    0.13950E-02        -0.29751E-02         0.00000E+00
    0.00000E+00         0.00000E+00         0.00000E+00
    0.17393E-01        -0.43345E-01         0.00000E+00
    0.15585E-01        -0.40685E-01         0.00000E+00
    0.14015E-01        -0.37997E-01         0.00000E+00
    0.12640E-01        -0.35276E-01         0.00000E+00
    0.11423E-01        -0.32520E-01         0.00000E+00
    0.10328E-01        -0.29731E-01         0.00000E+00
    0.93219E-02        -0.26910E-01         0.00000E+00
    0.83757E-02        -0.24057E-01         0.00000E+00
    0.74627E-02        -0.21172E-01         0.00000E+00
    0.65580E-02        -0.18255E-01         0.00000E+00
    0.56379E-02        -0.15305E-01         0.00000E+00
    0.46791E-02        -0.12319E-01         0.00000E+00
    0.36587E-02        -0.92970E-02         0.00000E+00
    0.25536E-02        -0.62363E-02         0.00000E+00
    0.13412E-02        -0.31368E-02         0.00000E+00
    0.00000E+00         0.00000E+00         0.00000E+00
    0.15972E-01        -0.45238E-01         0.00000E+00
    0.14268E-01        -0.42471E-01         0.00000E+00
    0.12809E-01        -0.39669E-01         0.00000E+00
    0.11548E-01        -0.36831E-01         0.00000E+00
    0.10442E-01        -0.33956E-01         0.00000E+00
    0.94548E-02        -0.31046E-01         0.00000E+00
    0.85518E-02        -0.28103E-01         0.00000E+00
    0.77043E-02        -0.25127E-01         0.00000E+00
    0.68862E-02        -0.22120E-01         0.00000E+00
    0.60733E-02        -0.19080E-01         0.00000E+00
    0.52428E-02        -0.16004E-01         0.00000E+00
    0.43715E-02        -0.12891E-01         0.00000E+00
    0.34362E-02        -0.97357E-02         0.00000E+00
    0.24124E-02        -0.65363E-02         0.00000E+00
    0.12753E-02        -0.32907E-02         0.00000E+00
    0.00000E+00         0.00000E+00         0.00000E+00
    0.14349E-01        -0.47024E-01         0.00000E+00
    0.12770E-01        -0.44150E-01         0.00000E+00
    0.11442E-01        -0.41237E-01         0.00000E+00
    0.10313E-01        -0.38283E-01         0.00000E+00
    0.93341E-02        -0.35290E-01         0.00000E+00
    0.84669E-02        -0.32262E-01         0.00000E+00
    0.76776E-02        -0.29202E-01         0.00000E+00
    0.69380E-02        -0.26112E-01         0.00000E+00
    0.62235E-02        -0.22991E-01         0.00000E+00
    0.55116E-02        -0.19837E-01         0.00000E+00
    0.47804E-02        -0.16648E-01         0.00000E+00
    0.40077E-02        -0.13418E-01         0.00000E+00
    0.31701E-02        -0.10143E-01         0.00000E+00
    0.22418E-02        -0.68163E-02         0.00000E+00
    0.11948E-02        -0.34355E-02         0.00000E+00
    0.00000E+00         0.00000E+00         0.00000E+00
    0.12517E-01        -0.48679E-01         0.00000E+00
    0.11089E-01        -0.45699E-01         0.00000E+00
    0.99155E-02        -0.42674E-01         0.00000E+00
    0.89362E-02        -0.39606E-01         0.00000E+00
    0.80991E-02        -0.36499E-01         0.00000E+00
    0.73633E-02        -0.33358E-01         0.00000E+00
    0.66965E-02        -0.30189E-01         0.00000E+00
    0.60725E-02        -0.26993E-01         0.00000E+00
    0.54689E-02        -0.23769E-01         0.00000E+00
    0.48655E-02        -0.20515E-01         0.00000E+00
    0.42426E-02        -0.17225E-01         0.00000E+00
    0.35794E-02        -0.13893E-01         0.00000E+00
    0.28527E-02        -0.10512E-01         0.00000E+00
    0.20355E-02        -0.70728E-02         0.00000E+00
    0.10963E-02        -0.35696E-02         0.00000E+00
    0.00000E+00         0.00000E+00         0.00000E+00
    0.10469E-01        -0.50174E-01         0.00000E+00
    0.92219E-02        -0.47090E-01         0.00000E+00
    0.82296E-02        -0.43954E-01         0.00000E+00
    0.74202E-02        -0.40773E-01         0.00000E+00
    0.67380E-02        -0.37556E-01         0.00000E+00
    0.61428E-02        -0.34310E-01         0.00000E+00
    0.56051E-02        -0.31042E-01         0.00000E+00
    0.51021E-02        -0.27751E-01         0.00000E+00
    0.46149E-02        -0.24438E-01         0.00000E+00
    0.41263E-02        -0.21097E-01         0.00000E+00
    0.36193E-02        -0.17723E-01         0.00000E+00
    0.30756E-02        -0.14306E-01         0.00000E+00
    0.24732E-02        -0.10836E-01         0.00000E+00
    0.17846E-02        -0.73015E-02         0.00000E+00
    0.97463E-03        -0.36914E-02         0.00000E+00
    0.00000E+00         0.00000E+00         0.00000E+00
    0.81983E-02        -0.51474E-01         0.00000E+00
    0.71704E-02        -0.48286E-01         0.00000E+00
    0.63886E-02        -0.45040E-01         0.00000E+00
    0.57678E-02        -0.41750E-01         0.00000E+00
    0.52511E-02        -0.38431E-01         0.00000E+00
    0.48027E-02        -0.35092E-01         0.00000E+00
    0.43983E-02        -0.31737E-01         0.00000E+00
    0.40198E-02        -0.28368E-01         0.00000E+00
    0.36525E-02        -0.24981E-01         0.00000E+00
    0.32830E-02        -0.21571E-01         0.00000E+00
    0.28981E-02        -0.18129E-01         0.00000E+00
    0.24825E-02        -0.14646E-01         0.00000E+00
    0.20176E-02        -0.11107E-01         0.00000E+00
    0.14770E-02        -0.74971E-02         0.00000E+00
    0.82236E-03        -0.37988E-02         0.00000E+00
    0.00000E+00         0.00000E+00         0.00000E+00
    0.56973E-02        -0.52533E-01         0.00000E+00
    0.49391E-02        -0.49241E-01         0.00000E+00
    0.43996E-02        -0.45888E-01         0.00000E+00
    0.39821E-02        -0.42498E-01         0.00000E+00
    0.36371E-02        -0.39091E-01         0.00000E+00
    0.33384E-02        -0.35676E-01         0.00000E+00
    0.30689E-02        -0.32254E-01         0.00000E+00
    0.28164E-02        -0.28824E-01         0.00000E+00
    0.25709E-02        -0.25382E-01         0.00000E+00
    0.23234E-02        -0.21921E-01         0.00000E+00
    0.20647E-02        -0.18431E-01         0.00000E+00
    0.17841E-02        -0.14901E-01         0.00000E+00
    0.14677E-02        -0.11314E-01         0.00000E+00
    0.10947E-02        -0.76528E-02         0.00000E+00
    0.62758E-03        -0.38892E-02         0.00000E+00
    0.00000E+00         0.00000E+00         0.00000E+00
    0.29608E-02        -0.53284E-01         0.00000E+00
    0.25419E-02        -0.49889E-01         0.00000E+00
    0.22709E-02        -0.46438E-01         0.00000E+00
    0.20624E-02        -0.42971E-01         0.00000E+00
    0.18904E-02        -0.39504E-01         0.00000E+00
    0.17414E-02        -0.36038E-01         0.00000E+00
    0.16069E-02        -0.32573E-01         0.00000E+00
    0.14807E-02        -0.29105E-01         0.00000E+00
    0.13579E-02        -0.25629E-01         0.00000E+00
    0.12339E-02        -0.22136E-01         0.00000E+00
    0.11039E-02        -0.18617E-01         0.00000E+00
    0.96263E-03        -0.15059E-01         0.00000E+00
    0.80258E-03        -0.11446E-01         0.00000E+00
    0.61208E-03        -0.77567E-02         0.00000E+00
    0.36902E-03        -0.39583E-02         0.00000E+00
    0.00000E+00         0.00000E+00         0.00000E+00
    0.00000E+00        -0.53604E-01         0.00000E+00
    0.00000E+00        -0.50128E-01         0.00000E+00
    0.00000E+00        -0.46630E-01         0.00000E+00
    0.00000E+00        -0.43134E-01         0.00000E+00
    0.00000E+00        -0.39644E-01         0.00000E+00
    0.00000E+00        -0.36160E-01         0.00000E+00
    0.00000E+00        -0.32680E-01         0.00000E+00
    0.00000E+00        -0.29200E-01         0.00000E+00
    0.00000E+00        -0.25712E-01         0.00000E+00
    0.00000E+00        -0.22209E-01         0.00000E+00
    0.00000E+00        -0.18680E-01         0.00000E+00
    0.00000E+00        -0.15113E-01         0.00000E+00
    0.00000E+00        -0.11492E-01         0.00000E+00
    0.00000E+00        -0.77938E-02         0.00000E+00
    0.00000E+00        -0.39869E-02         0.00000E+00
    0.00000E+00         0.00000E+00         0.00000E+00
CELL_DATA        450
VECTORS vDarcy double 
    0.11600E-05         0.11963E-09         0.00000E+00
    0.11600E-05         0.31448E-09         0.00000E+00
    0.11599E-05         0.43562E-09         0.00000E+00
    0.11599E-05         0.51065E-09         0.00000E+00
    0.11599E-05         0.55550E-09         0.00000E+00
    0.11598E-05         0.56900E-09         0.00000E+00
    0.11598E-05         0.55533E-09         0.00000E+00
    0.11598E-05         0.53275E-09         0.00000E+00
    0.11598E-05         0.49697E-09         0.00000E+00
    0.11599E-05         0.45586E-09         0.00000E+00
    0.11599E-05         0.40824E-09         0.00000E+00
    0.11599E-05         0.35277E-09         0.00000E+00
    0.11599E-05         0.28661E-09         0.00000E+00
    0.11598E-05         0.20303E-09         0.00000E+00
    0.11598E-05         0.78072E-10         0.00000E+00
    0.11599E-05         0.71225E-10         0.00000E+00
    0.11597E-05         0.16939E-09         0.00000E+00
    0.11597E-05         0.21415E-09         0.00000E+00
    0.11596E-05         0.24832E-09         0.00000E+00
    0.11596E-05         0.28626E-09         0.00000E+00
    0.11596E-05         0.31859E-09         0.00000E+00
    0.11596E-05         0.34847E-09         0.00000E+00
    0.11596E-05         0.36972E-09         0.00000E+00
    0.11596E-05         0.36534E-09         0.00000E+00
    0.11596E-05         0.34283E-09         0.00000E+00
    0.11596E-05         0.30769E-09         0.00000E+00
    0.11596E-05         0.26099E-09         0.00000E+00
    0.11596E-05         0.20154E-09         0.00000E+00
    0.11595E-05         0.12589E-09         0.00000E+00
    0.11595E-05         0.41940E-10         0.00000E+00
    0.11597E-05         0.14265E-10         0.00000E+00
    0.11595E-05         0.49243E-10         0.00000E+00
    0.11594E-05         0.90114E-10         0.00000E+00
    0.11594E-05         0.12550E-09         0.00000E+00
    0.11594E-05         0.16202E-09         0.00000E+00
    0.11594E-05         0.19538E-09         0.00000E+00
    0.11593E-05         0.22767E-09         0.00000E+00
    0.11593E-05         0.24775E-09         0.00000E+00
    0.11593E-05         0.25250E-09         0.00000E+00
    0.11593E-05         0.24230E-09         0.00000E+00
    0.11593E-05         0.21854E-09         0.00000E+00
    0.11593E-05         0.18287E-09         0.00000E+00
    0.11593E-05         0.13623E-09         0.00000E+00
    0.11592E-05         0.81875E-10         0.00000E+00
    0.11592E-05         0.26992E-10         0.00000E+00
    0.11594E-05        -0.87097E-11         0.00000E+00
    0.11593E-05         0.14802E-11         0.00000E+00
    0.11592E-05         0.41683E-10         0.00000E+00
    0.11592E-05         0.77339E-10         0.00000E+00
    0.11592E-05         0.10751E-09         0.00000E+00
    0.11591E-05         0.12725E-09         0.00000E+00
    0.11591E-05         0.14522E-09         0.00000E+00
    0.11591E-05         0.15899E-09         0.00000E+00
    0.11591E-05         0.16470E-09         0.00000E+00
    0.11591E-05         0.16004E-09         0.00000E+00
    0.11591E-05         0.14499E-09         0.00000E+00
    0.11590E-05         0.12039E-09         0.00000E+00
    0.11590E-05         0.88315E-10         0.00000E+00
    0.11590E-05         0.52270E-10         0.00000E+00
    0.11589E-05         0.17165E-10         0.00000E+00
    0.11591E-05        -0.36158E-11         0.00000E+00
    0.11591E-05         0.34758E-11         0.00000E+00
    0.11590E-05         0.24670E-10         0.00000E+00
    0.11590E-05         0.43463E-10         0.00000E+00
    0.11589E-05         0.60779E-10         0.00000E+00
    0.11589E-05         0.74130E-10         0.00000E+00
    0.11589E-05         0.85037E-10         0.00000E+00
    0.11589E-05         0.93516E-10         0.00000E+00
    0.11589E-05         0.97715E-10         0.00000E+00
    0.11588E-05         0.95841E-10         0.00000E+00
    0.11588E-05         0.87115E-10         0.00000E+00
    0.11588E-05         0.72083E-10         0.00000E+00
    0.11588E-05         0.52399E-10         0.00000E+00
    0.11587E-05         0.30724E-10         0.00000E+00
    0.11587E-05         0.10175E-10         0.00000E+00
    0.11589E-05        -0.22077E-11         0.00000E+00
    0.11588E-05        -0.16709E-11         0.00000E+00
    0.11588E-05         0.56793E-11         0.00000E+00
    0.11588E-05         0.15259E-10         0.00000E+00
    0.11587E-05         0.24091E-10         0.00000E+00
    0.11587E-05         0.31757E-10         0.00000E+00
    0.11587E-05         0.38249E-10         0.00000E+00
    0.11587E-05         0.43488E-10         0.00000E+00
    0.11586E-05         0.46581E-10         0.00000E+00
    0.11586E-05         0.46465E-10         0.00000E+00
    0.11586E-05         0.42556E-10         0.00000E+00
    0.11586E-05         0.35093E-10         0.00000E+00
    0.11585E-05         0.25174E-10         0.00000E+00
    0.11585E-05         0.14499E-10         0.00000E+00
    0.11585E-05         0.49011E-11         0.00000E+00
    0.11587E-05        -0.41853E-11         0.00000E+00
    0.11586E-05        -0.96684E-11         0.00000E+00
    0.11586E-05        -0.10348E-10         0.00000E+00
    0.11586E-05        -0.84475E-11         0.00000E+00
    0.11585E-05        -0.54797E-11         0.00000E+00
    0.11585E-05        -0.22365E-11         0.00000E+00
    0.11585E-05         0.11085E-11         0.00000E+00
    0.11584E-05         0.43359E-11         0.00000E+00
    0.11584E-05         0.69701E-11         0.00000E+00
    0.11584E-05         0.84120E-11         0.00000E+00
    0.11584E-05         0.82947E-11         0.00000E+00
    0.11584E-05         0.67242E-11         0.00000E+00
    0.11583E-05         0.43152E-11         0.00000E+00
    0.11583E-05         0.20248E-11         0.00000E+00
    0.11583E-05         0.81703E-12         0.00000E+00
    0.11585E-05        -0.64361E-11         0.00000E+00
    0.11584E-05        -0.17384E-10         0.00000E+00
    0.11584E-05        -0.24137E-10         0.00000E+00
    0.11583E-05        -0.27880E-10         0.00000E+00
    0.11583E-05        -0.29585E-10         0.00000E+00
    0.11583E-05        -0.29799E-10         0.00000E+00
    0.11583E-05        -0.28817E-10         0.00000E+00
    0.11582E-05        -0.26864E-10         0.00000E+00
    0.11582E-05        -0.24252E-10         0.00000E+00
    0.11582E-05        -0.21335E-10         0.00000E+00
    0.11582E-05        -0.18354E-10         0.00000E+00
    0.11582E-05        -0.15306E-10         0.00000E+00
    0.11581E-05        -0.11917E-10         0.00000E+00
    0.11581E-05        -0.77512E-11         0.00000E+00
    0.11581E-05        -0.24186E-11         0.00000E+00
    0.11582E-05        -0.85608E-11         0.00000E+00
    0.11582E-05        -0.24164E-10         0.00000E+00
    0.11582E-05        -0.35772E-10         0.00000E+00
    0.11581E-05        -0.44020E-10         0.00000E+00
    0.11581E-05        -0.49461E-10         0.00000E+00
    0.11581E-05        -0.52480E-10         0.00000E+00
    0.11581E-05        -0.53329E-10         0.00000E+00
    0.11580E-05        -0.52222E-10         0.00000E+00
    0.11580E-05        -0.49395E-10         0.00000E+00
    0.11580E-05        -0.45099E-10         0.00000E+00
    0.11580E-05        -0.39536E-10         0.00000E+00
    0.11580E-05        -0.32794E-10         0.00000E+00
    0.11580E-05        -0.24843E-10         0.00000E+00
    0.11579E-05        -0.15600E-10         0.00000E+00
    0.11579E-05        -0.50474E-11         0.00000E+00
    0.11580E-05        -0.10436E-10         0.00000E+00
    0.11580E-05        -0.30038E-10         0.00000E+00
    0.11580E-05        -0.45706E-10         0.00000E+00
    0.11579E-05        -0.57680E-10         0.00000E+00
    0.11579E-05        -0.66221E-10         0.00000E+00
    0.11579E-05        -0.71554E-10         0.00000E+00
    0.11579E-05        -0.73867E-10         0.00000E+00
    0.11579E-05        -0.73345E-10         0.00000E+00
    0.11578E-05        -0.70192E-10         0.00000E+00
    0.11578E-05        -0.64631E-10         0.00000E+00
    0.11578E-05        -0.56875E-10         0.00000E+00
    0.11578E-05        -0.47101E-10         0.00000E+00
    0.11578E-05        -0.35458E-10         0.00000E+00
    0.11578E-05        -0.22098E-10         0.00000E+00
    0.11578E-05        -0.72492E-11         0.00000E+00
    0.11578E-05        -0.12131E-10         0.00000E+00
    0.11578E-05        -0.35261E-10         0.00000E+00
    0.11577E-05        -0.54449E-10         0.00000E+00
    0.11577E-05        -0.69618E-10         0.00000E+00
    0.11577E-05        -0.80800E-10         0.00000E+00
    0.11577E-05        -0.88084E-10         0.00000E+00
    0.11577E-05        -0.91594E-10         0.00000E+00
    0.11577E-05        -0.91487E-10         0.00000E+00
    0.11577E-05        -0.87959E-10         0.00000E+00
    0.11577E-05        -0.81240E-10         0.00000E+00
    0.11577E-05        -0.71579E-10         0.00000E+00
    0.11576E-05        -0.59238E-10         0.00000E+00
    0.11576E-05        -0.44496E-10         0.00000E+00
    0.11576E-05        -0.27672E-10         0.00000E+00
    0.11576E-05        -0.91583E-11         0.00000E+00
    0.11576E-05        -0.13741E-10         0.00000E+00
    0.11576E-05        -0.40132E-10         0.00000E+00
    0.11576E-05        -0.62493E-10         0.00000E+00
    0.11575E-05        -0.80491E-10         0.00000E+00
    0.11575E-05        -0.93981E-10         0.00000E+00
    0.11575E-05        -0.10294E-09         0.00000E+00
    0.11575E-05        -0.10744E-09         0.00000E+00
    0.11575E-05        -0.10763E-09         0.00000E+00
    0.11575E-05        -0.10369E-09         0.00000E+00
    0.11575E-05        -0.95898E-10         0.00000E+00
    0.11575E-05        -0.84534E-10         0.00000E+00
    0.11575E-05        -0.69940E-10         0.00000E+00
    0.11575E-05        -0.52496E-10         0.00000E+00
    0.11575E-05        -0.32638E-10         0.00000E+00
    0.11575E-05        -0.10874E-10         0.00000E+00
    0.11574E-05        -0.15359E-10         0.00000E+00
    0.11574E-05        -0.44923E-10         0.00000E+00
    0.11574E-05        -0.70259E-10         0.00000E+00
    0.11574E-05        -0.90843E-10         0.00000E+00
    0.11574E-05        -0.10640E-09         0.00000E+00
    0.11574E-05        -0.11682E-09         0.00000E+00
    0.11574E-05        -0.12215E-09         0.00000E+00
    0.11574E-05        -0.12252E-09         0.00000E+00
    0.11574E-05        -0.11814E-09         0.00000E+00
    0.11574E-05        -0.10932E-09         0.00000E+00
    0.11574E-05        -0.96381E-10         0.00000E+00
    0.11574E-05        -0.79738E-10         0.00000E+00
    0.11574E-05        -0.59845E-10         0.00000E+00
    0.11574E-05        -0.37224E-10         0.00000E+00
    0.11573E-05        -0.12470E-10         0.00000E+00
    0.11572E-05        -0.17061E-10         0.00000E+00
    0.11572E-05        -0.49853E-10         0.00000E+00
    0.11572E-05        -0.78083E-10         0.00000E+00
    0.11572E-05        -0.10110E-09         0.00000E+00
    0.11572E-05        -0.11853E-09         0.00000E+00
    0.11572E-05        -0.13024E-09         0.00000E+00
    0.11572E-05        -0.13624E-09         0.00000E+00
    0.11572E-05        -0.13669E-09         0.00000E+00
    0.11572E-05        -0.13184E-09         0.00000E+00
    0.11572E-05        -0.12200E-09         0.00000E+00
    0.11572E-05        -0.10757E-09         0.00000E+00
    0.11572E-05        -0.88997E-10         0.00000E+00
    0.11572E-05        -0.66809E-10         0.00000E+00
    0.11572E-05        -0.41589E-10         0.00000E+00
    0.11572E-05        -0.13996E-10         0.00000E+00
    0.11570E-05        -0.18903E-10         0.00000E+00
    0.11570E-05        -0.55083E-10         0.00000E+00
    0.11570E-05        -0.86209E-10         0.00000E+00
    0.11570E-05        -0.11155E-09         0.00000E+00
    0.11570E-05        -0.13072E-09         0.00000E+00
    0.11570E-05        -0.14355E-09         0.00000E+00
    0.11571E-05        -0.15009E-09         0.00000E+00
    0.11571E-05        -0.15052E-09         0.00000E+00
    0.11571E-05        -0.14512E-09         0.00000E+00
    0.11571E-05        -0.13426E-09         0.00000E+00
    0.11571E-05        -0.11837E-09         0.00000E+00
    0.11571E-05        -0.97952E-10         0.00000E+00
    0.11571E-05        -0.73563E-10         0.00000E+00
    0.11571E-05        -0.45838E-10         0.00000E+00
    0.11571E-05        -0.15487E-10         0.00000E+00
    0.11568E-05        -0.20922E-10         0.00000E+00
    0.11568E-05        -0.60717E-10         0.00000E+00
    0.11569E-05        -0.94787E-10         0.00000E+00
    0.11569E-05        -0.12240E-09         0.00000E+00
    0.11569E-05        -0.14316E-09         0.00000E+00
    0.11569E-05        -0.15696E-09         0.00000E+00
    0.11569E-05        -0.16389E-09         0.00000E+00
    0.11570E-05        -0.16419E-09         0.00000E+00
    0.11570E-05        -0.15818E-09         0.00000E+00
    0.11570E-05        -0.14628E-09         0.00000E+00
    0.11570E-05        -0.12895E-09         0.00000E+00
    0.11570E-05        -0.10673E-09         0.00000E+00
    0.11570E-05        -0.80199E-10         0.00000E+00
    0.11570E-05        -0.50030E-10         0.00000E+00
    0.11570E-05        -0.16962E-10         0.00000E+00
    0.11567E-05        -0.23136E-10         0.00000E+00
    0.11567E-05        -0.66801E-10         0.00000E+00
    0.11567E-05        -0.10388E-09         0.00000E+00
    0.11567E-05        -0.13368E-09         0.00000E+00
    0.11568E-05        -0.15590E-09         0.00000E+00
    0.11568E-05        -0.17051E-09         0.00000E+00
    0.11568E-05        -0.17767E-09         0.00000E+00
    0.11568E-05        -0.17771E-09         0.00000E+00
    0.11569E-05        -0.17102E-09         0.00000E+00
    0.11569E-05        -0.15805E-09         0.00000E+00
    0.11569E-05        -0.13931E-09         0.00000E+00
    0.11569E-05        -0.11534E-09         0.00000E+00
    0.11569E-05        -0.86740E-10         0.00000E+00
    0.11570E-05        -0.54182E-10         0.00000E+00
    0.11570E-05        -0.18430E-10         0.00000E+00
    0.11565E-05        -0.25544E-10         0.00000E+00
    0.11565E-05        -0.73327E-10         0.00000E+00
    0.11566E-05        -0.11345E-09         0.00000E+00
    0.11566E-05        -0.14535E-09         0.00000E+00
    0.11566E-05        -0.16885E-09         0.00000E+00
    0.11567E-05        -0.18406E-09         0.00000E+00
    0.11567E-05        -0.19128E-09         0.00000E+00
    0.11567E-05        -0.19093E-09         0.00000E+00
    0.11568E-05        -0.18349E-09         0.00000E+00
    0.11568E-05        -0.16946E-09         0.00000E+00
    0.11568E-05        -0.14936E-09         0.00000E+00
    0.11569E-05        -0.12372E-09         0.00000E+00
    0.11569E-05        -0.93143E-10         0.00000E+00
    0.11569E-05        -0.58274E-10         0.00000E+00
    0.11569E-05        -0.19885E-10         0.00000E+00
    0.11564E-05        -0.28128E-10         0.00000E+00
    0.11564E-05        -0.80232E-10         0.00000E+00
    0.11564E-05        -0.12339E-09         0.00000E+00
    0.11565E-05        -0.15722E-09         0.00000E+00
    0.11565E-05        -0.18176E-09         0.00000E+00
    0.11566E-05        -0.19732E-09         0.00000E+00
    0.11566E-05        -0.20438E-09         0.00000E+00
    0.11567E-05        -0.20351E-09         0.00000E+00
    0.11567E-05        -0.19527E-09         0.00000E+00
    0.11567E-05        -0.18021E-09         0.00000E+00
    0.11568E-05        -0.15885E-09         0.00000E+00
    0.11568E-05        -0.13170E-09         0.00000E+00
    0.11568E-05        -0.99296E-10         0.00000E+00
    0.11568E-05        -0.62253E-10         0.00000E+00
    0.11569E-05        -0.21312E-10         0.00000E+00
    0.11562E-05        -0.30853E-10         0.00000E+00
    0.11563E-05        -0.87396E-10         0.00000E+00
    0.11563E-05        -0.13347E-09         0.00000E+00
    0.11564E-05        -0.16897E-09         0.00000E+00
    0.11564E-05        -0.19421E-09         0.00000E+00
    0.11565E-05        -0.20981E-09         0.00000E+00
    0.11565E-05        -0.21646E-09         0.00000E+00
    0.11566E-05        -0.21492E-09         0.00000E+00
    0.11566E-05        -0.20586E-09         0.00000E+00
    0.11567E-05        -0.18986E-09         0.00000E+00
    0.11567E-05        -0.16743E-09         0.00000E+00
    0.11567E-05        -0.13900E-09         0.00000E+00
    0.11568E-05        -0.10502E-09         0.00000E+00
    0.11568E-05        -0.66025E-10         0.00000E+00
    0.11568E-05        -0.22686E-10         0.00000E+00
    0.11561E-05        -0.33664E-10         0.00000E+00
    0.11562E-05        -0.94639E-10         0.00000E+00
    0.11562E-05        -0.14337E-09         0.00000E+00
    0.11563E-05        -0.18011E-09         0.00000E+00
    0.11564E-05        -0.20561E-09         0.00000E+00
    0.11564E-05        -0.22083E-09         0.00000E+00
    0.11565E-05        -0.22679E-09         0.00000E+00
    0.11565E-05        -0.22444E-09         0.00000E+00
    0.11566E-05        -0.21458E-09         0.00000E+00
    0.11566E-05        -0.19782E-09         0.00000E+00
    0.11567E-05        -0.17460E-09         0.00000E+00
    0.11567E-05        -0.14525E-09         0.00000E+00
    0.11567E-05        -0.11008E-09         0.00000E+00
    0.11568E-05        -0.69463E-10         0.00000E+00
    0.11568E-05        -0.23970E-10         0.00000E+00
    0.11560E-05        -0.36485E-10         0.00000E+00
    0.11561E-05        -0.10171E-09         0.00000E+00
    0.11562E-05        -0.15262E-09         0.00000E+00
    0.11562E-05        -0.19001E-09         0.00000E+00
    0.11563E-05        -0.21514E-09         0.00000E+00
    0.11564E-05        -0.22947E-09         0.00000E+00
    0.11564E-05        -0.23440E-09         0.00000E+00
    0.11565E-05        -0.23112E-09         0.00000E+00
    0.11565E-05        -0.22055E-09         0.00000E+00
    0.11566E-05        -0.20329E-09         0.00000E+00
    0.11566E-05        -0.17971E-09         0.00000E+00
    0.11567E-05        -0.14996E-09         0.00000E+00
    0.11567E-05        -0.11414E-09         0.00000E+00
    0.11568E-05        -0.72400E-10         0.00000E+00
    0.11568E-05        -0.25118E-10         0.00000E+00
    0.11559E-05        -0.39221E-10         0.00000E+00
    0.11560E-05        -0.10828E-09         0.00000E+00
    0.11561E-05        -0.16064E-09         0.00000E+00
    0.11562E-05        -0.19779E-09         0.00000E+00
    0.11563E-05        -0.22174E-09         0.00000E+00
    0.11563E-05        -0.23456E-09         0.00000E+00
    0.11564E-05        -0.23810E-09         0.00000E+00
    0.11565E-05        -0.23380E-09         0.00000E+00
    0.11565E-05        -0.22268E-09         0.00000E+00
    0.11566E-05        -0.20532E-09         0.00000E+00
    0.11566E-05        -0.18196E-09         0.00000E+00
    0.11567E-05        -0.15253E-09         0.00000E+00
    0.11567E-05        -0.11681E-09         0.00000E+00
    0.11568E-05        -0.74626E-10         0.00000E+00
    0.11568E-05        -0.26071E-10         0.00000E+00
    0.11559E-05        -0.41739E-10         0.00000E+00
    0.11560E-05        -0.11390E-09         0.00000E+00
    0.11561E-05        -0.16658E-09         0.00000E+00
    0.11562E-05        -0.20229E-09         0.00000E+00
    0.11562E-05        -0.22404E-09         0.00000E+00
    0.11563E-05        -0.23464E-09         0.00000E+00
    0.11564E-05        -0.23644E-09         0.00000E+00
    0.11565E-05        -0.23110E-09         0.00000E+00
    0.11565E-05        -0.21970E-09         0.00000E+00
    0.11566E-05        -0.20279E-09         0.00000E+00
    0.11566E-05        -0.18040E-09         0.00000E+00
    0.11567E-05        -0.15220E-09         0.00000E+00
    0.11567E-05        -0.11758E-09         0.00000E+00
    0.11568E-05        -0.75883E-10         0.00000E+00
    0.11568E-05        -0.26760E-10         0.00000E+00
    0.11558E-05        -0.43861E-10         0.00000E+00
    0.11559E-05        -0.11793E-09         0.00000E+00
    0.11560E-05        -0.16929E-09         0.00000E+00
    0.11561E-05        -0.20197E-09         0.00000E+00
    0.11562E-05        -0.22030E-09         0.00000E+00
    0.11563E-05        -0.22800E-09         0.00000E+00
    0.11564E-05        -0.22780E-09         0.00000E+00
    0.11565E-05        -0.22153E-09         0.00000E+00
    0.11565E-05        -0.21025E-09         0.00000E+00
    0.11566E-05        -0.19441E-09         0.00000E+00
    0.11566E-05        -0.17390E-09         0.00000E+00
    0.11567E-05        -0.14807E-09         0.00000E+00
    0.11567E-05        -0.11582E-09         0.00000E+00
    0.11568E-05        -0.75837E-10         0.00000E+00
    0.11568E-05        -0.27096E-10         0.00000E+00
    0.11558E-05        -0.45321E-10         0.00000E+00
    0.11559E-05        -0.11942E-09         0.00000E+00
    0.11560E-05        -0.16709E-09         0.00000E+00
    0.11561E-05        -0.19473E-09         0.00000E+00
    0.11562E-05        -0.20840E-09         0.00000E+00
    0.11563E-05        -0.21267E-09         0.00000E+00
    0.11564E-05        -0.21048E-09         0.00000E+00
    0.11565E-05        -0.20358E-09         0.00000E+00
    0.11565E-05        -0.19294E-09         0.00000E+00
    0.11566E-05        -0.17888E-09         0.00000E+00
    0.11566E-05        -0.16120E-09         0.00000E+00
    0.11567E-05        -0.13901E-09         0.00000E+00
    0.11567E-05        -0.11068E-09         0.00000E+00
    0.11568E-05        -0.74039E-10         0.00000E+00
    0.11568E-05        -0.26958E-10         0.00000E+00
    0.11558E-05        -0.45658E-10         0.00000E+00
    0.11559E-05        -0.11676E-09         0.00000E+00
    0.11561E-05        -0.15738E-09         0.00000E+00
    0.11562E-05        -0.17770E-09         0.00000E+00
    0.11563E-05        -0.18584E-09         0.00000E+00
    0.11564E-05        -0.18670E-09         0.00000E+00
    0.11564E-05        -0.18293E-09         0.00000E+00
    0.11565E-05        -0.17597E-09         0.00000E+00
    0.11566E-05        -0.16657E-09         0.00000E+00
    0.11566E-05        -0.15496E-09         0.00000E+00
    0.11567E-05        -0.14092E-09         0.00000E+00
    0.11567E-05        -0.12359E-09         0.00000E+00
    0.11568E-05        -0.10098E-09         0.00000E+00
    0.11568E-05        -0.69791E-10         0.00000E+00
    0.11569E-05        -0.26174E-10         0.00000E+00
    0.11558E-05        -0.43931E-10         0.00000E+00
    0.11560E-05        -0.10693E-09         0.00000E+00
    0.11561E-05        -0.13593E-09         0.00000E+00
    0.11562E-05        -0.14726E-09         0.00000E+00
    0.11563E-05        -0.15018E-09         0.00000E+00
    0.11564E-05        -0.14851E-09         0.00000E+00
    0.11565E-05        -0.14411E-09         0.00000E+00
    0.11565E-05        -0.13792E-09         0.00000E+00
    0.11566E-05        -0.13041E-09         0.00000E+00
    0.11566E-05        -0.12176E-09         0.00000E+00
    0.11567E-05        -0.11182E-09         0.00000E+00
    0.11567E-05        -0.10001E-09         0.00000E+00
    0.11568E-05        -0.84830E-10         0.00000E+00
    0.11569E-05        -0.61875E-10         0.00000E+00
    0.11569E-05        -0.24327E-10         0.00000E+00
    0.11558E-05        -0.37600E-10         0.00000E+00
    0.11560E-05        -0.83110E-10         0.00000E+00
    0.11562E-05        -0.96495E-10         0.00000E+00
    0.11563E-05        -0.10026E-09         0.00000E+00
    0.11564E-05        -0.99921E-10         0.00000E+00
    0.11565E-05        -0.97463E-10         0.00000E+00
    0.11565E-05        -0.93799E-10         0.00000E+00
    0.11566E-05        -0.89383E-10         0.00000E+00
    0.11566E-05        -0.84450E-10         0.00000E+00
    0.11567E-05        -0.79089E-10         0.00000E+00
    0.11567E-05        -0.73267E-10         0.00000E+00
    0.11568E-05        -0.66757E-10         0.00000E+00
    0.11568E-05        -0.58930E-10         0.00000E+00
    0.11569E-05        -0.47495E-10         0.00000E+00
    0.11570E-05        -0.21069E-10         0.00000E+00
    0.11559E-05        -0.16403E-10         0.00000E+00
    0.11561E-05        -0.33249E-10         0.00000E+00
    0.11563E-05        -0.35692E-10         0.00000E+00
    0.11564E-05        -0.36161E-10         0.00000E+00
    0.11565E-05        -0.35523E-10         0.00000E+00
    0.11565E-05        -0.34363E-10         0.00000E+00
    0.11566E-05        -0.32906E-10         0.00000E+00
    0.11566E-05        -0.31275E-10         0.00000E+00
    0.11567E-05        -0.29532E-10         0.00000E+00
    0.11567E-05        -0.27708E-10         0.00000E+00
    0.11568E-05        -0.25802E-10         0.00000E+00
    0.11568E-05        -0.23791E-10         0.00000E+00
    0.11569E-05        -0.21501E-10         0.00000E+00
    0.11569E-05        -0.19092E-10         0.00000E+00
    0.11570E-05        -0.95391E-11         0.00000E+00
POINT_DATA        496
VECTORS vDarcyNodal double 
    0.11600E-05         0.13684E-09         0.00000E+00
    0.11599E-05         0.26356E-09         0.00000E+00
    0.11599E-05         0.48253E-09         0.00000E+00
    0.11599E-05         0.62710E-09         0.00000E+00
    0.11599E-05         0.70398E-09         0.00000E+00
    0.11599E-05         0.73158E-09         0.00000E+00
    0.11598E-05         0.71219E-09         0.00000E+00
    0.11599E-05         0.65749E-09         0.00000E+00
    0.11599E-05         0.59533E-09         0.00000E+00
    0.11599E-05         0.53987E-09         0.00000E+00
    0.11599E-05         0.48742E-09         0.00000E+00
    0.11599E-05         0.43102E-09         0.00000E+00
    0.11599E-05         0.36766E-09         0.00000E+00
    0.11598E-05         0.29359E-09         0.00000E+00
    0.11598E-05         0.17924E-09         0.00000E+00
    0.11598E-05         0.10507E-09         0.00000E+00
    0.11599E-05         0.10239E-09         0.00000E+00
    0.11599E-05         0.17048E-09         0.00000E+00
    0.11598E-05         0.26747E-09         0.00000E+00
    0.11598E-05         0.31906E-09         0.00000E+00
    0.11597E-05         0.36207E-09         0.00000E+00
    0.11597E-05         0.39284E-09         0.00000E+00
    0.11597E-05         0.41209E-09         0.00000E+00
    0.11597E-05         0.43055E-09         0.00000E+00
    0.11597E-05         0.43436E-09         0.00000E+00
    0.11597E-05         0.41293E-09         0.00000E+00
    0.11597E-05         0.37666E-09         0.00000E+00
    0.11597E-05         0.32996E-09         0.00000E+00
    0.11597E-05         0.27170E-09         0.00000E+00
    0.11597E-05         0.19603E-09         0.00000E+00
    0.11597E-05         0.10186E-09         0.00000E+00
    0.11596E-05         0.51068E-10         0.00000E+00
    0.11598E-05         0.40084E-10         0.00000E+00
    0.11597E-05         0.70171E-10         0.00000E+00
    0.11596E-05         0.11613E-09         0.00000E+00
    0.11595E-05         0.14348E-09         0.00000E+00
    0.11595E-05         0.17257E-09         0.00000E+00
    0.11595E-05         0.21207E-09         0.00000E+00
    0.11595E-05         0.25501E-09         0.00000E+00
    0.11594E-05         0.28765E-09         0.00000E+00
    0.11594E-05         0.30071E-09         0.00000E+00
    0.11594E-05         0.29526E-09         0.00000E+00
    0.11594E-05         0.27387E-09         0.00000E+00
    0.11594E-05         0.23872E-09         0.00000E+00
    0.11594E-05         0.19084E-09         0.00000E+00
    0.11594E-05         0.13141E-09         0.00000E+00
    0.11594E-05         0.65977E-10         0.00000E+00
    0.11593E-05         0.32813E-10         0.00000E+00
    0.11595E-05        -0.11539E-10         0.00000E+00
    0.11594E-05        -0.66391E-11         0.00000E+00
    0.11593E-05         0.23255E-10         0.00000E+00
    0.11593E-05         0.72165E-10         0.00000E+00
    0.11593E-05         0.11497E-09         0.00000E+00
    0.11593E-05         0.14535E-09         0.00000E+00
    0.11592E-05         0.16804E-09         0.00000E+00
    0.11592E-05         0.18778E-09         0.00000E+00
    0.11592E-05         0.19955E-09         0.00000E+00
    0.11592E-05         0.19955E-09         0.00000E+00
    0.11592E-05         0.18698E-09         0.00000E+00
    0.11592E-05         0.16269E-09         0.00000E+00
    0.11592E-05         0.12826E-09         0.00000E+00
    0.11591E-05         0.86697E-10         0.00000E+00
    0.11591E-05         0.42892E-10         0.00000E+00
    0.11591E-05         0.21171E-10         0.00000E+00
    0.11593E-05        -0.58821E-11         0.00000E+00
    0.11592E-05        -0.59181E-12         0.00000E+00
    0.11591E-05         0.19908E-10         0.00000E+00
    0.11591E-05         0.46860E-10         0.00000E+00
    0.11591E-05         0.69882E-10         0.00000E+00
    0.11590E-05         0.89424E-10         0.00000E+00
    0.11590E-05         0.10444E-09         0.00000E+00
    0.11590E-05         0.11644E-09         0.00000E+00
    0.11590E-05         0.12415E-09         0.00000E+00
    0.11590E-05         0.12520E-09         0.00000E+00
    0.11589E-05         0.11806E-09         0.00000E+00
    0.11589E-05         0.10270E-09         0.00000E+00
    0.11589E-05         0.80451E-10         0.00000E+00
    0.11589E-05         0.53890E-10         0.00000E+00
    0.11588E-05         0.26544E-10         0.00000E+00
    0.11588E-05         0.13160E-10         0.00000E+00
    0.11590E-05        -0.13501E-11         0.00000E+00
    0.11590E-05         0.45164E-12         0.00000E+00
    0.11589E-05         0.82389E-11         0.00000E+00
    0.11589E-05         0.21276E-10         0.00000E+00
    0.11589E-05         0.34364E-10         0.00000E+00
    0.11588E-05         0.45489E-10         0.00000E+00
    0.11588E-05         0.54727E-10         0.00000E+00
    0.11588E-05         0.62116E-10         0.00000E+00
    0.11588E-05         0.67086E-10         0.00000E+00
    0.11587E-05         0.68359E-10         0.00000E+00
    0.11587E-05         0.64898E-10         0.00000E+00
    0.11587E-05         0.56506E-10         0.00000E+00
    0.11587E-05         0.44033E-10         0.00000E+00
    0.11586E-05         0.29235E-10         0.00000E+00
    0.11586E-05         0.14355E-10         0.00000E+00
    0.11586E-05         0.71901E-11         0.00000E+00
    0.11588E-05        -0.30650E-11         0.00000E+00
    0.11588E-05        -0.43297E-11         0.00000E+00
    0.11587E-05        -0.42292E-11         0.00000E+00
    0.11587E-05        -0.33496E-12         0.00000E+00
    0.11586E-05         0.49894E-11         0.00000E+00
    0.11586E-05         0.10362E-10         0.00000E+00
    0.11586E-05         0.15282E-10         0.00000E+00
    0.11586E-05         0.19624E-10         0.00000E+00
    0.11585E-05         0.22987E-10         0.00000E+00
    0.11585E-05         0.24691E-10         0.00000E+00
    0.11585E-05         0.24126E-10         0.00000E+00
    0.11585E-05         0.21145E-10         0.00000E+00
    0.11585E-05         0.16236E-10         0.00000E+00
    0.11584E-05         0.10439E-10         0.00000E+00
    0.11584E-05         0.50448E-11         0.00000E+00
    0.11584E-05         0.26124E-11         0.00000E+00
    0.11586E-05        -0.53054E-11         0.00000E+00
    0.11585E-05        -0.95234E-11         0.00000E+00
    0.11585E-05        -0.15786E-10         0.00000E+00
    0.11585E-05        -0.18459E-10         0.00000E+00
    0.11584E-05        -0.18914E-10         0.00000E+00
    0.11584E-05        -0.18075E-10         0.00000E+00
    0.11584E-05        -0.16407E-10         0.00000E+00
    0.11584E-05        -0.14177E-10         0.00000E+00
    0.11583E-05        -0.11678E-10         0.00000E+00
    0.11583E-05        -0.93063E-11         0.00000E+00
    0.11583E-05        -0.74172E-11         0.00000E+00
    0.11583E-05        -0.61244E-11         0.00000E+00
    0.11582E-05        -0.51946E-11         0.00000E+00
    0.11582E-05        -0.40978E-11         0.00000E+00
    0.11582E-05        -0.22025E-11         0.00000E+00
    0.11582E-05        -0.97806E-12         0.00000E+00
    0.11583E-05        -0.75666E-11         0.00000E+00
    0.11583E-05        -0.14297E-10         0.00000E+00
    0.11583E-05        -0.25734E-10         0.00000E+00
    0.11582E-05        -0.33556E-10         0.00000E+00
    0.11582E-05        -0.38549E-10         0.00000E+00
    0.11582E-05        -0.41307E-10         0.00000E+00
    0.11582E-05        -0.42207E-10         0.00000E+00
    0.11582E-05        -0.41502E-10         0.00000E+00
    0.11581E-05        -0.39436E-10         0.00000E+00
    0.11581E-05        -0.36279E-10         0.00000E+00
    0.11581E-05        -0.32270E-10         0.00000E+00
    0.11581E-05        -0.27534E-10         0.00000E+00
    0.11581E-05        -0.22027E-10         0.00000E+00
    0.11580E-05        -0.15569E-10         0.00000E+00
    0.11580E-05        -0.79668E-11         0.00000E+00
    0.11580E-05        -0.38589E-11         0.00000E+00
    0.11581E-05        -0.95548E-11         0.00000E+00
    0.11581E-05        -0.18428E-10         0.00000E+00
    0.11581E-05        -0.34201E-10         0.00000E+00
    0.11580E-05        -0.46235E-10         0.00000E+00
    0.11580E-05        -0.54931E-10         0.00000E+00
    0.11580E-05        -0.60633E-10         0.00000E+00
    0.11580E-05        -0.63601E-10         0.00000E+00
    0.11580E-05        -0.64048E-10         0.00000E+00
    0.11579E-05        -0.62179E-10         0.00000E+00
    0.11579E-05        -0.58214E-10         0.00000E+00
    0.11579E-05        -0.52363E-10         0.00000E+00
    0.11579E-05        -0.44794E-10         0.00000E+00
    0.11579E-05        -0.35609E-10         0.00000E+00
    0.11579E-05        -0.24873E-10         0.00000E+00
    0.11578E-05        -0.12680E-10         0.00000E+00
    0.11578E-05        -0.62357E-11         0.00000E+00
    0.11579E-05        -0.11317E-10         0.00000E+00
    0.11579E-05        -0.22045E-10         0.00000E+00
    0.11579E-05        -0.41542E-10         0.00000E+00
    0.11578E-05        -0.57150E-10         0.00000E+00
    0.11578E-05        -0.68969E-10         0.00000E+00
    0.11578E-05        -0.77141E-10         0.00000E+00
    0.11578E-05        -0.81818E-10         0.00000E+00
    0.11578E-05        -0.83162E-10         0.00000E+00
    0.11578E-05        -0.81356E-10         0.00000E+00
    0.11578E-05        -0.76608E-10         0.00000E+00
    0.11577E-05        -0.69141E-10         0.00000E+00
    0.11577E-05        -0.59181E-10         0.00000E+00
    0.11577E-05        -0.46949E-10         0.00000E+00
    0.11577E-05        -0.32681E-10         0.00000E+00
    0.11577E-05        -0.16666E-10         0.00000E+00
    0.11577E-05        -0.82625E-11         0.00000E+00
    0.11577E-05        -0.12944E-10         0.00000E+00
    0.11577E-05        -0.25346E-10         0.00000E+00
    0.11577E-05        -0.48168E-10         0.00000E+00
    0.11576E-05        -0.66916E-10         0.00000E+00
    0.11576E-05        -0.81448E-10         0.00000E+00
    0.11576E-05        -0.91742E-10         0.00000E+00
    0.11576E-05        -0.97859E-10         0.00000E+00
    0.11576E-05        -0.99917E-10         0.00000E+00
    0.11576E-05        -0.98088E-10         0.00000E+00
    0.11576E-05        -0.92590E-10         0.00000E+00
    0.11576E-05        -0.83676E-10         0.00000E+00
    0.11576E-05        -0.71634E-10         0.00000E+00
    0.11576E-05        -0.56784E-10         0.00000E+00
    0.11576E-05        -0.39486E-10         0.00000E+00
    0.11575E-05        -0.20164E-10         0.00000E+00
    0.11575E-05        -0.10054E-10         0.00000E+00
    0.11575E-05        -0.14537E-10         0.00000E+00
    0.11575E-05        -0.28527E-10         0.00000E+00
    0.11575E-05        -0.54457E-10         0.00000E+00
    0.11575E-05        -0.76066E-10         0.00000E+00
    0.11574E-05        -0.93023E-10         0.00000E+00
    0.11574E-05        -0.10518E-09         0.00000E+00
    0.11574E-05        -0.11253E-09         0.00000E+00
    0.11574E-05        -0.11515E-09         0.00000E+00
    0.11574E-05        -0.11323E-09         0.00000E+00
    0.11574E-05        -0.10700E-09         0.00000E+00
    0.11574E-05        -0.96755E-10         0.00000E+00
    0.11574E-05        -0.82839E-10         0.00000E+00
    0.11574E-05        -0.65652E-10         0.00000E+00
    0.11574E-05        -0.45648E-10         0.00000E+00
    0.11574E-05        -0.23348E-10         0.00000E+00
    0.11574E-05        -0.11694E-10         0.00000E+00
    0.11573E-05        -0.16180E-10         0.00000E+00
    0.11573E-05        -0.31755E-10         0.00000E+00
    0.11573E-05        -0.60724E-10         0.00000E+00
    0.11573E-05        -0.85034E-10         0.00000E+00
    0.11573E-05        -0.10421E-09         0.00000E+00
    0.11573E-05        -0.11803E-09         0.00000E+00
    0.11573E-05        -0.12644E-09         0.00000E+00
    0.11573E-05        -0.12951E-09         0.00000E+00
    0.11573E-05        -0.12742E-09         0.00000E+00
    0.11573E-05        -0.12046E-09         0.00000E+00
    0.11573E-05        -0.10894E-09         0.00000E+00
    0.11573E-05        -0.93279E-10         0.00000E+00
    0.11573E-05        -0.73930E-10         0.00000E+00
    0.11573E-05        -0.51421E-10         0.00000E+00
    0.11573E-05        -0.26345E-10         0.00000E+00
    0.11573E-05        -0.13245E-10         0.00000E+00
    0.11571E-05        -0.17941E-10         0.00000E+00
    0.11571E-05        -0.35158E-10         0.00000E+00
    0.11571E-05        -0.67211E-10         0.00000E+00
    0.11571E-05        -0.94144E-10         0.00000E+00
    0.11571E-05        -0.11541E-09         0.00000E+00
    0.11571E-05        -0.13073E-09         0.00000E+00
    0.11571E-05        -0.14004E-09         0.00000E+00
    0.11571E-05        -0.14343E-09         0.00000E+00
    0.11571E-05        -0.14111E-09         0.00000E+00
    0.11572E-05        -0.13338E-09         0.00000E+00
    0.11572E-05        -0.12062E-09         0.00000E+00
    0.11572E-05        -0.10328E-09         0.00000E+00
    0.11572E-05        -0.81875E-10         0.00000E+00
    0.11572E-05        -0.56977E-10         0.00000E+00
    0.11572E-05        -0.29240E-10         0.00000E+00
    0.11572E-05        -0.14747E-10         0.00000E+00
    0.11569E-05        -0.19865E-10         0.00000E+00
    0.11569E-05        -0.38827E-10         0.00000E+00
    0.11569E-05        -0.74080E-10         0.00000E+00
    0.11569E-05        -0.10362E-09         0.00000E+00
    0.11570E-05        -0.12686E-09         0.00000E+00
    0.11570E-05        -0.14354E-09         0.00000E+00
    0.11570E-05        -0.15360E-09         0.00000E+00
    0.11570E-05        -0.15719E-09         0.00000E+00
    0.11570E-05        -0.15454E-09         0.00000E+00
    0.11570E-05        -0.14601E-09         0.00000E+00
    0.11571E-05        -0.13202E-09         0.00000E+00
    0.11571E-05        -0.11304E-09         0.00000E+00
    0.11571E-05        -0.89639E-10         0.00000E+00
    0.11571E-05        -0.62423E-10         0.00000E+00
    0.11571E-05        -0.32085E-10         0.00000E+00
    0.11571E-05        -0.16227E-10         0.00000E+00
    0.11567E-05        -0.21979E-10         0.00000E+00
    0.11568E-05        -0.42811E-10         0.00000E+00
    0.11568E-05        -0.81423E-10         0.00000E+00
    0.11568E-05        -0.11356E-09         0.00000E+00
    0.11568E-05        -0.13869E-09         0.00000E+00
    0.11568E-05        -0.15658E-09         0.00000E+00
    0.11569E-05        -0.16725E-09         0.00000E+00
    0.11569E-05        -0.17089E-09         0.00000E+00
    0.11569E-05        -0.16783E-09         0.00000E+00
    0.11569E-05        -0.15845E-09         0.00000E+00
    0.11570E-05        -0.14321E-09         0.00000E+00
    0.11570E-05        -0.12263E-09         0.00000E+00
    0.11570E-05        -0.97286E-10         0.00000E+00
    0.11570E-05        -0.67805E-10         0.00000E+00
    0.11570E-05        -0.34907E-10         0.00000E+00
    0.11570E-05        -0.17698E-10         0.00000E+00
    0.11566E-05        -0.24292E-10         0.00000E+00
    0.11566E-05        -0.47125E-10         0.00000E+00
    0.11566E-05        -0.89256E-10         0.00000E+00
    0.11567E-05        -0.12400E-09         0.00000E+00
    0.11567E-05        -0.15089E-09         0.00000E+00
    0.11567E-05        -0.16982E-09         0.00000E+00
    0.11567E-05        -0.18092E-09         0.00000E+00
    0.11568E-05        -0.18448E-09         0.00000E+00
    0.11568E-05        -0.18090E-09         0.00000E+00
    0.11568E-05        -0.17062E-09         0.00000E+00
    0.11569E-05        -0.15415E-09         0.00000E+00
    0.11569E-05        -0.13202E-09         0.00000E+00
    0.11569E-05        -0.10480E-09         0.00000E+00
    0.11569E-05        -0.73117E-10         0.00000E+00
    0.11569E-05        -0.37704E-10         0.00000E+00
    0.11569E-05        -0.19162E-10         0.00000E+00
    0.11564E-05        -0.26795E-10         0.00000E+00
    0.11565E-05        -0.51746E-10         0.00000E+00
    0.11565E-05        -0.97524E-10         0.00000E+00
    0.11565E-05        -0.13481E-09         0.00000E+00
    0.11566E-05        -0.16331E-09         0.00000E+00
    0.11566E-05        -0.18308E-09         0.00000E+00
    0.11566E-05        -0.19441E-09         0.00000E+00
    0.11567E-05        -0.19772E-09         0.00000E+00
    0.11567E-05        -0.19351E-09         0.00000E+00
    0.11568E-05        -0.18232E-09         0.00000E+00
    0.11568E-05        -0.16466E-09         0.00000E+00
    0.11568E-05        -0.14106E-09         0.00000E+00
    0.11568E-05        -0.11207E-09         0.00000E+00
    0.11569E-05        -0.78300E-10         0.00000E+00
    0.11569E-05        -0.40455E-10         0.00000E+00
    0.11569E-05        -0.20608E-10         0.00000E+00
    0.11563E-05        -0.29461E-10         0.00000E+00
    0.11563E-05        -0.56614E-10         0.00000E+00
    0.11564E-05        -0.10610E-09         0.00000E+00
    0.11564E-05        -0.14580E-09         0.00000E+00
    0.11565E-05        -0.17567E-09         0.00000E+00
    0.11565E-05        -0.19600E-09         0.00000E+00
    0.11566E-05        -0.20729E-09         0.00000E+00
    0.11566E-05        -0.21017E-09         0.00000E+00
    0.11566E-05        -0.20526E-09         0.00000E+00
    0.11567E-05        -0.19315E-09         0.00000E+00
    0.11567E-05        -0.17440E-09         0.00000E+00
    0.11568E-05        -0.14949E-09         0.00000E+00
    0.11568E-05        -0.11893E-09         0.00000E+00
    0.11568E-05        -0.83248E-10         0.00000E+00
    0.11568E-05        -0.43110E-10         0.00000E+00
    0.11568E-05        -0.22016E-10         0.00000E+00
    0.11562E-05        -0.32245E-10         0.00000E+00
    0.11562E-05        -0.61634E-10         0.00000E+00
    0.11563E-05        -0.11477E-09         0.00000E+00
    0.11563E-05        -0.15664E-09         0.00000E+00
    0.11564E-05        -0.18751E-09         0.00000E+00
    0.11564E-05        -0.20802E-09         0.00000E+00
    0.11565E-05        -0.21898E-09         0.00000E+00
    0.11565E-05        -0.22121E-09         0.00000E+00
    0.11566E-05        -0.21552E-09         0.00000E+00
    0.11566E-05        -0.20257E-09         0.00000E+00
    0.11567E-05        -0.18290E-09         0.00000E+00
    0.11567E-05        -0.15694E-09         0.00000E+00
    0.11567E-05        -0.12510E-09         0.00000E+00
    0.11568E-05        -0.87800E-10         0.00000E+00
    0.11568E-05        -0.45601E-10         0.00000E+00
    0.11568E-05        -0.23356E-10         0.00000E+00
    0.11561E-05        -0.35082E-10         0.00000E+00
    0.11561E-05        -0.66668E-10         0.00000E+00
    0.11562E-05        -0.12324E-09         0.00000E+00
    0.11562E-05        -0.16684E-09         0.00000E+00
    0.11563E-05        -0.19821E-09         0.00000E+00
    0.11564E-05        -0.21842E-09         0.00000E+00
    0.11564E-05        -0.22864E-09         0.00000E+00
    0.11565E-05        -0.23002E-09         0.00000E+00
    0.11565E-05        -0.22350E-09         0.00000E+00
    0.11566E-05        -0.20983E-09         0.00000E+00
    0.11566E-05        -0.18952E-09         0.00000E+00
    0.11567E-05        -0.16291E-09         0.00000E+00
    0.11567E-05        -0.13023E-09         0.00000E+00
    0.11568E-05        -0.91741E-10         0.00000E+00
    0.11568E-05        -0.47832E-10         0.00000E+00
    0.11568E-05        -0.24585E-10         0.00000E+00
    0.11560E-05        -0.37888E-10         0.00000E+00
    0.11560E-05        -0.71530E-10         0.00000E+00
    0.11561E-05        -0.13110E-09         0.00000E+00
    0.11562E-05        -0.17579E-09         0.00000E+00
    0.11562E-05        -0.20694E-09         0.00000E+00
    0.11563E-05        -0.22620E-09         0.00000E+00
    0.11564E-05        -0.23523E-09         0.00000E+00
    0.11565E-05        -0.23551E-09         0.00000E+00
    0.11565E-05        -0.22817E-09         0.00000E+00
    0.11566E-05        -0.21401E-09         0.00000E+00
    0.11566E-05        -0.19348E-09         0.00000E+00
    0.11567E-05        -0.16676E-09         0.00000E+00
    0.11567E-05        -0.13387E-09         0.00000E+00
    0.11567E-05        -0.94800E-10         0.00000E+00
    0.11568E-05        -0.49685E-10         0.00000E+00
    0.11568E-05        -0.25651E-10         0.00000E+00
    0.11559E-05        -0.40552E-10         0.00000E+00
    0.11560E-05        -0.75975E-10         0.00000E+00
    0.11560E-05        -0.13782E-09         0.00000E+00
    0.11561E-05        -0.18263E-09         0.00000E+00
    0.11562E-05        -0.21259E-09         0.00000E+00
    0.11563E-05        -0.23010E-09         0.00000E+00
    0.11564E-05        -0.23743E-09         0.00000E+00
    0.11564E-05        -0.23639E-09         0.00000E+00
    0.11565E-05        -0.22830E-09         0.00000E+00
    0.11565E-05        -0.21399E-09         0.00000E+00
    0.11566E-05        -0.19381E-09         0.00000E+00
    0.11567E-05        -0.16773E-09         0.00000E+00
    0.11567E-05        -0.13546E-09         0.00000E+00
    0.11567E-05        -0.96635E-10         0.00000E+00
    0.11568E-05        -0.51012E-10         0.00000E+00
    0.11568E-05        -0.26491E-10         0.00000E+00
    0.11558E-05        -0.42925E-10         0.00000E+00
    0.11559E-05        -0.79666E-10         0.00000E+00
    0.11560E-05        -0.14266E-09         0.00000E+00
    0.11561E-05        -0.18623E-09         0.00000E+00
    0.11562E-05        -0.21374E-09         0.00000E+00
    0.11563E-05        -0.22858E-09         0.00000E+00
    0.11564E-05        -0.23366E-09         0.00000E+00
    0.11564E-05        -0.23115E-09         0.00000E+00
    0.11565E-05        -0.22250E-09         0.00000E+00
    0.11565E-05        -0.20850E-09         0.00000E+00
    0.11566E-05        -0.18938E-09         0.00000E+00
    0.11567E-05        -0.16487E-09         0.00000E+00
    0.11567E-05        -0.13432E-09         0.00000E+00
    0.11567E-05        -0.96826E-10         0.00000E+00
    0.11568E-05        -0.51630E-10         0.00000E+00
    0.11568E-05        -0.27028E-10         0.00000E+00
    0.11558E-05        -0.44797E-10         0.00000E+00
    0.11559E-05        -0.82127E-10         0.00000E+00
    0.11560E-05        -0.14456E-09         0.00000E+00
    0.11561E-05        -0.18503E-09         0.00000E+00
    0.11562E-05        -0.20854E-09         0.00000E+00
    0.11563E-05        -0.21972E-09         0.00000E+00
    0.11564E-05        -0.22214E-09         0.00000E+00
    0.11564E-05        -0.21818E-09         0.00000E+00
    0.11565E-05        -0.20928E-09         0.00000E+00
    0.11566E-05        -0.19617E-09         0.00000E+00
    0.11566E-05        -0.17894E-09         0.00000E+00
    0.11567E-05        -0.15710E-09         0.00000E+00
    0.11567E-05        -0.12957E-09         0.00000E+00
    0.11568E-05        -0.94829E-10         0.00000E+00
    0.11568E-05        -0.51303E-10         0.00000E+00
    0.11568E-05        -0.27163E-10         0.00000E+00
    0.11558E-05        -0.45844E-10         0.00000E+00
    0.11558E-05        -0.82613E-10         0.00000E+00
    0.11560E-05        -0.14195E-09         0.00000E+00
    0.11561E-05        -0.17679E-09         0.00000E+00
    0.11562E-05        -0.19459E-09         0.00000E+00
    0.11563E-05        -0.20135E-09         0.00000E+00
    0.11564E-05        -0.20101E-09         0.00000E+00
    0.11565E-05        -0.19588E-09         0.00000E+00
    0.11565E-05        -0.18724E-09         0.00000E+00
    0.11566E-05        -0.17565E-09         0.00000E+00
    0.11566E-05        -0.16115E-09         0.00000E+00
    0.11567E-05        -0.14311E-09         0.00000E+00
    0.11567E-05        -0.12012E-09         0.00000E+00
    0.11568E-05        -0.89895E-10         0.00000E+00
    0.11568E-05        -0.49695E-10         0.00000E+00
    0.11569E-05        -0.26754E-10         0.00000E+00
    0.11558E-05        -0.45471E-10         0.00000E+00
    0.11559E-05        -0.79808E-10         0.00000E+00
    0.11560E-05        -0.13220E-09         0.00000E+00
    0.11561E-05        -0.15829E-09         0.00000E+00
    0.11563E-05        -0.16895E-09         0.00000E+00
    0.11563E-05        -0.17119E-09         0.00000E+00
    0.11564E-05        -0.16862E-09         0.00000E+00
    0.11565E-05        -0.16302E-09         0.00000E+00
    0.11565E-05        -0.15530E-09         0.00000E+00
    0.11566E-05        -0.14587E-09         0.00000E+00
    0.11567E-05        -0.13473E-09         0.00000E+00
    0.11567E-05        -0.12140E-09         0.00000E+00
    0.11568E-05        -0.10445E-09         0.00000E+00
    0.11568E-05        -0.80875E-10         0.00000E+00
    0.11569E-05        -0.46271E-10         0.00000E+00
    0.11569E-05        -0.25595E-10         0.00000E+00
    0.11558E-05        -0.42392E-10         0.00000E+00
    0.11559E-05        -0.71056E-10         0.00000E+00
    0.11561E-05        -0.11066E-09         0.00000E+00
    0.11562E-05        -0.12490E-09         0.00000E+00
    0.11563E-05        -0.12849E-09         0.00000E+00
    0.11564E-05        -0.12750E-09         0.00000E+00
    0.11565E-05        -0.12399E-09         0.00000E+00
    0.11565E-05        -0.11900E-09         0.00000E+00
    0.11566E-05        -0.11303E-09         0.00000E+00
    0.11566E-05        -0.10630E-09         0.00000E+00
    0.11567E-05        -0.98846E-10         0.00000E+00
    0.11567E-05        -0.90430E-10         0.00000E+00
    0.11568E-05        -0.80394E-10         0.00000E+00
    0.11568E-05        -0.65830E-10         0.00000E+00
    0.11569E-05        -0.39932E-10         0.00000E+00
    0.11570E-05        -0.23060E-10         0.00000E+00
    0.11559E-05        -0.32811E-10         0.00000E+00
    0.11560E-05        -0.49657E-10         0.00000E+00
    0.11562E-05        -0.68946E-10         0.00000E+00
    0.11563E-05        -0.71858E-10         0.00000E+00
    0.11564E-05        -0.71689E-10         0.00000E+00
    0.11565E-05        -0.69891E-10         0.00000E+00
    0.11565E-05        -0.67274E-10         0.00000E+00
    0.11566E-05        -0.64185E-10         0.00000E+00
    0.11566E-05        -0.60811E-10         0.00000E+00
    0.11567E-05        -0.57244E-10         0.00000E+00
    0.11567E-05        -0.53514E-10         0.00000E+00
    0.11568E-05        -0.49597E-10         0.00000E+00
    0.11568E-05        -0.45295E-10         0.00000E+00
    0.11569E-05        -0.40595E-10         0.00000E+00
    0.11569E-05        -0.28633E-10         0.00000E+00
    0.11570E-05        -0.19079E-10         0.00000E+00
    0.11559E-05         0.00000E+00         0.00000E+00
    0.11560E-05         0.00000E+00         0.00000E+00
    0.11562E-05        -0.29796E-20         0.00000E+00
    0.11563E-05        -0.33059E-21         0.00000E+00
    0.11564E-05         0.33112E-20         0.00000E+00
    0.11565E-05         0.00000E+00         0.00000E+00
    0.11566E-05         0.00000E+00         0.00000E+00
    0.11566E-05        -0.29814E-20         0.00000E+00
    0.11567E-05        -0.33127E-20         0.00000E+00
    0.11567E-05         0.29820E-20         0.00000E+00
    0.11567E-05         0.33133E-20         0.00000E+00
    0.11568E-05        -0.33138E-20         0.00000E+00
    0.11568E-05        -0.33117E-21         0.00000E+00
    0.11569E-05         0.29827E-20         0.00000E+00
    0.11570E-05         0.33144E-21         0.00000E+00
    0.11570E-05         0.00000E+00         0.00000E+00
CELL_DATA        450
TENSORS stressef double 
    0.19483E+08         0.16669E+06         0.00000E+00
    0.16669E+06         0.10942E+08         0.00000E+00
    0.00000E+00         0.00000E+00         0.70698E+07
 
    0.19629E+08         0.16339E+06         0.00000E+00
    0.16339E+06         0.11349E+08         0.00000E+00
    0.00000E+00         0.00000E+00         0.73084E+07
 
    0.19412E+08         0.80140E+04         0.00000E+00
    0.80140E+04         0.11405E+08         0.00000E+00
    0.00000E+00         0.00000E+00         0.69263E+07
 
    0.18749E+08        -0.19659E+06         0.00000E+00
   -0.19659E+06         0.11025E+08         0.00000E+00
    0.00000E+00         0.00000E+00         0.58237E+07
 
    0.17475E+08        -0.35488E+06         0.00000E+00
   -0.35488E+06         0.10352E+08         0.00000E+00
    0.00000E+00         0.00000E+00         0.38126E+07
 
    0.15865E+08        -0.34836E+06         0.00000E+00
   -0.34836E+06         0.95748E+07         0.00000E+00
    0.00000E+00         0.00000E+00         0.14304E+07
 
    0.14148E+08        -0.34852E+06         0.00000E+00
   -0.34852E+06         0.88963E+07         0.00000E+00
    0.00000E+00         0.00000E+00        -0.83970E+06
 
    0.11865E+08        -0.35971E+06         0.00000E+00
   -0.35971E+06         0.82270E+07         0.00000E+00
    0.00000E+00         0.00000E+00        -0.18477E+07
 
    0.99234E+07        -0.24194E+06         0.00000E+00
   -0.24194E+06         0.76721E+07         0.00000E+00
    0.00000E+00         0.00000E+00        -0.23488E+07
 
    0.81894E+07        -0.13349E+06         0.00000E+00
   -0.13349E+06         0.73196E+07         0.00000E+00
    0.00000E+00         0.00000E+00        -0.27669E+07
 
    0.64883E+07        -0.29172E+05         0.00000E+00
   -0.29172E+05         0.71700E+07         0.00000E+00
    0.00000E+00         0.00000E+00        -0.31370E+07
 
    0.47084E+07         0.80466E+05         0.00000E+00
    0.80466E+05         0.72292E+07         0.00000E+00
    0.00000E+00         0.00000E+00        -0.34800E+07
 
    0.27311E+07         0.20958E+06         0.00000E+00
    0.20958E+06         0.75240E+07         0.00000E+00
    0.00000E+00         0.00000E+00        -0.38146E+07
 
    0.37156E+06         0.38524E+06         0.00000E+00
    0.38524E+06         0.81216E+07         0.00000E+00
    0.00000E+00         0.00000E+00        -0.41641E+07
 
   -0.28831E+07         0.77913E+06         0.00000E+00
    0.77913E+06         0.92299E+07         0.00000E+00
    0.00000E+00         0.00000E+00        -0.45895E+07
 
    0.17761E+08         0.38330E+06         0.00000E+00
    0.38330E+06         0.80899E+07         0.00000E+00
    0.00000E+00         0.00000E+00         0.42476E+07
 
    0.17482E+08         0.33327E+06         0.00000E+00
    0.33327E+06         0.78814E+07         0.00000E+00
    0.00000E+00         0.00000E+00         0.37396E+07
 
    0.17119E+08        -0.84045E+04         0.00000E+00
   -0.84045E+04         0.77680E+07         0.00000E+00
    0.00000E+00         0.00000E+00         0.30485E+07
 
    0.16397E+08        -0.40313E+06         0.00000E+00
   -0.40313E+06         0.77605E+07         0.00000E+00
    0.00000E+00         0.00000E+00         0.18531E+07
 
    0.15276E+08        -0.70706E+06         0.00000E+00
   -0.70706E+06         0.77686E+07         0.00000E+00
    0.00000E+00         0.00000E+00         0.23642E+06
 
    0.13895E+08        -0.86714E+06         0.00000E+00
   -0.86714E+06         0.76702E+07         0.00000E+00
    0.00000E+00         0.00000E+00        -0.13007E+07
 
    0.11956E+08        -0.91736E+06         0.00000E+00
   -0.91736E+06         0.73008E+07         0.00000E+00
    0.00000E+00         0.00000E+00        -0.20122E+07
 
    0.99946E+07        -0.87038E+06         0.00000E+00
   -0.87038E+06         0.69271E+07         0.00000E+00
    0.00000E+00         0.00000E+00        -0.24819E+07
 
    0.80921E+07        -0.62393E+06         0.00000E+00
   -0.62393E+06         0.66117E+07         0.00000E+00
    0.00000E+00         0.00000E+00        -0.29273E+07
 
    0.63585E+07        -0.34312E+06         0.00000E+00
   -0.34312E+06         0.63975E+07         0.00000E+00
    0.00000E+00         0.00000E+00        -0.33177E+07
 
    0.46646E+07        -0.51849E+05         0.00000E+00
   -0.51849E+05         0.63318E+07         0.00000E+00
    0.00000E+00         0.00000E+00        -0.36695E+07
 
    0.29104E+07         0.26637E+06         0.00000E+00
    0.26637E+06         0.64460E+07         0.00000E+00
    0.00000E+00         0.00000E+00        -0.39964E+07
 
    0.99523E+06         0.64691E+06         0.00000E+00
    0.64691E+06         0.67779E+07         0.00000E+00
    0.00000E+00         0.00000E+00        -0.43111E+07
 
   -0.12160E+07         0.11734E+07         0.00000E+00
    0.11734E+07         0.73909E+07         0.00000E+00
    0.00000E+00         0.00000E+00        -0.46279E+07
 
   -0.37480E+07         0.21175E+07         0.00000E+00
    0.21175E+07         0.83716E+07         0.00000E+00
    0.00000E+00         0.00000E+00        -0.49344E+07
 
    0.16055E+08         0.95674E+05         0.00000E+00
    0.95674E+05         0.57056E+07         0.00000E+00
    0.00000E+00         0.00000E+00         0.13321E+07
 
    0.15362E+08         0.20374E+06         0.00000E+00
    0.20374E+06         0.53185E+07         0.00000E+00
    0.00000E+00         0.00000E+00         0.66744E+05
 
    0.14697E+08        -0.58167E+05         0.00000E+00
   -0.58167E+05         0.52928E+07         0.00000E+00
    0.00000E+00         0.00000E+00        -0.10765E+07
 
    0.14031E+08        -0.42479E+06         0.00000E+00
   -0.42479E+06         0.54055E+07         0.00000E+00
    0.00000E+00         0.00000E+00        -0.18448E+07
 
    0.12952E+08        -0.75269E+06         0.00000E+00
   -0.75269E+06         0.54641E+07         0.00000E+00
    0.00000E+00         0.00000E+00        -0.21724E+07
 
    0.11620E+08        -0.10365E+07         0.00000E+00
   -0.10365E+07         0.54224E+07         0.00000E+00
    0.00000E+00         0.00000E+00        -0.24517E+07
 
    0.99497E+07        -0.11683E+07         0.00000E+00
   -0.11683E+07         0.53455E+07         0.00000E+00
    0.00000E+00         0.00000E+00        -0.28049E+07
 
    0.81377E+07        -0.10610E+07         0.00000E+00
   -0.10610E+07         0.52508E+07         0.00000E+00
    0.00000E+00         0.00000E+00        -0.31889E+07
 
    0.63714E+07        -0.79114E+06         0.00000E+00
   -0.79114E+06         0.51787E+07         0.00000E+00
    0.00000E+00         0.00000E+00        -0.35583E+07
 
    0.46768E+07        -0.41845E+06         0.00000E+00
   -0.41845E+06         0.51424E+07         0.00000E+00
    0.00000E+00         0.00000E+00        -0.39053E+07
 
    0.30191E+07         0.12893E+05         0.00000E+00
    0.12893E+05         0.51974E+07         0.00000E+00
    0.00000E+00         0.00000E+00        -0.42256E+07
 
    0.13264E+07         0.50998E+06         0.00000E+00
    0.50998E+06         0.53909E+07         0.00000E+00
    0.00000E+00         0.00000E+00        -0.45244E+07
 
   -0.46988E+06         0.11154E+07         0.00000E+00
    0.11154E+07         0.57647E+07         0.00000E+00
    0.00000E+00         0.00000E+00        -0.48070E+07
 
   -0.24068E+07         0.19272E+07         0.00000E+00
    0.19272E+07         0.63568E+07         0.00000E+00
    0.00000E+00         0.00000E+00        -0.50731E+07
 
   -0.44207E+07         0.30979E+07         0.00000E+00
    0.30979E+07         0.71390E+07         0.00000E+00
    0.00000E+00         0.00000E+00        -0.53157E+07
 
    0.14233E+08        -0.81569E+05         0.00000E+00
   -0.81569E+05         0.38364E+07         0.00000E+00
    0.00000E+00         0.00000E+00        -0.18650E+07
 
    0.13186E+08        -0.71574E+05         0.00000E+00
   -0.71574E+05         0.38468E+07         0.00000E+00
    0.00000E+00         0.00000E+00        -0.24307E+07
 
    0.12372E+08        -0.21276E+06         0.00000E+00
   -0.21276E+06         0.36913E+07         0.00000E+00
    0.00000E+00         0.00000E+00        -0.26318E+07
 
    0.11613E+08        -0.49124E+06         0.00000E+00
   -0.49124E+06         0.35302E+07         0.00000E+00
    0.00000E+00         0.00000E+00        -0.28224E+07
 
    0.10632E+08        -0.81472E+06         0.00000E+00
   -0.81472E+06         0.34330E+07         0.00000E+00
    0.00000E+00         0.00000E+00        -0.30433E+07
 
    0.93845E+07        -0.10606E+07         0.00000E+00
   -0.10606E+07         0.33973E+07         0.00000E+00
    0.00000E+00         0.00000E+00        -0.33045E+07
 
    0.79138E+07        -0.11632E+07         0.00000E+00
   -0.11632E+07         0.34263E+07         0.00000E+00
    0.00000E+00         0.00000E+00        -0.35964E+07
 
    0.63106E+07        -0.10605E+07         0.00000E+00
   -0.10605E+07         0.34877E+07         0.00000E+00
    0.00000E+00         0.00000E+00        -0.39074E+07
 
    0.46871E+07        -0.77468E+06         0.00000E+00
   -0.77468E+06         0.35581E+07         0.00000E+00
    0.00000E+00         0.00000E+00        -0.42196E+07
 
    0.30909E+07        -0.35343E+06         0.00000E+00
   -0.35343E+06         0.36583E+07         0.00000E+00
    0.00000E+00         0.00000E+00        -0.45196E+07
 
    0.15131E+07         0.17514E+06         0.00000E+00
    0.17514E+06         0.38199E+07         0.00000E+00
    0.00000E+00         0.00000E+00        -0.48027E+07
 
   -0.78342E+05         0.81138E+06         0.00000E+00
    0.81138E+06         0.40822E+07         0.00000E+00
    0.00000E+00         0.00000E+00        -0.50675E+07
 
   -0.17126E+07         0.15904E+07         0.00000E+00
    0.15904E+07         0.44769E+07         0.00000E+00
    0.00000E+00         0.00000E+00        -0.53134E+07
 
   -0.33850E+07         0.25782E+07         0.00000E+00
    0.25782E+07         0.50126E+07         0.00000E+00
    0.00000E+00         0.00000E+00        -0.55380E+07
 
   -0.50255E+07         0.38528E+07         0.00000E+00
    0.38528E+07         0.56538E+07         0.00000E+00
    0.00000E+00         0.00000E+00        -0.57341E+07
 
    0.12080E+08        -0.10587E+06         0.00000E+00
   -0.10587E+06         0.20518E+07         0.00000E+00
    0.00000E+00         0.00000E+00        -0.30038E+07
 
    0.11050E+08        -0.28268E+06         0.00000E+00
   -0.28268E+06         0.20002E+07         0.00000E+00
    0.00000E+00         0.00000E+00        -0.32283E+07
 
    0.10151E+08        -0.42164E+06         0.00000E+00
   -0.42164E+06         0.18104E+07         0.00000E+00
    0.00000E+00         0.00000E+00        -0.34534E+07
 
    0.93087E+07        -0.63763E+06         0.00000E+00
   -0.63763E+06         0.16404E+07         0.00000E+00
    0.00000E+00         0.00000E+00        -0.36621E+07
 
    0.83487E+07        -0.87509E+06         0.00000E+00
   -0.87509E+06         0.15410E+07         0.00000E+00
    0.00000E+00         0.00000E+00        -0.38793E+07
 
    0.72097E+07        -0.10469E+07         0.00000E+00
   -0.10469E+07         0.15264E+07         0.00000E+00
    0.00000E+00         0.00000E+00        -0.41144E+07
 
    0.59061E+07        -0.10864E+07         0.00000E+00
   -0.10864E+07         0.15843E+07         0.00000E+00
    0.00000E+00         0.00000E+00        -0.43670E+07
 
    0.44924E+07        -0.95485E+06         0.00000E+00
   -0.95485E+06         0.16960E+07         0.00000E+00
    0.00000E+00         0.00000E+00        -0.46299E+07
 
    0.30324E+07        -0.64838E+06         0.00000E+00
   -0.64838E+06         0.18420E+07         0.00000E+00
    0.00000E+00         0.00000E+00        -0.48943E+07
 
    0.15677E+07        -0.18695E+06         0.00000E+00
   -0.18695E+06         0.20212E+07         0.00000E+00
    0.00000E+00         0.00000E+00        -0.51521E+07
 
    0.10954E+06         0.41193E+06         0.00000E+00
    0.41193E+06         0.22511E+07         0.00000E+00
    0.00000E+00         0.00000E+00        -0.53976E+07
 
   -0.13480E+07         0.11487E+07         0.00000E+00
    0.11487E+07         0.25539E+07         0.00000E+00
    0.00000E+00         0.00000E+00        -0.56275E+07
 
   -0.28074E+07         0.20446E+07         0.00000E+00
    0.20446E+07         0.29463E+07         0.00000E+00
    0.00000E+00         0.00000E+00        -0.58390E+07
 
   -0.42478E+07         0.31365E+07         0.00000E+00
    0.31365E+07         0.34259E+07         0.00000E+00
    0.00000E+00         0.00000E+00        -0.60283E+07
 
   -0.56110E+07         0.44597E+07         0.00000E+00
    0.44597E+07         0.39619E+07         0.00000E+00
    0.00000E+00         0.00000E+00        -0.61902E+07
 
    0.98157E+07        -0.14776E+06         0.00000E+00
   -0.14776E+06         0.47002E+05         0.00000E+00
    0.00000E+00         0.00000E+00        -0.38592E+07
 
    0.88376E+07        -0.38770E+06         0.00000E+00
   -0.38770E+06        -0.23119E+05         0.00000E+00
    0.00000E+00         0.00000E+00        -0.40769E+07
 
    0.79468E+07        -0.58337E+06         0.00000E+00
   -0.58337E+06        -0.12790E+06         0.00000E+00
    0.00000E+00         0.00000E+00        -0.42832E+07
 
    0.70762E+07        -0.76330E+06         0.00000E+00
   -0.76330E+06        -0.24587E+06         0.00000E+00
    0.00000E+00         0.00000E+00        -0.44870E+07
 
    0.61482E+07        -0.92386E+06         0.00000E+00
   -0.92386E+06        -0.31768E+06         0.00000E+00
    0.00000E+00         0.00000E+00        -0.46922E+07
 
    0.51076E+07        -0.10155E+07         0.00000E+00
   -0.10155E+07        -0.31829E+06         0.00000E+00
    0.00000E+00         0.00000E+00        -0.49047E+07
 
    0.39506E+07        -0.98800E+06         0.00000E+00
   -0.98800E+06        -0.24758E+06         0.00000E+00
    0.00000E+00         0.00000E+00        -0.51253E+07
 
    0.27051E+07        -0.80880E+06         0.00000E+00
   -0.80880E+06        -0.11825E+06         0.00000E+00
    0.00000E+00         0.00000E+00        -0.53509E+07
 
    0.14094E+07        -0.46656E+06         0.00000E+00
   -0.46656E+06         0.56646E+05         0.00000E+00
    0.00000E+00         0.00000E+00        -0.55766E+07
 
    0.95243E+05         0.34961E+05         0.00000E+00
    0.34961E+05         0.27190E+06         0.00000E+00
    0.00000E+00         0.00000E+00        -0.57971E+07
 
   -0.12194E+07         0.68899E+06         0.00000E+00
    0.68899E+06         0.53220E+06         0.00000E+00
    0.00000E+00         0.00000E+00        -0.60077E+07
 
   -0.25250E+07         0.14960E+07         0.00000E+00
    0.14960E+07         0.84689E+06         0.00000E+00
    0.00000E+00         0.00000E+00        -0.62049E+07
 
   -0.38100E+07         0.24667E+07         0.00000E+00
    0.24667E+07         0.12210E+07         0.00000E+00
    0.00000E+00         0.00000E+00        -0.63851E+07
 
   -0.50490E+07         0.36180E+07         0.00000E+00
    0.36180E+07         0.16475E+07         0.00000E+00
    0.00000E+00         0.00000E+00        -0.65449E+07
 
   -0.61967E+07         0.49615E+07         0.00000E+00
    0.49615E+07         0.21023E+07         0.00000E+00
    0.00000E+00         0.00000E+00        -0.66800E+07
 
    0.74837E+07        -0.17842E+06         0.00000E+00
   -0.17842E+06        -0.19781E+07         0.00000E+00
    0.00000E+00         0.00000E+00        -0.47325E+07
 
    0.65800E+07        -0.46461E+06         0.00000E+00
   -0.46461E+06        -0.20214E+07         0.00000E+00
    0.00000E+00         0.00000E+00        -0.49299E+07
 
    0.57316E+07        -0.68072E+06         0.00000E+00
   -0.68072E+06        -0.20920E+07         0.00000E+00
    0.00000E+00         0.00000E+00        -0.51206E+07
 
    0.48945E+07        -0.84412E+06         0.00000E+00
   -0.84412E+06        -0.21603E+07         0.00000E+00
    0.00000E+00         0.00000E+00        -0.53077E+07
 
    0.40208E+07        -0.94987E+06         0.00000E+00
   -0.94987E+06        -0.21979E+07         0.00000E+00
    0.00000E+00         0.00000E+00        -0.54950E+07
 
    0.30769E+07        -0.97346E+06         0.00000E+00
   -0.97346E+06        -0.21816E+07         0.00000E+00
    0.00000E+00         0.00000E+00        -0.56846E+07
 
    0.20531E+07        -0.88235E+06         0.00000E+00
   -0.88235E+06        -0.21048E+07         0.00000E+00
    0.00000E+00         0.00000E+00        -0.58772E+07
 
    0.96158E+06        -0.65093E+06         0.00000E+00
   -0.65093E+06        -0.19723E+07         0.00000E+00
    0.00000E+00         0.00000E+00        -0.60713E+07
 
   -0.17472E+06        -0.26567E+06         0.00000E+00
   -0.26567E+06        -0.17921E+07         0.00000E+00
    0.00000E+00         0.00000E+00        -0.62640E+07
 
   -0.13325E+07         0.27690E+06         0.00000E+00
    0.27690E+06        -0.15698E+07         0.00000E+00
    0.00000E+00         0.00000E+00        -0.64517E+07
 
   -0.24928E+07         0.97612E+06         0.00000E+00
    0.97612E+06        -0.13067E+07         0.00000E+00
    0.00000E+00         0.00000E+00        -0.66309E+07
 
   -0.36402E+07         0.18327E+07         0.00000E+00
    0.18327E+07        -0.10019E+07         0.00000E+00
    0.00000E+00         0.00000E+00        -0.67983E+07
 
   -0.47572E+07         0.28506E+07         0.00000E+00
    0.28506E+07        -0.65710E+06         0.00000E+00
    0.00000E+00         0.00000E+00        -0.69509E+07
 
   -0.58189E+07         0.40346E+07         0.00000E+00
    0.40346E+07        -0.28130E+06         0.00000E+00
    0.00000E+00         0.00000E+00        -0.70855E+07
 
   -0.67909E+07         0.53838E+07         0.00000E+00
    0.53838E+07         0.10736E+06         0.00000E+00
    0.00000E+00         0.00000E+00        -0.71987E+07
 
    0.51057E+07        -0.19808E+06         0.00000E+00
   -0.19808E+06        -0.40001E+07         0.00000E+00
    0.00000E+00         0.00000E+00        -0.56148E+07
 
    0.42945E+07        -0.51323E+06         0.00000E+00
   -0.51323E+06        -0.40266E+07         0.00000E+00
    0.00000E+00         0.00000E+00        -0.57901E+07
 
    0.35171E+07        -0.73874E+06         0.00000E+00
   -0.73874E+06        -0.40668E+07         0.00000E+00
    0.00000E+00         0.00000E+00        -0.59604E+07
 
    0.27453E+07        -0.88599E+06         0.00000E+00
   -0.88599E+06        -0.41025E+07         0.00000E+00
    0.00000E+00         0.00000E+00        -0.61277E+07
 
    0.19495E+07        -0.95224E+06         0.00000E+00
   -0.95224E+06        -0.41130E+07         0.00000E+00
    0.00000E+00         0.00000E+00        -0.62938E+07
 
    0.11077E+07        -0.92253E+06         0.00000E+00
   -0.92253E+06        -0.40827E+07         0.00000E+00
    0.00000E+00         0.00000E+00        -0.64600E+07
 
    0.21122E+06        -0.77646E+06         0.00000E+00
   -0.77646E+06        -0.40035E+07         0.00000E+00
    0.00000E+00         0.00000E+00        -0.66265E+07
 
   -0.73513E+06        -0.49533E+06         0.00000E+00
   -0.49533E+06        -0.38757E+07         0.00000E+00
    0.00000E+00         0.00000E+00        -0.67924E+07
 
   -0.17177E+07        -0.66766E+05         0.00000E+00
   -0.66766E+05        -0.37036E+07         0.00000E+00
    0.00000E+00         0.00000E+00        -0.69558E+07
 
   -0.27196E+07         0.51512E+06         0.00000E+00
    0.51512E+06        -0.34917E+07         0.00000E+00
    0.00000E+00         0.00000E+00        -0.71143E+07
 
   -0.37238E+07         0.12521E+07         0.00000E+00
    0.12521E+07        -0.32438E+07         0.00000E+00
    0.00000E+00         0.00000E+00        -0.72653E+07
 
   -0.47139E+07         0.21446E+07         0.00000E+00
    0.21446E+07        -0.29631E+07         0.00000E+00
    0.00000E+00         0.00000E+00        -0.74061E+07
 
   -0.56715E+07         0.31926E+07         0.00000E+00
    0.31926E+07        -0.26547E+07         0.00000E+00
    0.00000E+00         0.00000E+00        -0.75341E+07
 
   -0.65745E+07         0.43940E+07         0.00000E+00
    0.43940E+07        -0.23277E+07         0.00000E+00
    0.00000E+00         0.00000E+00        -0.76468E+07
 
   -0.73969E+07         0.57417E+07         0.00000E+00
    0.57417E+07        -0.19960E+07         0.00000E+00
    0.00000E+00         0.00000E+00        -0.77417E+07
 
    0.26996E+07        -0.20883E+06         0.00000E+00
   -0.20883E+06        -0.60240E+07         0.00000E+00
    0.00000E+00         0.00000E+00        -0.65036E+07
 
    0.19940E+07        -0.54015E+06         0.00000E+00
   -0.54015E+06        -0.60372E+07         0.00000E+00
    0.00000E+00         0.00000E+00        -0.66548E+07
 
    0.13068E+07        -0.76856E+06         0.00000E+00
   -0.76856E+06        -0.60568E+07         0.00000E+00
    0.00000E+00         0.00000E+00        -0.68027E+07
 
    0.62167E+06        -0.90163E+06         0.00000E+00
   -0.90163E+06        -0.60703E+07         0.00000E+00
    0.00000E+00         0.00000E+00        -0.69479E+07
 
   -0.79730E+05        -0.93741E+06         0.00000E+00
   -0.93741E+06        -0.60638E+07         0.00000E+00
    0.00000E+00         0.00000E+00        -0.70915E+07
 
   -0.81191E+06        -0.86640E+06         0.00000E+00
   -0.86640E+06        -0.60255E+07         0.00000E+00
    0.00000E+00         0.00000E+00        -0.72340E+07
 
   -0.15818E+07        -0.67509E+06         0.00000E+00
   -0.67509E+06        -0.59486E+07         0.00000E+00
    0.00000E+00         0.00000E+00        -0.73754E+07
 
   -0.23877E+07        -0.35032E+06         0.00000E+00
   -0.35032E+06        -0.58312E+07         0.00000E+00
    0.00000E+00         0.00000E+00        -0.75151E+07
 
   -0.32214E+07         0.11787E+06         0.00000E+00
    0.11787E+06        -0.56752E+07         0.00000E+00
    0.00000E+00         0.00000E+00        -0.76519E+07
 
   -0.40708E+07         0.73518E+06         0.00000E+00
    0.73518E+06        -0.54841E+07         0.00000E+00
    0.00000E+00         0.00000E+00        -0.77839E+07
 
   -0.49216E+07         0.15037E+07         0.00000E+00
    0.15037E+07        -0.52621E+07         0.00000E+00
    0.00000E+00         0.00000E+00        -0.79094E+07
 
   -0.57590E+07         0.24231E+07         0.00000E+00
    0.24231E+07        -0.50139E+07         0.00000E+00
    0.00000E+00         0.00000E+00        -0.80262E+07
 
   -0.65661E+07         0.34908E+07         0.00000E+00
    0.34908E+07        -0.47458E+07         0.00000E+00
    0.00000E+00         0.00000E+00        -0.81322E+07
 
   -0.73247E+07         0.47013E+07         0.00000E+00
    0.47013E+07        -0.44661E+07         0.00000E+00
    0.00000E+00         0.00000E+00        -0.82256E+07
 
   -0.80146E+07         0.60445E+07         0.00000E+00
    0.60445E+07        -0.41857E+07         0.00000E+00
    0.00000E+00         0.00000E+00        -0.83044E+07
 
    0.27907E+06        -0.21346E+06         0.00000E+00
   -0.21346E+06        -0.80491E+07         0.00000E+00
    0.00000E+00         0.00000E+00        -0.73958E+07
 
   -0.31376E+06        -0.55230E+06         0.00000E+00
   -0.55230E+06        -0.80541E+07         0.00000E+00
    0.00000E+00         0.00000E+00        -0.75226E+07
 
   -0.89781E+06        -0.78024E+06         0.00000E+00
   -0.78024E+06        -0.80610E+07         0.00000E+00
    0.00000E+00         0.00000E+00        -0.76470E+07
 
   -0.14817E+07        -0.90129E+06         0.00000E+00
   -0.90129E+06        -0.80619E+07         0.00000E+00
    0.00000E+00         0.00000E+00        -0.77691E+07
 
   -0.20766E+07        -0.91357E+06         0.00000E+00
   -0.91357E+06        -0.80471E+07         0.00000E+00
    0.00000E+00         0.00000E+00        -0.78895E+07
 
   -0.26922E+07        -0.81049E+06         0.00000E+00
   -0.81049E+06        -0.80078E+07         0.00000E+00
    0.00000E+00         0.00000E+00        -0.80082E+07
 
   -0.33339E+07        -0.58291E+06         0.00000E+00
   -0.58291E+06        -0.79383E+07         0.00000E+00
    0.00000E+00         0.00000E+00        -0.81252E+07
 
   -0.40016E+07        -0.22160E+06         0.00000E+00
   -0.22160E+06        -0.78360E+07         0.00000E+00
    0.00000E+00         0.00000E+00        -0.82401E+07
 
   -0.46902E+07         0.28077E+06         0.00000E+00
    0.28077E+06        -0.77016E+07         0.00000E+00
    0.00000E+00         0.00000E+00        -0.83520E+07
 
   -0.53910E+07         0.92861E+06         0.00000E+00
    0.92861E+06        -0.75374E+07         0.00000E+00
    0.00000E+00         0.00000E+00        -0.84597E+07
 
   -0.60930E+07         0.17233E+07         0.00000E+00
    0.17233E+07        -0.73474E+07         0.00000E+00
    0.00000E+00         0.00000E+00        -0.85617E+07
 
   -0.67836E+07         0.26634E+07         0.00000E+00
    0.26634E+07        -0.71363E+07         0.00000E+00
    0.00000E+00         0.00000E+00        -0.86566E+07
 
   -0.74488E+07         0.37447E+07         0.00000E+00
    0.37447E+07        -0.69102E+07         0.00000E+00
    0.00000E+00         0.00000E+00        -0.87427E+07
 
   -0.80737E+07         0.49600E+07         0.00000E+00
    0.49600E+07        -0.66765E+07         0.00000E+00
    0.00000E+00         0.00000E+00        -0.88187E+07
 
   -0.86432E+07         0.62981E+07         0.00000E+00
    0.62981E+07        -0.64434E+07         0.00000E+00
    0.00000E+00         0.00000E+00        -0.88831E+07
 
   -0.21473E+07        -0.21464E+06         0.00000E+00
   -0.21464E+06        -0.10075E+08         0.00000E+00
    0.00000E+00         0.00000E+00        -0.82900E+07
 
   -0.26242E+07        -0.55620E+06         0.00000E+00
   -0.55620E+06        -0.10077E+08         0.00000E+00
    0.00000E+00         0.00000E+00        -0.83924E+07
 
   -0.30967E+07        -0.78239E+06         0.00000E+00
   -0.78239E+06        -0.10078E+08         0.00000E+00
    0.00000E+00         0.00000E+00        -0.84930E+07
 
   -0.35692E+07        -0.89389E+06         0.00000E+00
   -0.89389E+06        -0.10074E+08         0.00000E+00
    0.00000E+00         0.00000E+00        -0.85916E+07
 
   -0.40486E+07        -0.88830E+06         0.00000E+00
   -0.88830E+06        -0.10059E+08         0.00000E+00
    0.00000E+00         0.00000E+00        -0.86884E+07
 
   -0.45418E+07        -0.76063E+06         0.00000E+00
   -0.76063E+06        -0.10025E+08         0.00000E+00
    0.00000E+00         0.00000E+00        -0.87834E+07
 
   -0.50530E+07        -0.50448E+06         0.00000E+00
   -0.50448E+06        -0.99678E+07         0.00000E+00
    0.00000E+00         0.00000E+00        -0.88766E+07
 
   -0.55831E+07        -0.11352E+06         0.00000E+00
   -0.11352E+06        -0.98847E+07         0.00000E+00
    0.00000E+00         0.00000E+00        -0.89676E+07
 
   -0.61292E+07         0.41724E+06         0.00000E+00
    0.41724E+06        -0.97756E+07         0.00000E+00
    0.00000E+00         0.00000E+00        -0.90559E+07
 
   -0.66853E+07         0.10906E+07         0.00000E+00
    0.10906E+07        -0.96421E+07         0.00000E+00
    0.00000E+00         0.00000E+00        -0.91406E+07
 
   -0.72432E+07         0.19067E+07         0.00000E+00
    0.19067E+07        -0.94872E+07         0.00000E+00
    0.00000E+00         0.00000E+00        -0.92208E+07
 
   -0.77929E+07         0.28630E+07         0.00000E+00
    0.28630E+07        -0.93154E+07         0.00000E+00
    0.00000E+00         0.00000E+00        -0.92954E+07
 
   -0.83235E+07         0.39544E+07         0.00000E+00
    0.39544E+07        -0.91318E+07         0.00000E+00
    0.00000E+00         0.00000E+00        -0.93632E+07
 
   -0.88233E+07         0.51726E+07         0.00000E+00
    0.51726E+07        -0.89425E+07         0.00000E+00
    0.00000E+00         0.00000E+00        -0.94232E+07
 
   -0.92808E+07         0.65061E+07         0.00000E+00
    0.65061E+07        -0.87540E+07         0.00000E+00
    0.00000E+00         0.00000E+00        -0.94744E+07
 
   -0.45753E+07        -0.21465E+06         0.00000E+00
   -0.21465E+06        -0.12103E+08         0.00000E+00
    0.00000E+00         0.00000E+00        -0.91851E+07
 
   -0.49353E+07        -0.55739E+06         0.00000E+00
   -0.55739E+06        -0.12103E+08         0.00000E+00
    0.00000E+00         0.00000E+00        -0.92637E+07
 
   -0.52911E+07        -0.78222E+06         0.00000E+00
   -0.78222E+06        -0.12105E+08         0.00000E+00
    0.00000E+00         0.00000E+00        -0.93405E+07
 
   -0.56449E+07        -0.88691E+06         0.00000E+00
   -0.88691E+06        -0.12103E+08         0.00000E+00
    0.00000E+00         0.00000E+00        -0.94154E+07
 
   -0.60020E+07        -0.86826E+06         0.00000E+00
   -0.86826E+06        -0.12094E+08         0.00000E+00
    0.00000E+00         0.00000E+00        -0.94885E+07
 
   -0.63677E+07        -0.72212E+06         0.00000E+00
   -0.72212E+06        -0.12071E+08         0.00000E+00
    0.00000E+00         0.00000E+00        -0.95599E+07
 
   -0.67460E+07        -0.44393E+06         0.00000E+00
   -0.44393E+06        -0.12031E+08         0.00000E+00
    0.00000E+00         0.00000E+00        -0.96295E+07
 
   -0.71384E+07        -0.29473E+05         0.00000E+00
   -0.29473E+05        -0.11970E+08         0.00000E+00
    0.00000E+00         0.00000E+00        -0.96973E+07
 
   -0.75437E+07         0.52425E+06         0.00000E+00
    0.52425E+06        -0.11889E+08         0.00000E+00
    0.00000E+00         0.00000E+00        -0.97629E+07
 
   -0.79582E+07         0.12184E+07         0.00000E+00
    0.12184E+07        -0.11788E+08         0.00000E+00
    0.00000E+00         0.00000E+00        -0.98257E+07
 
   -0.83762E+07         0.20520E+07         0.00000E+00
    0.20520E+07        -0.11670E+08         0.00000E+00
    0.00000E+00         0.00000E+00        -0.98852E+07
 
   -0.87904E+07         0.30215E+07         0.00000E+00
    0.30215E+07        -0.11538E+08         0.00000E+00
    0.00000E+00         0.00000E+00        -0.99407E+07
 
   -0.91925E+07         0.41208E+07         0.00000E+00
    0.41208E+07        -0.11397E+08         0.00000E+00
    0.00000E+00         0.00000E+00        -0.99914E+07
 
   -0.95737E+07         0.53412E+07         0.00000E+00
    0.53412E+07        -0.11251E+08         0.00000E+00
    0.00000E+00         0.00000E+00        -0.10036E+08
 
   -0.99255E+07         0.66714E+07         0.00000E+00
    0.66714E+07        -0.11105E+08         0.00000E+00
    0.00000E+00         0.00000E+00        -0.10075E+08
 
   -0.70046E+07        -0.21530E+06         0.00000E+00
   -0.21530E+06        -0.14131E+08         0.00000E+00
    0.00000E+00         0.00000E+00        -0.10081E+08
 
   -0.72477E+07        -0.56031E+06         0.00000E+00
   -0.56031E+06        -0.14134E+08         0.00000E+00
    0.00000E+00         0.00000E+00        -0.10136E+08
 
   -0.74828E+07        -0.78557E+06         0.00000E+00
   -0.78557E+06        -0.14140E+08         0.00000E+00
    0.00000E+00         0.00000E+00        -0.10189E+08
 
   -0.77127E+07        -0.88644E+06         0.00000E+00
   -0.88644E+06        -0.14146E+08         0.00000E+00
    0.00000E+00         0.00000E+00        -0.10241E+08
 
   -0.79420E+07        -0.85897E+06         0.00000E+00
   -0.85897E+06        -0.14148E+08         0.00000E+00
    0.00000E+00         0.00000E+00        -0.10290E+08
 
   -0.81759E+07        -0.69948E+06         0.00000E+00
   -0.69948E+06        -0.14140E+08         0.00000E+00
    0.00000E+00         0.00000E+00        -0.10338E+08
 
   -0.84187E+07        -0.40468E+06         0.00000E+00
   -0.40468E+06        -0.14120E+08         0.00000E+00
    0.00000E+00         0.00000E+00        -0.10384E+08
 
   -0.86728E+07         0.27989E+05         0.00000E+00
    0.27989E+05        -0.14085E+08         0.00000E+00
    0.00000E+00         0.00000E+00        -0.10429E+08
 
   -0.89384E+07         0.59990E+06         0.00000E+00
    0.59990E+06        -0.14034E+08         0.00000E+00
    0.00000E+00         0.00000E+00        -0.10472E+08
 
   -0.92138E+07         0.13108E+07         0.00000E+00
    0.13108E+07        -0.13967E+08         0.00000E+00
    0.00000E+00         0.00000E+00        -0.10514E+08
 
   -0.94954E+07         0.21586E+07         0.00000E+00
    0.21586E+07        -0.13886E+08         0.00000E+00
    0.00000E+00         0.00000E+00        -0.10554E+08
 
   -0.97783E+07         0.31388E+07         0.00000E+00
    0.31388E+07        -0.13794E+08         0.00000E+00
    0.00000E+00         0.00000E+00        -0.10591E+08
 
   -0.10057E+08         0.42448E+07         0.00000E+00
    0.42448E+07        -0.13694E+08         0.00000E+00
    0.00000E+00         0.00000E+00        -0.10625E+08
 
   -0.10324E+08         0.54676E+07         0.00000E+00
    0.54676E+07        -0.13589E+08         0.00000E+00
    0.00000E+00         0.00000E+00        -0.10656E+08
 
   -0.10575E+08         0.67958E+07         0.00000E+00
    0.67958E+07        -0.13484E+08         0.00000E+00
    0.00000E+00         0.00000E+00        -0.10683E+08
 
   -0.94375E+07        -0.21794E+06         0.00000E+00
   -0.21794E+06        -0.16159E+08         0.00000E+00
    0.00000E+00         0.00000E+00        -0.10978E+08
 
   -0.95633E+07        -0.56839E+06         0.00000E+00
   -0.56839E+06        -0.16167E+08         0.00000E+00
    0.00000E+00         0.00000E+00        -0.11011E+08
 
   -0.96747E+07        -0.79693E+06         0.00000E+00
   -0.79693E+06        -0.16182E+08         0.00000E+00
    0.00000E+00         0.00000E+00        -0.11040E+08
 
   -0.97759E+07        -0.89721E+06         0.00000E+00
   -0.89721E+06        -0.16199E+08         0.00000E+00
    0.00000E+00         0.00000E+00        -0.11067E+08
 
   -0.98729E+07        -0.86471E+06         0.00000E+00
   -0.86471E+06        -0.16216E+08         0.00000E+00
    0.00000E+00         0.00000E+00        -0.11093E+08
 
   -0.99713E+07        -0.69615E+06         0.00000E+00
   -0.69615E+06        -0.16227E+08         0.00000E+00
    0.00000E+00         0.00000E+00        -0.11117E+08
 
   -0.10076E+08        -0.38926E+06         0.00000E+00
   -0.38926E+06        -0.16229E+08         0.00000E+00
    0.00000E+00         0.00000E+00        -0.11139E+08
 
   -0.10191E+08         0.57177E+05         0.00000E+00
    0.57177E+05        -0.16221E+08         0.00000E+00
    0.00000E+00         0.00000E+00        -0.11161E+08
 
   -0.10318E+08         0.64319E+06         0.00000E+00
    0.64319E+06        -0.16200E+08         0.00000E+00
    0.00000E+00         0.00000E+00        -0.11183E+08
 
   -0.10455E+08         0.13673E+07         0.00000E+00
    0.13673E+07        -0.16168E+08         0.00000E+00
    0.00000E+00         0.00000E+00        -0.11204E+08
 
   -0.10603E+08         0.22265E+07         0.00000E+00
    0.22265E+07        -0.16124E+08         0.00000E+00
    0.00000E+00         0.00000E+00        -0.11224E+08
 
   -0.10758E+08         0.32156E+07         0.00000E+00
    0.32156E+07        -0.16071E+08         0.00000E+00
    0.00000E+00         0.00000E+00        -0.11244E+08
 
   -0.10917E+08         0.43276E+07         0.00000E+00
    0.43276E+07        -0.16011E+08         0.00000E+00
    0.00000E+00         0.00000E+00        -0.11262E+08
 
   -0.11075E+08         0.55532E+07         0.00000E+00
    0.55532E+07        -0.15947E+08         0.00000E+00
    0.00000E+00         0.00000E+00        -0.11280E+08
 
   -0.11228E+08         0.68810E+07         0.00000E+00
    0.68810E+07        -0.15881E+08         0.00000E+00
    0.00000E+00         0.00000E+00        -0.11295E+08
 
   -0.11879E+08        -0.22358E+06         0.00000E+00
   -0.22358E+06        -0.18189E+08         0.00000E+00
    0.00000E+00         0.00000E+00        -0.11878E+08
 
   -0.11886E+08        -0.58408E+06         0.00000E+00
   -0.58408E+06        -0.18202E+08         0.00000E+00
    0.00000E+00         0.00000E+00        -0.11887E+08
 
   -0.11870E+08        -0.81955E+06         0.00000E+00
   -0.81955E+06        -0.18227E+08         0.00000E+00
    0.00000E+00         0.00000E+00        -0.11892E+08
 
   -0.11838E+08        -0.92258E+06         0.00000E+00
   -0.92258E+06        -0.18259E+08         0.00000E+00
    0.00000E+00         0.00000E+00        -0.11895E+08
 
   -0.11799E+08        -0.88846E+06         0.00000E+00
   -0.88846E+06        -0.18293E+08         0.00000E+00
    0.00000E+00         0.00000E+00        -0.11896E+08
 
   -0.11758E+08        -0.71443E+06         0.00000E+00
   -0.71443E+06        -0.18325E+08         0.00000E+00
    0.00000E+00         0.00000E+00        -0.11896E+08
 
   -0.11723E+08        -0.39919E+06         0.00000E+00
   -0.39919E+06        -0.18351E+08         0.00000E+00
    0.00000E+00         0.00000E+00        -0.11895E+08
 
   -0.11697E+08         0.57309E+05         0.00000E+00
    0.57309E+05        -0.18370E+08         0.00000E+00
    0.00000E+00         0.00000E+00        -0.11894E+08
 
   -0.11685E+08         0.65394E+06         0.00000E+00
    0.65394E+06        -0.18380E+08         0.00000E+00
    0.00000E+00         0.00000E+00        -0.11894E+08
 
   -0.11686E+08         0.13883E+07         0.00000E+00
    0.13883E+07        -0.18381E+08         0.00000E+00
    0.00000E+00         0.00000E+00        -0.11894E+08
 
   -0.11702E+08         0.22565E+07         0.00000E+00
    0.22565E+07        -0.18374E+08         0.00000E+00
    0.00000E+00         0.00000E+00        -0.11895E+08
 
   -0.11731E+08         0.32529E+07         0.00000E+00
    0.32529E+07        -0.18360E+08         0.00000E+00
    0.00000E+00         0.00000E+00        -0.11898E+08
 
   -0.11772E+08         0.43703E+07         0.00000E+00
    0.43703E+07        -0.18339E+08         0.00000E+00
    0.00000E+00         0.00000E+00        -0.11901E+08
 
   -0.11823E+08         0.55991E+07         0.00000E+00
    0.55991E+07        -0.18315E+08         0.00000E+00
    0.00000E+00         0.00000E+00        -0.11905E+08
 
   -0.11882E+08         0.69282E+07         0.00000E+00
    0.69282E+07        -0.18287E+08         0.00000E+00
    0.00000E+00         0.00000E+00        -0.11910E+08
 
   -0.14334E+08        -0.23285E+06         0.00000E+00
   -0.23285E+06        -0.20218E+08         0.00000E+00
    0.00000E+00         0.00000E+00        -0.12781E+08
 
   -0.14219E+08        -0.60901E+06         0.00000E+00
   -0.60901E+06        -0.20239E+08         0.00000E+00
    0.00000E+00         0.00000E+00        -0.12766E+08
 
   -0.14072E+08        -0.85551E+06         0.00000E+00
   -0.85551E+06        -0.20276E+08         0.00000E+00
    0.00000E+00         0.00000E+00        -0.12747E+08
 
   -0.13903E+08        -0.96459E+06         0.00000E+00
   -0.96459E+06        -0.20323E+08         0.00000E+00
    0.00000E+00         0.00000E+00        -0.12725E+08
 
   -0.13722E+08        -0.93186E+06         0.00000E+00
   -0.93186E+06        -0.20375E+08         0.00000E+00
    0.00000E+00         0.00000E+00        -0.12701E+08
 
   -0.13539E+08        -0.75536E+06         0.00000E+00
   -0.75536E+06        -0.20429E+08         0.00000E+00
    0.00000E+00         0.00000E+00        -0.12676E+08
 
   -0.13361E+08        -0.43485E+06         0.00000E+00
   -0.43485E+06        -0.20479E+08         0.00000E+00
    0.00000E+00         0.00000E+00        -0.12651E+08
 
   -0.13195E+08         0.28592E+05         0.00000E+00
    0.28592E+05        -0.20525E+08         0.00000E+00
    0.00000E+00         0.00000E+00        -0.12627E+08
 
   -0.13043E+08         0.63280E+06         0.00000E+00
    0.63280E+06        -0.20565E+08         0.00000E+00
    0.00000E+00         0.00000E+00        -0.12604E+08
 
   -0.12909E+08         0.13746E+07         0.00000E+00
    0.13746E+07        -0.20599E+08         0.00000E+00
    0.00000E+00         0.00000E+00        -0.12584E+08
 
   -0.12794E+08         0.22495E+07         0.00000E+00
    0.22495E+07        -0.20627E+08         0.00000E+00
    0.00000E+00         0.00000E+00        -0.12566E+08
 
   -0.12699E+08         0.32517E+07         0.00000E+00
    0.32517E+07        -0.20650E+08         0.00000E+00
    0.00000E+00         0.00000E+00        -0.12551E+08
 
   -0.12624E+08         0.43738E+07         0.00000E+00
    0.43738E+07        -0.20667E+08         0.00000E+00
    0.00000E+00         0.00000E+00        -0.12539E+08
 
   -0.12569E+08         0.56065E+07         0.00000E+00
    0.56065E+07        -0.20681E+08         0.00000E+00
    0.00000E+00         0.00000E+00        -0.12530E+08
 
   -0.12534E+08         0.69382E+07         0.00000E+00
    0.69382E+07        -0.20691E+08         0.00000E+00
    0.00000E+00         0.00000E+00        -0.12524E+08
 
   -0.16811E+08        -0.24615E+06         0.00000E+00
   -0.24615E+06        -0.22248E+08         0.00000E+00
    0.00000E+00         0.00000E+00        -0.13689E+08
 
   -0.16569E+08        -0.64407E+06         0.00000E+00
   -0.64407E+06        -0.22276E+08         0.00000E+00
    0.00000E+00         0.00000E+00        -0.13649E+08
 
   -0.16284E+08        -0.90580E+06         0.00000E+00
   -0.90580E+06        -0.22325E+08         0.00000E+00
    0.00000E+00         0.00000E+00        -0.13605E+08
 
   -0.15973E+08        -0.10240E+07         0.00000E+00
   -0.10240E+07        -0.22389E+08         0.00000E+00
    0.00000E+00         0.00000E+00        -0.13556E+08
 
   -0.15647E+08        -0.99521E+06         0.00000E+00
   -0.99521E+06        -0.22459E+08         0.00000E+00
    0.00000E+00         0.00000E+00        -0.13506E+08
 
   -0.15318E+08        -0.81862E+06         0.00000E+00
   -0.81862E+06        -0.22533E+08         0.00000E+00
    0.00000E+00         0.00000E+00        -0.13456E+08
 
   -0.14996E+08        -0.49534E+06         0.00000E+00
   -0.49534E+06        -0.22607E+08         0.00000E+00
    0.00000E+00         0.00000E+00        -0.13406E+08
 
   -0.14686E+08        -0.27661E+05         0.00000E+00
   -0.27661E+05        -0.22678E+08         0.00000E+00
    0.00000E+00         0.00000E+00        -0.13358E+08
 
   -0.14395E+08         0.58131E+06         0.00000E+00
    0.58131E+06        -0.22745E+08         0.00000E+00
    0.00000E+00         0.00000E+00        -0.13313E+08
 
   -0.14126E+08         0.13277E+07         0.00000E+00
    0.13277E+07        -0.22810E+08         0.00000E+00
    0.00000E+00         0.00000E+00        -0.13271E+08
 
   -0.13880E+08         0.22070E+07         0.00000E+00
    0.22070E+07        -0.22871E+08         0.00000E+00
    0.00000E+00         0.00000E+00        -0.13234E+08
 
   -0.13662E+08         0.32132E+07         0.00000E+00
    0.32132E+07        -0.22930E+08         0.00000E+00
    0.00000E+00         0.00000E+00        -0.13201E+08
 
   -0.13471E+08         0.43392E+07         0.00000E+00
    0.43392E+07        -0.22985E+08         0.00000E+00
    0.00000E+00         0.00000E+00        -0.13174E+08
 
   -0.13312E+08         0.55759E+07         0.00000E+00
    0.55759E+07        -0.23036E+08         0.00000E+00
    0.00000E+00         0.00000E+00        -0.13152E+08
 
   -0.13184E+08         0.69118E+07         0.00000E+00
    0.69118E+07        -0.23083E+08         0.00000E+00
    0.00000E+00         0.00000E+00        -0.13136E+08
 
   -0.19317E+08        -0.26361E+06         0.00000E+00
   -0.26361E+06        -0.24278E+08         0.00000E+00
    0.00000E+00         0.00000E+00        -0.14603E+08
 
   -0.18940E+08        -0.68947E+06         0.00000E+00
   -0.68947E+06        -0.24313E+08         0.00000E+00
    0.00000E+00         0.00000E+00        -0.14537E+08
 
   -0.18511E+08        -0.97040E+06         0.00000E+00
   -0.97040E+06        -0.24375E+08         0.00000E+00
    0.00000E+00         0.00000E+00        -0.14465E+08
 
   -0.18050E+08        -0.11003E+07         0.00000E+00
   -0.11003E+07        -0.24453E+08         0.00000E+00
    0.00000E+00         0.00000E+00        -0.14389E+08
 
   -0.17574E+08        -0.10773E+07         0.00000E+00
   -0.10773E+07        -0.24541E+08         0.00000E+00
    0.00000E+00         0.00000E+00        -0.14312E+08
 
   -0.17096E+08        -0.90242E+06         0.00000E+00
   -0.90242E+06        -0.24633E+08         0.00000E+00
    0.00000E+00         0.00000E+00        -0.14234E+08
 
   -0.16627E+08        -0.57839E+06         0.00000E+00
   -0.57839E+06        -0.24726E+08         0.00000E+00
    0.00000E+00         0.00000E+00        -0.14159E+08
 
   -0.16175E+08        -0.10889E+06         0.00000E+00
   -0.10889E+06        -0.24819E+08         0.00000E+00
    0.00000E+00         0.00000E+00        -0.14086E+08
 
   -0.15744E+08         0.50204E+06         0.00000E+00
    0.50204E+06        -0.24912E+08         0.00000E+00
    0.00000E+00         0.00000E+00        -0.14018E+08
 
   -0.15340E+08         0.12502E+07         0.00000E+00
    0.12502E+07        -0.25004E+08         0.00000E+00
    0.00000E+00         0.00000E+00        -0.13954E+08
 
   -0.14964E+08         0.21308E+07         0.00000E+00
    0.21308E+07        -0.25096E+08         0.00000E+00
    0.00000E+00         0.00000E+00        -0.13897E+08
 
   -0.14622E+08         0.31388E+07         0.00000E+00
    0.31388E+07        -0.25188E+08         0.00000E+00
    0.00000E+00         0.00000E+00        -0.13847E+08
 
   -0.14316E+08         0.42672E+07         0.00000E+00
    0.42672E+07        -0.25280E+08         0.00000E+00
    0.00000E+00         0.00000E+00        -0.13804E+08
 
   -0.14050E+08         0.55077E+07         0.00000E+00
    0.55077E+07        -0.25369E+08         0.00000E+00
    0.00000E+00         0.00000E+00        -0.13769E+08
 
   -0.13829E+08         0.68489E+07         0.00000E+00
    0.68489E+07        -0.25453E+08         0.00000E+00
    0.00000E+00         0.00000E+00        -0.13742E+08
 
   -0.21860E+08        -0.28516E+06         0.00000E+00
   -0.28516E+06        -0.26308E+08         0.00000E+00
    0.00000E+00         0.00000E+00        -0.15525E+08
 
   -0.21337E+08        -0.74475E+06         0.00000E+00
   -0.74475E+06        -0.26350E+08         0.00000E+00
    0.00000E+00         0.00000E+00        -0.15430E+08
 
   -0.20754E+08        -0.10482E+07         0.00000E+00
   -0.10482E+07        -0.26423E+08         0.00000E+00
    0.00000E+00         0.00000E+00        -0.15329E+08
 
   -0.20137E+08        -0.11916E+07         0.00000E+00
   -0.11916E+07        -0.26514E+08         0.00000E+00
    0.00000E+00         0.00000E+00        -0.15224E+08
 
   -0.19505E+08        -0.11755E+07         0.00000E+00
   -0.11755E+07        -0.26616E+08         0.00000E+00
    0.00000E+00         0.00000E+00        -0.15117E+08
 
   -0.18876E+08        -0.10033E+07         0.00000E+00
   -0.10033E+07        -0.26722E+08         0.00000E+00
    0.00000E+00         0.00000E+00        -0.15011E+08
 
   -0.18259E+08        -0.68012E+06         0.00000E+00
   -0.68012E+06        -0.26831E+08         0.00000E+00
    0.00000E+00         0.00000E+00        -0.14909E+08
 
   -0.17663E+08        -0.21111E+06         0.00000E+00
   -0.21111E+06        -0.26941E+08         0.00000E+00
    0.00000E+00         0.00000E+00        -0.14810E+08
 
   -0.17093E+08         0.39873E+06         0.00000E+00
    0.39873E+06        -0.27054E+08         0.00000E+00
    0.00000E+00         0.00000E+00        -0.14718E+08
 
   -0.16554E+08         0.11450E+07         0.00000E+00
    0.11450E+07        -0.27169E+08         0.00000E+00
    0.00000E+00         0.00000E+00        -0.14632E+08
 
   -0.16049E+08         0.20234E+07         0.00000E+00
    0.20234E+07        -0.27289E+08         0.00000E+00
    0.00000E+00         0.00000E+00        -0.14555E+08
 
   -0.15582E+08         0.30297E+07         0.00000E+00
    0.30297E+07        -0.27414E+08         0.00000E+00
    0.00000E+00         0.00000E+00        -0.14486E+08
 
   -0.15158E+08         0.41583E+07         0.00000E+00
    0.41583E+07        -0.27540E+08         0.00000E+00
    0.00000E+00         0.00000E+00        -0.14427E+08
 
   -0.14784E+08         0.54017E+07         0.00000E+00
    0.54017E+07        -0.27667E+08         0.00000E+00
    0.00000E+00         0.00000E+00        -0.14378E+08
 
   -0.14467E+08         0.67492E+07         0.00000E+00
    0.67492E+07        -0.27789E+08         0.00000E+00
    0.00000E+00         0.00000E+00        -0.14340E+08
 
   -0.24446E+08        -0.31053E+06         0.00000E+00
   -0.31053E+06        -0.28339E+08         0.00000E+00
    0.00000E+00         0.00000E+00        -0.16456E+08
 
   -0.23763E+08        -0.80886E+06         0.00000E+00
   -0.80886E+06        -0.28387E+08         0.00000E+00
    0.00000E+00         0.00000E+00        -0.16329E+08
 
   -0.23016E+08        -0.11371E+07         0.00000E+00
   -0.11371E+07        -0.28468E+08         0.00000E+00
    0.00000E+00         0.00000E+00        -0.16196E+08
 
   -0.22234E+08        -0.12945E+07         0.00000E+00
   -0.12945E+07        -0.28569E+08         0.00000E+00
    0.00000E+00         0.00000E+00        -0.16059E+08
 
   -0.21442E+08        -0.12852E+07         0.00000E+00
   -0.12852E+07        -0.28679E+08         0.00000E+00
    0.00000E+00         0.00000E+00        -0.15921E+08
 
   -0.20657E+08        -0.11161E+07         0.00000E+00
   -0.11161E+07        -0.28794E+08         0.00000E+00
    0.00000E+00         0.00000E+00        -0.15785E+08
 
   -0.19892E+08        -0.79486E+06         0.00000E+00
   -0.79486E+06        -0.28912E+08         0.00000E+00
    0.00000E+00         0.00000E+00        -0.15654E+08
 
   -0.19153E+08        -0.32873E+06         0.00000E+00
   -0.32873E+06        -0.29033E+08         0.00000E+00
    0.00000E+00         0.00000E+00        -0.15529E+08
 
   -0.18446E+08         0.27644E+06         0.00000E+00
    0.27644E+06        -0.29159E+08         0.00000E+00
    0.00000E+00         0.00000E+00        -0.15411E+08
 
   -0.17773E+08         0.10163E+07         0.00000E+00
    0.10163E+07        -0.29293E+08         0.00000E+00
    0.00000E+00         0.00000E+00        -0.15303E+08
 
   -0.17138E+08         0.18876E+07         0.00000E+00
    0.18876E+07        -0.29437E+08         0.00000E+00
    0.00000E+00         0.00000E+00        -0.15204E+08
 
   -0.16545E+08         0.28877E+07         0.00000E+00
    0.28877E+07        -0.29591E+08         0.00000E+00
    0.00000E+00         0.00000E+00        -0.15116E+08
 
   -0.16000E+08         0.40127E+07         0.00000E+00
    0.40127E+07        -0.29753E+08         0.00000E+00
    0.00000E+00         0.00000E+00        -0.15041E+08
 
   -0.15514E+08         0.52571E+07         0.00000E+00
    0.52571E+07        -0.29917E+08         0.00000E+00
    0.00000E+00         0.00000E+00        -0.14978E+08
 
   -0.15097E+08         0.66113E+07         0.00000E+00
    0.66113E+07        -0.30079E+08         0.00000E+00
    0.00000E+00         0.00000E+00        -0.14928E+08
 
   -0.27082E+08        -0.33927E+06         0.00000E+00
   -0.33927E+06        -0.30369E+08         0.00000E+00
    0.00000E+00         0.00000E+00        -0.17397E+08
 
   -0.26223E+08        -0.88010E+06         0.00000E+00
   -0.88010E+06        -0.30422E+08         0.00000E+00
    0.00000E+00         0.00000E+00        -0.17235E+08
 
   -0.25297E+08        -0.12337E+07         0.00000E+00
   -0.12337E+07        -0.30509E+08         0.00000E+00
    0.00000E+00         0.00000E+00        -0.17066E+08
 
   -0.24340E+08        -0.14040E+07         0.00000E+00
   -0.14040E+07        -0.30614E+08         0.00000E+00
    0.00000E+00         0.00000E+00        -0.16894E+08
 
   -0.23382E+08        -0.14001E+07         0.00000E+00
   -0.14001E+07        -0.30727E+08         0.00000E+00
    0.00000E+00         0.00000E+00        -0.16723E+08
 
   -0.22441E+08        -0.12333E+07         0.00000E+00
   -0.12333E+07        -0.30842E+08         0.00000E+00
    0.00000E+00         0.00000E+00        -0.16555E+08
 
   -0.21528E+08        -0.91487E+06         0.00000E+00
   -0.91487E+06        -0.30960E+08         0.00000E+00
    0.00000E+00         0.00000E+00        -0.16394E+08
 
   -0.20650E+08        -0.45429E+06         0.00000E+00
   -0.45429E+06        -0.31083E+08         0.00000E+00
    0.00000E+00         0.00000E+00        -0.16240E+08
 
   -0.19808E+08         0.14174E+06         0.00000E+00
    0.14174E+06        -0.31215E+08         0.00000E+00
    0.00000E+00         0.00000E+00        -0.16097E+08
 
   -0.19003E+08         0.86933E+06         0.00000E+00
    0.86933E+06        -0.31362E+08         0.00000E+00
    0.00000E+00         0.00000E+00        -0.15964E+08
 
   -0.18238E+08         0.17269E+07         0.00000E+00
    0.17269E+07        -0.31525E+08         0.00000E+00
    0.00000E+00         0.00000E+00        -0.15844E+08
 
   -0.17516E+08         0.27141E+07         0.00000E+00
    0.27141E+07        -0.31705E+08         0.00000E+00
    0.00000E+00         0.00000E+00        -0.15736E+08
 
   -0.16846E+08         0.38301E+07         0.00000E+00
    0.38301E+07        -0.31901E+08         0.00000E+00
    0.00000E+00         0.00000E+00        -0.15643E+08
 
   -0.16241E+08         0.50721E+07         0.00000E+00
    0.50721E+07        -0.32105E+08         0.00000E+00
    0.00000E+00         0.00000E+00        -0.15564E+08
 
   -0.15716E+08         0.64327E+07         0.00000E+00
    0.64327E+07        -0.32309E+08         0.00000E+00
    0.00000E+00         0.00000E+00        -0.15503E+08
 
   -0.29773E+08        -0.37079E+06         0.00000E+00
   -0.37079E+06        -0.32399E+08         0.00000E+00
    0.00000E+00         0.00000E+00        -0.18350E+08
 
   -0.28716E+08        -0.95605E+06         0.00000E+00
   -0.95605E+06        -0.32455E+08         0.00000E+00
    0.00000E+00         0.00000E+00        -0.18148E+08
 
   -0.27595E+08        -0.13334E+07         0.00000E+00
   -0.13334E+07        -0.32544E+08         0.00000E+00
    0.00000E+00         0.00000E+00        -0.17939E+08
 
   -0.26454E+08        -0.15132E+07         0.00000E+00
   -0.15132E+07        -0.32647E+08         0.00000E+00
    0.00000E+00         0.00000E+00        -0.17728E+08
 
   -0.25325E+08        -0.15113E+07         0.00000E+00
   -0.15113E+07        -0.32753E+08         0.00000E+00
    0.00000E+00         0.00000E+00        -0.17520E+08
 
   -0.24227E+08        -0.13451E+07         0.00000E+00
   -0.13451E+07        -0.32858E+08         0.00000E+00
    0.00000E+00         0.00000E+00        -0.17319E+08
 
   -0.23170E+08        -0.10301E+07         0.00000E+00
   -0.10301E+07        -0.32965E+08         0.00000E+00
    0.00000E+00         0.00000E+00        -0.17126E+08
 
   -0.22156E+08        -0.57838E+06         0.00000E+00
   -0.57838E+06        -0.33079E+08         0.00000E+00
    0.00000E+00         0.00000E+00        -0.16943E+08
 
   -0.21183E+08         0.27953E+04         0.00000E+00
    0.27953E+04        -0.33207E+08         0.00000E+00
    0.00000E+00         0.00000E+00        -0.16773E+08
 
   -0.20250E+08         0.71042E+06         0.00000E+00
    0.71042E+06        -0.33357E+08         0.00000E+00
    0.00000E+00         0.00000E+00        -0.16615E+08
 
   -0.19356E+08         0.15452E+07         0.00000E+00
    0.15452E+07        -0.33534E+08         0.00000E+00
    0.00000E+00         0.00000E+00        -0.16472E+08
 
   -0.18503E+08         0.25104E+07         0.00000E+00
    0.25104E+07        -0.33739E+08         0.00000E+00
    0.00000E+00         0.00000E+00        -0.16343E+08
 
   -0.17702E+08         0.36095E+07         0.00000E+00
    0.36095E+07        -0.33968E+08         0.00000E+00
    0.00000E+00         0.00000E+00        -0.16231E+08
 
   -0.16969E+08         0.48437E+07         0.00000E+00
    0.48437E+07        -0.34215E+08         0.00000E+00
    0.00000E+00         0.00000E+00        -0.16136E+08
 
   -0.16324E+08         0.62093E+07         0.00000E+00
    0.62093E+07        -0.34465E+08         0.00000E+00
    0.00000E+00         0.00000E+00        -0.16060E+08
 
   -0.32523E+08        -0.40429E+06         0.00000E+00
   -0.40429E+06        -0.34430E+08         0.00000E+00
    0.00000E+00         0.00000E+00        -0.19314E+08
 
   -0.31241E+08        -0.10335E+07         0.00000E+00
   -0.10335E+07        -0.34486E+08         0.00000E+00
    0.00000E+00         0.00000E+00        -0.19066E+08
 
   -0.29906E+08        -0.14297E+07         0.00000E+00
   -0.14297E+07        -0.34571E+08         0.00000E+00
    0.00000E+00         0.00000E+00        -0.18812E+08
 
   -0.28570E+08        -0.16126E+07         0.00000E+00
   -0.16126E+07        -0.34662E+08         0.00000E+00
    0.00000E+00         0.00000E+00        -0.18559E+08
 
   -0.27267E+08        -0.16073E+07         0.00000E+00
   -0.16073E+07        -0.34749E+08         0.00000E+00
    0.00000E+00         0.00000E+00        -0.18312E+08
 
   -0.26015E+08        -0.14389E+07         0.00000E+00
   -0.14389E+07        -0.34830E+08         0.00000E+00
    0.00000E+00         0.00000E+00        -0.18074E+08
 
   -0.24819E+08        -0.11282E+07         0.00000E+00
   -0.11282E+07        -0.34912E+08         0.00000E+00
    0.00000E+00         0.00000E+00        -0.17848E+08
 
   -0.23677E+08        -0.68948E+06         0.00000E+00
   -0.68948E+06        -0.35004E+08         0.00000E+00
    0.00000E+00         0.00000E+00        -0.17635E+08
 
   -0.22581E+08        -0.13055E+06         0.00000E+00
   -0.13055E+06        -0.35117E+08         0.00000E+00
    0.00000E+00         0.00000E+00        -0.17437E+08
 
   -0.21525E+08         0.54712E+06         0.00000E+00
    0.54712E+06        -0.35262E+08         0.00000E+00
    0.00000E+00         0.00000E+00        -0.17254E+08
 
   -0.20503E+08         0.13474E+07         0.00000E+00
    0.13474E+07        -0.35445E+08         0.00000E+00
    0.00000E+00         0.00000E+00        -0.17086E+08
 
   -0.19517E+08         0.22781E+07         0.00000E+00
    0.22781E+07        -0.35671E+08         0.00000E+00
    0.00000E+00         0.00000E+00        -0.16936E+08
 
   -0.18576E+08         0.33488E+07         0.00000E+00
    0.33488E+07        -0.35935E+08         0.00000E+00
    0.00000E+00         0.00000E+00        -0.16803E+08
 
   -0.17701E+08         0.45671E+07         0.00000E+00
    0.45671E+07        -0.36228E+08         0.00000E+00
    0.00000E+00         0.00000E+00        -0.16690E+08
 
   -0.16920E+08         0.59348E+07         0.00000E+00
    0.59348E+07        -0.36532E+08         0.00000E+00
    0.00000E+00         0.00000E+00        -0.16598E+08
 
   -0.35332E+08        -0.43885E+06         0.00000E+00
   -0.43885E+06        -0.36460E+08         0.00000E+00
    0.00000E+00         0.00000E+00        -0.20291E+08
 
   -0.33794E+08        -0.11079E+07         0.00000E+00
   -0.11079E+07        -0.36514E+08         0.00000E+00
    0.00000E+00         0.00000E+00        -0.19989E+08
 
   -0.32223E+08        -0.15137E+07         0.00000E+00
   -0.15137E+07        -0.36587E+08         0.00000E+00
    0.00000E+00         0.00000E+00        -0.19685E+08
 
   -0.30681E+08        -0.16893E+07         0.00000E+00
   -0.16893E+07        -0.36654E+08         0.00000E+00
    0.00000E+00         0.00000E+00        -0.19384E+08
 
   -0.29203E+08        -0.16730E+07         0.00000E+00
   -0.16730E+07        -0.36706E+08         0.00000E+00
    0.00000E+00         0.00000E+00        -0.19094E+08
 
   -0.27803E+08        -0.14992E+07         0.00000E+00
   -0.14992E+07        -0.36746E+08         0.00000E+00
    0.00000E+00         0.00000E+00        -0.18817E+08
 
   -0.26479E+08        -0.11941E+07         0.00000E+00
   -0.11941E+07        -0.36786E+08         0.00000E+00
    0.00000E+00         0.00000E+00        -0.18557E+08
 
   -0.25220E+08        -0.77425E+06         0.00000E+00
   -0.77425E+06        -0.36841E+08         0.00000E+00
    0.00000E+00         0.00000E+00        -0.18314E+08
 
   -0.24012E+08        -0.24701E+06         0.00000E+00
   -0.24701E+06        -0.36926E+08         0.00000E+00
    0.00000E+00         0.00000E+00        -0.18088E+08
 
   -0.22840E+08         0.38811E+06         0.00000E+00
    0.38811E+06        -0.37054E+08         0.00000E+00
    0.00000E+00         0.00000E+00        -0.17879E+08
 
   -0.21694E+08         0.11387E+07         0.00000E+00
    0.11387E+07        -0.37237E+08         0.00000E+00
    0.00000E+00         0.00000E+00        -0.17687E+08
 
   -0.20571E+08         0.20186E+07         0.00000E+00
    0.20186E+07        -0.37480E+08         0.00000E+00
    0.00000E+00         0.00000E+00        -0.17512E+08
 
   -0.19481E+08         0.30451E+07         0.00000E+00
    0.30451E+07        -0.37780E+08         0.00000E+00
    0.00000E+00         0.00000E+00        -0.17357E+08
 
   -0.18445E+08         0.42353E+07         0.00000E+00
    0.42353E+07        -0.38126E+08         0.00000E+00
    0.00000E+00         0.00000E+00        -0.17223E+08
 
   -0.17504E+08         0.55996E+07         0.00000E+00
    0.55996E+07        -0.38494E+08         0.00000E+00
    0.00000E+00         0.00000E+00        -0.17112E+08
 
   -0.38198E+08        -0.47328E+06         0.00000E+00
   -0.47328E+06        -0.38490E+08         0.00000E+00
    0.00000E+00         0.00000E+00        -0.21279E+08
 
   -0.36364E+08        -0.11731E+07         0.00000E+00
   -0.11731E+07        -0.38537E+08         0.00000E+00
    0.00000E+00         0.00000E+00        -0.20915E+08
 
   -0.34532E+08        -0.15727E+07         0.00000E+00
   -0.15727E+07        -0.38587E+08         0.00000E+00
    0.00000E+00         0.00000E+00        -0.20552E+08
 
   -0.32775E+08        -0.17261E+07         0.00000E+00
   -0.17261E+07        -0.38611E+08         0.00000E+00
    0.00000E+00         0.00000E+00        -0.20199E+08
 
   -0.31126E+08        -0.16892E+07         0.00000E+00
   -0.16892E+07        -0.38607E+08         0.00000E+00
    0.00000E+00         0.00000E+00        -0.19862E+08
 
   -0.29591E+08        -0.15074E+07         0.00000E+00
   -0.15074E+07        -0.38586E+08         0.00000E+00
    0.00000E+00         0.00000E+00        -0.19546E+08
 
   -0.28154E+08        -0.12113E+07         0.00000E+00
   -0.12113E+07        -0.38566E+08         0.00000E+00
    0.00000E+00         0.00000E+00        -0.19251E+08
 
   -0.26794E+08        -0.81825E+06         0.00000E+00
   -0.81825E+06        -0.38568E+08         0.00000E+00
    0.00000E+00         0.00000E+00        -0.18977E+08
 
   -0.25486E+08        -0.33447E+06         0.00000E+00
   -0.33447E+06        -0.38611E+08         0.00000E+00
    0.00000E+00         0.00000E+00        -0.18723E+08
 
   -0.24209E+08         0.24294E+06         0.00000E+00
    0.24294E+06        -0.38713E+08         0.00000E+00
    0.00000E+00         0.00000E+00        -0.18488E+08
 
   -0.22946E+08         0.92551E+06         0.00000E+00
    0.92551E+06        -0.38887E+08         0.00000E+00
    0.00000E+00         0.00000E+00        -0.18271E+08
 
   -0.21685E+08         0.17334E+07         0.00000E+00
    0.17334E+07        -0.39142E+08         0.00000E+00
    0.00000E+00         0.00000E+00        -0.18072E+08
 
   -0.20432E+08         0.26941E+07         0.00000E+00
    0.26941E+07        -0.39479E+08         0.00000E+00
    0.00000E+00         0.00000E+00        -0.17892E+08
 
   -0.19214E+08         0.38381E+07         0.00000E+00
    0.38381E+07        -0.39886E+08         0.00000E+00
    0.00000E+00         0.00000E+00        -0.17734E+08
 
   -0.18079E+08         0.51899E+07         0.00000E+00
    0.51899E+07        -0.40332E+08         0.00000E+00
    0.00000E+00         0.00000E+00        -0.17601E+08
 
   -0.41117E+08        -0.50597E+06         0.00000E+00
   -0.50597E+06        -0.40520E+08         0.00000E+00
    0.00000E+00         0.00000E+00        -0.22278E+08
 
   -0.38933E+08        -0.12190E+07         0.00000E+00
   -0.12190E+07        -0.40553E+08         0.00000E+00
    0.00000E+00         0.00000E+00        -0.21839E+08
 
   -0.36812E+08        -0.15875E+07         0.00000E+00
   -0.15875E+07        -0.40560E+08         0.00000E+00
    0.00000E+00         0.00000E+00        -0.21408E+08
 
   -0.34838E+08        -0.16990E+07         0.00000E+00
   -0.16990E+07        -0.40516E+08         0.00000E+00
    0.00000E+00         0.00000E+00        -0.20996E+08
 
   -0.33033E+08        -0.16326E+07         0.00000E+00
   -0.16326E+07        -0.40429E+08         0.00000E+00
    0.00000E+00         0.00000E+00        -0.20611E+08
 
   -0.31381E+08        -0.14432E+07         0.00000E+00
   -0.14432E+07        -0.40323E+08         0.00000E+00
    0.00000E+00         0.00000E+00        -0.20255E+08
 
   -0.29852E+08        -0.11630E+07         0.00000E+00
   -0.11630E+07        -0.40225E+08         0.00000E+00
    0.00000E+00         0.00000E+00        -0.19926E+08
 
   -0.28409E+08        -0.80766E+06         0.00000E+00
   -0.80766E+06        -0.40161E+08         0.00000E+00
    0.00000E+00         0.00000E+00        -0.19623E+08
 
   -0.27020E+08        -0.38123E+06         0.00000E+00
   -0.38123E+06        -0.40150E+08         0.00000E+00
    0.00000E+00         0.00000E+00        -0.19342E+08
 
   -0.25653E+08         0.12149E+06         0.00000E+00
    0.12149E+06        -0.40215E+08         0.00000E+00
    0.00000E+00         0.00000E+00        -0.19082E+08
 
   -0.24280E+08         0.71505E+06         0.00000E+00
    0.71505E+06        -0.40370E+08         0.00000E+00
    0.00000E+00         0.00000E+00        -0.18840E+08
 
   -0.22883E+08         0.14253E+07         0.00000E+00
    0.14253E+07        -0.40632E+08         0.00000E+00
    0.00000E+00         0.00000E+00        -0.18615E+08
 
   -0.21457E+08         0.22911E+07         0.00000E+00
    0.22911E+07        -0.41007E+08         0.00000E+00
    0.00000E+00         0.00000E+00        -0.18408E+08
 
   -0.20024E+08         0.33621E+07         0.00000E+00
    0.33621E+07        -0.41484E+08         0.00000E+00
    0.00000E+00         0.00000E+00        -0.18221E+08
 
   -0.18649E+08         0.46859E+07         0.00000E+00
    0.46859E+07        -0.42028E+08         0.00000E+00
    0.00000E+00         0.00000E+00        -0.18060E+08
 
   -0.44075E+08        -0.53422E+06         0.00000E+00
   -0.53422E+06        -0.42548E+08         0.00000E+00
    0.00000E+00         0.00000E+00        -0.23285E+08
 
   -0.41470E+08        -0.12280E+07         0.00000E+00
   -0.12280E+07        -0.42553E+08         0.00000E+00
    0.00000E+00         0.00000E+00        -0.22753E+08
 
   -0.39038E+08        -0.15276E+07         0.00000E+00
   -0.15276E+07        -0.42486E+08         0.00000E+00
    0.00000E+00         0.00000E+00        -0.22243E+08
 
   -0.36859E+08        -0.15756E+07         0.00000E+00
   -0.15756E+07        -0.42335E+08         0.00000E+00
    0.00000E+00         0.00000E+00        -0.21768E+08
 
   -0.34923E+08        -0.14763E+07         0.00000E+00
   -0.14763E+07        -0.42133E+08         0.00000E+00
    0.00000E+00         0.00000E+00        -0.21333E+08
 
   -0.33182E+08        -0.12871E+07         0.00000E+00
   -0.12871E+07        -0.41920E+08         0.00000E+00
    0.00000E+00         0.00000E+00        -0.20938E+08
 
   -0.31584E+08        -0.10353E+07         0.00000E+00
   -0.10353E+07        -0.41731E+08         0.00000E+00
    0.00000E+00         0.00000E+00        -0.20578E+08
 
   -0.30080E+08        -0.73198E+06         0.00000E+00
   -0.73198E+06        -0.41590E+08         0.00000E+00
    0.00000E+00         0.00000E+00        -0.20248E+08
 
   -0.28628E+08        -0.37816E+06         0.00000E+00
   -0.37816E+06        -0.41520E+08         0.00000E+00
    0.00000E+00         0.00000E+00        -0.19943E+08
 
   -0.27188E+08         0.32764E+05         0.00000E+00
    0.32764E+05        -0.41540E+08         0.00000E+00
    0.00000E+00         0.00000E+00        -0.19660E+08
 
   -0.25722E+08         0.51614E+06         0.00000E+00
    0.51614E+06        -0.41669E+08         0.00000E+00
    0.00000E+00         0.00000E+00        -0.19395E+08
 
   -0.24196E+08         0.10999E+07         0.00000E+00
    0.10999E+07        -0.41928E+08         0.00000E+00
    0.00000E+00         0.00000E+00        -0.19144E+08
 
   -0.22588E+08         0.18329E+07         0.00000E+00
    0.18329E+07        -0.42336E+08         0.00000E+00
    0.00000E+00         0.00000E+00        -0.18907E+08
 
   -0.20906E+08         0.27899E+07         0.00000E+00
    0.27899E+07        -0.42894E+08         0.00000E+00
    0.00000E+00         0.00000E+00        -0.18686E+08
 
   -0.19224E+08         0.40582E+07         0.00000E+00
    0.40582E+07        -0.43563E+08         0.00000E+00
    0.00000E+00         0.00000E+00        -0.18488E+08
 
   -0.47044E+08        -0.55169E+06         0.00000E+00
   -0.55169E+06        -0.44573E+08         0.00000E+00
    0.00000E+00         0.00000E+00        -0.24293E+08
 
   -0.43925E+08        -0.11631E+07         0.00000E+00
   -0.11631E+07        -0.44516E+08         0.00000E+00
    0.00000E+00         0.00000E+00        -0.23643E+08
 
   -0.41176E+08        -0.13422E+07         0.00000E+00
   -0.13422E+07        -0.44313E+08         0.00000E+00
    0.00000E+00         0.00000E+00        -0.23040E+08
 
   -0.38831E+08        -0.13161E+07         0.00000E+00
   -0.13161E+07        -0.44002E+08         0.00000E+00
    0.00000E+00         0.00000E+00        -0.22500E+08
 
   -0.36805E+08        -0.11970E+07         0.00000E+00
   -0.11970E+07        -0.43658E+08         0.00000E+00
    0.00000E+00         0.00000E+00        -0.22020E+08
 
   -0.35007E+08        -0.10271E+07         0.00000E+00
   -0.10271E+07        -0.43328E+08         0.00000E+00
    0.00000E+00         0.00000E+00        -0.21590E+08
 
   -0.33365E+08        -0.82240E+06         0.00000E+00
   -0.82240E+06        -0.43045E+08         0.00000E+00
    0.00000E+00         0.00000E+00        -0.21203E+08
 
   -0.31822E+08        -0.58772E+06         0.00000E+00
   -0.58772E+06        -0.42829E+08         0.00000E+00
    0.00000E+00         0.00000E+00        -0.20850E+08
 
   -0.30327E+08        -0.32160E+06         0.00000E+00
   -0.32160E+06        -0.42699E+08         0.00000E+00
    0.00000E+00         0.00000E+00        -0.20526E+08
 
   -0.28833E+08        -0.17412E+05         0.00000E+00
   -0.17412E+05        -0.42673E+08         0.00000E+00
    0.00000E+00         0.00000E+00        -0.20223E+08
 
   -0.27294E+08         0.33802E+06         0.00000E+00
    0.33802E+06        -0.42770E+08         0.00000E+00
    0.00000E+00         0.00000E+00        -0.19936E+08
 
   -0.25660E+08         0.76919E+06         0.00000E+00
    0.76919E+06        -0.43016E+08         0.00000E+00
    0.00000E+00         0.00000E+00        -0.19661E+08
 
   -0.23875E+08         0.13236E+07         0.00000E+00
    0.13236E+07        -0.43441E+08         0.00000E+00
    0.00000E+00         0.00000E+00        -0.19392E+08
 
   -0.21909E+08         0.21020E+07         0.00000E+00
    0.21020E+07        -0.44083E+08         0.00000E+00
    0.00000E+00         0.00000E+00        -0.19131E+08
 
   -0.19823E+08         0.32626E+07         0.00000E+00
    0.32626E+07        -0.44914E+08         0.00000E+00
    0.00000E+00         0.00000E+00        -0.18885E+08
 
   -0.49957E+08        -0.53580E+06         0.00000E+00
   -0.53580E+06        -0.46580E+08         0.00000E+00
    0.00000E+00         0.00000E+00        -0.25285E+08
 
   -0.46216E+08        -0.93539E+06         0.00000E+00
   -0.93539E+06        -0.46362E+08         0.00000E+00
    0.00000E+00         0.00000E+00        -0.24476E+08
 
   -0.43213E+08        -0.95955E+06         0.00000E+00
   -0.95955E+06        -0.45916E+08         0.00000E+00
    0.00000E+00         0.00000E+00        -0.23774E+08
 
   -0.40776E+08        -0.89098E+06         0.00000E+00
   -0.89098E+06        -0.45412E+08         0.00000E+00
    0.00000E+00         0.00000E+00        -0.23177E+08
 
   -0.38705E+08        -0.78804E+06         0.00000E+00
   -0.78804E+06        -0.44925E+08         0.00000E+00
    0.00000E+00         0.00000E+00        -0.22659E+08
 
   -0.36880E+08        -0.66654E+06         0.00000E+00
   -0.66654E+06        -0.44490E+08         0.00000E+00
    0.00000E+00         0.00000E+00        -0.22204E+08
 
   -0.35216E+08        -0.53105E+06         0.00000E+00
   -0.53105E+06        -0.44127E+08         0.00000E+00
    0.00000E+00         0.00000E+00        -0.21797E+08
 
   -0.33650E+08        -0.38172E+06         0.00000E+00
   -0.38172E+06        -0.43850E+08         0.00000E+00
    0.00000E+00         0.00000E+00        -0.21428E+08
 
   -0.32128E+08        -0.21619E+06         0.00000E+00
   -0.21619E+06        -0.43671E+08         0.00000E+00
    0.00000E+00         0.00000E+00        -0.21088E+08
 
   -0.30600E+08        -0.29604E+05         0.00000E+00
   -0.29604E+05        -0.43607E+08         0.00000E+00
    0.00000E+00         0.00000E+00        -0.20771E+08
 
   -0.29013E+08         0.18666E+06         0.00000E+00
    0.18666E+06        -0.43673E+08         0.00000E+00
    0.00000E+00         0.00000E+00        -0.20469E+08
 
   -0.27301E+08         0.44853E+06         0.00000E+00
    0.44853E+06        -0.43897E+08         0.00000E+00
    0.00000E+00         0.00000E+00        -0.20174E+08
 
   -0.25382E+08         0.78863E+06         0.00000E+00
    0.78863E+06        -0.44318E+08         0.00000E+00
    0.00000E+00         0.00000E+00        -0.19877E+08
 
   -0.23123E+08         0.12894E+07         0.00000E+00
    0.12894E+07        -0.45004E+08         0.00000E+00
    0.00000E+00         0.00000E+00        -0.19566E+08
 
   -0.20496E+08         0.22236E+07         0.00000E+00
    0.22236E+07        -0.46052E+08         0.00000E+00
    0.00000E+00         0.00000E+00        -0.19254E+08
 
   -0.52628E+08        -0.33773E+06         0.00000E+00
   -0.33773E+06        -0.48392E+08         0.00000E+00
    0.00000E+00         0.00000E+00        -0.26191E+08
 
   -0.48287E+08        -0.38673E+06         0.00000E+00
   -0.38673E+06        -0.47773E+08         0.00000E+00
    0.00000E+00         0.00000E+00        -0.25179E+08
 
   -0.45208E+08        -0.35463E+06         0.00000E+00
   -0.35463E+06        -0.47081E+08         0.00000E+00
    0.00000E+00         0.00000E+00        -0.24413E+08
 
   -0.42743E+08        -0.31750E+06         0.00000E+00
   -0.31750E+06        -0.46431E+08         0.00000E+00
    0.00000E+00         0.00000E+00        -0.23781E+08
 
   -0.40659E+08        -0.27596E+06         0.00000E+00
   -0.27596E+06        -0.45850E+08         0.00000E+00
    0.00000E+00         0.00000E+00        -0.23243E+08
 
   -0.38824E+08        -0.23142E+06         0.00000E+00
   -0.23142E+06        -0.45351E+08         0.00000E+00
    0.00000E+00         0.00000E+00        -0.22774E+08
 
   -0.37152E+08        -0.18379E+06         0.00000E+00
   -0.18379E+06        -0.44942E+08         0.00000E+00
    0.00000E+00         0.00000E+00        -0.22356E+08
 
   -0.35576E+08        -0.13243E+06         0.00000E+00
   -0.13243E+06        -0.44630E+08         0.00000E+00
    0.00000E+00         0.00000E+00        -0.21978E+08
 
   -0.34043E+08        -0.76224E+05         0.00000E+00
   -0.76224E+05        -0.44425E+08         0.00000E+00
    0.00000E+00         0.00000E+00        -0.21632E+08
 
   -0.32499E+08        -0.13390E+05         0.00000E+00
   -0.13390E+05        -0.44338E+08         0.00000E+00
    0.00000E+00         0.00000E+00        -0.21307E+08
 
   -0.30887E+08         0.59027E+05         0.00000E+00
    0.59027E+05        -0.44385E+08         0.00000E+00
    0.00000E+00         0.00000E+00        -0.20996E+08
 
   -0.29136E+08         0.14632E+06         0.00000E+00
    0.14632E+06        -0.44592E+08         0.00000E+00
    0.00000E+00         0.00000E+00        -0.20690E+08
 
   -0.27144E+08         0.25996E+06         0.00000E+00
    0.25996E+06        -0.44999E+08         0.00000E+00
    0.00000E+00         0.00000E+00        -0.20376E+08
 
   -0.24726E+08         0.42597E+06         0.00000E+00
    0.42597E+06        -0.45685E+08         0.00000E+00
    0.00000E+00         0.00000E+00        -0.20033E+08
 
   -0.21365E+08         0.81561E+06         0.00000E+00
    0.81561E+06        -0.46867E+08         0.00000E+00
    0.00000E+00         0.00000E+00        -0.19599E+08
 
TENSORS stresstot double 
   -0.50709E+08         0.16669E+06         0.00000E+00
    0.16669E+06        -0.59250E+08         0.00000E+00
    0.00000E+00         0.00000E+00        -0.63122E+08
 
   -0.50563E+08         0.16339E+06         0.00000E+00
    0.16339E+06        -0.58843E+08         0.00000E+00
    0.00000E+00         0.00000E+00        -0.62884E+08
 
   -0.50781E+08         0.80140E+04         0.00000E+00
    0.80140E+04        -0.58788E+08         0.00000E+00
    0.00000E+00         0.00000E+00        -0.63267E+08
 
   -0.51445E+08        -0.19659E+06         0.00000E+00
   -0.19659E+06        -0.59169E+08         0.00000E+00
    0.00000E+00         0.00000E+00        -0.64370E+08
 
   -0.52719E+08        -0.35488E+06         0.00000E+00
   -0.35488E+06        -0.59842E+08         0.00000E+00
    0.00000E+00         0.00000E+00        -0.66382E+08
 
   -0.54331E+08        -0.34836E+06         0.00000E+00
   -0.34836E+06        -0.60621E+08         0.00000E+00
    0.00000E+00         0.00000E+00        -0.68765E+08
 
   -0.56048E+08        -0.34852E+06         0.00000E+00
   -0.34852E+06        -0.61300E+08         0.00000E+00
    0.00000E+00         0.00000E+00        -0.71036E+08
 
   -0.58332E+08        -0.35971E+06         0.00000E+00
   -0.35971E+06        -0.61970E+08         0.00000E+00
    0.00000E+00         0.00000E+00        -0.72045E+08
 
   -0.60275E+08        -0.24194E+06         0.00000E+00
   -0.24194E+06        -0.62526E+08         0.00000E+00
    0.00000E+00         0.00000E+00        -0.72547E+08
 
   -0.62010E+08        -0.13349E+06         0.00000E+00
   -0.13349E+06        -0.62880E+08         0.00000E+00
    0.00000E+00         0.00000E+00        -0.72966E+08
 
   -0.63712E+08        -0.29172E+05         0.00000E+00
   -0.29172E+05        -0.63030E+08         0.00000E+00
    0.00000E+00         0.00000E+00        -0.73337E+08
 
   -0.65492E+08         0.80466E+05         0.00000E+00
    0.80466E+05        -0.62971E+08         0.00000E+00
    0.00000E+00         0.00000E+00        -0.73681E+08
 
   -0.67470E+08         0.20958E+06         0.00000E+00
    0.20958E+06        -0.62677E+08         0.00000E+00
    0.00000E+00         0.00000E+00        -0.74016E+08
 
   -0.69830E+08         0.38524E+06         0.00000E+00
    0.38524E+06        -0.62080E+08         0.00000E+00
    0.00000E+00         0.00000E+00        -0.74366E+08
 
   -0.73085E+08         0.77913E+06         0.00000E+00
    0.77913E+06        -0.60972E+08         0.00000E+00
    0.00000E+00         0.00000E+00        -0.74791E+08
 
   -0.50406E+08         0.38330E+06         0.00000E+00
    0.38330E+06        -0.60077E+08         0.00000E+00
    0.00000E+00         0.00000E+00        -0.63919E+08
 
   -0.50685E+08         0.33327E+06         0.00000E+00
    0.33327E+06        -0.60286E+08         0.00000E+00
    0.00000E+00         0.00000E+00        -0.64427E+08
 
   -0.51048E+08        -0.84045E+04         0.00000E+00
   -0.84045E+04        -0.60399E+08         0.00000E+00
    0.00000E+00         0.00000E+00        -0.65119E+08
 
   -0.51770E+08        -0.40313E+06         0.00000E+00
   -0.40313E+06        -0.60407E+08         0.00000E+00
    0.00000E+00         0.00000E+00        -0.66315E+08
 
   -0.52893E+08        -0.70706E+06         0.00000E+00
   -0.70706E+06        -0.60400E+08         0.00000E+00
    0.00000E+00         0.00000E+00        -0.67932E+08
 
   -0.54274E+08        -0.86714E+06         0.00000E+00
   -0.86714E+06        -0.60499E+08         0.00000E+00
    0.00000E+00         0.00000E+00        -0.69470E+08
 
   -0.56213E+08        -0.91736E+06         0.00000E+00
   -0.91736E+06        -0.60869E+08         0.00000E+00
    0.00000E+00         0.00000E+00        -0.70182E+08
 
   -0.58175E+08        -0.87038E+06         0.00000E+00
   -0.87038E+06        -0.61243E+08         0.00000E+00
    0.00000E+00         0.00000E+00        -0.70652E+08
 
   -0.60079E+08        -0.62393E+06         0.00000E+00
   -0.62393E+06        -0.61559E+08         0.00000E+00
    0.00000E+00         0.00000E+00        -0.71098E+08
 
   -0.61813E+08        -0.34312E+06         0.00000E+00
   -0.34312E+06        -0.61774E+08         0.00000E+00
    0.00000E+00         0.00000E+00        -0.71489E+08
 
   -0.63507E+08        -0.51849E+05         0.00000E+00
   -0.51849E+05        -0.61840E+08         0.00000E+00
    0.00000E+00         0.00000E+00        -0.71841E+08
 
   -0.65262E+08         0.26637E+06         0.00000E+00
    0.26637E+06        -0.61726E+08         0.00000E+00
    0.00000E+00         0.00000E+00        -0.72169E+08
 
   -0.67178E+08         0.64691E+06         0.00000E+00
    0.64691E+06        -0.61395E+08         0.00000E+00
    0.00000E+00         0.00000E+00        -0.72484E+08
 
   -0.69389E+08         0.11734E+07         0.00000E+00
    0.11734E+07        -0.60782E+08         0.00000E+00
    0.00000E+00         0.00000E+00        -0.72801E+08
 
   -0.71921E+08         0.21175E+07         0.00000E+00
    0.21175E+07        -0.59802E+08         0.00000E+00
    0.00000E+00         0.00000E+00        -0.73108E+08
 
   -0.50086E+08         0.95674E+05         0.00000E+00
    0.95674E+05        -0.60435E+08         0.00000E+00
    0.00000E+00         0.00000E+00        -0.64809E+08
 
   -0.50779E+08         0.20374E+06         0.00000E+00
    0.20374E+06        -0.60823E+08         0.00000E+00
    0.00000E+00         0.00000E+00        -0.66074E+08
 
   -0.51444E+08        -0.58167E+05         0.00000E+00
   -0.58167E+05        -0.60848E+08         0.00000E+00
    0.00000E+00         0.00000E+00        -0.67218E+08
 
   -0.52110E+08        -0.42479E+06         0.00000E+00
   -0.42479E+06        -0.60736E+08         0.00000E+00
    0.00000E+00         0.00000E+00        -0.67986E+08
 
   -0.53189E+08        -0.75269E+06         0.00000E+00
   -0.75269E+06        -0.60677E+08         0.00000E+00
    0.00000E+00         0.00000E+00        -0.68314E+08
 
   -0.54521E+08        -0.10365E+07         0.00000E+00
   -0.10365E+07        -0.60719E+08         0.00000E+00
    0.00000E+00         0.00000E+00        -0.68594E+08
 
   -0.56192E+08        -0.11683E+07         0.00000E+00
   -0.11683E+07        -0.60797E+08         0.00000E+00
    0.00000E+00         0.00000E+00        -0.68947E+08
 
   -0.58005E+08        -0.10610E+07         0.00000E+00
   -0.10610E+07        -0.60892E+08         0.00000E+00
    0.00000E+00         0.00000E+00        -0.69332E+08
 
   -0.59772E+08        -0.79114E+06         0.00000E+00
   -0.79114E+06        -0.60964E+08         0.00000E+00
    0.00000E+00         0.00000E+00        -0.69701E+08
 
   -0.61467E+08        -0.41845E+06         0.00000E+00
   -0.41845E+06        -0.61001E+08         0.00000E+00
    0.00000E+00         0.00000E+00        -0.70049E+08
 
   -0.63125E+08         0.12893E+05         0.00000E+00
    0.12893E+05        -0.60946E+08         0.00000E+00
    0.00000E+00         0.00000E+00        -0.70370E+08
 
   -0.64818E+08         0.50998E+06         0.00000E+00
    0.50998E+06        -0.60753E+08         0.00000E+00
    0.00000E+00         0.00000E+00        -0.70669E+08
 
   -0.66614E+08         0.11154E+07         0.00000E+00
    0.11154E+07        -0.60380E+08         0.00000E+00
    0.00000E+00         0.00000E+00        -0.70952E+08
 
   -0.68552E+08         0.19272E+07         0.00000E+00
    0.19272E+07        -0.59788E+08         0.00000E+00
    0.00000E+00         0.00000E+00        -0.71218E+08
 
   -0.70566E+08         0.30979E+07         0.00000E+00
    0.30979E+07        -0.59006E+08         0.00000E+00
    0.00000E+00         0.00000E+00        -0.71461E+08
 
   -0.49881E+08        -0.81569E+05         0.00000E+00
   -0.81569E+05        -0.60278E+08         0.00000E+00
    0.00000E+00         0.00000E+00        -0.65979E+08
 
   -0.50928E+08        -0.71574E+05         0.00000E+00
   -0.71574E+05        -0.60267E+08         0.00000E+00
    0.00000E+00         0.00000E+00        -0.66545E+08
 
   -0.51742E+08        -0.21276E+06         0.00000E+00
   -0.21276E+06        -0.60423E+08         0.00000E+00
    0.00000E+00         0.00000E+00        -0.66746E+08
 
   -0.52502E+08        -0.49124E+06         0.00000E+00
   -0.49124E+06        -0.60584E+08         0.00000E+00
    0.00000E+00         0.00000E+00        -0.66937E+08
 
   -0.53482E+08        -0.81472E+06         0.00000E+00
   -0.81472E+06        -0.60682E+08         0.00000E+00
    0.00000E+00         0.00000E+00        -0.67158E+08
 
   -0.54730E+08        -0.10606E+07         0.00000E+00
   -0.10606E+07        -0.60717E+08         0.00000E+00
    0.00000E+00         0.00000E+00        -0.67419E+08
 
   -0.56201E+08        -0.11632E+07         0.00000E+00
   -0.11632E+07        -0.60689E+08         0.00000E+00
    0.00000E+00         0.00000E+00        -0.67711E+08
 
   -0.57805E+08        -0.10605E+07         0.00000E+00
   -0.10605E+07        -0.60628E+08         0.00000E+00
    0.00000E+00         0.00000E+00        -0.68023E+08
 
   -0.59428E+08        -0.77468E+06         0.00000E+00
   -0.77468E+06        -0.60557E+08         0.00000E+00
    0.00000E+00         0.00000E+00        -0.68335E+08
 
   -0.61025E+08        -0.35343E+06         0.00000E+00
   -0.35343E+06        -0.60458E+08         0.00000E+00
    0.00000E+00         0.00000E+00        -0.68635E+08
 
   -0.62603E+08         0.17514E+06         0.00000E+00
    0.17514E+06        -0.60296E+08         0.00000E+00
    0.00000E+00         0.00000E+00        -0.68919E+08
 
   -0.64195E+08         0.81138E+06         0.00000E+00
    0.81138E+06        -0.60034E+08         0.00000E+00
    0.00000E+00         0.00000E+00        -0.69184E+08
 
   -0.65829E+08         0.15904E+07         0.00000E+00
    0.15904E+07        -0.59640E+08         0.00000E+00
    0.00000E+00         0.00000E+00        -0.69430E+08
 
   -0.67502E+08         0.25782E+07         0.00000E+00
    0.25782E+07        -0.59104E+08         0.00000E+00
    0.00000E+00         0.00000E+00        -0.69655E+08
 
   -0.69142E+08         0.38528E+07         0.00000E+00
    0.38528E+07        -0.58463E+08         0.00000E+00
    0.00000E+00         0.00000E+00        -0.69851E+08
 
   -0.50008E+08        -0.10587E+06         0.00000E+00
   -0.10587E+06        -0.60036E+08         0.00000E+00
    0.00000E+00         0.00000E+00        -0.65091E+08
 
   -0.51037E+08        -0.28268E+06         0.00000E+00
   -0.28268E+06        -0.60087E+08         0.00000E+00
    0.00000E+00         0.00000E+00        -0.65316E+08
 
   -0.51937E+08        -0.42164E+06         0.00000E+00
   -0.42164E+06        -0.60277E+08         0.00000E+00
    0.00000E+00         0.00000E+00        -0.65541E+08
 
   -0.52779E+08        -0.63763E+06         0.00000E+00
   -0.63763E+06        -0.60447E+08         0.00000E+00
    0.00000E+00         0.00000E+00        -0.65750E+08
 
   -0.53739E+08        -0.87509E+06         0.00000E+00
   -0.87509E+06        -0.60547E+08         0.00000E+00
    0.00000E+00         0.00000E+00        -0.65967E+08
 
   -0.54878E+08        -0.10469E+07         0.00000E+00
   -0.10469E+07        -0.60561E+08         0.00000E+00
    0.00000E+00         0.00000E+00        -0.66202E+08
 
   -0.56182E+08        -0.10864E+07         0.00000E+00
   -0.10864E+07        -0.60504E+08         0.00000E+00
    0.00000E+00         0.00000E+00        -0.66455E+08
 
   -0.57596E+08        -0.95485E+06         0.00000E+00
   -0.95485E+06        -0.60392E+08         0.00000E+00
    0.00000E+00         0.00000E+00        -0.66718E+08
 
   -0.59056E+08        -0.64838E+06         0.00000E+00
   -0.64838E+06        -0.60246E+08         0.00000E+00
    0.00000E+00         0.00000E+00        -0.66982E+08
 
   -0.60521E+08        -0.18695E+06         0.00000E+00
   -0.18695E+06        -0.60067E+08         0.00000E+00
    0.00000E+00         0.00000E+00        -0.67240E+08
 
   -0.61979E+08         0.41193E+06         0.00000E+00
    0.41193E+06        -0.59837E+08         0.00000E+00
    0.00000E+00         0.00000E+00        -0.67486E+08
 
   -0.63437E+08         0.11487E+07         0.00000E+00
    0.11487E+07        -0.59535E+08         0.00000E+00
    0.00000E+00         0.00000E+00        -0.67716E+08
 
   -0.64896E+08         0.20446E+07         0.00000E+00
    0.20446E+07        -0.59142E+08         0.00000E+00
    0.00000E+00         0.00000E+00        -0.67928E+08
 
   -0.66337E+08         0.31365E+07         0.00000E+00
    0.31365E+07        -0.58663E+08         0.00000E+00
    0.00000E+00         0.00000E+00        -0.68117E+08
 
   -0.67700E+08         0.44597E+07         0.00000E+00
    0.44597E+07        -0.58127E+08         0.00000E+00
    0.00000E+00         0.00000E+00        -0.68279E+08
 
   -0.50245E+08        -0.14776E+06         0.00000E+00
   -0.14776E+06        -0.60013E+08         0.00000E+00
    0.00000E+00         0.00000E+00        -0.63920E+08
 
   -0.51223E+08        -0.38770E+06         0.00000E+00
   -0.38770E+06        -0.60084E+08         0.00000E+00
    0.00000E+00         0.00000E+00        -0.64137E+08
 
   -0.52114E+08        -0.58337E+06         0.00000E+00
   -0.58337E+06        -0.60188E+08         0.00000E+00
    0.00000E+00         0.00000E+00        -0.64344E+08
 
   -0.52984E+08        -0.76330E+06         0.00000E+00
   -0.76330E+06        -0.60306E+08         0.00000E+00
    0.00000E+00         0.00000E+00        -0.64547E+08
 
   -0.53912E+08        -0.92386E+06         0.00000E+00
   -0.92386E+06        -0.60378E+08         0.00000E+00
    0.00000E+00         0.00000E+00        -0.64753E+08
 
   -0.54953E+08        -0.10155E+07         0.00000E+00
   -0.10155E+07        -0.60379E+08         0.00000E+00
    0.00000E+00         0.00000E+00        -0.64965E+08
 
   -0.56110E+08        -0.98800E+06         0.00000E+00
   -0.98800E+06        -0.60308E+08         0.00000E+00
    0.00000E+00         0.00000E+00        -0.65186E+08
 
   -0.57356E+08        -0.80880E+06         0.00000E+00
   -0.80880E+06        -0.60179E+08         0.00000E+00
    0.00000E+00         0.00000E+00        -0.65412E+08
 
   -0.58651E+08        -0.46656E+06         0.00000E+00
   -0.46656E+06        -0.60004E+08         0.00000E+00
    0.00000E+00         0.00000E+00        -0.65637E+08
 
   -0.59966E+08         0.34961E+05         0.00000E+00
    0.34961E+05        -0.59789E+08         0.00000E+00
    0.00000E+00         0.00000E+00        -0.65858E+08
 
   -0.61280E+08         0.68899E+06         0.00000E+00
    0.68899E+06        -0.59529E+08         0.00000E+00
    0.00000E+00         0.00000E+00        -0.66069E+08
 
   -0.62586E+08         0.14960E+07         0.00000E+00
    0.14960E+07        -0.59214E+08         0.00000E+00
    0.00000E+00         0.00000E+00        -0.66266E+08
 
   -0.63871E+08         0.24667E+07         0.00000E+00
    0.24667E+07        -0.58840E+08         0.00000E+00
    0.00000E+00         0.00000E+00        -0.66446E+08
 
   -0.65110E+08         0.36180E+07         0.00000E+00
    0.36180E+07        -0.58414E+08         0.00000E+00
    0.00000E+00         0.00000E+00        -0.66606E+08
 
   -0.66258E+08         0.49615E+07         0.00000E+00
    0.49615E+07        -0.57959E+08         0.00000E+00
    0.00000E+00         0.00000E+00        -0.66741E+08
 
   -0.50550E+08        -0.17842E+06         0.00000E+00
   -0.17842E+06        -0.60012E+08         0.00000E+00
    0.00000E+00         0.00000E+00        -0.62766E+08
 
   -0.51453E+08        -0.46461E+06         0.00000E+00
   -0.46461E+06        -0.60055E+08         0.00000E+00
    0.00000E+00         0.00000E+00        -0.62963E+08
 
   -0.52302E+08        -0.68072E+06         0.00000E+00
   -0.68072E+06        -0.60125E+08         0.00000E+00
    0.00000E+00         0.00000E+00        -0.63154E+08
 
   -0.53139E+08        -0.84412E+06         0.00000E+00
   -0.84412E+06        -0.60194E+08         0.00000E+00
    0.00000E+00         0.00000E+00        -0.63341E+08
 
   -0.54013E+08        -0.94987E+06         0.00000E+00
   -0.94987E+06        -0.60231E+08         0.00000E+00
    0.00000E+00         0.00000E+00        -0.63528E+08
 
   -0.54956E+08        -0.97346E+06         0.00000E+00
   -0.97346E+06        -0.60215E+08         0.00000E+00
    0.00000E+00         0.00000E+00        -0.63718E+08
 
   -0.55980E+08        -0.88235E+06         0.00000E+00
   -0.88235E+06        -0.60138E+08         0.00000E+00
    0.00000E+00         0.00000E+00        -0.63911E+08
 
   -0.57072E+08        -0.65093E+06         0.00000E+00
   -0.65093E+06        -0.60006E+08         0.00000E+00
    0.00000E+00         0.00000E+00        -0.64105E+08
 
   -0.58208E+08        -0.26567E+06         0.00000E+00
   -0.26567E+06        -0.59825E+08         0.00000E+00
    0.00000E+00         0.00000E+00        -0.64297E+08
 
   -0.59366E+08         0.27690E+06         0.00000E+00
    0.27690E+06        -0.59603E+08         0.00000E+00
    0.00000E+00         0.00000E+00        -0.64485E+08
 
   -0.60526E+08         0.97612E+06         0.00000E+00
    0.97612E+06        -0.59340E+08         0.00000E+00
    0.00000E+00         0.00000E+00        -0.64664E+08
 
   -0.61674E+08         0.18327E+07         0.00000E+00
    0.18327E+07        -0.59035E+08         0.00000E+00
    0.00000E+00         0.00000E+00        -0.64832E+08
 
   -0.62791E+08         0.28506E+07         0.00000E+00
    0.28506E+07        -0.58690E+08         0.00000E+00
    0.00000E+00         0.00000E+00        -0.64984E+08
 
   -0.63852E+08         0.40346E+07         0.00000E+00
    0.40346E+07        -0.58315E+08         0.00000E+00
    0.00000E+00         0.00000E+00        -0.65119E+08
 
   -0.64824E+08         0.53838E+07         0.00000E+00
    0.53838E+07        -0.57926E+08         0.00000E+00
    0.00000E+00         0.00000E+00        -0.65232E+08
 
   -0.50901E+08        -0.19808E+06         0.00000E+00
   -0.19808E+06        -0.60006E+08         0.00000E+00
    0.00000E+00         0.00000E+00        -0.61621E+08
 
   -0.51712E+08        -0.51323E+06         0.00000E+00
   -0.51323E+06        -0.60033E+08         0.00000E+00
    0.00000E+00         0.00000E+00        -0.61796E+08
 
   -0.52489E+08        -0.73874E+06         0.00000E+00
   -0.73874E+06        -0.60073E+08         0.00000E+00
    0.00000E+00         0.00000E+00        -0.61967E+08
 
   -0.53261E+08        -0.88599E+06         0.00000E+00
   -0.88599E+06        -0.60109E+08         0.00000E+00
    0.00000E+00         0.00000E+00        -0.62134E+08
 
   -0.54057E+08        -0.95224E+06         0.00000E+00
   -0.95224E+06        -0.60119E+08         0.00000E+00
    0.00000E+00         0.00000E+00        -0.62300E+08
 
   -0.54898E+08        -0.92253E+06         0.00000E+00
   -0.92253E+06        -0.60089E+08         0.00000E+00
    0.00000E+00         0.00000E+00        -0.62466E+08
 
   -0.55795E+08        -0.77646E+06         0.00000E+00
   -0.77646E+06        -0.60010E+08         0.00000E+00
    0.00000E+00         0.00000E+00        -0.62633E+08
 
   -0.56741E+08        -0.49533E+06         0.00000E+00
   -0.49533E+06        -0.59882E+08         0.00000E+00
    0.00000E+00         0.00000E+00        -0.62798E+08
 
   -0.57724E+08        -0.66766E+05         0.00000E+00
   -0.66766E+05        -0.59710E+08         0.00000E+00
    0.00000E+00         0.00000E+00        -0.62962E+08
 
   -0.58726E+08         0.51512E+06         0.00000E+00
    0.51512E+06        -0.59498E+08         0.00000E+00
    0.00000E+00         0.00000E+00        -0.63120E+08
 
   -0.59730E+08         0.12521E+07         0.00000E+00
    0.12521E+07        -0.59250E+08         0.00000E+00
    0.00000E+00         0.00000E+00        -0.63271E+08
 
   -0.60720E+08         0.21446E+07         0.00000E+00
    0.21446E+07        -0.58969E+08         0.00000E+00
    0.00000E+00         0.00000E+00        -0.63412E+08
 
   -0.61677E+08         0.31926E+07         0.00000E+00
    0.31926E+07        -0.58661E+08         0.00000E+00
    0.00000E+00         0.00000E+00        -0.63540E+08
 
   -0.62580E+08         0.43940E+07         0.00000E+00
    0.43940E+07        -0.58334E+08         0.00000E+00
    0.00000E+00         0.00000E+00        -0.63653E+08
 
   -0.63403E+08         0.57417E+07         0.00000E+00
    0.57417E+07        -0.58002E+08         0.00000E+00
    0.00000E+00         0.00000E+00        -0.63747E+08
 
   -0.51280E+08        -0.20883E+06         0.00000E+00
   -0.20883E+06        -0.60003E+08         0.00000E+00
    0.00000E+00         0.00000E+00        -0.60483E+08
 
   -0.51985E+08        -0.54015E+06         0.00000E+00
   -0.54015E+06        -0.60016E+08         0.00000E+00
    0.00000E+00         0.00000E+00        -0.60634E+08
 
   -0.52672E+08        -0.76856E+06         0.00000E+00
   -0.76856E+06        -0.60036E+08         0.00000E+00
    0.00000E+00         0.00000E+00        -0.60782E+08
 
   -0.53357E+08        -0.90163E+06         0.00000E+00
   -0.90163E+06        -0.60049E+08         0.00000E+00
    0.00000E+00         0.00000E+00        -0.60927E+08
 
   -0.54059E+08        -0.93741E+06         0.00000E+00
   -0.93741E+06        -0.60043E+08         0.00000E+00
    0.00000E+00         0.00000E+00        -0.61070E+08
 
   -0.54791E+08        -0.86640E+06         0.00000E+00
   -0.86640E+06        -0.60004E+08         0.00000E+00
    0.00000E+00         0.00000E+00        -0.61213E+08
 
   -0.55561E+08        -0.67509E+06         0.00000E+00
   -0.67509E+06        -0.59927E+08         0.00000E+00
    0.00000E+00         0.00000E+00        -0.61354E+08
 
   -0.56366E+08        -0.35032E+06         0.00000E+00
   -0.35032E+06        -0.59810E+08         0.00000E+00
    0.00000E+00         0.00000E+00        -0.61494E+08
 
   -0.57200E+08         0.11787E+06         0.00000E+00
    0.11787E+06        -0.59654E+08         0.00000E+00
    0.00000E+00         0.00000E+00        -0.61630E+08
 
   -0.58049E+08         0.73518E+06         0.00000E+00
    0.73518E+06        -0.59463E+08         0.00000E+00
    0.00000E+00         0.00000E+00        -0.61762E+08
 
   -0.58900E+08         0.15037E+07         0.00000E+00
    0.15037E+07        -0.59241E+08         0.00000E+00
    0.00000E+00         0.00000E+00        -0.61888E+08
 
   -0.59737E+08         0.24231E+07         0.00000E+00
    0.24231E+07        -0.58992E+08         0.00000E+00
    0.00000E+00         0.00000E+00        -0.62005E+08
 
   -0.60544E+08         0.34908E+07         0.00000E+00
    0.34908E+07        -0.58724E+08         0.00000E+00
    0.00000E+00         0.00000E+00        -0.62111E+08
 
   -0.61303E+08         0.47013E+07         0.00000E+00
    0.47013E+07        -0.58444E+08         0.00000E+00
    0.00000E+00         0.00000E+00        -0.62204E+08
 
   -0.61993E+08         0.60445E+07         0.00000E+00
    0.60445E+07        -0.58164E+08         0.00000E+00
    0.00000E+00         0.00000E+00        -0.62283E+08
 
   -0.51673E+08        -0.21346E+06         0.00000E+00
   -0.21346E+06        -0.60001E+08         0.00000E+00
    0.00000E+00         0.00000E+00        -0.59348E+08
 
   -0.52266E+08        -0.55230E+06         0.00000E+00
   -0.55230E+06        -0.60006E+08         0.00000E+00
    0.00000E+00         0.00000E+00        -0.59475E+08
 
   -0.52850E+08        -0.78024E+06         0.00000E+00
   -0.78024E+06        -0.60013E+08         0.00000E+00
    0.00000E+00         0.00000E+00        -0.59599E+08
 
   -0.53433E+08        -0.90129E+06         0.00000E+00
   -0.90129E+06        -0.60014E+08         0.00000E+00
    0.00000E+00         0.00000E+00        -0.59721E+08
 
   -0.54028E+08        -0.91357E+06         0.00000E+00
   -0.91357E+06        -0.59999E+08         0.00000E+00
    0.00000E+00         0.00000E+00        -0.59841E+08
 
   -0.54644E+08        -0.81049E+06         0.00000E+00
   -0.81049E+06        -0.59959E+08         0.00000E+00
    0.00000E+00         0.00000E+00        -0.59960E+08
 
   -0.55285E+08        -0.58291E+06         0.00000E+00
   -0.58291E+06        -0.59890E+08         0.00000E+00
    0.00000E+00         0.00000E+00        -0.60077E+08
 
   -0.55953E+08        -0.22160E+06         0.00000E+00
   -0.22160E+06        -0.59787E+08         0.00000E+00
    0.00000E+00         0.00000E+00        -0.60191E+08
 
   -0.56641E+08         0.28077E+06         0.00000E+00
    0.28077E+06        -0.59653E+08         0.00000E+00
    0.00000E+00         0.00000E+00        -0.60303E+08
 
   -0.57342E+08         0.92861E+06         0.00000E+00
    0.92861E+06        -0.59488E+08         0.00000E+00
    0.00000E+00         0.00000E+00        -0.60411E+08
 
   -0.58044E+08         0.17233E+07         0.00000E+00
    0.17233E+07        -0.59298E+08         0.00000E+00
    0.00000E+00         0.00000E+00        -0.60513E+08
 
   -0.58734E+08         0.26634E+07         0.00000E+00
    0.26634E+07        -0.59087E+08         0.00000E+00
    0.00000E+00         0.00000E+00        -0.60607E+08
 
   -0.59400E+08         0.37447E+07         0.00000E+00
    0.37447E+07        -0.58861E+08         0.00000E+00
    0.00000E+00         0.00000E+00        -0.60694E+08
 
   -0.60024E+08         0.49600E+07         0.00000E+00
    0.49600E+07        -0.58627E+08         0.00000E+00
    0.00000E+00         0.00000E+00        -0.60769E+08
 
   -0.60594E+08         0.62981E+07         0.00000E+00
    0.62981E+07        -0.58394E+08         0.00000E+00
    0.00000E+00         0.00000E+00        -0.60834E+08
 
   -0.52072E+08        -0.21464E+06         0.00000E+00
   -0.21464E+06        -0.60000E+08         0.00000E+00
    0.00000E+00         0.00000E+00        -0.58215E+08
 
   -0.52549E+08        -0.55620E+06         0.00000E+00
   -0.55620E+06        -0.60001E+08         0.00000E+00
    0.00000E+00         0.00000E+00        -0.58317E+08
 
   -0.53021E+08        -0.78239E+06         0.00000E+00
   -0.78239E+06        -0.60002E+08         0.00000E+00
    0.00000E+00         0.00000E+00        -0.58418E+08
 
   -0.53494E+08        -0.89389E+06         0.00000E+00
   -0.89389E+06        -0.59999E+08         0.00000E+00
    0.00000E+00         0.00000E+00        -0.58516E+08
 
   -0.53973E+08        -0.88830E+06         0.00000E+00
   -0.88830E+06        -0.59983E+08         0.00000E+00
    0.00000E+00         0.00000E+00        -0.58613E+08
 
   -0.54466E+08        -0.76063E+06         0.00000E+00
   -0.76063E+06        -0.59949E+08         0.00000E+00
    0.00000E+00         0.00000E+00        -0.58708E+08
 
   -0.54977E+08        -0.50448E+06         0.00000E+00
   -0.50448E+06        -0.59892E+08         0.00000E+00
    0.00000E+00         0.00000E+00        -0.58801E+08
 
   -0.55507E+08        -0.11352E+06         0.00000E+00
   -0.11352E+06        -0.59809E+08         0.00000E+00
    0.00000E+00         0.00000E+00        -0.58891E+08
 
   -0.56053E+08         0.41724E+06         0.00000E+00
    0.41724E+06        -0.59699E+08         0.00000E+00
    0.00000E+00         0.00000E+00        -0.58980E+08
 
   -0.56609E+08         0.10906E+07         0.00000E+00
    0.10906E+07        -0.59566E+08         0.00000E+00
    0.00000E+00         0.00000E+00        -0.59064E+08
 
   -0.57167E+08         0.19067E+07         0.00000E+00
    0.19067E+07        -0.59411E+08         0.00000E+00
    0.00000E+00         0.00000E+00        -0.59144E+08
 
   -0.57716E+08         0.28630E+07         0.00000E+00
    0.28630E+07        -0.59239E+08         0.00000E+00
    0.00000E+00         0.00000E+00        -0.59219E+08
 
   -0.58247E+08         0.39544E+07         0.00000E+00
    0.39544E+07        -0.59055E+08         0.00000E+00
    0.00000E+00         0.00000E+00        -0.59286E+08
 
   -0.58746E+08         0.51726E+07         0.00000E+00
    0.51726E+07        -0.58866E+08         0.00000E+00
    0.00000E+00         0.00000E+00        -0.59346E+08
 
   -0.59204E+08         0.65061E+07         0.00000E+00
    0.65061E+07        -0.58677E+08         0.00000E+00
    0.00000E+00         0.00000E+00        -0.59397E+08
 
   -0.52473E+08        -0.21465E+06         0.00000E+00
   -0.21465E+06        -0.60000E+08         0.00000E+00
    0.00000E+00         0.00000E+00        -0.57082E+08
 
   -0.52833E+08        -0.55739E+06         0.00000E+00
   -0.55739E+06        -0.60001E+08         0.00000E+00
    0.00000E+00         0.00000E+00        -0.57161E+08
 
   -0.53188E+08        -0.78222E+06         0.00000E+00
   -0.78222E+06        -0.60002E+08         0.00000E+00
    0.00000E+00         0.00000E+00        -0.57238E+08
 
   -0.53542E+08        -0.88691E+06         0.00000E+00
   -0.88691E+06        -0.60001E+08         0.00000E+00
    0.00000E+00         0.00000E+00        -0.57313E+08
 
   -0.53899E+08        -0.86826E+06         0.00000E+00
   -0.86826E+06        -0.59991E+08         0.00000E+00
    0.00000E+00         0.00000E+00        -0.57385E+08
 
   -0.54264E+08        -0.72212E+06         0.00000E+00
   -0.72212E+06        -0.59968E+08         0.00000E+00
    0.00000E+00         0.00000E+00        -0.57457E+08
 
   -0.54643E+08        -0.44393E+06         0.00000E+00
   -0.44393E+06        -0.59927E+08         0.00000E+00
    0.00000E+00         0.00000E+00        -0.57526E+08
 
   -0.55035E+08        -0.29473E+05         0.00000E+00
   -0.29473E+05        -0.59867E+08         0.00000E+00
    0.00000E+00         0.00000E+00        -0.57594E+08
 
   -0.55440E+08         0.52425E+06         0.00000E+00
    0.52425E+06        -0.59785E+08         0.00000E+00
    0.00000E+00         0.00000E+00        -0.57659E+08
 
   -0.55854E+08         0.12184E+07         0.00000E+00
    0.12184E+07        -0.59684E+08         0.00000E+00
    0.00000E+00         0.00000E+00        -0.57722E+08
 
   -0.56272E+08         0.20520E+07         0.00000E+00
    0.20520E+07        -0.59566E+08         0.00000E+00
    0.00000E+00         0.00000E+00        -0.57781E+08
 
   -0.56686E+08         0.30215E+07         0.00000E+00
    0.30215E+07        -0.59434E+08         0.00000E+00
    0.00000E+00         0.00000E+00        -0.57836E+08
 
   -0.57088E+08         0.41208E+07         0.00000E+00
    0.41208E+07        -0.59293E+08         0.00000E+00
    0.00000E+00         0.00000E+00        -0.57887E+08
 
   -0.57469E+08         0.53412E+07         0.00000E+00
    0.53412E+07        -0.59146E+08         0.00000E+00
    0.00000E+00         0.00000E+00        -0.57932E+08
 
   -0.57821E+08         0.66714E+07         0.00000E+00
    0.66714E+07        -0.59000E+08         0.00000E+00
    0.00000E+00         0.00000E+00        -0.57971E+08
 
   -0.52874E+08        -0.21530E+06         0.00000E+00
   -0.21530E+06        -0.60001E+08         0.00000E+00
    0.00000E+00         0.00000E+00        -0.55951E+08
 
   -0.53117E+08        -0.56031E+06         0.00000E+00
   -0.56031E+06        -0.60004E+08         0.00000E+00
    0.00000E+00         0.00000E+00        -0.56006E+08
 
   -0.53353E+08        -0.78557E+06         0.00000E+00
   -0.78557E+06        -0.60010E+08         0.00000E+00
    0.00000E+00         0.00000E+00        -0.56059E+08
 
   -0.53582E+08        -0.88644E+06         0.00000E+00
   -0.88644E+06        -0.60016E+08         0.00000E+00
    0.00000E+00         0.00000E+00        -0.56110E+08
 
   -0.53811E+08        -0.85897E+06         0.00000E+00
   -0.85897E+06        -0.60017E+08         0.00000E+00
    0.00000E+00         0.00000E+00        -0.56159E+08
 
   -0.54045E+08        -0.69948E+06         0.00000E+00
   -0.69948E+06        -0.60010E+08         0.00000E+00
    0.00000E+00         0.00000E+00        -0.56207E+08
 
   -0.54288E+08        -0.40468E+06         0.00000E+00
   -0.40468E+06        -0.59989E+08         0.00000E+00
    0.00000E+00         0.00000E+00        -0.56253E+08
 
   -0.54542E+08         0.27989E+05         0.00000E+00
    0.27989E+05        -0.59954E+08         0.00000E+00
    0.00000E+00         0.00000E+00        -0.56298E+08
 
   -0.54807E+08         0.59990E+06         0.00000E+00
    0.59990E+06        -0.59902E+08         0.00000E+00
    0.00000E+00         0.00000E+00        -0.56341E+08
 
   -0.55082E+08         0.13108E+07         0.00000E+00
    0.13108E+07        -0.59835E+08         0.00000E+00
    0.00000E+00         0.00000E+00        -0.56382E+08
 
   -0.55364E+08         0.21586E+07         0.00000E+00
    0.21586E+07        -0.59754E+08         0.00000E+00
    0.00000E+00         0.00000E+00        -0.56422E+08
 
   -0.55646E+08         0.31388E+07         0.00000E+00
    0.31388E+07        -0.59662E+08         0.00000E+00
    0.00000E+00         0.00000E+00        -0.56459E+08
 
   -0.55925E+08         0.42448E+07         0.00000E+00
    0.42448E+07        -0.59562E+08         0.00000E+00
    0.00000E+00         0.00000E+00        -0.56493E+08
 
   -0.56192E+08         0.54676E+07         0.00000E+00
    0.54676E+07        -0.59457E+08         0.00000E+00
    0.00000E+00         0.00000E+00        -0.56524E+08
 
   -0.56443E+08         0.67958E+07         0.00000E+00
    0.67958E+07        -0.59352E+08         0.00000E+00
    0.00000E+00         0.00000E+00        -0.56551E+08
 
   -0.53280E+08        -0.21794E+06         0.00000E+00
   -0.21794E+06        -0.60002E+08         0.00000E+00
    0.00000E+00         0.00000E+00        -0.54821E+08
 
   -0.53406E+08        -0.56839E+06         0.00000E+00
   -0.56839E+06        -0.60010E+08         0.00000E+00
    0.00000E+00         0.00000E+00        -0.54853E+08
 
   -0.53517E+08        -0.79693E+06         0.00000E+00
   -0.79693E+06        -0.60024E+08         0.00000E+00
    0.00000E+00         0.00000E+00        -0.54882E+08
 
   -0.53618E+08        -0.89721E+06         0.00000E+00
   -0.89721E+06        -0.60041E+08         0.00000E+00
    0.00000E+00         0.00000E+00        -0.54909E+08
 
   -0.53715E+08        -0.86471E+06         0.00000E+00
   -0.86471E+06        -0.60057E+08         0.00000E+00
    0.00000E+00         0.00000E+00        -0.54934E+08
 
   -0.53813E+08        -0.69615E+06         0.00000E+00
   -0.69615E+06        -0.60068E+08         0.00000E+00
    0.00000E+00         0.00000E+00        -0.54958E+08
 
   -0.53918E+08        -0.38926E+06         0.00000E+00
   -0.38926E+06        -0.60071E+08         0.00000E+00
    0.00000E+00         0.00000E+00        -0.54981E+08
 
   -0.54032E+08         0.57177E+05         0.00000E+00
    0.57177E+05        -0.60062E+08         0.00000E+00
    0.00000E+00         0.00000E+00        -0.55003E+08
 
   -0.54158E+08         0.64319E+06         0.00000E+00
    0.64319E+06        -0.60041E+08         0.00000E+00
    0.00000E+00         0.00000E+00        -0.55024E+08
 
   -0.54296E+08         0.13673E+07         0.00000E+00
    0.13673E+07        -0.60008E+08         0.00000E+00
    0.00000E+00         0.00000E+00        -0.55044E+08
 
   -0.54444E+08         0.22265E+07         0.00000E+00
    0.22265E+07        -0.59964E+08         0.00000E+00
    0.00000E+00         0.00000E+00        -0.55064E+08
 
   -0.54598E+08         0.32156E+07         0.00000E+00
    0.32156E+07        -0.59911E+08         0.00000E+00
    0.00000E+00         0.00000E+00        -0.55084E+08
 
   -0.54757E+08         0.43276E+07         0.00000E+00
    0.43276E+07        -0.59852E+08         0.00000E+00
    0.00000E+00         0.00000E+00        -0.55102E+08
 
   -0.54915E+08         0.55532E+07         0.00000E+00
    0.55532E+07        -0.59787E+08         0.00000E+00
    0.00000E+00         0.00000E+00        -0.55120E+08
 
   -0.55068E+08         0.68810E+07         0.00000E+00
    0.68810E+07        -0.59721E+08         0.00000E+00
    0.00000E+00         0.00000E+00        -0.55135E+08
 
   -0.53693E+08        -0.22358E+06         0.00000E+00
   -0.22358E+06        -0.60003E+08         0.00000E+00
    0.00000E+00         0.00000E+00        -0.53693E+08
 
   -0.53700E+08        -0.58408E+06         0.00000E+00
   -0.58408E+06        -0.60017E+08         0.00000E+00
    0.00000E+00         0.00000E+00        -0.53701E+08
 
   -0.53684E+08        -0.81955E+06         0.00000E+00
   -0.81955E+06        -0.60042E+08         0.00000E+00
    0.00000E+00         0.00000E+00        -0.53707E+08
 
   -0.53652E+08        -0.92258E+06         0.00000E+00
   -0.92258E+06        -0.60073E+08         0.00000E+00
    0.00000E+00         0.00000E+00        -0.53710E+08
 
   -0.53613E+08        -0.88846E+06         0.00000E+00
   -0.88846E+06        -0.60107E+08         0.00000E+00
    0.00000E+00         0.00000E+00        -0.53710E+08
 
   -0.53572E+08        -0.71443E+06         0.00000E+00
   -0.71443E+06        -0.60138E+08         0.00000E+00
    0.00000E+00         0.00000E+00        -0.53710E+08
 
   -0.53536E+08        -0.39919E+06         0.00000E+00
   -0.39919E+06        -0.60165E+08         0.00000E+00
    0.00000E+00         0.00000E+00        -0.53709E+08
 
   -0.53511E+08         0.57309E+05         0.00000E+00
    0.57309E+05        -0.60183E+08         0.00000E+00
    0.00000E+00         0.00000E+00        -0.53708E+08
 
   -0.53498E+08         0.65394E+06         0.00000E+00
    0.65394E+06        -0.60193E+08         0.00000E+00
    0.00000E+00         0.00000E+00        -0.53707E+08
 
   -0.53499E+08         0.13883E+07         0.00000E+00
    0.13883E+07        -0.60194E+08         0.00000E+00
    0.00000E+00         0.00000E+00        -0.53707E+08
 
   -0.53515E+08         0.22565E+07         0.00000E+00
    0.22565E+07        -0.60187E+08         0.00000E+00
    0.00000E+00         0.00000E+00        -0.53708E+08
 
   -0.53544E+08         0.32529E+07         0.00000E+00
    0.32529E+07        -0.60172E+08         0.00000E+00
    0.00000E+00         0.00000E+00        -0.53710E+08
 
   -0.53584E+08         0.43703E+07         0.00000E+00
    0.43703E+07        -0.60152E+08         0.00000E+00
    0.00000E+00         0.00000E+00        -0.53713E+08
 
   -0.53635E+08         0.55991E+07         0.00000E+00
    0.55991E+07        -0.60127E+08         0.00000E+00
    0.00000E+00         0.00000E+00        -0.53717E+08
 
   -0.53694E+08         0.69282E+07         0.00000E+00
    0.69282E+07        -0.60099E+08         0.00000E+00
    0.00000E+00         0.00000E+00        -0.53722E+08
 
   -0.54121E+08        -0.23285E+06         0.00000E+00
   -0.23285E+06        -0.60005E+08         0.00000E+00
    0.00000E+00         0.00000E+00        -0.52568E+08
 
   -0.54006E+08        -0.60901E+06         0.00000E+00
   -0.60901E+06        -0.60026E+08         0.00000E+00
    0.00000E+00         0.00000E+00        -0.52553E+08
 
   -0.53858E+08        -0.85551E+06         0.00000E+00
   -0.85551E+06        -0.60062E+08         0.00000E+00
    0.00000E+00         0.00000E+00        -0.52534E+08
 
   -0.53689E+08        -0.96459E+06         0.00000E+00
   -0.96459E+06        -0.60109E+08         0.00000E+00
    0.00000E+00         0.00000E+00        -0.52511E+08
 
   -0.53508E+08        -0.93186E+06         0.00000E+00
   -0.93186E+06        -0.60162E+08         0.00000E+00
    0.00000E+00         0.00000E+00        -0.52487E+08
 
   -0.53325E+08        -0.75536E+06         0.00000E+00
   -0.75536E+06        -0.60214E+08         0.00000E+00
    0.00000E+00         0.00000E+00        -0.52462E+08
 
   -0.53147E+08        -0.43485E+06         0.00000E+00
   -0.43485E+06        -0.60265E+08         0.00000E+00
    0.00000E+00         0.00000E+00        -0.52437E+08
 
   -0.52980E+08         0.28592E+05         0.00000E+00
    0.28592E+05        -0.60310E+08         0.00000E+00
    0.00000E+00         0.00000E+00        -0.52412E+08
 
   -0.52828E+08         0.63280E+06         0.00000E+00
    0.63280E+06        -0.60350E+08         0.00000E+00
    0.00000E+00         0.00000E+00        -0.52389E+08
 
   -0.52694E+08         0.13746E+07         0.00000E+00
    0.13746E+07        -0.60384E+08         0.00000E+00
    0.00000E+00         0.00000E+00        -0.52369E+08
 
   -0.52578E+08         0.22495E+07         0.00000E+00
    0.22495E+07        -0.60411E+08         0.00000E+00
    0.00000E+00         0.00000E+00        -0.52350E+08
 
   -0.52483E+08         0.32517E+07         0.00000E+00
    0.32517E+07        -0.60434E+08         0.00000E+00
    0.00000E+00         0.00000E+00        -0.52335E+08
 
   -0.52408E+08         0.43738E+07         0.00000E+00
    0.43738E+07        -0.60452E+08         0.00000E+00
    0.00000E+00         0.00000E+00        -0.52323E+08
 
   -0.52353E+08         0.56065E+07         0.00000E+00
    0.56065E+07        -0.60465E+08         0.00000E+00
    0.00000E+00         0.00000E+00        -0.52314E+08
 
   -0.52318E+08         0.69382E+07         0.00000E+00
    0.69382E+07        -0.60475E+08         0.00000E+00
    0.00000E+00         0.00000E+00        -0.52308E+08
 
   -0.54570E+08        -0.24615E+06         0.00000E+00
   -0.24615E+06        -0.60007E+08         0.00000E+00
    0.00000E+00         0.00000E+00        -0.51448E+08
 
   -0.54328E+08        -0.64407E+06         0.00000E+00
   -0.64407E+06        -0.60035E+08         0.00000E+00
    0.00000E+00         0.00000E+00        -0.51408E+08
 
   -0.54043E+08        -0.90580E+06         0.00000E+00
   -0.90580E+06        -0.60084E+08         0.00000E+00
    0.00000E+00         0.00000E+00        -0.51363E+08
 
   -0.53731E+08        -0.10240E+07         0.00000E+00
   -0.10240E+07        -0.60147E+08         0.00000E+00
    0.00000E+00         0.00000E+00        -0.51315E+08
 
   -0.53405E+08        -0.99521E+06         0.00000E+00
   -0.99521E+06        -0.60217E+08         0.00000E+00
    0.00000E+00         0.00000E+00        -0.51264E+08
 
   -0.53076E+08        -0.81862E+06         0.00000E+00
   -0.81862E+06        -0.60291E+08         0.00000E+00
    0.00000E+00         0.00000E+00        -0.51213E+08
 
   -0.52753E+08        -0.49534E+06         0.00000E+00
   -0.49534E+06        -0.60364E+08         0.00000E+00
    0.00000E+00         0.00000E+00        -0.51163E+08
 
   -0.52443E+08        -0.27661E+05         0.00000E+00
   -0.27661E+05        -0.60435E+08         0.00000E+00
    0.00000E+00         0.00000E+00        -0.51115E+08
 
   -0.52152E+08         0.58131E+06         0.00000E+00
    0.58131E+06        -0.60502E+08         0.00000E+00
    0.00000E+00         0.00000E+00        -0.51069E+08
 
   -0.51882E+08         0.13277E+07         0.00000E+00
    0.13277E+07        -0.60566E+08         0.00000E+00
    0.00000E+00         0.00000E+00        -0.51028E+08
 
   -0.51637E+08         0.22070E+07         0.00000E+00
    0.22070E+07        -0.60627E+08         0.00000E+00
    0.00000E+00         0.00000E+00        -0.50990E+08
 
   -0.51418E+08         0.32132E+07         0.00000E+00
    0.32132E+07        -0.60686E+08         0.00000E+00
    0.00000E+00         0.00000E+00        -0.50957E+08
 
   -0.51227E+08         0.43392E+07         0.00000E+00
    0.43392E+07        -0.60741E+08         0.00000E+00
    0.00000E+00         0.00000E+00        -0.50929E+08
 
   -0.51067E+08         0.55759E+07         0.00000E+00
    0.55759E+07        -0.60792E+08         0.00000E+00
    0.00000E+00         0.00000E+00        -0.50907E+08
 
   -0.50940E+08         0.69118E+07         0.00000E+00
    0.69118E+07        -0.60839E+08         0.00000E+00
    0.00000E+00         0.00000E+00        -0.50891E+08
 
   -0.55048E+08        -0.26361E+06         0.00000E+00
   -0.26361E+06        -0.60009E+08         0.00000E+00
    0.00000E+00         0.00000E+00        -0.50334E+08
 
   -0.54670E+08        -0.68947E+06         0.00000E+00
   -0.68947E+06        -0.60044E+08         0.00000E+00
    0.00000E+00         0.00000E+00        -0.50267E+08
 
   -0.54241E+08        -0.97040E+06         0.00000E+00
   -0.97040E+06        -0.60105E+08         0.00000E+00
    0.00000E+00         0.00000E+00        -0.50195E+08
 
   -0.53780E+08        -0.11003E+07         0.00000E+00
   -0.11003E+07        -0.60183E+08         0.00000E+00
    0.00000E+00         0.00000E+00        -0.50119E+08
 
   -0.53304E+08        -0.10773E+07         0.00000E+00
   -0.10773E+07        -0.60271E+08         0.00000E+00
    0.00000E+00         0.00000E+00        -0.50042E+08
 
   -0.52826E+08        -0.90242E+06         0.00000E+00
   -0.90242E+06        -0.60362E+08         0.00000E+00
    0.00000E+00         0.00000E+00        -0.49964E+08
 
   -0.52356E+08        -0.57839E+06         0.00000E+00
   -0.57839E+06        -0.60455E+08         0.00000E+00
    0.00000E+00         0.00000E+00        -0.49888E+08
 
   -0.51904E+08        -0.10889E+06         0.00000E+00
   -0.10889E+06        -0.60548E+08         0.00000E+00
    0.00000E+00         0.00000E+00        -0.49815E+08
 
   -0.51473E+08         0.50204E+06         0.00000E+00
    0.50204E+06        -0.60640E+08         0.00000E+00
    0.00000E+00         0.00000E+00        -0.49746E+08
 
   -0.51068E+08         0.12502E+07         0.00000E+00
    0.12502E+07        -0.60732E+08         0.00000E+00
    0.00000E+00         0.00000E+00        -0.49682E+08
 
   -0.50692E+08         0.21308E+07         0.00000E+00
    0.21308E+07        -0.60824E+08         0.00000E+00
    0.00000E+00         0.00000E+00        -0.49625E+08
 
   -0.50349E+08         0.31388E+07         0.00000E+00
    0.31388E+07        -0.60916E+08         0.00000E+00
    0.00000E+00         0.00000E+00        -0.49574E+08
 
   -0.50043E+08         0.42672E+07         0.00000E+00
    0.42672E+07        -0.61007E+08         0.00000E+00
    0.00000E+00         0.00000E+00        -0.49531E+08
 
   -0.49777E+08         0.55077E+07         0.00000E+00
    0.55077E+07        -0.61096E+08         0.00000E+00
    0.00000E+00         0.00000E+00        -0.49496E+08
 
   -0.49556E+08         0.68489E+07         0.00000E+00
    0.68489E+07        -0.61180E+08         0.00000E+00
    0.00000E+00         0.00000E+00        -0.49469E+08
 
   -0.55562E+08        -0.28516E+06         0.00000E+00
   -0.28516E+06        -0.60010E+08         0.00000E+00
    0.00000E+00         0.00000E+00        -0.49227E+08
 
   -0.55039E+08        -0.74475E+06         0.00000E+00
   -0.74475E+06        -0.60052E+08         0.00000E+00
    0.00000E+00         0.00000E+00        -0.49132E+08
 
   -0.54456E+08        -0.10482E+07         0.00000E+00
   -0.10482E+07        -0.60125E+08         0.00000E+00
    0.00000E+00         0.00000E+00        -0.49031E+08
 
   -0.53838E+08        -0.11916E+07         0.00000E+00
   -0.11916E+07        -0.60215E+08         0.00000E+00
    0.00000E+00         0.00000E+00        -0.48925E+08
 
   -0.53207E+08        -0.11755E+07         0.00000E+00
   -0.11755E+07        -0.60317E+08         0.00000E+00
    0.00000E+00         0.00000E+00        -0.48818E+08
 
   -0.52576E+08        -0.10033E+07         0.00000E+00
   -0.10033E+07        -0.60423E+08         0.00000E+00
    0.00000E+00         0.00000E+00        -0.48712E+08
 
   -0.51959E+08        -0.68012E+06         0.00000E+00
   -0.68012E+06        -0.60531E+08         0.00000E+00
    0.00000E+00         0.00000E+00        -0.48609E+08
 
   -0.51363E+08        -0.21111E+06         0.00000E+00
   -0.21111E+06        -0.60641E+08         0.00000E+00
    0.00000E+00         0.00000E+00        -0.48510E+08
 
   -0.50793E+08         0.39873E+06         0.00000E+00
    0.39873E+06        -0.60753E+08         0.00000E+00
    0.00000E+00         0.00000E+00        -0.48418E+08
 
   -0.50254E+08         0.11450E+07         0.00000E+00
    0.11450E+07        -0.60869E+08         0.00000E+00
    0.00000E+00         0.00000E+00        -0.48332E+08
 
   -0.49748E+08         0.20234E+07         0.00000E+00
    0.20234E+07        -0.60989E+08         0.00000E+00
    0.00000E+00         0.00000E+00        -0.48254E+08
 
   -0.49281E+08         0.30297E+07         0.00000E+00
    0.30297E+07        -0.61113E+08         0.00000E+00
    0.00000E+00         0.00000E+00        -0.48185E+08
 
   -0.48856E+08         0.41583E+07         0.00000E+00
    0.41583E+07        -0.61239E+08         0.00000E+00
    0.00000E+00         0.00000E+00        -0.48126E+08
 
   -0.48482E+08         0.54017E+07         0.00000E+00
    0.54017E+07        -0.61366E+08         0.00000E+00
    0.00000E+00         0.00000E+00        -0.48077E+08
 
   -0.48166E+08         0.67492E+07         0.00000E+00
    0.67492E+07        -0.61488E+08         0.00000E+00
    0.00000E+00         0.00000E+00        -0.48039E+08
 
   -0.56120E+08        -0.31053E+06         0.00000E+00
   -0.31053E+06        -0.60012E+08         0.00000E+00
    0.00000E+00         0.00000E+00        -0.48129E+08
 
   -0.55437E+08        -0.80886E+06         0.00000E+00
   -0.80886E+06        -0.60060E+08         0.00000E+00
    0.00000E+00         0.00000E+00        -0.48003E+08
 
   -0.54689E+08        -0.11371E+07         0.00000E+00
   -0.11371E+07        -0.60141E+08         0.00000E+00
    0.00000E+00         0.00000E+00        -0.47869E+08
 
   -0.53907E+08        -0.12945E+07         0.00000E+00
   -0.12945E+07        -0.60241E+08         0.00000E+00
    0.00000E+00         0.00000E+00        -0.47732E+08
 
   -0.53114E+08        -0.12852E+07         0.00000E+00
   -0.12852E+07        -0.60352E+08         0.00000E+00
    0.00000E+00         0.00000E+00        -0.47594E+08
 
   -0.52329E+08        -0.11161E+07         0.00000E+00
   -0.11161E+07        -0.60466E+08         0.00000E+00
    0.00000E+00         0.00000E+00        -0.47458E+08
 
   -0.51564E+08        -0.79486E+06         0.00000E+00
   -0.79486E+06        -0.60584E+08         0.00000E+00
    0.00000E+00         0.00000E+00        -0.47326E+08
 
   -0.50825E+08        -0.32873E+06         0.00000E+00
   -0.32873E+06        -0.60704E+08         0.00000E+00
    0.00000E+00         0.00000E+00        -0.47200E+08
 
   -0.50117E+08         0.27644E+06         0.00000E+00
    0.27644E+06        -0.60830E+08         0.00000E+00
    0.00000E+00         0.00000E+00        -0.47082E+08
 
   -0.49444E+08         0.10163E+07         0.00000E+00
    0.10163E+07        -0.60964E+08         0.00000E+00
    0.00000E+00         0.00000E+00        -0.46973E+08
 
   -0.48808E+08         0.18876E+07         0.00000E+00
    0.18876E+07        -0.61108E+08         0.00000E+00
    0.00000E+00         0.00000E+00        -0.46874E+08
 
   -0.48215E+08         0.28877E+07         0.00000E+00
    0.28877E+07        -0.61261E+08         0.00000E+00
    0.00000E+00         0.00000E+00        -0.46786E+08
 
   -0.47670E+08         0.40127E+07         0.00000E+00
    0.40127E+07        -0.61422E+08         0.00000E+00
    0.00000E+00         0.00000E+00        -0.46710E+08
 
   -0.47183E+08         0.52571E+07         0.00000E+00
    0.52571E+07        -0.61587E+08         0.00000E+00
    0.00000E+00         0.00000E+00        -0.46647E+08
 
   -0.46766E+08         0.66113E+07         0.00000E+00
    0.66113E+07        -0.61748E+08         0.00000E+00
    0.00000E+00         0.00000E+00        -0.46598E+08
 
   -0.56727E+08        -0.33927E+06         0.00000E+00
   -0.33927E+06        -0.60013E+08         0.00000E+00
    0.00000E+00         0.00000E+00        -0.47042E+08
 
   -0.55867E+08        -0.88010E+06         0.00000E+00
   -0.88010E+06        -0.60066E+08         0.00000E+00
    0.00000E+00         0.00000E+00        -0.46879E+08
 
   -0.54941E+08        -0.12337E+07         0.00000E+00
   -0.12337E+07        -0.60153E+08         0.00000E+00
    0.00000E+00         0.00000E+00        -0.46710E+08
 
   -0.53984E+08        -0.14040E+07         0.00000E+00
   -0.14040E+07        -0.60258E+08         0.00000E+00
    0.00000E+00         0.00000E+00        -0.46538E+08
 
   -0.53026E+08        -0.14001E+07         0.00000E+00
   -0.14001E+07        -0.60370E+08         0.00000E+00
    0.00000E+00         0.00000E+00        -0.46366E+08
 
   -0.52084E+08        -0.12333E+07         0.00000E+00
   -0.12333E+07        -0.60486E+08         0.00000E+00
    0.00000E+00         0.00000E+00        -0.46198E+08
 
   -0.51171E+08        -0.91487E+06         0.00000E+00
   -0.91487E+06        -0.60603E+08         0.00000E+00
    0.00000E+00         0.00000E+00        -0.46036E+08
 
   -0.50292E+08        -0.45429E+06         0.00000E+00
   -0.45429E+06        -0.60725E+08         0.00000E+00
    0.00000E+00         0.00000E+00        -0.45883E+08
 
   -0.49450E+08         0.14174E+06         0.00000E+00
    0.14174E+06        -0.60857E+08         0.00000E+00
    0.00000E+00         0.00000E+00        -0.45739E+08
 
   -0.48645E+08         0.86933E+06         0.00000E+00
    0.86933E+06        -0.61003E+08         0.00000E+00
    0.00000E+00         0.00000E+00        -0.45606E+08
 
   -0.47879E+08         0.17269E+07         0.00000E+00
    0.17269E+07        -0.61166E+08         0.00000E+00
    0.00000E+00         0.00000E+00        -0.45485E+08
 
   -0.47157E+08         0.27141E+07         0.00000E+00
    0.27141E+07        -0.61346E+08         0.00000E+00
    0.00000E+00         0.00000E+00        -0.45377E+08
 
   -0.46487E+08         0.38301E+07         0.00000E+00
    0.38301E+07        -0.61542E+08         0.00000E+00
    0.00000E+00         0.00000E+00        -0.45283E+08
 
   -0.45882E+08         0.50721E+07         0.00000E+00
    0.50721E+07        -0.61746E+08         0.00000E+00
    0.00000E+00         0.00000E+00        -0.45205E+08
 
   -0.45357E+08         0.64327E+07         0.00000E+00
    0.64327E+07        -0.61949E+08         0.00000E+00
    0.00000E+00         0.00000E+00        -0.45143E+08
 
   -0.57389E+08        -0.37079E+06         0.00000E+00
   -0.37079E+06        -0.60014E+08         0.00000E+00
    0.00000E+00         0.00000E+00        -0.45965E+08
 
   -0.56331E+08        -0.95605E+06         0.00000E+00
   -0.95605E+06        -0.60070E+08         0.00000E+00
    0.00000E+00         0.00000E+00        -0.45763E+08
 
   -0.55210E+08        -0.13334E+07         0.00000E+00
   -0.13334E+07        -0.60159E+08         0.00000E+00
    0.00000E+00         0.00000E+00        -0.45554E+08
 
   -0.54069E+08        -0.15132E+07         0.00000E+00
   -0.15132E+07        -0.60261E+08         0.00000E+00
    0.00000E+00         0.00000E+00        -0.45343E+08
 
   -0.52939E+08        -0.15113E+07         0.00000E+00
   -0.15113E+07        -0.60367E+08         0.00000E+00
    0.00000E+00         0.00000E+00        -0.45135E+08
 
   -0.51841E+08        -0.13451E+07         0.00000E+00
   -0.13451E+07        -0.60472E+08         0.00000E+00
    0.00000E+00         0.00000E+00        -0.44932E+08
 
   -0.50783E+08        -0.10301E+07         0.00000E+00
   -0.10301E+07        -0.60578E+08         0.00000E+00
    0.00000E+00         0.00000E+00        -0.44739E+08
 
   -0.49769E+08        -0.57838E+06         0.00000E+00
   -0.57838E+06        -0.60692E+08         0.00000E+00
    0.00000E+00         0.00000E+00        -0.44556E+08
 
   -0.48796E+08         0.27953E+04         0.00000E+00
    0.27953E+04        -0.60820E+08         0.00000E+00
    0.00000E+00         0.00000E+00        -0.44385E+08
 
   -0.47862E+08         0.71042E+06         0.00000E+00
    0.71042E+06        -0.60970E+08         0.00000E+00
    0.00000E+00         0.00000E+00        -0.44227E+08
 
   -0.46968E+08         0.15452E+07         0.00000E+00
    0.15452E+07        -0.61146E+08         0.00000E+00
    0.00000E+00         0.00000E+00        -0.44084E+08
 
   -0.46115E+08         0.25104E+07         0.00000E+00
    0.25104E+07        -0.61350E+08         0.00000E+00
    0.00000E+00         0.00000E+00        -0.43955E+08
 
   -0.45314E+08         0.36095E+07         0.00000E+00
    0.36095E+07        -0.61580E+08         0.00000E+00
    0.00000E+00         0.00000E+00        -0.43842E+08
 
   -0.44580E+08         0.48437E+07         0.00000E+00
    0.48437E+07        -0.61826E+08         0.00000E+00
    0.00000E+00         0.00000E+00        -0.43747E+08
 
   -0.43935E+08         0.62093E+07         0.00000E+00
    0.62093E+07        -0.62077E+08         0.00000E+00
    0.00000E+00         0.00000E+00        -0.43671E+08
 
   -0.58108E+08        -0.40429E+06         0.00000E+00
   -0.40429E+06        -0.60015E+08         0.00000E+00
    0.00000E+00         0.00000E+00        -0.44900E+08
 
   -0.56827E+08        -0.10335E+07         0.00000E+00
   -0.10335E+07        -0.60072E+08         0.00000E+00
    0.00000E+00         0.00000E+00        -0.44652E+08
 
   -0.55492E+08        -0.14297E+07         0.00000E+00
   -0.14297E+07        -0.60156E+08         0.00000E+00
    0.00000E+00         0.00000E+00        -0.44398E+08
 
   -0.54155E+08        -0.16126E+07         0.00000E+00
   -0.16126E+07        -0.60247E+08         0.00000E+00
    0.00000E+00         0.00000E+00        -0.44144E+08
 
   -0.52851E+08        -0.16073E+07         0.00000E+00
   -0.16073E+07        -0.60334E+08         0.00000E+00
    0.00000E+00         0.00000E+00        -0.43896E+08
 
   -0.51599E+08        -0.14389E+07         0.00000E+00
   -0.14389E+07        -0.60415E+08         0.00000E+00
    0.00000E+00         0.00000E+00        -0.43658E+08
 
   -0.50403E+08        -0.11282E+07         0.00000E+00
   -0.11282E+07        -0.60496E+08         0.00000E+00
    0.00000E+00         0.00000E+00        -0.43431E+08
 
   -0.49260E+08        -0.68948E+06         0.00000E+00
   -0.68948E+06        -0.60588E+08         0.00000E+00
    0.00000E+00         0.00000E+00        -0.43218E+08
 
   -0.48164E+08        -0.13055E+06         0.00000E+00
   -0.13055E+06        -0.60700E+08         0.00000E+00
    0.00000E+00         0.00000E+00        -0.43020E+08
 
   -0.47107E+08         0.54712E+06         0.00000E+00
    0.54712E+06        -0.60844E+08         0.00000E+00
    0.00000E+00         0.00000E+00        -0.42836E+08
 
   -0.46085E+08         0.13474E+07         0.00000E+00
    0.13474E+07        -0.61028E+08         0.00000E+00
    0.00000E+00         0.00000E+00        -0.42669E+08
 
   -0.45099E+08         0.22781E+07         0.00000E+00
    0.22781E+07        -0.61253E+08         0.00000E+00
    0.00000E+00         0.00000E+00        -0.42518E+08
 
   -0.44158E+08         0.33488E+07         0.00000E+00
    0.33488E+07        -0.61517E+08         0.00000E+00
    0.00000E+00         0.00000E+00        -0.42385E+08
 
   -0.43282E+08         0.45671E+07         0.00000E+00
    0.45671E+07        -0.61810E+08         0.00000E+00
    0.00000E+00         0.00000E+00        -0.42271E+08
 
   -0.42502E+08         0.59348E+07         0.00000E+00
    0.59348E+07        -0.62114E+08         0.00000E+00
    0.00000E+00         0.00000E+00        -0.42179E+08
 
   -0.58887E+08        -0.43885E+06         0.00000E+00
   -0.43885E+06        -0.60016E+08         0.00000E+00
    0.00000E+00         0.00000E+00        -0.43847E+08
 
   -0.57350E+08        -0.11079E+07         0.00000E+00
   -0.11079E+07        -0.60069E+08         0.00000E+00
    0.00000E+00         0.00000E+00        -0.43545E+08
 
   -0.55778E+08        -0.15137E+07         0.00000E+00
   -0.15137E+07        -0.60142E+08         0.00000E+00
    0.00000E+00         0.00000E+00        -0.43240E+08
 
   -0.54236E+08        -0.16893E+07         0.00000E+00
   -0.16893E+07        -0.60209E+08         0.00000E+00
    0.00000E+00         0.00000E+00        -0.42939E+08
 
   -0.52757E+08        -0.16730E+07         0.00000E+00
   -0.16730E+07        -0.60260E+08         0.00000E+00
    0.00000E+00         0.00000E+00        -0.42648E+08
 
   -0.51357E+08        -0.14992E+07         0.00000E+00
   -0.14992E+07        -0.60300E+08         0.00000E+00
    0.00000E+00         0.00000E+00        -0.42372E+08
 
   -0.50033E+08        -0.11941E+07         0.00000E+00
   -0.11941E+07        -0.60340E+08         0.00000E+00
    0.00000E+00         0.00000E+00        -0.42111E+08
 
   -0.48773E+08        -0.77425E+06         0.00000E+00
   -0.77425E+06        -0.60395E+08         0.00000E+00
    0.00000E+00         0.00000E+00        -0.41867E+08
 
   -0.47565E+08        -0.24701E+06         0.00000E+00
   -0.24701E+06        -0.60479E+08         0.00000E+00
    0.00000E+00         0.00000E+00        -0.41641E+08
 
   -0.46392E+08         0.38811E+06         0.00000E+00
    0.38811E+06        -0.60607E+08         0.00000E+00
    0.00000E+00         0.00000E+00        -0.41431E+08
 
   -0.45246E+08         0.11387E+07         0.00000E+00
    0.11387E+07        -0.60790E+08         0.00000E+00
    0.00000E+00         0.00000E+00        -0.41239E+08
 
   -0.44123E+08         0.20186E+07         0.00000E+00
    0.20186E+07        -0.61032E+08         0.00000E+00
    0.00000E+00         0.00000E+00        -0.41064E+08
 
   -0.43032E+08         0.30451E+07         0.00000E+00
    0.30451E+07        -0.61332E+08         0.00000E+00
    0.00000E+00         0.00000E+00        -0.40909E+08
 
   -0.41997E+08         0.42353E+07         0.00000E+00
    0.42353E+07        -0.61678E+08         0.00000E+00
    0.00000E+00         0.00000E+00        -0.40774E+08
 
   -0.41056E+08         0.55996E+07         0.00000E+00
    0.55996E+07        -0.62045E+08         0.00000E+00
    0.00000E+00         0.00000E+00        -0.40664E+08
 
   -0.59724E+08        -0.47328E+06         0.00000E+00
   -0.47328E+06        -0.60015E+08         0.00000E+00
    0.00000E+00         0.00000E+00        -0.42805E+08
 
   -0.57889E+08        -0.11731E+07         0.00000E+00
   -0.11731E+07        -0.60062E+08         0.00000E+00
    0.00000E+00         0.00000E+00        -0.42440E+08
 
   -0.56057E+08        -0.15727E+07         0.00000E+00
   -0.15727E+07        -0.60112E+08         0.00000E+00
    0.00000E+00         0.00000E+00        -0.42077E+08
 
   -0.54299E+08        -0.17261E+07         0.00000E+00
   -0.17261E+07        -0.60136E+08         0.00000E+00
    0.00000E+00         0.00000E+00        -0.41723E+08
 
   -0.52651E+08        -0.16892E+07         0.00000E+00
   -0.16892E+07        -0.60131E+08         0.00000E+00
    0.00000E+00         0.00000E+00        -0.41386E+08
 
   -0.51115E+08        -0.15074E+07         0.00000E+00
   -0.15074E+07        -0.60110E+08         0.00000E+00
    0.00000E+00         0.00000E+00        -0.41070E+08
 
   -0.49677E+08        -0.12113E+07         0.00000E+00
   -0.12113E+07        -0.60090E+08         0.00000E+00
    0.00000E+00         0.00000E+00        -0.40774E+08
 
   -0.48317E+08        -0.81825E+06         0.00000E+00
   -0.81825E+06        -0.60091E+08         0.00000E+00
    0.00000E+00         0.00000E+00        -0.40500E+08
 
   -0.47009E+08        -0.33447E+06         0.00000E+00
   -0.33447E+06        -0.60134E+08         0.00000E+00
    0.00000E+00         0.00000E+00        -0.40246E+08
 
   -0.45732E+08         0.24294E+06         0.00000E+00
    0.24294E+06        -0.60235E+08         0.00000E+00
    0.00000E+00         0.00000E+00        -0.40011E+08
 
   -0.44468E+08         0.92551E+06         0.00000E+00
    0.92551E+06        -0.60409E+08         0.00000E+00
    0.00000E+00         0.00000E+00        -0.39793E+08
 
   -0.43207E+08         0.17334E+07         0.00000E+00
    0.17334E+07        -0.60664E+08         0.00000E+00
    0.00000E+00         0.00000E+00        -0.39594E+08
 
   -0.41954E+08         0.26941E+07         0.00000E+00
    0.26941E+07        -0.61001E+08         0.00000E+00
    0.00000E+00         0.00000E+00        -0.39414E+08
 
   -0.40735E+08         0.38381E+07         0.00000E+00
    0.38381E+07        -0.61407E+08         0.00000E+00
    0.00000E+00         0.00000E+00        -0.39255E+08
 
   -0.39600E+08         0.51899E+07         0.00000E+00
    0.51899E+07        -0.61853E+08         0.00000E+00
    0.00000E+00         0.00000E+00        -0.39122E+08
 
   -0.60612E+08        -0.50597E+06         0.00000E+00
   -0.50597E+06        -0.60014E+08         0.00000E+00
    0.00000E+00         0.00000E+00        -0.41773E+08
 
   -0.58427E+08        -0.12190E+07         0.00000E+00
   -0.12190E+07        -0.60047E+08         0.00000E+00
    0.00000E+00         0.00000E+00        -0.41334E+08
 
   -0.56306E+08        -0.15875E+07         0.00000E+00
   -0.15875E+07        -0.60054E+08         0.00000E+00
    0.00000E+00         0.00000E+00        -0.40902E+08
 
   -0.54332E+08        -0.16990E+07         0.00000E+00
   -0.16990E+07        -0.60010E+08         0.00000E+00
    0.00000E+00         0.00000E+00        -0.40490E+08
 
   -0.52527E+08        -0.16326E+07         0.00000E+00
   -0.16326E+07        -0.59923E+08         0.00000E+00
    0.00000E+00         0.00000E+00        -0.40105E+08
 
   -0.50875E+08        -0.14432E+07         0.00000E+00
   -0.14432E+07        -0.59816E+08         0.00000E+00
    0.00000E+00         0.00000E+00        -0.39748E+08
 
   -0.49344E+08        -0.11630E+07         0.00000E+00
   -0.11630E+07        -0.59718E+08         0.00000E+00
    0.00000E+00         0.00000E+00        -0.39419E+08
 
   -0.47901E+08        -0.80766E+06         0.00000E+00
   -0.80766E+06        -0.59653E+08         0.00000E+00
    0.00000E+00         0.00000E+00        -0.39115E+08
 
   -0.46512E+08        -0.38123E+06         0.00000E+00
   -0.38123E+06        -0.59643E+08         0.00000E+00
    0.00000E+00         0.00000E+00        -0.38834E+08
 
   -0.45144E+08         0.12149E+06         0.00000E+00
    0.12149E+06        -0.59706E+08         0.00000E+00
    0.00000E+00         0.00000E+00        -0.38574E+08
 
   -0.43772E+08         0.71505E+06         0.00000E+00
    0.71505E+06        -0.59862E+08         0.00000E+00
    0.00000E+00         0.00000E+00        -0.38332E+08
 
   -0.42374E+08         0.14253E+07         0.00000E+00
    0.14253E+07        -0.60124E+08         0.00000E+00
    0.00000E+00         0.00000E+00        -0.38107E+08
 
   -0.40948E+08         0.22911E+07         0.00000E+00
    0.22911E+07        -0.60498E+08         0.00000E+00
    0.00000E+00         0.00000E+00        -0.37899E+08
 
   -0.39515E+08         0.33621E+07         0.00000E+00
    0.33621E+07        -0.60975E+08         0.00000E+00
    0.00000E+00         0.00000E+00        -0.37712E+08
 
   -0.38140E+08         0.46859E+07         0.00000E+00
    0.46859E+07        -0.61519E+08         0.00000E+00
    0.00000E+00         0.00000E+00        -0.37551E+08
 
   -0.61538E+08        -0.53422E+06         0.00000E+00
   -0.53422E+06        -0.60012E+08         0.00000E+00
    0.00000E+00         0.00000E+00        -0.40748E+08
 
   -0.58934E+08        -0.12280E+07         0.00000E+00
   -0.12280E+07        -0.60016E+08         0.00000E+00
    0.00000E+00         0.00000E+00        -0.40217E+08
 
   -0.56501E+08        -0.15276E+07         0.00000E+00
   -0.15276E+07        -0.59949E+08         0.00000E+00
    0.00000E+00         0.00000E+00        -0.39706E+08
 
   -0.54322E+08        -0.15756E+07         0.00000E+00
   -0.15756E+07        -0.59797E+08         0.00000E+00
    0.00000E+00         0.00000E+00        -0.39231E+08
 
   -0.52385E+08        -0.14763E+07         0.00000E+00
   -0.14763E+07        -0.59595E+08         0.00000E+00
    0.00000E+00         0.00000E+00        -0.38796E+08
 
   -0.50644E+08        -0.12871E+07         0.00000E+00
   -0.12871E+07        -0.59382E+08         0.00000E+00
    0.00000E+00         0.00000E+00        -0.38400E+08
 
   -0.49045E+08        -0.10353E+07         0.00000E+00
   -0.10353E+07        -0.59193E+08         0.00000E+00
    0.00000E+00         0.00000E+00        -0.38040E+08
 
   -0.47541E+08        -0.73198E+06         0.00000E+00
   -0.73198E+06        -0.59052E+08         0.00000E+00
    0.00000E+00         0.00000E+00        -0.37709E+08
 
   -0.46089E+08        -0.37816E+06         0.00000E+00
   -0.37816E+06        -0.58981E+08         0.00000E+00
    0.00000E+00         0.00000E+00        -0.37404E+08
 
   -0.44649E+08         0.32764E+05         0.00000E+00
    0.32764E+05        -0.59001E+08         0.00000E+00
    0.00000E+00         0.00000E+00        -0.37121E+08
 
   -0.43183E+08         0.51614E+06         0.00000E+00
    0.51614E+06        -0.59130E+08         0.00000E+00
    0.00000E+00         0.00000E+00        -0.36855E+08
 
   -0.41657E+08         0.10999E+07         0.00000E+00
    0.10999E+07        -0.59389E+08         0.00000E+00
    0.00000E+00         0.00000E+00        -0.36604E+08
 
   -0.40048E+08         0.18329E+07         0.00000E+00
    0.18329E+07        -0.59796E+08         0.00000E+00
    0.00000E+00         0.00000E+00        -0.36367E+08
 
   -0.38366E+08         0.27899E+07         0.00000E+00
    0.27899E+07        -0.60354E+08         0.00000E+00
    0.00000E+00         0.00000E+00        -0.36146E+08
 
   -0.36684E+08         0.40582E+07         0.00000E+00
    0.40582E+07        -0.61023E+08         0.00000E+00
    0.00000E+00         0.00000E+00        -0.35948E+08
 
   -0.62475E+08        -0.55169E+06         0.00000E+00
   -0.55169E+06        -0.60004E+08         0.00000E+00
    0.00000E+00         0.00000E+00        -0.39724E+08
 
   -0.59356E+08        -0.11631E+07         0.00000E+00
   -0.11631E+07        -0.59948E+08         0.00000E+00
    0.00000E+00         0.00000E+00        -0.39075E+08
 
   -0.56607E+08        -0.13422E+07         0.00000E+00
   -0.13422E+07        -0.59744E+08         0.00000E+00
    0.00000E+00         0.00000E+00        -0.38472E+08
 
   -0.54262E+08        -0.13161E+07         0.00000E+00
   -0.13161E+07        -0.59433E+08         0.00000E+00
    0.00000E+00         0.00000E+00        -0.37931E+08
 
   -0.52236E+08        -0.11970E+07         0.00000E+00
   -0.11970E+07        -0.59089E+08         0.00000E+00
    0.00000E+00         0.00000E+00        -0.37450E+08
 
   -0.50438E+08        -0.10271E+07         0.00000E+00
   -0.10271E+07        -0.58759E+08         0.00000E+00
    0.00000E+00         0.00000E+00        -0.37021E+08
 
   -0.48796E+08        -0.82240E+06         0.00000E+00
   -0.82240E+06        -0.58475E+08         0.00000E+00
    0.00000E+00         0.00000E+00        -0.36633E+08
 
   -0.47252E+08        -0.58772E+06         0.00000E+00
   -0.58772E+06        -0.58259E+08         0.00000E+00
    0.00000E+00         0.00000E+00        -0.36280E+08
 
   -0.45756E+08        -0.32160E+06         0.00000E+00
   -0.32160E+06        -0.58129E+08         0.00000E+00
    0.00000E+00         0.00000E+00        -0.35955E+08
 
   -0.44262E+08        -0.17412E+05         0.00000E+00
   -0.17412E+05        -0.58103E+08         0.00000E+00
    0.00000E+00         0.00000E+00        -0.35652E+08
 
   -0.42723E+08         0.33802E+06         0.00000E+00
    0.33802E+06        -0.58200E+08         0.00000E+00
    0.00000E+00         0.00000E+00        -0.35366E+08
 
   -0.41089E+08         0.76919E+06         0.00000E+00
    0.76919E+06        -0.58445E+08         0.00000E+00
    0.00000E+00         0.00000E+00        -0.35090E+08
 
   -0.39304E+08         0.13236E+07         0.00000E+00
    0.13236E+07        -0.58870E+08         0.00000E+00
    0.00000E+00         0.00000E+00        -0.34822E+08
 
   -0.37338E+08         0.21020E+07         0.00000E+00
    0.21020E+07        -0.59512E+08         0.00000E+00
    0.00000E+00         0.00000E+00        -0.34560E+08
 
   -0.35252E+08         0.32626E+07         0.00000E+00
    0.32626E+07        -0.60343E+08         0.00000E+00
    0.00000E+00         0.00000E+00        -0.34314E+08
 
   -0.63356E+08        -0.53580E+06         0.00000E+00
   -0.53580E+06        -0.59979E+08         0.00000E+00
    0.00000E+00         0.00000E+00        -0.38684E+08
 
   -0.59615E+08        -0.93539E+06         0.00000E+00
   -0.93539E+06        -0.59761E+08         0.00000E+00
    0.00000E+00         0.00000E+00        -0.37875E+08
 
   -0.56612E+08        -0.95955E+06         0.00000E+00
   -0.95955E+06        -0.59316E+08         0.00000E+00
    0.00000E+00         0.00000E+00        -0.37173E+08
 
   -0.54175E+08        -0.89098E+06         0.00000E+00
   -0.89098E+06        -0.58811E+08         0.00000E+00
    0.00000E+00         0.00000E+00        -0.36576E+08
 
   -0.52104E+08        -0.78804E+06         0.00000E+00
   -0.78804E+06        -0.58324E+08         0.00000E+00
    0.00000E+00         0.00000E+00        -0.36058E+08
 
   -0.50278E+08        -0.66654E+06         0.00000E+00
   -0.66654E+06        -0.57889E+08         0.00000E+00
    0.00000E+00         0.00000E+00        -0.35602E+08
 
   -0.48614E+08        -0.53105E+06         0.00000E+00
   -0.53105E+06        -0.57525E+08         0.00000E+00
    0.00000E+00         0.00000E+00        -0.35195E+08
 
   -0.47048E+08        -0.38172E+06         0.00000E+00
   -0.38172E+06        -0.57248E+08         0.00000E+00
    0.00000E+00         0.00000E+00        -0.34826E+08
 
   -0.45527E+08        -0.21619E+06         0.00000E+00
   -0.21619E+06        -0.57070E+08         0.00000E+00
    0.00000E+00         0.00000E+00        -0.34487E+08
 
   -0.43998E+08        -0.29604E+05         0.00000E+00
   -0.29604E+05        -0.57005E+08         0.00000E+00
    0.00000E+00         0.00000E+00        -0.34169E+08
 
   -0.42410E+08         0.18666E+06         0.00000E+00
    0.18666E+06        -0.57071E+08         0.00000E+00
    0.00000E+00         0.00000E+00        -0.33867E+08
 
   -0.40699E+08         0.44853E+06         0.00000E+00
    0.44853E+06        -0.57295E+08         0.00000E+00
    0.00000E+00         0.00000E+00        -0.33572E+08
 
   -0.38779E+08         0.78863E+06         0.00000E+00
    0.78863E+06        -0.57715E+08         0.00000E+00
    0.00000E+00         0.00000E+00        -0.33275E+08
 
   -0.36521E+08         0.12894E+07         0.00000E+00
    0.12894E+07        -0.58402E+08         0.00000E+00
    0.00000E+00         0.00000E+00        -0.32964E+08
 
   -0.33894E+08         0.22236E+07         0.00000E+00
    0.22236E+07        -0.59449E+08         0.00000E+00
    0.00000E+00         0.00000E+00        -0.32652E+08
 
   -0.63994E+08        -0.33773E+06         0.00000E+00
   -0.33773E+06        -0.59758E+08         0.00000E+00
    0.00000E+00         0.00000E+00        -0.37557E+08
 
   -0.59654E+08        -0.38673E+06         0.00000E+00
   -0.38673E+06        -0.59140E+08         0.00000E+00
    0.00000E+00         0.00000E+00        -0.36546E+08
 
   -0.56574E+08        -0.35463E+06         0.00000E+00
   -0.35463E+06        -0.58447E+08         0.00000E+00
    0.00000E+00         0.00000E+00        -0.35779E+08
 
   -0.54109E+08        -0.31750E+06         0.00000E+00
   -0.31750E+06        -0.57797E+08         0.00000E+00
    0.00000E+00         0.00000E+00        -0.35148E+08
 
   -0.52025E+08        -0.27596E+06         0.00000E+00
   -0.27596E+06        -0.57217E+08         0.00000E+00
    0.00000E+00         0.00000E+00        -0.34610E+08
 
   -0.50190E+08        -0.23142E+06         0.00000E+00
   -0.23142E+06        -0.56718E+08         0.00000E+00
    0.00000E+00         0.00000E+00        -0.34140E+08
 
   -0.48518E+08        -0.18379E+06         0.00000E+00
   -0.18379E+06        -0.56308E+08         0.00000E+00
    0.00000E+00         0.00000E+00        -0.33722E+08
 
   -0.46943E+08        -0.13243E+06         0.00000E+00
   -0.13243E+06        -0.55996E+08         0.00000E+00
    0.00000E+00         0.00000E+00        -0.33345E+08
 
   -0.45409E+08        -0.76224E+05         0.00000E+00
   -0.76224E+05        -0.55791E+08         0.00000E+00
    0.00000E+00         0.00000E+00        -0.32998E+08
 
   -0.43865E+08        -0.13390E+05         0.00000E+00
   -0.13390E+05        -0.55704E+08         0.00000E+00
    0.00000E+00         0.00000E+00        -0.32673E+08
 
   -0.42253E+08         0.59027E+05         0.00000E+00
    0.59027E+05        -0.55751E+08         0.00000E+00
    0.00000E+00         0.00000E+00        -0.32362E+08
 
   -0.40502E+08         0.14632E+06         0.00000E+00
    0.14632E+06        -0.55958E+08         0.00000E+00
    0.00000E+00         0.00000E+00        -0.32056E+08
 
   -0.38510E+08         0.25996E+06         0.00000E+00
    0.25996E+06        -0.56365E+08         0.00000E+00
    0.00000E+00         0.00000E+00        -0.31742E+08
 
   -0.36092E+08         0.42597E+06         0.00000E+00
    0.42597E+06        -0.57051E+08         0.00000E+00
    0.00000E+00         0.00000E+00        -0.31399E+08
 
   -0.32731E+08         0.81561E+06         0.00000E+00
    0.81561E+06        -0.58233E+08         0.00000E+00
    0.00000E+00         0.00000E+00        -0.30965E+08
 
SCALARS stressS double 
LOOKUP_TABLE default
  -57693642.1455480     
  -57430023.2965884     
  -57611881.8619319     
  -58327889.5577786     
  -59647909.7438377     
  -61238992.4843440     
  -62794993.0362483     
  -64115952.1044370     
  -65116214.9679805     
  -65951910.5528518     
  -66692909.8115734     
  -67381468.5925430     
  -68054429.0290374     
  -68758624.7086471     
  -69616165.0504598     
  -58134101.4577400     
  -58466178.0748598     
  -58855534.8865449     
  -59497454.8213487     
  -60408107.8205753     
  -61414145.6590237     
  -62421154.6290321     
  -63356768.2703575     
  -64245190.2957822     
  -65025180.3879378     
  -65729572.7905554     
  -66385723.9331076     
  -67018752.5521397     
  -67657379.6615473     
  -68276810.7879373     
  -58443328.7180132     
  -59225281.5322302     
  -59836597.3241385     
  -60277449.8019023     
  -60726841.0367945     
  -61278159.0211345     
  -61978772.8545910     
  -62742767.6543685     
  -63479138.4636457     
  -64172208.6076584     
  -64813602.4984246     
  -65413299.7701899     
  -65981942.7581175     
  -66519107.1253151     
  -67010610.8144739     
  -58712873.7869562     
  -59246929.2389302     
  -59636983.7947226     
  -60007516.1719420     
  -60440520.0020655     
  -60955683.5723255     
  -61533791.3890649     
  -62151652.6898508     
  -62773701.0146901     
  -63372656.7067367     
  -63939373.2924457     
  -64470899.4758997     
  -64966229.0516662     
  -65420101.9639074     
  -65818651.2269457     
  -58378135.3231198     
  -58813339.6367604     
  -59251514.1025998     
  -59658451.9265213     
  -60084057.0538535     
  -60547086.0554562     
  -61046685.0654285     
  -61568456.5027211     
  -62094764.8083227     
  -62609343.7474575     
  -63100788.0747034     
  -63562460.7393125     
  -63988727.7203393     
  -64372159.6167275     
  -64701893.8874367     
  -58059229.1165042     
  -58481204.5345871     
  -58881840.6347664     
  -59279328.2937615     
  -59681011.1138326     
  -60098959.6731045     
  -60534639.6682301     
  -60981999.5107894     
  -61430898.4218638     
  -61870779.3282989     
  -62292507.9490285     
  -62688613.8367507     
  -63052379.8580110     
  -63376508.7823887     
  -63652478.7836530     
  -57775688.9409720     
  -58157138.3812759     
  -58527022.8418385     
  -58891183.9342974     
  -59257354.6535351     
  -59629725.4253441     
  -60009623.5368121     
  -60393988.6460439     
  -60776920.7036884     
  -61151330.3216083     
  -61510168.8335065     
  -61846858.9035192     
  -62155122.0291878     
  -62428621.6965277     
  -62660834.2957918     
  -57509388.7463918     
  -57847042.2755575     
  -58176276.5919130     
  -58501184.3363950     
  -58825271.4504297     
  -59151093.7183199     
  -59478981.1338796     
  -59807085.5039105     
  -60131647.7029696     
  -60447791.1629646     
  -60750207.1225657     
  -61033554.6835860     
  -61292583.3480173     
  -61522149.4110610     
  -61717334.4301619     
  -57255158.0114142     
  -57545171.2148325     
  -57829985.5293537     
  -58111196.3456263     
  -58390601.1111417     
  -58669314.9451820     
  -58947346.5713625     
  -59223340.5281598     
  -59494736.9086284     
  -59758092.5739150     
  -60009466.0408180     
  -60244716.2023673     
  -60459696.8978908     
  -60650405.8275561     
  -60813175.9245625     
  -57007254.3164701     
  -57248767.1813384     
  -57487135.6944352     
  -57722679.6245738     
  -57956037.5652260     
  -58187629.1331633     
  -58417248.7409387     
  -58643893.5291823     
  -58865764.7950153     
  -59080420.3048253     
  -59284982.7955697     
  -59476349.0675892     
  -59651371.7002966     
  -59807027.9038875     
  -59940606.3105306     
  -56762231.5128078     
  -56955681.1672495     
  -57147080.5133403     
  -57336122.7356322     
  -57522915.2995603     
  -57707553.3684617     
  -57889821.4032911     
  -58069022.5705418     
  -58243939.1538376     
  -58412888.8728285     
  -58573841.7766410     
  -58724560.2074785     
  -58862743.1780511     
  -58986171.7448500     
  -59092861.2655211     
  -56518337.5911259     
  -56664784.4622280     
  -56809367.0475315     
  -56951688.5449493     
  -57091749.4990950     
  -57229635.6191346     
  -57365282.3114006     
  -57498330.0136422     
  -57628065.4011203     
  -57753434.8552099     
  -57873107.6009067     
  -57985567.6126267     
  -58089218.9268366     
  -58182496.1050246     
  -58263975.7995874     
  -56275312.0266920     
  -56375818.4093307     
  -56473893.2438054     
  -56569426.6208222     
  -56662635.2699930     
  -56753832.7000780     
  -56843249.7198994     
  -56930915.2390708     
  -57016597.9042803     
  -57099800.2065734     
  -57179792.3722499     
  -57255671.6191825     
  -57326435.1245729     
  -57391057.3538002     
  -57448564.7974500     
  -56034058.0691926     
  -56089273.0697858     
  -56140907.4482931     
  -56189407.4875229     
  -56235442.1657117     
  -56279735.5182605     
  -56322931.9565445     
  -56365503.5843003     
  -56407700.9638934     
  -56449542.6798771     
  -56490834.9256003     
  -56531210.8770483     
  -56570180.1056626     
  -56607179.1142793     
  -56641616.0306428     
  -55796349.6025983     
  -55806220.1356033     
  -55810956.9012589     
  -55811754.0112024     
  -55809905.5920323     
  -55806683.0634966     
  -55803236.5451150     
  -55800527.5889787     
  -55799294.5451646     
  -55800046.9527010     
  -55803081.9573204     
  -55808514.5030682     
  -55816311.8502693     
  -55826325.0272933     
  -55838310.1440348     
  -55564568.9616482     
  -55528139.2267726     
  -55484792.6466729     
  -55436611.7518243     
  -55385642.8698354     
  -55333804.8317536     
  -55282819.4610910     
  -55234168.8309052     
  -55189079.3325652     
  -55148528.7816785     
  -55113269.1174473     
  -55083856.7768203     
  -55060681.5116129     
  -55043985.8841613     
  -55033868.9016853     
  -55341478.9403514     
  -55256744.1345271     
  -55163249.3520697     
  -55064075.7419221     
  -54962117.6002231     
  -54860011.5442735     
  -54760091.0031094     
  -54664368.7066112     
  -54574544.5516897     
  -54492033.3260596     
  -54418003.8631117     
  -54353419.3486986     
  -54299069.5278352     
  -54255585.3113711     
  -54223428.8636880     
  -55130022.4529917     
  -54993811.8002522     
  -54847106.9345085     
  -54694084.9717357     
  -54538564.7417552     
  -54383946.7264196     
  -54233188.7115803     
  -54088816.4438205     
  -53952963.6959532     
  -53827431.4505978     
  -53713754.9644124     
  -53613266.2362957     
  -53527139.3022452     
  -53456406.6445875     
  -53401938.3805073     
  -54933142.7243967     
  -54741011.0453809     
  -54536934.5282148     
  -54326287.5608789     
  -54113881.6314277     
  -53903906.1006664     
  -53699924.4349369     
  -53504920.8011009     
  -53321385.3841418     
  -53151421.1811256     
  -52996855.3009329     
  -52859338.5081708     
  -52740414.6818672     
  -52641545.3587037     
  -52564079.1378713     
  -54753617.2730359     
  -54499723.7732752     
  -54232910.2121909     
  -53959872.2982738     
  -53686483.5043342     
  -53417726.0279721     
  -53157710.1911703     
  -52909772.2044508     
  -52676626.0423193     
  -52460542.0574950     
  -52263526.8340629     
  -52087477.9212784     
  -51934290.0985802     
  -51805894.0887438     
  -51704216.3286788     
  -54593899.3775350     
  -54270846.2798639     
  -53934601.4086106     
  -53593353.0187008     
  -53254115.0472453     
  -52922638.1055092     
  -52603464.0195853     
  -52300100.0469995     
  -52015272.0424241     
  -51751212.4549210     
  -51509940.2526231     
  -51293493.6095692     
  -51104087.1203816     
  -50944172.0017995     
  -50816385.6061068     
  -54455957.2162791     
  -54054548.5857241     
  -53640678.4650860     
  -53224280.5758838     
  -52813600.0329188     
  -52415083.2195922     
  -52033497.2339693     
  -51672230.1788684     
  -51333700.1170474     
  -51019802.4186772     
  -50732326.0923244     
  -50473291.3980166     
  -50245177.1324478     
  -50051014.5719544     
  -49894328.1959080     
  -54341100.0167677     
  -53849952.7582406     
  -53348512.3890685     
  -52848836.9475811     
  -52360501.1415809     
  -51890472.8694828     
  -51443382.7873315     
  -51022049.4475300     
  -50628127.2035909     
  -50262759.0507993     
  -49927160.6968406     
  -49623093.8098183     
  -49353198.7206833     
  -49121148.4971453     
  -48931588.3001977     
  -54249773.9951046     
  -53654660.5034662     
  -53053562.6689128     
  -52461244.0211575     
  -51888652.3592549     
  -51342885.8191192     
  -50827806.0844202     
  -50344987.7424955     
  -49894705.1665378     
  -49476805.2686505     
  -49091455.4495888     
  -48739790.2343914     
  -48424413.7620604     
  -48149687.9112580     
  -47921692.5375575     
  -54181243.1974014     
  -53463967.1244440     
  -52748399.8212389     
  -52052874.9264388     
  -51389525.6325625     
  -50764701.5770734     
  -50180415.3162813     
  -49636037.5611103     
  -49129681.7639656     
  -48659230.6304887     
  -48223182.7450780     
  -47821468.7219166     
  -47456277.2296393     
  -47132617.0308535     
  -46858446.0211476     
  -54132987.2467702     
  -53269370.9589055     
  -52421019.6030484     
  -51610922.0154181     
  -50851427.6285813     
  -50146226.8472189     
  -49493734.3633086     
  -48889842.3345598     
  -48329625.4356521     
  -47808277.1734032     
  -47321845.0686725     
  -46868221.6015409     
  -46448337.5767594     
  -46067614.2302146     
  -45736388.4302986     
  -54099441.5331726     
  -53055485.7058334     
  -52051773.8891397     
  -51116460.5020308     
  -50258670.2637208     
  -49475564.3813618     
  -48759274.4552463     
  -48100891.3273823     
  -47491668.7064451     
  -46923494.1162443     
  -46389212.0655345     
  -45883232.4711965     
  -45403850.5255297     
  -44955424.6658341     
  -44551629.5032462     
  -54068012.2464844     
  -52792902.7596846     
  -51607730.3318892     
  -50542124.7191703     
  -49591648.9231687     
  -48739100.0156310     
  -47968037.4688102     
  -47263848.8294943     
  -46613667.6923857     
  -46005874.1629755     
  -45429618.6452700     
  -44874710.6643570     
  -44332029.5455649     
  -43803340.5685049     
  -43302982.2133256     
  -54006629.8875416     
  -52417416.0612687     
  -51033444.2034302     
  -49854005.3752123     
  -48828674.7077600     
  -47923059.9983211     
  -47111474.3221262     
  -46374012.1561887     
  -45694219.8547104     
  -45057459.7011289     
  -44449526.3760624     
  -43855133.3406724     
  -43256594.7898204     
  -42628899.3767482     
  -41998288.5416656     
  -53770031.3822178     
  -51779914.2605582     
  -50266851.8716683     
  -49018040.1478586     
  -47950478.2877451     
  -47015947.9233116     
  -46182782.8040472     
  -45427831.6832048     
  -44732540.8077267     
  -44080510.4180339     
  -43455475.1809487     
  -42838895.8867762     
  -42205472.1503065     
  -41513776.3945184     
  -40642911.9830389     
SCALARS 2waySource double 
LOOKUP_TABLE default
  1.071925514151931E-005
  1.136665569917908E-005
  1.153567002783724E-005
  1.151029052067530E-005
  1.078423011668282E-005
  9.684935162090683E-006
  1.124847332731546E-005
  1.306174582947448E-005
  1.504288019145253E-005
  1.616885664751100E-005
  1.695832697290034E-005
  1.755934024020991E-005
  1.803421102611940E-005
  1.841337765796465E-005
  1.871063818929820E-005
  1.113781345479729E-005
  1.111196740612493E-005
  1.102155412766511E-005
  1.018717085577994E-005
  9.572215584993185E-006
  1.321911198582958E-005
  1.524674696306825E-005
  1.441139031083359E-005
  1.550518968693851E-005
  1.638272252843184E-005
  1.706856850636250E-005
  1.761771907020549E-005
  1.806587111543168E-005
  1.843256543715421E-005
  1.872752689089721E-005
  1.108684508913565E-005
  9.755835681925167E-006
  1.031163363603150E-005
  1.358723595703496E-005
  1.633276312790464E-005
  1.673702231073316E-005
  1.554156115656620E-005
  1.573563547672162E-005
  1.606627703747527E-005
  1.666411066291185E-005
  1.721262261012829E-005
  1.769044396786649E-005
  1.810025931788114E-005
  1.844936741916859E-005
  1.874264098801371E-005
  1.256705628945771E-005
  1.437694143020454E-005
  1.745604821835665E-005
  1.724714704827889E-005
  1.621165215139263E-005
  1.655787640851622E-005
  1.634266880074983E-005
  1.629244697869197E-005
  1.655422802690222E-005
  1.692656127230067E-005
  1.734964958060113E-005
  1.775270089171750E-005
  1.812027415057958E-005
  1.844919034930546E-005
  1.874046634341442E-005
  1.775315910825569E-005
  1.686450431712689E-005
  1.673117067709193E-005
  1.694891750431221E-005
  1.669395885478894E-005
  1.659136540608101E-005
  1.661207514195038E-005
  1.666165626986025E-005
  1.683526503581193E-005
  1.711627546614314E-005
  1.744317946742804E-005
  1.778153788550901E-005
  1.810856491309288E-005
  1.841654932842468E-005
  1.870415796191591E-005
  1.702884195338817E-005
  1.684491186147548E-005
  1.670758879695295E-005
  1.672193726797294E-005
  1.671082093888448E-005
  1.668792846031467E-005
  1.672033352353967E-005
  1.681632782271716E-005
  1.697674565237728E-005
  1.720168648381118E-005
  1.747035426824630E-005
  1.775828395354601E-005
  1.805003245763796E-005
  1.833740100619594E-005
  1.861858358012302E-005
  1.646717027276914E-005
  1.651148896231291E-005
  1.652927370478270E-005
  1.656236671635328E-005
  1.660580224566647E-005
  1.665445595736207E-005
  1.672599523973049E-005
  1.683665150337070E-005
  1.699203599358417E-005
  1.718928643491010E-005
  1.741962974453974E-005
  1.767102759349118E-005
  1.793328288126375E-005
  1.820074428216193E-005
  1.847219065254372E-005
  1.594619956825303E-005
  1.612919220150316E-005
  1.625005141950183E-005
  1.634786345945534E-005
  1.643749707579821E-005
  1.652814774459872E-005
  1.663014808779911E-005
  1.675385157694586E-005
  1.690537828302442E-005
  1.708534716014971E-005
  1.729004675905406E-005
  1.751379384105897E-005
  1.775125973379288E-005
  1.799926017291847E-005
  1.825762017557224E-005
  1.546473990223129E-005
  1.573036554970708E-005
  1.592539724611324E-005
  1.607812459187973E-005
  1.620834816709622E-005
  1.632922521677729E-005
  1.645144893847869E-005
  1.658373256380627E-005
  1.673201357886421E-005
  1.689885311743321E-005
  1.708391972136152E-005
  1.728524600469082E-005
  1.750069609936248E-005
  1.772916400952572E-005
  1.797135504171040E-005
  1.501641912141458E-005
  1.533290879598945E-005
  1.557577817934827E-005
  1.576795038922023E-005
  1.592776784647753E-005
  1.606937724793465E-005
  1.620377642634860E-005
  1.633955694457417E-005
  1.648290879452626E-005
  1.663761237021052E-005
  1.680537965519179E-005
  1.698659008010530E-005
  1.718118966580372E-005
  1.738951071592770E-005
  1.761287184278700E-005
  1.459969909289791E-005
  1.494320034910374E-005
  1.521320692210000E-005
  1.542866907604113E-005
  1.560598271090953E-005
  1.575866935444155E-005
  1.589765248284756E-005
  1.603156591607693E-005
  1.616695260301557E-005
  1.630842755865001E-005
  1.645898309658050E-005
  1.662046888746705E-005
  1.679416822294293E-005
  1.698134593762096E-005
  1.718367233161485E-005
  1.421297078208398E-005
  1.456470231276000E-005
  1.484456403051526E-005
  1.506865065719426E-005
  1.525148386228093E-005
  1.540561501164363E-005
  1.554155889691244E-005
  1.566789486122390E-005
  1.579140678396188E-005
  1.591726131530917E-005
  1.604925814991579E-005
  1.619016587296843E-005
  1.634210489816014E-005
  1.650691256280130E-005
  1.668642712786860E-005
  1.385483812582373E-005
  1.419930912763397E-005
  1.447431967055939E-005
  1.469386922679846E-005
  1.487094055248275E-005
  1.501710800936319E-005
  1.514236969953260E-005
  1.525512965779193E-005
  1.536226974946008E-005
  1.546928235650718E-005
  1.558046007499672E-005
  1.569913354257195E-005
  1.582793179623119E-005
  1.596902529688697E-005
  1.612430954570061E-005
  1.352428418131479E-005
  1.384824631982564E-005
  1.410554404239170E-005
  1.430868412503828E-005
  1.446945796347658E-005
  1.459859951309794E-005
  1.470559266513110E-005
  1.479860135344932E-005
  1.488448931131374E-005
  1.496890552023431E-005
  1.505641897450575E-005
  1.515068673396472E-005
  1.525463297045372E-005
  1.537061090573270E-005
  1.550051804880457E-005
  1.322079856064061E-005
  1.351246972264077E-005
  1.374048212395623E-005
  1.391632239932211E-005
  1.405091092431890E-005
  1.415431497278044E-005
  1.423556495475266E-005
  1.430256585084282E-005
  1.436208740575574E-005
  1.441981502660636E-005
  1.448044423285503E-005
  1.454780081907653E-005
  1.462496662233988E-005
  1.471438869033539E-005
  1.481794974987848E-005
  1.294437056812740E-005
  1.319285825540603E-005
  1.338085028721200E-005
  1.351918697204256E-005
  1.361819472120999E-005
  1.368744846989931E-005
  1.373560777413209E-005
  1.377032812949224E-005
  1.379823965740569E-005
  1.382497997492157E-005
  1.385526531631777E-005
  1.389298237912792E-005
  1.394128226759856E-005
  1.400265766433144E-005
  1.407898558353355E-005
  1.269541049430879E-005
  1.289027074858958E-005
  1.302797832094268E-005
  1.311902770112045E-005
  1.317338750079676E-005
  1.320030010323933E-005
  1.320813887641212E-005
  1.320432943417444E-005
  1.319533144935409E-005
  1.318667004299004E-005
  1.318300121883392E-005
  1.318819369689044E-005
  1.320540913404290E-005
  1.323716361004813E-005
  1.328535528915029E-005
  1.247463291861541E-005
  1.260552095817157E-005
  1.268284695167012E-005
  1.271701153251568E-005
  1.271782974373531E-005
  1.269435249301388E-005
  1.265474115390760E-005
  1.260620520883397E-005
  1.255500065239190E-005
  1.250647715474593E-005
  1.246515632050420E-005
  1.243482159357969E-005
  1.241860121162539E-005
  1.241902776958602E-005
  1.243806065926791E-005
  1.228292232474519E-005
  1.233929805651513E-005
  1.234604897767627E-005
  1.231371036129959E-005
  1.225212908894029E-005
  1.217028744861075E-005
  1.207618884461451E-005
  1.197681838048111E-005
  1.187817371739908E-005
  1.178534846985511E-005
  1.170264428727133E-005
  1.163368782213095E-005
  1.158153228172401E-005
  1.154872739649686E-005
  1.153734495489305E-005
  1.212119056875845E-005
  1.209204506321351E-005
  1.201768437006552E-005
  1.190901264264322E-005
  1.177609210694505E-005
  1.162794292847147E-005
  1.147243296198904E-005
  1.131627269193081E-005
  1.116510208733490E-005
  1.102363797309797E-005
  1.089584573035211E-005
  1.078510419062510E-005
  1.069434137030845E-005
  1.062612615386436E-005
  1.058270453050854E-005
  1.199023053347570E-005
  1.186379523515843E-005
  1.169718422196831E-005
  1.150195036807699E-005
  1.128857495394480E-005
  1.106620581223875E-005
  1.084254686975567E-005
  1.062391218493223E-005
  1.041540860450116E-005
  1.022118777647468E-005
  1.004471039758604E-005
  9.888981730150747E-006
  9.756736021284026E-006
  9.650559655232023E-006
  9.572945833846141E-006
  1.189056719210627E-005
  1.165395278842989E-005
  1.138303888086391E-005
  1.109041417566115E-005
  1.078723173959990E-005
  1.048283035221237E-005
  1.018463313834761E-005
  9.898316469056065E-006
  9.628158496702911E-006
  9.377455865862659E-006
  9.148920876224133E-006
  8.945010180412789E-006
  8.768168263901572E-006
  8.620989063144804E-006
  8.506297637292130E-006
  1.182230348789601E-005
  1.146098228686615E-005
  1.107237407551300E-005
  1.067070075706462E-005
  1.026812282098299E-005
  9.874168510040742E-006
  9.495697376764849E-006
  9.137308649063390E-006
  8.801976731465347E-006
  8.491713782150360E-006
  8.208142281725013E-006
  7.952932266806727E-006
  7.728107575424078E-006
  7.536244861349145E-006
  7.380595885859435E-006
  1.178494910812590E-005
  1.128192671128660E-005
  1.076025865333406E-005
  1.023679043198244E-005
  9.725127923309667E-006
  9.234805065014180E-006
  8.771510236088445E-006
  8.338005672082248E-006
  7.935240911002330E-006
  7.563344146447204E-006
  7.222389569255427E-006
  6.912949175156467E-006
  6.636447744039911E-006
  6.395398197564745E-006
  6.193569057568609E-006
  1.177719896883058E-005
  1.111156800836253E-005
  1.043850298061044E-005
  9.779177997425604E-006
  9.149107725768288E-006
  8.557130401039823E-006
  8.006516574156708E-006
  7.496957819522858E-006
  7.026380598450906E-006
  6.592263610030182E-006
  6.192554598714577E-006
  5.826305336734764E-006
  5.494114049736012E-006
  5.198319520182941E-006
  4.943277171598318E-006
  1.179654748641276E-005
  1.094077837245174E-005
  1.009341844621646E-005
  9.282987660061924E-006
  8.526840679639585E-006
  7.831003667332924E-006
  7.193926327417685E-006
  6.610432264399624E-006
  6.074282921611303E-006
  5.579481395119026E-006
  5.121113370878031E-006
  4.696160187844145E-006
  4.303952549154599E-006
  3.946576025897626E-006
  3.628794662129579E-006
  1.183847092891318E-005
  1.075268994287593E-005
  9.701415342434837E-006
  8.725140418068825E-006
  7.840120164570720E-006
  7.043963427346965E-006
  6.326172547933936E-006
  5.674873825251130E-006
  5.078738166296844E-006
  4.527654157057771E-006
  4.013097420398324E-006
  3.528755858207733E-006
  3.072302457063655E-006
  2.644759410455838E-006
  2.251506769361295E-006
  1.189305934691852E-005
  1.051280214916890E-005
  9.220043722254880E-006
  8.071390996557843E-006
  7.066793551408035E-006
  6.182494144539400E-006
  5.395900119015209E-006
  4.687500506800878E-006
  4.040751019045866E-006
  3.441356249844215E-006
  2.876709168189761E-006
  2.335885960444470E-006
  1.810742838933702E-006
  1.303984521878243E-006
  8.171004157336342E-007
  1.193313003121177E-005
  1.013486755607420E-005
  8.574635068750593E-006
  7.282078573681674E-006
  6.184719507215838E-006
  5.234674417668572E-006
  4.397372836447290E-006
  3.646894136013648E-006
  2.962527379228951E-006
  2.326591104164930E-006
  1.722830178331977E-006
  1.135089811638556E-006
  5.466262274255448E-007
 -5.900366606914576E-008
 -6.539212170285702E-007
  1.176459968314107E-005
  9.403665943078798E-006
  7.695003241934397E-006
  6.324900874955259E-006
  5.178755657855161E-006
  4.193291283055816E-006
  3.327875577821944E-006
  2.553390439485704E-006
  1.847069089544215E-006
  1.189476664714483E-006
  5.622713551862853E-007
 -5.409549753152952E-008
 -6.836484933034225E-007
 -1.361812583802897E-006
 -2.139998834827208E-006
SCALARS poroP double 
LOOKUP_TABLE default
  7.087411557003133E-005
  6.275909313670428E-005
  5.071382934198219E-005
  3.875644713475659E-005
  2.974741057948997E-005
  2.313823903685642E-005
  1.834016567104609E-005
  1.730101598239487E-005
  1.728218947382811E-005
  1.726199749661368E-005
  1.724051775498202E-005
  1.721783699207408E-005
  1.719405127553460E-005
  1.716926634746174E-005
  1.714359777604710E-005
  5.101935483257166E-005
  4.103076922300595E-005
  3.262416044782554E-005
  2.644096546801586E-005
  2.146002937926572E-005
  1.796308341571326E-005
  1.731812228137970E-005
  1.730077441206317E-005
  1.728200348731061E-005
  1.726187888567586E-005
  1.724047854002034E-005
  1.721788907561339E-005
  1.719420612026467E-005
  1.716953464018307E-005
  1.714398949122742E-005
  3.137386919242386E-005
  2.360844384431200E-005
  1.964725978209304E-005
  1.768862653438673E-005
  1.734761311305180E-005
  1.733333930209867E-005
  1.731754682173406E-005
  1.730029058864660E-005
  1.728163333145484E-005
  1.726164554167124E-005
  1.724040551065004E-005
  1.721799953170155E-005
  1.719452235623408E-005
  1.717007754077508E-005
  1.714477793582981E-005
  1.927833729143823E-005
  1.737966342957679E-005
  1.737023367527094E-005
  1.735917967043508E-005
  1.734653800316217E-005
  1.733235264950578E-005
  1.731667491724314E-005
  1.729956318733123E-005
  1.728108264360455E-005
  1.726130513563286E-005
  1.724030925681627E-005
  1.721818068569731E-005
  1.719501278929677E-005
  1.717090691367461E-005
  1.714597282097394E-005
  1.738567300248353E-005
  1.737794352526463E-005
  1.736857391719880E-005
  1.735759857856283E-005
  1.734505966187412E-005
  1.733100675583926E-005
  1.731549618046929E-005
  1.729859026999940E-005
  1.728035684386993E-005
  1.726086900782918E-005
  1.724020532812170E-005
  1.721845052793550E-005
  1.719569584648934E-005
  1.717203971742182E-005
  1.714758844688403E-005
  1.738331007806538E-005
  1.737565573416902E-005
  1.736638124629115E-005
  1.735552631235572E-005
  1.734313919760793E-005
  1.732927551101895E-005
  1.731399677640763E-005
  1.729736920164185E-005
  1.727946292201371E-005
  1.726035180320749E-005
  1.724011379383956E-005
  1.721883188703732E-005
  1.719659494969164E-005
  1.717349811569530E-005
  1.714964363888882E-005
  1.738024194619104E-005
  1.737270408321335E-005
  1.736357425458848E-005
  1.735289728947110E-005
  1.734072744765792E-005
  1.732712603583995E-005
  1.731215922110557E-005
  1.729589632072410E-005
  1.727840889226472E-005
  1.725977067100099E-005
  1.724005823042078E-005
  1.721935221339933E-005
  1.719773848220239E-005
  1.717530872952782E-005
  1.715216136562826E-005
  1.737633377693370E-005
  1.736897002733603E-005
  1.736005293017718E-005
  1.734963138597175E-005
  1.733776458052728E-005
  1.732451827889079E-005
  1.730996183582175E-005
  1.729416616276831E-005
  1.727720280007899E-005
  1.725914409342712E-005
  1.724006447755236E-005
  1.722004171671448E-005
  1.719915803103425E-005
  1.717750187683075E-005
  1.715516846106372E-005
  1.737142315731592E-005
  1.736431148257931E-005
  1.735569796808905E-005
  1.734563337987522E-005
  1.733417951708629E-005
  1.732140422736227E-005
  1.730737763257202E-005
  1.729216996619065E-005
  1.727585087221227E-005
  1.725848993838990E-005
  1.724015845597992E-005
  1.722093106266631E-005
  1.720088670207811E-005
  1.718011072688951E-005
  1.715869549395763E-005
  1.736531959347241E-005
  1.735856244857038E-005
  1.735037039885174E-005
  1.734079238331288E-005
  1.732988901001539E-005
  1.731772649399297E-005
  1.730437233825983E-005
  1.728989320269887E-005
  1.727435465997636E-005
  1.725782232055724E-005
  1.724036367748977E-005
  1.722204994958160E-005
  1.720295766383019E-005
  1.718316988710049E-005
  1.716277629610865E-005
  1.735780551660118E-005
  1.735153367791366E-005
  1.734391172654476E-005
  1.733498127029262E-005
  1.732479618628613E-005
  1.731341595984630E-005
  1.730090122005809E-005
  1.728731181469607E-005
  1.727270708606140E-005
  1.725714757584020E-005
  1.724069700334123E-005
  1.722342374626668E-005
  1.720540251536606E-005
  1.718671459382287E-005
  1.716744751483737E-005
  1.734863888914465E-005
  1.734301477516997E-005
  1.733614474544213E-005
  1.732805590991624E-005
  1.731878824809555E-005
  1.730838813743170E-005
  1.729690442448752E-005
  1.728438692491696E-005
  1.727088699977985E-005
  1.725645967341682E-005
  1.724116545151216E-005
  1.722507080429009E-005
  1.720824874754958E-005
  1.719077910933425E-005
  1.717274810068595E-005
  1.733755980022905E-005
  1.733277797419927E-005
  1.732687496258471E-005
  1.731985412148175E-005
  1.731173308376012E-005
  1.730253798023551E-005
  1.729230067313867E-005
  1.728105805807136E-005
  1.726885265638456E-005
  1.725573438525250E-005
  1.724176129609388E-005
  1.722699826973206E-005
  1.721151703032026E-005
  1.719539590676917E-005
  1.717871902461596E-005
  1.732430149067340E-005
  1.732058507255718E-005
  1.731589276083050E-005
  1.731019406074562E-005
  1.730347463566829E-005
  1.729573303947080E-005
  1.728697930856138E-005
  1.727723506384854E-005
  1.726653406956613E-005
  1.725492237935362E-005
  1.724245602371417E-005
  1.722919848735802E-005
  1.721521973944878E-005
  1.720059450545572E-005
  1.718540220413778E-005
  1.730860644183813E-005
  1.730619776000483E-005
  1.730297738187693E-005
  1.729887225840429E-005
  1.729382698553902E-005
  1.728780517646306E-005
  1.728079084977804E-005
  1.727278885652000E-005
  1.726382487937660E-005
  1.725394243915711E-005
  1.724319568278425E-005
  1.723164581469365E-005
  1.721935816437346E-005
  1.720639922851202E-005
  1.719283864429587E-005
  1.729024854904489E-005
  1.728939167944931E-005
  1.728790318623915E-005
  1.728566284635449E-005
  1.728256800447473E-005
  1.727854135855668E-005
  1.727353691831866E-005
  1.726754183789130E-005
  1.726057459412985E-005
  1.725267562376700E-005
  1.724389630460560E-005
  1.723429272091827E-005
  1.722391909701417E-005
  1.721282600913387E-005
  1.720106560469616E-005
  1.726906083458253E-005
  1.726997511370769E-005
  1.727044930622951E-005
  1.727031947222434E-005
  1.726943511935793E-005
  1.726767515917967E-005
  1.726496044686728E-005
  1.726125901098547E-005
  1.725658046090110E-005
  1.725095911229486E-005
  1.724443966608707E-005
  1.723706571297816E-005
  1.722887033613030E-005
  1.721987751579537E-005
  1.721011243798454E-005
  1.724496640808532E-005
  1.724781213303306E-005
  1.725041497598542E-005
  1.725258264363042E-005
  1.725412564907525E-005
  1.725488211331241E-005
  1.725473860757679E-005
  1.725364061954893E-005
  1.725158167744187E-005
  1.724858161179643E-005
  1.724466846524476E-005
  1.723985970816189E-005
  1.723415380992671E-005
  1.722753619532418E-005
  1.721999533216589E-005
  1.721800805908049E-005
  1.722284885361176E-005
  1.722764205418493E-005
  1.723219640772985E-005
  1.723630624368807E-005
  1.723978238187490E-005
  1.724248137590344E-005
  1.724431847494788E-005
  1.724525509254476E-005
  1.724527865966317E-005
  1.724437940158735E-005
  1.724252858240657E-005
  1.723967483098528E-005
  1.723575451591344E-005
  1.723071133794567E-005
  1.718836743625592E-005
  1.719513827041942E-005
  1.720204400640691E-005
  1.720893727727451E-005
  1.721563709376950E-005
  1.722195801611897E-005
  1.722774007161193E-005
  1.723285751221140E-005
  1.723721271553598E-005
  1.724072537505023E-005
  1.724331132721939E-005
  1.724487029013720E-005
  1.724528735283819E-005
  1.724444350101386E-005
  1.724223265575046E-005
  1.715636908237727E-005
  1.716485466993945E-005
  1.717363403632137E-005
  1.718265426617797E-005
  1.719181651405498E-005
  1.720099291205299E-005
  1.721003539525334E-005
  1.721876998339199E-005
  1.722700099165582E-005
  1.723452168401367E-005
  1.724112264380004E-005
  1.724660288678740E-005
  1.725077397555525E-005
  1.725346012355117E-005
  1.725450199839484E-005
  1.712245860071856E-005
  1.713229235336610E-005
  1.714254422089466E-005
  1.715331205547144E-005
  1.716464493589179E-005
  1.717654307996975E-005
  1.718891724853720E-005
  1.720154887497622E-005
  1.721409952804561E-005
  1.722616571318695E-005
  1.723735430724064E-005
  1.724733070992775E-005
  1.725582203578847E-005
  1.726259426586653E-005
  1.726742987836648E-005
  1.708715843584720E-005
  1.709783423710675E-005
  1.710902616886258E-005
  1.712102670554109E-005
  1.713410117691336E-005
  1.714844346640040E-005
  1.716406922931099E-005
  1.718072908661364E-005
  1.719792355527310E-005
  1.721501552979661E-005
  1.723137945612960E-005
  1.724650138410108E-005
  1.725999511494781E-005
  1.727155414419516E-005
  1.728089046282933E-005
  1.705099507731419E-005
  1.706189822000057E-005
  1.707341493564507E-005
  1.708607673642326E-005
  1.710041632513960E-005
  1.711683798442272E-005
  1.713544967077891E-005
  1.715598594197577E-005
  1.717785705607749E-005
  1.720026403418117E-005
  1.722234951152960E-005
  1.724335268820704E-005
  1.726269347204727E-005
  1.727994177594577E-005
  1.729471476210024E-005
  1.701440581648175E-005
  1.702484290535329E-005
  1.703606815096852E-005
  1.704889934873040E-005
  1.706413303737264E-005
  1.708227574001000E-005
  1.710340307773978E-005
  1.712726509128848E-005
  1.715337022113241E-005
  1.718098884678915E-005
  1.720916389418334E-005
  1.723683891206092E-005
  1.726308197478725E-005
  1.728720412808422E-005
  1.730867703154184E-005
  1.697777622056609E-005
  1.698691091249391E-005
  1.699731775015160E-005
  1.701011267448744E-005
  1.702613641939738E-005
  1.704566870702960E-005
  1.706863833188903E-005
  1.709490118408453E-005
  1.712427188651445E-005
  1.715639005924119E-005
  1.719053511155994E-005
  1.722553286530901E-005
  1.725995068536745E-005
  1.729254611979721E-005
  1.732246307402935E-005
  1.694134410755412E-005
  1.694826207800791E-005
  1.695762348100351E-005
  1.697065299115817E-005
  1.698752784066573E-005
  1.700802598600635E-005
  1.703204310971289E-005
  1.705964312201018E-005
  1.709100214064161E-005
  1.712627334960114E-005
  1.716536275617465E-005
  1.720760947786930E-005
  1.725145537507282E-005
  1.729468906176449E-005
  1.733561882095803E-005
  1.690510895676398E-005
  1.690911206747088E-005
  1.691808712475608E-005
  1.693174448337940E-005
  1.694920611268826E-005
  1.697010548678472E-005
  1.699446132571027E-005
  1.702252162713739E-005
  1.705468753182461E-005
  1.709150729928576E-005
  1.713361300950727E-005
  1.718146218956786E-005
  1.723477693007405E-005
  1.729137427450708E-005
  1.734730851599110E-005
  1.686856834362043E-005
  1.687112735708035E-005
  1.688045732373231E-005
  1.689411194623182E-005
  1.691149226689667E-005
  1.693231462939055E-005
  1.695659594453702E-005
  1.698459952453264E-005
  1.701679546554905E-005
  1.705390639167915E-005
  1.709699894964926E-005
  1.714752520229904E-005
  1.720721319016955E-005
  1.727759877302234E-005
  1.735549642986620E-005
  1.683708670098481E-005
  1.683766488424352E-005
  1.684494388904476E-005
  1.685757480205662E-005
  1.687442123012043E-005
  1.689495147569277E-005
  1.691900613534899E-005
  1.694674262339213E-005
  1.697862297191009E-005
  1.701542748049198E-005
  1.705832222999823E-005
  1.710912040985768E-005
  1.717079501953503E-005
  1.724841760257631E-005
  1.735255490737571E-005
SCALARS elementIsPlast double 
LOOKUP_TABLE default
   1.00000000000000     
   1.00000000000000     
   1.00000000000000     
   1.00000000000000     
   1.00000000000000     
   1.00000000000000     
   1.00000000000000     
  0.000000000000000E+000
  0.000000000000000E+000
  0.000000000000000E+000
  0.000000000000000E+000
  0.000000000000000E+000
  0.000000000000000E+000
  0.000000000000000E+000
  0.000000000000000E+000
   1.00000000000000     
   1.00000000000000     
   1.00000000000000     
   1.00000000000000     
   1.00000000000000     
   1.00000000000000     
  0.000000000000000E+000
  0.000000000000000E+000
  0.000000000000000E+000
  0.000000000000000E+000
  0.000000000000000E+000
  0.000000000000000E+000
  0.000000000000000E+000
  0.000000000000000E+000
  0.000000000000000E+000
   1.00000000000000     
   1.00000000000000     
   1.00000000000000     
   1.00000000000000     
  0.000000000000000E+000
  0.000000000000000E+000
  0.000000000000000E+000
  0.000000000000000E+000
  0.000000000000000E+000
  0.000000000000000E+000
  0.000000000000000E+000
  0.000000000000000E+000
  0.000000000000000E+000
  0.000000000000000E+000
  0.000000000000000E+000
   1.00000000000000     
  0.000000000000000E+000
  0.000000000000000E+000
  0.000000000000000E+000
  0.000000000000000E+000
  0.000000000000000E+000
  0.000000000000000E+000
  0.000000000000000E+000
  0.000000000000000E+000
  0.000000000000000E+000
  0.000000000000000E+000
  0.000000000000000E+000
  0.000000000000000E+000
  0.000000000000000E+000
  0.000000000000000E+000
  0.000000000000000E+000
  0.000000000000000E+000
  0.000000000000000E+000
  0.000000000000000E+000
  0.000000000000000E+000
  0.000000000000000E+000
  0.000000000000000E+000
  0.000000000000000E+000
  0.000000000000000E+000
  0.000000000000000E+000
  0.000000000000000E+000
  0.000000000000000E+000
  0.000000000000000E+000
  0.000000000000000E+000
  0.000000000000000E+000
  0.000000000000000E+000
  0.000000000000000E+000
  0.000000000000000E+000
  0.000000000000000E+000
  0.000000000000000E+000
  0.000000000000000E+000
  0.000000000000000E+000
  0.000000000000000E+000
  0.000000000000000E+000
  0.000000000000000E+000
  0.000000000000000E+000
  0.000000000000000E+000
  0.000000000000000E+000
  0.000000000000000E+000
  0.000000000000000E+000
  0.000000000000000E+000
  0.000000000000000E+000
  0.000000000000000E+000
  0.000000000000000E+000
  0.000000000000000E+000
  0.000000000000000E+000
  0.000000000000000E+000
  0.000000000000000E+000
  0.000000000000000E+000
  0.000000000000000E+000
  0.000000000000000E+000
  0.000000000000000E+000
  0.000000000000000E+000
  0.000000000000000E+000
  0.000000000000000E+000
  0.000000000000000E+000
  0.000000000000000E+000
  0.000000000000000E+000
  0.000000000000000E+000
  0.000000000000000E+000
  0.000000000000000E+000
  0.000000000000000E+000
  0.000000000000000E+000
  0.000000000000000E+000
  0.000000000000000E+000
  0.000000000000000E+000
  0.000000000000000E+000
  0.000000000000000E+000
  0.000000000000000E+000
  0.000000000000000E+000
  0.000000000000000E+000
  0.000000000000000E+000
  0.000000000000000E+000
  0.000000000000000E+000
  0.000000000000000E+000
  0.000000000000000E+000
  0.000000000000000E+000
  0.000000000000000E+000
  0.000000000000000E+000
  0.000000000000000E+000
  0.000000000000000E+000
  0.000000000000000E+000
  0.000000000000000E+000
  0.000000000000000E+000
  0.000000000000000E+000
  0.000000000000000E+000
  0.000000000000000E+000
  0.000000000000000E+000
  0.000000000000000E+000
  0.000000000000000E+000
  0.000000000000000E+000
  0.000000000000000E+000
  0.000000000000000E+000
  0.000000000000000E+000
  0.000000000000000E+000
  0.000000000000000E+000
  0.000000000000000E+000
  0.000000000000000E+000
  0.000000000000000E+000
  0.000000000000000E+000
  0.000000000000000E+000
  0.000000000000000E+000
  0.000000000000000E+000
  0.000000000000000E+000
  0.000000000000000E+000
  0.000000000000000E+000
  0.000000000000000E+000
  0.000000000000000E+000
  0.000000000000000E+000
  0.000000000000000E+000
  0.000000000000000E+000
  0.000000000000000E+000
  0.000000000000000E+000
  0.000000000000000E+000
  0.000000000000000E+000
  0.000000000000000E+000
  0.000000000000000E+000
  0.000000000000000E+000
  0.000000000000000E+000
  0.000000000000000E+000
  0.000000000000000E+000
  0.000000000000000E+000
  0.000000000000000E+000
  0.000000000000000E+000
  0.000000000000000E+000
  0.000000000000000E+000
  0.000000000000000E+000
  0.000000000000000E+000
  0.000000000000000E+000
  0.000000000000000E+000
  0.000000000000000E+000
  0.000000000000000E+000
  0.000000000000000E+000
  0.000000000000000E+000
  0.000000000000000E+000
  0.000000000000000E+000
  0.000000000000000E+000
  0.000000000000000E+000
  0.000000000000000E+000
  0.000000000000000E+000
  0.000000000000000E+000
  0.000000000000000E+000
  0.000000000000000E+000
  0.000000000000000E+000
  0.000000000000000E+000
  0.000000000000000E+000
  0.000000000000000E+000
  0.000000000000000E+000
  0.000000000000000E+000
  0.000000000000000E+000
  0.000000000000000E+000
  0.000000000000000E+000
  0.000000000000000E+000
  0.000000000000000E+000
  0.000000000000000E+000
  0.000000000000000E+000
  0.000000000000000E+000
  0.000000000000000E+000
  0.000000000000000E+000
  0.000000000000000E+000
  0.000000000000000E+000
  0.000000000000000E+000
  0.000000000000000E+000
  0.000000000000000E+000
  0.000000000000000E+000
  0.000000000000000E+000
  0.000000000000000E+000
  0.000000000000000E+000
  0.000000000000000E+000
  0.000000000000000E+000
  0.000000000000000E+000
  0.000000000000000E+000
  0.000000000000000E+000
  0.000000000000000E+000
  0.000000000000000E+000
  0.000000000000000E+000
  0.000000000000000E+000
  0.000000000000000E+000
  0.000000000000000E+000
  0.000000000000000E+000
  0.000000000000000E+000
  0.000000000000000E+000
  0.000000000000000E+000
  0.000000000000000E+000
  0.000000000000000E+000
  0.000000000000000E+000
  0.000000000000000E+000
  0.000000000000000E+000
  0.000000000000000E+000
  0.000000000000000E+000
  0.000000000000000E+000
  0.000000000000000E+000
  0.000000000000000E+000
  0.000000000000000E+000
  0.000000000000000E+000
  0.000000000000000E+000
  0.000000000000000E+000
  0.000000000000000E+000
  0.000000000000000E+000
  0.000000000000000E+000
  0.000000000000000E+000
  0.000000000000000E+000
  0.000000000000000E+000
  0.000000000000000E+000
  0.000000000000000E+000
  0.000000000000000E+000
  0.000000000000000E+000
  0.000000000000000E+000
  0.000000000000000E+000
  0.000000000000000E+000
  0.000000000000000E+000
  0.000000000000000E+000
  0.000000000000000E+000
  0.000000000000000E+000
  0.000000000000000E+000
  0.000000000000000E+000
  0.000000000000000E+000
  0.000000000000000E+000
  0.000000000000000E+000
  0.000000000000000E+000
  0.000000000000000E+000
  0.000000000000000E+000
  0.000000000000000E+000
  0.000000000000000E+000
  0.000000000000000E+000
  0.000000000000000E+000
  0.000000000000000E+000
  0.000000000000000E+000
  0.000000000000000E+000
  0.000000000000000E+000
  0.000000000000000E+000
  0.000000000000000E+000
  0.000000000000000E+000
  0.000000000000000E+000
  0.000000000000000E+000
  0.000000000000000E+000
  0.000000000000000E+000
  0.000000000000000E+000
  0.000000000000000E+000
  0.000000000000000E+000
  0.000000000000000E+000
  0.000000000000000E+000
  0.000000000000000E+000
  0.000000000000000E+000
  0.000000000000000E+000
  0.000000000000000E+000
  0.000000000000000E+000
  0.000000000000000E+000
  0.000000000000000E+000
  0.000000000000000E+000
  0.000000000000000E+000
  0.000000000000000E+000
  0.000000000000000E+000
  0.000000000000000E+000
  0.000000000000000E+000
  0.000000000000000E+000
  0.000000000000000E+000
  0.000000000000000E+000
  0.000000000000000E+000
  0.000000000000000E+000
  0.000000000000000E+000
  0.000000000000000E+000
  0.000000000000000E+000
  0.000000000000000E+000
  0.000000000000000E+000
  0.000000000000000E+000
  0.000000000000000E+000
  0.000000000000000E+000
  0.000000000000000E+000
  0.000000000000000E+000
  0.000000000000000E+000
  0.000000000000000E+000
  0.000000000000000E+000
  0.000000000000000E+000
  0.000000000000000E+000
  0.000000000000000E+000
  0.000000000000000E+000
  0.000000000000000E+000
  0.000000000000000E+000
  0.000000000000000E+000
  0.000000000000000E+000
  0.000000000000000E+000
  0.000000000000000E+000
  0.000000000000000E+000
  0.000000000000000E+000
  0.000000000000000E+000
  0.000000000000000E+000
  0.000000000000000E+000
  0.000000000000000E+000
  0.000000000000000E+000
  0.000000000000000E+000
  0.000000000000000E+000
  0.000000000000000E+000
  0.000000000000000E+000
  0.000000000000000E+000
  0.000000000000000E+000
  0.000000000000000E+000
  0.000000000000000E+000
  0.000000000000000E+000
  0.000000000000000E+000
  0.000000000000000E+000
  0.000000000000000E+000
  0.000000000000000E+000
  0.000000000000000E+000
  0.000000000000000E+000
  0.000000000000000E+000
  0.000000000000000E+000
  0.000000000000000E+000
  0.000000000000000E+000
  0.000000000000000E+000
  0.000000000000000E+000
  0.000000000000000E+000
  0.000000000000000E+000
  0.000000000000000E+000
  0.000000000000000E+000
  0.000000000000000E+000
  0.000000000000000E+000
  0.000000000000000E+000
  0.000000000000000E+000
  0.000000000000000E+000
  0.000000000000000E+000
  0.000000000000000E+000
  0.000000000000000E+000
  0.000000000000000E+000
  0.000000000000000E+000
  0.000000000000000E+000
  0.000000000000000E+000
  0.000000000000000E+000
  0.000000000000000E+000
  0.000000000000000E+000
  0.000000000000000E+000
  0.000000000000000E+000
  0.000000000000000E+000
  0.000000000000000E+000
  0.000000000000000E+000
  0.000000000000000E+000
  0.000000000000000E+000
  0.000000000000000E+000
  0.000000000000000E+000
  0.000000000000000E+000
  0.000000000000000E+000
  0.000000000000000E+000
  0.000000000000000E+000
  0.000000000000000E+000
  0.000000000000000E+000
  0.000000000000000E+000
  0.000000000000000E+000
  0.000000000000000E+000
  0.000000000000000E+000
  0.000000000000000E+000
  0.000000000000000E+000
  0.000000000000000E+000
  0.000000000000000E+000
  0.000000000000000E+000
  0.000000000000000E+000
  0.000000000000000E+000
  0.000000000000000E+000
  0.000000000000000E+000
  0.000000000000000E+000
  0.000000000000000E+000
  0.000000000000000E+000
  0.000000000000000E+000
  0.000000000000000E+000
  0.000000000000000E+000
  0.000000000000000E+000
  0.000000000000000E+000
  0.000000000000000E+000
  0.000000000000000E+000
  0.000000000000000E+000
  0.000000000000000E+000
  0.000000000000000E+000
  0.000000000000000E+000
  0.000000000000000E+000
  0.000000000000000E+000
  0.000000000000000E+000
  0.000000000000000E+000
  0.000000000000000E+000
  0.000000000000000E+000
  0.000000000000000E+000
  0.000000000000000E+000
  0.000000000000000E+000
  0.000000000000000E+000
  0.000000000000000E+000
  0.000000000000000E+000
  0.000000000000000E+000
  0.000000000000000E+000
  0.000000000000000E+000
  0.000000000000000E+000
  0.000000000000000E+000
  0.000000000000000E+000
  0.000000000000000E+000
  0.000000000000000E+000
  0.000000000000000E+000
  0.000000000000000E+000
  0.000000000000000E+000
  0.000000000000000E+000
  0.000000000000000E+000
  0.000000000000000E+000
  0.000000000000000E+000
  0.000000000000000E+000
SCALARS poroL double 
LOOKUP_TABLE default
  0.156167013983064     
  0.156160929711983     
  0.156147490572152     
  0.156130031793046     
  0.156110875916843     
  0.156092035203409     
  0.156075275452219     
  0.156064082394144     
  0.156056376161832     
  0.156049933949933     
  0.156044218287406     
  0.156038904119263     
  0.156033708015691     
  0.156028269634842     
  0.156021649393322     
  0.156128194553634     
  0.156115653148839     
  0.156104254064546     
  0.156093136131662     
  0.156081153765493     
  0.156069922133015     
  0.156061535434047     
  0.156054325887509     
  0.156047478044369     
  0.156041462759062     
  0.156036027331335     
  0.156030961250887     
  0.156026071228718     
  0.156021136244027     
  0.156016346973322     
  0.156090586105013     
  0.156076806084909     
  0.156068143408553     
  0.156062795052084     
  0.156058999116312     
  0.156054746338242     
  0.156049344053545     
  0.156043453111695     
  0.156037773428387     
  0.156032425460252     
  0.156027473521347     
  0.156022840760078     
  0.156018445253075     
  0.156014290242258     
  0.156010484877644     
  0.156060827568728     
  0.156054820727395     
  0.156051811168251     
  0.156048950665636     
  0.156045608468489     
  0.156041633065454     
  0.156037172237318     
  0.156032404392760     
  0.156027603102705     
  0.156022978158594     
  0.156018599856764     
  0.156014490850981     
  0.156010658860044     
  0.156007144370169     
  0.156004054139817     
  0.156045918193171     
  0.156042562737263     
  0.156039182984163     
  0.156036042176177     
  0.156032756452896     
  0.156029181546015     
  0.156025324036968     
  0.156021294705961     
  0.156017229233833     
  0.156013252748918     
  0.156009452975466     
  0.156005880963863     
  0.156002580070197     
  0.155999607497408     
  0.155997046903957     
  0.156032776954529     
  0.156029523309338     
  0.156026432245663     
  0.156023363934229     
  0.156020261944031     
  0.156017033467210     
  0.156013667274972     
  0.156010209967881     
  0.156006739599205     
  0.156003337415029     
  0.156000073709870     
  0.155997005982243     
  0.155994185950809     
  0.155991669821612     
  0.155989523251565     
  0.156019362551933     
  0.156016420694387     
  0.156013566164782     
  0.156010754122159     
  0.156007925160751     
  0.156005047116857     
  0.156002109849285     
  0.155999136968343     
  0.155996173925804     
  0.155993275317141     
  0.155990495420919     
  0.155987884892393     
  0.155985492098169     
  0.155983365867505     
  0.155981556488510     
  0.156005814238866     
  0.156003209379957     
  0.156000667611733     
  0.155998157549731     
  0.155995652318323     
  0.155993132347142     
  0.155990595185224     
  0.155988055134939     
  0.155985541195150     
  0.155983090956756     
  0.155980745333308     
  0.155978545487289     
  0.155976531892119     
  0.155974744210740     
  0.155973220385621     
  0.155992171596130     
  0.155989933393361     
  0.155987733497012     
  0.155985559735117     
  0.155983398384463     
  0.155981240970259     
  0.155979087526435     
  0.155976948577632     
  0.155974843909838     
  0.155972800099798     
  0.155970847556338     
  0.155969018225242     
  0.155967344095080     
  0.155965856054974     
  0.155964582423019     
  0.155978478563555     
  0.155976613742618     
  0.155974771436600     
  0.155972949286026     
  0.155971142487233     
  0.155969347923331     
  0.155967567285200     
  0.155965808393226     
  0.155964085185965     
  0.155962416549379     
  0.155960824714769     
  0.155959333652496     
  0.155957967676204     
  0.155956750145352     
  0.155955702027887     
  0.155964761373994     
  0.155963266708716     
  0.155961786179907     
  0.155960322242901     
  0.155958874178834     
  0.155957441368264     
  0.155956025581484     
  0.155954632288379     
  0.155953270962742     
  0.155951954650278     
  0.155950699071035     
  0.155949521544015     
  0.155948439878062     
  0.155947471253464     
  0.155946631049653     
  0.155951033186047     
  0.155949900684635     
  0.155948780949548     
  0.155947677116748     
  0.155946589281776     
  0.155945516892579     
  0.155944460555422     
  0.155943423145117     
  0.155942410256968     
  0.155941430104527     
  0.155940493035096     
  0.155939610822676     
  0.155938795857899     
  0.155938060297903     
  0.155937415206840     
  0.155937295649614     
  0.155936517335602     
  0.155935756234708     
  0.155935013256242     
  0.155934286816596     
  0.155933574598751     
  0.155932874928015     
  0.155932187686652     
  0.155931514762185     
  0.155930860093483     
  0.155930229409948     
  0.155929629773618     
  0.155929069017129     
  0.155928555147819     
  0.155928095771113     
  0.155923541438384     
  0.155923112540243     
  0.155922709798202     
  0.155922329814720     
  0.155921967502238     
  0.155921617366000     
  0.155921274536043     
  0.155920935478278     
  0.155920598372270     
  0.155920263190473     
  0.155919931544276     
  0.155919606377725     
  0.155919291585592     
  0.155918991622021     
  0.155918711155731     
  0.155909756521652     
  0.155909677687068     
  0.155909637077611     
  0.155909625507793     
  0.155909633048019     
  0.155909649966089     
  0.155909667484037     
  0.155909678293772     
  0.155909676821846     
  0.155909659268355     
  0.155909623472429     
  0.155909568675533     
  0.155909495252138     
  0.155909404463901     
  0.155909298296727     
  0.155895922204136     
  0.155896201025560     
  0.155896531923846     
  0.155896898841476     
  0.155897286024535     
  0.155897678728566     
  0.155898063756029     
  0.155898429784599     
  0.155898767486225     
  0.155899069461919     
  0.155899330055213     
  0.155899545111482     
  0.155899711748888     
  0.155899828205713     
  0.155899893816596     
  0.155882016908276     
  0.155882669022232     
  0.155883387536036     
  0.155884148678089     
  0.155884930134295     
  0.155885711604403     
  0.155886475161331     
  0.155887205388804     
  0.155887889313739     
  0.155888516175144     
  0.155889077107930     
  0.155889564820773     
  0.155889973338292     
  0.155890297889209     
  0.155890534991805     
  0.155868017746985     
  0.155869067700039     
  0.155870197541967     
  0.155871375055966     
  0.155872570789117     
  0.155873758534607     
  0.155874915536619     
  0.155876022416738     
  0.155877062853717     
  0.155878023105925     
  0.155878891477115     
  0.155879657816866     
  0.155880313163273     
  0.155880849621859     
  0.155881260540536     
  0.155853901937032     
  0.155855383982722     
  0.155856957221499     
  0.155858580243960     
  0.155860215958639     
  0.155861832073817     
  0.155863401152676     
  0.155864900266185     
  0.155866310323703     
  0.155867615231430     
  0.155868801013389     
  0.155869855024208     
  0.155870765411011     
  0.155871520934288     
  0.155872111221467     
  0.155839648095801     
  0.155841607095559     
  0.155843664922846     
  0.155845770066904     
  0.155847877306759     
  0.155849948266731     
  0.155851951294436     
  0.155853860716557     
  0.155855655664786     
  0.155857318692085     
  0.155858834369242     
  0.155860188083309     
  0.155861365221995     
  0.155862350885841     
  0.155863130213161     
  0.155825237465232     
  0.155827730108601     
  0.155830323780500     
  0.155832955605020     
  0.155835571686773     
  0.155838127807778     
  0.155840589014719     
  0.155842928273235     
  0.155845124526278     
  0.155847160491703     
  0.155849020519716     
  0.155850688815966     
  0.155852148237272     
  0.155853379828322     
  0.155854363212071     
  0.155810655127666     
  0.155813751787052     
  0.155816943938120     
  0.155820155453520     
  0.155823323132469     
  0.155826397543302     
  0.155829342063172     
  0.155832130530027     
  0.155834744109586     
  0.155837167912913     
  0.155839387873064     
  0.155841388199241     
  0.155843149633432     
  0.155844648705013     
  0.155845858162390     
  0.155795891299088     
  0.155799679034593     
  0.155803545644151     
  0.155807398881694     
  0.155811165552800     
  0.155814792416443     
  0.155818244005688     
  0.155821498505564     
  0.155824542789718     
  0.155827367516867     
  0.155829962792463     
  0.155832314632777     
  0.155834402424738     
  0.155836197693473     
  0.155837664505550     
  0.155780942825976     
  0.155785530473883     
  0.155790163925650     
  0.155794730393475     
  0.155799146405180     
  0.155803357933582     
  0.155807335516122     
  0.155811066882831     
  0.155814549422423     
  0.155817783591666     
  0.155820767319667     
  0.155823491194627     
  0.155825934687180     
  0.155828063905390     
  0.155829831796123     
  0.155765815546819     
  0.155771342399017     
  0.155776856047712     
  0.155782216562459     
  0.155787331630692     
  0.155792153084389     
  0.155796665643148     
  0.155800873991990     
  0.155804792226037     
  0.155808435967111     
  0.155811815869809     
  0.155814931478868     
  0.155817765105689     
  0.155820277627833     
  0.155822407413635     
  0.155750528961693     
  0.155757180185282     
  0.155763714435726     
  0.155769956305874     
  0.155775811870577     
  0.155781253179727     
  0.155786292464006     
  0.155790961253485     
  0.155795297306958     
  0.155799337285360     
  0.155803110919272     
  0.155806633301148     
  0.155809895910129     
  0.155812855899477     
  0.155815433025314     
  0.155735125826002     
  0.155743162075509     
  0.155750890444137     
  0.155758095927512     
  0.155764708732262     
  0.155770750604692     
  0.155776282047089     
  0.155781371708155     
  0.155786087081213     
  0.155790490754495     
  0.155794637707509     
  0.155798570318605     
  0.155802300201410     
  0.155805791711644     
  0.155808938110055     
  0.155719702712381     
  0.155729514229987     
  0.155738638274222     
  0.155746846983660     
  0.155754173787328     
  0.155760750736770     
  0.155766704365753     
  0.155772147356285     
  0.155777179102769     
  0.155781889553888     
  0.155786362816592     
  0.155790677757929     
  0.155794904294410     
  0.155799026739283     
  0.155802931001825     
  0.155704505490663     
  0.155716731955084     
  0.155727386007983     
  0.155736470938808     
  0.155744374124971     
  0.155751359880237     
  0.155757625835720     
  0.155763325387348     
  0.155768585580277     
  0.155773519741320     
  0.155778238214793     
  0.155782860049267     
  0.155787523030975     
  0.155792421124003     
  0.155797349411175     
  0.155690656661634     
  0.155705965497208     
  0.155717611251430     
  0.155727229640530     
  0.155735458016634     
  0.155742666769573     
  0.155749099332012     
  0.155754933951054     
  0.155760313811833     
  0.155765365847942     
  0.155770216344505     
  0.155775009725271     
  0.155779943584189     
  0.155785341669150     
  0.155792144570079     
