# vtk DataFile Version 3.0
vtk output
ASCII
DATASET UNSTRUCTURED_GRID
POINTS       496 double 
  0.00000000E+00  3.00000000E+02  0.00000000E+00
  0.00000000E+00  2.80000000E+02  0.00000000E+00
  0.00000000E+00  2.60000000E+02  0.00000000E+00
  0.00000000E+00  2.40000000E+02  0.00000000E+00
  0.00000000E+00  2.20000000E+02  0.00000000E+00
  0.00000000E+00  2.00000000E+02  0.00000000E+00
  0.00000000E+00  1.80000000E+02  0.00000000E+00
  0.00000000E+00  1.60000000E+02  0.00000000E+00
  0.00000000E+00  1.40000000E+02  0.00000000E+00
  0.00000000E+00  1.20000000E+02  0.00000000E+00
  0.00000000E+00  1.00000000E+02  0.00000000E+00
  0.00000000E+00  8.00000000E+01  0.00000000E+00
  0.00000000E+00  6.00000000E+01  0.00000000E+00
  0.00000000E+00  4.00000000E+01  0.00000000E+00
  0.00000000E+00  2.00000000E+01  0.00000000E+00
  0.00000000E+00  4.99600361E-14  0.00000000E+00
  2.00000000E+01  3.00000000E+02  0.00000000E+00
  2.00000000E+01  2.80000000E+02  0.00000000E+00
  2.00000000E+01  2.60000000E+02  0.00000000E+00
  2.00000000E+01  2.40000000E+02  0.00000000E+00
  2.00000000E+01  2.20000000E+02  0.00000000E+00
  2.00000000E+01  2.00000000E+02  0.00000000E+00
  2.00000000E+01  1.80000000E+02  0.00000000E+00
  2.00000000E+01  1.60000000E+02  0.00000000E+00
  2.00000000E+01  1.40000000E+02  0.00000000E+00
  2.00000000E+01  1.20000000E+02  0.00000000E+00
  2.00000000E+01  1.00000000E+02  0.00000000E+00
  2.00000000E+01  8.00000000E+01  0.00000000E+00
  2.00000000E+01  6.00000000E+01  0.00000000E+00
  2.00000000E+01  4.00000000E+01  0.00000000E+00
  2.00000000E+01  2.00000000E+01  0.00000000E+00
  2.00000000E+01  4.99600361E-14  0.00000000E+00
  4.00000000E+01  3.00000000E+02  0.00000000E+00
  4.00000000E+01  2.80000000E+02  0.00000000E+00
  4.00000000E+01  2.60000000E+02  0.00000000E+00
  4.00000000E+01  2.40000000E+02  0.00000000E+00
  4.00000000E+01  2.20000000E+02  0.00000000E+00
  4.00000000E+01  2.00000000E+02  0.00000000E+00
  4.00000000E+01  1.80000000E+02  0.00000000E+00
  4.00000000E+01  1.60000000E+02  0.00000000E+00
  4.00000000E+01  1.40000000E+02  0.00000000E+00
  4.00000000E+01  1.20000000E+02  0.00000000E+00
  4.00000000E+01  1.00000000E+02  0.00000000E+00
  4.00000000E+01  8.00000000E+01  0.00000000E+00
  4.00000000E+01  6.00000000E+01  0.00000000E+00
  4.00000000E+01  4.00000000E+01  0.00000000E+00
  4.00000000E+01  2.00000000E+01  0.00000000E+00
  4.00000000E+01  4.99600361E-14  0.00000000E+00
  6.00000000E+01  3.00000000E+02  0.00000000E+00
  6.00000000E+01  2.80000000E+02  0.00000000E+00
  6.00000000E+01  2.60000000E+02  0.00000000E+00
  6.00000000E+01  2.40000000E+02  0.00000000E+00
  6.00000000E+01  2.20000000E+02  0.00000000E+00
  6.00000000E+01  2.00000000E+02  0.00000000E+00
  6.00000000E+01  1.80000000E+02  0.00000000E+00
  6.00000000E+01  1.60000000E+02  0.00000000E+00
  6.00000000E+01  1.40000000E+02  0.00000000E+00
  6.00000000E+01  1.20000000E+02  0.00000000E+00
  6.00000000E+01  1.00000000E+02  0.00000000E+00
  6.00000000E+01  8.00000000E+01  0.00000000E+00
  6.00000000E+01  6.00000000E+01  0.00000000E+00
  6.00000000E+01  4.00000000E+01  0.00000000E+00
  6.00000000E+01  2.00000000E+01  0.00000000E+00
  6.00000000E+01  4.99600361E-14  0.00000000E+00
  8.00000000E+01  3.00000000E+02  0.00000000E+00
  8.00000000E+01  2.80000000E+02  0.00000000E+00
  8.00000000E+01  2.60000000E+02  0.00000000E+00
  8.00000000E+01  2.40000000E+02  0.00000000E+00
  8.00000000E+01  2.20000000E+02  0.00000000E+00
  8.00000000E+01  2.00000000E+02  0.00000000E+00
  8.00000000E+01  1.80000000E+02  0.00000000E+00
  8.00000000E+01  1.60000000E+02  0.00000000E+00
  8.00000000E+01  1.40000000E+02  0.00000000E+00
  8.00000000E+01  1.20000000E+02  0.00000000E+00
  8.00000000E+01  1.00000000E+02  0.00000000E+00
  8.00000000E+01  8.00000000E+01  0.00000000E+00
  8.00000000E+01  6.00000000E+01  0.00000000E+00
  8.00000000E+01  4.00000000E+01  0.00000000E+00
  8.00000000E+01  2.00000000E+01  0.00000000E+00
  8.00000000E+01  4.99600361E-14  0.00000000E+00
  1.00000000E+02  3.00000000E+02  0.00000000E+00
  1.00000000E+02  2.80000000E+02  0.00000000E+00
  1.00000000E+02  2.60000000E+02  0.00000000E+00
  1.00000000E+02  2.40000000E+02  0.00000000E+00
  1.00000000E+02  2.20000000E+02  0.00000000E+00
  1.00000000E+02  2.00000000E+02  0.00000000E+00
  1.00000000E+02  1.80000000E+02  0.00000000E+00
  1.00000000E+02  1.60000000E+02  0.00000000E+00
  1.00000000E+02  1.40000000E+02  0.00000000E+00
  1.00000000E+02  1.20000000E+02  0.00000000E+00
  1.00000000E+02  1.00000000E+02  0.00000000E+00
  1.00000000E+02  8.00000000E+01  0.00000000E+00
  1.00000000E+02  6.00000000E+01  0.00000000E+00
  1.00000000E+02  4.00000000E+01  0.00000000E+00
  1.00000000E+02  2.00000000E+01  0.00000000E+00
  1.00000000E+02  4.99600361E-14  0.00000000E+00
  1.20000000E+02  3.00000000E+02  0.00000000E+00
  1.20000000E+02  2.80000000E+02  0.00000000E+00
  1.20000000E+02  2.60000000E+02  0.00000000E+00
  1.20000000E+02  2.40000000E+02  0.00000000E+00
  1.20000000E+02  2.20000000E+02  0.00000000E+00
  1.20000000E+02  2.00000000E+02  0.00000000E+00
  1.20000000E+02  1.80000000E+02  0.00000000E+00
  1.20000000E+02  1.60000000E+02  0.00000000E+00
  1.20000000E+02  1.40000000E+02  0.00000000E+00
  1.20000000E+02  1.20000000E+02  0.00000000E+00
  1.20000000E+02  1.00000000E+02  0.00000000E+00
  1.20000000E+02  8.00000000E+01  0.00000000E+00
  1.20000000E+02  6.00000000E+01  0.00000000E+00
  1.20000000E+02  4.00000000E+01  0.00000000E+00
  1.20000000E+02  2.00000000E+01  0.00000000E+00
  1.20000000E+02  4.99600361E-14  0.00000000E+00
  1.40000000E+02  3.00000000E+02  0.00000000E+00
  1.40000000E+02  2.80000000E+02  0.00000000E+00
  1.40000000E+02  2.60000000E+02  0.00000000E+00
  1.40000000E+02  2.40000000E+02  0.00000000E+00
  1.40000000E+02  2.20000000E+02  0.00000000E+00
  1.40000000E+02  2.00000000E+02  0.00000000E+00
  1.40000000E+02  1.80000000E+02  0.00000000E+00
  1.40000000E+02  1.60000000E+02  0.00000000E+00
  1.40000000E+02  1.40000000E+02  0.00000000E+00
  1.40000000E+02  1.20000000E+02  0.00000000E+00
  1.40000000E+02  1.00000000E+02  0.00000000E+00
  1.40000000E+02  8.00000000E+01  0.00000000E+00
  1.40000000E+02  6.00000000E+01  0.00000000E+00
  1.40000000E+02  4.00000000E+01  0.00000000E+00
  1.40000000E+02  2.00000000E+01  0.00000000E+00
  1.40000000E+02  4.99600361E-14  0.00000000E+00
  1.60000000E+02  3.00000000E+02  0.00000000E+00
  1.60000000E+02  2.80000000E+02  0.00000000E+00
  1.60000000E+02  2.60000000E+02  0.00000000E+00
  1.60000000E+02  2.40000000E+02  0.00000000E+00
  1.60000000E+02  2.20000000E+02  0.00000000E+00
  1.60000000E+02  2.00000000E+02  0.00000000E+00
  1.60000000E+02  1.80000000E+02  0.00000000E+00
  1.60000000E+02  1.60000000E+02  0.00000000E+00
  1.60000000E+02  1.40000000E+02  0.00000000E+00
  1.60000000E+02  1.20000000E+02  0.00000000E+00
  1.60000000E+02  1.00000000E+02  0.00000000E+00
  1.60000000E+02  8.00000000E+01  0.00000000E+00
  1.60000000E+02  6.00000000E+01  0.00000000E+00
  1.60000000E+02  4.00000000E+01  0.00000000E+00
  1.60000000E+02  2.00000000E+01  0.00000000E+00
  1.60000000E+02  4.99600361E-14  0.00000000E+00
  1.80000000E+02  3.00000000E+02  0.00000000E+00
  1.80000000E+02  2.80000000E+02  0.00000000E+00
  1.80000000E+02  2.60000000E+02  0.00000000E+00
  1.80000000E+02  2.40000000E+02  0.00000000E+00
  1.80000000E+02  2.20000000E+02  0.00000000E+00
  1.80000000E+02  2.00000000E+02  0.00000000E+00
  1.80000000E+02  1.80000000E+02  0.00000000E+00
  1.80000000E+02  1.60000000E+02  0.00000000E+00
  1.80000000E+02  1.40000000E+02  0.00000000E+00
  1.80000000E+02  1.20000000E+02  0.00000000E+00
  1.80000000E+02  1.00000000E+02  0.00000000E+00
  1.80000000E+02  8.00000000E+01  0.00000000E+00
  1.80000000E+02  6.00000000E+01  0.00000000E+00
  1.80000000E+02  4.00000000E+01  0.00000000E+00
  1.80000000E+02  2.00000000E+01  0.00000000E+00
  1.80000000E+02  4.99600361E-14  0.00000000E+00
  2.00000000E+02  3.00000000E+02  0.00000000E+00
  2.00000000E+02  2.80000000E+02  0.00000000E+00
  2.00000000E+02  2.60000000E+02  0.00000000E+00
  2.00000000E+02  2.40000000E+02  0.00000000E+00
  2.00000000E+02  2.20000000E+02  0.00000000E+00
  2.00000000E+02  2.00000000E+02  0.00000000E+00
  2.00000000E+02  1.80000000E+02  0.00000000E+00
  2.00000000E+02  1.60000000E+02  0.00000000E+00
  2.00000000E+02  1.40000000E+02  0.00000000E+00
  2.00000000E+02  1.20000000E+02  0.00000000E+00
  2.00000000E+02  1.00000000E+02  0.00000000E+00
  2.00000000E+02  8.00000000E+01  0.00000000E+00
  2.00000000E+02  6.00000000E+01  0.00000000E+00
  2.00000000E+02  4.00000000E+01  0.00000000E+00
  2.00000000E+02  2.00000000E+01  0.00000000E+00
  2.00000000E+02  4.99600361E-14  0.00000000E+00
  2.20000000E+02  3.00000000E+02  0.00000000E+00
  2.20000000E+02  2.80000000E+02  0.00000000E+00
  2.20000000E+02  2.60000000E+02  0.00000000E+00
  2.20000000E+02  2.40000000E+02  0.00000000E+00
  2.20000000E+02  2.20000000E+02  0.00000000E+00
  2.20000000E+02  2.00000000E+02  0.00000000E+00
  2.20000000E+02  1.80000000E+02  0.00000000E+00
  2.20000000E+02  1.60000000E+02  0.00000000E+00
  2.20000000E+02  1.40000000E+02  0.00000000E+00
  2.20000000E+02  1.20000000E+02  0.00000000E+00
  2.20000000E+02  1.00000000E+02  0.00000000E+00
  2.20000000E+02  8.00000000E+01  0.00000000E+00
  2.20000000E+02  6.00000000E+01  0.00000000E+00
  2.20000000E+02  4.00000000E+01  0.00000000E+00
  2.20000000E+02  2.00000000E+01  0.00000000E+00
  2.20000000E+02  4.99600361E-14  0.00000000E+00
  2.40000000E+02  3.00000000E+02  0.00000000E+00
  2.40000000E+02  2.80000000E+02  0.00000000E+00
  2.40000000E+02  2.60000000E+02  0.00000000E+00
  2.40000000E+02  2.40000000E+02  0.00000000E+00
  2.40000000E+02  2.20000000E+02  0.00000000E+00
  2.40000000E+02  2.00000000E+02  0.00000000E+00
  2.40000000E+02  1.80000000E+02  0.00000000E+00
  2.40000000E+02  1.60000000E+02  0.00000000E+00
  2.40000000E+02  1.40000000E+02  0.00000000E+00
  2.40000000E+02  1.20000000E+02  0.00000000E+00
  2.40000000E+02  1.00000000E+02  0.00000000E+00
  2.40000000E+02  8.00000000E+01  0.00000000E+00
  2.40000000E+02  6.00000000E+01  0.00000000E+00
  2.40000000E+02  4.00000000E+01  0.00000000E+00
  2.40000000E+02  2.00000000E+01  0.00000000E+00
  2.40000000E+02  4.99600361E-14  0.00000000E+00
  2.60000000E+02  3.00000000E+02  0.00000000E+00
  2.60000000E+02  2.80000000E+02  0.00000000E+00
  2.60000000E+02  2.60000000E+02  0.00000000E+00
  2.60000000E+02  2.40000000E+02  0.00000000E+00
  2.60000000E+02  2.20000000E+02  0.00000000E+00
  2.60000000E+02  2.00000000E+02  0.00000000E+00
  2.60000000E+02  1.80000000E+02  0.00000000E+00
  2.60000000E+02  1.60000000E+02  0.00000000E+00
  2.60000000E+02  1.40000000E+02  0.00000000E+00
  2.60000000E+02  1.20000000E+02  0.00000000E+00
  2.60000000E+02  1.00000000E+02  0.00000000E+00
  2.60000000E+02  8.00000000E+01  0.00000000E+00
  2.60000000E+02  6.00000000E+01  0.00000000E+00
  2.60000000E+02  4.00000000E+01  0.00000000E+00
  2.60000000E+02  2.00000000E+01  0.00000000E+00
  2.60000000E+02  4.99600361E-14  0.00000000E+00
  2.80000000E+02  3.00000000E+02  0.00000000E+00
  2.80000000E+02  2.80000000E+02  0.00000000E+00
  2.80000000E+02  2.60000000E+02  0.00000000E+00
  2.80000000E+02  2.40000000E+02  0.00000000E+00
  2.80000000E+02  2.20000000E+02  0.00000000E+00
  2.80000000E+02  2.00000000E+02  0.00000000E+00
  2.80000000E+02  1.80000000E+02  0.00000000E+00
  2.80000000E+02  1.60000000E+02  0.00000000E+00
  2.80000000E+02  1.40000000E+02  0.00000000E+00
  2.80000000E+02  1.20000000E+02  0.00000000E+00
  2.80000000E+02  1.00000000E+02  0.00000000E+00
  2.80000000E+02  8.00000000E+01  0.00000000E+00
  2.80000000E+02  6.00000000E+01  0.00000000E+00
  2.80000000E+02  4.00000000E+01  0.00000000E+00
  2.80000000E+02  2.00000000E+01  0.00000000E+00
  2.80000000E+02  4.99600361E-14  0.00000000E+00
  3.00000000E+02  3.00000000E+02  0.00000000E+00
  3.00000000E+02  2.80000000E+02  0.00000000E+00
  3.00000000E+02  2.60000000E+02  0.00000000E+00
  3.00000000E+02  2.40000000E+02  0.00000000E+00
  3.00000000E+02  2.20000000E+02  0.00000000E+00
  3.00000000E+02  2.00000000E+02  0.00000000E+00
  3.00000000E+02  1.80000000E+02  0.00000000E+00
  3.00000000E+02  1.60000000E+02  0.00000000E+00
  3.00000000E+02  1.40000000E+02  0.00000000E+00
  3.00000000E+02  1.20000000E+02  0.00000000E+00
  3.00000000E+02  1.00000000E+02  0.00000000E+00
  3.00000000E+02  8.00000000E+01  0.00000000E+00
  3.00000000E+02  6.00000000E+01  0.00000000E+00
  3.00000000E+02  4.00000000E+01  0.00000000E+00
  3.00000000E+02  2.00000000E+01  0.00000000E+00
  3.00000000E+02  4.99600361E-14  0.00000000E+00
  3.20000000E+02  3.00000000E+02  0.00000000E+00
  3.20000000E+02  2.80000000E+02  0.00000000E+00
  3.20000000E+02  2.60000000E+02  0.00000000E+00
  3.20000000E+02  2.40000000E+02  0.00000000E+00
  3.20000000E+02  2.20000000E+02  0.00000000E+00
  3.20000000E+02  2.00000000E+02  0.00000000E+00
  3.20000000E+02  1.80000000E+02  0.00000000E+00
  3.20000000E+02  1.60000000E+02  0.00000000E+00
  3.20000000E+02  1.40000000E+02  0.00000000E+00
  3.20000000E+02  1.20000000E+02  0.00000000E+00
  3.20000000E+02  1.00000000E+02  0.00000000E+00
  3.20000000E+02  8.00000000E+01  0.00000000E+00
  3.20000000E+02  6.00000000E+01  0.00000000E+00
  3.20000000E+02  4.00000000E+01  0.00000000E+00
  3.20000000E+02  2.00000000E+01  0.00000000E+00
  3.20000000E+02  4.99600361E-14  0.00000000E+00
  3.40000000E+02  3.00000000E+02  0.00000000E+00
  3.40000000E+02  2.80000000E+02  0.00000000E+00
  3.40000000E+02  2.60000000E+02  0.00000000E+00
  3.40000000E+02  2.40000000E+02  0.00000000E+00
  3.40000000E+02  2.20000000E+02  0.00000000E+00
  3.40000000E+02  2.00000000E+02  0.00000000E+00
  3.40000000E+02  1.80000000E+02  0.00000000E+00
  3.40000000E+02  1.60000000E+02  0.00000000E+00
  3.40000000E+02  1.40000000E+02  0.00000000E+00
  3.40000000E+02  1.20000000E+02  0.00000000E+00
  3.40000000E+02  1.00000000E+02  0.00000000E+00
  3.40000000E+02  8.00000000E+01  0.00000000E+00
  3.40000000E+02  6.00000000E+01  0.00000000E+00
  3.40000000E+02  4.00000000E+01  0.00000000E+00
  3.40000000E+02  2.00000000E+01  0.00000000E+00
  3.40000000E+02  4.99600361E-14  0.00000000E+00
  3.60000000E+02  3.00000000E+02  0.00000000E+00
  3.60000000E+02  2.80000000E+02  0.00000000E+00
  3.60000000E+02  2.60000000E+02  0.00000000E+00
  3.60000000E+02  2.40000000E+02  0.00000000E+00
  3.60000000E+02  2.20000000E+02  0.00000000E+00
  3.60000000E+02  2.00000000E+02  0.00000000E+00
  3.60000000E+02  1.80000000E+02  0.00000000E+00
  3.60000000E+02  1.60000000E+02  0.00000000E+00
  3.60000000E+02  1.40000000E+02  0.00000000E+00
  3.60000000E+02  1.20000000E+02  0.00000000E+00
  3.60000000E+02  1.00000000E+02  0.00000000E+00
  3.60000000E+02  8.00000000E+01  0.00000000E+00
  3.60000000E+02  6.00000000E+01  0.00000000E+00
  3.60000000E+02  4.00000000E+01  0.00000000E+00
  3.60000000E+02  2.00000000E+01  0.00000000E+00
  3.60000000E+02  4.99600361E-14  0.00000000E+00
  3.80000000E+02  3.00000000E+02  0.00000000E+00
  3.80000000E+02  2.80000000E+02  0.00000000E+00
  3.80000000E+02  2.60000000E+02  0.00000000E+00
  3.80000000E+02  2.40000000E+02  0.00000000E+00
  3.80000000E+02  2.20000000E+02  0.00000000E+00
  3.80000000E+02  2.00000000E+02  0.00000000E+00
  3.80000000E+02  1.80000000E+02  0.00000000E+00
  3.80000000E+02  1.60000000E+02  0.00000000E+00
  3.80000000E+02  1.40000000E+02  0.00000000E+00
  3.80000000E+02  1.20000000E+02  0.00000000E+00
  3.80000000E+02  1.00000000E+02  0.00000000E+00
  3.80000000E+02  8.00000000E+01  0.00000000E+00
  3.80000000E+02  6.00000000E+01  0.00000000E+00
  3.80000000E+02  4.00000000E+01  0.00000000E+00
  3.80000000E+02  2.00000000E+01  0.00000000E+00
  3.80000000E+02  4.99600361E-14  0.00000000E+00
  4.00000000E+02  3.00000000E+02  0.00000000E+00
  4.00000000E+02  2.80000000E+02  0.00000000E+00
  4.00000000E+02  2.60000000E+02  0.00000000E+00
  4.00000000E+02  2.40000000E+02  0.00000000E+00
  4.00000000E+02  2.20000000E+02  0.00000000E+00
  4.00000000E+02  2.00000000E+02  0.00000000E+00
  4.00000000E+02  1.80000000E+02  0.00000000E+00
  4.00000000E+02  1.60000000E+02  0.00000000E+00
  4.00000000E+02  1.40000000E+02  0.00000000E+00
  4.00000000E+02  1.20000000E+02  0.00000000E+00
  4.00000000E+02  1.00000000E+02  0.00000000E+00
  4.00000000E+02  8.00000000E+01  0.00000000E+00
  4.00000000E+02  6.00000000E+01  0.00000000E+00
  4.00000000E+02  4.00000000E+01  0.00000000E+00
  4.00000000E+02  2.00000000E+01  0.00000000E+00
  4.00000000E+02  4.99600361E-14  0.00000000E+00
  4.20000000E+02  3.00000000E+02  0.00000000E+00
  4.20000000E+02  2.80000000E+02  0.00000000E+00
  4.20000000E+02  2.60000000E+02  0.00000000E+00
  4.20000000E+02  2.40000000E+02  0.00000000E+00
  4.20000000E+02  2.20000000E+02  0.00000000E+00
  4.20000000E+02  2.00000000E+02  0.00000000E+00
  4.20000000E+02  1.80000000E+02  0.00000000E+00
  4.20000000E+02  1.60000000E+02  0.00000000E+00
  4.20000000E+02  1.40000000E+02  0.00000000E+00
  4.20000000E+02  1.20000000E+02  0.00000000E+00
  4.20000000E+02  1.00000000E+02  0.00000000E+00
  4.20000000E+02  8.00000000E+01  0.00000000E+00
  4.20000000E+02  6.00000000E+01  0.00000000E+00
  4.20000000E+02  4.00000000E+01  0.00000000E+00
  4.20000000E+02  2.00000000E+01  0.00000000E+00
  4.20000000E+02  4.99600361E-14  0.00000000E+00
  4.40000000E+02  3.00000000E+02  0.00000000E+00
  4.40000000E+02  2.80000000E+02  0.00000000E+00
  4.40000000E+02  2.60000000E+02  0.00000000E+00
  4.40000000E+02  2.40000000E+02  0.00000000E+00
  4.40000000E+02  2.20000000E+02  0.00000000E+00
  4.40000000E+02  2.00000000E+02  0.00000000E+00
  4.40000000E+02  1.80000000E+02  0.00000000E+00
  4.40000000E+02  1.60000000E+02  0.00000000E+00
  4.40000000E+02  1.40000000E+02  0.00000000E+00
  4.40000000E+02  1.20000000E+02  0.00000000E+00
  4.40000000E+02  1.00000000E+02  0.00000000E+00
  4.40000000E+02  8.00000000E+01  0.00000000E+00
  4.40000000E+02  6.00000000E+01  0.00000000E+00
  4.40000000E+02  4.00000000E+01  0.00000000E+00
  4.40000000E+02  2.00000000E+01  0.00000000E+00
  4.40000000E+02  4.99600361E-14  0.00000000E+00
  4.60000000E+02  3.00000000E+02  0.00000000E+00
  4.60000000E+02  2.80000000E+02  0.00000000E+00
  4.60000000E+02  2.60000000E+02  0.00000000E+00
  4.60000000E+02  2.40000000E+02  0.00000000E+00
  4.60000000E+02  2.20000000E+02  0.00000000E+00
  4.60000000E+02  2.00000000E+02  0.00000000E+00
  4.60000000E+02  1.80000000E+02  0.00000000E+00
  4.60000000E+02  1.60000000E+02  0.00000000E+00
  4.60000000E+02  1.40000000E+02  0.00000000E+00
  4.60000000E+02  1.20000000E+02  0.00000000E+00
  4.60000000E+02  1.00000000E+02  0.00000000E+00
  4.60000000E+02  8.00000000E+01  0.00000000E+00
  4.60000000E+02  6.00000000E+01  0.00000000E+00
  4.60000000E+02  4.00000000E+01  0.00000000E+00
  4.60000000E+02  2.00000000E+01  0.00000000E+00
  4.60000000E+02  4.99600361E-14  0.00000000E+00
  4.80000000E+02  3.00000000E+02  0.00000000E+00
  4.80000000E+02  2.80000000E+02  0.00000000E+00
  4.80000000E+02  2.60000000E+02  0.00000000E+00
  4.80000000E+02  2.40000000E+02  0.00000000E+00
  4.80000000E+02  2.20000000E+02  0.00000000E+00
  4.80000000E+02  2.00000000E+02  0.00000000E+00
  4.80000000E+02  1.80000000E+02  0.00000000E+00
  4.80000000E+02  1.60000000E+02  0.00000000E+00
  4.80000000E+02  1.40000000E+02  0.00000000E+00
  4.80000000E+02  1.20000000E+02  0.00000000E+00
  4.80000000E+02  1.00000000E+02  0.00000000E+00
  4.80000000E+02  8.00000000E+01  0.00000000E+00
  4.80000000E+02  6.00000000E+01  0.00000000E+00
  4.80000000E+02  4.00000000E+01  0.00000000E+00
  4.80000000E+02  2.00000000E+01  0.00000000E+00
  4.80000000E+02  4.99600361E-14  0.00000000E+00
  5.00000000E+02  3.00000000E+02  0.00000000E+00
  5.00000000E+02  2.80000000E+02  0.00000000E+00
  5.00000000E+02  2.60000000E+02  0.00000000E+00
  5.00000000E+02  2.40000000E+02  0.00000000E+00
  5.00000000E+02  2.20000000E+02  0.00000000E+00
  5.00000000E+02  2.00000000E+02  0.00000000E+00
  5.00000000E+02  1.80000000E+02  0.00000000E+00
  5.00000000E+02  1.60000000E+02  0.00000000E+00
  5.00000000E+02  1.40000000E+02  0.00000000E+00
  5.00000000E+02  1.20000000E+02  0.00000000E+00
  5.00000000E+02  1.00000000E+02  0.00000000E+00
  5.00000000E+02  8.00000000E+01  0.00000000E+00
  5.00000000E+02  6.00000000E+01  0.00000000E+00
  5.00000000E+02  4.00000000E+01  0.00000000E+00
  5.00000000E+02  2.00000000E+01  0.00000000E+00
  5.00000000E+02  4.99600361E-14  0.00000000E+00
  5.20000000E+02  3.00000000E+02  0.00000000E+00
  5.20000000E+02  2.80000000E+02  0.00000000E+00
  5.20000000E+02  2.60000000E+02  0.00000000E+00
  5.20000000E+02  2.40000000E+02  0.00000000E+00
  5.20000000E+02  2.20000000E+02  0.00000000E+00
  5.20000000E+02  2.00000000E+02  0.00000000E+00
  5.20000000E+02  1.80000000E+02  0.00000000E+00
  5.20000000E+02  1.60000000E+02  0.00000000E+00
  5.20000000E+02  1.40000000E+02  0.00000000E+00
  5.20000000E+02  1.20000000E+02  0.00000000E+00
  5.20000000E+02  1.00000000E+02  0.00000000E+00
  5.20000000E+02  8.00000000E+01  0.00000000E+00
  5.20000000E+02  6.00000000E+01  0.00000000E+00
  5.20000000E+02  4.00000000E+01  0.00000000E+00
  5.20000000E+02  2.00000000E+01  0.00000000E+00
  5.20000000E+02  4.99600361E-14  0.00000000E+00
  5.40000000E+02  3.00000000E+02  0.00000000E+00
  5.40000000E+02  2.80000000E+02  0.00000000E+00
  5.40000000E+02  2.60000000E+02  0.00000000E+00
  5.40000000E+02  2.40000000E+02  0.00000000E+00
  5.40000000E+02  2.20000000E+02  0.00000000E+00
  5.40000000E+02  2.00000000E+02  0.00000000E+00
  5.40000000E+02  1.80000000E+02  0.00000000E+00
  5.40000000E+02  1.60000000E+02  0.00000000E+00
  5.40000000E+02  1.40000000E+02  0.00000000E+00
  5.40000000E+02  1.20000000E+02  0.00000000E+00
  5.40000000E+02  1.00000000E+02  0.00000000E+00
  5.40000000E+02  8.00000000E+01  0.00000000E+00
  5.40000000E+02  6.00000000E+01  0.00000000E+00
  5.40000000E+02  4.00000000E+01  0.00000000E+00
  5.40000000E+02  2.00000000E+01  0.00000000E+00
  5.40000000E+02  4.99600361E-14  0.00000000E+00
  5.60000000E+02  3.00000000E+02  0.00000000E+00
  5.60000000E+02  2.80000000E+02  0.00000000E+00
  5.60000000E+02  2.60000000E+02  0.00000000E+00
  5.60000000E+02  2.40000000E+02  0.00000000E+00
  5.60000000E+02  2.20000000E+02  0.00000000E+00
  5.60000000E+02  2.00000000E+02  0.00000000E+00
  5.60000000E+02  1.80000000E+02  0.00000000E+00
  5.60000000E+02  1.60000000E+02  0.00000000E+00
  5.60000000E+02  1.40000000E+02  0.00000000E+00
  5.60000000E+02  1.20000000E+02  0.00000000E+00
  5.60000000E+02  1.00000000E+02  0.00000000E+00
  5.60000000E+02  8.00000000E+01  0.00000000E+00
  5.60000000E+02  6.00000000E+01  0.00000000E+00
  5.60000000E+02  4.00000000E+01  0.00000000E+00
  5.60000000E+02  2.00000000E+01  0.00000000E+00
  5.60000000E+02  4.99600361E-14  0.00000000E+00
  5.80000000E+02  3.00000000E+02  0.00000000E+00
  5.80000000E+02  2.80000000E+02  0.00000000E+00
  5.80000000E+02  2.60000000E+02  0.00000000E+00
  5.80000000E+02  2.40000000E+02  0.00000000E+00
  5.80000000E+02  2.20000000E+02  0.00000000E+00
  5.80000000E+02  2.00000000E+02  0.00000000E+00
  5.80000000E+02  1.80000000E+02  0.00000000E+00
  5.80000000E+02  1.60000000E+02  0.00000000E+00
  5.80000000E+02  1.40000000E+02  0.00000000E+00
  5.80000000E+02  1.20000000E+02  0.00000000E+00
  5.80000000E+02  1.00000000E+02  0.00000000E+00
  5.80000000E+02  8.00000000E+01  0.00000000E+00
  5.80000000E+02  6.00000000E+01  0.00000000E+00
  5.80000000E+02  4.00000000E+01  0.00000000E+00
  5.80000000E+02  2.00000000E+01  0.00000000E+00
  5.80000000E+02  4.99600361E-14  0.00000000E+00
  6.00000000E+02  3.00000000E+02  0.00000000E+00
  6.00000000E+02  2.80000000E+02  0.00000000E+00
  6.00000000E+02  2.60000000E+02  0.00000000E+00
  6.00000000E+02  2.40000000E+02  0.00000000E+00
  6.00000000E+02  2.20000000E+02  0.00000000E+00
  6.00000000E+02  2.00000000E+02  0.00000000E+00
  6.00000000E+02  1.80000000E+02  0.00000000E+00
  6.00000000E+02  1.60000000E+02  0.00000000E+00
  6.00000000E+02  1.40000000E+02  0.00000000E+00
  6.00000000E+02  1.20000000E+02  0.00000000E+00
  6.00000000E+02  1.00000000E+02  0.00000000E+00
  6.00000000E+02  8.00000000E+01  0.00000000E+00
  6.00000000E+02  6.00000000E+01  0.00000000E+00
  6.00000000E+02  4.00000000E+01  0.00000000E+00
  6.00000000E+02  2.00000000E+01  0.00000000E+00
  6.00000000E+02  4.99600361E-14  0.00000000E+00
CELLS       450      2250
         4           0           1          17          16
         4           1           2          18          17
         4           2           3          19          18
         4           3           4          20          19
         4           4           5          21          20
         4           5           6          22          21
         4           6           7          23          22
         4           7           8          24          23
         4           8           9          25          24
         4           9          10          26          25
         4          10          11          27          26
         4          11          12          28          27
         4          12          13          29          28
         4          13          14          30          29
         4          14          15          31          30
         4          16          17          33          32
         4          17          18          34          33
         4          18          19          35          34
         4          19          20          36          35
         4          20          21          37          36
         4          21          22          38          37
         4          22          23          39          38
         4          23          24          40          39
         4          24          25          41          40
         4          25          26          42          41
         4          26          27          43          42
         4          27          28          44          43
         4          28          29          45          44
         4          29          30          46          45
         4          30          31          47          46
         4          32          33          49          48
         4          33          34          50          49
         4          34          35          51          50
         4          35          36          52          51
         4          36          37          53          52
         4          37          38          54          53
         4          38          39          55          54
         4          39          40          56          55
         4          40          41          57          56
         4          41          42          58          57
         4          42          43          59          58
         4          43          44          60          59
         4          44          45          61          60
         4          45          46          62          61
         4          46          47          63          62
         4          48          49          65          64
         4          49          50          66          65
         4          50          51          67          66
         4          51          52          68          67
         4          52          53          69          68
         4          53          54          70          69
         4          54          55          71          70
         4          55          56          72          71
         4          56          57          73          72
         4          57          58          74          73
         4          58          59          75          74
         4          59          60          76          75
         4          60          61          77          76
         4          61          62          78          77
         4          62          63          79          78
         4          64          65          81          80
         4          65          66          82          81
         4          66          67          83          82
         4          67          68          84          83
         4          68          69          85          84
         4          69          70          86          85
         4          70          71          87          86
         4          71          72          88          87
         4          72          73          89          88
         4          73          74          90          89
         4          74          75          91          90
         4          75          76          92          91
         4          76          77          93          92
         4          77          78          94          93
         4          78          79          95          94
         4          80          81          97          96
         4          81          82          98          97
         4          82          83          99          98
         4          83          84         100          99
         4          84          85         101         100
         4          85          86         102         101
         4          86          87         103         102
         4          87          88         104         103
         4          88          89         105         104
         4          89          90         106         105
         4          90          91         107         106
         4          91          92         108         107
         4          92          93         109         108
         4          93          94         110         109
         4          94          95         111         110
         4          96          97         113         112
         4          97          98         114         113
         4          98          99         115         114
         4          99         100         116         115
         4         100         101         117         116
         4         101         102         118         117
         4         102         103         119         118
         4         103         104         120         119
         4         104         105         121         120
         4         105         106         122         121
         4         106         107         123         122
         4         107         108         124         123
         4         108         109         125         124
         4         109         110         126         125
         4         110         111         127         126
         4         112         113         129         128
         4         113         114         130         129
         4         114         115         131         130
         4         115         116         132         131
         4         116         117         133         132
         4         117         118         134         133
         4         118         119         135         134
         4         119         120         136         135
         4         120         121         137         136
         4         121         122         138         137
         4         122         123         139         138
         4         123         124         140         139
         4         124         125         141         140
         4         125         126         142         141
         4         126         127         143         142
         4         128         129         145         144
         4         129         130         146         145
         4         130         131         147         146
         4         131         132         148         147
         4         132         133         149         148
         4         133         134         150         149
         4         134         135         151         150
         4         135         136         152         151
         4         136         137         153         152
         4         137         138         154         153
         4         138         139         155         154
         4         139         140         156         155
         4         140         141         157         156
         4         141         142         158         157
         4         142         143         159         158
         4         144         145         161         160
         4         145         146         162         161
         4         146         147         163         162
         4         147         148         164         163
         4         148         149         165         164
         4         149         150         166         165
         4         150         151         167         166
         4         151         152         168         167
         4         152         153         169         168
         4         153         154         170         169
         4         154         155         171         170
         4         155         156         172         171
         4         156         157         173         172
         4         157         158         174         173
         4         158         159         175         174
         4         160         161         177         176
         4         161         162         178         177
         4         162         163         179         178
         4         163         164         180         179
         4         164         165         181         180
         4         165         166         182         181
         4         166         167         183         182
         4         167         168         184         183
         4         168         169         185         184
         4         169         170         186         185
         4         170         171         187         186
         4         171         172         188         187
         4         172         173         189         188
         4         173         174         190         189
         4         174         175         191         190
         4         176         177         193         192
         4         177         178         194         193
         4         178         179         195         194
         4         179         180         196         195
         4         180         181         197         196
         4         181         182         198         197
         4         182         183         199         198
         4         183         184         200         199
         4         184         185         201         200
         4         185         186         202         201
         4         186         187         203         202
         4         187         188         204         203
         4         188         189         205         204
         4         189         190         206         205
         4         190         191         207         206
         4         192         193         209         208
         4         193         194         210         209
         4         194         195         211         210
         4         195         196         212         211
         4         196         197         213         212
         4         197         198         214         213
         4         198         199         215         214
         4         199         200         216         215
         4         200         201         217         216
         4         201         202         218         217
         4         202         203         219         218
         4         203         204         220         219
         4         204         205         221         220
         4         205         206         222         221
         4         206         207         223         222
         4         208         209         225         224
         4         209         210         226         225
         4         210         211         227         226
         4         211         212         228         227
         4         212         213         229         228
         4         213         214         230         229
         4         214         215         231         230
         4         215         216         232         231
         4         216         217         233         232
         4         217         218         234         233
         4         218         219         235         234
         4         219         220         236         235
         4         220         221         237         236
         4         221         222         238         237
         4         222         223         239         238
         4         224         225         241         240
         4         225         226         242         241
         4         226         227         243         242
         4         227         228         244         243
         4         228         229         245         244
         4         229         230         246         245
         4         230         231         247         246
         4         231         232         248         247
         4         232         233         249         248
         4         233         234         250         249
         4         234         235         251         250
         4         235         236         252         251
         4         236         237         253         252
         4         237         238         254         253
         4         238         239         255         254
         4         240         241         257         256
         4         241         242         258         257
         4         242         243         259         258
         4         243         244         260         259
         4         244         245         261         260
         4         245         246         262         261
         4         246         247         263         262
         4         247         248         264         263
         4         248         249         265         264
         4         249         250         266         265
         4         250         251         267         266
         4         251         252         268         267
         4         252         253         269         268
         4         253         254         270         269
         4         254         255         271         270
         4         256         257         273         272
         4         257         258         274         273
         4         258         259         275         274
         4         259         260         276         275
         4         260         261         277         276
         4         261         262         278         277
         4         262         263         279         278
         4         263         264         280         279
         4         264         265         281         280
         4         265         266         282         281
         4         266         267         283         282
         4         267         268         284         283
         4         268         269         285         284
         4         269         270         286         285
         4         270         271         287         286
         4         272         273         289         288
         4         273         274         290         289
         4         274         275         291         290
         4         275         276         292         291
         4         276         277         293         292
         4         277         278         294         293
         4         278         279         295         294
         4         279         280         296         295
         4         280         281         297         296
         4         281         282         298         297
         4         282         283         299         298
         4         283         284         300         299
         4         284         285         301         300
         4         285         286         302         301
         4         286         287         303         302
         4         288         289         305         304
         4         289         290         306         305
         4         290         291         307         306
         4         291         292         308         307
         4         292         293         309         308
         4         293         294         310         309
         4         294         295         311         310
         4         295         296         312         311
         4         296         297         313         312
         4         297         298         314         313
         4         298         299         315         314
         4         299         300         316         315
         4         300         301         317         316
         4         301         302         318         317
         4         302         303         319         318
         4         304         305         321         320
         4         305         306         322         321
         4         306         307         323         322
         4         307         308         324         323
         4         308         309         325         324
         4         309         310         326         325
         4         310         311         327         326
         4         311         312         328         327
         4         312         313         329         328
         4         313         314         330         329
         4         314         315         331         330
         4         315         316         332         331
         4         316         317         333         332
         4         317         318         334         333
         4         318         319         335         334
         4         320         321         337         336
         4         321         322         338         337
         4         322         323         339         338
         4         323         324         340         339
         4         324         325         341         340
         4         325         326         342         341
         4         326         327         343         342
         4         327         328         344         343
         4         328         329         345         344
         4         329         330         346         345
         4         330         331         347         346
         4         331         332         348         347
         4         332         333         349         348
         4         333         334         350         349
         4         334         335         351         350
         4         336         337         353         352
         4         337         338         354         353
         4         338         339         355         354
         4         339         340         356         355
         4         340         341         357         356
         4         341         342         358         357
         4         342         343         359         358
         4         343         344         360         359
         4         344         345         361         360
         4         345         346         362         361
         4         346         347         363         362
         4         347         348         364         363
         4         348         349         365         364
         4         349         350         366         365
         4         350         351         367         366
         4         352         353         369         368
         4         353         354         370         369
         4         354         355         371         370
         4         355         356         372         371
         4         356         357         373         372
         4         357         358         374         373
         4         358         359         375         374
         4         359         360         376         375
         4         360         361         377         376
         4         361         362         378         377
         4         362         363         379         378
         4         363         364         380         379
         4         364         365         381         380
         4         365         366         382         381
         4         366         367         383         382
         4         368         369         385         384
         4         369         370         386         385
         4         370         371         387         386
         4         371         372         388         387
         4         372         373         389         388
         4         373         374         390         389
         4         374         375         391         390
         4         375         376         392         391
         4         376         377         393         392
         4         377         378         394         393
         4         378         379         395         394
         4         379         380         396         395
         4         380         381         397         396
         4         381         382         398         397
         4         382         383         399         398
         4         384         385         401         400
         4         385         386         402         401
         4         386         387         403         402
         4         387         388         404         403
         4         388         389         405         404
         4         389         390         406         405
         4         390         391         407         406
         4         391         392         408         407
         4         392         393         409         408
         4         393         394         410         409
         4         394         395         411         410
         4         395         396         412         411
         4         396         397         413         412
         4         397         398         414         413
         4         398         399         415         414
         4         400         401         417         416
         4         401         402         418         417
         4         402         403         419         418
         4         403         404         420         419
         4         404         405         421         420
         4         405         406         422         421
         4         406         407         423         422
         4         407         408         424         423
         4         408         409         425         424
         4         409         410         426         425
         4         410         411         427         426
         4         411         412         428         427
         4         412         413         429         428
         4         413         414         430         429
         4         414         415         431         430
         4         416         417         433         432
         4         417         418         434         433
         4         418         419         435         434
         4         419         420         436         435
         4         420         421         437         436
         4         421         422         438         437
         4         422         423         439         438
         4         423         424         440         439
         4         424         425         441         440
         4         425         426         442         441
         4         426         427         443         442
         4         427         428         444         443
         4         428         429         445         444
         4         429         430         446         445
         4         430         431         447         446
         4         432         433         449         448
         4         433         434         450         449
         4         434         435         451         450
         4         435         436         452         451
         4         436         437         453         452
         4         437         438         454         453
         4         438         439         455         454
         4         439         440         456         455
         4         440         441         457         456
         4         441         442         458         457
         4         442         443         459         458
         4         443         444         460         459
         4         444         445         461         460
         4         445         446         462         461
         4         446         447         463         462
         4         448         449         465         464
         4         449         450         466         465
         4         450         451         467         466
         4         451         452         468         467
         4         452         453         469         468
         4         453         454         470         469
         4         454         455         471         470
         4         455         456         472         471
         4         456         457         473         472
         4         457         458         474         473
         4         458         459         475         474
         4         459         460         476         475
         4         460         461         477         476
         4         461         462         478         477
         4         462         463         479         478
         4         464         465         481         480
         4         465         466         482         481
         4         466         467         483         482
         4         467         468         484         483
         4         468         469         485         484
         4         469         470         486         485
         4         470         471         487         486
         4         471         472         488         487
         4         472         473         489         488
         4         473         474         490         489
         4         474         475         491         490
         4         475         476         492         491
         4         476         477         493         492
         4         477         478         494         493
         4         478         479         495         494
CELL_TYPES        450
9
9
9
9
9
9
9
9
9
9
9
9
9
9
9
9
9
9
9
9
9
9
9
9
9
9
9
9
9
9
9
9
9
9
9
9
9
9
9
9
9
9
9
9
9
9
9
9
9
9
9
9
9
9
9
9
9
9
9
9
9
9
9
9
9
9
9
9
9
9
9
9
9
9
9
9
9
9
9
9
9
9
9
9
9
9
9
9
9
9
9
9
9
9
9
9
9
9
9
9
9
9
9
9
9
9
9
9
9
9
9
9
9
9
9
9
9
9
9
9
9
9
9
9
9
9
9
9
9
9
9
9
9
9
9
9
9
9
9
9
9
9
9
9
9
9
9
9
9
9
9
9
9
9
9
9
9
9
9
9
9
9
9
9
9
9
9
9
9
9
9
9
9
9
9
9
9
9
9
9
9
9
9
9
9
9
9
9
9
9
9
9
9
9
9
9
9
9
9
9
9
9
9
9
9
9
9
9
9
9
9
9
9
9
9
9
9
9
9
9
9
9
9
9
9
9
9
9
9
9
9
9
9
9
9
9
9
9
9
9
9
9
9
9
9
9
9
9
9
9
9
9
9
9
9
9
9
9
9
9
9
9
9
9
9
9
9
9
9
9
9
9
9
9
9
9
9
9
9
9
9
9
9
9
9
9
9
9
9
9
9
9
9
9
9
9
9
9
9
9
9
9
9
9
9
9
9
9
9
9
9
9
9
9
9
9
9
9
9
9
9
9
9
9
9
9
9
9
9
9
9
9
9
9
9
9
9
9
9
9
9
9
9
9
9
9
9
9
9
9
9
9
9
9
9
9
9
9
9
9
9
9
9
9
9
9
9
9
9
9
9
9
9
9
9
9
9
9
9
9
9
9
9
9
9
9
9
9
9
9
9
9
9
9
9
9
9
9
9
9
9
9
9
9
9
9
9
9
9
9
9
9
9
9
9
9
9
9
9
9
9
9
9
9
9
9
9
9
9
9
9
9
9
9
9
9
9
9
9
9
9
9
9
9
9
9
9
9
9
9
POINT_DATA       496
SCALARS p double 
LOOKUP_TABLE default
   41328156.1576903     
   41328156.3593484     
   41328156.9177070     
   41328157.7453921     
   41328158.7663165     
   41328159.9146949     
   41328161.1338663     
   41328162.3749792     
   41328163.5955972     
   41328164.7582693     
   41328165.8291075     
   41328166.7764058     
   41328167.5693292     
   41328168.1766918     
   41328168.5658416     
   41328168.7016570     
   41322049.9705570     
   41322050.1705714     
   41322050.7241174     
   41322051.5441210     
   41322052.5549055     
   41322053.6911794     
   41322054.8968312     
   41322056.1235922     
   41322057.3296201     
   41322058.4780521     
   41322059.5355674     
   41322060.4709946     
   41322061.2539905     
   41322061.8538134     
   41322062.2382035     
   41322062.3723799     
   41303730.8888144     
   41303731.0838560     
   41303731.6228489     
   41303732.4196371     
   41303733.3997937     
   41303734.4995233     
   41303735.6643777     
   41303736.8478472     
   41303738.0098821     
   41303739.1153919     
   41303740.1327631     
   41303741.0324310     
   41303741.7855317     
   41303742.3626563     
   41303742.7327216     
   41303742.8619662     
   41273197.3527386     
   41273197.5393536     
   41273198.0537070     
   41273198.8112353     
   41273199.7396528     
   41273200.7777100     
   41273201.8737766     
   41273202.9843135     
   41273204.0722900     
   41273205.1055943     
   41273206.0554771     
   41273206.8950651     
   41273207.5979676     
   41273208.1370003     
   41273208.4830394     
   41273208.6040154     
   41230446.7671333     
   41230446.9416604     
   41230447.4207136     
   41230448.1220908     
   41230448.9766273     
   41230449.9267482     
   41230450.9248637     
   41230451.9316740     
   41230452.9144400     
   41230453.8452708     
   41230454.6994657     
   41230455.4539459     
   41230456.0857996     
   41230456.5709633     
   41230456.8830524     
   41230456.9923511     
   41175475.5078306     
   41175475.6663184     
   41175476.0986111     
   41175476.7257720     
   41175477.4828612     
   41175478.3172178     
   41175479.1866096     
   41175480.0573219     
   41175480.9022425     
   41175481.6989918     
   41175482.4281374     
   41175483.0715225     
   41175483.6107347     
   41175484.0257327     
   41175484.2936466     
   41175484.3877625     
   41108278.9307614     
   41108279.0688882     
   41108279.4419416     
   41108279.9753328     
   41108280.6096130     
   41108281.2984156     
   41108282.0063019     
   41108282.7065854     
   41108283.3791909     
   41108284.0085983     
   41108284.5819039     
   41108285.0870290     
   41108285.5110970     
   41108285.8389958     
   41108286.0521407     
   41108286.1274491     
   41028851.3835674     
   41028851.4965635     
   41028851.7966722     
   41028852.2149605     
   41028852.6989374     
   41028853.2100827     
   41028853.7213287     
   41028854.2145715     
   41028854.6782693     
   41028855.1051712     
   41028855.4902066     
   41028855.8285592     
   41028856.1139406     
   41028856.3370798     
   41028856.4844405     
   41028856.5371813     
   40937186.2197158     
   40937186.3022905     
   40937186.5143320     
   40937186.7941457     
   40937187.0979057     
   40937187.3966910     
   40937187.6735428     
   40937187.9206177     
   40937188.1364927     
   40937188.3236581     
   40937188.4862217     
   40937188.6278385     
   40937188.7498739     
   40937188.8498121     
   40937188.9199209     
   40937188.9461877     
   40833275.8150692     
   40833275.8613461     
   40833275.9686164     
   40833276.0843362     
   40833276.1753314     
   40833276.2242614     
   40833276.2261895     
   40833276.1853381     
   40833276.1120751     
   40833276.0201589     
   40833275.9242521     
   40833275.8377055     
   40833275.7706101     
   40833275.7281193     
   40833275.7090514     
   40833275.7047903     
   40717111.5868582     
   40717111.5903219     
   40717111.5744100     
   40717111.4980276     
   40717111.3409610     
   40717111.0996813     
   40717110.7833718     
   40717110.4102495     
   40717110.0042197     
   40717109.5918726     
   40717109.1998149     
   40717108.8523182     
   40717108.5692656     
   40717108.3643877     
   40717108.2437923     
   40717108.2048112     
   40588684.0149920     
   40588683.9684524     
   40588683.8091678     
   40588683.5102405     
   40588683.0670852     
   40588682.4924868     
   40588681.8120297     
   40588681.0599638     
   40588680.2755269     
   40588679.4997119     
   40588678.7724417     
   40588678.1301085     
   40588677.6034325     
   40588677.2156165     
   40588676.9807918     
   40588676.9027828     
   40447982.6656389     
   40447982.5612175     
   40447982.2365914     
   40447981.6823221     
   40447980.9125201     
   40447979.9590674     
   40447978.8664044     
   40447977.6869309     
   40447976.4770196     
   40447975.2935965     
   40447974.1912110     
   40447973.2195132     
   40447972.4210602     
   40447971.8294008     
   40447971.4674239     
   40447971.3460036     
   40294996.2169972     
   40294996.0461455     
   40294995.5325274     
   40294994.6880104     
   40294993.5489025     
   40294992.1692530     
   40294990.6149597     
   40294988.9587195     
   40294987.2757861     
   40294985.6404396     
   40294984.1230392     
   40294982.7875173     
   40294981.6891892     
   40294980.8727911     
   40294980.3707165     
   40294980.2014857     
   40129712.4871755     
   40129712.2407324     
   40129711.5130095     
   40129710.3416858     
   40129708.7892388     
   40129706.9352329     
   40129704.8697277     
   40129702.6878214     
   40129700.4852446     
   40129698.3548469     
   40129696.3837647     
   40129694.6510530     
   40129693.2255850     
   40129692.1640827     
   40129691.5092211     
   40129691.2878487     
   39952118.4640940     
   39952118.1323916     
   39952117.1643603     
   39952115.6287375     
   39952113.6186423     
   39952111.2427605     
   39952108.6180519     
   39952105.8639688     
   39952103.0980386     
   39952100.4325552     
   39952097.9720631     
   39952095.8113031     
   39952094.0333297     
   39952092.7075920     
   39952091.8878859     
   39952091.6102205     
   39762200.3373129     
   39762199.9103423     
   39762198.6752657     
   39762196.7379600     
   39762194.2271910     
   39762191.2845926     
   39762188.0566952     
   39762184.6889595     
   39762181.3215748     
   39762178.0866375     
   39762175.1062354     
   39762172.4909603     
   39762170.3384247     
   39762168.7314799     
   39762167.7359886     
   39762167.3982005     
   39559943.5316983     
   39559942.9993436     
   39559941.4707283     
   39559939.0959000     
   39559936.0448406     
   39559932.4961190     
   39559928.6282955     
   39559924.6139876     
   39559920.6162244     
   39559916.7865103     
   39559913.2639129     
   39559910.1744897     
   39559907.6304579     
   39559905.7286693     
   39559904.5481772     
   39559904.1469334     
   39345332.7428297     
   39345332.0951795     
   39345330.2478109     
   39345327.4030721     
   39345323.7783327     
   39345319.5931515     
   39345315.0601601     
   39345310.3794970     
   39345305.7362110     
   39345301.2997719     
   39345297.2247102     
   39345293.6514283     
   39345290.7063623     
   39345288.5008866     
   39345287.1286422     
   39345286.6613152     
   39118351.9740595     
   39118351.2018056     
   39118349.0130828     
   39118345.6719799     
   39118341.4500690     
   39118336.6118757     
   39118331.4054312     
   39118326.0575951     
   39118320.7732230     
   39118315.7368959     
   39118311.1158363     
   39118307.0627165     
   39118303.7172594     
   39118301.2058089     
   39118299.6383992     
   39118299.1033066     
   38878984.5751408     
   38878983.6700711     
   38878981.1216992     
   38878977.2669112     
   38878972.4389767     
   38878966.9510432     
   38878961.0867193     
   38878955.0971124     
   38878949.2027926     
   38878943.5987728     
   38878938.4606154     
   38878933.9499924     
   38878930.2183002     
   38878927.4072286     
   38878925.6455873     
   38878925.0422592     
   38627213.2823380     
   38627212.2379407     
   38627209.3180766     
   38627204.9455584     
   38627199.5235209     
   38627193.4166316     
   38627186.9424376     
   38627180.3714695     
   38627173.9334889     
   38627167.8270310     
   38627162.2297604     
   38627157.3076457     
   38627153.2212960     
   38627150.1280288     
   38627148.1785801     
   38627147.5080478     
   38363020.2599449     
   38363019.0721591     
   38363015.7782003     
   38363010.9026792     
   38363004.9272735     
   38362998.2694870     
   38362991.2763036     
   38362984.2296343     
   38362977.3589536     
   38362970.8569255     
   38362964.8950347     
   38362959.6372075     
   38362955.2497248     
   38362951.9055917     
   38362949.7815519     
   38362949.0466605     
   38086387.1431207     
   38086385.8113231     
   38086382.1537481     
   38086376.8163619     
   38086370.3679617     
   38086363.2770042     
   38086355.9108858     
   38086348.5506254     
   38086341.4127282     
   38086334.6723100     
   38086328.4845475     
   38086323.0032570     
   38086318.3953719     
   38086314.8490174     
   38086312.5719529     
   38086311.7777137     
   37797295.0819341     
   37797293.6103855     
   37797289.6185509     
   37797283.8981990     
   37797277.1119226     
   37797269.7708495     
   37797262.2466903     
   37797254.8021999     
   37797247.6256101     
   37797240.8616929     
   37797234.6382696     
   37797229.0893645     
   37797224.3753392     
   37797220.6971815     
   37797218.2991094     
   37797217.4531706     
   37495724.7864234     
   37495723.1867468     
   37495718.9187153     
   37495712.9503019     
   37495706.0378611     
   37495698.7142803     
   37495691.3290361     
   37495684.1044174     
   37495677.1848233     
   37495670.6735859     
   37495664.6612629     
   37495659.2514630     
   37495654.5872517     
   37495650.8761285     
   37495648.4029237     
   37495647.5163206     
   37181656.5724316     
   37181654.8685244     
   37181650.4298715     
   37181644.4359801     
   37181637.7175259     
   37181630.7846380     
   37181623.9252457     
   37181617.2982202     
   37181610.9936681     
   37181605.0683499     
   37181599.5706791     
   37181594.5640291     
   37181590.1588024     
   37181586.5533850     
   37181584.0712141     
   37181583.1601858     
   36855070.4071673     
   36855068.6473775     
   36855064.2319715     
   36855058.5801886     
   36855052.5273244     
   36855046.4772251     
   36855040.6123862     
   36855035.0175846     
   36855029.7296607     
   36855024.7639201     
   36855020.1306821     
   36855015.8516419     
   36855011.9836712     
   36855008.6843063     
   36855006.2945311     
   36855005.3831249     
   36515945.9579877     
   36515944.2473214     
   36515940.2337438     
   36515935.5410159     
   36515930.8086671     
   36515926.2267571     
   36515921.8700489     
   36515917.7608896     
   36515913.8991374     
   36515910.2746189     
   36515906.8744930     
   36515903.6897790     
   36515900.7289851     
   36515898.0390139     
   36515895.9102510     
   36515895.0498354     
   36164262.6373029     
   36164261.2659814     
   36164258.4925271     
   36164255.7184777     
   36164253.0465393     
   36164250.5259349     
   36164248.1636763     
   36164245.9543883     
   36164243.8868108     
   36164241.9470609     
   36164240.1200293     
   36164238.3904629     
   36164236.7432718     
   36164235.1758685     
   36164233.6544646     
   36164232.8955727     
   35800000.0000000     
   35800000.0000000     
   35800000.0000000     
   35800000.0000000     
   35800000.0000000     
   35800000.0000000     
   35800000.0000000     
   35800000.0000000     
   35800000.0000000     
   35800000.0000000     
   35800000.0000000     
   35800000.0000000     
   35800000.0000000     
   35800000.0000000     
   35800000.0000000     
   35800000.0000000     
VECTORS u double 
    0.00000E+00        -0.21781E-01         0.00000E+00
    0.00000E+00        -0.20305E-01         0.00000E+00
    0.00000E+00        -0.18834E-01         0.00000E+00
    0.00000E+00        -0.17365E-01         0.00000E+00
    0.00000E+00        -0.15899E-01         0.00000E+00
    0.00000E+00        -0.14437E-01         0.00000E+00
    0.00000E+00        -0.12977E-01         0.00000E+00
    0.00000E+00        -0.11520E-01         0.00000E+00
    0.00000E+00        -0.10066E-01         0.00000E+00
    0.00000E+00        -0.86151E-02         0.00000E+00
    0.00000E+00        -0.71679E-02         0.00000E+00
    0.00000E+00        -0.57246E-02         0.00000E+00
    0.00000E+00        -0.42856E-02         0.00000E+00
    0.00000E+00        -0.28514E-02         0.00000E+00
    0.00000E+00        -0.14226E-02         0.00000E+00
    0.00000E+00         0.00000E+00         0.00000E+00
    0.16198E-03        -0.21788E-01         0.00000E+00
    0.14808E-03        -0.20312E-01         0.00000E+00
    0.13499E-03        -0.18840E-01         0.00000E+00
    0.12266E-03        -0.17371E-01         0.00000E+00
    0.11101E-03        -0.15905E-01         0.00000E+00
    0.99951E-04        -0.14442E-01         0.00000E+00
    0.89402E-04        -0.12982E-01         0.00000E+00
    0.79256E-04        -0.11524E-01         0.00000E+00
    0.69408E-04        -0.10070E-01         0.00000E+00
    0.59750E-04        -0.86185E-02         0.00000E+00
    0.50174E-04        -0.71707E-02         0.00000E+00
    0.40576E-04        -0.57269E-02         0.00000E+00
    0.30854E-04        -0.42873E-02         0.00000E+00
    0.20911E-04        -0.28526E-02         0.00000E+00
    0.10655E-04        -0.14232E-02         0.00000E+00
    0.00000E+00         0.00000E+00         0.00000E+00
    0.32316E-03        -0.21809E-01         0.00000E+00
    0.29539E-03        -0.20333E-01         0.00000E+00
    0.26924E-03        -0.18859E-01         0.00000E+00
    0.24461E-03        -0.17389E-01         0.00000E+00
    0.22136E-03        -0.15922E-01         0.00000E+00
    0.19931E-03        -0.14457E-01         0.00000E+00
    0.17827E-03        -0.12996E-01         0.00000E+00
    0.15804E-03        -0.11537E-01         0.00000E+00
    0.13841E-03        -0.10081E-01         0.00000E+00
    0.11916E-03        -0.86285E-02         0.00000E+00
    0.10007E-03        -0.71792E-02         0.00000E+00
    0.80935E-04        -0.57338E-02         0.00000E+00
    0.61549E-04        -0.42926E-02         0.00000E+00
    0.41719E-04        -0.28561E-02         0.00000E+00
    0.21260E-04        -0.14250E-02         0.00000E+00
    0.00000E+00         0.00000E+00         0.00000E+00
    0.48276E-03        -0.21845E-01         0.00000E+00
    0.44114E-03        -0.20366E-01         0.00000E+00
    0.40200E-03        -0.18891E-01         0.00000E+00
    0.36516E-03        -0.17419E-01         0.00000E+00
    0.33040E-03        -0.15950E-01         0.00000E+00
    0.29746E-03        -0.14483E-01         0.00000E+00
    0.26606E-03        -0.13020E-01         0.00000E+00
    0.23588E-03        -0.11559E-01         0.00000E+00
    0.20660E-03        -0.10100E-01         0.00000E+00
    0.17788E-03        -0.86452E-02         0.00000E+00
    0.14941E-03        -0.71934E-02         0.00000E+00
    0.12086E-03        -0.57453E-02         0.00000E+00
    0.91929E-04        -0.43013E-02         0.00000E+00
    0.62323E-04        -0.28620E-02         0.00000E+00
    0.31766E-04        -0.14280E-02         0.00000E+00
    0.00000E+00         0.00000E+00         0.00000E+00
    0.63995E-03        -0.21895E-01         0.00000E+00
    0.58454E-03        -0.20414E-01         0.00000E+00
    0.53250E-03        -0.18936E-01         0.00000E+00
    0.48357E-03        -0.17461E-01         0.00000E+00
    0.43747E-03        -0.15989E-01         0.00000E+00
    0.39382E-03        -0.14520E-01         0.00000E+00
    0.35224E-03        -0.13053E-01         0.00000E+00
    0.31230E-03        -0.11589E-01         0.00000E+00
    0.27356E-03        -0.10127E-01         0.00000E+00
    0.23558E-03        -0.86686E-02         0.00000E+00
    0.19792E-03        -0.72132E-02         0.00000E+00
    0.16014E-03        -0.57613E-02         0.00000E+00
    0.12184E-03        -0.43135E-02         0.00000E+00
    0.82622E-04        -0.28703E-02         0.00000E+00
    0.42124E-04        -0.14322E-02         0.00000E+00
    0.00000E+00         0.00000E+00         0.00000E+00
    0.79389E-03        -0.21959E-01         0.00000E+00
    0.72478E-03        -0.20475E-01         0.00000E+00
    0.65997E-03        -0.18994E-01         0.00000E+00
    0.59913E-03        -0.17515E-01         0.00000E+00
    0.54189E-03        -0.16040E-01         0.00000E+00
    0.48777E-03        -0.14566E-01         0.00000E+00
    0.43626E-03        -0.13096E-01         0.00000E+00
    0.38682E-03        -0.11627E-01         0.00000E+00
    0.33890E-03        -0.10162E-01         0.00000E+00
    0.29191E-03        -0.86986E-02         0.00000E+00
    0.24531E-03        -0.72386E-02         0.00000E+00
    0.19856E-03        -0.57820E-02         0.00000E+00
    0.15112E-03        -0.43292E-02         0.00000E+00
    0.10252E-03        -0.28809E-02         0.00000E+00
    0.52287E-04        -0.14376E-02         0.00000E+00
    0.00000E+00         0.00000E+00         0.00000E+00
    0.94374E-03        -0.22038E-01         0.00000E+00
    0.86102E-03        -0.20549E-01         0.00000E+00
    0.78361E-03        -0.19064E-01         0.00000E+00
    0.71110E-03        -0.17581E-01         0.00000E+00
    0.64298E-03        -0.16101E-01         0.00000E+00
    0.57869E-03        -0.14623E-01         0.00000E+00
    0.51757E-03        -0.13148E-01         0.00000E+00
    0.45897E-03        -0.11675E-01         0.00000E+00
    0.40219E-03        -0.10204E-01         0.00000E+00
    0.34654E-03        -0.87353E-02         0.00000E+00
    0.29133E-03        -0.72696E-02         0.00000E+00
    0.23591E-03        -0.58072E-02         0.00000E+00
    0.17963E-03        -0.43484E-02         0.00000E+00
    0.12192E-03        -0.28939E-02         0.00000E+00
    0.62209E-04        -0.14442E-02         0.00000E+00
    0.00000E+00         0.00000E+00         0.00000E+00
    0.10886E-02        -0.22130E-01         0.00000E+00
    0.99241E-03        -0.20637E-01         0.00000E+00
    0.90261E-03        -0.19147E-01         0.00000E+00
    0.81870E-03        -0.17659E-01         0.00000E+00
    0.74005E-03        -0.16174E-01         0.00000E+00
    0.66595E-03        -0.14691E-01         0.00000E+00
    0.59563E-03        -0.13210E-01         0.00000E+00
    0.52827E-03        -0.11730E-01         0.00000E+00
    0.46304E-03        -0.10253E-01         0.00000E+00
    0.39912E-03        -0.87785E-02         0.00000E+00
    0.33570E-03        -0.73062E-02         0.00000E+00
    0.27198E-03        -0.58369E-02         0.00000E+00
    0.20722E-03        -0.43710E-02         0.00000E+00
    0.14072E-03        -0.29092E-02         0.00000E+00
    0.71846E-04        -0.14519E-02         0.00000E+00
    0.00000E+00         0.00000E+00         0.00000E+00
    0.12275E-02        -0.22237E-01         0.00000E+00
    0.11180E-02        -0.20738E-01         0.00000E+00
    0.10161E-02        -0.19242E-01         0.00000E+00
    0.92117E-03        -0.17749E-01         0.00000E+00
    0.83238E-03        -0.16258E-01         0.00000E+00
    0.74892E-03        -0.14768E-01         0.00000E+00
    0.66985E-03        -0.13281E-01         0.00000E+00
    0.59422E-03        -0.11795E-01         0.00000E+00
    0.52103E-03        -0.10310E-01         0.00000E+00
    0.44933E-03        -0.88283E-02         0.00000E+00
    0.37814E-03        -0.73484E-02         0.00000E+00
    0.30657E-03        -0.58711E-02         0.00000E+00
    0.23374E-03        -0.43971E-02         0.00000E+00
    0.15885E-03        -0.29267E-02         0.00000E+00
    0.81158E-04        -0.14608E-02         0.00000E+00
    0.00000E+00         0.00000E+00         0.00000E+00
    0.13595E-02        -0.22357E-01         0.00000E+00
    0.12369E-02        -0.20852E-01         0.00000E+00
    0.11233E-02        -0.19350E-01         0.00000E+00
    0.10177E-02        -0.17850E-01         0.00000E+00
    0.91924E-03        -0.16352E-01         0.00000E+00
    0.82694E-03        -0.14856E-01         0.00000E+00
    0.73968E-03        -0.13361E-01         0.00000E+00
    0.65633E-03        -0.11867E-01         0.00000E+00
    0.57575E-03        -0.10375E-01         0.00000E+00
    0.49681E-03        -0.88845E-02         0.00000E+00
    0.41840E-03        -0.73960E-02         0.00000E+00
    0.33948E-03        -0.59098E-02         0.00000E+00
    0.25906E-03        -0.44264E-02         0.00000E+00
    0.17621E-03        -0.29466E-02         0.00000E+00
    0.90105E-04        -0.14709E-02         0.00000E+00
    0.00000E+00         0.00000E+00         0.00000E+00
    0.14834E-02        -0.22491E-01         0.00000E+00
    0.13482E-02        -0.20979E-01         0.00000E+00
    0.12231E-02        -0.19470E-01         0.00000E+00
    0.11074E-02        -0.17963E-01         0.00000E+00
    0.99988E-03        -0.16457E-01         0.00000E+00
    0.89935E-03        -0.14953E-01         0.00000E+00
    0.80453E-03        -0.13450E-01         0.00000E+00
    0.71412E-03        -0.11948E-01         0.00000E+00
    0.62679E-03        -0.10447E-01         0.00000E+00
    0.54124E-03        -0.89472E-02         0.00000E+00
    0.45622E-03        -0.74490E-02         0.00000E+00
    0.37052E-03        -0.59528E-02         0.00000E+00
    0.28303E-03        -0.44591E-02         0.00000E+00
    0.19272E-03        -0.29687E-02         0.00000E+00
    0.98649E-04        -0.14820E-02         0.00000E+00
    0.00000E+00         0.00000E+00         0.00000E+00
    0.15983E-02        -0.22638E-01         0.00000E+00
    0.14507E-02        -0.21119E-01         0.00000E+00
    0.13148E-02        -0.19602E-01         0.00000E+00
    0.11895E-02        -0.18087E-01         0.00000E+00
    0.10735E-02        -0.16573E-01         0.00000E+00
    0.96545E-03        -0.15061E-01         0.00000E+00
    0.86380E-03        -0.13548E-01         0.00000E+00
    0.76706E-03        -0.12037E-01         0.00000E+00
    0.67371E-03        -0.10526E-01         0.00000E+00
    0.58227E-03        -0.90160E-02         0.00000E+00
    0.49131E-03        -0.75072E-02         0.00000E+00
    0.39949E-03        -0.60000E-02         0.00000E+00
    0.30553E-03        -0.44951E-02         0.00000E+00
    0.20830E-03        -0.29929E-02         0.00000E+00
    0.10676E-03        -0.14943E-02         0.00000E+00
    0.00000E+00         0.00000E+00         0.00000E+00
    0.17030E-02        -0.22799E-01         0.00000E+00
    0.15433E-02        -0.21271E-01         0.00000E+00
    0.13971E-02        -0.19746E-01         0.00000E+00
    0.12630E-02        -0.18222E-01         0.00000E+00
    0.11393E-02        -0.16699E-01         0.00000E+00
    0.10245E-02        -0.15177E-01         0.00000E+00
    0.91690E-03        -0.13655E-01         0.00000E+00
    0.81466E-03        -0.12133E-01         0.00000E+00
    0.71611E-03        -0.10612E-01         0.00000E+00
    0.61957E-03        -0.90908E-02         0.00000E+00
    0.52343E-03        -0.75705E-02         0.00000E+00
    0.42619E-03        -0.60514E-02         0.00000E+00
    0.32643E-03        -0.45341E-02         0.00000E+00
    0.22288E-03        -0.30193E-02         0.00000E+00
    0.11440E-03        -0.15076E-02         0.00000E+00
    0.00000E+00         0.00000E+00         0.00000E+00
    0.17960E-02        -0.22972E-01         0.00000E+00
    0.16250E-02        -0.21435E-01         0.00000E+00
    0.14692E-02        -0.19901E-01         0.00000E+00
    0.13270E-02        -0.18368E-01         0.00000E+00
    0.11965E-02        -0.16835E-01         0.00000E+00
    0.10759E-02        -0.15303E-01         0.00000E+00
    0.96320E-03        -0.13771E-01         0.00000E+00
    0.85639E-03        -0.12238E-01         0.00000E+00
    0.75354E-03        -0.10705E-01         0.00000E+00
    0.65278E-03        -0.91715E-02         0.00000E+00
    0.55230E-03        -0.76387E-02         0.00000E+00
    0.45042E-03        -0.61068E-02         0.00000E+00
    0.34558E-03        -0.45762E-02         0.00000E+00
    0.23637E-03        -0.30477E-02         0.00000E+00
    0.12153E-03        -0.15220E-02         0.00000E+00
    0.00000E+00         0.00000E+00         0.00000E+00
    0.18763E-02        -0.23157E-01         0.00000E+00
    0.16945E-02        -0.21611E-01         0.00000E+00
    0.15299E-02        -0.20067E-01         0.00000E+00
    0.13805E-02        -0.18524E-01         0.00000E+00
    0.12442E-02        -0.16981E-01         0.00000E+00
    0.11188E-02        -0.15438E-01         0.00000E+00
    0.10021E-02        -0.13894E-01         0.00000E+00
    0.89171E-03        -0.12349E-01         0.00000E+00
    0.78557E-03        -0.10804E-01         0.00000E+00
    0.68155E-03        -0.92576E-02         0.00000E+00
    0.57765E-03        -0.77116E-02         0.00000E+00
    0.47199E-03        -0.61659E-02         0.00000E+00
    0.36287E-03        -0.46211E-02         0.00000E+00
    0.24871E-03        -0.30780E-02         0.00000E+00
    0.12814E-03        -0.15373E-02         0.00000E+00
    0.00000E+00         0.00000E+00         0.00000E+00
    0.19421E-02        -0.23353E-01         0.00000E+00
    0.17504E-02        -0.21798E-01         0.00000E+00
    0.15780E-02        -0.20243E-01         0.00000E+00
    0.14225E-02        -0.18690E-01         0.00000E+00
    0.12816E-02        -0.17135E-01         0.00000E+00
    0.11525E-02        -0.15580E-01         0.00000E+00
    0.10329E-02        -0.14024E-01         0.00000E+00
    0.92008E-03        -0.12467E-01         0.00000E+00
    0.81174E-03        -0.10908E-01         0.00000E+00
    0.70550E-03        -0.93488E-02         0.00000E+00
    0.59917E-03        -0.77887E-02         0.00000E+00
    0.49068E-03        -0.62285E-02         0.00000E+00
    0.37812E-03        -0.46687E-02         0.00000E+00
    0.25979E-03        -0.31101E-02         0.00000E+00
    0.13418E-03        -0.15536E-02         0.00000E+00
    0.00000E+00         0.00000E+00         0.00000E+00
    0.19922E-02        -0.23561E-01         0.00000E+00
    0.17915E-02        -0.21994E-01         0.00000E+00
    0.16124E-02        -0.20429E-01         0.00000E+00
    0.14521E-02        -0.18864E-01         0.00000E+00
    0.13076E-02        -0.17298E-01         0.00000E+00
    0.11762E-02        -0.15731E-01         0.00000E+00
    0.10549E-02        -0.14162E-01         0.00000E+00
    0.94093E-03        -0.12591E-01         0.00000E+00
    0.83156E-03        -0.11018E-01         0.00000E+00
    0.72425E-03        -0.94446E-02         0.00000E+00
    0.61657E-03        -0.78697E-02         0.00000E+00
    0.50624E-03        -0.62942E-02         0.00000E+00
    0.39119E-03        -0.47186E-02         0.00000E+00
    0.26953E-03        -0.31438E-02         0.00000E+00
    0.13960E-03        -0.15706E-02         0.00000E+00
    0.00000E+00         0.00000E+00         0.00000E+00
    0.20248E-02        -0.23778E-01         0.00000E+00
    0.18164E-02        -0.22200E-01         0.00000E+00
    0.16319E-02        -0.20623E-01         0.00000E+00
    0.14680E-02        -0.19046E-01         0.00000E+00
    0.13215E-02        -0.17468E-01         0.00000E+00
    0.11891E-02        -0.15887E-01         0.00000E+00
    0.10675E-02        -0.14305E-01         0.00000E+00
    0.95367E-03        -0.12720E-01         0.00000E+00
    0.84455E-03        -0.11133E-01         0.00000E+00
    0.73736E-03        -0.95444E-02         0.00000E+00
    0.62947E-03        -0.79540E-02         0.00000E+00
    0.51840E-03        -0.63626E-02         0.00000E+00
    0.40187E-03        -0.47707E-02         0.00000E+00
    0.27780E-03        -0.31790E-02         0.00000E+00
    0.14436E-03        -0.15884E-02         0.00000E+00
    0.00000E+00         0.00000E+00         0.00000E+00
    0.20383E-02        -0.24003E-01         0.00000E+00
    0.18235E-02        -0.22414E-01         0.00000E+00
    0.16351E-02        -0.20825E-01         0.00000E+00
    0.14693E-02        -0.19235E-01         0.00000E+00
    0.13223E-02        -0.17643E-01         0.00000E+00
    0.11904E-02        -0.16049E-01         0.00000E+00
    0.10700E-02        -0.14453E-01         0.00000E+00
    0.95768E-03        -0.12853E-01         0.00000E+00
    0.85014E-03        -0.11252E-01         0.00000E+00
    0.74437E-03        -0.96473E-02         0.00000E+00
    0.63749E-03        -0.80411E-02         0.00000E+00
    0.52685E-03        -0.64332E-02         0.00000E+00
    0.40993E-03        -0.48244E-02         0.00000E+00
    0.28446E-03        -0.32153E-02         0.00000E+00
    0.14839E-03        -0.16069E-02         0.00000E+00
    0.00000E+00         0.00000E+00         0.00000E+00
    0.20309E-02        -0.24236E-01         0.00000E+00
    0.18113E-02        -0.22634E-01         0.00000E+00
    0.16207E-02        -0.21033E-01         0.00000E+00
    0.14548E-02        -0.19429E-01         0.00000E+00
    0.13091E-02        -0.17824E-01         0.00000E+00
    0.11794E-02        -0.16216E-01         0.00000E+00
    0.10617E-02        -0.14604E-01         0.00000E+00
    0.95233E-03        -0.12990E-01         0.00000E+00
    0.84776E-03        -0.11373E-01         0.00000E+00
    0.74473E-03        -0.97526E-02         0.00000E+00
    0.64016E-03        -0.81300E-02         0.00000E+00
    0.53117E-03        -0.65055E-02         0.00000E+00
    0.41505E-03        -0.48794E-02         0.00000E+00
    0.28929E-03        -0.32526E-02         0.00000E+00
    0.15160E-03        -0.16257E-02         0.00000E+00
    0.00000E+00         0.00000E+00         0.00000E+00
    0.20006E-02        -0.24474E-01         0.00000E+00
    0.17783E-02        -0.22860E-01         0.00000E+00
    0.15876E-02        -0.21245E-01         0.00000E+00
    0.14234E-02        -0.19627E-01         0.00000E+00
    0.12808E-02        -0.18008E-01         0.00000E+00
    0.11551E-02        -0.16384E-01         0.00000E+00
    0.10418E-02        -0.14758E-01         0.00000E+00
    0.93690E-03        -0.13128E-01         0.00000E+00
    0.83674E-03        -0.11495E-01         0.00000E+00
    0.73782E-03        -0.98589E-02         0.00000E+00
    0.63689E-03        -0.82200E-02         0.00000E+00
    0.53088E-03        -0.65786E-02         0.00000E+00
    0.41686E-03        -0.49352E-02         0.00000E+00
    0.29203E-03        -0.32904E-02         0.00000E+00
    0.15385E-03        -0.16450E-02         0.00000E+00
    0.00000E+00         0.00000E+00         0.00000E+00
    0.19456E-02        -0.24715E-01         0.00000E+00
    0.17228E-02        -0.23088E-01         0.00000E+00
    0.15343E-02        -0.21459E-01         0.00000E+00
    0.13741E-02        -0.19827E-01         0.00000E+00
    0.12367E-02        -0.18192E-01         0.00000E+00
    0.11167E-02        -0.16554E-01         0.00000E+00
    0.10095E-02        -0.14912E-01         0.00000E+00
    0.91067E-03        -0.13266E-01         0.00000E+00
    0.81634E-03        -0.11617E-01         0.00000E+00
    0.72291E-03        -0.99650E-02         0.00000E+00
    0.62700E-03        -0.83098E-02         0.00000E+00
    0.52535E-03        -0.66517E-02         0.00000E+00
    0.41482E-03        -0.49911E-02         0.00000E+00
    0.29233E-03        -0.33284E-02         0.00000E+00
    0.15495E-03        -0.16643E-02         0.00000E+00
    0.00000E+00         0.00000E+00         0.00000E+00
    0.18638E-02        -0.24957E-01         0.00000E+00
    0.16433E-02        -0.23316E-01         0.00000E+00
    0.14596E-02        -0.21672E-01         0.00000E+00
    0.13059E-02        -0.20026E-01         0.00000E+00
    0.11759E-02        -0.18375E-01         0.00000E+00
    0.10636E-02        -0.16721E-01         0.00000E+00
    0.96410E-03        -0.15063E-01         0.00000E+00
    0.87279E-03        -0.13402E-01         0.00000E+00
    0.78569E-03        -0.11737E-01         0.00000E+00
    0.69911E-03        -0.10069E-01         0.00000E+00
    0.60960E-03        -0.83981E-02         0.00000E+00
    0.51377E-03        -0.67237E-02         0.00000E+00
    0.40826E-03        -0.50463E-02         0.00000E+00
    0.28969E-03        -0.33661E-02         0.00000E+00
    0.15467E-03        -0.16837E-02         0.00000E+00
    0.00000E+00         0.00000E+00         0.00000E+00
    0.17532E-02        -0.25197E-01         0.00000E+00
    0.15381E-02        -0.23541E-01         0.00000E+00
    0.13623E-02        -0.21883E-01         0.00000E+00
    0.12179E-02        -0.20221E-01         0.00000E+00
    0.10975E-02        -0.18554E-01         0.00000E+00
    0.99492E-03        -0.16884E-01         0.00000E+00
    0.90474E-03        -0.15211E-01         0.00000E+00
    0.82236E-03        -0.13533E-01         0.00000E+00
    0.74377E-03        -0.11853E-01         0.00000E+00
    0.66533E-03        -0.10170E-01         0.00000E+00
    0.58358E-03        -0.84835E-02         0.00000E+00
    0.49509E-03        -0.67935E-02         0.00000E+00
    0.39628E-03        -0.51001E-02         0.00000E+00
    0.28343E-03        -0.34030E-02         0.00000E+00
    0.15264E-03        -0.17027E-02         0.00000E+00
    0.00000E+00         0.00000E+00         0.00000E+00
    0.16118E-02        -0.25431E-01         0.00000E+00
    0.14059E-02        -0.23761E-01         0.00000E+00
    0.12415E-02        -0.22087E-01         0.00000E+00
    0.11092E-02        -0.20408E-01         0.00000E+00
    0.10009E-02        -0.18726E-01         0.00000E+00
    0.90989E-03        -0.17039E-01         0.00000E+00
    0.83053E-03        -0.15350E-01         0.00000E+00
    0.75833E-03        -0.13657E-01         0.00000E+00
    0.68940E-03        -0.11963E-01         0.00000E+00
    0.62026E-03        -0.10265E-01         0.00000E+00
    0.54758E-03        -0.85641E-02         0.00000E+00
    0.46795E-03        -0.68598E-02         0.00000E+00
    0.37768E-03        -0.51514E-02         0.00000E+00
    0.27267E-03        -0.34385E-02         0.00000E+00
    0.14837E-03        -0.17212E-02         0.00000E+00
    0.00000E+00         0.00000E+00         0.00000E+00
    0.14372E-02        -0.25656E-01         0.00000E+00
    0.12451E-02        -0.23970E-01         0.00000E+00
    0.10962E-02        -0.22280E-01         0.00000E+00
    0.97932E-03        -0.20585E-01         0.00000E+00
    0.88555E-03        -0.18885E-01         0.00000E+00
    0.80776E-03        -0.17183E-01         0.00000E+00
    0.74050E-03        -0.15478E-01         0.00000E+00
    0.67946E-03        -0.13771E-01         0.00000E+00
    0.62111E-03        -0.12062E-01         0.00000E+00
    0.56227E-03        -0.10352E-01         0.00000E+00
    0.49986E-03        -0.86380E-02         0.00000E+00
    0.43064E-03        -0.69209E-02         0.00000E+00
    0.35088E-03        -0.51992E-02         0.00000E+00
    0.25616E-03        -0.34721E-02         0.00000E+00
    0.14119E-03        -0.17389E-02         0.00000E+00
    0.00000E+00         0.00000E+00         0.00000E+00
    0.12276E-02        -0.25865E-01         0.00000E+00
    0.10548E-02        -0.24164E-01         0.00000E+00
    0.92592E-03        -0.22456E-01         0.00000E+00
    0.82789E-03        -0.20744E-01         0.00000E+00
    0.75084E-03        -0.19028E-01         0.00000E+00
    0.68771E-03        -0.17310E-01         0.00000E+00
    0.63346E-03        -0.15591E-01         0.00000E+00
    0.58430E-03        -0.13871E-01         0.00000E+00
    0.53719E-03        -0.12150E-01         0.00000E+00
    0.48942E-03        -0.10428E-01         0.00000E+00
    0.43833E-03        -0.87031E-02         0.00000E+00
    0.38099E-03        -0.69751E-02         0.00000E+00
    0.31383E-03        -0.52423E-02         0.00000E+00
    0.23223E-03        -0.35028E-02         0.00000E+00
    0.13013E-03        -0.17556E-02         0.00000E+00
    0.00000E+00         0.00000E+00         0.00000E+00
    0.98072E-03        -0.26053E-01         0.00000E+00
    0.83420E-03        -0.24335E-01         0.00000E+00
    0.73071E-03        -0.22611E-01         0.00000E+00
    0.65478E-03        -0.20881E-01         0.00000E+00
    0.59623E-03        -0.19149E-01         0.00000E+00
    0.54869E-03        -0.17416E-01         0.00000E+00
    0.50798E-03        -0.15684E-01         0.00000E+00
    0.47108E-03        -0.13953E-01         0.00000E+00
    0.43561E-03        -0.12222E-01         0.00000E+00
    0.39946E-03        -0.10490E-01         0.00000E+00
    0.36050E-03        -0.87571E-02         0.00000E+00
    0.31633E-03        -0.70206E-02         0.00000E+00
    0.26383E-03        -0.52790E-02         0.00000E+00
    0.19856E-03        -0.35299E-02         0.00000E+00
    0.11380E-03        -0.17707E-02         0.00000E+00
    0.00000E+00         0.00000E+00         0.00000E+00
    0.69451E-03        -0.26212E-01         0.00000E+00
    0.58345E-03        -0.24477E-01         0.00000E+00
    0.51113E-03        -0.22734E-01         0.00000E+00
    0.45989E-03        -0.20987E-01         0.00000E+00
    0.42082E-03        -0.19241E-01         0.00000E+00
    0.38923E-03        -0.17497E-01         0.00000E+00
    0.36220E-03        -0.15755E-01         0.00000E+00
    0.33767E-03        -0.14015E-01         0.00000E+00
    0.31402E-03        -0.12276E-01         0.00000E+00
    0.28980E-03        -0.10537E-01         0.00000E+00
    0.26355E-03        -0.87977E-02         0.00000E+00
    0.23356E-03        -0.70553E-02         0.00000E+00
    0.19752E-03        -0.53077E-02         0.00000E+00
    0.15186E-03        -0.35520E-02         0.00000E+00
    0.89996E-04        -0.17840E-02         0.00000E+00
    0.00000E+00         0.00000E+00         0.00000E+00
    0.36717E-03        -0.26328E-01         0.00000E+00
    0.30435E-03        -0.24575E-01         0.00000E+00
    0.26795E-03        -0.22815E-01         0.00000E+00
    0.24238E-03        -0.21056E-01         0.00000E+00
    0.22296E-03        -0.19300E-01         0.00000E+00
    0.20726E-03        -0.17548E-01         0.00000E+00
    0.19381E-03        -0.15799E-01         0.00000E+00
    0.18158E-03        -0.14053E-01         0.00000E+00
    0.16977E-03        -0.12309E-01         0.00000E+00
    0.15763E-03        -0.10567E-01         0.00000E+00
    0.14444E-03        -0.88231E-02         0.00000E+00
    0.12929E-03        -0.70771E-02         0.00000E+00
    0.11096E-03        -0.53263E-02         0.00000E+00
    0.87447E-04        -0.35672E-02         0.00000E+00
    0.54862E-04        -0.17946E-02         0.00000E+00
    0.00000E+00         0.00000E+00         0.00000E+00
    0.00000E+00        -0.26379E-01         0.00000E+00
    0.00000E+00        -0.24612E-01         0.00000E+00
    0.00000E+00        -0.22844E-01         0.00000E+00
    0.00000E+00        -0.21080E-01         0.00000E+00
    0.00000E+00        -0.19320E-01         0.00000E+00
    0.00000E+00        -0.17565E-01         0.00000E+00
    0.00000E+00        -0.15814E-01         0.00000E+00
    0.00000E+00        -0.14066E-01         0.00000E+00
    0.00000E+00        -0.12321E-01         0.00000E+00
    0.00000E+00        -0.10576E-01         0.00000E+00
    0.00000E+00        -0.88317E-02         0.00000E+00
    0.00000E+00        -0.70846E-02         0.00000E+00
    0.00000E+00        -0.53327E-02         0.00000E+00
    0.00000E+00        -0.35726E-02         0.00000E+00
    0.00000E+00        -0.17991E-02         0.00000E+00
    0.00000E+00         0.00000E+00         0.00000E+00
CELL_DATA        450
VECTORS vDarcy double 
    0.34863E-08         0.11467E-12         0.00000E+00
    0.34863E-08         0.31742E-12         0.00000E+00
    0.34863E-08         0.47036E-12         0.00000E+00
    0.34862E-08         0.57999E-12         0.00000E+00
    0.34862E-08         0.65219E-12         0.00000E+00
    0.34862E-08         0.69220E-12         0.00000E+00
    0.34862E-08         0.70448E-12         0.00000E+00
    0.34862E-08         0.69271E-12         0.00000E+00
    0.34862E-08         0.65972E-12         0.00000E+00
    0.34862E-08         0.60755E-12         0.00000E+00
    0.34862E-08         0.53743E-12         0.00000E+00
    0.34861E-08         0.44985E-12         0.00000E+00
    0.34861E-08         0.34459E-12         0.00000E+00
    0.34861E-08         0.22081E-12         0.00000E+00
    0.34861E-08         0.77069E-13         0.00000E+00
    0.10459E-07         0.11278E-12         0.00000E+00
    0.10459E-07         0.31189E-12         0.00000E+00
    0.10459E-07         0.46154E-12         0.00000E+00
    0.10459E-07         0.56835E-12         0.00000E+00
    0.10459E-07         0.63830E-12         0.00000E+00
    0.10459E-07         0.67669E-12         0.00000E+00
    0.10459E-07         0.68803E-12         0.00000E+00
    0.10459E-07         0.67599E-12         0.00000E+00
    0.10459E-07         0.64341E-12         0.00000E+00
    0.10459E-07         0.59229E-12         0.00000E+00
    0.10459E-07         0.52384E-12         0.00000E+00
    0.10459E-07         0.43848E-12         0.00000E+00
    0.10459E-07         0.33596E-12         0.00000E+00
    0.10459E-07         0.21536E-12         0.00000E+00
    0.10459E-07         0.75194E-13         0.00000E+00
    0.17433E-07         0.10895E-12         0.00000E+00
    0.17433E-07         0.30070E-12         0.00000E+00
    0.17433E-07         0.44371E-12         0.00000E+00
    0.17433E-07         0.54483E-12         0.00000E+00
    0.17433E-07         0.61026E-12         0.00000E+00
    0.17432E-07         0.64541E-12         0.00000E+00
    0.17432E-07         0.65485E-12         0.00000E+00
    0.17432E-07         0.64229E-12         0.00000E+00
    0.17432E-07         0.61054E-12         0.00000E+00
    0.17432E-07         0.56156E-12         0.00000E+00
    0.17432E-07         0.49648E-12         0.00000E+00
    0.17432E-07         0.41562E-12         0.00000E+00
    0.17432E-07         0.31861E-12         0.00000E+00
    0.17432E-07         0.20441E-12         0.00000E+00
    0.17432E-07         0.71426E-13         0.00000E+00
    0.24408E-07         0.10310E-12         0.00000E+00
    0.24408E-07         0.28359E-12         0.00000E+00
    0.24408E-07         0.41647E-12         0.00000E+00
    0.24408E-07         0.50897E-12         0.00000E+00
    0.24408E-07         0.56755E-12         0.00000E+00
    0.24407E-07         0.59781E-12         0.00000E+00
    0.24407E-07         0.60442E-12         0.00000E+00
    0.24407E-07         0.59111E-12         0.00000E+00
    0.24407E-07         0.56067E-12         0.00000E+00
    0.24407E-07         0.51498E-12         0.00000E+00
    0.24407E-07         0.45503E-12         0.00000E+00
    0.24407E-07         0.38101E-12         0.00000E+00
    0.24407E-07         0.29236E-12         0.00000E+00
    0.24407E-07         0.18786E-12         0.00000E+00
    0.24407E-07         0.65732E-13         0.00000E+00
    0.31385E-07         0.95066E-13         0.00000E+00
    0.31385E-07         0.26016E-12         0.00000E+00
    0.31385E-07         0.37925E-12         0.00000E+00
    0.31385E-07         0.46006E-12         0.00000E+00
    0.31385E-07         0.50940E-12         0.00000E+00
    0.31384E-07         0.53310E-12         0.00000E+00
    0.31384E-07         0.53595E-12         0.00000E+00
    0.31384E-07         0.52173E-12         0.00000E+00
    0.31384E-07         0.49315E-12         0.00000E+00
    0.31384E-07         0.45197E-12         0.00000E+00
    0.31384E-07         0.39902E-12         0.00000E+00
    0.31384E-07         0.33428E-12         0.00000E+00
    0.31384E-07         0.25695E-12         0.00000E+00
    0.31384E-07         0.16556E-12         0.00000E+00
    0.31384E-07         0.58064E-13         0.00000E+00
    0.38365E-07         0.84674E-13         0.00000E+00
    0.38365E-07         0.22990E-12         0.00000E+00
    0.38364E-07         0.33130E-12         0.00000E+00
    0.38364E-07         0.39718E-12         0.00000E+00
    0.38364E-07         0.43480E-12         0.00000E+00
    0.38364E-07         0.45025E-12         0.00000E+00
    0.38364E-07         0.44845E-12         0.00000E+00
    0.38364E-07         0.43319E-12         0.00000E+00
    0.38364E-07         0.40710E-12         0.00000E+00
    0.38364E-07         0.37179E-12         0.00000E+00
    0.38363E-07         0.32784E-12         0.00000E+00
    0.38363E-07         0.27497E-12         0.00000E+00
    0.38363E-07         0.21206E-12         0.00000E+00
    0.38363E-07         0.13732E-12         0.00000E+00
    0.38363E-07         0.48362E-13         0.00000E+00
    0.45348E-07         0.71687E-13         0.00000E+00
    0.45347E-07         0.19216E-12         0.00000E+00
    0.45347E-07         0.27167E-12         0.00000E+00
    0.45347E-07         0.31922E-12         0.00000E+00
    0.45347E-07         0.34253E-12         0.00000E+00
    0.45347E-07         0.34801E-12         0.00000E+00
    0.45346E-07         0.34070E-12         0.00000E+00
    0.45346E-07         0.32436E-12         0.00000E+00
    0.45346E-07         0.30153E-12         0.00000E+00
    0.45346E-07         0.27356E-12         0.00000E+00
    0.45346E-07         0.24077E-12         0.00000E+00
    0.45346E-07         0.20251E-12         0.00000E+00
    0.45346E-07         0.15729E-12         0.00000E+00
    0.45346E-07         0.10290E-12         0.00000E+00
    0.45346E-07         0.36551E-13         0.00000E+00
    0.52334E-07         0.55828E-13         0.00000E+00
    0.52334E-07         0.14620E-12         0.00000E+00
    0.52333E-07         0.19928E-12         0.00000E+00
    0.52333E-07         0.22487E-12         0.00000E+00
    0.52333E-07         0.23120E-12         0.00000E+00
    0.52333E-07         0.22497E-12         0.00000E+00
    0.52333E-07         0.21133E-12         0.00000E+00
    0.52333E-07         0.19398E-12         0.00000E+00
    0.52332E-07         0.17529E-12         0.00000E+00
    0.52332E-07         0.15631E-12         0.00000E+00
    0.52332E-07         0.13701E-12         0.00000E+00
    0.52332E-07         0.11630E-12         0.00000E+00
    0.52332E-07         0.92221E-13         0.00000E+00
    0.52332E-07         0.62075E-13         0.00000E+00
    0.52332E-07         0.22552E-13         0.00000E+00
    0.59325E-07         0.36782E-13         0.00000E+00
    0.59324E-07         0.91150E-13         0.00000E+00
    0.59324E-07         0.11291E-12         0.00000E+00
    0.59324E-07         0.11268E-12         0.00000E+00
    0.59323E-07         0.99256E-13         0.00000E+00
    0.59323E-07         0.79578E-13         0.00000E+00
    0.59323E-07         0.58866E-13         0.00000E+00
    0.59323E-07         0.40708E-13         0.00000E+00
    0.59323E-07         0.27189E-13         0.00000E+00
    0.59323E-07         0.19027E-13         0.00000E+00
    0.59323E-07         0.15720E-13         0.00000E+00
    0.59323E-07         0.15682E-13         0.00000E+00
    0.59322E-07         0.16398E-13         0.00000E+00
    0.59322E-07         0.14569E-13         0.00000E+00
    0.59322E-07         0.62814E-14         0.00000E+00
    0.66320E-07         0.14199E-13         0.00000E+00
    0.66319E-07         0.26079E-13         0.00000E+00
    0.66319E-07         0.11229E-13         0.00000E+00
    0.66319E-07        -0.18860E-13         0.00000E+00
    0.66319E-07        -0.54906E-13         0.00000E+00
    0.66318E-07        -0.89740E-13         0.00000E+00
    0.66318E-07        -0.11817E-12         0.00000E+00
    0.66318E-07        -0.13681E-12         0.00000E+00
    0.66318E-07        -0.14394E-12         0.00000E+00
    0.66318E-07        -0.13929E-12         0.00000E+00
    0.66318E-07        -0.12389E-12         0.00000E+00
    0.66318E-07        -0.99947E-13         0.00000E+00
    0.66318E-07        -0.70609E-13         0.00000E+00
    0.66318E-07        -0.39865E-13         0.00000E+00
    0.66317E-07        -0.12343E-13         0.00000E+00
    0.73320E-07        -0.12296E-13         0.00000E+00
    0.73320E-07        -0.50010E-13         0.00000E+00
    0.73319E-07        -0.10713E-12         0.00000E+00
    0.73319E-07        -0.17133E-12         0.00000E+00
    0.73319E-07        -0.23289E-12         0.00000E+00
    0.73319E-07        -0.28452E-12         0.00000E+00
    0.73319E-07        -0.32118E-12         0.00000E+00
    0.73318E-07        -0.33981E-12         0.00000E+00
    0.73318E-07        -0.33915E-12         0.00000E+00
    0.73318E-07        -0.31950E-12         0.00000E+00
    0.73318E-07        -0.28254E-12         0.00000E+00
    0.73318E-07        -0.23113E-12         0.00000E+00
    0.73318E-07        -0.16918E-12         0.00000E+00
    0.73318E-07        -0.10145E-12         0.00000E+00
    0.73318E-07        -0.33393E-13         0.00000E+00
    0.80326E-07        -0.43092E-13         0.00000E+00
    0.80326E-07        -0.13813E-12         0.00000E+00
    0.80325E-07        -0.24354E-12         0.00000E+00
    0.80325E-07        -0.34623E-12         0.00000E+00
    0.80325E-07        -0.43617E-12         0.00000E+00
    0.80325E-07        -0.50612E-12         0.00000E+00
    0.80325E-07        -0.55134E-12         0.00000E+00
    0.80325E-07        -0.56926E-12         0.00000E+00
    0.80324E-07        -0.55924E-12         0.00000E+00
    0.80324E-07        -0.52225E-12         0.00000E+00
    0.80324E-07        -0.46070E-12         0.00000E+00
    0.80324E-07        -0.37824E-12         0.00000E+00
    0.80324E-07        -0.27958E-12         0.00000E+00
    0.80324E-07        -0.17035E-12         0.00000E+00
    0.80324E-07        -0.56924E-13         0.00000E+00
    0.87338E-07        -0.78575E-13         0.00000E+00
    0.87338E-07        -0.23927E-12         0.00000E+00
    0.87338E-07        -0.39927E-12         0.00000E+00
    0.87337E-07        -0.54488E-12         0.00000E+00
    0.87337E-07        -0.66596E-12         0.00000E+00
    0.87337E-07        -0.75554E-12         0.00000E+00
    0.87337E-07        -0.80941E-12         0.00000E+00
    0.87337E-07        -0.82572E-12         0.00000E+00
    0.87337E-07        -0.80457E-12         0.00000E+00
    0.87337E-07        -0.74777E-12         0.00000E+00
    0.87337E-07        -0.65856E-12         0.00000E+00
    0.87337E-07        -0.54140E-12         0.00000E+00
    0.87337E-07        -0.40190E-12         0.00000E+00
    0.87337E-07        -0.24663E-12         0.00000E+00
    0.87336E-07        -0.82960E-13         0.00000E+00
    0.94357E-07        -0.11911E-12         0.00000E+00
    0.94357E-07        -0.35433E-12         0.00000E+00
    0.94356E-07        -0.57539E-12         0.00000E+00
    0.94356E-07        -0.76826E-12         0.00000E+00
    0.94356E-07        -0.92299E-12         0.00000E+00
    0.94356E-07        -0.10332E-11         0.00000E+00
    0.94356E-07        -0.10955E-11         0.00000E+00
    0.94356E-07        -0.11090E-11         0.00000E+00
    0.94356E-07        -0.10749E-11         0.00000E+00
    0.94356E-07        -0.99572E-12         0.00000E+00
    0.94356E-07        -0.87576E-12         0.00000E+00
    0.94356E-07        -0.72036E-12         0.00000E+00
    0.94356E-07        -0.53600E-12         0.00000E+00
    0.94356E-07        -0.33022E-12         0.00000E+00
    0.94356E-07        -0.11149E-12         0.00000E+00
    0.10138E-06        -0.16502E-12         0.00000E+00
    0.10138E-06        -0.48402E-12         0.00000E+00
    0.10138E-06        -0.77265E-12         0.00000E+00
    0.10138E-06        -0.10169E-11         0.00000E+00
    0.10138E-06        -0.12073E-11         0.00000E+00
    0.10138E-06        -0.13387E-11         0.00000E+00
    0.10138E-06        -0.14089E-11         0.00000E+00
    0.10138E-06        -0.14181E-11         0.00000E+00
    0.10138E-06        -0.13689E-11         0.00000E+00
    0.10138E-06        -0.12649E-11         0.00000E+00
    0.10138E-06        -0.11113E-11         0.00000E+00
    0.10138E-06        -0.91434E-12         0.00000E+00
    0.10138E-06        -0.68137E-12         0.00000E+00
    0.10138E-06        -0.42088E-12         0.00000E+00
    0.10138E-06        -0.14244E-12         0.00000E+00
    0.10842E-06        -0.21655E-12         0.00000E+00
    0.10842E-06        -0.62883E-12         0.00000E+00
    0.10842E-06        -0.99126E-12         0.00000E+00
    0.10842E-06        -0.12904E-11         0.00000E+00
    0.10842E-06        -0.15180E-11         0.00000E+00
    0.10842E-06        -0.16705E-11         0.00000E+00
    0.10842E-06        -0.17473E-11         0.00000E+00
    0.10842E-06        -0.17506E-11         0.00000E+00
    0.10842E-06        -0.16841E-11         0.00000E+00
    0.10842E-06        -0.15529E-11         0.00000E+00
    0.10842E-06        -0.13632E-11         0.00000E+00
    0.10842E-06        -0.11218E-11         0.00000E+00
    0.10842E-06        -0.83704E-12         0.00000E+00
    0.10842E-06        -0.51809E-12         0.00000E+00
    0.10842E-06        -0.17566E-12         0.00000E+00
    0.11546E-06        -0.27381E-12         0.00000E+00
    0.11546E-06        -0.78882E-12         0.00000E+00
    0.11546E-06        -0.12308E-11         0.00000E+00
    0.11546E-06        -0.15875E-11         0.00000E+00
    0.11546E-06        -0.18527E-11         0.00000E+00
    0.11546E-06        -0.20252E-11         0.00000E+00
    0.11546E-06        -0.21070E-11         0.00000E+00
    0.11546E-06        -0.21021E-11         0.00000E+00
    0.11546E-06        -0.20164E-11         0.00000E+00
    0.11546E-06        -0.18561E-11         0.00000E+00
    0.11546E-06        -0.16282E-11         0.00000E+00
    0.11546E-06        -0.13405E-11         0.00000E+00
    0.11546E-06        -0.10014E-11         0.00000E+00
    0.11546E-06        -0.62106E-12         0.00000E+00
    0.11546E-06        -0.21093E-12         0.00000E+00
    0.12251E-06        -0.33679E-12         0.00000E+00
    0.12251E-06        -0.96355E-12         0.00000E+00
    0.12251E-06        -0.14897E-11         0.00000E+00
    0.12251E-06        -0.19054E-11         0.00000E+00
    0.12251E-06        -0.22074E-11         0.00000E+00
    0.12251E-06        -0.23977E-11         0.00000E+00
    0.12251E-06        -0.24816E-11         0.00000E+00
    0.12251E-06        -0.24663E-11         0.00000E+00
    0.12251E-06        -0.23593E-11         0.00000E+00
    0.12251E-06        -0.21685E-11         0.00000E+00
    0.12251E-06        -0.19016E-11         0.00000E+00
    0.12251E-06        -0.15666E-11         0.00000E+00
    0.12251E-06        -0.11723E-11         0.00000E+00
    0.12251E-06        -0.72858E-12         0.00000E+00
    0.12251E-06        -0.24790E-12         0.00000E+00
    0.12956E-06        -0.40525E-12         0.00000E+00
    0.12956E-06        -0.11519E-11         0.00000E+00
    0.12956E-06        -0.17655E-11         0.00000E+00
    0.12956E-06        -0.22395E-11         0.00000E+00
    0.12956E-06        -0.25753E-11         0.00000E+00
    0.12956E-06        -0.27797E-11         0.00000E+00
    0.12957E-06        -0.28622E-11         0.00000E+00
    0.12957E-06        -0.28334E-11         0.00000E+00
    0.12957E-06        -0.27036E-11         0.00000E+00
    0.12957E-06        -0.24819E-11         0.00000E+00
    0.12957E-06        -0.21766E-11         0.00000E+00
    0.12957E-06        -0.17954E-11         0.00000E+00
    0.12957E-06        -0.13462E-11         0.00000E+00
    0.12957E-06        -0.83899E-12         0.00000E+00
    0.12957E-06        -0.28610E-12         0.00000E+00
    0.13663E-06        -0.47871E-12         0.00000E+00
    0.13663E-06        -0.13520E-11         0.00000E+00
    0.13663E-06        -0.20537E-11         0.00000E+00
    0.13663E-06        -0.25828E-11         0.00000E+00
    0.13663E-06        -0.29471E-11         0.00000E+00
    0.13663E-06        -0.31596E-11         0.00000E+00
    0.13663E-06        -0.32357E-11         0.00000E+00
    0.13663E-06        -0.31904E-11         0.00000E+00
    0.13663E-06        -0.30368E-11         0.00000E+00
    0.13663E-06        -0.27853E-11         0.00000E+00
    0.13663E-06        -0.24441E-11         0.00000E+00
    0.13663E-06        -0.20198E-11         0.00000E+00
    0.13664E-06        -0.15191E-11         0.00000E+00
    0.13664E-06        -0.95012E-12         0.00000E+00
    0.13664E-06        -0.32491E-12         0.00000E+00
    0.14371E-06        -0.55636E-12         0.00000E+00
    0.14371E-06        -0.15606E-11         0.00000E+00
    0.14371E-06        -0.23480E-11         0.00000E+00
    0.14371E-06        -0.29253E-11         0.00000E+00
    0.14371E-06        -0.33091E-11         0.00000E+00
    0.14371E-06        -0.35213E-11         0.00000E+00
    0.14371E-06        -0.35847E-11         0.00000E+00
    0.14371E-06        -0.35196E-11         0.00000E+00
    0.14371E-06        -0.33421E-11         0.00000E+00
    0.14371E-06        -0.30638E-11         0.00000E+00
    0.14371E-06        -0.26921E-11         0.00000E+00
    0.14371E-06        -0.22312E-11         0.00000E+00
    0.14371E-06        -0.16851E-11         0.00000E+00
    0.14371E-06        -0.10591E-11         0.00000E+00
    0.14371E-06        -0.36356E-12         0.00000E+00
    0.15079E-06        -0.63703E-12         0.00000E+00
    0.15079E-06        -0.17733E-11         0.00000E+00
    0.15079E-06        -0.26392E-11         0.00000E+00
    0.15079E-06        -0.32527E-11         0.00000E+00
    0.15079E-06        -0.36429E-11         0.00000E+00
    0.15080E-06        -0.38434E-11         0.00000E+00
    0.15080E-06        -0.38863E-11         0.00000E+00
    0.15080E-06        -0.37981E-11         0.00000E+00
    0.15080E-06        -0.35983E-11         0.00000E+00
    0.15080E-06        -0.32989E-11         0.00000E+00
    0.15080E-06        -0.29053E-11         0.00000E+00
    0.15080E-06        -0.24184E-11         0.00000E+00
    0.15080E-06        -0.18372E-11         0.00000E+00
    0.15080E-06        -0.11625E-11         0.00000E+00
    0.15080E-06        -0.40110E-12         0.00000E+00
    0.15789E-06        -0.71902E-12         0.00000E+00
    0.15789E-06        -0.19838E-11         0.00000E+00
    0.15789E-06        -0.29145E-11         0.00000E+00
    0.15789E-06        -0.35455E-11         0.00000E+00
    0.15789E-06        -0.39236E-11         0.00000E+00
    0.15789E-06        -0.40978E-11         0.00000E+00
    0.15789E-06        -0.41115E-11         0.00000E+00
    0.15789E-06        -0.39978E-11         0.00000E+00
    0.15789E-06        -0.37792E-11         0.00000E+00
    0.15790E-06        -0.34673E-11         0.00000E+00
    0.15790E-06        -0.30648E-11         0.00000E+00
    0.15790E-06        -0.25672E-11         0.00000E+00
    0.15790E-06        -0.19665E-11         0.00000E+00
    0.15790E-06        -0.12560E-11         0.00000E+00
    0.15790E-06        -0.43639E-12         0.00000E+00
    0.16499E-06        -0.79997E-12         0.00000E+00
    0.16499E-06        -0.21829E-11         0.00000E+00
    0.16499E-06        -0.31555E-11         0.00000E+00
    0.16500E-06        -0.37768E-11         0.00000E+00
    0.16500E-06        -0.41185E-11         0.00000E+00
    0.16500E-06        -0.42493E-11         0.00000E+00
    0.16500E-06        -0.42249E-11         0.00000E+00
    0.16500E-06        -0.40850E-11         0.00000E+00
    0.16500E-06        -0.38538E-11         0.00000E+00
    0.16500E-06        -0.35419E-11         0.00000E+00
    0.16500E-06        -0.31478E-11         0.00000E+00
    0.16500E-06        -0.26603E-11         0.00000E+00
    0.16500E-06        -0.20617E-11         0.00000E+00
    0.16500E-06        -0.13342E-11         0.00000E+00
    0.16501E-06        -0.46808E-12         0.00000E+00
    0.17211E-06        -0.87638E-12         0.00000E+00
    0.17211E-06        -0.23570E-11         0.00000E+00
    0.17211E-06        -0.33355E-11         0.00000E+00
    0.17211E-06        -0.39091E-11         0.00000E+00
    0.17211E-06        -0.41847E-11         0.00000E+00
    0.17212E-06        -0.42546E-11         0.00000E+00
    0.17212E-06        -0.41861E-11         0.00000E+00
    0.17212E-06        -0.40226E-11         0.00000E+00
    0.17212E-06        -0.37883E-11         0.00000E+00
    0.17212E-06        -0.34917E-11         0.00000E+00
    0.17212E-06        -0.31273E-11         0.00000E+00
    0.17212E-06        -0.26763E-11         0.00000E+00
    0.17212E-06        -0.21087E-11         0.00000E+00
    0.17212E-06        -0.13902E-11         0.00000E+00
    0.17212E-06        -0.49443E-12         0.00000E+00
    0.17923E-06        -0.94265E-12         0.00000E+00
    0.17924E-06        -0.24844E-11         0.00000E+00
    0.17924E-06        -0.34134E-11         0.00000E+00
    0.17924E-06        -0.38896E-11         0.00000E+00
    0.17924E-06        -0.40681E-11         0.00000E+00
    0.17924E-06        -0.40648E-11         0.00000E+00
    0.17924E-06        -0.39527E-11         0.00000E+00
    0.17925E-06        -0.37737E-11         0.00000E+00
    0.17925E-06        -0.35489E-11         0.00000E+00
    0.17925E-06        -0.32846E-11         0.00000E+00
    0.17925E-06        -0.29725E-11         0.00000E+00
    0.17925E-06        -0.25881E-11         0.00000E+00
    0.17925E-06        -0.20879E-11         0.00000E+00
    0.17925E-06        -0.14141E-11         0.00000E+00
    0.17925E-06        -0.51300E-12         0.00000E+00
    0.18637E-06        -0.98830E-12         0.00000E+00
    0.18637E-06        -0.25264E-11         0.00000E+00
    0.18638E-06        -0.33230E-11         0.00000E+00
    0.18638E-06        -0.36442E-11         0.00000E+00
    0.18638E-06        -0.37046E-11         0.00000E+00
    0.18638E-06        -0.36309E-11         0.00000E+00
    0.18638E-06        -0.34875E-11         0.00000E+00
    0.18638E-06        -0.33080E-11         0.00000E+00
    0.18638E-06        -0.31078E-11         0.00000E+00
    0.18639E-06        -0.28910E-11         0.00000E+00
    0.18639E-06        -0.26498E-11         0.00000E+00
    0.18639E-06        -0.23609E-11         0.00000E+00
    0.18639E-06        -0.19704E-11         0.00000E+00
    0.18639E-06        -0.13903E-11         0.00000E+00
    0.18639E-06        -0.52007E-12         0.00000E+00
    0.19352E-06        -0.99018E-12         0.00000E+00
    0.19352E-06        -0.24050E-11         0.00000E+00
    0.19352E-06        -0.29516E-11         0.00000E+00
    0.19353E-06        -0.30774E-11         0.00000E+00
    0.19353E-06        -0.30337E-11         0.00000E+00
    0.19353E-06        -0.29166E-11         0.00000E+00
    0.19353E-06        -0.27690E-11         0.00000E+00
    0.19353E-06        -0.26108E-11         0.00000E+00
    0.19353E-06        -0.24512E-11         0.00000E+00
    0.19353E-06        -0.22924E-11         0.00000E+00
    0.19354E-06        -0.21298E-11         0.00000E+00
    0.19354E-06        -0.19486E-11         0.00000E+00
    0.19354E-06        -0.17091E-11         0.00000E+00
    0.19354E-06        -0.12894E-11         0.00000E+00
    0.19354E-06        -0.50562E-12         0.00000E+00
    0.20067E-06        -0.87931E-12         0.00000E+00
    0.20068E-06        -0.19364E-11         0.00000E+00
    0.20068E-06        -0.21304E-11         0.00000E+00
    0.20069E-06        -0.21126E-11         0.00000E+00
    0.20069E-06        -0.20266E-11         0.00000E+00
    0.20069E-06        -0.19172E-11         0.00000E+00
    0.20069E-06        -0.18029E-11         0.00000E+00
    0.20069E-06        -0.16919E-11         0.00000E+00
    0.20069E-06        -0.15877E-11         0.00000E+00
    0.20069E-06        -0.14916E-11         0.00000E+00
    0.20070E-06        -0.14023E-11         0.00000E+00
    0.20070E-06        -0.13149E-11         0.00000E+00
    0.20070E-06        -0.12149E-11         0.00000E+00
    0.20070E-06        -0.10416E-11         0.00000E+00
    0.20070E-06        -0.46209E-12         0.00000E+00
    0.20784E-06        -0.39123E-12         0.00000E+00
    0.20785E-06        -0.79128E-12         0.00000E+00
    0.20785E-06        -0.79147E-12         0.00000E+00
    0.20786E-06        -0.76235E-12         0.00000E+00
    0.20786E-06        -0.71919E-12         0.00000E+00
    0.20786E-06        -0.67402E-12         0.00000E+00
    0.20786E-06        -0.63038E-12         0.00000E+00
    0.20786E-06        -0.58995E-12         0.00000E+00
    0.20786E-06        -0.55348E-12         0.00000E+00
    0.20787E-06        -0.52133E-12         0.00000E+00
    0.20787E-06        -0.49352E-12         0.00000E+00
    0.20787E-06        -0.47002E-12         0.00000E+00
    0.20787E-06        -0.44726E-12         0.00000E+00
    0.20787E-06        -0.43414E-12         0.00000E+00
    0.20787E-06        -0.21656E-12         0.00000E+00
POINT_DATA        496
VECTORS vDarcyNodal double 
    0.34863E-08         0.11514E-12         0.00000E+00
    0.34863E-08         0.21696E-12         0.00000E+00
    0.34863E-08         0.39567E-12         0.00000E+00
    0.34862E-08         0.52772E-12         0.00000E+00
    0.34862E-08         0.61926E-12         0.00000E+00
    0.34862E-08         0.67585E-12         0.00000E+00
    0.34862E-08         0.70232E-12         0.00000E+00
    0.34862E-08         0.70273E-12         0.00000E+00
    0.34862E-08         0.68033E-12         0.00000E+00
    0.34862E-08         0.63757E-12         0.00000E+00
    0.34862E-08         0.57609E-12         0.00000E+00
    0.34862E-08         0.49675E-12         0.00000E+00
    0.34861E-08         0.39972E-12         0.00000E+00
    0.34861E-08         0.28446E-12         0.00000E+00
    0.34861E-08         0.14985E-12         0.00000E+00
    0.34861E-08         0.77537E-13         0.00000E+00
    0.69728E-08         0.11420E-12         0.00000E+00
    0.69727E-08         0.21512E-12         0.00000E+00
    0.69727E-08         0.39211E-12         0.00000E+00
    0.69726E-08         0.52263E-12         0.00000E+00
    0.69726E-08         0.61291E-12         0.00000E+00
    0.69726E-08         0.66854E-12         0.00000E+00
    0.69725E-08         0.69436E-12         0.00000E+00
    0.69725E-08         0.69446E-12         0.00000E+00
    0.69725E-08         0.67210E-12         0.00000E+00
    0.69725E-08         0.62970E-12         0.00000E+00
    0.69725E-08         0.56890E-12         0.00000E+00
    0.69724E-08         0.49053E-12         0.00000E+00
    0.69724E-08         0.39473E-12         0.00000E+00
    0.69724E-08         0.28095E-12         0.00000E+00
    0.69724E-08         0.14803E-12         0.00000E+00
    0.69724E-08         0.76602E-13         0.00000E+00
    0.13946E-07         0.11136E-12         0.00000E+00
    0.13946E-07         0.20955E-12         0.00000E+00
    0.13946E-07         0.38132E-12         0.00000E+00
    0.13946E-07         0.50726E-12         0.00000E+00
    0.13946E-07         0.59374E-12         0.00000E+00
    0.13946E-07         0.64646E-12         0.00000E+00
    0.13946E-07         0.67036E-12         0.00000E+00
    0.13946E-07         0.66955E-12         0.00000E+00
    0.13946E-07         0.64729E-12         0.00000E+00
    0.13946E-07         0.60599E-12         0.00000E+00
    0.13945E-07         0.54723E-12         0.00000E+00
    0.13945E-07         0.47179E-12         0.00000E+00
    0.13945E-07         0.37972E-12         0.00000E+00
    0.13945E-07         0.27038E-12         0.00000E+00
    0.13945E-07         0.14253E-12         0.00000E+00
    0.13945E-07         0.73786E-13         0.00000E+00
    0.20921E-07         0.10655E-12         0.00000E+00
    0.20920E-07         0.20011E-12         0.00000E+00
    0.20920E-07         0.36308E-12         0.00000E+00
    0.20920E-07         0.48128E-12         0.00000E+00
    0.20920E-07         0.56136E-12         0.00000E+00
    0.20920E-07         0.60921E-12         0.00000E+00
    0.20920E-07         0.62990E-12         0.00000E+00
    0.20920E-07         0.62759E-12         0.00000E+00
    0.20920E-07         0.60554E-12         0.00000E+00
    0.20920E-07         0.56611E-12         0.00000E+00
    0.20920E-07         0.51081E-12         0.00000E+00
    0.20920E-07         0.44031E-12         0.00000E+00
    0.20920E-07         0.35451E-12         0.00000E+00
    0.20920E-07         0.25265E-12         0.00000E+00
    0.20919E-07         0.13331E-12         0.00000E+00
    0.20919E-07         0.69065E-13         0.00000E+00
    0.27897E-07         0.99645E-13         0.00000E+00
    0.27897E-07         0.18658E-12         0.00000E+00
    0.27896E-07         0.33697E-12         0.00000E+00
    0.27896E-07         0.44416E-12         0.00000E+00
    0.27896E-07         0.51516E-12         0.00000E+00
    0.27896E-07         0.55615E-12         0.00000E+00
    0.27896E-07         0.57233E-12         0.00000E+00
    0.27896E-07         0.56794E-12         0.00000E+00
    0.27896E-07         0.54625E-12         0.00000E+00
    0.27896E-07         0.50954E-12         0.00000E+00
    0.27896E-07         0.45920E-12         0.00000E+00
    0.27896E-07         0.39573E-12         0.00000E+00
    0.27895E-07         0.31885E-12         0.00000E+00
    0.27895E-07         0.22758E-12         0.00000E+00
    0.27895E-07         0.12028E-12         0.00000E+00
    0.27895E-07         0.62398E-13         0.00000E+00
    0.34875E-07         0.90487E-13         0.00000E+00
    0.34875E-07         0.16865E-12         0.00000E+00
    0.34875E-07         0.30244E-12         0.00000E+00
    0.34875E-07         0.39515E-12         0.00000E+00
    0.34874E-07         0.45430E-12         0.00000E+00
    0.34874E-07         0.48635E-12         0.00000E+00
    0.34874E-07         0.49673E-12         0.00000E+00
    0.34874E-07         0.48974E-12         0.00000E+00
    0.34874E-07         0.46862E-12         0.00000E+00
    0.34874E-07         0.43557E-12         0.00000E+00
    0.34874E-07         0.39179E-12         0.00000E+00
    0.34874E-07         0.33757E-12         0.00000E+00
    0.34874E-07         0.27238E-12         0.00000E+00
    0.34874E-07         0.19494E-12         0.00000E+00
    0.34873E-07         0.10334E-12         0.00000E+00
    0.34873E-07         0.53730E-13         0.00000E+00
    0.41856E-07         0.78861E-13         0.00000E+00
    0.41856E-07         0.14592E-12         0.00000E+00
    0.41856E-07         0.25876E-12         0.00000E+00
    0.41856E-07         0.33333E-12         0.00000E+00
    0.41855E-07         0.37769E-12         0.00000E+00
    0.41855E-07         0.39870E-12         0.00000E+00
    0.41855E-07         0.40197E-12         0.00000E+00
    0.41855E-07         0.39190E-12         0.00000E+00
    0.41855E-07         0.37166E-12         0.00000E+00
    0.41855E-07         0.34332E-12         0.00000E+00
    0.41855E-07         0.30784E-12         0.00000E+00
    0.41855E-07         0.26524E-12         0.00000E+00
    0.41855E-07         0.21465E-12         0.00000E+00
    0.41854E-07         0.15444E-12         0.00000E+00
    0.41854E-07         0.82338E-13         0.00000E+00
    0.41854E-07         0.42993E-13         0.00000E+00
    0.48841E-07         0.64513E-13         0.00000E+00
    0.48841E-07         0.11793E-12         0.00000E+00
    0.48840E-07         0.20507E-12         0.00000E+00
    0.48840E-07         0.25756E-12         0.00000E+00
    0.48840E-07         0.28407E-12         0.00000E+00
    0.48840E-07         0.29185E-12         0.00000E+00
    0.48840E-07         0.28674E-12         0.00000E+00
    0.48839E-07         0.27316E-12         0.00000E+00
    0.48839E-07         0.25422E-12         0.00000E+00
    0.48839E-07         0.23177E-12         0.00000E+00
    0.48839E-07         0.20649E-12         0.00000E+00
    0.48839E-07         0.17804E-12         0.00000E+00
    0.48839E-07         0.14516E-12         0.00000E+00
    0.48839E-07         0.10576E-12         0.00000E+00
    0.48839E-07         0.57118E-13         0.00000E+00
    0.48839E-07         0.30109E-13         0.00000E+00
    0.55829E-07         0.47144E-13         0.00000E+00
    0.55829E-07         0.84101E-13         0.00000E+00
    0.55829E-07         0.14040E-12         0.00000E+00
    0.55829E-07         0.16659E-12         0.00000E+00
    0.55828E-07         0.17200E-12         0.00000E+00
    0.55828E-07         0.16432E-12         0.00000E+00
    0.55828E-07         0.14956E-12         0.00000E+00
    0.55828E-07         0.13215E-12         0.00000E+00
    0.55828E-07         0.11505E-12         0.00000E+00
    0.55828E-07         0.99829E-13         0.00000E+00
    0.55827E-07         0.86827E-13         0.00000E+00
    0.55827E-07         0.75258E-13         0.00000E+00
    0.55827E-07         0.63361E-13         0.00000E+00
    0.55827E-07         0.48539E-13         0.00000E+00
    0.55827E-07         0.27510E-13         0.00000E+00
    0.55827E-07         0.14995E-13         0.00000E+00
    0.62822E-07         0.26420E-13         0.00000E+00
    0.62822E-07         0.43831E-13         0.00000E+00
    0.62822E-07         0.63654E-13         0.00000E+00
    0.62821E-07         0.59008E-13         0.00000E+00
    0.62821E-07         0.39942E-13         0.00000E+00
    0.62821E-07         0.14517E-13         0.00000E+00
    0.62821E-07        -0.11111E-13         0.00000E+00
    0.62821E-07        -0.32574E-13         0.00000E+00
    0.62820E-07        -0.47150E-13         0.00000E+00
    0.62820E-07        -0.53613E-13         0.00000E+00
    0.62820E-07        -0.52080E-13         0.00000E+00
    0.62820E-07        -0.43856E-13         0.00000E+00
    0.62820E-07        -0.31281E-13         0.00000E+00
    0.62820E-07        -0.17571E-13         0.00000E+00
    0.62820E-07        -0.66590E-14         0.00000E+00
    0.62820E-07        -0.24326E-14         0.00000E+00
    0.69820E-07         0.19775E-14         0.00000E+00
    0.69820E-07        -0.35534E-14         0.00000E+00
    0.69819E-07        -0.26346E-13         0.00000E+00
    0.69819E-07        -0.66638E-13         0.00000E+00
    0.69819E-07        -0.11371E-12         0.00000E+00
    0.69819E-07        -0.15916E-12         0.00000E+00
    0.69818E-07        -0.19680E-12         0.00000E+00
    0.69818E-07        -0.22240E-12         0.00000E+00
    0.69818E-07        -0.23360E-12         0.00000E+00
    0.69818E-07        -0.22961E-12         0.00000E+00
    0.69818E-07        -0.21110E-12         0.00000E+00
    0.69818E-07        -0.17998E-12         0.00000E+00
    0.69818E-07        -0.13927E-12         0.00000E+00
    0.69818E-07        -0.92903E-13         0.00000E+00
    0.69818E-07        -0.45549E-13         0.00000E+00
    0.69818E-07        -0.22253E-13         0.00000E+00
    0.76823E-07        -0.26570E-13         0.00000E+00
    0.76823E-07        -0.58753E-13         0.00000E+00
    0.76823E-07        -0.13080E-12         0.00000E+00
    0.76822E-07        -0.21182E-12         0.00000E+00
    0.76822E-07        -0.29051E-12         0.00000E+00
    0.76822E-07        -0.35825E-12         0.00000E+00
    0.76822E-07        -0.40890E-12         0.00000E+00
    0.76822E-07        -0.43858E-12         0.00000E+00
    0.76821E-07        -0.44536E-12         0.00000E+00
    0.76821E-07        -0.42904E-12         0.00000E+00
    0.76821E-07        -0.39094E-12         0.00000E+00
    0.76821E-07        -0.33368E-12         0.00000E+00
    0.76821E-07        -0.26103E-12         0.00000E+00
    0.76821E-07        -0.17772E-12         0.00000E+00
    0.76821E-07        -0.89294E-13         0.00000E+00
    0.76821E-07        -0.44533E-13         0.00000E+00
    0.83832E-07        -0.59614E-13         0.00000E+00
    0.83832E-07        -0.12247E-12         0.00000E+00
    0.83832E-07        -0.25088E-12         0.00000E+00
    0.83831E-07        -0.37795E-12         0.00000E+00
    0.83831E-07        -0.49189E-12         0.00000E+00
    0.83831E-07        -0.58404E-12         0.00000E+00
    0.83831E-07        -0.64856E-12         0.00000E+00
    0.83831E-07        -0.68202E-12         0.00000E+00
    0.83831E-07        -0.68314E-12         0.00000E+00
    0.83831E-07        -0.65245E-12         0.00000E+00
    0.83831E-07        -0.59202E-12         0.00000E+00
    0.83831E-07        -0.50526E-12         0.00000E+00
    0.83830E-07        -0.39678E-12         0.00000E+00
    0.83830E-07        -0.27220E-12         0.00000E+00
    0.83830E-07        -0.13798E-12         0.00000E+00
    0.83830E-07        -0.69314E-13         0.00000E+00
    0.90848E-07        -0.97537E-13         0.00000E+00
    0.90848E-07        -0.19538E-12         0.00000E+00
    0.90847E-07        -0.38767E-12         0.00000E+00
    0.90847E-07        -0.56620E-12         0.00000E+00
    0.90847E-07        -0.71895E-12         0.00000E+00
    0.90846E-07        -0.83745E-12         0.00000E+00
    0.90846E-07        -0.91640E-12         0.00000E+00
    0.90846E-07        -0.95311E-12         0.00000E+00
    0.90846E-07        -0.94715E-12         0.00000E+00
    0.90846E-07        -0.89989E-12         0.00000E+00
    0.90846E-07        -0.81431E-12         0.00000E+00
    0.90846E-07        -0.69469E-12         0.00000E+00
    0.90846E-07        -0.54652E-12         0.00000E+00
    0.90846E-07        -0.37633E-12         0.00000E+00
    0.90846E-07        -0.19161E-12         0.00000E+00
    0.90846E-07        -0.96606E-13         0.00000E+00
    0.97870E-07        -0.14069E-12         0.00000E+00
    0.97870E-07        -0.27806E-12         0.00000E+00
    0.97869E-07        -0.54205E-12         0.00000E+00
    0.97869E-07        -0.77745E-12         0.00000E+00
    0.97869E-07        -0.97231E-12         0.00000E+00
    0.97869E-07        -0.11187E-11         0.00000E+00
    0.97869E-07        -0.12123E-11         0.00000E+00
    0.97869E-07        -0.12515E-11         0.00000E+00
    0.97869E-07        -0.12368E-11         0.00000E+00
    0.97869E-07        -0.11707E-11         0.00000E+00
    0.97869E-07        -0.10572E-11         0.00000E+00
    0.97869E-07        -0.90143E-12         0.00000E+00
    0.97869E-07        -0.70985E-12         0.00000E+00
    0.97869E-07        -0.48989E-12         0.00000E+00
    0.97869E-07        -0.25010E-12         0.00000E+00
    0.97869E-07        -0.12637E-12         0.00000E+00
    0.10490E-06        -0.18936E-12         0.00000E+00
    0.10490E-06        -0.37098E-12         0.00000E+00
    0.10490E-06        -0.71462E-12         0.00000E+00
    0.10490E-06        -0.10120E-11         0.00000E+00
    0.10490E-06        -0.12519E-11         0.00000E+00
    0.10490E-06        -0.14273E-11         0.00000E+00
    0.10490E-06        -0.15352E-11         0.00000E+00
    0.10490E-06        -0.15755E-11         0.00000E+00
    0.10490E-06        -0.15503E-11         0.00000E+00
    0.10490E-06        -0.14631E-11         0.00000E+00
    0.10490E-06        -0.13190E-11         0.00000E+00
    0.10490E-06        -0.11242E-11         0.00000E+00
    0.10490E-06        -0.88587E-12         0.00000E+00
    0.10490E-06        -0.61236E-12         0.00000E+00
    0.10490E-06        -0.31321E-12         0.00000E+00
    0.10490E-06        -0.15850E-12         0.00000E+00
    0.11194E-06        -0.24374E-12         0.00000E+00
    0.11194E-06        -0.47439E-12         0.00000E+00
    0.11194E-06        -0.90547E-12         0.00000E+00
    0.11194E-06        -0.12696E-11         0.00000E+00
    0.11194E-06        -0.15565E-11         0.00000E+00
    0.11194E-06        -0.17612E-11         0.00000E+00
    0.11194E-06        -0.18825E-11         0.00000E+00
    0.11194E-06        -0.19223E-11         0.00000E+00
    0.11194E-06        -0.18844E-11         0.00000E+00
    0.11194E-06        -0.17740E-11         0.00000E+00
    0.11194E-06        -0.15971E-11         0.00000E+00
    0.11194E-06        -0.13608E-11         0.00000E+00
    0.11194E-06        -0.10730E-11         0.00000E+00
    0.11194E-06        -0.74278E-12         0.00000E+00
    0.11194E-06        -0.38054E-12         0.00000E+00
    0.11194E-06        -0.19282E-12         0.00000E+00
    0.11898E-06        -0.30389E-12         0.00000E+00
    0.11898E-06        -0.58824E-12         0.00000E+00
    0.11898E-06        -0.11141E-11         0.00000E+00
    0.11898E-06        -0.15486E-11         0.00000E+00
    0.11898E-06        -0.18837E-11         0.00000E+00
    0.11898E-06        -0.21168E-11         0.00000E+00
    0.11898E-06        -0.22497E-11         0.00000E+00
    0.11898E-06        -0.22868E-11         0.00000E+00
    0.11898E-06        -0.22341E-11         0.00000E+00
    0.11898E-06        -0.20985E-11         0.00000E+00
    0.11898E-06        -0.18872E-11         0.00000E+00
    0.11898E-06        -0.16079E-11         0.00000E+00
    0.11898E-06        -0.12689E-11         0.00000E+00
    0.11898E-06        -0.87972E-12         0.00000E+00
    0.11898E-06        -0.45145E-12         0.00000E+00
    0.11898E-06        -0.22904E-12         0.00000E+00
    0.12604E-06        -0.36969E-12         0.00000E+00
    0.12604E-06        -0.71211E-12         0.00000E+00
    0.12604E-06        -0.13392E-11         0.00000E+00
    0.12604E-06        -0.18465E-11         0.00000E+00
    0.12604E-06        -0.22290E-11         0.00000E+00
    0.12604E-06        -0.24882E-11         0.00000E+00
    0.12604E-06        -0.26297E-11         0.00000E+00
    0.12604E-06        -0.26611E-11         0.00000E+00
    0.12604E-06        -0.25914E-11         0.00000E+00
    0.12604E-06        -0.24293E-11         0.00000E+00
    0.12604E-06        -0.21829E-11         0.00000E+00
    0.12604E-06        -0.18604E-11         0.00000E+00
    0.12604E-06        -0.14700E-11         0.00000E+00
    0.12604E-06        -0.10211E-11         0.00000E+00
    0.12604E-06        -0.52503E-12         0.00000E+00
    0.12604E-06        -0.26676E-12         0.00000E+00
    0.13310E-06        -0.44081E-12         0.00000E+00
    0.13310E-06        -0.84507E-12         0.00000E+00
    0.13310E-06        -0.15782E-11         0.00000E+00
    0.13310E-06        -0.21585E-11         0.00000E+00
    0.13310E-06        -0.25858E-11         0.00000E+00
    0.13310E-06        -0.28668E-11         0.00000E+00
    0.13310E-06        -0.30122E-11         0.00000E+00
    0.13310E-06        -0.30345E-11         0.00000E+00
    0.13310E-06        -0.29456E-11         0.00000E+00
    0.13310E-06        -0.27563E-11         0.00000E+00
    0.13310E-06        -0.24756E-11         0.00000E+00
    0.13310E-06        -0.21116E-11         0.00000E+00
    0.13310E-06        -0.16716E-11         0.00000E+00
    0.13310E-06        -0.11641E-11         0.00000E+00
    0.13310E-06        -0.60006E-12         0.00000E+00
    0.13310E-06        -0.30543E-12         0.00000E+00
    0.14017E-06        -0.51661E-12         0.00000E+00
    0.14017E-06        -0.98560E-12         0.00000E+00
    0.14017E-06        -0.18274E-11         0.00000E+00
    0.14017E-06        -0.24780E-11         0.00000E+00
    0.14017E-06        -0.29441E-11         0.00000E+00
    0.14017E-06        -0.32399E-11         0.00000E+00
    0.14017E-06        -0.33831E-11         0.00000E+00
    0.14017E-06        -0.33916E-11         0.00000E+00
    0.14017E-06        -0.32816E-11         0.00000E+00
    0.14017E-06        -0.30658E-11         0.00000E+00
    0.14017E-06        -0.27537E-11         0.00000E+00
    0.14017E-06        -0.23523E-11         0.00000E+00
    0.14017E-06        -0.18673E-11         0.00000E+00
    0.14017E-06        -0.13050E-11         0.00000E+00
    0.14017E-06        -0.67496E-12         0.00000E+00
    0.14017E-06        -0.34438E-12         0.00000E+00
    0.14725E-06        -0.59612E-12         0.00000E+00
    0.14725E-06        -0.11313E-11         0.00000E+00
    0.14725E-06        -0.20812E-11         0.00000E+00
    0.14725E-06        -0.27952E-11         0.00000E+00
    0.14725E-06        -0.32902E-11         0.00000E+00
    0.14725E-06        -0.35905E-11         0.00000E+00
    0.14725E-06        -0.37230E-11         0.00000E+00
    0.14725E-06        -0.37126E-11         0.00000E+00
    0.14725E-06        -0.35801E-11         0.00000E+00
    0.14725E-06        -0.33402E-11         0.00000E+00
    0.14726E-06        -0.30022E-11         0.00000E+00
    0.14726E-06        -0.25710E-11         0.00000E+00
    0.14726E-06        -0.20490E-11         0.00000E+00
    0.14726E-06        -0.14392E-11         0.00000E+00
    0.14726E-06        -0.74773E-12         0.00000E+00
    0.14726E-06        -0.38273E-12         0.00000E+00
    0.15434E-06        -0.67794E-12         0.00000E+00
    0.15434E-06        -0.12790E-11         0.00000E+00
    0.15434E-06        -0.23314E-11         0.00000E+00
    0.15434E-06        -0.30966E-11         0.00000E+00
    0.15434E-06        -0.36053E-11         0.00000E+00
    0.15434E-06        -0.38957E-11         0.00000E+00
    0.15434E-06        -0.40067E-11         0.00000E+00
    0.15434E-06        -0.39718E-11         0.00000E+00
    0.15435E-06        -0.38164E-11         0.00000E+00
    0.15435E-06        -0.35570E-11         0.00000E+00
    0.15435E-06        -0.32020E-11         0.00000E+00
    0.15435E-06        -0.27527E-11         0.00000E+00
    0.15435E-06        -0.22065E-11         0.00000E+00
    0.15435E-06        -0.15606E-11         0.00000E+00
    0.15435E-06        -0.81591E-12         0.00000E+00
    0.15435E-06        -0.41946E-12         0.00000E+00
    0.16144E-06        -0.76011E-12         0.00000E+00
    0.16144E-06        -0.14238E-11         0.00000E+00
    0.16144E-06        -0.25669E-11         0.00000E+00
    0.16144E-06        -0.33633E-11         0.00000E+00
    0.16144E-06        -0.38638E-11         0.00000E+00
    0.16144E-06        -0.41257E-11         0.00000E+00
    0.16145E-06        -0.42026E-11         0.00000E+00
    0.16145E-06        -0.41375E-11         0.00000E+00
    0.16145E-06        -0.39606E-11         0.00000E+00
    0.16145E-06        -0.36895E-11         0.00000E+00
    0.16145E-06        -0.33301E-11         0.00000E+00
    0.16145E-06        -0.28793E-11         0.00000E+00
    0.16145E-06        -0.23271E-11         0.00000E+00
    0.16145E-06        -0.16619E-11         0.00000E+00
    0.16145E-06        -0.87650E-12         0.00000E+00
    0.16145E-06        -0.45333E-12         0.00000E+00
    0.16855E-06        -0.83984E-12         0.00000E+00
    0.16855E-06        -0.15590E-11         0.00000E+00
    0.16855E-06        -0.27715E-11         0.00000E+00
    0.16855E-06        -0.35689E-11         0.00000E+00
    0.16855E-06        -0.40315E-11         0.00000E+00
    0.16856E-06        -0.42421E-11         0.00000E+00
    0.16856E-06        -0.42716E-11         0.00000E+00
    0.16856E-06        -0.41724E-11         0.00000E+00
    0.16856E-06        -0.39782E-11         0.00000E+00
    0.16856E-06        -0.37063E-11         0.00000E+00
    0.16856E-06        -0.33595E-11         0.00000E+00
    0.16856E-06        -0.29288E-11         0.00000E+00
    0.16856E-06        -0.23949E-11         0.00000E+00
    0.16856E-06        -0.17340E-11         0.00000E+00
    0.16856E-06        -0.92578E-12         0.00000E+00
    0.16856E-06        -0.48283E-12         0.00000E+00
    0.17567E-06        -0.91293E-12         0.00000E+00
    0.17567E-06        -0.16743E-11         0.00000E+00
    0.17567E-06        -0.29210E-11         0.00000E+00
    0.17568E-06        -0.36756E-11         0.00000E+00
    0.17568E-06        -0.40623E-11         0.00000E+00
    0.17568E-06        -0.41973E-11         0.00000E+00
    0.17568E-06        -0.41691E-11         0.00000E+00
    0.17568E-06        -0.40363E-11         0.00000E+00
    0.17568E-06        -0.38327E-11         0.00000E+00
    0.17568E-06        -0.35738E-11         0.00000E+00
    0.17568E-06        -0.32595E-11         0.00000E+00
    0.17568E-06        -0.28748E-11         0.00000E+00
    0.17569E-06        -0.23901E-11         0.00000E+00
    0.17569E-06        -0.17648E-11         0.00000E+00
    0.17569E-06        -0.95881E-12         0.00000E+00
    0.17569E-06        -0.50603E-12         0.00000E+00
    0.18280E-06        -0.97237E-12         0.00000E+00
    0.18280E-06        -0.17527E-11         0.00000E+00
    0.18281E-06        -0.29768E-11         0.00000E+00
    0.18281E-06        -0.36274E-11         0.00000E+00
    0.18281E-06        -0.38954E-11         0.00000E+00
    0.18281E-06        -0.39357E-11         0.00000E+00
    0.18281E-06        -0.38484E-11         0.00000E+00
    0.18281E-06        -0.36901E-11         0.00000E+00
    0.18282E-06        -0.34899E-11         0.00000E+00
    0.18282E-06        -0.32597E-11         0.00000E+00
    0.18282E-06        -0.29976E-11         0.00000E+00
    0.18282E-06        -0.26858E-11         0.00000E+00
    0.18282E-06        -0.22860E-11         0.00000E+00
    0.18282E-06        -0.17372E-11         0.00000E+00
    0.18282E-06        -0.96832E-12         0.00000E+00
    0.18282E-06        -0.51996E-12         0.00000E+00
    0.18994E-06        -0.10042E-11         0.00000E+00
    0.18994E-06        -0.17620E-11         0.00000E+00
    0.18995E-06        -0.28725E-11         0.00000E+00
    0.18995E-06        -0.33398E-11         0.00000E+00
    0.18995E-06        -0.34535E-11         0.00000E+00
    0.18995E-06        -0.33999E-11         0.00000E+00
    0.18996E-06        -0.32700E-11         0.00000E+00
    0.18996E-06        -0.31054E-11         0.00000E+00
    0.18996E-06        -0.29259E-11         0.00000E+00
    0.18996E-06        -0.27391E-11         0.00000E+00
    0.18996E-06        -0.25432E-11         0.00000E+00
    0.18996E-06        -0.23248E-11         0.00000E+00
    0.18996E-06        -0.20453E-11         0.00000E+00
    0.18996E-06        -0.16235E-11         0.00000E+00
    0.18997E-06        -0.94205E-12         0.00000E+00
    0.18997E-06        -0.52017E-12         0.00000E+00
    0.19710E-06        -0.97615E-12         0.00000E+00
    0.19710E-06        -0.16332E-11         0.00000E+00
    0.19710E-06        -0.24841E-11         0.00000E+00
    0.19711E-06        -0.26892E-11         0.00000E+00
    0.19711E-06        -0.26577E-11         0.00000E+00
    0.19711E-06        -0.25505E-11         0.00000E+00
    0.19711E-06        -0.24157E-11         0.00000E+00
    0.19711E-06        -0.22744E-11         0.00000E+00
    0.19711E-06        -0.21362E-11         0.00000E+00
    0.19711E-06        -0.20045E-11         0.00000E+00
    0.19712E-06        -0.18790E-11         0.00000E+00
    0.19712E-06        -0.17536E-11         0.00000E+00
    0.19712E-06        -0.16125E-11         0.00000E+00
    0.19712E-06        -0.13751E-11         0.00000E+00
    0.19712E-06        -0.85300E-12         0.00000E+00
    0.19712E-06        -0.49106E-12         0.00000E+00
    0.20426E-06        -0.78248E-12         0.00000E+00
    0.20426E-06        -0.11825E-11         0.00000E+00
    0.20427E-06        -0.15828E-11         0.00000E+00
    0.20427E-06        -0.15538E-11         0.00000E+00
    0.20427E-06        -0.14816E-11         0.00000E+00
    0.20427E-06        -0.13932E-11         0.00000E+00
    0.20428E-06        -0.13044E-11         0.00000E+00
    0.20428E-06        -0.12203E-11         0.00000E+00
    0.20428E-06        -0.11435E-11         0.00000E+00
    0.20428E-06        -0.10748E-11         0.00000E+00
    0.20428E-06        -0.10149E-11         0.00000E+00
    0.20428E-06        -0.96355E-12         0.00000E+00
    0.20428E-06        -0.91729E-12         0.00000E+00
    0.20428E-06        -0.88140E-12         0.00000E+00
    0.20429E-06        -0.65070E-12         0.00000E+00
    0.20429E-06        -0.43311E-12         0.00000E+00
    0.20784E-06         0.00000E+00         0.00000E+00
    0.20785E-06         0.00000E+00         0.00000E+00
    0.20785E-06         0.00000E+00         0.00000E+00
    0.20786E-06        -0.13286E-20         0.00000E+00
    0.20786E-06         0.00000E+00         0.00000E+00
    0.20786E-06         0.00000E+00         0.00000E+00
    0.20786E-06         0.00000E+00         0.00000E+00
    0.20786E-06         0.00000E+00         0.00000E+00
    0.20786E-06        -0.13287E-20         0.00000E+00
    0.20787E-06         0.00000E+00         0.00000E+00
    0.20787E-06         0.00000E+00         0.00000E+00
    0.20787E-06        -0.13287E-20         0.00000E+00
    0.20787E-06        -0.26575E-20         0.00000E+00
    0.20787E-06        -0.13287E-20         0.00000E+00
    0.20787E-06         0.13288E-20         0.00000E+00
    0.20787E-06         0.00000E+00         0.00000E+00
CELL_DATA        450
TENSORS stressef double 
   -0.27793E+07        -0.10761E+03         0.00000E+00
   -0.10761E+03        -0.18675E+08         0.00000E+00
    0.00000E+00         0.00000E+00        -0.42909E+07
 
   -0.29439E+07        -0.24136E+03         0.00000E+00
   -0.24136E+03        -0.18675E+08         0.00000E+00
    0.00000E+00         0.00000E+00        -0.43239E+07
 
   -0.30989E+07        -0.20752E+03         0.00000E+00
   -0.20752E+03        -0.18676E+08         0.00000E+00
    0.00000E+00         0.00000E+00        -0.43550E+07
 
   -0.32451E+07         0.53584E+02         0.00000E+00
    0.53584E+02        -0.18676E+08         0.00000E+00
    0.00000E+00         0.00000E+00        -0.43843E+07
 
   -0.33834E+07         0.58944E+03         0.00000E+00
    0.58944E+03        -0.18676E+08         0.00000E+00
    0.00000E+00         0.00000E+00        -0.44118E+07
 
   -0.35145E+07         0.14360E+04         0.00000E+00
    0.14360E+04        -0.18674E+08         0.00000E+00
    0.00000E+00         0.00000E+00        -0.44376E+07
 
   -0.36396E+07         0.26183E+04         0.00000E+00
    0.26183E+04        -0.18670E+08         0.00000E+00
    0.00000E+00         0.00000E+00        -0.44618E+07
 
   -0.37598E+07         0.41517E+04         0.00000E+00
    0.41517E+04        -0.18663E+08         0.00000E+00
    0.00000E+00         0.00000E+00        -0.44845E+07
 
   -0.38761E+07         0.60429E+04         0.00000E+00
    0.60429E+04        -0.18653E+08         0.00000E+00
    0.00000E+00         0.00000E+00        -0.45058E+07
 
   -0.39898E+07         0.82911E+04         0.00000E+00
    0.82911E+04        -0.18638E+08         0.00000E+00
    0.00000E+00         0.00000E+00        -0.45256E+07
 
   -0.41018E+07         0.10889E+05         0.00000E+00
    0.10889E+05        -0.18619E+08         0.00000E+00
    0.00000E+00         0.00000E+00        -0.45442E+07
 
   -0.42134E+07         0.13826E+05         0.00000E+00
    0.13826E+05        -0.18595E+08         0.00000E+00
    0.00000E+00         0.00000E+00        -0.45616E+07
 
   -0.43255E+07         0.17086E+05         0.00000E+00
    0.17086E+05        -0.18564E+08         0.00000E+00
    0.00000E+00         0.00000E+00        -0.45779E+07
 
   -0.44392E+07         0.20653E+05         0.00000E+00
    0.20653E+05        -0.18526E+08         0.00000E+00
    0.00000E+00         0.00000E+00        -0.45931E+07
 
   -0.45553E+07         0.24510E+05         0.00000E+00
    0.24510E+05        -0.18481E+08         0.00000E+00
    0.00000E+00         0.00000E+00        -0.46073E+07
 
   -0.27919E+07        -0.34309E+03         0.00000E+00
   -0.34309E+03        -0.18687E+08         0.00000E+00
    0.00000E+00         0.00000E+00        -0.42959E+07
 
   -0.29562E+07        -0.78017E+03         0.00000E+00
   -0.78017E+03        -0.18688E+08         0.00000E+00
    0.00000E+00         0.00000E+00        -0.43288E+07
 
   -0.31109E+07        -0.70817E+03         0.00000E+00
   -0.70817E+03        -0.18688E+08         0.00000E+00
    0.00000E+00         0.00000E+00        -0.43598E+07
 
   -0.32566E+07         0.51754E+02         0.00000E+00
    0.51754E+02        -0.18689E+08         0.00000E+00
    0.00000E+00         0.00000E+00        -0.43891E+07
 
   -0.33942E+07         0.16417E+04         0.00000E+00
    0.16417E+04        -0.18688E+08         0.00000E+00
    0.00000E+00         0.00000E+00        -0.44165E+07
 
   -0.35247E+07         0.41690E+04         0.00000E+00
    0.41690E+04        -0.18687E+08         0.00000E+00
    0.00000E+00         0.00000E+00        -0.44423E+07
 
   -0.36491E+07         0.77083E+04         0.00000E+00
    0.77083E+04        -0.18683E+08         0.00000E+00
    0.00000E+00         0.00000E+00        -0.44664E+07
 
   -0.37686E+07         0.12305E+05         0.00000E+00
    0.12305E+05        -0.18677E+08         0.00000E+00
    0.00000E+00         0.00000E+00        -0.44890E+07
 
   -0.38842E+07         0.17978E+05         0.00000E+00
    0.17978E+05        -0.18667E+08         0.00000E+00
    0.00000E+00         0.00000E+00        -0.45102E+07
 
   -0.39971E+07         0.24726E+05         0.00000E+00
    0.24726E+05        -0.18653E+08         0.00000E+00
    0.00000E+00         0.00000E+00        -0.45300E+07
 
   -0.41085E+07         0.32525E+05         0.00000E+00
    0.32525E+05        -0.18634E+08         0.00000E+00
    0.00000E+00         0.00000E+00        -0.45485E+07
 
   -0.42194E+07         0.41342E+05         0.00000E+00
    0.41342E+05        -0.18610E+08         0.00000E+00
    0.00000E+00         0.00000E+00        -0.45658E+07
 
   -0.43309E+07         0.51129E+05         0.00000E+00
    0.51129E+05        -0.18579E+08         0.00000E+00
    0.00000E+00         0.00000E+00        -0.45820E+07
 
   -0.44440E+07         0.61835E+05         0.00000E+00
    0.61835E+05        -0.18542E+08         0.00000E+00
    0.00000E+00         0.00000E+00        -0.45971E+07
 
   -0.45595E+07         0.73410E+05         0.00000E+00
    0.73410E+05        -0.18497E+08         0.00000E+00
    0.00000E+00         0.00000E+00        -0.46112E+07
 
   -0.28173E+07        -0.63945E+03         0.00000E+00
   -0.63945E+03        -0.18712E+08         0.00000E+00
    0.00000E+00         0.00000E+00        -0.43058E+07
 
   -0.29810E+07        -0.14874E+04         0.00000E+00
   -0.14874E+04        -0.18712E+08         0.00000E+00
    0.00000E+00         0.00000E+00        -0.43387E+07
 
   -0.31348E+07        -0.14657E+04         0.00000E+00
   -0.14657E+04        -0.18713E+08         0.00000E+00
    0.00000E+00         0.00000E+00        -0.43696E+07
 
   -0.32795E+07        -0.27698E+03         0.00000E+00
   -0.27698E+03        -0.18714E+08         0.00000E+00
    0.00000E+00         0.00000E+00        -0.43987E+07
 
   -0.34159E+07         0.23145E+04         0.00000E+00
    0.23145E+04        -0.18714E+08         0.00000E+00
    0.00000E+00         0.00000E+00        -0.44260E+07
 
   -0.35451E+07         0.64857E+04         0.00000E+00
    0.64857E+04        -0.18713E+08         0.00000E+00
    0.00000E+00         0.00000E+00        -0.44516E+07
 
   -0.36681E+07         0.12359E+05         0.00000E+00
    0.12359E+05        -0.18710E+08         0.00000E+00
    0.00000E+00         0.00000E+00        -0.44756E+07
 
   -0.37862E+07         0.20009E+05         0.00000E+00
    0.20009E+05        -0.18704E+08         0.00000E+00
    0.00000E+00         0.00000E+00        -0.44980E+07
 
   -0.39003E+07         0.29464E+05         0.00000E+00
    0.29464E+05        -0.18695E+08         0.00000E+00
    0.00000E+00         0.00000E+00        -0.45190E+07
 
   -0.40118E+07         0.40719E+05         0.00000E+00
    0.40719E+05        -0.18681E+08         0.00000E+00
    0.00000E+00         0.00000E+00        -0.45387E+07
 
   -0.41218E+07         0.53733E+05         0.00000E+00
    0.53733E+05        -0.18663E+08         0.00000E+00
    0.00000E+00         0.00000E+00        -0.45570E+07
 
   -0.42314E+07         0.68447E+05         0.00000E+00
    0.68447E+05        -0.18639E+08         0.00000E+00
    0.00000E+00         0.00000E+00        -0.45741E+07
 
   -0.43416E+07         0.84779E+05         0.00000E+00
    0.84779E+05        -0.18609E+08         0.00000E+00
    0.00000E+00         0.00000E+00        -0.45902E+07
 
   -0.44535E+07         0.10264E+06         0.00000E+00
    0.10264E+06        -0.18572E+08         0.00000E+00
    0.00000E+00         0.00000E+00        -0.46052E+07
 
   -0.45680E+07         0.12195E+06         0.00000E+00
    0.12195E+06        -0.18528E+08         0.00000E+00
    0.00000E+00         0.00000E+00        -0.46192E+07
 
   -0.28554E+07        -0.10375E+04         0.00000E+00
   -0.10375E+04        -0.18748E+08         0.00000E+00
    0.00000E+00         0.00000E+00        -0.43208E+07
 
   -0.30183E+07        -0.24757E+04         0.00000E+00
   -0.24757E+04        -0.18749E+08         0.00000E+00
    0.00000E+00         0.00000E+00        -0.43535E+07
 
   -0.31708E+07        -0.26516E+04         0.00000E+00
   -0.26516E+04        -0.18751E+08         0.00000E+00
    0.00000E+00         0.00000E+00        -0.43843E+07
 
   -0.33140E+07        -0.11502E+04         0.00000E+00
   -0.11502E+04        -0.18752E+08         0.00000E+00
    0.00000E+00         0.00000E+00        -0.44132E+07
 
   -0.34486E+07         0.23557E+04         0.00000E+00
    0.23557E+04        -0.18753E+08         0.00000E+00
    0.00000E+00         0.00000E+00        -0.44403E+07
 
   -0.35758E+07         0.81101E+04         0.00000E+00
    0.81101E+04        -0.18752E+08         0.00000E+00
    0.00000E+00         0.00000E+00        -0.44656E+07
 
   -0.36967E+07         0.16281E+05         0.00000E+00
    0.16281E+05        -0.18750E+08         0.00000E+00
    0.00000E+00         0.00000E+00        -0.44894E+07
 
   -0.38126E+07         0.26966E+05         0.00000E+00
    0.26966E+05        -0.18745E+08         0.00000E+00
    0.00000E+00         0.00000E+00        -0.45116E+07
 
   -0.39245E+07         0.40203E+05         0.00000E+00
    0.40203E+05        -0.18737E+08         0.00000E+00
    0.00000E+00         0.00000E+00        -0.45323E+07
 
   -0.40339E+07         0.55978E+05         0.00000E+00
    0.55978E+05        -0.18724E+08         0.00000E+00
    0.00000E+00         0.00000E+00        -0.45517E+07
 
   -0.41418E+07         0.74231E+05         0.00000E+00
    0.74231E+05        -0.18707E+08         0.00000E+00
    0.00000E+00         0.00000E+00        -0.45698E+07
 
   -0.42494E+07         0.94871E+05         0.00000E+00
    0.94871E+05        -0.18684E+08         0.00000E+00
    0.00000E+00         0.00000E+00        -0.45867E+07
 
   -0.43577E+07         0.11778E+06         0.00000E+00
    0.11778E+06        -0.18655E+08         0.00000E+00
    0.00000E+00         0.00000E+00        -0.46025E+07
 
   -0.44678E+07         0.14283E+06         0.00000E+00
    0.14283E+06        -0.18619E+08         0.00000E+00
    0.00000E+00         0.00000E+00        -0.46173E+07
 
   -0.45806E+07         0.16990E+06         0.00000E+00
    0.16990E+06        -0.18575E+08         0.00000E+00
    0.00000E+00         0.00000E+00        -0.46311E+07
 
   -0.29067E+07        -0.15783E+04         0.00000E+00
   -0.15783E+04        -0.18797E+08         0.00000E+00
    0.00000E+00         0.00000E+00        -0.43408E+07
 
   -0.30683E+07        -0.38580E+04         0.00000E+00
   -0.38580E+04        -0.18799E+08         0.00000E+00
    0.00000E+00         0.00000E+00        -0.43734E+07
 
   -0.32191E+07        -0.44369E+04         0.00000E+00
   -0.44369E+04        -0.18800E+08         0.00000E+00
    0.00000E+00         0.00000E+00        -0.44039E+07
 
   -0.33601E+07        -0.27845E+04         0.00000E+00
   -0.27845E+04        -0.18803E+08         0.00000E+00
    0.00000E+00         0.00000E+00        -0.44325E+07
 
   -0.34923E+07         0.15148E+04         0.00000E+00
    0.15148E+04        -0.18804E+08         0.00000E+00
    0.00000E+00         0.00000E+00        -0.44593E+07
 
   -0.36168E+07         0.87685E+04         0.00000E+00
    0.87685E+04        -0.18805E+08         0.00000E+00
    0.00000E+00         0.00000E+00        -0.44844E+07
 
   -0.37348E+07         0.19185E+05         0.00000E+00
    0.19185E+05        -0.18804E+08         0.00000E+00
    0.00000E+00         0.00000E+00        -0.45077E+07
 
   -0.38478E+07         0.32883E+05         0.00000E+00
    0.32883E+05        -0.18800E+08         0.00000E+00
    0.00000E+00         0.00000E+00        -0.45296E+07
 
   -0.39568E+07         0.49902E+05         0.00000E+00
    0.49902E+05        -0.18793E+08         0.00000E+00
    0.00000E+00         0.00000E+00        -0.45500E+07
 
   -0.40633E+07         0.70216E+05         0.00000E+00
    0.70216E+05        -0.18782E+08         0.00000E+00
    0.00000E+00         0.00000E+00        -0.45690E+07
 
   -0.41684E+07         0.93740E+05         0.00000E+00
    0.93740E+05        -0.18765E+08         0.00000E+00
    0.00000E+00         0.00000E+00        -0.45868E+07
 
   -0.42733E+07         0.12035E+06         0.00000E+00
    0.12035E+06        -0.18743E+08         0.00000E+00
    0.00000E+00         0.00000E+00        -0.46034E+07
 
   -0.43791E+07         0.14988E+06         0.00000E+00
    0.14988E+06        -0.18715E+08         0.00000E+00
    0.00000E+00         0.00000E+00        -0.46189E+07
 
   -0.44869E+07         0.18216E+06         0.00000E+00
    0.18216E+06        -0.18680E+08         0.00000E+00
    0.00000E+00         0.00000E+00        -0.46334E+07
 
   -0.45974E+07         0.21702E+06         0.00000E+00
    0.21702E+06        -0.18637E+08         0.00000E+00
    0.00000E+00         0.00000E+00        -0.46470E+07
 
   -0.29713E+07        -0.23033E+04         0.00000E+00
   -0.23033E+04        -0.18859E+08         0.00000E+00
    0.00000E+00         0.00000E+00        -0.43660E+07
 
   -0.31313E+07        -0.57474E+04         0.00000E+00
   -0.57474E+04        -0.18860E+08         0.00000E+00
    0.00000E+00         0.00000E+00        -0.43983E+07
 
   -0.32799E+07        -0.69924E+04         0.00000E+00
   -0.69924E+04        -0.18863E+08         0.00000E+00
    0.00000E+00         0.00000E+00        -0.44285E+07
 
   -0.34181E+07        -0.53949E+04         0.00000E+00
   -0.53949E+04        -0.18866E+08         0.00000E+00
    0.00000E+00         0.00000E+00        -0.44568E+07
 
   -0.35471E+07        -0.45541E+03         0.00000E+00
   -0.45541E+03        -0.18869E+08         0.00000E+00
    0.00000E+00         0.00000E+00        -0.44832E+07
 
   -0.36681E+07         0.81917E+04         0.00000E+00
    0.81917E+04        -0.18871E+08         0.00000E+00
    0.00000E+00         0.00000E+00        -0.45078E+07
 
   -0.37826E+07         0.20790E+05         0.00000E+00
    0.20790E+05        -0.18871E+08         0.00000E+00
    0.00000E+00         0.00000E+00        -0.45307E+07
 
   -0.38918E+07         0.37471E+05         0.00000E+00
    0.37471E+05        -0.18869E+08         0.00000E+00
    0.00000E+00         0.00000E+00        -0.45521E+07
 
   -0.39971E+07         0.58274E+05         0.00000E+00
    0.58274E+05        -0.18863E+08         0.00000E+00
    0.00000E+00         0.00000E+00        -0.45720E+07
 
   -0.41000E+07         0.83151E+05         0.00000E+00
    0.83151E+05        -0.18853E+08         0.00000E+00
    0.00000E+00         0.00000E+00        -0.45906E+07
 
   -0.42016E+07         0.11199E+06         0.00000E+00
    0.11199E+06        -0.18838E+08         0.00000E+00
    0.00000E+00         0.00000E+00        -0.46080E+07
 
   -0.43031E+07         0.14462E+06         0.00000E+00
    0.14462E+06        -0.18818E+08         0.00000E+00
    0.00000E+00         0.00000E+00        -0.46242E+07
 
   -0.44058E+07         0.18083E+06         0.00000E+00
    0.18083E+06        -0.18791E+08         0.00000E+00
    0.00000E+00         0.00000E+00        -0.46393E+07
 
   -0.45106E+07         0.22040E+06         0.00000E+00
    0.22040E+06        -0.18757E+08         0.00000E+00
    0.00000E+00         0.00000E+00        -0.46535E+07
 
   -0.46184E+07         0.26309E+06         0.00000E+00
    0.26309E+06        -0.18715E+08         0.00000E+00
    0.00000E+00         0.00000E+00        -0.46668E+07
 
   -0.30498E+07        -0.32542E+04         0.00000E+00
   -0.32542E+04        -0.18932E+08         0.00000E+00
    0.00000E+00         0.00000E+00        -0.43964E+07
 
   -0.32077E+07        -0.82571E+04         0.00000E+00
   -0.82571E+04        -0.18934E+08         0.00000E+00
    0.00000E+00         0.00000E+00        -0.44283E+07
 
   -0.33535E+07        -0.10487E+05         0.00000E+00
   -0.10487E+05        -0.18937E+08         0.00000E+00
    0.00000E+00         0.00000E+00        -0.44582E+07
 
   -0.34882E+07        -0.91933E+04         0.00000E+00
   -0.91933E+04        -0.18942E+08         0.00000E+00
    0.00000E+00         0.00000E+00        -0.44860E+07
 
   -0.36132E+07        -0.37975E+04         0.00000E+00
   -0.37975E+04        -0.18946E+08         0.00000E+00
    0.00000E+00         0.00000E+00        -0.45119E+07
 
   -0.37300E+07         0.61169E+04         0.00000E+00
    0.61169E+04        -0.18950E+08         0.00000E+00
    0.00000E+00         0.00000E+00        -0.45359E+07
 
   -0.38400E+07         0.20820E+05         0.00000E+00
    0.20820E+05        -0.18952E+08         0.00000E+00
    0.00000E+00         0.00000E+00        -0.45583E+07
 
   -0.39447E+07         0.40452E+05         0.00000E+00
    0.40452E+05        -0.18951E+08         0.00000E+00
    0.00000E+00         0.00000E+00        -0.45791E+07
 
   -0.40455E+07         0.65040E+05         0.00000E+00
    0.65040E+05        -0.18947E+08         0.00000E+00
    0.00000E+00         0.00000E+00        -0.45985E+07
 
   -0.41439E+07         0.94511E+05         0.00000E+00
    0.94511E+05        -0.18939E+08         0.00000E+00
    0.00000E+00         0.00000E+00        -0.46166E+07
 
   -0.42413E+07         0.12871E+06         0.00000E+00
    0.12871E+06        -0.18926E+08         0.00000E+00
    0.00000E+00         0.00000E+00        -0.46334E+07
 
   -0.43388E+07         0.16743E+06         0.00000E+00
    0.16743E+06        -0.18907E+08         0.00000E+00
    0.00000E+00         0.00000E+00        -0.46491E+07
 
   -0.44376E+07         0.21040E+06         0.00000E+00
    0.21040E+06        -0.18881E+08         0.00000E+00
    0.00000E+00         0.00000E+00        -0.46638E+07
 
   -0.45389E+07         0.25732E+06         0.00000E+00
    0.25732E+06        -0.18849E+08         0.00000E+00
    0.00000E+00         0.00000E+00        -0.46776E+07
 
   -0.46435E+07         0.30790E+06         0.00000E+00
    0.30790E+06        -0.18809E+08         0.00000E+00
    0.00000E+00         0.00000E+00        -0.46905E+07
 
   -0.31425E+07        -0.44727E+04         0.00000E+00
   -0.44727E+04        -0.19018E+08         0.00000E+00
    0.00000E+00         0.00000E+00        -0.44320E+07
 
   -0.32978E+07        -0.11499E+05         0.00000E+00
   -0.11499E+05        -0.19020E+08         0.00000E+00
    0.00000E+00         0.00000E+00        -0.44636E+07
 
   -0.34400E+07        -0.15088E+05         0.00000E+00
   -0.15088E+05        -0.19025E+08         0.00000E+00
    0.00000E+00         0.00000E+00        -0.44929E+07
 
   -0.35705E+07        -0.14386E+05         0.00000E+00
   -0.14386E+05        -0.19030E+08         0.00000E+00
    0.00000E+00         0.00000E+00        -0.45202E+07
 
   -0.36908E+07        -0.87460E+04         0.00000E+00
   -0.87460E+04        -0.19036E+08         0.00000E+00
    0.00000E+00         0.00000E+00        -0.45454E+07
 
   -0.38025E+07         0.22909E+04         0.00000E+00
    0.22909E+04        -0.19042E+08         0.00000E+00
    0.00000E+00         0.00000E+00        -0.45688E+07
 
   -0.39071E+07         0.19013E+05         0.00000E+00
    0.19013E+05        -0.19045E+08         0.00000E+00
    0.00000E+00         0.00000E+00        -0.45905E+07
 
   -0.40064E+07         0.41558E+05         0.00000E+00
    0.41558E+05        -0.19047E+08         0.00000E+00
    0.00000E+00         0.00000E+00        -0.46106E+07
 
   -0.41019E+07         0.69934E+05         0.00000E+00
    0.69934E+05        -0.19045E+08         0.00000E+00
    0.00000E+00         0.00000E+00        -0.46293E+07
 
   -0.41951E+07         0.10403E+06         0.00000E+00
    0.10403E+06        -0.19039E+08         0.00000E+00
    0.00000E+00         0.00000E+00        -0.46468E+07
 
   -0.42874E+07         0.14366E+06         0.00000E+00
    0.14366E+06        -0.19027E+08         0.00000E+00
    0.00000E+00         0.00000E+00        -0.46630E+07
 
   -0.43802E+07         0.18854E+06         0.00000E+00
    0.18854E+06        -0.19010E+08         0.00000E+00
    0.00000E+00         0.00000E+00        -0.46781E+07
 
   -0.44746E+07         0.23835E+06         0.00000E+00
    0.23835E+06        -0.18987E+08         0.00000E+00
    0.00000E+00         0.00000E+00        -0.46923E+07
 
   -0.45718E+07         0.29271E+06         0.00000E+00
    0.29271E+06        -0.18956E+08         0.00000E+00
    0.00000E+00         0.00000E+00        -0.47056E+07
 
   -0.46726E+07         0.35125E+06         0.00000E+00
    0.35125E+06        -0.18917E+08         0.00000E+00
    0.00000E+00         0.00000E+00        -0.47180E+07
 
   -0.32501E+07        -0.60002E+04         0.00000E+00
   -0.60002E+04        -0.19116E+08         0.00000E+00
    0.00000E+00         0.00000E+00        -0.44731E+07
 
   -0.34021E+07        -0.15583E+05         0.00000E+00
   -0.15583E+05        -0.19119E+08         0.00000E+00
    0.00000E+00         0.00000E+00        -0.45042E+07
 
   -0.35400E+07        -0.20955E+05         0.00000E+00
   -0.20955E+05        -0.19124E+08         0.00000E+00
    0.00000E+00         0.00000E+00        -0.45329E+07
 
   -0.36654E+07        -0.21171E+05         0.00000E+00
   -0.21171E+05        -0.19131E+08         0.00000E+00
    0.00000E+00         0.00000E+00        -0.45594E+07
 
   -0.37801E+07        -0.15524E+05         0.00000E+00
   -0.15524E+05        -0.19139E+08         0.00000E+00
    0.00000E+00         0.00000E+00        -0.45839E+07
 
   -0.38857E+07        -0.35250E+04         0.00000E+00
   -0.35250E+04        -0.19147E+08         0.00000E+00
    0.00000E+00         0.00000E+00        -0.46065E+07
 
   -0.39841E+07         0.15121E+05         0.00000E+00
    0.15121E+05        -0.19153E+08         0.00000E+00
    0.00000E+00         0.00000E+00        -0.46273E+07
 
   -0.40771E+07         0.40540E+05         0.00000E+00
    0.40540E+05        -0.19156E+08         0.00000E+00
    0.00000E+00         0.00000E+00        -0.46467E+07
 
   -0.41663E+07         0.72707E+05         0.00000E+00
    0.72707E+05        -0.19156E+08         0.00000E+00
    0.00000E+00         0.00000E+00        -0.46646E+07
 
   -0.42534E+07         0.11148E+06         0.00000E+00
    0.11148E+06        -0.19153E+08         0.00000E+00
    0.00000E+00         0.00000E+00        -0.46812E+07
 
   -0.43400E+07         0.15660E+06         0.00000E+00
    0.15660E+06        -0.19143E+08         0.00000E+00
    0.00000E+00         0.00000E+00        -0.46967E+07
 
   -0.44273E+07         0.20773E+06         0.00000E+00
    0.20773E+06        -0.19129E+08         0.00000E+00
    0.00000E+00         0.00000E+00        -0.47112E+07
 
   -0.45167E+07         0.26447E+06         0.00000E+00
    0.26447E+06        -0.19107E+08         0.00000E+00
    0.00000E+00         0.00000E+00        -0.47247E+07
 
   -0.46092E+07         0.32637E+06         0.00000E+00
    0.32637E+06        -0.19078E+08         0.00000E+00
    0.00000E+00         0.00000E+00        -0.47374E+07
 
   -0.47058E+07         0.39296E+06         0.00000E+00
    0.39296E+06        -0.19041E+08         0.00000E+00
    0.00000E+00         0.00000E+00        -0.47494E+07
 
   -0.33731E+07        -0.78771E+04         0.00000E+00
   -0.78771E+04        -0.19226E+08         0.00000E+00
    0.00000E+00         0.00000E+00        -0.45198E+07
 
   -0.35211E+07        -0.20615E+05         0.00000E+00
   -0.20615E+05        -0.19230E+08         0.00000E+00
    0.00000E+00         0.00000E+00        -0.45502E+07
 
   -0.36538E+07        -0.28243E+05         0.00000E+00
   -0.28243E+05        -0.19236E+08         0.00000E+00
    0.00000E+00         0.00000E+00        -0.45781E+07
 
   -0.37732E+07        -0.29734E+05         0.00000E+00
   -0.29734E+05        -0.19245E+08         0.00000E+00
    0.00000E+00         0.00000E+00        -0.46037E+07
 
   -0.38812E+07        -0.24338E+05         0.00000E+00
   -0.24338E+05        -0.19255E+08         0.00000E+00
    0.00000E+00         0.00000E+00        -0.46272E+07
 
   -0.39798E+07        -0.11549E+05         0.00000E+00
   -0.11549E+05        -0.19265E+08         0.00000E+00
    0.00000E+00         0.00000E+00        -0.46489E+07
 
   -0.40710E+07         0.89196E+04         0.00000E+00
    0.89196E+04        -0.19273E+08         0.00000E+00
    0.00000E+00         0.00000E+00        -0.46688E+07
 
   -0.41567E+07         0.37168E+05         0.00000E+00
    0.37168E+05        -0.19279E+08         0.00000E+00
    0.00000E+00         0.00000E+00        -0.46871E+07
 
   -0.42387E+07         0.73133E+05         0.00000E+00
    0.73133E+05        -0.19282E+08         0.00000E+00
    0.00000E+00         0.00000E+00        -0.47041E+07
 
   -0.43189E+07         0.11661E+06         0.00000E+00
    0.11661E+06        -0.19280E+08         0.00000E+00
    0.00000E+00         0.00000E+00        -0.47198E+07
 
   -0.43989E+07         0.16730E+06         0.00000E+00
    0.16730E+06        -0.19274E+08         0.00000E+00
    0.00000E+00         0.00000E+00        -0.47345E+07
 
   -0.44800E+07         0.22477E+06         0.00000E+00
    0.22477E+06        -0.19261E+08         0.00000E+00
    0.00000E+00         0.00000E+00        -0.47482E+07
 
   -0.45637E+07         0.28856E+06         0.00000E+00
    0.28856E+06        -0.19241E+08         0.00000E+00
    0.00000E+00         0.00000E+00        -0.47610E+07
 
   -0.46510E+07         0.35811E+06         0.00000E+00
    0.35811E+06        -0.19215E+08         0.00000E+00
    0.00000E+00         0.00000E+00        -0.47731E+07
 
   -0.47429E+07         0.43285E+06         0.00000E+00
    0.43285E+06        -0.19180E+08         0.00000E+00
    0.00000E+00         0.00000E+00        -0.47845E+07
 
   -0.35124E+07        -0.10142E+05         0.00000E+00
   -0.10142E+05        -0.19348E+08         0.00000E+00
    0.00000E+00         0.00000E+00        -0.45721E+07
 
   -0.36554E+07        -0.26694E+05         0.00000E+00
   -0.26694E+05        -0.19353E+08         0.00000E+00
    0.00000E+00         0.00000E+00        -0.46017E+07
 
   -0.37819E+07        -0.37091E+05         0.00000E+00
   -0.37091E+05        -0.19361E+08         0.00000E+00
    0.00000E+00         0.00000E+00        -0.46286E+07
 
   -0.38942E+07        -0.40242E+05         0.00000E+00
   -0.40242E+05        -0.19372E+08         0.00000E+00
    0.00000E+00         0.00000E+00        -0.46532E+07
 
   -0.39944E+07        -0.35370E+05         0.00000E+00
   -0.35370E+05        -0.19384E+08         0.00000E+00
    0.00000E+00         0.00000E+00        -0.46756E+07
 
   -0.40849E+07        -0.21973E+05         0.00000E+00
   -0.21973E+05        -0.19396E+08         0.00000E+00
    0.00000E+00         0.00000E+00        -0.46961E+07
 
   -0.41678E+07         0.21317E+03         0.00000E+00
    0.21317E+03        -0.19406E+08         0.00000E+00
    0.00000E+00         0.00000E+00        -0.47148E+07
 
   -0.42452E+07         0.31246E+05         0.00000E+00
    0.31246E+05        -0.19415E+08         0.00000E+00
    0.00000E+00         0.00000E+00        -0.47321E+07
 
   -0.43191E+07         0.71012E+05         0.00000E+00
    0.71012E+05        -0.19421E+08         0.00000E+00
    0.00000E+00         0.00000E+00        -0.47479E+07
 
   -0.43915E+07         0.11925E+06         0.00000E+00
    0.11925E+06        -0.19422E+08         0.00000E+00
    0.00000E+00         0.00000E+00        -0.47626E+07
 
   -0.44640E+07         0.17557E+06         0.00000E+00
    0.17557E+06        -0.19418E+08         0.00000E+00
    0.00000E+00         0.00000E+00        -0.47763E+07
 
   -0.45382E+07         0.23949E+06         0.00000E+00
    0.23949E+06        -0.19407E+08         0.00000E+00
    0.00000E+00         0.00000E+00        -0.47891E+07
 
   -0.46155E+07         0.31043E+06         0.00000E+00
    0.31043E+06        -0.19390E+08         0.00000E+00
    0.00000E+00         0.00000E+00        -0.48011E+07
 
   -0.46970E+07         0.38775E+06         0.00000E+00
    0.38775E+06        -0.19366E+08         0.00000E+00
    0.00000E+00         0.00000E+00        -0.48125E+07
 
   -0.47838E+07         0.47076E+06         0.00000E+00
    0.47076E+06        -0.19333E+08         0.00000E+00
    0.00000E+00         0.00000E+00        -0.48234E+07
 
   -0.36686E+07        -0.12832E+05         0.00000E+00
   -0.12832E+05        -0.19483E+08         0.00000E+00
    0.00000E+00         0.00000E+00        -0.46303E+07
 
   -0.38055E+07        -0.33911E+05         0.00000E+00
   -0.33911E+05        -0.19488E+08         0.00000E+00
    0.00000E+00         0.00000E+00        -0.46588E+07
 
   -0.39247E+07        -0.47622E+05         0.00000E+00
   -0.47622E+05        -0.19498E+08         0.00000E+00
    0.00000E+00         0.00000E+00        -0.46846E+07
 
   -0.40287E+07        -0.52836E+05         0.00000E+00
   -0.52836E+05        -0.19511E+08         0.00000E+00
    0.00000E+00         0.00000E+00        -0.47079E+07
 
   -0.41200E+07        -0.48770E+05         0.00000E+00
   -0.48770E+05        -0.19525E+08         0.00000E+00
    0.00000E+00         0.00000E+00        -0.47290E+07
 
   -0.42012E+07        -0.34948E+05         0.00000E+00
   -0.34948E+05        -0.19539E+08         0.00000E+00
    0.00000E+00         0.00000E+00        -0.47481E+07
 
   -0.42746E+07        -0.11152E+05         0.00000E+00
   -0.11152E+05        -0.19553E+08         0.00000E+00
    0.00000E+00         0.00000E+00        -0.47655E+07
 
   -0.43427E+07         0.22618E+05         0.00000E+00
    0.22618E+05        -0.19564E+08         0.00000E+00
    0.00000E+00         0.00000E+00        -0.47814E+07
 
   -0.44075E+07         0.66184E+05         0.00000E+00
    0.66184E+05        -0.19573E+08         0.00000E+00
    0.00000E+00         0.00000E+00        -0.47960E+07
 
   -0.44711E+07         0.11921E+06         0.00000E+00
    0.11921E+06        -0.19576E+08         0.00000E+00
    0.00000E+00         0.00000E+00        -0.48095E+07
 
   -0.45353E+07         0.18124E+06         0.00000E+00
    0.18124E+06        -0.19575E+08         0.00000E+00
    0.00000E+00         0.00000E+00        -0.48221E+07
 
   -0.46018E+07         0.25169E+06         0.00000E+00
    0.25169E+06        -0.19567E+08         0.00000E+00
    0.00000E+00         0.00000E+00        -0.48338E+07
 
   -0.46720E+07         0.32991E+06         0.00000E+00
    0.32991E+06        -0.19553E+08         0.00000E+00
    0.00000E+00         0.00000E+00        -0.48450E+07
 
   -0.47473E+07         0.41513E+06         0.00000E+00
    0.41513E+06        -0.19531E+08         0.00000E+00
    0.00000E+00         0.00000E+00        -0.48556E+07
 
   -0.48285E+07         0.50654E+06         0.00000E+00
    0.50654E+06        -0.19500E+08         0.00000E+00
    0.00000E+00         0.00000E+00        -0.48657E+07
 
   -0.38426E+07        -0.15979E+05         0.00000E+00
   -0.15979E+05        -0.19630E+08         0.00000E+00
    0.00000E+00         0.00000E+00        -0.46945E+07
 
   -0.39722E+07        -0.42341E+05         0.00000E+00
   -0.42341E+05        -0.19636E+08         0.00000E+00
    0.00000E+00         0.00000E+00        -0.47217E+07
 
   -0.40827E+07        -0.59936E+05         0.00000E+00
   -0.59936E+05        -0.19648E+08         0.00000E+00
    0.00000E+00         0.00000E+00        -0.47461E+07
 
   -0.41770E+07        -0.67622E+05         0.00000E+00
   -0.67622E+05        -0.19662E+08         0.00000E+00
    0.00000E+00         0.00000E+00        -0.47678E+07
 
   -0.42581E+07        -0.64643E+05         0.00000E+00
   -0.64643E+05        -0.19679E+08         0.00000E+00
    0.00000E+00         0.00000E+00        -0.47874E+07
 
   -0.43288E+07        -0.50578E+05         0.00000E+00
   -0.50578E+05        -0.19696E+08         0.00000E+00
    0.00000E+00         0.00000E+00        -0.48049E+07
 
   -0.43916E+07        -0.25278E+05         0.00000E+00
   -0.25278E+05        -0.19712E+08         0.00000E+00
    0.00000E+00         0.00000E+00        -0.48208E+07
 
   -0.44492E+07         0.11181E+05         0.00000E+00
    0.11181E+05        -0.19726E+08         0.00000E+00
    0.00000E+00         0.00000E+00        -0.48351E+07
 
   -0.45038E+07         0.58537E+05         0.00000E+00
    0.58537E+05        -0.19737E+08         0.00000E+00
    0.00000E+00         0.00000E+00        -0.48482E+07
 
   -0.45577E+07         0.11638E+06         0.00000E+00
    0.11638E+06        -0.19744E+08         0.00000E+00
    0.00000E+00         0.00000E+00        -0.48604E+07
 
   -0.46127E+07         0.18417E+06         0.00000E+00
    0.18417E+06        -0.19745E+08         0.00000E+00
    0.00000E+00         0.00000E+00        -0.48716E+07
 
   -0.46707E+07         0.26124E+06         0.00000E+00
    0.26124E+06        -0.19741E+08         0.00000E+00
    0.00000E+00         0.00000E+00        -0.48823E+07
 
   -0.47332E+07         0.34684E+06         0.00000E+00
    0.34684E+06        -0.19729E+08         0.00000E+00
    0.00000E+00         0.00000E+00        -0.48924E+07
 
   -0.48015E+07         0.44010E+06         0.00000E+00
    0.44010E+06        -0.19709E+08         0.00000E+00
    0.00000E+00         0.00000E+00        -0.49021E+07
 
   -0.48768E+07         0.54007E+06         0.00000E+00
    0.54007E+06        -0.19681E+08         0.00000E+00
    0.00000E+00         0.00000E+00        -0.49116E+07
 
   -0.40353E+07        -0.19608E+05         0.00000E+00
   -0.19608E+05        -0.19789E+08         0.00000E+00
    0.00000E+00         0.00000E+00        -0.47650E+07
 
   -0.41561E+07        -0.52042E+05         0.00000E+00
   -0.52042E+05        -0.19797E+08         0.00000E+00
    0.00000E+00         0.00000E+00        -0.47905E+07
 
   -0.42564E+07        -0.74098E+05         0.00000E+00
   -0.74098E+05        -0.19809E+08         0.00000E+00
    0.00000E+00         0.00000E+00        -0.48132E+07
 
   -0.43396E+07        -0.84660E+05         0.00000E+00
   -0.84660E+05        -0.19826E+08         0.00000E+00
    0.00000E+00         0.00000E+00        -0.48331E+07
 
   -0.44091E+07        -0.83038E+05         0.00000E+00
   -0.83038E+05        -0.19845E+08         0.00000E+00
    0.00000E+00         0.00000E+00        -0.48508E+07
 
   -0.44678E+07        -0.68898E+05         0.00000E+00
   -0.68898E+05        -0.19865E+08         0.00000E+00
    0.00000E+00         0.00000E+00        -0.48665E+07
 
   -0.45188E+07        -0.42194E+05         0.00000E+00
   -0.42194E+05        -0.19884E+08         0.00000E+00
    0.00000E+00         0.00000E+00        -0.48805E+07
 
   -0.45648E+07        -0.31026E+04         0.00000E+00
   -0.31026E+04        -0.19901E+08         0.00000E+00
    0.00000E+00         0.00000E+00        -0.48931E+07
 
   -0.46082E+07         0.48022E+05         0.00000E+00
    0.48022E+05        -0.19915E+08         0.00000E+00
    0.00000E+00         0.00000E+00        -0.49046E+07
 
   -0.46513E+07         0.11068E+06         0.00000E+00
    0.11068E+06        -0.19924E+08         0.00000E+00
    0.00000E+00         0.00000E+00        -0.49151E+07
 
   -0.46962E+07         0.18426E+06         0.00000E+00
    0.18426E+06        -0.19928E+08         0.00000E+00
    0.00000E+00         0.00000E+00        -0.49249E+07
 
   -0.47449E+07         0.26801E+06         0.00000E+00
    0.26801E+06        -0.19927E+08         0.00000E+00
    0.00000E+00         0.00000E+00        -0.49343E+07
 
   -0.47989E+07         0.36109E+06         0.00000E+00
    0.36109E+06        -0.19917E+08         0.00000E+00
    0.00000E+00         0.00000E+00        -0.49433E+07
 
   -0.48597E+07         0.46251E+06         0.00000E+00
    0.46251E+06        -0.19901E+08         0.00000E+00
    0.00000E+00         0.00000E+00        -0.49520E+07
 
   -0.49285E+07         0.57120E+06         0.00000E+00
    0.57120E+06        -0.19875E+08         0.00000E+00
    0.00000E+00         0.00000E+00        -0.49607E+07
 
   -0.42477E+07        -0.23739E+05         0.00000E+00
   -0.23739E+05        -0.19961E+08         0.00000E+00
    0.00000E+00         0.00000E+00        -0.48418E+07
 
   -0.43579E+07        -0.63046E+05         0.00000E+00
   -0.63046E+05        -0.19969E+08         0.00000E+00
    0.00000E+00         0.00000E+00        -0.48654E+07
 
   -0.44463E+07        -0.90130E+05         0.00000E+00
   -0.90130E+05        -0.19984E+08         0.00000E+00
    0.00000E+00         0.00000E+00        -0.48860E+07
 
   -0.45168E+07        -0.10395E+06         0.00000E+00
   -0.10395E+06        -0.20002E+08         0.00000E+00
    0.00000E+00         0.00000E+00        -0.49038E+07
 
   -0.45731E+07        -0.10392E+06         0.00000E+00
   -0.10392E+06        -0.20024E+08         0.00000E+00
    0.00000E+00         0.00000E+00        -0.49193E+07
 
   -0.46185E+07        -0.89860E+05         0.00000E+00
   -0.89860E+05        -0.20046E+08         0.00000E+00
    0.00000E+00         0.00000E+00        -0.49329E+07
 
   -0.46564E+07        -0.61842E+05         0.00000E+00
   -0.61842E+05        -0.20067E+08         0.00000E+00
    0.00000E+00         0.00000E+00        -0.49448E+07
 
   -0.46895E+07        -0.20179E+05         0.00000E+00
   -0.20179E+05        -0.20087E+08         0.00000E+00
    0.00000E+00         0.00000E+00        -0.49553E+07
 
   -0.47205E+07         0.34668E+05         0.00000E+00
    0.34668E+05        -0.20104E+08         0.00000E+00
    0.00000E+00         0.00000E+00        -0.49649E+07
 
   -0.47519E+07         0.10211E+06         0.00000E+00
    0.10211E+06        -0.20116E+08         0.00000E+00
    0.00000E+00         0.00000E+00        -0.49736E+07
 
   -0.47858E+07         0.18146E+06         0.00000E+00
    0.18146E+06        -0.20123E+08         0.00000E+00
    0.00000E+00         0.00000E+00        -0.49818E+07
 
   -0.48242E+07         0.27190E+06         0.00000E+00
    0.27190E+06        -0.20124E+08         0.00000E+00
    0.00000E+00         0.00000E+00        -0.49897E+07
 
   -0.48690E+07         0.37252E+06         0.00000E+00
    0.37252E+06        -0.20118E+08         0.00000E+00
    0.00000E+00         0.00000E+00        -0.49974E+07
 
   -0.49217E+07         0.48223E+06         0.00000E+00
    0.48223E+06        -0.20104E+08         0.00000E+00
    0.00000E+00         0.00000E+00        -0.50051E+07
 
   -0.49835E+07         0.59981E+06         0.00000E+00
    0.59981E+06        -0.20081E+08         0.00000E+00
    0.00000E+00         0.00000E+00        -0.50129E+07
 
   -0.44807E+07        -0.28381E+05         0.00000E+00
   -0.28381E+05        -0.20145E+08         0.00000E+00
    0.00000E+00         0.00000E+00        -0.49252E+07
 
   -0.45783E+07        -0.75354E+05         0.00000E+00
   -0.75354E+05        -0.20154E+08         0.00000E+00
    0.00000E+00         0.00000E+00        -0.49465E+07
 
   -0.46529E+07        -0.10800E+06         0.00000E+00
   -0.10800E+06        -0.20170E+08         0.00000E+00
    0.00000E+00         0.00000E+00        -0.49646E+07
 
   -0.47088E+07        -0.12541E+06         0.00000E+00
   -0.12541E+06        -0.20191E+08         0.00000E+00
    0.00000E+00         0.00000E+00        -0.49799E+07
 
   -0.47503E+07        -0.12718E+06         0.00000E+00
   -0.12718E+06        -0.20214E+08         0.00000E+00
    0.00000E+00         0.00000E+00        -0.49929E+07
 
   -0.47809E+07        -0.11330E+06         0.00000E+00
   -0.11330E+06        -0.20239E+08         0.00000E+00
    0.00000E+00         0.00000E+00        -0.50039E+07
 
   -0.48043E+07        -0.84048E+05         0.00000E+00
   -0.84048E+05        -0.20263E+08         0.00000E+00
    0.00000E+00         0.00000E+00        -0.50134E+07
 
   -0.48234E+07        -0.39884E+05         0.00000E+00
   -0.39884E+05        -0.20285E+08         0.00000E+00
    0.00000E+00         0.00000E+00        -0.50217E+07
 
   -0.48410E+07         0.18602E+05         0.00000E+00
    0.18602E+05        -0.20304E+08         0.00000E+00
    0.00000E+00         0.00000E+00        -0.50290E+07
 
   -0.48596E+07         0.90738E+05         0.00000E+00
    0.90738E+05        -0.20319E+08         0.00000E+00
    0.00000E+00         0.00000E+00        -0.50357E+07
 
   -0.48815E+07         0.17577E+06         0.00000E+00
    0.17577E+06        -0.20329E+08         0.00000E+00
    0.00000E+00         0.00000E+00        -0.50421E+07
 
   -0.49088E+07         0.27285E+06         0.00000E+00
    0.27285E+06        -0.20333E+08         0.00000E+00
    0.00000E+00         0.00000E+00        -0.50483E+07
 
   -0.49435E+07         0.38101E+06         0.00000E+00
    0.38101E+06        -0.20330E+08         0.00000E+00
    0.00000E+00         0.00000E+00        -0.50546E+07
 
   -0.49872E+07         0.49908E+06         0.00000E+00
    0.49908E+06        -0.20319E+08         0.00000E+00
    0.00000E+00         0.00000E+00        -0.50612E+07
 
   -0.50416E+07         0.62573E+06         0.00000E+00
    0.62573E+06        -0.20299E+08         0.00000E+00
    0.00000E+00         0.00000E+00        -0.50681E+07
 
   -0.47352E+07        -0.33530E+05         0.00000E+00
   -0.33530E+05        -0.20341E+08         0.00000E+00
    0.00000E+00         0.00000E+00        -0.50153E+07
 
   -0.48180E+07        -0.88926E+05         0.00000E+00
   -0.88926E+05        -0.20351E+08         0.00000E+00
    0.00000E+00         0.00000E+00        -0.50338E+07
 
   -0.48765E+07        -0.12761E+06         0.00000E+00
   -0.12761E+06        -0.20369E+08         0.00000E+00
    0.00000E+00         0.00000E+00        -0.50490E+07
 
   -0.49160E+07        -0.14886E+06         0.00000E+00
   -0.14886E+06        -0.20391E+08         0.00000E+00
    0.00000E+00         0.00000E+00        -0.50614E+07
 
   -0.49408E+07        -0.15255E+06         0.00000E+00
   -0.15255E+06        -0.20416E+08         0.00000E+00
    0.00000E+00         0.00000E+00        -0.50715E+07
 
   -0.49552E+07        -0.13892E+06         0.00000E+00
   -0.13892E+06        -0.20443E+08         0.00000E+00
    0.00000E+00         0.00000E+00        -0.50796E+07
 
   -0.49627E+07        -0.10849E+06         0.00000E+00
   -0.10849E+06        -0.20469E+08         0.00000E+00
    0.00000E+00         0.00000E+00        -0.50863E+07
 
   -0.49666E+07        -0.61916E+05         0.00000E+00
   -0.61916E+05        -0.20493E+08         0.00000E+00
    0.00000E+00         0.00000E+00        -0.50920E+07
 
   -0.49696E+07         0.75947E+02         0.00000E+00
    0.75947E+02        -0.20515E+08         0.00000E+00
    0.00000E+00         0.00000E+00        -0.50968E+07
 
   -0.49745E+07         0.76730E+05         0.00000E+00
    0.76730E+05        -0.20532E+08         0.00000E+00
    0.00000E+00         0.00000E+00        -0.51013E+07
 
   -0.49834E+07         0.16726E+06         0.00000E+00
    0.16726E+06        -0.20545E+08         0.00000E+00
    0.00000E+00         0.00000E+00        -0.51056E+07
 
   -0.49986E+07         0.27082E+06         0.00000E+00
    0.27082E+06        -0.20551E+08         0.00000E+00
    0.00000E+00         0.00000E+00        -0.51100E+07
 
   -0.50223E+07         0.38643E+06         0.00000E+00
    0.38643E+06        -0.20551E+08         0.00000E+00
    0.00000E+00         0.00000E+00        -0.51147E+07
 
   -0.50564E+07         0.51290E+06         0.00000E+00
    0.51290E+06        -0.20543E+08         0.00000E+00
    0.00000E+00         0.00000E+00        -0.51199E+07
 
   -0.51026E+07         0.64878E+06         0.00000E+00
    0.64878E+06        -0.20526E+08         0.00000E+00
    0.00000E+00         0.00000E+00        -0.51258E+07
 
   -0.50121E+07        -0.39168E+05         0.00000E+00
   -0.39168E+05        -0.20550E+08         0.00000E+00
    0.00000E+00         0.00000E+00        -0.51124E+07
 
   -0.50774E+07        -0.10368E+06         0.00000E+00
   -0.10368E+06        -0.20561E+08         0.00000E+00
    0.00000E+00         0.00000E+00        -0.51276E+07
 
   -0.51176E+07        -0.14876E+06         0.00000E+00
   -0.14876E+06        -0.20579E+08         0.00000E+00
    0.00000E+00         0.00000E+00        -0.51394E+07
 
   -0.51383E+07        -0.17401E+06         0.00000E+00
   -0.17401E+06        -0.20603E+08         0.00000E+00
    0.00000E+00         0.00000E+00        -0.51483E+07
 
   -0.51447E+07        -0.17964E+06         0.00000E+00
   -0.17964E+06        -0.20630E+08         0.00000E+00
    0.00000E+00         0.00000E+00        -0.51550E+07
 
   -0.51413E+07        -0.16625E+06         0.00000E+00
   -0.16625E+06        -0.20658E+08         0.00000E+00
    0.00000E+00         0.00000E+00        -0.51599E+07
 
   -0.51317E+07        -0.13467E+06         0.00000E+00
   -0.13467E+06        -0.20685E+08         0.00000E+00
    0.00000E+00         0.00000E+00        -0.51634E+07
 
   -0.51192E+07        -0.85797E+05         0.00000E+00
   -0.85797E+05        -0.20711E+08         0.00000E+00
    0.00000E+00         0.00000E+00        -0.51661E+07
 
   -0.51068E+07        -0.20510E+05         0.00000E+00
   -0.20510E+05        -0.20734E+08         0.00000E+00
    0.00000E+00         0.00000E+00        -0.51682E+07
 
   -0.50968E+07         0.60371E+05         0.00000E+00
    0.60371E+05        -0.20754E+08         0.00000E+00
    0.00000E+00         0.00000E+00        -0.51701E+07
 
   -0.50918E+07         0.15608E+06         0.00000E+00
    0.15608E+06        -0.20769E+08         0.00000E+00
    0.00000E+00         0.00000E+00        -0.51721E+07
 
   -0.50940E+07         0.26581E+06         0.00000E+00
    0.26581E+06        -0.20778E+08         0.00000E+00
    0.00000E+00         0.00000E+00        -0.51744E+07
 
   -0.51056E+07         0.38865E+06         0.00000E+00
    0.38865E+06        -0.20781E+08         0.00000E+00
    0.00000E+00         0.00000E+00        -0.51773E+07
 
   -0.51290E+07         0.52346E+06         0.00000E+00
    0.52346E+06        -0.20776E+08         0.00000E+00
    0.00000E+00         0.00000E+00        -0.51811E+07
 
   -0.51662E+07         0.66871E+06         0.00000E+00
    0.66871E+06        -0.20763E+08         0.00000E+00
    0.00000E+00         0.00000E+00        -0.51858E+07
 
   -0.53124E+07        -0.45260E+05         0.00000E+00
   -0.45260E+05        -0.20771E+08         0.00000E+00
    0.00000E+00         0.00000E+00        -0.52167E+07
 
   -0.53571E+07        -0.11946E+06         0.00000E+00
   -0.11946E+06        -0.20782E+08         0.00000E+00
    0.00000E+00         0.00000E+00        -0.52279E+07
 
   -0.53762E+07        -0.17116E+06         0.00000E+00
   -0.17116E+06        -0.20802E+08         0.00000E+00
    0.00000E+00         0.00000E+00        -0.52356E+07
 
   -0.53759E+07        -0.20039E+06         0.00000E+00
   -0.20039E+06        -0.20827E+08         0.00000E+00
    0.00000E+00         0.00000E+00        -0.52406E+07
 
   -0.53620E+07        -0.20784E+06         0.00000E+00
   -0.20784E+06        -0.20855E+08         0.00000E+00
    0.00000E+00         0.00000E+00        -0.52433E+07
 
   -0.53392E+07        -0.19459E+06         0.00000E+00
   -0.19459E+06        -0.20883E+08         0.00000E+00
    0.00000E+00         0.00000E+00        -0.52445E+07
 
   -0.53113E+07        -0.16185E+06         0.00000E+00
   -0.16185E+06        -0.20911E+08         0.00000E+00
    0.00000E+00         0.00000E+00        -0.52445E+07
 
   -0.52815E+07        -0.11084E+06         0.00000E+00
   -0.11084E+06        -0.20937E+08         0.00000E+00
    0.00000E+00         0.00000E+00        -0.52438E+07
 
   -0.52527E+07        -0.42573E+05         0.00000E+00
   -0.42573E+05        -0.20961E+08         0.00000E+00
    0.00000E+00         0.00000E+00        -0.52428E+07
 
   -0.52271E+07         0.42084E+05         0.00000E+00
    0.42084E+05        -0.20982E+08         0.00000E+00
    0.00000E+00         0.00000E+00        -0.52419E+07
 
   -0.52072E+07         0.14243E+06         0.00000E+00
    0.14243E+06        -0.20999E+08         0.00000E+00
    0.00000E+00         0.00000E+00        -0.52413E+07
 
   -0.51952E+07         0.25782E+06         0.00000E+00
    0.25782E+06        -0.21011E+08         0.00000E+00
    0.00000E+00         0.00000E+00        -0.52413E+07
 
   -0.51937E+07         0.38751E+06         0.00000E+00
    0.38751E+06        -0.21018E+08         0.00000E+00
    0.00000E+00         0.00000E+00        -0.52422E+07
 
   -0.52051E+07         0.53045E+06         0.00000E+00
    0.53045E+06        -0.21016E+08         0.00000E+00
    0.00000E+00         0.00000E+00        -0.52443E+07
 
   -0.52322E+07         0.68517E+06         0.00000E+00
    0.68517E+06        -0.21007E+08         0.00000E+00
    0.00000E+00         0.00000E+00        -0.52478E+07
 
   -0.56368E+07        -0.51753E+05         0.00000E+00
   -0.51753E+05        -0.21004E+08         0.00000E+00
    0.00000E+00         0.00000E+00        -0.53282E+07
 
   -0.56575E+07        -0.13606E+06         0.00000E+00
   -0.13606E+06        -0.21016E+08         0.00000E+00
    0.00000E+00         0.00000E+00        -0.53348E+07
 
   -0.56523E+07        -0.19438E+06         0.00000E+00
   -0.19438E+06        -0.21037E+08         0.00000E+00
    0.00000E+00         0.00000E+00        -0.53378E+07
 
   -0.56286E+07        -0.22735E+06         0.00000E+00
   -0.22735E+06        -0.21062E+08         0.00000E+00
    0.00000E+00         0.00000E+00        -0.53381E+07
 
   -0.55925E+07        -0.23631E+06         0.00000E+00
   -0.23631E+06        -0.21089E+08         0.00000E+00
    0.00000E+00         0.00000E+00        -0.53364E+07
 
   -0.55489E+07        -0.22296E+06         0.00000E+00
   -0.22296E+06        -0.21118E+08         0.00000E+00
    0.00000E+00         0.00000E+00        -0.53333E+07
 
   -0.55016E+07        -0.18904E+06         0.00000E+00
   -0.18904E+06        -0.21145E+08         0.00000E+00
    0.00000E+00         0.00000E+00        -0.53293E+07
 
   -0.54538E+07        -0.13609E+06         0.00000E+00
   -0.13609E+06        -0.21171E+08         0.00000E+00
    0.00000E+00         0.00000E+00        -0.53249E+07
 
   -0.54079E+07        -0.65309E+05         0.00000E+00
   -0.65309E+05        -0.21195E+08         0.00000E+00
    0.00000E+00         0.00000E+00        -0.53205E+07
 
   -0.53660E+07         0.22448E+05         0.00000E+00
    0.22448E+05        -0.21216E+08         0.00000E+00
    0.00000E+00         0.00000E+00        -0.53164E+07
 
   -0.53302E+07         0.12665E+06         0.00000E+00
    0.12665E+06        -0.21234E+08         0.00000E+00
    0.00000E+00         0.00000E+00        -0.53129E+07
 
   -0.53030E+07         0.24690E+06         0.00000E+00
    0.24690E+06        -0.21249E+08         0.00000E+00
    0.00000E+00         0.00000E+00        -0.53104E+07
 
   -0.52869E+07         0.38276E+06         0.00000E+00
    0.38276E+06        -0.21259E+08         0.00000E+00
    0.00000E+00         0.00000E+00        -0.53091E+07
 
   -0.52849E+07         0.53347E+06         0.00000E+00
    0.53347E+06        -0.21261E+08         0.00000E+00
    0.00000E+00         0.00000E+00        -0.53093E+07
 
   -0.53003E+07         0.69767E+06         0.00000E+00
    0.69767E+06        -0.21256E+08         0.00000E+00
    0.00000E+00         0.00000E+00        -0.53113E+07
 
   -0.59858E+07        -0.58573E+05         0.00000E+00
   -0.58573E+05        -0.21250E+08         0.00000E+00
    0.00000E+00         0.00000E+00        -0.54472E+07
 
   -0.59784E+07        -0.15317E+06         0.00000E+00
   -0.15317E+06        -0.21262E+08         0.00000E+00
    0.00000E+00         0.00000E+00        -0.54482E+07
 
   -0.59458E+07        -0.21783E+06         0.00000E+00
   -0.21783E+06        -0.21283E+08         0.00000E+00
    0.00000E+00         0.00000E+00        -0.54457E+07
 
   -0.58960E+07        -0.25399E+06         0.00000E+00
   -0.25399E+06        -0.21307E+08         0.00000E+00
    0.00000E+00         0.00000E+00        -0.54407E+07
 
   -0.58357E+07        -0.26389E+06         0.00000E+00
   -0.26389E+06        -0.21334E+08         0.00000E+00
    0.00000E+00         0.00000E+00        -0.54339E+07
 
   -0.57701E+07        -0.25006E+06         0.00000E+00
   -0.25006E+06        -0.21360E+08         0.00000E+00
    0.00000E+00         0.00000E+00        -0.54260E+07
 
   -0.57028E+07        -0.21488E+06         0.00000E+00
   -0.21488E+06        -0.21385E+08         0.00000E+00
    0.00000E+00         0.00000E+00        -0.54176E+07
 
   -0.56365E+07        -0.16029E+06         0.00000E+00
   -0.16029E+06        -0.21409E+08         0.00000E+00
    0.00000E+00         0.00000E+00        -0.54091E+07
 
   -0.55731E+07        -0.87667E+05         0.00000E+00
   -0.87667E+05        -0.21432E+08         0.00000E+00
    0.00000E+00         0.00000E+00        -0.54009E+07
 
   -0.55143E+07         0.22282E+04         0.00000E+00
    0.22282E+04        -0.21453E+08         0.00000E+00
    0.00000E+00         0.00000E+00        -0.53934E+07
 
   -0.54619E+07         0.10913E+06         0.00000E+00
    0.10913E+06        -0.21472E+08         0.00000E+00
    0.00000E+00         0.00000E+00        -0.53867E+07
 
   -0.54182E+07         0.23307E+06         0.00000E+00
    0.23307E+06        -0.21488E+08         0.00000E+00
    0.00000E+00         0.00000E+00        -0.53813E+07
 
   -0.53860E+07         0.37409E+06         0.00000E+00
    0.37409E+06        -0.21502E+08         0.00000E+00
    0.00000E+00         0.00000E+00        -0.53775E+07
 
   -0.53687E+07         0.53191E+06         0.00000E+00
    0.53191E+06        -0.21509E+08         0.00000E+00
    0.00000E+00         0.00000E+00        -0.53756E+07
 
   -0.53704E+07         0.70549E+06         0.00000E+00
    0.70549E+06        -0.21509E+08         0.00000E+00
    0.00000E+00         0.00000E+00        -0.53758E+07
 
   -0.63599E+07        -0.65623E+05         0.00000E+00
   -0.65623E+05        -0.21508E+08         0.00000E+00
    0.00000E+00         0.00000E+00        -0.55736E+07
 
   -0.63198E+07        -0.17039E+06         0.00000E+00
   -0.17039E+06        -0.21520E+08         0.00000E+00
    0.00000E+00         0.00000E+00        -0.55681E+07
 
   -0.62558E+07        -0.24068E+06         0.00000E+00
   -0.24068E+06        -0.21540E+08         0.00000E+00
    0.00000E+00         0.00000E+00        -0.55592E+07
 
   -0.61772E+07        -0.27908E+06         0.00000E+00
   -0.27908E+06        -0.21563E+08         0.00000E+00
    0.00000E+00         0.00000E+00        -0.55481E+07
 
   -0.60912E+07        -0.28905E+06         0.00000E+00
   -0.28905E+06        -0.21587E+08         0.00000E+00
    0.00000E+00         0.00000E+00        -0.55356E+07
 
   -0.60027E+07        -0.27418E+06         0.00000E+00
   -0.27418E+06        -0.21609E+08         0.00000E+00
    0.00000E+00         0.00000E+00        -0.55224E+07
 
   -0.59151E+07        -0.23765E+06         0.00000E+00
   -0.23765E+06        -0.21630E+08         0.00000E+00
    0.00000E+00         0.00000E+00        -0.55091E+07
 
   -0.58302E+07        -0.18187E+06         0.00000E+00
   -0.18187E+06        -0.21650E+08         0.00000E+00
    0.00000E+00         0.00000E+00        -0.54961E+07
 
   -0.57493E+07        -0.10832E+06         0.00000E+00
   -0.10832E+06        -0.21670E+08         0.00000E+00
    0.00000E+00         0.00000E+00        -0.54838E+07
 
   -0.56734E+07        -0.17615E+05         0.00000E+00
   -0.17615E+05        -0.21689E+08         0.00000E+00
    0.00000E+00         0.00000E+00        -0.54725E+07
 
   -0.56037E+07         0.90391E+05         0.00000E+00
    0.90391E+05        -0.21708E+08         0.00000E+00
    0.00000E+00         0.00000E+00        -0.54624E+07
 
   -0.55423E+07         0.21636E+06         0.00000E+00
    0.21636E+06        -0.21727E+08         0.00000E+00
    0.00000E+00         0.00000E+00        -0.54539E+07
 
   -0.54920E+07         0.36107E+06         0.00000E+00
    0.36107E+06        -0.21744E+08         0.00000E+00
    0.00000E+00         0.00000E+00        -0.54472E+07
 
   -0.54570E+07         0.52498E+06         0.00000E+00
    0.52498E+06        -0.21757E+08         0.00000E+00
    0.00000E+00         0.00000E+00        -0.54427E+07
 
   -0.54423E+07         0.70762E+06         0.00000E+00
    0.70762E+06        -0.21762E+08         0.00000E+00
    0.00000E+00         0.00000E+00        -0.54409E+07
 
   -0.67592E+07        -0.72785E+05         0.00000E+00
   -0.72785E+05        -0.21779E+08         0.00000E+00
    0.00000E+00         0.00000E+00        -0.57076E+07
 
   -0.66810E+07        -0.18718E+06         0.00000E+00
   -0.18718E+06        -0.21791E+08         0.00000E+00
    0.00000E+00         0.00000E+00        -0.56943E+07
 
   -0.65814E+07        -0.26185E+06         0.00000E+00
   -0.26185E+06        -0.21809E+08         0.00000E+00
    0.00000E+00         0.00000E+00        -0.56780E+07
 
   -0.64712E+07        -0.30099E+06         0.00000E+00
   -0.30099E+06        -0.21828E+08         0.00000E+00
    0.00000E+00         0.00000E+00        -0.56599E+07
 
   -0.63579E+07        -0.30976E+06         0.00000E+00
   -0.30976E+06        -0.21847E+08         0.00000E+00
    0.00000E+00         0.00000E+00        -0.56410E+07
 
   -0.62462E+07        -0.29313E+06         0.00000E+00
   -0.29313E+06        -0.21864E+08         0.00000E+00
    0.00000E+00         0.00000E+00        -0.56219E+07
 
   -0.61386E+07        -0.25521E+06         0.00000E+00
   -0.25521E+06        -0.21878E+08         0.00000E+00
    0.00000E+00         0.00000E+00        -0.56033E+07
 
   -0.60357E+07        -0.19886E+06         0.00000E+00
   -0.19886E+06        -0.21892E+08         0.00000E+00
    0.00000E+00         0.00000E+00        -0.55856E+07
 
   -0.59379E+07        -0.12565E+06         0.00000E+00
   -0.12565E+06        -0.21907E+08         0.00000E+00
    0.00000E+00         0.00000E+00        -0.55689E+07
 
   -0.58450E+07        -0.35915E+05         0.00000E+00
   -0.35915E+05        -0.21923E+08         0.00000E+00
    0.00000E+00         0.00000E+00        -0.55535E+07
 
   -0.57575E+07         0.71057E+05         0.00000E+00
    0.71057E+05        -0.21941E+08         0.00000E+00
    0.00000E+00         0.00000E+00        -0.55397E+07
 
   -0.56771E+07         0.19676E+06         0.00000E+00
    0.19676E+06        -0.21961E+08         0.00000E+00
    0.00000E+00         0.00000E+00        -0.55276E+07
 
   -0.56066E+07         0.34306E+06         0.00000E+00
    0.34306E+06        -0.21982E+08         0.00000E+00
    0.00000E+00         0.00000E+00        -0.55177E+07
 
   -0.55508E+07         0.51153E+06         0.00000E+00
    0.51153E+06        -0.22001E+08         0.00000E+00
    0.00000E+00         0.00000E+00        -0.55104E+07
 
   -0.55160E+07         0.70265E+06         0.00000E+00
    0.70265E+06        -0.22015E+08         0.00000E+00
    0.00000E+00         0.00000E+00        -0.55061E+07
 
   -0.71835E+07        -0.79911E+05         0.00000E+00
   -0.79911E+05        -0.22061E+08         0.00000E+00
    0.00000E+00         0.00000E+00        -0.58490E+07
 
   -0.70606E+07        -0.20279E+06         0.00000E+00
   -0.20279E+06        -0.22073E+08         0.00000E+00
    0.00000E+00         0.00000E+00        -0.58266E+07
 
   -0.69207E+07        -0.27977E+06         0.00000E+00
   -0.27977E+06        -0.22088E+08         0.00000E+00
    0.00000E+00         0.00000E+00        -0.58017E+07
 
   -0.67762E+07        -0.31748E+06         0.00000E+00
   -0.31748E+06        -0.22102E+08         0.00000E+00
    0.00000E+00         0.00000E+00        -0.57756E+07
 
   -0.66348E+07        -0.32338E+06         0.00000E+00
   -0.32338E+06        -0.22113E+08         0.00000E+00
    0.00000E+00         0.00000E+00        -0.57495E+07
 
   -0.65004E+07        -0.30418E+06         0.00000E+00
   -0.30418E+06        -0.22120E+08         0.00000E+00
    0.00000E+00         0.00000E+00        -0.57241E+07
 
   -0.63737E+07        -0.26498E+06         0.00000E+00
   -0.26498E+06        -0.22125E+08         0.00000E+00
    0.00000E+00         0.00000E+00        -0.56998E+07
 
   -0.62543E+07        -0.20901E+06         0.00000E+00
   -0.20901E+06        -0.22131E+08         0.00000E+00
    0.00000E+00         0.00000E+00        -0.56770E+07
 
   -0.61406E+07        -0.13780E+06         0.00000E+00
   -0.13780E+06        -0.22138E+08         0.00000E+00
    0.00000E+00         0.00000E+00        -0.56557E+07
 
   -0.60313E+07        -0.51316E+05         0.00000E+00
   -0.51316E+05        -0.22149E+08         0.00000E+00
    0.00000E+00         0.00000E+00        -0.56361E+07
 
   -0.59260E+07         0.51861E+05         0.00000E+00
    0.51861E+05        -0.22165E+08         0.00000E+00
    0.00000E+00         0.00000E+00        -0.56182E+07
 
   -0.58253E+07         0.17428E+06         0.00000E+00
    0.17428E+06        -0.22187E+08         0.00000E+00
    0.00000E+00         0.00000E+00        -0.56024E+07
 
   -0.57320E+07         0.31924E+06         0.00000E+00
    0.31924E+06        -0.22212E+08         0.00000E+00
    0.00000E+00         0.00000E+00        -0.55888E+07
 
   -0.56514E+07         0.48999E+06         0.00000E+00
    0.48999E+06        -0.22239E+08         0.00000E+00
    0.00000E+00         0.00000E+00        -0.55781E+07
 
   -0.55916E+07         0.68857E+06         0.00000E+00
    0.68857E+06        -0.22262E+08         0.00000E+00
    0.00000E+00         0.00000E+00        -0.55708E+07
 
   -0.76320E+07        -0.86812E+05         0.00000E+00
   -0.86812E+05        -0.22357E+08         0.00000E+00
    0.00000E+00         0.00000E+00        -0.59977E+07
 
   -0.74564E+07        -0.21614E+06         0.00000E+00
   -0.21614E+06        -0.22366E+08         0.00000E+00
    0.00000E+00         0.00000E+00        -0.59645E+07
 
   -0.72710E+07        -0.29223E+06         0.00000E+00
   -0.29223E+06        -0.22376E+08         0.00000E+00
    0.00000E+00         0.00000E+00        -0.59295E+07
 
   -0.70900E+07        -0.32547E+06         0.00000E+00
   -0.32547E+06        -0.22382E+08         0.00000E+00
    0.00000E+00         0.00000E+00        -0.58944E+07
 
   -0.69207E+07        -0.32654E+06         0.00000E+00
   -0.32654E+06        -0.22381E+08         0.00000E+00
    0.00000E+00         0.00000E+00        -0.58604E+07
 
   -0.67649E+07        -0.30410E+06         0.00000E+00
   -0.30410E+06        -0.22376E+08         0.00000E+00
    0.00000E+00         0.00000E+00        -0.58281E+07
 
   -0.66214E+07        -0.26410E+06         0.00000E+00
   -0.26410E+06        -0.22369E+08         0.00000E+00
    0.00000E+00         0.00000E+00        -0.57980E+07
 
   -0.64873E+07        -0.20990E+06         0.00000E+00
   -0.20990E+06        -0.22362E+08         0.00000E+00
    0.00000E+00         0.00000E+00        -0.57700E+07
 
   -0.63596E+07        -0.14280E+06         0.00000E+00
   -0.14280E+06        -0.22360E+08         0.00000E+00
    0.00000E+00         0.00000E+00        -0.57440E+07
 
   -0.62354E+07        -0.62311E+05         0.00000E+00
   -0.62311E+05        -0.22365E+08         0.00000E+00
    0.00000E+00         0.00000E+00        -0.57200E+07
 
   -0.61125E+07         0.33688E+05         0.00000E+00
    0.33688E+05        -0.22378E+08         0.00000E+00
    0.00000E+00         0.00000E+00        -0.56980E+07
 
   -0.59905E+07         0.14894E+06         0.00000E+00
    0.14894E+06        -0.22400E+08         0.00000E+00
    0.00000E+00         0.00000E+00        -0.56780E+07
 
   -0.58715E+07         0.28857E+06         0.00000E+00
    0.28857E+06        -0.22430E+08         0.00000E+00
    0.00000E+00         0.00000E+00        -0.56604E+07
 
   -0.57610E+07         0.45827E+06         0.00000E+00
    0.45827E+06        -0.22467E+08         0.00000E+00
    0.00000E+00         0.00000E+00        -0.56455E+07
 
   -0.56694E+07         0.66260E+06         0.00000E+00
    0.66260E+06        -0.22502E+08         0.00000E+00
    0.00000E+00         0.00000E+00        -0.56344E+07
 
   -0.81033E+07        -0.93220E+05         0.00000E+00
   -0.93220E+05        -0.22664E+08         0.00000E+00
    0.00000E+00         0.00000E+00        -0.61535E+07
 
   -0.78649E+07        -0.22546E+06         0.00000E+00
   -0.22546E+06        -0.22671E+08         0.00000E+00
    0.00000E+00         0.00000E+00        -0.61071E+07
 
   -0.76284E+07        -0.29579E+06         0.00000E+00
   -0.29579E+06        -0.22673E+08         0.00000E+00
    0.00000E+00         0.00000E+00        -0.60602E+07
 
   -0.74098E+07        -0.32069E+06         0.00000E+00
   -0.32069E+06        -0.22665E+08         0.00000E+00
    0.00000E+00         0.00000E+00        -0.60149E+07
 
   -0.72143E+07        -0.31505E+06         0.00000E+00
   -0.31505E+06        -0.22648E+08         0.00000E+00
    0.00000E+00         0.00000E+00        -0.59724E+07
 
   -0.70402E+07        -0.28933E+06         0.00000E+00
   -0.28933E+06        -0.22625E+08         0.00000E+00
    0.00000E+00         0.00000E+00        -0.59331E+07
 
   -0.68828E+07        -0.24971E+06         0.00000E+00
   -0.24971E+06        -0.22603E+08         0.00000E+00
    0.00000E+00         0.00000E+00        -0.58971E+07
 
   -0.67370E+07        -0.19923E+06         0.00000E+00
   -0.19923E+06        -0.22583E+08         0.00000E+00
    0.00000E+00         0.00000E+00        -0.58640E+07
 
   -0.65977E+07        -0.13874E+06         0.00000E+00
   -0.13874E+06        -0.22570E+08         0.00000E+00
    0.00000E+00         0.00000E+00        -0.58335E+07
 
   -0.64603E+07        -0.67354E+05         0.00000E+00
   -0.67354E+05        -0.22566E+08         0.00000E+00
    0.00000E+00         0.00000E+00        -0.58052E+07
 
   -0.63210E+07         0.17620E+05         0.00000E+00
    0.17620E+05        -0.22574E+08         0.00000E+00
    0.00000E+00         0.00000E+00        -0.57790E+07
 
   -0.61773E+07         0.12096E+06         0.00000E+00
    0.12096E+06        -0.22596E+08         0.00000E+00
    0.00000E+00         0.00000E+00        -0.57546E+07
 
   -0.60295E+07         0.24990E+06         0.00000E+00
    0.24990E+06        -0.22632E+08         0.00000E+00
    0.00000E+00         0.00000E+00        -0.57322E+07
 
   -0.58831E+07         0.41358E+06         0.00000E+00
    0.41358E+06        -0.22680E+08         0.00000E+00
    0.00000E+00         0.00000E+00        -0.57126E+07
 
   -0.57504E+07         0.62081E+06         0.00000E+00
    0.62081E+06        -0.22732E+08         0.00000E+00
    0.00000E+00         0.00000E+00        -0.56965E+07
 
   -0.85948E+07        -0.98669E+05         0.00000E+00
   -0.98669E+05        -0.22984E+08         0.00000E+00
    0.00000E+00         0.00000E+00        -0.63158E+07
 
   -0.82801E+07        -0.22755E+06         0.00000E+00
   -0.22755E+06        -0.22985E+08         0.00000E+00
    0.00000E+00         0.00000E+00        -0.62530E+07
 
   -0.79876E+07        -0.28490E+06         0.00000E+00
   -0.28490E+06        -0.22973E+08         0.00000E+00
    0.00000E+00         0.00000E+00        -0.61921E+07
 
   -0.77331E+07        -0.29726E+06         0.00000E+00
   -0.29726E+06        -0.22944E+08         0.00000E+00
    0.00000E+00         0.00000E+00        -0.61354E+07
 
   -0.75156E+07        -0.28418E+06         0.00000E+00
   -0.28418E+06        -0.22905E+08         0.00000E+00
    0.00000E+00         0.00000E+00        -0.60841E+07
 
   -0.73274E+07        -0.25653E+06         0.00000E+00
   -0.25653E+06        -0.22862E+08         0.00000E+00
    0.00000E+00         0.00000E+00        -0.60380E+07
 
   -0.71600E+07        -0.21953E+06         0.00000E+00
   -0.21953E+06        -0.22822E+08         0.00000E+00
    0.00000E+00         0.00000E+00        -0.59964E+07
 
   -0.70057E+07        -0.17534E+06         0.00000E+00
   -0.17534E+06        -0.22787E+08         0.00000E+00
    0.00000E+00         0.00000E+00        -0.59585E+07
 
   -0.68576E+07        -0.12425E+06         0.00000E+00
   -0.12425E+06        -0.22762E+08         0.00000E+00
    0.00000E+00         0.00000E+00        -0.59238E+07
 
   -0.67096E+07        -0.65075E+05         0.00000E+00
   -0.65075E+05        -0.22748E+08         0.00000E+00
    0.00000E+00         0.00000E+00        -0.58916E+07
 
   -0.65559E+07         0.49945E+04         0.00000E+00
    0.49945E+04        -0.22750E+08         0.00000E+00
    0.00000E+00         0.00000E+00        -0.58612E+07
 
   -0.63913E+07         0.91137E+05         0.00000E+00
    0.91137E+05        -0.22770E+08         0.00000E+00
    0.00000E+00         0.00000E+00        -0.58323E+07
 
   -0.62127E+07         0.20237E+06         0.00000E+00
    0.20237E+06        -0.22812E+08         0.00000E+00
    0.00000E+00         0.00000E+00        -0.58048E+07
 
   -0.60230E+07         0.35248E+06         0.00000E+00
    0.35248E+06        -0.22873E+08         0.00000E+00
    0.00000E+00         0.00000E+00        -0.57792E+07
 
   -0.58364E+07         0.55755E+06         0.00000E+00
    0.55755E+06        -0.22947E+08         0.00000E+00
    0.00000E+00         0.00000E+00        -0.57568E+07
 
   -0.91010E+07        -0.10202E+06         0.00000E+00
   -0.10202E+06        -0.23315E+08         0.00000E+00
    0.00000E+00         0.00000E+00        -0.64833E+07
 
   -0.86924E+07        -0.21565E+06         0.00000E+00
   -0.21565E+06        -0.23305E+08         0.00000E+00
    0.00000E+00         0.00000E+00        -0.63995E+07
 
   -0.83425E+07        -0.25027E+06         0.00000E+00
   -0.25027E+06        -0.23267E+08         0.00000E+00
    0.00000E+00         0.00000E+00        -0.63219E+07
 
   -0.80587E+07        -0.24799E+06         0.00000E+00
   -0.24799E+06        -0.23208E+08         0.00000E+00
    0.00000E+00         0.00000E+00        -0.62534E+07
 
   -0.78262E+07        -0.22982E+06         0.00000E+00
   -0.22982E+06        -0.23143E+08         0.00000E+00
    0.00000E+00         0.00000E+00        -0.61938E+07
 
   -0.76294E+07        -0.20370E+06         0.00000E+00
   -0.20370E+06        -0.23078E+08         0.00000E+00
    0.00000E+00         0.00000E+00        -0.61414E+07
 
   -0.74559E+07        -0.17273E+06         0.00000E+00
   -0.17273E+06        -0.23019E+08         0.00000E+00
    0.00000E+00         0.00000E+00        -0.60949E+07
 
   -0.72963E+07        -0.13787E+06         0.00000E+00
   -0.13787E+06        -0.22969E+08         0.00000E+00
    0.00000E+00         0.00000E+00        -0.60531E+07
 
   -0.71423E+07        -0.98928E+05         0.00000E+00
   -0.98928E+05        -0.22932E+08         0.00000E+00
    0.00000E+00         0.00000E+00        -0.60149E+07
 
   -0.69865E+07        -0.54704E+05         0.00000E+00
   -0.54704E+05        -0.22910E+08         0.00000E+00
    0.00000E+00         0.00000E+00        -0.59792E+07
 
   -0.68214E+07        -0.27844E+04         0.00000E+00
   -0.27844E+04        -0.22905E+08         0.00000E+00
    0.00000E+00         0.00000E+00        -0.59453E+07
 
   -0.66389E+07         0.61347E+05         0.00000E+00
    0.61347E+05        -0.22922E+08         0.00000E+00
    0.00000E+00         0.00000E+00        -0.59121E+07
 
   -0.64299E+07         0.14646E+06         0.00000E+00
    0.14646E+06        -0.22965E+08         0.00000E+00
    0.00000E+00         0.00000E+00        -0.58790E+07
 
   -0.61899E+07         0.27114E+06         0.00000E+00
    0.27114E+06        -0.23041E+08         0.00000E+00
    0.00000E+00         0.00000E+00        -0.58462E+07
 
   -0.59312E+07         0.46442E+06         0.00000E+00
    0.46442E+06        -0.23145E+08         0.00000E+00
    0.00000E+00         0.00000E+00        -0.58151E+07
 
   -0.96094E+07        -0.99090E+05         0.00000E+00
   -0.99090E+05        -0.23656E+08         0.00000E+00
    0.00000E+00         0.00000E+00        -0.66531E+07
 
   -0.90865E+07        -0.17335E+06         0.00000E+00
   -0.17335E+06        -0.23616E+08         0.00000E+00
    0.00000E+00         0.00000E+00        -0.65404E+07
 
   -0.86904E+07        -0.17876E+06         0.00000E+00
   -0.17876E+06        -0.23533E+08         0.00000E+00
    0.00000E+00         0.00000E+00        -0.64446E+07
 
   -0.83907E+07        -0.16767E+06         0.00000E+00
   -0.16767E+06        -0.23438E+08         0.00000E+00
    0.00000E+00         0.00000E+00        -0.63657E+07
 
   -0.81510E+07        -0.15100E+06         0.00000E+00
   -0.15100E+06        -0.23345E+08         0.00000E+00
    0.00000E+00         0.00000E+00        -0.62993E+07
 
   -0.79502E+07        -0.13174E+06         0.00000E+00
   -0.13174E+06        -0.23260E+08         0.00000E+00
    0.00000E+00         0.00000E+00        -0.62421E+07
 
   -0.77739E+07        -0.11084E+06         0.00000E+00
   -0.11084E+06        -0.23186E+08         0.00000E+00
    0.00000E+00         0.00000E+00        -0.61921E+07
 
   -0.76115E+07        -0.88363E+05         0.00000E+00
   -0.88363E+05        -0.23125E+08         0.00000E+00
    0.00000E+00         0.00000E+00        -0.61474E+07
 
   -0.74541E+07        -0.63922E+05         0.00000E+00
   -0.63922E+05        -0.23079E+08         0.00000E+00
    0.00000E+00         0.00000E+00        -0.61065E+07
 
   -0.72934E+07        -0.36637E+05         0.00000E+00
   -0.36637E+05        -0.23048E+08         0.00000E+00
    0.00000E+00         0.00000E+00        -0.60684E+07
 
   -0.71207E+07        -0.49271E+04         0.00000E+00
   -0.49271E+04        -0.23038E+08         0.00000E+00
    0.00000E+00         0.00000E+00        -0.60316E+07
 
   -0.69253E+07         0.34143E+05         0.00000E+00
    0.34143E+05        -0.23050E+08         0.00000E+00
    0.00000E+00         0.00000E+00        -0.59950E+07
 
   -0.66929E+07         0.86583E+05         0.00000E+00
    0.86583E+05        -0.23092E+08         0.00000E+00
    0.00000E+00         0.00000E+00        -0.59569E+07
 
   -0.64005E+07         0.16758E+06         0.00000E+00
    0.16758E+06        -0.23176E+08         0.00000E+00
    0.00000E+00         0.00000E+00        -0.59152E+07
 
   -0.60436E+07         0.32730E+06         0.00000E+00
    0.32730E+06        -0.23318E+08         0.00000E+00
    0.00000E+00         0.00000E+00        -0.58723E+07
 
   -0.10085E+08        -0.62278E+05         0.00000E+00
   -0.62278E+05        -0.23973E+08         0.00000E+00
    0.00000E+00         0.00000E+00        -0.68116E+07
 
   -0.94521E+07        -0.71561E+05         0.00000E+00
   -0.71561E+05        -0.23859E+08         0.00000E+00
    0.00000E+00         0.00000E+00        -0.66621E+07
 
   -0.90423E+07        -0.66015E+05         0.00000E+00
   -0.66015E+05        -0.23730E+08         0.00000E+00
    0.00000E+00         0.00000E+00        -0.65544E+07
 
   -0.87377E+07        -0.59705E+05         0.00000E+00
   -0.59705E+05        -0.23608E+08         0.00000E+00
    0.00000E+00         0.00000E+00        -0.64692E+07
 
   -0.84962E+07        -0.52819E+05         0.00000E+00
   -0.52819E+05        -0.23498E+08         0.00000E+00
    0.00000E+00         0.00000E+00        -0.63989E+07
 
   -0.82943E+07        -0.45661E+05         0.00000E+00
   -0.45661E+05        -0.23401E+08         0.00000E+00
    0.00000E+00         0.00000E+00        -0.63391E+07
 
   -0.81172E+07        -0.38241E+05         0.00000E+00
   -0.38241E+05        -0.23318E+08         0.00000E+00
    0.00000E+00         0.00000E+00        -0.62871E+07
 
   -0.79537E+07        -0.30460E+05         0.00000E+00
   -0.30460E+05        -0.23251E+08         0.00000E+00
    0.00000E+00         0.00000E+00        -0.62409E+07
 
   -0.77948E+07        -0.22125E+05         0.00000E+00
   -0.22125E+05        -0.23199E+08         0.00000E+00
    0.00000E+00         0.00000E+00        -0.61987E+07
 
   -0.76318E+07        -0.12912E+05         0.00000E+00
   -0.12912E+05        -0.23164E+08         0.00000E+00
    0.00000E+00         0.00000E+00        -0.61592E+07
 
   -0.74554E+07        -0.22791E+04         0.00000E+00
   -0.22791E+04        -0.23149E+08         0.00000E+00
    0.00000E+00         0.00000E+00        -0.61209E+07
 
   -0.72536E+07         0.10749E+05         0.00000E+00
    0.10749E+05        -0.23158E+08         0.00000E+00
    0.00000E+00         0.00000E+00        -0.60823E+07
 
   -0.70084E+07         0.28284E+05         0.00000E+00
    0.28284E+05        -0.23197E+08         0.00000E+00
    0.00000E+00         0.00000E+00        -0.60411E+07
 
   -0.66874E+07         0.55116E+05         0.00000E+00
    0.55116E+05        -0.23281E+08         0.00000E+00
    0.00000E+00         0.00000E+00        -0.59936E+07
 
   -0.61963E+07         0.12274E+06         0.00000E+00
    0.12274E+06        -0.23448E+08         0.00000E+00
    0.00000E+00         0.00000E+00        -0.59289E+07
 
TENSORS stresstot double 
   -0.44104E+08        -0.10761E+03         0.00000E+00
   -0.10761E+03        -0.60000E+08         0.00000E+00
    0.00000E+00         0.00000E+00        -0.45616E+08
 
   -0.44269E+08        -0.24136E+03         0.00000E+00
   -0.24136E+03        -0.60001E+08         0.00000E+00
    0.00000E+00         0.00000E+00        -0.45649E+08
 
   -0.44424E+08        -0.20752E+03         0.00000E+00
   -0.20752E+03        -0.60001E+08         0.00000E+00
    0.00000E+00         0.00000E+00        -0.45680E+08
 
   -0.44570E+08         0.53584E+02         0.00000E+00
    0.53584E+02        -0.60001E+08         0.00000E+00
    0.00000E+00         0.00000E+00        -0.45709E+08
 
   -0.44708E+08         0.58944E+03         0.00000E+00
    0.58944E+03        -0.60001E+08         0.00000E+00
    0.00000E+00         0.00000E+00        -0.45737E+08
 
   -0.44840E+08         0.14360E+04         0.00000E+00
    0.14360E+04        -0.59999E+08         0.00000E+00
    0.00000E+00         0.00000E+00        -0.45763E+08
 
   -0.44965E+08         0.26183E+04         0.00000E+00
    0.26183E+04        -0.59995E+08         0.00000E+00
    0.00000E+00         0.00000E+00        -0.45787E+08
 
   -0.45085E+08         0.41517E+04         0.00000E+00
    0.41517E+04        -0.59988E+08         0.00000E+00
    0.00000E+00         0.00000E+00        -0.45810E+08
 
   -0.45201E+08         0.60429E+04         0.00000E+00
    0.60429E+04        -0.59978E+08         0.00000E+00
    0.00000E+00         0.00000E+00        -0.45831E+08
 
   -0.45315E+08         0.82911E+04         0.00000E+00
    0.82911E+04        -0.59964E+08         0.00000E+00
    0.00000E+00         0.00000E+00        -0.45851E+08
 
   -0.45427E+08         0.10889E+05         0.00000E+00
    0.10889E+05        -0.59944E+08         0.00000E+00
    0.00000E+00         0.00000E+00        -0.45869E+08
 
   -0.45539E+08         0.13826E+05         0.00000E+00
    0.13826E+05        -0.59920E+08         0.00000E+00
    0.00000E+00         0.00000E+00        -0.45887E+08
 
   -0.45651E+08         0.17086E+05         0.00000E+00
    0.17086E+05        -0.59889E+08         0.00000E+00
    0.00000E+00         0.00000E+00        -0.45903E+08
 
   -0.45764E+08         0.20653E+05         0.00000E+00
    0.20653E+05        -0.59851E+08         0.00000E+00
    0.00000E+00         0.00000E+00        -0.45918E+08
 
   -0.45880E+08         0.24510E+05         0.00000E+00
    0.24510E+05        -0.59806E+08         0.00000E+00
    0.00000E+00         0.00000E+00        -0.45932E+08
 
   -0.44105E+08        -0.34309E+03         0.00000E+00
   -0.34309E+03        -0.60000E+08         0.00000E+00
    0.00000E+00         0.00000E+00        -0.45609E+08
 
   -0.44269E+08        -0.78017E+03         0.00000E+00
   -0.78017E+03        -0.60001E+08         0.00000E+00
    0.00000E+00         0.00000E+00        -0.45642E+08
 
   -0.44424E+08        -0.70817E+03         0.00000E+00
   -0.70817E+03        -0.60001E+08         0.00000E+00
    0.00000E+00         0.00000E+00        -0.45673E+08
 
   -0.44569E+08         0.51754E+02         0.00000E+00
    0.51754E+02        -0.60002E+08         0.00000E+00
    0.00000E+00         0.00000E+00        -0.45702E+08
 
   -0.44707E+08         0.16417E+04         0.00000E+00
    0.16417E+04        -0.60001E+08         0.00000E+00
    0.00000E+00         0.00000E+00        -0.45729E+08
 
   -0.44838E+08         0.41690E+04         0.00000E+00
    0.41690E+04        -0.60000E+08         0.00000E+00
    0.00000E+00         0.00000E+00        -0.45755E+08
 
   -0.44962E+08         0.77083E+04         0.00000E+00
    0.77083E+04        -0.59996E+08         0.00000E+00
    0.00000E+00         0.00000E+00        -0.45779E+08
 
   -0.45081E+08         0.12305E+05         0.00000E+00
    0.12305E+05        -0.59989E+08         0.00000E+00
    0.00000E+00         0.00000E+00        -0.45802E+08
 
   -0.45197E+08         0.17978E+05         0.00000E+00
    0.17978E+05        -0.59980E+08         0.00000E+00
    0.00000E+00         0.00000E+00        -0.45823E+08
 
   -0.45310E+08         0.24726E+05         0.00000E+00
    0.24726E+05        -0.59966E+08         0.00000E+00
    0.00000E+00         0.00000E+00        -0.45843E+08
 
   -0.45421E+08         0.32525E+05         0.00000E+00
    0.32525E+05        -0.59947E+08         0.00000E+00
    0.00000E+00         0.00000E+00        -0.45861E+08
 
   -0.45532E+08         0.41342E+05         0.00000E+00
    0.41342E+05        -0.59922E+08         0.00000E+00
    0.00000E+00         0.00000E+00        -0.45879E+08
 
   -0.45644E+08         0.51129E+05         0.00000E+00
    0.51129E+05        -0.59892E+08         0.00000E+00
    0.00000E+00         0.00000E+00        -0.45895E+08
 
   -0.45757E+08         0.61835E+05         0.00000E+00
    0.61835E+05        -0.59854E+08         0.00000E+00
    0.00000E+00         0.00000E+00        -0.45910E+08
 
   -0.45872E+08         0.73410E+05         0.00000E+00
    0.73410E+05        -0.59810E+08         0.00000E+00
    0.00000E+00         0.00000E+00        -0.45924E+08
 
   -0.44106E+08        -0.63945E+03         0.00000E+00
   -0.63945E+03        -0.60000E+08         0.00000E+00
    0.00000E+00         0.00000E+00        -0.45594E+08
 
   -0.44269E+08        -0.14874E+04         0.00000E+00
   -0.14874E+04        -0.60001E+08         0.00000E+00
    0.00000E+00         0.00000E+00        -0.45627E+08
 
   -0.44423E+08        -0.14657E+04         0.00000E+00
   -0.14657E+04        -0.60002E+08         0.00000E+00
    0.00000E+00         0.00000E+00        -0.45658E+08
 
   -0.44568E+08        -0.27698E+03         0.00000E+00
   -0.27698E+03        -0.60003E+08         0.00000E+00
    0.00000E+00         0.00000E+00        -0.45687E+08
 
   -0.44704E+08         0.23145E+04         0.00000E+00
    0.23145E+04        -0.60003E+08         0.00000E+00
    0.00000E+00         0.00000E+00        -0.45714E+08
 
   -0.44834E+08         0.64857E+04         0.00000E+00
    0.64857E+04        -0.60001E+08         0.00000E+00
    0.00000E+00         0.00000E+00        -0.45740E+08
 
   -0.44957E+08         0.12359E+05         0.00000E+00
    0.12359E+05        -0.59998E+08         0.00000E+00
    0.00000E+00         0.00000E+00        -0.45764E+08
 
   -0.45075E+08         0.20009E+05         0.00000E+00
    0.20009E+05        -0.59993E+08         0.00000E+00
    0.00000E+00         0.00000E+00        -0.45787E+08
 
   -0.45189E+08         0.29464E+05         0.00000E+00
    0.29464E+05        -0.59983E+08         0.00000E+00
    0.00000E+00         0.00000E+00        -0.45807E+08
 
   -0.45300E+08         0.40719E+05         0.00000E+00
    0.40719E+05        -0.59970E+08         0.00000E+00
    0.00000E+00         0.00000E+00        -0.45827E+08
 
   -0.45410E+08         0.53733E+05         0.00000E+00
    0.53733E+05        -0.59952E+08         0.00000E+00
    0.00000E+00         0.00000E+00        -0.45845E+08
 
   -0.45520E+08         0.68447E+05         0.00000E+00
    0.68447E+05        -0.59928E+08         0.00000E+00
    0.00000E+00         0.00000E+00        -0.45863E+08
 
   -0.45630E+08         0.84779E+05         0.00000E+00
    0.84779E+05        -0.59898E+08         0.00000E+00
    0.00000E+00         0.00000E+00        -0.45879E+08
 
   -0.45742E+08         0.10264E+06         0.00000E+00
    0.10264E+06        -0.59861E+08         0.00000E+00
    0.00000E+00         0.00000E+00        -0.45894E+08
 
   -0.45856E+08         0.12195E+06         0.00000E+00
    0.12195E+06        -0.59816E+08         0.00000E+00
    0.00000E+00         0.00000E+00        -0.45908E+08
 
   -0.44107E+08        -0.10375E+04         0.00000E+00
   -0.10375E+04        -0.60000E+08         0.00000E+00
    0.00000E+00         0.00000E+00        -0.45573E+08
 
   -0.44270E+08        -0.24757E+04         0.00000E+00
   -0.24757E+04        -0.60001E+08         0.00000E+00
    0.00000E+00         0.00000E+00        -0.45605E+08
 
   -0.44423E+08        -0.26516E+04         0.00000E+00
   -0.26516E+04        -0.60002E+08         0.00000E+00
    0.00000E+00         0.00000E+00        -0.45636E+08
 
   -0.44566E+08        -0.11502E+04         0.00000E+00
   -0.11502E+04        -0.60004E+08         0.00000E+00
    0.00000E+00         0.00000E+00        -0.45665E+08
 
   -0.44700E+08         0.23557E+04         0.00000E+00
    0.23557E+04        -0.60005E+08         0.00000E+00
    0.00000E+00         0.00000E+00        -0.45692E+08
 
   -0.44828E+08         0.81101E+04         0.00000E+00
    0.81101E+04        -0.60004E+08         0.00000E+00
    0.00000E+00         0.00000E+00        -0.45717E+08
 
   -0.44949E+08         0.16281E+05         0.00000E+00
    0.16281E+05        -0.60002E+08         0.00000E+00
    0.00000E+00         0.00000E+00        -0.45741E+08
 
   -0.45064E+08         0.26966E+05         0.00000E+00
    0.26966E+05        -0.59997E+08         0.00000E+00
    0.00000E+00         0.00000E+00        -0.45763E+08
 
   -0.45176E+08         0.40203E+05         0.00000E+00
    0.40203E+05        -0.59989E+08         0.00000E+00
    0.00000E+00         0.00000E+00        -0.45784E+08
 
   -0.45286E+08         0.55978E+05         0.00000E+00
    0.55978E+05        -0.59976E+08         0.00000E+00
    0.00000E+00         0.00000E+00        -0.45803E+08
 
   -0.45394E+08         0.74231E+05         0.00000E+00
    0.74231E+05        -0.59959E+08         0.00000E+00
    0.00000E+00         0.00000E+00        -0.45822E+08
 
   -0.45501E+08         0.94871E+05         0.00000E+00
    0.94871E+05        -0.59936E+08         0.00000E+00
    0.00000E+00         0.00000E+00        -0.45839E+08
 
   -0.45610E+08         0.11778E+06         0.00000E+00
    0.11778E+06        -0.59907E+08         0.00000E+00
    0.00000E+00         0.00000E+00        -0.45854E+08
 
   -0.45720E+08         0.14283E+06         0.00000E+00
    0.14283E+06        -0.59870E+08         0.00000E+00
    0.00000E+00         0.00000E+00        -0.45869E+08
 
   -0.45832E+08         0.16990E+06         0.00000E+00
    0.16990E+06        -0.59827E+08         0.00000E+00
    0.00000E+00         0.00000E+00        -0.45883E+08
 
   -0.44110E+08        -0.15783E+04         0.00000E+00
   -0.15783E+04        -0.60000E+08         0.00000E+00
    0.00000E+00         0.00000E+00        -0.45544E+08
 
   -0.44271E+08        -0.38580E+04         0.00000E+00
   -0.38580E+04        -0.60002E+08         0.00000E+00
    0.00000E+00         0.00000E+00        -0.45576E+08
 
   -0.44422E+08        -0.44369E+04         0.00000E+00
   -0.44369E+04        -0.60003E+08         0.00000E+00
    0.00000E+00         0.00000E+00        -0.45607E+08
 
   -0.44563E+08        -0.27845E+04         0.00000E+00
   -0.27845E+04        -0.60006E+08         0.00000E+00
    0.00000E+00         0.00000E+00        -0.45636E+08
 
   -0.44695E+08         0.15148E+04         0.00000E+00
    0.15148E+04        -0.60007E+08         0.00000E+00
    0.00000E+00         0.00000E+00        -0.45662E+08
 
   -0.44820E+08         0.87685E+04         0.00000E+00
    0.87685E+04        -0.60008E+08         0.00000E+00
    0.00000E+00         0.00000E+00        -0.45687E+08
 
   -0.44938E+08         0.19185E+05         0.00000E+00
    0.19185E+05        -0.60007E+08         0.00000E+00
    0.00000E+00         0.00000E+00        -0.45711E+08
 
   -0.45051E+08         0.32883E+05         0.00000E+00
    0.32883E+05        -0.60003E+08         0.00000E+00
    0.00000E+00         0.00000E+00        -0.45733E+08
 
   -0.45160E+08         0.49902E+05         0.00000E+00
    0.49902E+05        -0.59996E+08         0.00000E+00
    0.00000E+00         0.00000E+00        -0.45753E+08
 
   -0.45266E+08         0.70216E+05         0.00000E+00
    0.70216E+05        -0.59985E+08         0.00000E+00
    0.00000E+00         0.00000E+00        -0.45772E+08
 
   -0.45371E+08         0.93740E+05         0.00000E+00
    0.93740E+05        -0.59968E+08         0.00000E+00
    0.00000E+00         0.00000E+00        -0.45790E+08
 
   -0.45476E+08         0.12035E+06         0.00000E+00
    0.12035E+06        -0.59946E+08         0.00000E+00
    0.00000E+00         0.00000E+00        -0.45806E+08
 
   -0.45582E+08         0.14988E+06         0.00000E+00
    0.14988E+06        -0.59918E+08         0.00000E+00
    0.00000E+00         0.00000E+00        -0.45822E+08
 
   -0.45690E+08         0.18216E+06         0.00000E+00
    0.18216E+06        -0.59883E+08         0.00000E+00
    0.00000E+00         0.00000E+00        -0.45836E+08
 
   -0.45800E+08         0.21702E+06         0.00000E+00
    0.21702E+06        -0.59840E+08         0.00000E+00
    0.00000E+00         0.00000E+00        -0.45850E+08
 
   -0.44113E+08        -0.23033E+04         0.00000E+00
   -0.23033E+04        -0.60000E+08         0.00000E+00
    0.00000E+00         0.00000E+00        -0.45508E+08
 
   -0.44273E+08        -0.57474E+04         0.00000E+00
   -0.57474E+04        -0.60002E+08         0.00000E+00
    0.00000E+00         0.00000E+00        -0.45540E+08
 
   -0.44422E+08        -0.69924E+04         0.00000E+00
   -0.69924E+04        -0.60005E+08         0.00000E+00
    0.00000E+00         0.00000E+00        -0.45570E+08
 
   -0.44560E+08        -0.53949E+04         0.00000E+00
   -0.53949E+04        -0.60008E+08         0.00000E+00
    0.00000E+00         0.00000E+00        -0.45599E+08
 
   -0.44689E+08        -0.45541E+03         0.00000E+00
   -0.45541E+03        -0.60011E+08         0.00000E+00
    0.00000E+00         0.00000E+00        -0.45625E+08
 
   -0.44810E+08         0.81917E+04         0.00000E+00
    0.81917E+04        -0.60013E+08         0.00000E+00
    0.00000E+00         0.00000E+00        -0.45650E+08
 
   -0.44924E+08         0.20790E+05         0.00000E+00
    0.20790E+05        -0.60013E+08         0.00000E+00
    0.00000E+00         0.00000E+00        -0.45673E+08
 
   -0.45034E+08         0.37471E+05         0.00000E+00
    0.37471E+05        -0.60011E+08         0.00000E+00
    0.00000E+00         0.00000E+00        -0.45694E+08
 
   -0.45139E+08         0.58274E+05         0.00000E+00
    0.58274E+05        -0.60005E+08         0.00000E+00
    0.00000E+00         0.00000E+00        -0.45714E+08
 
   -0.45242E+08         0.83151E+05         0.00000E+00
    0.83151E+05        -0.59995E+08         0.00000E+00
    0.00000E+00         0.00000E+00        -0.45733E+08
 
   -0.45343E+08         0.11199E+06         0.00000E+00
    0.11199E+06        -0.59980E+08         0.00000E+00
    0.00000E+00         0.00000E+00        -0.45750E+08
 
   -0.45445E+08         0.14462E+06         0.00000E+00
    0.14462E+06        -0.59960E+08         0.00000E+00
    0.00000E+00         0.00000E+00        -0.45766E+08
 
   -0.45548E+08         0.18083E+06         0.00000E+00
    0.18083E+06        -0.59933E+08         0.00000E+00
    0.00000E+00         0.00000E+00        -0.45781E+08
 
   -0.45652E+08         0.22040E+06         0.00000E+00
    0.22040E+06        -0.59899E+08         0.00000E+00
    0.00000E+00         0.00000E+00        -0.45795E+08
 
   -0.45760E+08         0.26309E+06         0.00000E+00
    0.26309E+06        -0.59857E+08         0.00000E+00
    0.00000E+00         0.00000E+00        -0.45809E+08
 
   -0.44118E+08        -0.32542E+04         0.00000E+00
   -0.32542E+04        -0.60001E+08         0.00000E+00
    0.00000E+00         0.00000E+00        -0.45465E+08
 
   -0.44276E+08        -0.82571E+04         0.00000E+00
   -0.82571E+04        -0.60003E+08         0.00000E+00
    0.00000E+00         0.00000E+00        -0.45497E+08
 
   -0.44422E+08        -0.10487E+05         0.00000E+00
   -0.10487E+05        -0.60006E+08         0.00000E+00
    0.00000E+00         0.00000E+00        -0.45527E+08
 
   -0.44557E+08        -0.91933E+04         0.00000E+00
   -0.91933E+04        -0.60010E+08         0.00000E+00
    0.00000E+00         0.00000E+00        -0.45555E+08
 
   -0.44682E+08        -0.37975E+04         0.00000E+00
   -0.37975E+04        -0.60015E+08         0.00000E+00
    0.00000E+00         0.00000E+00        -0.45580E+08
 
   -0.44799E+08         0.61169E+04         0.00000E+00
    0.61169E+04        -0.60018E+08         0.00000E+00
    0.00000E+00         0.00000E+00        -0.45604E+08
 
   -0.44909E+08         0.20820E+05         0.00000E+00
    0.20820E+05        -0.60020E+08         0.00000E+00
    0.00000E+00         0.00000E+00        -0.45627E+08
 
   -0.45013E+08         0.40452E+05         0.00000E+00
    0.40452E+05        -0.60019E+08         0.00000E+00
    0.00000E+00         0.00000E+00        -0.45648E+08
 
   -0.45114E+08         0.65040E+05         0.00000E+00
    0.65040E+05        -0.60016E+08         0.00000E+00
    0.00000E+00         0.00000E+00        -0.45667E+08
 
   -0.45212E+08         0.94511E+05         0.00000E+00
    0.94511E+05        -0.60007E+08         0.00000E+00
    0.00000E+00         0.00000E+00        -0.45685E+08
 
   -0.45310E+08         0.12871E+06         0.00000E+00
    0.12871E+06        -0.59994E+08         0.00000E+00
    0.00000E+00         0.00000E+00        -0.45702E+08
 
   -0.45407E+08         0.16743E+06         0.00000E+00
    0.16743E+06        -0.59975E+08         0.00000E+00
    0.00000E+00         0.00000E+00        -0.45718E+08
 
   -0.45506E+08         0.21040E+06         0.00000E+00
    0.21040E+06        -0.59950E+08         0.00000E+00
    0.00000E+00         0.00000E+00        -0.45732E+08
 
   -0.45607E+08         0.25732E+06         0.00000E+00
    0.25732E+06        -0.59918E+08         0.00000E+00
    0.00000E+00         0.00000E+00        -0.45746E+08
 
   -0.45712E+08         0.30790E+06         0.00000E+00
    0.30790E+06        -0.59877E+08         0.00000E+00
    0.00000E+00         0.00000E+00        -0.45759E+08
 
   -0.44126E+08        -0.44727E+04         0.00000E+00
   -0.44727E+04        -0.60001E+08         0.00000E+00
    0.00000E+00         0.00000E+00        -0.45415E+08
 
   -0.44281E+08        -0.11499E+05         0.00000E+00
   -0.11499E+05        -0.60003E+08         0.00000E+00
    0.00000E+00         0.00000E+00        -0.45447E+08
 
   -0.44423E+08        -0.15088E+05         0.00000E+00
   -0.15088E+05        -0.60008E+08         0.00000E+00
    0.00000E+00         0.00000E+00        -0.45476E+08
 
   -0.44554E+08        -0.14386E+05         0.00000E+00
   -0.14386E+05        -0.60013E+08         0.00000E+00
    0.00000E+00         0.00000E+00        -0.45503E+08
 
   -0.44674E+08        -0.87460E+04         0.00000E+00
   -0.87460E+04        -0.60019E+08         0.00000E+00
    0.00000E+00         0.00000E+00        -0.45528E+08
 
   -0.44786E+08         0.22909E+04         0.00000E+00
    0.22909E+04        -0.60025E+08         0.00000E+00
    0.00000E+00         0.00000E+00        -0.45552E+08
 
   -0.44890E+08         0.19013E+05         0.00000E+00
    0.19013E+05        -0.60028E+08         0.00000E+00
    0.00000E+00         0.00000E+00        -0.45574E+08
 
   -0.44989E+08         0.41558E+05         0.00000E+00
    0.41558E+05        -0.60030E+08         0.00000E+00
    0.00000E+00         0.00000E+00        -0.45594E+08
 
   -0.45085E+08         0.69934E+05         0.00000E+00
    0.69934E+05        -0.60028E+08         0.00000E+00
    0.00000E+00         0.00000E+00        -0.45612E+08
 
   -0.45178E+08         0.10403E+06         0.00000E+00
    0.10403E+06        -0.60022E+08         0.00000E+00
    0.00000E+00         0.00000E+00        -0.45630E+08
 
   -0.45270E+08         0.14366E+06         0.00000E+00
    0.14366E+06        -0.60010E+08         0.00000E+00
    0.00000E+00         0.00000E+00        -0.45646E+08
 
   -0.45363E+08         0.18854E+06         0.00000E+00
    0.18854E+06        -0.59993E+08         0.00000E+00
    0.00000E+00         0.00000E+00        -0.45661E+08
 
   -0.45458E+08         0.23835E+06         0.00000E+00
    0.23835E+06        -0.59970E+08         0.00000E+00
    0.00000E+00         0.00000E+00        -0.45675E+08
 
   -0.45555E+08         0.29271E+06         0.00000E+00
    0.29271E+06        -0.59939E+08         0.00000E+00
    0.00000E+00         0.00000E+00        -0.45689E+08
 
   -0.45656E+08         0.35125E+06         0.00000E+00
    0.35125E+06        -0.59901E+08         0.00000E+00
    0.00000E+00         0.00000E+00        -0.45701E+08
 
   -0.44135E+08        -0.60002E+04         0.00000E+00
   -0.60002E+04        -0.60001E+08         0.00000E+00
    0.00000E+00         0.00000E+00        -0.45358E+08
 
   -0.44287E+08        -0.15583E+05         0.00000E+00
   -0.15583E+05        -0.60004E+08         0.00000E+00
    0.00000E+00         0.00000E+00        -0.45389E+08
 
   -0.44425E+08        -0.20955E+05         0.00000E+00
   -0.20955E+05        -0.60010E+08         0.00000E+00
    0.00000E+00         0.00000E+00        -0.45418E+08
 
   -0.44551E+08        -0.21171E+05         0.00000E+00
   -0.21171E+05        -0.60017E+08         0.00000E+00
    0.00000E+00         0.00000E+00        -0.45445E+08
 
   -0.44665E+08        -0.15524E+05         0.00000E+00
   -0.15524E+05        -0.60024E+08         0.00000E+00
    0.00000E+00         0.00000E+00        -0.45469E+08
 
   -0.44771E+08        -0.35250E+04         0.00000E+00
   -0.35250E+04        -0.60032E+08         0.00000E+00
    0.00000E+00         0.00000E+00        -0.45492E+08
 
   -0.44869E+08         0.15121E+05         0.00000E+00
    0.15121E+05        -0.60038E+08         0.00000E+00
    0.00000E+00         0.00000E+00        -0.45513E+08
 
   -0.44962E+08         0.40540E+05         0.00000E+00
    0.40540E+05        -0.60041E+08         0.00000E+00
    0.00000E+00         0.00000E+00        -0.45532E+08
 
   -0.45052E+08         0.72707E+05         0.00000E+00
    0.72707E+05        -0.60042E+08         0.00000E+00
    0.00000E+00         0.00000E+00        -0.45550E+08
 
   -0.45139E+08         0.11148E+06         0.00000E+00
    0.11148E+06        -0.60038E+08         0.00000E+00
    0.00000E+00         0.00000E+00        -0.45566E+08
 
   -0.45225E+08         0.15660E+06         0.00000E+00
    0.15660E+06        -0.60029E+08         0.00000E+00
    0.00000E+00         0.00000E+00        -0.45582E+08
 
   -0.45313E+08         0.20773E+06         0.00000E+00
    0.20773E+06        -0.60014E+08         0.00000E+00
    0.00000E+00         0.00000E+00        -0.45596E+08
 
   -0.45402E+08         0.26447E+06         0.00000E+00
    0.26447E+06        -0.59992E+08         0.00000E+00
    0.00000E+00         0.00000E+00        -0.45610E+08
 
   -0.45494E+08         0.32637E+06         0.00000E+00
    0.32637E+06        -0.59963E+08         0.00000E+00
    0.00000E+00         0.00000E+00        -0.45623E+08
 
   -0.45591E+08         0.39296E+06         0.00000E+00
    0.39296E+06        -0.59926E+08         0.00000E+00
    0.00000E+00         0.00000E+00        -0.45635E+08
 
   -0.44148E+08        -0.78771E+04         0.00000E+00
   -0.78771E+04        -0.60001E+08         0.00000E+00
    0.00000E+00         0.00000E+00        -0.45295E+08
 
   -0.44296E+08        -0.20615E+05         0.00000E+00
   -0.20615E+05        -0.60005E+08         0.00000E+00
    0.00000E+00         0.00000E+00        -0.45325E+08
 
   -0.44429E+08        -0.28243E+05         0.00000E+00
   -0.28243E+05        -0.60012E+08         0.00000E+00
    0.00000E+00         0.00000E+00        -0.45353E+08
 
   -0.44548E+08        -0.29734E+05         0.00000E+00
   -0.29734E+05        -0.60020E+08         0.00000E+00
    0.00000E+00         0.00000E+00        -0.45379E+08
 
   -0.44656E+08        -0.24338E+05         0.00000E+00
   -0.24338E+05        -0.60030E+08         0.00000E+00
    0.00000E+00         0.00000E+00        -0.45402E+08
 
   -0.44755E+08        -0.11549E+05         0.00000E+00
   -0.11549E+05        -0.60040E+08         0.00000E+00
    0.00000E+00         0.00000E+00        -0.45424E+08
 
   -0.44846E+08         0.89196E+04         0.00000E+00
    0.89196E+04        -0.60048E+08         0.00000E+00
    0.00000E+00         0.00000E+00        -0.45444E+08
 
   -0.44932E+08         0.37168E+05         0.00000E+00
    0.37168E+05        -0.60054E+08         0.00000E+00
    0.00000E+00         0.00000E+00        -0.45462E+08
 
   -0.45014E+08         0.73133E+05         0.00000E+00
    0.73133E+05        -0.60057E+08         0.00000E+00
    0.00000E+00         0.00000E+00        -0.45479E+08
 
   -0.45094E+08         0.11661E+06         0.00000E+00
    0.11661E+06        -0.60055E+08         0.00000E+00
    0.00000E+00         0.00000E+00        -0.45495E+08
 
   -0.45174E+08         0.16730E+06         0.00000E+00
    0.16730E+06        -0.60049E+08         0.00000E+00
    0.00000E+00         0.00000E+00        -0.45510E+08
 
   -0.45255E+08         0.22477E+06         0.00000E+00
    0.22477E+06        -0.60036E+08         0.00000E+00
    0.00000E+00         0.00000E+00        -0.45523E+08
 
   -0.45339E+08         0.28856E+06         0.00000E+00
    0.28856E+06        -0.60017E+08         0.00000E+00
    0.00000E+00         0.00000E+00        -0.45536E+08
 
   -0.45426E+08         0.35811E+06         0.00000E+00
    0.35811E+06        -0.59990E+08         0.00000E+00
    0.00000E+00         0.00000E+00        -0.45548E+08
 
   -0.45518E+08         0.43285E+06         0.00000E+00
    0.43285E+06        -0.59955E+08         0.00000E+00
    0.00000E+00         0.00000E+00        -0.45560E+08
 
   -0.44165E+08        -0.10142E+05         0.00000E+00
   -0.10142E+05        -0.60001E+08         0.00000E+00
    0.00000E+00         0.00000E+00        -0.45225E+08
 
   -0.44308E+08        -0.26694E+05         0.00000E+00
   -0.26694E+05        -0.60006E+08         0.00000E+00
    0.00000E+00         0.00000E+00        -0.45255E+08
 
   -0.44435E+08        -0.37091E+05         0.00000E+00
   -0.37091E+05        -0.60014E+08         0.00000E+00
    0.00000E+00         0.00000E+00        -0.45281E+08
 
   -0.44547E+08        -0.40242E+05         0.00000E+00
   -0.40242E+05        -0.60025E+08         0.00000E+00
    0.00000E+00         0.00000E+00        -0.45306E+08
 
   -0.44647E+08        -0.35370E+05         0.00000E+00
   -0.35370E+05        -0.60037E+08         0.00000E+00
    0.00000E+00         0.00000E+00        -0.45329E+08
 
   -0.44738E+08        -0.21973E+05         0.00000E+00
   -0.21973E+05        -0.60048E+08         0.00000E+00
    0.00000E+00         0.00000E+00        -0.45349E+08
 
   -0.44821E+08         0.21317E+03         0.00000E+00
    0.21317E+03        -0.60059E+08         0.00000E+00
    0.00000E+00         0.00000E+00        -0.45368E+08
 
   -0.44898E+08         0.31246E+05         0.00000E+00
    0.31246E+05        -0.60068E+08         0.00000E+00
    0.00000E+00         0.00000E+00        -0.45385E+08
 
   -0.44972E+08         0.71012E+05         0.00000E+00
    0.71012E+05        -0.60073E+08         0.00000E+00
    0.00000E+00         0.00000E+00        -0.45401E+08
 
   -0.45044E+08         0.11925E+06         0.00000E+00
    0.11925E+06        -0.60075E+08         0.00000E+00
    0.00000E+00         0.00000E+00        -0.45416E+08
 
   -0.45117E+08         0.17557E+06         0.00000E+00
    0.17557E+06        -0.60070E+08         0.00000E+00
    0.00000E+00         0.00000E+00        -0.45429E+08
 
   -0.45191E+08         0.23949E+06         0.00000E+00
    0.23949E+06        -0.60060E+08         0.00000E+00
    0.00000E+00         0.00000E+00        -0.45442E+08
 
   -0.45268E+08         0.31043E+06         0.00000E+00
    0.31043E+06        -0.60043E+08         0.00000E+00
    0.00000E+00         0.00000E+00        -0.45454E+08
 
   -0.45350E+08         0.38775E+06         0.00000E+00
    0.38775E+06        -0.60019E+08         0.00000E+00
    0.00000E+00         0.00000E+00        -0.45465E+08
 
   -0.45437E+08         0.47076E+06         0.00000E+00
    0.47076E+06        -0.59986E+08         0.00000E+00
    0.00000E+00         0.00000E+00        -0.45476E+08
 
   -0.44187E+08        -0.12832E+05         0.00000E+00
   -0.12832E+05        -0.60001E+08         0.00000E+00
    0.00000E+00         0.00000E+00        -0.45149E+08
 
   -0.44324E+08        -0.33911E+05         0.00000E+00
   -0.33911E+05        -0.60007E+08         0.00000E+00
    0.00000E+00         0.00000E+00        -0.45177E+08
 
   -0.44443E+08        -0.47622E+05         0.00000E+00
   -0.47622E+05        -0.60016E+08         0.00000E+00
    0.00000E+00         0.00000E+00        -0.45203E+08
 
   -0.44547E+08        -0.52836E+05         0.00000E+00
   -0.52836E+05        -0.60029E+08         0.00000E+00
    0.00000E+00         0.00000E+00        -0.45226E+08
 
   -0.44638E+08        -0.48770E+05         0.00000E+00
   -0.48770E+05        -0.60043E+08         0.00000E+00
    0.00000E+00         0.00000E+00        -0.45247E+08
 
   -0.44719E+08        -0.34948E+05         0.00000E+00
   -0.34948E+05        -0.60058E+08         0.00000E+00
    0.00000E+00         0.00000E+00        -0.45266E+08
 
   -0.44793E+08        -0.11152E+05         0.00000E+00
   -0.11152E+05        -0.60071E+08         0.00000E+00
    0.00000E+00         0.00000E+00        -0.45284E+08
 
   -0.44861E+08         0.22618E+05         0.00000E+00
    0.22618E+05        -0.60083E+08         0.00000E+00
    0.00000E+00         0.00000E+00        -0.45300E+08
 
   -0.44926E+08         0.66184E+05         0.00000E+00
    0.66184E+05        -0.60091E+08         0.00000E+00
    0.00000E+00         0.00000E+00        -0.45314E+08
 
   -0.44989E+08         0.11921E+06         0.00000E+00
    0.11921E+06        -0.60095E+08         0.00000E+00
    0.00000E+00         0.00000E+00        -0.45328E+08
 
   -0.45054E+08         0.18124E+06         0.00000E+00
    0.18124E+06        -0.60093E+08         0.00000E+00
    0.00000E+00         0.00000E+00        -0.45340E+08
 
   -0.45120E+08         0.25169E+06         0.00000E+00
    0.25169E+06        -0.60086E+08         0.00000E+00
    0.00000E+00         0.00000E+00        -0.45352E+08
 
   -0.45190E+08         0.32991E+06         0.00000E+00
    0.32991E+06        -0.60071E+08         0.00000E+00
    0.00000E+00         0.00000E+00        -0.45363E+08
 
   -0.45266E+08         0.41513E+06         0.00000E+00
    0.41513E+06        -0.60049E+08         0.00000E+00
    0.00000E+00         0.00000E+00        -0.45374E+08
 
   -0.45347E+08         0.50654E+06         0.00000E+00
    0.50654E+06        -0.60019E+08         0.00000E+00
    0.00000E+00         0.00000E+00        -0.45384E+08
 
   -0.44214E+08        -0.15979E+05         0.00000E+00
   -0.15979E+05        -0.60002E+08         0.00000E+00
    0.00000E+00         0.00000E+00        -0.45066E+08
 
   -0.44344E+08        -0.42341E+05         0.00000E+00
   -0.42341E+05        -0.60008E+08         0.00000E+00
    0.00000E+00         0.00000E+00        -0.45093E+08
 
   -0.44454E+08        -0.59936E+05         0.00000E+00
   -0.59936E+05        -0.60019E+08         0.00000E+00
    0.00000E+00         0.00000E+00        -0.45118E+08
 
   -0.44549E+08        -0.67622E+05         0.00000E+00
   -0.67622E+05        -0.60034E+08         0.00000E+00
    0.00000E+00         0.00000E+00        -0.45139E+08
 
   -0.44630E+08        -0.64643E+05         0.00000E+00
   -0.64643E+05        -0.60050E+08         0.00000E+00
    0.00000E+00         0.00000E+00        -0.45159E+08
 
   -0.44700E+08        -0.50578E+05         0.00000E+00
   -0.50578E+05        -0.60067E+08         0.00000E+00
    0.00000E+00         0.00000E+00        -0.45176E+08
 
   -0.44763E+08        -0.25278E+05         0.00000E+00
   -0.25278E+05        -0.60084E+08         0.00000E+00
    0.00000E+00         0.00000E+00        -0.45192E+08
 
   -0.44821E+08         0.11181E+05         0.00000E+00
    0.11181E+05        -0.60098E+08         0.00000E+00
    0.00000E+00         0.00000E+00        -0.45207E+08
 
   -0.44875E+08         0.58537E+05         0.00000E+00
    0.58537E+05        -0.60109E+08         0.00000E+00
    0.00000E+00         0.00000E+00        -0.45220E+08
 
   -0.44929E+08         0.11638E+06         0.00000E+00
    0.11638E+06        -0.60116E+08         0.00000E+00
    0.00000E+00         0.00000E+00        -0.45232E+08
 
   -0.44984E+08         0.18417E+06         0.00000E+00
    0.18417E+06        -0.60117E+08         0.00000E+00
    0.00000E+00         0.00000E+00        -0.45243E+08
 
   -0.45042E+08         0.26124E+06         0.00000E+00
    0.26124E+06        -0.60112E+08         0.00000E+00
    0.00000E+00         0.00000E+00        -0.45254E+08
 
   -0.45105E+08         0.34684E+06         0.00000E+00
    0.34684E+06        -0.60100E+08         0.00000E+00
    0.00000E+00         0.00000E+00        -0.45264E+08
 
   -0.45173E+08         0.44010E+06         0.00000E+00
    0.44010E+06        -0.60081E+08         0.00000E+00
    0.00000E+00         0.00000E+00        -0.45274E+08
 
   -0.45248E+08         0.54007E+06         0.00000E+00
    0.54007E+06        -0.60053E+08         0.00000E+00
    0.00000E+00         0.00000E+00        -0.45283E+08
 
   -0.44248E+08        -0.19608E+05         0.00000E+00
   -0.19608E+05        -0.60002E+08         0.00000E+00
    0.00000E+00         0.00000E+00        -0.44977E+08
 
   -0.44368E+08        -0.52042E+05         0.00000E+00
   -0.52042E+05        -0.60009E+08         0.00000E+00
    0.00000E+00         0.00000E+00        -0.45003E+08
 
   -0.44469E+08        -0.74098E+05         0.00000E+00
   -0.74098E+05        -0.60022E+08         0.00000E+00
    0.00000E+00         0.00000E+00        -0.45026E+08
 
   -0.44552E+08        -0.84660E+05         0.00000E+00
   -0.84660E+05        -0.60038E+08         0.00000E+00
    0.00000E+00         0.00000E+00        -0.45045E+08
 
   -0.44621E+08        -0.83038E+05         0.00000E+00
   -0.83038E+05        -0.60057E+08         0.00000E+00
    0.00000E+00         0.00000E+00        -0.45063E+08
 
   -0.44680E+08        -0.68898E+05         0.00000E+00
   -0.68898E+05        -0.60077E+08         0.00000E+00
    0.00000E+00         0.00000E+00        -0.45079E+08
 
   -0.44731E+08        -0.42194E+05         0.00000E+00
   -0.42194E+05        -0.60096E+08         0.00000E+00
    0.00000E+00         0.00000E+00        -0.45093E+08
 
   -0.44777E+08        -0.31026E+04         0.00000E+00
   -0.31026E+04        -0.60113E+08         0.00000E+00
    0.00000E+00         0.00000E+00        -0.45105E+08
 
   -0.44821E+08         0.48022E+05         0.00000E+00
    0.48022E+05        -0.60127E+08         0.00000E+00
    0.00000E+00         0.00000E+00        -0.45117E+08
 
   -0.44864E+08         0.11068E+06         0.00000E+00
    0.11068E+06        -0.60137E+08         0.00000E+00
    0.00000E+00         0.00000E+00        -0.45127E+08
 
   -0.44909E+08         0.18426E+06         0.00000E+00
    0.18426E+06        -0.60141E+08         0.00000E+00
    0.00000E+00         0.00000E+00        -0.45137E+08
 
   -0.44957E+08         0.26801E+06         0.00000E+00
    0.26801E+06        -0.60139E+08         0.00000E+00
    0.00000E+00         0.00000E+00        -0.45147E+08
 
   -0.45011E+08         0.36109E+06         0.00000E+00
    0.36109E+06        -0.60130E+08         0.00000E+00
    0.00000E+00         0.00000E+00        -0.45156E+08
 
   -0.45072E+08         0.46251E+06         0.00000E+00
    0.46251E+06        -0.60113E+08         0.00000E+00
    0.00000E+00         0.00000E+00        -0.45164E+08
 
   -0.45141E+08         0.57120E+06         0.00000E+00
    0.57120E+06        -0.60087E+08         0.00000E+00
    0.00000E+00         0.00000E+00        -0.45173E+08
 
   -0.44289E+08        -0.23739E+05         0.00000E+00
   -0.23739E+05        -0.60002E+08         0.00000E+00
    0.00000E+00         0.00000E+00        -0.44883E+08
 
   -0.44399E+08        -0.63046E+05         0.00000E+00
   -0.63046E+05        -0.60010E+08         0.00000E+00
    0.00000E+00         0.00000E+00        -0.44906E+08
 
   -0.44487E+08        -0.90130E+05         0.00000E+00
   -0.90130E+05        -0.60024E+08         0.00000E+00
    0.00000E+00         0.00000E+00        -0.44927E+08
 
   -0.44558E+08        -0.10395E+06         0.00000E+00
   -0.10395E+06        -0.60043E+08         0.00000E+00
    0.00000E+00         0.00000E+00        -0.44945E+08
 
   -0.44614E+08        -0.10392E+06         0.00000E+00
   -0.10392E+06        -0.60065E+08         0.00000E+00
    0.00000E+00         0.00000E+00        -0.44960E+08
 
   -0.44659E+08        -0.89860E+05         0.00000E+00
   -0.89860E+05        -0.60087E+08         0.00000E+00
    0.00000E+00         0.00000E+00        -0.44974E+08
 
   -0.44697E+08        -0.61842E+05         0.00000E+00
   -0.61842E+05        -0.60108E+08         0.00000E+00
    0.00000E+00         0.00000E+00        -0.44986E+08
 
   -0.44730E+08        -0.20179E+05         0.00000E+00
   -0.20179E+05        -0.60128E+08         0.00000E+00
    0.00000E+00         0.00000E+00        -0.44996E+08
 
   -0.44761E+08         0.34668E+05         0.00000E+00
    0.34668E+05        -0.60145E+08         0.00000E+00
    0.00000E+00         0.00000E+00        -0.45006E+08
 
   -0.44793E+08         0.10211E+06         0.00000E+00
    0.10211E+06        -0.60157E+08         0.00000E+00
    0.00000E+00         0.00000E+00        -0.45015E+08
 
   -0.44827E+08         0.18146E+06         0.00000E+00
    0.18146E+06        -0.60164E+08         0.00000E+00
    0.00000E+00         0.00000E+00        -0.45023E+08
 
   -0.44865E+08         0.27190E+06         0.00000E+00
    0.27190E+06        -0.60165E+08         0.00000E+00
    0.00000E+00         0.00000E+00        -0.45031E+08
 
   -0.44910E+08         0.37252E+06         0.00000E+00
    0.37252E+06        -0.60159E+08         0.00000E+00
    0.00000E+00         0.00000E+00        -0.45038E+08
 
   -0.44963E+08         0.48223E+06         0.00000E+00
    0.48223E+06        -0.60145E+08         0.00000E+00
    0.00000E+00         0.00000E+00        -0.45046E+08
 
   -0.45024E+08         0.59981E+06         0.00000E+00
    0.59981E+06        -0.60122E+08         0.00000E+00
    0.00000E+00         0.00000E+00        -0.45054E+08
 
   -0.44338E+08        -0.28381E+05         0.00000E+00
   -0.28381E+05        -0.60002E+08         0.00000E+00
    0.00000E+00         0.00000E+00        -0.44782E+08
 
   -0.44435E+08        -0.75354E+05         0.00000E+00
   -0.75354E+05        -0.60011E+08         0.00000E+00
    0.00000E+00         0.00000E+00        -0.44804E+08
 
   -0.44510E+08        -0.10800E+06         0.00000E+00
   -0.10800E+06        -0.60027E+08         0.00000E+00
    0.00000E+00         0.00000E+00        -0.44822E+08
 
   -0.44566E+08        -0.12541E+06         0.00000E+00
   -0.12541E+06        -0.60048E+08         0.00000E+00
    0.00000E+00         0.00000E+00        -0.44837E+08
 
   -0.44607E+08        -0.12718E+06         0.00000E+00
   -0.12718E+06        -0.60071E+08         0.00000E+00
    0.00000E+00         0.00000E+00        -0.44850E+08
 
   -0.44638E+08        -0.11330E+06         0.00000E+00
   -0.11330E+06        -0.60096E+08         0.00000E+00
    0.00000E+00         0.00000E+00        -0.44861E+08
 
   -0.44661E+08        -0.84048E+05         0.00000E+00
   -0.84048E+05        -0.60120E+08         0.00000E+00
    0.00000E+00         0.00000E+00        -0.44871E+08
 
   -0.44681E+08        -0.39884E+05         0.00000E+00
   -0.39884E+05        -0.60142E+08         0.00000E+00
    0.00000E+00         0.00000E+00        -0.44879E+08
 
   -0.44698E+08         0.18602E+05         0.00000E+00
    0.18602E+05        -0.60161E+08         0.00000E+00
    0.00000E+00         0.00000E+00        -0.44886E+08
 
   -0.44717E+08         0.90738E+05         0.00000E+00
    0.90738E+05        -0.60176E+08         0.00000E+00
    0.00000E+00         0.00000E+00        -0.44893E+08
 
   -0.44739E+08         0.17577E+06         0.00000E+00
    0.17577E+06        -0.60186E+08         0.00000E+00
    0.00000E+00         0.00000E+00        -0.44899E+08
 
   -0.44766E+08         0.27285E+06         0.00000E+00
    0.27285E+06        -0.60190E+08         0.00000E+00
    0.00000E+00         0.00000E+00        -0.44905E+08
 
   -0.44801E+08         0.38101E+06         0.00000E+00
    0.38101E+06        -0.60187E+08         0.00000E+00
    0.00000E+00         0.00000E+00        -0.44912E+08
 
   -0.44844E+08         0.49908E+06         0.00000E+00
    0.49908E+06        -0.60176E+08         0.00000E+00
    0.00000E+00         0.00000E+00        -0.44918E+08
 
   -0.44899E+08         0.62573E+06         0.00000E+00
    0.62573E+06        -0.60156E+08         0.00000E+00
    0.00000E+00         0.00000E+00        -0.44925E+08
 
   -0.44396E+08        -0.33530E+05         0.00000E+00
   -0.33530E+05        -0.60002E+08         0.00000E+00
    0.00000E+00         0.00000E+00        -0.44676E+08
 
   -0.44479E+08        -0.88926E+05         0.00000E+00
   -0.88926E+05        -0.60012E+08         0.00000E+00
    0.00000E+00         0.00000E+00        -0.44695E+08
 
   -0.44538E+08        -0.12761E+06         0.00000E+00
   -0.12761E+06        -0.60030E+08         0.00000E+00
    0.00000E+00         0.00000E+00        -0.44710E+08
 
   -0.44577E+08        -0.14886E+06         0.00000E+00
   -0.14886E+06        -0.60052E+08         0.00000E+00
    0.00000E+00         0.00000E+00        -0.44722E+08
 
   -0.44602E+08        -0.15255E+06         0.00000E+00
   -0.15255E+06        -0.60078E+08         0.00000E+00
    0.00000E+00         0.00000E+00        -0.44733E+08
 
   -0.44616E+08        -0.13892E+06         0.00000E+00
   -0.13892E+06        -0.60104E+08         0.00000E+00
    0.00000E+00         0.00000E+00        -0.44741E+08
 
   -0.44624E+08        -0.10849E+06         0.00000E+00
   -0.10849E+06        -0.60130E+08         0.00000E+00
    0.00000E+00         0.00000E+00        -0.44747E+08
 
   -0.44628E+08        -0.61916E+05         0.00000E+00
   -0.61916E+05        -0.60154E+08         0.00000E+00
    0.00000E+00         0.00000E+00        -0.44753E+08
 
   -0.44631E+08         0.75947E+02         0.00000E+00
    0.75947E+02        -0.60176E+08         0.00000E+00
    0.00000E+00         0.00000E+00        -0.44758E+08
 
   -0.44635E+08         0.76730E+05         0.00000E+00
    0.76730E+05        -0.60193E+08         0.00000E+00
    0.00000E+00         0.00000E+00        -0.44762E+08
 
   -0.44644E+08         0.16726E+06         0.00000E+00
    0.16726E+06        -0.60206E+08         0.00000E+00
    0.00000E+00         0.00000E+00        -0.44767E+08
 
   -0.44660E+08         0.27082E+06         0.00000E+00
    0.27082E+06        -0.60212E+08         0.00000E+00
    0.00000E+00         0.00000E+00        -0.44771E+08
 
   -0.44683E+08         0.38643E+06         0.00000E+00
    0.38643E+06        -0.60212E+08         0.00000E+00
    0.00000E+00         0.00000E+00        -0.44776E+08
 
   -0.44717E+08         0.51290E+06         0.00000E+00
    0.51290E+06        -0.60204E+08         0.00000E+00
    0.00000E+00         0.00000E+00        -0.44781E+08
 
   -0.44764E+08         0.64878E+06         0.00000E+00
    0.64878E+06        -0.60187E+08         0.00000E+00
    0.00000E+00         0.00000E+00        -0.44787E+08
 
   -0.44465E+08        -0.39168E+05         0.00000E+00
   -0.39168E+05        -0.60003E+08         0.00000E+00
    0.00000E+00         0.00000E+00        -0.44565E+08
 
   -0.44530E+08        -0.10368E+06         0.00000E+00
   -0.10368E+06        -0.60013E+08         0.00000E+00
    0.00000E+00         0.00000E+00        -0.44580E+08
 
   -0.44570E+08        -0.14876E+06         0.00000E+00
   -0.14876E+06        -0.60032E+08         0.00000E+00
    0.00000E+00         0.00000E+00        -0.44592E+08
 
   -0.44591E+08        -0.17401E+06         0.00000E+00
   -0.17401E+06        -0.60056E+08         0.00000E+00
    0.00000E+00         0.00000E+00        -0.44601E+08
 
   -0.44597E+08        -0.17964E+06         0.00000E+00
   -0.17964E+06        -0.60083E+08         0.00000E+00
    0.00000E+00         0.00000E+00        -0.44608E+08
 
   -0.44594E+08        -0.16625E+06         0.00000E+00
   -0.16625E+06        -0.60111E+08         0.00000E+00
    0.00000E+00         0.00000E+00        -0.44612E+08
 
   -0.44584E+08        -0.13467E+06         0.00000E+00
   -0.13467E+06        -0.60138E+08         0.00000E+00
    0.00000E+00         0.00000E+00        -0.44616E+08
 
   -0.44572E+08        -0.85797E+05         0.00000E+00
   -0.85797E+05        -0.60164E+08         0.00000E+00
    0.00000E+00         0.00000E+00        -0.44619E+08
 
   -0.44559E+08        -0.20510E+05         0.00000E+00
   -0.20510E+05        -0.60187E+08         0.00000E+00
    0.00000E+00         0.00000E+00        -0.44621E+08
 
   -0.44549E+08         0.60371E+05         0.00000E+00
    0.60371E+05        -0.60206E+08         0.00000E+00
    0.00000E+00         0.00000E+00        -0.44623E+08
 
   -0.44544E+08         0.15608E+06         0.00000E+00
    0.15608E+06        -0.60221E+08         0.00000E+00
    0.00000E+00         0.00000E+00        -0.44625E+08
 
   -0.44547E+08         0.26581E+06         0.00000E+00
    0.26581E+06        -0.60231E+08         0.00000E+00
    0.00000E+00         0.00000E+00        -0.44627E+08
 
   -0.44558E+08         0.38865E+06         0.00000E+00
    0.38865E+06        -0.60234E+08         0.00000E+00
    0.00000E+00         0.00000E+00        -0.44630E+08
 
   -0.44582E+08         0.52346E+06         0.00000E+00
    0.52346E+06        -0.60229E+08         0.00000E+00
    0.00000E+00         0.00000E+00        -0.44634E+08
 
   -0.44619E+08         0.66871E+06         0.00000E+00
    0.66871E+06        -0.60215E+08         0.00000E+00
    0.00000E+00         0.00000E+00        -0.44638E+08
 
   -0.44544E+08        -0.45260E+05         0.00000E+00
   -0.45260E+05        -0.60003E+08         0.00000E+00
    0.00000E+00         0.00000E+00        -0.44449E+08
 
   -0.44589E+08        -0.11946E+06         0.00000E+00
   -0.11946E+06        -0.60014E+08         0.00000E+00
    0.00000E+00         0.00000E+00        -0.44460E+08
 
   -0.44608E+08        -0.17116E+06         0.00000E+00
   -0.17116E+06        -0.60034E+08         0.00000E+00
    0.00000E+00         0.00000E+00        -0.44467E+08
 
   -0.44608E+08        -0.20039E+06         0.00000E+00
   -0.20039E+06        -0.60059E+08         0.00000E+00
    0.00000E+00         0.00000E+00        -0.44472E+08
 
   -0.44594E+08        -0.20784E+06         0.00000E+00
   -0.20784E+06        -0.60086E+08         0.00000E+00
    0.00000E+00         0.00000E+00        -0.44475E+08
 
   -0.44571E+08        -0.19459E+06         0.00000E+00
   -0.19459E+06        -0.60115E+08         0.00000E+00
    0.00000E+00         0.00000E+00        -0.44476E+08
 
   -0.44543E+08        -0.16185E+06         0.00000E+00
   -0.16185E+06        -0.60143E+08         0.00000E+00
    0.00000E+00         0.00000E+00        -0.44476E+08
 
   -0.44513E+08        -0.11084E+06         0.00000E+00
   -0.11084E+06        -0.60169E+08         0.00000E+00
    0.00000E+00         0.00000E+00        -0.44476E+08
 
   -0.44484E+08        -0.42573E+05         0.00000E+00
   -0.42573E+05        -0.60193E+08         0.00000E+00
    0.00000E+00         0.00000E+00        -0.44475E+08
 
   -0.44459E+08         0.42084E+05         0.00000E+00
    0.42084E+05        -0.60214E+08         0.00000E+00
    0.00000E+00         0.00000E+00        -0.44474E+08
 
   -0.44439E+08         0.14243E+06         0.00000E+00
    0.14243E+06        -0.60231E+08         0.00000E+00
    0.00000E+00         0.00000E+00        -0.44473E+08
 
   -0.44427E+08         0.25782E+06         0.00000E+00
    0.25782E+06        -0.60243E+08         0.00000E+00
    0.00000E+00         0.00000E+00        -0.44473E+08
 
   -0.44425E+08         0.38751E+06         0.00000E+00
    0.38751E+06        -0.60249E+08         0.00000E+00
    0.00000E+00         0.00000E+00        -0.44474E+08
 
   -0.44437E+08         0.53045E+06         0.00000E+00
    0.53045E+06        -0.60248E+08         0.00000E+00
    0.00000E+00         0.00000E+00        -0.44476E+08
 
   -0.44464E+08         0.68517E+06         0.00000E+00
    0.68517E+06        -0.60239E+08         0.00000E+00
    0.00000E+00         0.00000E+00        -0.44480E+08
 
   -0.44635E+08        -0.51753E+05         0.00000E+00
   -0.51753E+05        -0.60003E+08         0.00000E+00
    0.00000E+00         0.00000E+00        -0.44327E+08
 
   -0.44656E+08        -0.13606E+06         0.00000E+00
   -0.13606E+06        -0.60015E+08         0.00000E+00
    0.00000E+00         0.00000E+00        -0.44333E+08
 
   -0.44651E+08        -0.19438E+06         0.00000E+00
   -0.19438E+06        -0.60035E+08         0.00000E+00
    0.00000E+00         0.00000E+00        -0.44336E+08
 
   -0.44627E+08        -0.22735E+06         0.00000E+00
   -0.22735E+06        -0.60060E+08         0.00000E+00
    0.00000E+00         0.00000E+00        -0.44337E+08
 
   -0.44591E+08        -0.23631E+06         0.00000E+00
   -0.23631E+06        -0.60088E+08         0.00000E+00
    0.00000E+00         0.00000E+00        -0.44335E+08
 
   -0.44548E+08        -0.22296E+06         0.00000E+00
   -0.22296E+06        -0.60116E+08         0.00000E+00
    0.00000E+00         0.00000E+00        -0.44332E+08
 
   -0.44500E+08        -0.18904E+06         0.00000E+00
   -0.18904E+06        -0.60144E+08         0.00000E+00
    0.00000E+00         0.00000E+00        -0.44328E+08
 
   -0.44452E+08        -0.13609E+06         0.00000E+00
   -0.13609E+06        -0.60169E+08         0.00000E+00
    0.00000E+00         0.00000E+00        -0.44324E+08
 
   -0.44407E+08        -0.65309E+05         0.00000E+00
   -0.65309E+05        -0.60193E+08         0.00000E+00
    0.00000E+00         0.00000E+00        -0.44319E+08
 
   -0.44365E+08         0.22448E+05         0.00000E+00
    0.22448E+05        -0.60215E+08         0.00000E+00
    0.00000E+00         0.00000E+00        -0.44315E+08
 
   -0.44329E+08         0.12665E+06         0.00000E+00
    0.12665E+06        -0.60233E+08         0.00000E+00
    0.00000E+00         0.00000E+00        -0.44312E+08
 
   -0.44302E+08         0.24690E+06         0.00000E+00
    0.24690E+06        -0.60248E+08         0.00000E+00
    0.00000E+00         0.00000E+00        -0.44309E+08
 
   -0.44286E+08         0.38276E+06         0.00000E+00
    0.38276E+06        -0.60257E+08         0.00000E+00
    0.00000E+00         0.00000E+00        -0.44308E+08
 
   -0.44284E+08         0.53347E+06         0.00000E+00
    0.53347E+06        -0.60260E+08         0.00000E+00
    0.00000E+00         0.00000E+00        -0.44308E+08
 
   -0.44299E+08         0.69767E+06         0.00000E+00
    0.69767E+06        -0.60255E+08         0.00000E+00
    0.00000E+00         0.00000E+00        -0.44310E+08
 
   -0.44739E+08        -0.58573E+05         0.00000E+00
   -0.58573E+05        -0.60003E+08         0.00000E+00
    0.00000E+00         0.00000E+00        -0.44200E+08
 
   -0.44732E+08        -0.15317E+06         0.00000E+00
   -0.15317E+06        -0.60015E+08         0.00000E+00
    0.00000E+00         0.00000E+00        -0.44201E+08
 
   -0.44699E+08        -0.21783E+06         0.00000E+00
   -0.21783E+06        -0.60036E+08         0.00000E+00
    0.00000E+00         0.00000E+00        -0.44199E+08
 
   -0.44649E+08        -0.25399E+06         0.00000E+00
   -0.25399E+06        -0.60061E+08         0.00000E+00
    0.00000E+00         0.00000E+00        -0.44194E+08
 
   -0.44589E+08        -0.26389E+06         0.00000E+00
   -0.26389E+06        -0.60087E+08         0.00000E+00
    0.00000E+00         0.00000E+00        -0.44187E+08
 
   -0.44523E+08        -0.25006E+06         0.00000E+00
   -0.25006E+06        -0.60113E+08         0.00000E+00
    0.00000E+00         0.00000E+00        -0.44179E+08
 
   -0.44456E+08        -0.21488E+06         0.00000E+00
   -0.21488E+06        -0.60138E+08         0.00000E+00
    0.00000E+00         0.00000E+00        -0.44171E+08
 
   -0.44390E+08        -0.16029E+06         0.00000E+00
   -0.16029E+06        -0.60162E+08         0.00000E+00
    0.00000E+00         0.00000E+00        -0.44162E+08
 
   -0.44326E+08        -0.87667E+05         0.00000E+00
   -0.87667E+05        -0.60185E+08         0.00000E+00
    0.00000E+00         0.00000E+00        -0.44154E+08
 
   -0.44267E+08         0.22282E+04         0.00000E+00
    0.22282E+04        -0.60206E+08         0.00000E+00
    0.00000E+00         0.00000E+00        -0.44146E+08
 
   -0.44215E+08         0.10913E+06         0.00000E+00
    0.10913E+06        -0.60225E+08         0.00000E+00
    0.00000E+00         0.00000E+00        -0.44140E+08
 
   -0.44171E+08         0.23307E+06         0.00000E+00
    0.23307E+06        -0.60242E+08         0.00000E+00
    0.00000E+00         0.00000E+00        -0.44134E+08
 
   -0.44139E+08         0.37409E+06         0.00000E+00
    0.37409E+06        -0.60255E+08         0.00000E+00
    0.00000E+00         0.00000E+00        -0.44131E+08
 
   -0.44122E+08         0.53191E+06         0.00000E+00
    0.53191E+06        -0.60262E+08         0.00000E+00
    0.00000E+00         0.00000E+00        -0.44129E+08
 
   -0.44123E+08         0.70549E+06         0.00000E+00
    0.70549E+06        -0.60262E+08         0.00000E+00
    0.00000E+00         0.00000E+00        -0.44129E+08
 
   -0.44855E+08        -0.65623E+05         0.00000E+00
   -0.65623E+05        -0.60003E+08         0.00000E+00
    0.00000E+00         0.00000E+00        -0.44069E+08
 
   -0.44815E+08        -0.17039E+06         0.00000E+00
   -0.17039E+06        -0.60016E+08         0.00000E+00
    0.00000E+00         0.00000E+00        -0.44063E+08
 
   -0.44751E+08        -0.24068E+06         0.00000E+00
   -0.24068E+06        -0.60035E+08         0.00000E+00
    0.00000E+00         0.00000E+00        -0.44054E+08
 
   -0.44672E+08        -0.27908E+06         0.00000E+00
   -0.27908E+06        -0.60058E+08         0.00000E+00
    0.00000E+00         0.00000E+00        -0.44043E+08
 
   -0.44586E+08        -0.28905E+06         0.00000E+00
   -0.28905E+06        -0.60082E+08         0.00000E+00
    0.00000E+00         0.00000E+00        -0.44031E+08
 
   -0.44498E+08        -0.27418E+06         0.00000E+00
   -0.27418E+06        -0.60104E+08         0.00000E+00
    0.00000E+00         0.00000E+00        -0.44018E+08
 
   -0.44410E+08        -0.23765E+06         0.00000E+00
   -0.23765E+06        -0.60126E+08         0.00000E+00
    0.00000E+00         0.00000E+00        -0.44004E+08
 
   -0.44325E+08        -0.18187E+06         0.00000E+00
   -0.18187E+06        -0.60146E+08         0.00000E+00
    0.00000E+00         0.00000E+00        -0.43991E+08
 
   -0.44244E+08        -0.10832E+06         0.00000E+00
   -0.10832E+06        -0.60165E+08         0.00000E+00
    0.00000E+00         0.00000E+00        -0.43979E+08
 
   -0.44168E+08        -0.17615E+05         0.00000E+00
   -0.17615E+05        -0.60184E+08         0.00000E+00
    0.00000E+00         0.00000E+00        -0.43968E+08
 
   -0.44099E+08         0.90391E+05         0.00000E+00
    0.90391E+05        -0.60203E+08         0.00000E+00
    0.00000E+00         0.00000E+00        -0.43957E+08
 
   -0.44037E+08         0.21636E+06         0.00000E+00
    0.21636E+06        -0.60222E+08         0.00000E+00
    0.00000E+00         0.00000E+00        -0.43949E+08
 
   -0.43987E+08         0.36107E+06         0.00000E+00
    0.36107E+06        -0.60239E+08         0.00000E+00
    0.00000E+00         0.00000E+00        -0.43942E+08
 
   -0.43952E+08         0.52498E+06         0.00000E+00
    0.52498E+06        -0.60252E+08         0.00000E+00
    0.00000E+00         0.00000E+00        -0.43938E+08
 
   -0.43937E+08         0.70762E+06         0.00000E+00
    0.70762E+06        -0.60257E+08         0.00000E+00
    0.00000E+00         0.00000E+00        -0.43936E+08
 
   -0.44984E+08        -0.72785E+05         0.00000E+00
   -0.72785E+05        -0.60003E+08         0.00000E+00
    0.00000E+00         0.00000E+00        -0.43932E+08
 
   -0.44906E+08        -0.18718E+06         0.00000E+00
   -0.18718E+06        -0.60015E+08         0.00000E+00
    0.00000E+00         0.00000E+00        -0.43919E+08
 
   -0.44806E+08        -0.26185E+06         0.00000E+00
   -0.26185E+06        -0.60033E+08         0.00000E+00
    0.00000E+00         0.00000E+00        -0.43903E+08
 
   -0.44696E+08        -0.30099E+06         0.00000E+00
   -0.30099E+06        -0.60053E+08         0.00000E+00
    0.00000E+00         0.00000E+00        -0.43885E+08
 
   -0.44583E+08        -0.30976E+06         0.00000E+00
   -0.30976E+06        -0.60072E+08         0.00000E+00
    0.00000E+00         0.00000E+00        -0.43866E+08
 
   -0.44471E+08        -0.29313E+06         0.00000E+00
   -0.29313E+06        -0.60088E+08         0.00000E+00
    0.00000E+00         0.00000E+00        -0.43847E+08
 
   -0.44363E+08        -0.25521E+06         0.00000E+00
   -0.25521E+06        -0.60103E+08         0.00000E+00
    0.00000E+00         0.00000E+00        -0.43828E+08
 
   -0.44260E+08        -0.19886E+06         0.00000E+00
   -0.19886E+06        -0.60117E+08         0.00000E+00
    0.00000E+00         0.00000E+00        -0.43810E+08
 
   -0.44163E+08        -0.12565E+06         0.00000E+00
   -0.12565E+06        -0.60131E+08         0.00000E+00
    0.00000E+00         0.00000E+00        -0.43794E+08
 
   -0.44070E+08        -0.35915E+05         0.00000E+00
   -0.35915E+05        -0.60147E+08         0.00000E+00
    0.00000E+00         0.00000E+00        -0.43778E+08
 
   -0.43982E+08         0.71057E+05         0.00000E+00
    0.71057E+05        -0.60165E+08         0.00000E+00
    0.00000E+00         0.00000E+00        -0.43764E+08
 
   -0.43902E+08         0.19676E+06         0.00000E+00
    0.19676E+06        -0.60186E+08         0.00000E+00
    0.00000E+00         0.00000E+00        -0.43752E+08
 
   -0.43831E+08         0.34306E+06         0.00000E+00
    0.34306E+06        -0.60207E+08         0.00000E+00
    0.00000E+00         0.00000E+00        -0.43742E+08
 
   -0.43775E+08         0.51153E+06         0.00000E+00
    0.51153E+06        -0.60226E+08         0.00000E+00
    0.00000E+00         0.00000E+00        -0.43735E+08
 
   -0.43741E+08         0.70265E+06         0.00000E+00
    0.70265E+06        -0.60239E+08         0.00000E+00
    0.00000E+00         0.00000E+00        -0.43731E+08
 
   -0.45125E+08        -0.79911E+05         0.00000E+00
   -0.79911E+05        -0.60003E+08         0.00000E+00
    0.00000E+00         0.00000E+00        -0.43791E+08
 
   -0.45002E+08        -0.20279E+06         0.00000E+00
   -0.20279E+06        -0.60014E+08         0.00000E+00
    0.00000E+00         0.00000E+00        -0.43768E+08
 
   -0.44863E+08        -0.27977E+06         0.00000E+00
   -0.27977E+06        -0.60030E+08         0.00000E+00
    0.00000E+00         0.00000E+00        -0.43744E+08
 
   -0.44718E+08        -0.31748E+06         0.00000E+00
   -0.31748E+06        -0.60044E+08         0.00000E+00
    0.00000E+00         0.00000E+00        -0.43717E+08
 
   -0.44577E+08        -0.32338E+06         0.00000E+00
   -0.32338E+06        -0.60055E+08         0.00000E+00
    0.00000E+00         0.00000E+00        -0.43691E+08
 
   -0.44442E+08        -0.30418E+06         0.00000E+00
   -0.30418E+06        -0.60062E+08         0.00000E+00
    0.00000E+00         0.00000E+00        -0.43666E+08
 
   -0.44316E+08        -0.26498E+06         0.00000E+00
   -0.26498E+06        -0.60067E+08         0.00000E+00
    0.00000E+00         0.00000E+00        -0.43642E+08
 
   -0.44196E+08        -0.20901E+06         0.00000E+00
   -0.20901E+06        -0.60073E+08         0.00000E+00
    0.00000E+00         0.00000E+00        -0.43619E+08
 
   -0.44082E+08        -0.13780E+06         0.00000E+00
   -0.13780E+06        -0.60080E+08         0.00000E+00
    0.00000E+00         0.00000E+00        -0.43597E+08
 
   -0.43973E+08        -0.51316E+05         0.00000E+00
   -0.51316E+05        -0.60091E+08         0.00000E+00
    0.00000E+00         0.00000E+00        -0.43578E+08
 
   -0.43868E+08         0.51861E+05         0.00000E+00
    0.51861E+05        -0.60107E+08         0.00000E+00
    0.00000E+00         0.00000E+00        -0.43560E+08
 
   -0.43767E+08         0.17428E+06         0.00000E+00
    0.17428E+06        -0.60128E+08         0.00000E+00
    0.00000E+00         0.00000E+00        -0.43544E+08
 
   -0.43674E+08         0.31924E+06         0.00000E+00
    0.31924E+06        -0.60154E+08         0.00000E+00
    0.00000E+00         0.00000E+00        -0.43531E+08
 
   -0.43593E+08         0.48999E+06         0.00000E+00
    0.48999E+06        -0.60181E+08         0.00000E+00
    0.00000E+00         0.00000E+00        -0.43520E+08
 
   -0.43533E+08         0.68857E+06         0.00000E+00
    0.68857E+06        -0.60204E+08         0.00000E+00
    0.00000E+00         0.00000E+00        -0.43513E+08
 
   -0.45279E+08        -0.86812E+05         0.00000E+00
   -0.86812E+05        -0.60003E+08         0.00000E+00
    0.00000E+00         0.00000E+00        -0.43644E+08
 
   -0.45103E+08        -0.21614E+06         0.00000E+00
   -0.21614E+06        -0.60013E+08         0.00000E+00
    0.00000E+00         0.00000E+00        -0.43611E+08
 
   -0.44918E+08        -0.29223E+06         0.00000E+00
   -0.29223E+06        -0.60023E+08         0.00000E+00
    0.00000E+00         0.00000E+00        -0.43576E+08
 
   -0.44736E+08        -0.32547E+06         0.00000E+00
   -0.32547E+06        -0.60028E+08         0.00000E+00
    0.00000E+00         0.00000E+00        -0.43541E+08
 
   -0.44567E+08        -0.32654E+06         0.00000E+00
   -0.32654E+06        -0.60028E+08         0.00000E+00
    0.00000E+00         0.00000E+00        -0.43507E+08
 
   -0.44411E+08        -0.30410E+06         0.00000E+00
   -0.30410E+06        -0.60022E+08         0.00000E+00
    0.00000E+00         0.00000E+00        -0.43475E+08
 
   -0.44268E+08        -0.26410E+06         0.00000E+00
   -0.26410E+06        -0.60015E+08         0.00000E+00
    0.00000E+00         0.00000E+00        -0.43444E+08
 
   -0.44134E+08        -0.20990E+06         0.00000E+00
   -0.20990E+06        -0.60009E+08         0.00000E+00
    0.00000E+00         0.00000E+00        -0.43416E+08
 
   -0.44006E+08        -0.14280E+06         0.00000E+00
   -0.14280E+06        -0.60007E+08         0.00000E+00
    0.00000E+00         0.00000E+00        -0.43390E+08
 
   -0.43882E+08        -0.62311E+05         0.00000E+00
   -0.62311E+05        -0.60011E+08         0.00000E+00
    0.00000E+00         0.00000E+00        -0.43366E+08
 
   -0.43759E+08         0.33688E+05         0.00000E+00
    0.33688E+05        -0.60024E+08         0.00000E+00
    0.00000E+00         0.00000E+00        -0.43344E+08
 
   -0.43637E+08         0.14894E+06         0.00000E+00
    0.14894E+06        -0.60046E+08         0.00000E+00
    0.00000E+00         0.00000E+00        -0.43324E+08
 
   -0.43518E+08         0.28857E+06         0.00000E+00
    0.28857E+06        -0.60077E+08         0.00000E+00
    0.00000E+00         0.00000E+00        -0.43307E+08
 
   -0.43407E+08         0.45827E+06         0.00000E+00
    0.45827E+06        -0.60113E+08         0.00000E+00
    0.00000E+00         0.00000E+00        -0.43292E+08
 
   -0.43316E+08         0.66260E+06         0.00000E+00
    0.66260E+06        -0.60149E+08         0.00000E+00
    0.00000E+00         0.00000E+00        -0.43281E+08
 
   -0.45442E+08        -0.93220E+05         0.00000E+00
   -0.93220E+05        -0.60003E+08         0.00000E+00
    0.00000E+00         0.00000E+00        -0.43492E+08
 
   -0.45204E+08        -0.22546E+06         0.00000E+00
   -0.22546E+06        -0.60009E+08         0.00000E+00
    0.00000E+00         0.00000E+00        -0.43446E+08
 
   -0.44967E+08        -0.29579E+06         0.00000E+00
   -0.29579E+06        -0.60011E+08         0.00000E+00
    0.00000E+00         0.00000E+00        -0.43399E+08
 
   -0.44749E+08        -0.32069E+06         0.00000E+00
   -0.32069E+06        -0.60003E+08         0.00000E+00
    0.00000E+00         0.00000E+00        -0.43354E+08
 
   -0.44553E+08        -0.31505E+06         0.00000E+00
   -0.31505E+06        -0.59986E+08         0.00000E+00
    0.00000E+00         0.00000E+00        -0.43311E+08
 
   -0.44379E+08        -0.28933E+06         0.00000E+00
   -0.28933E+06        -0.59964E+08         0.00000E+00
    0.00000E+00         0.00000E+00        -0.43272E+08
 
   -0.44221E+08        -0.24971E+06         0.00000E+00
   -0.24971E+06        -0.59941E+08         0.00000E+00
    0.00000E+00         0.00000E+00        -0.43236E+08
 
   -0.44076E+08        -0.19923E+06         0.00000E+00
   -0.19923E+06        -0.59922E+08         0.00000E+00
    0.00000E+00         0.00000E+00        -0.43203E+08
 
   -0.43936E+08        -0.13874E+06         0.00000E+00
   -0.13874E+06        -0.59908E+08         0.00000E+00
    0.00000E+00         0.00000E+00        -0.43172E+08
 
   -0.43799E+08        -0.67354E+05         0.00000E+00
   -0.67354E+05        -0.59904E+08         0.00000E+00
    0.00000E+00         0.00000E+00        -0.43144E+08
 
   -0.43660E+08         0.17620E+05         0.00000E+00
    0.17620E+05        -0.59912E+08         0.00000E+00
    0.00000E+00         0.00000E+00        -0.43118E+08
 
   -0.43516E+08         0.12096E+06         0.00000E+00
    0.12096E+06        -0.59934E+08         0.00000E+00
    0.00000E+00         0.00000E+00        -0.43093E+08
 
   -0.43368E+08         0.24990E+06         0.00000E+00
    0.24990E+06        -0.59970E+08         0.00000E+00
    0.00000E+00         0.00000E+00        -0.43071E+08
 
   -0.43222E+08         0.41358E+06         0.00000E+00
    0.41358E+06        -0.60018E+08         0.00000E+00
    0.00000E+00         0.00000E+00        -0.43051E+08
 
   -0.43089E+08         0.62081E+06         0.00000E+00
    0.62081E+06        -0.60071E+08         0.00000E+00
    0.00000E+00         0.00000E+00        -0.43035E+08
 
   -0.45613E+08        -0.98669E+05         0.00000E+00
   -0.98669E+05        -0.60002E+08         0.00000E+00
    0.00000E+00         0.00000E+00        -0.43334E+08
 
   -0.45298E+08        -0.22755E+06         0.00000E+00
   -0.22755E+06        -0.60003E+08         0.00000E+00
    0.00000E+00         0.00000E+00        -0.43271E+08
 
   -0.45006E+08        -0.28490E+06         0.00000E+00
   -0.28490E+06        -0.59991E+08         0.00000E+00
    0.00000E+00         0.00000E+00        -0.43210E+08
 
   -0.44751E+08        -0.29726E+06         0.00000E+00
   -0.29726E+06        -0.59963E+08         0.00000E+00
    0.00000E+00         0.00000E+00        -0.43154E+08
 
   -0.44534E+08        -0.28418E+06         0.00000E+00
   -0.28418E+06        -0.59923E+08         0.00000E+00
    0.00000E+00         0.00000E+00        -0.43102E+08
 
   -0.44346E+08        -0.25653E+06         0.00000E+00
   -0.25653E+06        -0.59881E+08         0.00000E+00
    0.00000E+00         0.00000E+00        -0.43056E+08
 
   -0.44178E+08        -0.21953E+06         0.00000E+00
   -0.21953E+06        -0.59840E+08         0.00000E+00
    0.00000E+00         0.00000E+00        -0.43015E+08
 
   -0.44024E+08        -0.17534E+06         0.00000E+00
   -0.17534E+06        -0.59805E+08         0.00000E+00
    0.00000E+00         0.00000E+00        -0.42977E+08
 
   -0.43876E+08        -0.12425E+06         0.00000E+00
   -0.12425E+06        -0.59780E+08         0.00000E+00
    0.00000E+00         0.00000E+00        -0.42942E+08
 
   -0.43728E+08        -0.65075E+05         0.00000E+00
   -0.65075E+05        -0.59767E+08         0.00000E+00
    0.00000E+00         0.00000E+00        -0.42910E+08
 
   -0.43574E+08         0.49945E+04         0.00000E+00
    0.49945E+04        -0.59769E+08         0.00000E+00
    0.00000E+00         0.00000E+00        -0.42880E+08
 
   -0.43410E+08         0.91137E+05         0.00000E+00
    0.91137E+05        -0.59789E+08         0.00000E+00
    0.00000E+00         0.00000E+00        -0.42851E+08
 
   -0.43231E+08         0.20237E+06         0.00000E+00
    0.20237E+06        -0.59830E+08         0.00000E+00
    0.00000E+00         0.00000E+00        -0.42823E+08
 
   -0.43041E+08         0.35248E+06         0.00000E+00
    0.35248E+06        -0.59891E+08         0.00000E+00
    0.00000E+00         0.00000E+00        -0.42798E+08
 
   -0.42855E+08         0.55755E+06         0.00000E+00
    0.55755E+06        -0.59966E+08         0.00000E+00
    0.00000E+00         0.00000E+00        -0.42775E+08
 
   -0.45787E+08        -0.10202E+06         0.00000E+00
   -0.10202E+06        -0.60001E+08         0.00000E+00
    0.00000E+00         0.00000E+00        -0.43169E+08
 
   -0.45378E+08        -0.21565E+06         0.00000E+00
   -0.21565E+06        -0.59990E+08         0.00000E+00
    0.00000E+00         0.00000E+00        -0.43085E+08
 
   -0.45028E+08        -0.25027E+06         0.00000E+00
   -0.25027E+06        -0.59953E+08         0.00000E+00
    0.00000E+00         0.00000E+00        -0.43007E+08
 
   -0.44744E+08        -0.24799E+06         0.00000E+00
   -0.24799E+06        -0.59894E+08         0.00000E+00
    0.00000E+00         0.00000E+00        -0.42939E+08
 
   -0.44512E+08        -0.22982E+06         0.00000E+00
   -0.22982E+06        -0.59828E+08         0.00000E+00
    0.00000E+00         0.00000E+00        -0.42879E+08
 
   -0.44315E+08        -0.20370E+06         0.00000E+00
   -0.20370E+06        -0.59763E+08         0.00000E+00
    0.00000E+00         0.00000E+00        -0.42827E+08
 
   -0.44141E+08        -0.17273E+06         0.00000E+00
   -0.17273E+06        -0.59704E+08         0.00000E+00
    0.00000E+00         0.00000E+00        -0.42780E+08
 
   -0.43982E+08        -0.13787E+06         0.00000E+00
   -0.13787E+06        -0.59655E+08         0.00000E+00
    0.00000E+00         0.00000E+00        -0.42739E+08
 
   -0.43828E+08        -0.98928E+05         0.00000E+00
   -0.98928E+05        -0.59618E+08         0.00000E+00
    0.00000E+00         0.00000E+00        -0.42700E+08
 
   -0.43672E+08        -0.54704E+05         0.00000E+00
   -0.54704E+05        -0.59595E+08         0.00000E+00
    0.00000E+00         0.00000E+00        -0.42665E+08
 
   -0.43507E+08        -0.27844E+04         0.00000E+00
   -0.27844E+04        -0.59590E+08         0.00000E+00
    0.00000E+00         0.00000E+00        -0.42631E+08
 
   -0.43324E+08         0.61347E+05         0.00000E+00
    0.61347E+05        -0.59607E+08         0.00000E+00
    0.00000E+00         0.00000E+00        -0.42598E+08
 
   -0.43115E+08         0.14646E+06         0.00000E+00
    0.14646E+06        -0.59651E+08         0.00000E+00
    0.00000E+00         0.00000E+00        -0.42564E+08
 
   -0.42875E+08         0.27114E+06         0.00000E+00
    0.27114E+06        -0.59727E+08         0.00000E+00
    0.00000E+00         0.00000E+00        -0.42532E+08
 
   -0.42617E+08         0.46442E+06         0.00000E+00
    0.46442E+06        -0.59830E+08         0.00000E+00
    0.00000E+00         0.00000E+00        -0.42501E+08
 
   -0.45950E+08        -0.99090E+05         0.00000E+00
   -0.99090E+05        -0.59996E+08         0.00000E+00
    0.00000E+00         0.00000E+00        -0.42993E+08
 
   -0.45427E+08        -0.17335E+06         0.00000E+00
   -0.17335E+06        -0.59956E+08         0.00000E+00
    0.00000E+00         0.00000E+00        -0.42881E+08
 
   -0.45031E+08        -0.17876E+06         0.00000E+00
   -0.17876E+06        -0.59873E+08         0.00000E+00
    0.00000E+00         0.00000E+00        -0.42785E+08
 
   -0.44731E+08        -0.16767E+06         0.00000E+00
   -0.16767E+06        -0.59778E+08         0.00000E+00
    0.00000E+00         0.00000E+00        -0.42706E+08
 
   -0.44491E+08        -0.15100E+06         0.00000E+00
   -0.15100E+06        -0.59685E+08         0.00000E+00
    0.00000E+00         0.00000E+00        -0.42639E+08
 
   -0.44290E+08        -0.13174E+06         0.00000E+00
   -0.13174E+06        -0.59601E+08         0.00000E+00
    0.00000E+00         0.00000E+00        -0.42582E+08
 
   -0.44114E+08        -0.11084E+06         0.00000E+00
   -0.11084E+06        -0.59527E+08         0.00000E+00
    0.00000E+00         0.00000E+00        -0.42532E+08
 
   -0.43952E+08        -0.88363E+05         0.00000E+00
   -0.88363E+05        -0.59465E+08         0.00000E+00
    0.00000E+00         0.00000E+00        -0.42487E+08
 
   -0.43794E+08        -0.63922E+05         0.00000E+00
   -0.63922E+05        -0.59419E+08         0.00000E+00
    0.00000E+00         0.00000E+00        -0.42447E+08
 
   -0.43633E+08        -0.36637E+05         0.00000E+00
   -0.36637E+05        -0.59389E+08         0.00000E+00
    0.00000E+00         0.00000E+00        -0.42408E+08
 
   -0.43461E+08        -0.49271E+04         0.00000E+00
   -0.49271E+04        -0.59378E+08         0.00000E+00
    0.00000E+00         0.00000E+00        -0.42372E+08
 
   -0.43265E+08         0.34143E+05         0.00000E+00
    0.34143E+05        -0.59390E+08         0.00000E+00
    0.00000E+00         0.00000E+00        -0.42335E+08
 
   -0.43033E+08         0.86583E+05         0.00000E+00
    0.86583E+05        -0.59432E+08         0.00000E+00
    0.00000E+00         0.00000E+00        -0.42297E+08
 
   -0.42741E+08         0.16758E+06         0.00000E+00
    0.16758E+06        -0.59516E+08         0.00000E+00
    0.00000E+00         0.00000E+00        -0.42255E+08
 
   -0.42384E+08         0.32730E+06         0.00000E+00
    0.32730E+06        -0.59658E+08         0.00000E+00
    0.00000E+00         0.00000E+00        -0.42212E+08
 
   -0.46067E+08        -0.62278E+05         0.00000E+00
   -0.62278E+05        -0.59955E+08         0.00000E+00
    0.00000E+00         0.00000E+00        -0.42794E+08
 
   -0.45434E+08        -0.71561E+05         0.00000E+00
   -0.71561E+05        -0.59841E+08         0.00000E+00
    0.00000E+00         0.00000E+00        -0.42644E+08
 
   -0.45024E+08        -0.66015E+05         0.00000E+00
   -0.66015E+05        -0.59712E+08         0.00000E+00
    0.00000E+00         0.00000E+00        -0.42537E+08
 
   -0.44720E+08        -0.59705E+05         0.00000E+00
   -0.59705E+05        -0.59590E+08         0.00000E+00
    0.00000E+00         0.00000E+00        -0.42451E+08
 
   -0.44478E+08        -0.52819E+05         0.00000E+00
   -0.52819E+05        -0.59480E+08         0.00000E+00
    0.00000E+00         0.00000E+00        -0.42381E+08
 
   -0.44276E+08        -0.45661E+05         0.00000E+00
   -0.45661E+05        -0.59383E+08         0.00000E+00
    0.00000E+00         0.00000E+00        -0.42321E+08
 
   -0.44099E+08        -0.38241E+05         0.00000E+00
   -0.38241E+05        -0.59301E+08         0.00000E+00
    0.00000E+00         0.00000E+00        -0.42269E+08
 
   -0.43936E+08        -0.30460E+05         0.00000E+00
   -0.30460E+05        -0.59233E+08         0.00000E+00
    0.00000E+00         0.00000E+00        -0.42223E+08
 
   -0.43777E+08        -0.22125E+05         0.00000E+00
   -0.22125E+05        -0.59181E+08         0.00000E+00
    0.00000E+00         0.00000E+00        -0.42181E+08
 
   -0.43614E+08        -0.12912E+05         0.00000E+00
   -0.12912E+05        -0.59146E+08         0.00000E+00
    0.00000E+00         0.00000E+00        -0.42141E+08
 
   -0.43437E+08        -0.22791E+04         0.00000E+00
   -0.22791E+04        -0.59131E+08         0.00000E+00
    0.00000E+00         0.00000E+00        -0.42103E+08
 
   -0.43236E+08         0.10749E+05         0.00000E+00
    0.10749E+05        -0.59140E+08         0.00000E+00
    0.00000E+00         0.00000E+00        -0.42064E+08
 
   -0.42990E+08         0.28284E+05         0.00000E+00
    0.28284E+05        -0.59179E+08         0.00000E+00
    0.00000E+00         0.00000E+00        -0.42023E+08
 
   -0.42670E+08         0.55116E+05         0.00000E+00
    0.55116E+05        -0.59263E+08         0.00000E+00
    0.00000E+00         0.00000E+00        -0.41976E+08
 
   -0.42178E+08         0.12274E+06         0.00000E+00
    0.12274E+06        -0.59430E+08         0.00000E+00
    0.00000E+00         0.00000E+00        -0.41911E+08
 
SCALARS stressS double 
LOOKUP_TABLE default
  -49906876.0744699     
  -49972832.3438030     
  -50035044.9051331     
  -50093615.2628717     
  -50148666.6134109     
  -50200339.0921454     
  -50248785.2441479     
  -50294165.7945784     
  -50336645.7829318     
  -50376391.1156446     
  -50413565.5842793     
  -50448328.3912010     
  -50480832.2209280     
  -50511221.8925896     
  -50539633.6264293     
  -49904600.7410665     
  -49970480.1225354     
  -50032589.2335822     
  -50091034.5056754     
  -50145943.9225965     
  -50197462.1779113     
  -50245746.0705014     
  -50290960.2118167     
  -50333273.1065048     
  -50372853.6585989     
  -50409868.1484182     
  -50444477.7204628     
  -50476836.4194507     
  -50507089.8096283     
  -50535374.2108286     
  -49900081.1060125     
  -49965801.7035316     
  -50027698.9465480     
  -50085889.2260670     
  -50140510.1893021     
  -50191715.7203445     
  -50239671.1878737     
  -50284549.0286049     
  -50326524.7230793     
  -50365773.2111483     
  -50402465.7879996     
  -50436767.5175809     
  -50468835.1983515     
  -50498815.9157843     
  -50526846.2161104     
  -49893379.3095449     
  -49958849.0870387     
  -50020416.0047369     
  -50078211.6544557     
  -50132388.3978434     
  -50183114.0877176     
  -50230567.1003445     
  -50274931.7395871     
  -50316394.0615997     
  -50355138.1597603     
  -50391342.9437957     
  -50425179.4443821     
  -50456808.6744392     
  -50486380.0801893     
  -50514030.6178578     
  -49884588.7330653     
  -49949700.1372900     
  -50010802.9536403     
  -50068049.5239518     
  -50121612.2317704     
  -50171677.8891927     
  -50218442.4940095     
  -50262106.4071558     
  -50302869.9879070     
  -50340929.7155198     
  -50376474.8212296     
  -50409684.4535867     
  -50440725.4026244     
  -50469750.4135405     
  -50496897.1273042     
  -49873834.1456500     
  -49938458.3652625     
  -49998942.4009747     
  -50055465.2942881     
  -50108225.0885883     
  -50157432.8166247     
  -50203306.9338943     
  -50246068.2334469     
  -50285935.2644479     
  -50323120.2681582     
  -50357825.6412075     
  -50390240.9372568     
  -50420540.4240076     
  -50448881.2221758     
  -50475402.0651695     
  -49861271.7998790     
  -49925252.5480494     
  -49984936.2392878     
  -50040535.0480357     
  -50092278.7095538     
  -50140408.0566821     
  -50185169.0954725     
  -50226807.6367741     
  -50265564.4864487     
  -50301671.1878034     
  -50335346.3069219     
  -50366792.2552423     
  -50396192.6538000     
  -50423710.2590694     
  -50449485.4896656     
  -49847089.3886853     
  -49910236.1046437     
  -49968904.5429247     
  -50023346.9988001     
  -50073831.3756002     
  -50120634.2362197     
  -50164034.5055674     
  -50204307.8183374     
  -50241721.4897345     
  -50276530.0763299     
  -50308971.4916739     
  -50339263.6475927     
  -50367601.6072980     
  -50394155.2594990     
  -50419067.5515839     
  -49831505.7496074     
  -49893586.1253532     
  -49950984.0487566     
  -50003999.5343753     
  -50052945.6072749     
  -50098140.8546987     
  -50139902.7626477     
  -50178541.8046755     
  -50214356.2290953     
  -50247627.4772022     
  -50278616.1618359     
  -50307558.5444649     
  -50334663.4703485     
  -50360109.7540638     
  -50384044.0491377     
  -49814770.1762154     
  -49875501.9281978     
  -49931326.1088533     
  -49982598.6996717     
  -50029685.2922576     
  -50072953.1478590     
  -50112764.2023852     
  -50149468.9529859     
  -50183401.1332885     
  -50214873.0645666     
  -50244171.5641456     
  -50271554.3033251     
  -50297246.5358567     
  -50321438.1631583     
  -50344281.1604668     
  -49797161.1692780     
  -49856202.9905806     
  -49910093.9801266     
  -49959255.0037265     
  -50004112.1475428     
  -50045088.3159870     
  -50082595.9704616     
  -50117030.9102824     
  -50148766.9543015     
  -50178151.3505879     
  -50205500.7296226     
  -50231097.4286508     
  -50255186.0525131     
  -50277970.1975017     
  -50299609.3447260     
  -49778984.4338245     
  -49835926.0784426     
  -49887459.2900083     
  -49934079.4106847     
  -49976281.4029626     
  -50014551.0364835     
  -50049357.4601173     
  -50081147.0234595     
  -50110338.1453712     
  -50137316.9765434     
  -50162433.5801951     
  -50185998.3670476     
  -50208278.5694980     
  -50229494.6223615     
  -50249816.4266935     
  -49760569.9048301     
  -49814921.3680937     
  -49863597.4867644     
  -49907178.3435308     
  -49946236.5653213     
  -49981328.1614387     
  -50012985.0652822     
  -50041709.2054420     
  -50067967.8256562     
  -50092189.6904470     
  -50114761.7721002     
  -50136026.0249111     
  -50156275.9160108     
  -50175752.4932590     
  -50194639.9191747     
  -49742267.5669690     
  -49793447.3275228     
  -49838682.0448190     
  -49878647.4866790     
  -49914003.0828948     
  -49945382.4723161     
  -49973386.1887379     
  -49998576.2722131     
  -50021472.4209136     
  -50042549.1652842     
  -50062233.4769253     
  -50080902.2319906     
  -50098879.0330016     
  -50116430.0442204     
  -50133758.6979005     
  -49724441.8267805     
  -49771764.0923566     
  -49812877.1432307     
  -49848564.1108665     
  -49879580.6699563     
  -49906645.3189246     
  -49930432.4247250     
  -49951567.7758532     
  -49970626.1112347     
  -49988129.8819278     
  -50004548.3931699     
  -50020296.4798352     
  -50035731.9842091     
  -50051151.5136818     
  -50066784.2324910     
  -49707464.2031305     
  -49750125.0316957     
  -49786328.4575985     
  -49816977.5467504     
  -49842933.9567674     
  -49865007.8984182     
  -49883951.8011547     
  -49900457.3690357     
  -49915155.2723012     
  -49928616.3961564     
  -49941353.4072220     
  -49953821.4089801     
  -49966416.6245124     
  -49979472.3375366     
  -49993251.7033757     
  -49691704.1275070     
  -49728766.1390703     
  -49759151.5808704     
  -49783897.2779690     
  -49803980.9807479     
  -49820310.8172137     
  -49833719.9109579     
  -49844965.7467326     
  -49854733.1715235     
  -49863639.4398168     
  -49872239.4950858     
  -49881029.7162232     
  -49890448.6086225     
  -49900873.3350570     
  -49912611.5084380     
  -49677517.6888162     
  -49707892.7788245     
  -49731417.3782075     
  -49749277.8698344     
  -49762578.7965281     
  -49772331.4039942     
  -49779449.6772706     
  -49784753.2236781     
  -49788975.2846237     
  -49792773.4867215     
  -49796740.6925762     
  -49801413.4218662     
  -49807275.6992889     
  -49814756.7752643     
  -49824221.8946591     
  -49665234.2066988     
  -49687663.1178583     
  -49703133.2157909     
  -49712999.5295311     
  -49718505.1075397     
  -49720767.9799322     
  -49720779.3779832     
  -49719412.0298580     
  -49717435.7480134     
  -49715536.6653461     
  -49714336.2864865     
  -49714406.8022612     
  -49716279.7051820     
  -49720445.5556598     
  -49727343.7470410     
  -49655140.5382013     
  -49668167.1765532     
  -49674218.3574765     
  -49674842.3977269     
  -49671434.2406936     
  -49665219.9181078     
  -49657258.4080008     
  -49648458.4618872     
  -49639605.6825338     
  -49631394.2502789     
  -49624457.8248517     
  -49619394.7933244     
  -49616783.8807185     
  -49617187.1760396     
  -49621138.9326487     
  -49647462.9317517     
  -49649399.6410176     
  -49644470.6651340     
  -49634451.5186584     
  -49620904.9099772     
  -49605161.8327608     
  -49588330.1219753     
  -49571325.1599431     
  -49554914.4478000     
  -49539767.4394094     
  -49526503.1499979     
  -49515729.3622929     
  -49508068.3179031     
  -49504164.7902485     
  -49504674.0298193     
  -49642345.8539399     
  -49631222.9859797     
  -49613519.6276786     
  -49591287.5295014     
  -49566275.9560149     
  -49539909.7013768     
  -49513311.0968863     
  -49487354.0745706     
  -49462735.3373602     
  -49440049.7283109     
  -49419860.4512242     
  -49402757.3225903     
  -49389396.8770062     
  -49380518.4697051     
  -49376931.7700487     
  -49639826.1339316     
  -49613314.1858328     
  -49580756.8161576     
  -49544554.9670499     
  -49506664.6090576     
  -49468576.4292929     
  -49431366.5925118     
  -49395791.2832355     
  -49362397.7788514     
  -49331633.8108421     
  -49303946.3168735     
  -49279864.4563030     
  -49260060.8383852     
  -49245381.1416919     
  -49236833.1349197     
  -49639798.0110952     
  -49595081.3942650     
  -49545227.2779529     
  -49493095.0127826     
  -49440860.1934010     
  -49390015.1899331     
  -49341483.5526928     
  -49295785.9258179     
  -49253208.4645989     
  -49213952.2557490     
  -49178262.6352701     
  -49146542.9930826     
  -49119447.2047464     
  -49097936.2297273     
  -49083273.8983115     
  -49641958.1563848     
  -49575521.1733619     
  -49505450.4046972     
  -49435221.6974901     
  -49367206.3393600     
  -49302753.1324053     
  -49242446.4757996     
  -49186397.1688067     
  -49134483.4606770     
  -49086533.7043106     
  -49042477.8760628     
  -49002492.0597620     
  -48967145.7128617     
  -48937508.8196467     
  -48915181.6005262     
  -49645700.1119553     
  -49552949.8313271     
  -49459106.8972467     
  -49368471.5606713     
  -49283453.3469054     
  -49204930.2463708     
  -49132829.9318744     
  -49066614.9360803     
  -49005589.5394761     
  -48949072.6342436     
  -48896533.0858323     
  -48847768.2028894     
  -48803116.7568835     
  -48763718.1833672     
  -48731601.8015144     
  -49649880.3209116     
  -49524430.3197089     
  -49402467.7777572     
  -49289241.2887597     
  -49186616.0964455     
  -49094289.8568511     
  -49011029.9282344     
  -48935400.7344999     
  -48865988.5198035     
  -48801489.7420014     
  -48740772.2184242     
  -48682987.6324886     
  -48627989.9997698     
  -48576733.6210037     
  -48531850.8709476     
  -49652082.7258829     
  -49484439.4106497     
  -49329323.8066030     
  -49192376.4992620     
  -49073011.3805561     
  -48968281.7134664     
  -48875361.9564570     
  -48791752.5560905     
  -48715269.8384437     
  -48643955.2424358     
  -48575988.1826285     
  -48509667.3703340     
  -48443486.9972158     
  -48377911.4007773     
  -48315733.2224463     
  -49646323.4018596     
  -49420951.5315744     
  -49229327.7573545     
  -49071556.9979702     
  -48938606.5683468     
  -48824347.0891866     
  -48724236.2235248     
  -48634791.1064208     
  -48553160.3710210     
  -48476824.5382596     
  -48403342.5681771     
  -48330074.2036813     
  -48253939.3875894     
  -48170521.5306978     
  -48084669.6226084     
  -49605418.2907469     
  -49306379.2867692     
  -49090983.7781900     
  -48920485.2728826     
  -48779836.9711305     
  -48660355.5102845     
  -48556390.8817328     
  -48463855.0022880     
  -48379505.3530013     
  -48300496.4201153     
  -48224008.1373911     
  -48146803.2864243     
  -48064407.0493711     
  -47969399.9501860     
  -47839883.2724192     
SCALARS 2waySource double 
LOOKUP_TABLE default
  0.000000000000000E+000
  0.000000000000000E+000
  0.000000000000000E+000
  0.000000000000000E+000
  0.000000000000000E+000
  0.000000000000000E+000
  0.000000000000000E+000
  0.000000000000000E+000
  0.000000000000000E+000
  0.000000000000000E+000
  0.000000000000000E+000
  0.000000000000000E+000
  0.000000000000000E+000
  0.000000000000000E+000
  0.000000000000000E+000
  0.000000000000000E+000
  0.000000000000000E+000
  0.000000000000000E+000
  0.000000000000000E+000
  0.000000000000000E+000
  0.000000000000000E+000
  0.000000000000000E+000
  0.000000000000000E+000
  0.000000000000000E+000
  0.000000000000000E+000
  0.000000000000000E+000
  0.000000000000000E+000
  0.000000000000000E+000
  0.000000000000000E+000
  0.000000000000000E+000
  0.000000000000000E+000
  0.000000000000000E+000
  0.000000000000000E+000
  0.000000000000000E+000
  0.000000000000000E+000
  0.000000000000000E+000
  0.000000000000000E+000
  0.000000000000000E+000
  0.000000000000000E+000
  0.000000000000000E+000
  0.000000000000000E+000
  0.000000000000000E+000
  0.000000000000000E+000
  0.000000000000000E+000
  0.000000000000000E+000
  0.000000000000000E+000
  0.000000000000000E+000
  0.000000000000000E+000
  0.000000000000000E+000
  0.000000000000000E+000
  0.000000000000000E+000
  0.000000000000000E+000
  0.000000000000000E+000
  0.000000000000000E+000
  0.000000000000000E+000
  0.000000000000000E+000
  0.000000000000000E+000
  0.000000000000000E+000
  0.000000000000000E+000
  0.000000000000000E+000
  0.000000000000000E+000
  0.000000000000000E+000
  0.000000000000000E+000
  0.000000000000000E+000
  0.000000000000000E+000
  0.000000000000000E+000
  0.000000000000000E+000
  0.000000000000000E+000
  0.000000000000000E+000
  0.000000000000000E+000
  0.000000000000000E+000
  0.000000000000000E+000
  0.000000000000000E+000
  0.000000000000000E+000
  0.000000000000000E+000
  0.000000000000000E+000
  0.000000000000000E+000
  0.000000000000000E+000
  0.000000000000000E+000
  0.000000000000000E+000
  0.000000000000000E+000
  0.000000000000000E+000
  0.000000000000000E+000
  0.000000000000000E+000
  0.000000000000000E+000
  0.000000000000000E+000
  0.000000000000000E+000
  0.000000000000000E+000
  0.000000000000000E+000
  0.000000000000000E+000
  0.000000000000000E+000
  0.000000000000000E+000
  0.000000000000000E+000
  0.000000000000000E+000
  0.000000000000000E+000
  0.000000000000000E+000
  0.000000000000000E+000
  0.000000000000000E+000
  0.000000000000000E+000
  0.000000000000000E+000
  0.000000000000000E+000
  0.000000000000000E+000
  0.000000000000000E+000
  0.000000000000000E+000
  0.000000000000000E+000
  0.000000000000000E+000
  0.000000000000000E+000
  0.000000000000000E+000
  0.000000000000000E+000
  0.000000000000000E+000
  0.000000000000000E+000
  0.000000000000000E+000
  0.000000000000000E+000
  0.000000000000000E+000
  0.000000000000000E+000
  0.000000000000000E+000
  0.000000000000000E+000
  0.000000000000000E+000
  0.000000000000000E+000
  0.000000000000000E+000
  0.000000000000000E+000
  0.000000000000000E+000
  0.000000000000000E+000
  0.000000000000000E+000
  0.000000000000000E+000
  0.000000000000000E+000
  0.000000000000000E+000
  0.000000000000000E+000
  0.000000000000000E+000
  0.000000000000000E+000
  0.000000000000000E+000
  0.000000000000000E+000
  0.000000000000000E+000
  0.000000000000000E+000
  0.000000000000000E+000
  0.000000000000000E+000
  0.000000000000000E+000
  0.000000000000000E+000
  0.000000000000000E+000
  0.000000000000000E+000
  0.000000000000000E+000
  0.000000000000000E+000
  0.000000000000000E+000
  0.000000000000000E+000
  0.000000000000000E+000
  0.000000000000000E+000
  0.000000000000000E+000
  0.000000000000000E+000
  0.000000000000000E+000
  0.000000000000000E+000
  0.000000000000000E+000
  0.000000000000000E+000
  0.000000000000000E+000
  0.000000000000000E+000
  0.000000000000000E+000
  0.000000000000000E+000
  0.000000000000000E+000
  0.000000000000000E+000
  0.000000000000000E+000
  0.000000000000000E+000
  0.000000000000000E+000
  0.000000000000000E+000
  0.000000000000000E+000
  0.000000000000000E+000
  0.000000000000000E+000
  0.000000000000000E+000
  0.000000000000000E+000
  0.000000000000000E+000
  0.000000000000000E+000
  0.000000000000000E+000
  0.000000000000000E+000
  0.000000000000000E+000
  0.000000000000000E+000
  0.000000000000000E+000
  0.000000000000000E+000
  0.000000000000000E+000
  0.000000000000000E+000
  0.000000000000000E+000
  0.000000000000000E+000
  0.000000000000000E+000
  0.000000000000000E+000
  0.000000000000000E+000
  0.000000000000000E+000
  0.000000000000000E+000
  0.000000000000000E+000
  0.000000000000000E+000
  0.000000000000000E+000
  0.000000000000000E+000
  0.000000000000000E+000
  0.000000000000000E+000
  0.000000000000000E+000
  0.000000000000000E+000
  0.000000000000000E+000
  0.000000000000000E+000
  0.000000000000000E+000
  0.000000000000000E+000
  0.000000000000000E+000
  0.000000000000000E+000
  0.000000000000000E+000
  0.000000000000000E+000
  0.000000000000000E+000
  0.000000000000000E+000
  0.000000000000000E+000
  0.000000000000000E+000
  0.000000000000000E+000
  0.000000000000000E+000
  0.000000000000000E+000
  0.000000000000000E+000
  0.000000000000000E+000
  0.000000000000000E+000
  0.000000000000000E+000
  0.000000000000000E+000
  0.000000000000000E+000
  0.000000000000000E+000
  0.000000000000000E+000
  0.000000000000000E+000
  0.000000000000000E+000
  0.000000000000000E+000
  0.000000000000000E+000
  0.000000000000000E+000
  0.000000000000000E+000
  0.000000000000000E+000
  0.000000000000000E+000
  0.000000000000000E+000
  0.000000000000000E+000
  0.000000000000000E+000
  0.000000000000000E+000
  0.000000000000000E+000
  0.000000000000000E+000
  0.000000000000000E+000
  0.000000000000000E+000
  0.000000000000000E+000
  0.000000000000000E+000
  0.000000000000000E+000
  0.000000000000000E+000
  0.000000000000000E+000
  0.000000000000000E+000
  0.000000000000000E+000
  0.000000000000000E+000
  0.000000000000000E+000
  0.000000000000000E+000
  0.000000000000000E+000
  0.000000000000000E+000
  0.000000000000000E+000
  0.000000000000000E+000
  0.000000000000000E+000
  0.000000000000000E+000
  0.000000000000000E+000
  0.000000000000000E+000
  0.000000000000000E+000
  0.000000000000000E+000
  0.000000000000000E+000
  0.000000000000000E+000
  0.000000000000000E+000
  0.000000000000000E+000
  0.000000000000000E+000
  0.000000000000000E+000
  0.000000000000000E+000
  0.000000000000000E+000
  0.000000000000000E+000
  0.000000000000000E+000
  0.000000000000000E+000
  0.000000000000000E+000
  0.000000000000000E+000
  0.000000000000000E+000
  0.000000000000000E+000
  0.000000000000000E+000
  0.000000000000000E+000
  0.000000000000000E+000
  0.000000000000000E+000
  0.000000000000000E+000
  0.000000000000000E+000
  0.000000000000000E+000
  0.000000000000000E+000
  0.000000000000000E+000
  0.000000000000000E+000
  0.000000000000000E+000
  0.000000000000000E+000
  0.000000000000000E+000
  0.000000000000000E+000
  0.000000000000000E+000
  0.000000000000000E+000
  0.000000000000000E+000
  0.000000000000000E+000
  0.000000000000000E+000
  0.000000000000000E+000
  0.000000000000000E+000
  0.000000000000000E+000
  0.000000000000000E+000
  0.000000000000000E+000
  0.000000000000000E+000
  0.000000000000000E+000
  0.000000000000000E+000
  0.000000000000000E+000
  0.000000000000000E+000
  0.000000000000000E+000
  0.000000000000000E+000
  0.000000000000000E+000
  0.000000000000000E+000
  0.000000000000000E+000
  0.000000000000000E+000
  0.000000000000000E+000
  0.000000000000000E+000
  0.000000000000000E+000
  0.000000000000000E+000
  0.000000000000000E+000
  0.000000000000000E+000
  0.000000000000000E+000
  0.000000000000000E+000
  0.000000000000000E+000
  0.000000000000000E+000
  0.000000000000000E+000
  0.000000000000000E+000
  0.000000000000000E+000
  0.000000000000000E+000
  0.000000000000000E+000
  0.000000000000000E+000
  0.000000000000000E+000
  0.000000000000000E+000
  0.000000000000000E+000
  0.000000000000000E+000
  0.000000000000000E+000
  0.000000000000000E+000
  0.000000000000000E+000
  0.000000000000000E+000
  0.000000000000000E+000
  0.000000000000000E+000
  0.000000000000000E+000
  0.000000000000000E+000
  0.000000000000000E+000
  0.000000000000000E+000
  0.000000000000000E+000
  0.000000000000000E+000
  0.000000000000000E+000
  0.000000000000000E+000
  0.000000000000000E+000
  0.000000000000000E+000
  0.000000000000000E+000
  0.000000000000000E+000
  0.000000000000000E+000
  0.000000000000000E+000
  0.000000000000000E+000
  0.000000000000000E+000
  0.000000000000000E+000
  0.000000000000000E+000
  0.000000000000000E+000
  0.000000000000000E+000
  0.000000000000000E+000
  0.000000000000000E+000
  0.000000000000000E+000
  0.000000000000000E+000
  0.000000000000000E+000
  0.000000000000000E+000
  0.000000000000000E+000
  0.000000000000000E+000
  0.000000000000000E+000
  0.000000000000000E+000
  0.000000000000000E+000
  0.000000000000000E+000
  0.000000000000000E+000
  0.000000000000000E+000
  0.000000000000000E+000
  0.000000000000000E+000
  0.000000000000000E+000
  0.000000000000000E+000
  0.000000000000000E+000
  0.000000000000000E+000
  0.000000000000000E+000
  0.000000000000000E+000
  0.000000000000000E+000
  0.000000000000000E+000
  0.000000000000000E+000
  0.000000000000000E+000
  0.000000000000000E+000
  0.000000000000000E+000
  0.000000000000000E+000
  0.000000000000000E+000
  0.000000000000000E+000
  0.000000000000000E+000
  0.000000000000000E+000
  0.000000000000000E+000
  0.000000000000000E+000
  0.000000000000000E+000
  0.000000000000000E+000
  0.000000000000000E+000
  0.000000000000000E+000
  0.000000000000000E+000
  0.000000000000000E+000
  0.000000000000000E+000
  0.000000000000000E+000
  0.000000000000000E+000
  0.000000000000000E+000
  0.000000000000000E+000
  0.000000000000000E+000
  0.000000000000000E+000
  0.000000000000000E+000
  0.000000000000000E+000
  0.000000000000000E+000
  0.000000000000000E+000
  0.000000000000000E+000
  0.000000000000000E+000
  0.000000000000000E+000
  0.000000000000000E+000
  0.000000000000000E+000
  0.000000000000000E+000
  0.000000000000000E+000
  0.000000000000000E+000
  0.000000000000000E+000
  0.000000000000000E+000
  0.000000000000000E+000
  0.000000000000000E+000
  0.000000000000000E+000
  0.000000000000000E+000
  0.000000000000000E+000
  0.000000000000000E+000
  0.000000000000000E+000
  0.000000000000000E+000
  0.000000000000000E+000
  0.000000000000000E+000
  0.000000000000000E+000
  0.000000000000000E+000
  0.000000000000000E+000
  0.000000000000000E+000
  0.000000000000000E+000
  0.000000000000000E+000
  0.000000000000000E+000
  0.000000000000000E+000
  0.000000000000000E+000
  0.000000000000000E+000
  0.000000000000000E+000
  0.000000000000000E+000
  0.000000000000000E+000
  0.000000000000000E+000
  0.000000000000000E+000
  0.000000000000000E+000
  0.000000000000000E+000
  0.000000000000000E+000
  0.000000000000000E+000
  0.000000000000000E+000
  0.000000000000000E+000
  0.000000000000000E+000
  0.000000000000000E+000
  0.000000000000000E+000
  0.000000000000000E+000
  0.000000000000000E+000
  0.000000000000000E+000
  0.000000000000000E+000
  0.000000000000000E+000
  0.000000000000000E+000
  0.000000000000000E+000
SCALARS poroP double 
LOOKUP_TABLE default
  0.000000000000000E+000
  0.000000000000000E+000
  0.000000000000000E+000
  0.000000000000000E+000
  0.000000000000000E+000
  0.000000000000000E+000
  0.000000000000000E+000
  0.000000000000000E+000
  0.000000000000000E+000
  0.000000000000000E+000
  0.000000000000000E+000
  0.000000000000000E+000
  0.000000000000000E+000
  0.000000000000000E+000
  0.000000000000000E+000
  0.000000000000000E+000
  0.000000000000000E+000
  0.000000000000000E+000
  0.000000000000000E+000
  0.000000000000000E+000
  0.000000000000000E+000
  0.000000000000000E+000
  0.000000000000000E+000
  0.000000000000000E+000
  0.000000000000000E+000
  0.000000000000000E+000
  0.000000000000000E+000
  0.000000000000000E+000
  0.000000000000000E+000
  0.000000000000000E+000
  0.000000000000000E+000
  0.000000000000000E+000
  0.000000000000000E+000
  0.000000000000000E+000
  0.000000000000000E+000
  0.000000000000000E+000
  0.000000000000000E+000
  0.000000000000000E+000
  0.000000000000000E+000
  0.000000000000000E+000
  0.000000000000000E+000
  0.000000000000000E+000
  0.000000000000000E+000
  0.000000000000000E+000
  0.000000000000000E+000
  0.000000000000000E+000
  0.000000000000000E+000
  0.000000000000000E+000
  0.000000000000000E+000
  0.000000000000000E+000
  0.000000000000000E+000
  0.000000000000000E+000
  0.000000000000000E+000
  0.000000000000000E+000
  0.000000000000000E+000
  0.000000000000000E+000
  0.000000000000000E+000
  0.000000000000000E+000
  0.000000000000000E+000
  0.000000000000000E+000
  0.000000000000000E+000
  0.000000000000000E+000
  0.000000000000000E+000
  0.000000000000000E+000
  0.000000000000000E+000
  0.000000000000000E+000
  0.000000000000000E+000
  0.000000000000000E+000
  0.000000000000000E+000
  0.000000000000000E+000
  0.000000000000000E+000
  0.000000000000000E+000
  0.000000000000000E+000
  0.000000000000000E+000
  0.000000000000000E+000
  0.000000000000000E+000
  0.000000000000000E+000
  0.000000000000000E+000
  0.000000000000000E+000
  0.000000000000000E+000
  0.000000000000000E+000
  0.000000000000000E+000
  0.000000000000000E+000
  0.000000000000000E+000
  0.000000000000000E+000
  0.000000000000000E+000
  0.000000000000000E+000
  0.000000000000000E+000
  0.000000000000000E+000
  0.000000000000000E+000
  0.000000000000000E+000
  0.000000000000000E+000
  0.000000000000000E+000
  0.000000000000000E+000
  0.000000000000000E+000
  0.000000000000000E+000
  0.000000000000000E+000
  0.000000000000000E+000
  0.000000000000000E+000
  0.000000000000000E+000
  0.000000000000000E+000
  0.000000000000000E+000
  0.000000000000000E+000
  0.000000000000000E+000
  0.000000000000000E+000
  0.000000000000000E+000
  0.000000000000000E+000
  0.000000000000000E+000
  0.000000000000000E+000
  0.000000000000000E+000
  0.000000000000000E+000
  0.000000000000000E+000
  0.000000000000000E+000
  0.000000000000000E+000
  0.000000000000000E+000
  0.000000000000000E+000
  0.000000000000000E+000
  0.000000000000000E+000
  0.000000000000000E+000
  0.000000000000000E+000
  0.000000000000000E+000
  0.000000000000000E+000
  0.000000000000000E+000
  0.000000000000000E+000
  0.000000000000000E+000
  0.000000000000000E+000
  0.000000000000000E+000
  0.000000000000000E+000
  0.000000000000000E+000
  0.000000000000000E+000
  0.000000000000000E+000
  0.000000000000000E+000
  0.000000000000000E+000
  0.000000000000000E+000
  0.000000000000000E+000
  0.000000000000000E+000
  0.000000000000000E+000
  0.000000000000000E+000
  0.000000000000000E+000
  0.000000000000000E+000
  0.000000000000000E+000
  0.000000000000000E+000
  0.000000000000000E+000
  0.000000000000000E+000
  0.000000000000000E+000
  0.000000000000000E+000
  0.000000000000000E+000
  0.000000000000000E+000
  0.000000000000000E+000
  0.000000000000000E+000
  0.000000000000000E+000
  0.000000000000000E+000
  0.000000000000000E+000
  0.000000000000000E+000
  0.000000000000000E+000
  0.000000000000000E+000
  0.000000000000000E+000
  0.000000000000000E+000
  0.000000000000000E+000
  0.000000000000000E+000
  0.000000000000000E+000
  0.000000000000000E+000
  0.000000000000000E+000
  0.000000000000000E+000
  0.000000000000000E+000
  0.000000000000000E+000
  0.000000000000000E+000
  0.000000000000000E+000
  0.000000000000000E+000
  0.000000000000000E+000
  0.000000000000000E+000
  0.000000000000000E+000
  0.000000000000000E+000
  0.000000000000000E+000
  0.000000000000000E+000
  0.000000000000000E+000
  0.000000000000000E+000
  0.000000000000000E+000
  0.000000000000000E+000
  0.000000000000000E+000
  0.000000000000000E+000
  0.000000000000000E+000
  0.000000000000000E+000
  0.000000000000000E+000
  0.000000000000000E+000
  0.000000000000000E+000
  0.000000000000000E+000
  0.000000000000000E+000
  0.000000000000000E+000
  0.000000000000000E+000
  0.000000000000000E+000
  0.000000000000000E+000
  0.000000000000000E+000
  0.000000000000000E+000
  0.000000000000000E+000
  0.000000000000000E+000
  0.000000000000000E+000
  0.000000000000000E+000
  0.000000000000000E+000
  0.000000000000000E+000
  0.000000000000000E+000
  0.000000000000000E+000
  0.000000000000000E+000
  0.000000000000000E+000
  0.000000000000000E+000
  0.000000000000000E+000
  0.000000000000000E+000
  0.000000000000000E+000
  0.000000000000000E+000
  0.000000000000000E+000
  0.000000000000000E+000
  0.000000000000000E+000
  0.000000000000000E+000
  0.000000000000000E+000
  0.000000000000000E+000
  0.000000000000000E+000
  0.000000000000000E+000
  0.000000000000000E+000
  0.000000000000000E+000
  0.000000000000000E+000
  0.000000000000000E+000
  0.000000000000000E+000
  0.000000000000000E+000
  0.000000000000000E+000
  0.000000000000000E+000
  0.000000000000000E+000
  0.000000000000000E+000
  0.000000000000000E+000
  0.000000000000000E+000
  0.000000000000000E+000
  0.000000000000000E+000
  0.000000000000000E+000
  0.000000000000000E+000
  0.000000000000000E+000
  0.000000000000000E+000
  0.000000000000000E+000
  0.000000000000000E+000
  0.000000000000000E+000
  0.000000000000000E+000
  0.000000000000000E+000
  0.000000000000000E+000
  0.000000000000000E+000
  0.000000000000000E+000
  0.000000000000000E+000
  0.000000000000000E+000
  0.000000000000000E+000
  0.000000000000000E+000
  0.000000000000000E+000
  0.000000000000000E+000
  0.000000000000000E+000
  0.000000000000000E+000
  0.000000000000000E+000
  0.000000000000000E+000
  0.000000000000000E+000
  0.000000000000000E+000
  0.000000000000000E+000
  0.000000000000000E+000
  0.000000000000000E+000
  0.000000000000000E+000
  0.000000000000000E+000
  0.000000000000000E+000
  0.000000000000000E+000
  0.000000000000000E+000
  0.000000000000000E+000
  0.000000000000000E+000
  0.000000000000000E+000
  0.000000000000000E+000
  0.000000000000000E+000
  0.000000000000000E+000
  0.000000000000000E+000
  0.000000000000000E+000
  0.000000000000000E+000
  0.000000000000000E+000
  0.000000000000000E+000
  0.000000000000000E+000
  0.000000000000000E+000
  0.000000000000000E+000
  0.000000000000000E+000
  0.000000000000000E+000
  0.000000000000000E+000
  0.000000000000000E+000
  0.000000000000000E+000
  0.000000000000000E+000
  0.000000000000000E+000
  0.000000000000000E+000
  0.000000000000000E+000
  0.000000000000000E+000
  0.000000000000000E+000
  0.000000000000000E+000
  0.000000000000000E+000
  0.000000000000000E+000
  0.000000000000000E+000
  0.000000000000000E+000
  0.000000000000000E+000
  0.000000000000000E+000
  0.000000000000000E+000
  0.000000000000000E+000
  0.000000000000000E+000
  0.000000000000000E+000
  0.000000000000000E+000
  0.000000000000000E+000
  0.000000000000000E+000
  0.000000000000000E+000
  0.000000000000000E+000
  0.000000000000000E+000
  0.000000000000000E+000
  0.000000000000000E+000
  0.000000000000000E+000
  0.000000000000000E+000
  0.000000000000000E+000
  0.000000000000000E+000
  0.000000000000000E+000
  0.000000000000000E+000
  0.000000000000000E+000
  0.000000000000000E+000
  0.000000000000000E+000
  0.000000000000000E+000
  0.000000000000000E+000
  0.000000000000000E+000
  0.000000000000000E+000
  0.000000000000000E+000
  0.000000000000000E+000
  0.000000000000000E+000
  0.000000000000000E+000
  0.000000000000000E+000
  0.000000000000000E+000
  0.000000000000000E+000
  0.000000000000000E+000
  0.000000000000000E+000
  0.000000000000000E+000
  0.000000000000000E+000
  0.000000000000000E+000
  0.000000000000000E+000
  0.000000000000000E+000
  0.000000000000000E+000
  0.000000000000000E+000
  0.000000000000000E+000
  0.000000000000000E+000
  0.000000000000000E+000
  0.000000000000000E+000
  0.000000000000000E+000
  0.000000000000000E+000
  0.000000000000000E+000
  0.000000000000000E+000
  0.000000000000000E+000
  0.000000000000000E+000
  0.000000000000000E+000
  0.000000000000000E+000
  0.000000000000000E+000
  0.000000000000000E+000
  0.000000000000000E+000
  0.000000000000000E+000
  0.000000000000000E+000
  0.000000000000000E+000
  0.000000000000000E+000
  0.000000000000000E+000
  0.000000000000000E+000
  0.000000000000000E+000
  0.000000000000000E+000
  0.000000000000000E+000
  0.000000000000000E+000
  0.000000000000000E+000
  0.000000000000000E+000
  0.000000000000000E+000
  0.000000000000000E+000
  0.000000000000000E+000
  0.000000000000000E+000
  0.000000000000000E+000
  0.000000000000000E+000
  0.000000000000000E+000
  0.000000000000000E+000
  0.000000000000000E+000
  0.000000000000000E+000
  0.000000000000000E+000
  0.000000000000000E+000
  0.000000000000000E+000
  0.000000000000000E+000
  0.000000000000000E+000
  0.000000000000000E+000
  0.000000000000000E+000
  0.000000000000000E+000
  0.000000000000000E+000
  0.000000000000000E+000
  0.000000000000000E+000
  0.000000000000000E+000
  0.000000000000000E+000
  0.000000000000000E+000
  0.000000000000000E+000
  0.000000000000000E+000
  0.000000000000000E+000
  0.000000000000000E+000
  0.000000000000000E+000
  0.000000000000000E+000
  0.000000000000000E+000
  0.000000000000000E+000
  0.000000000000000E+000
  0.000000000000000E+000
  0.000000000000000E+000
  0.000000000000000E+000
  0.000000000000000E+000
  0.000000000000000E+000
  0.000000000000000E+000
  0.000000000000000E+000
  0.000000000000000E+000
  0.000000000000000E+000
  0.000000000000000E+000
  0.000000000000000E+000
  0.000000000000000E+000
  0.000000000000000E+000
  0.000000000000000E+000
  0.000000000000000E+000
  0.000000000000000E+000
  0.000000000000000E+000
  0.000000000000000E+000
  0.000000000000000E+000
  0.000000000000000E+000
  0.000000000000000E+000
  0.000000000000000E+000
  0.000000000000000E+000
  0.000000000000000E+000
  0.000000000000000E+000
  0.000000000000000E+000
  0.000000000000000E+000
  0.000000000000000E+000
  0.000000000000000E+000
  0.000000000000000E+000
  0.000000000000000E+000
  0.000000000000000E+000
  0.000000000000000E+000
  0.000000000000000E+000
  0.000000000000000E+000
  0.000000000000000E+000
  0.000000000000000E+000
  0.000000000000000E+000
  0.000000000000000E+000
  0.000000000000000E+000
  0.000000000000000E+000
  0.000000000000000E+000
  0.000000000000000E+000
  0.000000000000000E+000
  0.000000000000000E+000
  0.000000000000000E+000
  0.000000000000000E+000
  0.000000000000000E+000
  0.000000000000000E+000
  0.000000000000000E+000
  0.000000000000000E+000
  0.000000000000000E+000
  0.000000000000000E+000
  0.000000000000000E+000
SCALARS elementIsPlast double 
LOOKUP_TABLE default
  0.000000000000000E+000
  0.000000000000000E+000
  0.000000000000000E+000
  0.000000000000000E+000
  0.000000000000000E+000
  0.000000000000000E+000
  0.000000000000000E+000
  0.000000000000000E+000
  0.000000000000000E+000
  0.000000000000000E+000
  0.000000000000000E+000
  0.000000000000000E+000
  0.000000000000000E+000
  0.000000000000000E+000
  0.000000000000000E+000
  0.000000000000000E+000
  0.000000000000000E+000
  0.000000000000000E+000
  0.000000000000000E+000
  0.000000000000000E+000
  0.000000000000000E+000
  0.000000000000000E+000
  0.000000000000000E+000
  0.000000000000000E+000
  0.000000000000000E+000
  0.000000000000000E+000
  0.000000000000000E+000
  0.000000000000000E+000
  0.000000000000000E+000
  0.000000000000000E+000
  0.000000000000000E+000
  0.000000000000000E+000
  0.000000000000000E+000
  0.000000000000000E+000
  0.000000000000000E+000
  0.000000000000000E+000
  0.000000000000000E+000
  0.000000000000000E+000
  0.000000000000000E+000
  0.000000000000000E+000
  0.000000000000000E+000
  0.000000000000000E+000
  0.000000000000000E+000
  0.000000000000000E+000
  0.000000000000000E+000
  0.000000000000000E+000
  0.000000000000000E+000
  0.000000000000000E+000
  0.000000000000000E+000
  0.000000000000000E+000
  0.000000000000000E+000
  0.000000000000000E+000
  0.000000000000000E+000
  0.000000000000000E+000
  0.000000000000000E+000
  0.000000000000000E+000
  0.000000000000000E+000
  0.000000000000000E+000
  0.000000000000000E+000
  0.000000000000000E+000
  0.000000000000000E+000
  0.000000000000000E+000
  0.000000000000000E+000
  0.000000000000000E+000
  0.000000000000000E+000
  0.000000000000000E+000
  0.000000000000000E+000
  0.000000000000000E+000
  0.000000000000000E+000
  0.000000000000000E+000
  0.000000000000000E+000
  0.000000000000000E+000
  0.000000000000000E+000
  0.000000000000000E+000
  0.000000000000000E+000
  0.000000000000000E+000
  0.000000000000000E+000
  0.000000000000000E+000
  0.000000000000000E+000
  0.000000000000000E+000
  0.000000000000000E+000
  0.000000000000000E+000
  0.000000000000000E+000
  0.000000000000000E+000
  0.000000000000000E+000
  0.000000000000000E+000
  0.000000000000000E+000
  0.000000000000000E+000
  0.000000000000000E+000
  0.000000000000000E+000
  0.000000000000000E+000
  0.000000000000000E+000
  0.000000000000000E+000
  0.000000000000000E+000
  0.000000000000000E+000
  0.000000000000000E+000
  0.000000000000000E+000
  0.000000000000000E+000
  0.000000000000000E+000
  0.000000000000000E+000
  0.000000000000000E+000
  0.000000000000000E+000
  0.000000000000000E+000
  0.000000000000000E+000
  0.000000000000000E+000
  0.000000000000000E+000
  0.000000000000000E+000
  0.000000000000000E+000
  0.000000000000000E+000
  0.000000000000000E+000
  0.000000000000000E+000
  0.000000000000000E+000
  0.000000000000000E+000
  0.000000000000000E+000
  0.000000000000000E+000
  0.000000000000000E+000
  0.000000000000000E+000
  0.000000000000000E+000
  0.000000000000000E+000
  0.000000000000000E+000
  0.000000000000000E+000
  0.000000000000000E+000
  0.000000000000000E+000
  0.000000000000000E+000
  0.000000000000000E+000
  0.000000000000000E+000
  0.000000000000000E+000
  0.000000000000000E+000
  0.000000000000000E+000
  0.000000000000000E+000
  0.000000000000000E+000
  0.000000000000000E+000
  0.000000000000000E+000
  0.000000000000000E+000
  0.000000000000000E+000
  0.000000000000000E+000
  0.000000000000000E+000
  0.000000000000000E+000
  0.000000000000000E+000
  0.000000000000000E+000
  0.000000000000000E+000
  0.000000000000000E+000
  0.000000000000000E+000
  0.000000000000000E+000
  0.000000000000000E+000
  0.000000000000000E+000
  0.000000000000000E+000
  0.000000000000000E+000
  0.000000000000000E+000
  0.000000000000000E+000
  0.000000000000000E+000
  0.000000000000000E+000
  0.000000000000000E+000
  0.000000000000000E+000
  0.000000000000000E+000
  0.000000000000000E+000
  0.000000000000000E+000
  0.000000000000000E+000
  0.000000000000000E+000
  0.000000000000000E+000
  0.000000000000000E+000
  0.000000000000000E+000
  0.000000000000000E+000
  0.000000000000000E+000
  0.000000000000000E+000
  0.000000000000000E+000
  0.000000000000000E+000
  0.000000000000000E+000
  0.000000000000000E+000
  0.000000000000000E+000
  0.000000000000000E+000
  0.000000000000000E+000
  0.000000000000000E+000
  0.000000000000000E+000
  0.000000000000000E+000
  0.000000000000000E+000
  0.000000000000000E+000
  0.000000000000000E+000
  0.000000000000000E+000
  0.000000000000000E+000
  0.000000000000000E+000
  0.000000000000000E+000
  0.000000000000000E+000
  0.000000000000000E+000
  0.000000000000000E+000
  0.000000000000000E+000
  0.000000000000000E+000
  0.000000000000000E+000
  0.000000000000000E+000
  0.000000000000000E+000
  0.000000000000000E+000
  0.000000000000000E+000
  0.000000000000000E+000
  0.000000000000000E+000
  0.000000000000000E+000
  0.000000000000000E+000
  0.000000000000000E+000
  0.000000000000000E+000
  0.000000000000000E+000
  0.000000000000000E+000
  0.000000000000000E+000
  0.000000000000000E+000
  0.000000000000000E+000
  0.000000000000000E+000
  0.000000000000000E+000
  0.000000000000000E+000
  0.000000000000000E+000
  0.000000000000000E+000
  0.000000000000000E+000
  0.000000000000000E+000
  0.000000000000000E+000
  0.000000000000000E+000
  0.000000000000000E+000
  0.000000000000000E+000
  0.000000000000000E+000
  0.000000000000000E+000
  0.000000000000000E+000
  0.000000000000000E+000
  0.000000000000000E+000
  0.000000000000000E+000
  0.000000000000000E+000
  0.000000000000000E+000
  0.000000000000000E+000
  0.000000000000000E+000
  0.000000000000000E+000
  0.000000000000000E+000
  0.000000000000000E+000
  0.000000000000000E+000
  0.000000000000000E+000
  0.000000000000000E+000
  0.000000000000000E+000
  0.000000000000000E+000
  0.000000000000000E+000
  0.000000000000000E+000
  0.000000000000000E+000
  0.000000000000000E+000
  0.000000000000000E+000
  0.000000000000000E+000
  0.000000000000000E+000
  0.000000000000000E+000
  0.000000000000000E+000
  0.000000000000000E+000
  0.000000000000000E+000
  0.000000000000000E+000
  0.000000000000000E+000
  0.000000000000000E+000
  0.000000000000000E+000
  0.000000000000000E+000
  0.000000000000000E+000
  0.000000000000000E+000
  0.000000000000000E+000
  0.000000000000000E+000
  0.000000000000000E+000
  0.000000000000000E+000
  0.000000000000000E+000
  0.000000000000000E+000
  0.000000000000000E+000
  0.000000000000000E+000
  0.000000000000000E+000
  0.000000000000000E+000
  0.000000000000000E+000
  0.000000000000000E+000
  0.000000000000000E+000
  0.000000000000000E+000
  0.000000000000000E+000
  0.000000000000000E+000
  0.000000000000000E+000
  0.000000000000000E+000
  0.000000000000000E+000
  0.000000000000000E+000
  0.000000000000000E+000
  0.000000000000000E+000
  0.000000000000000E+000
  0.000000000000000E+000
  0.000000000000000E+000
  0.000000000000000E+000
  0.000000000000000E+000
  0.000000000000000E+000
  0.000000000000000E+000
  0.000000000000000E+000
  0.000000000000000E+000
  0.000000000000000E+000
  0.000000000000000E+000
  0.000000000000000E+000
  0.000000000000000E+000
  0.000000000000000E+000
  0.000000000000000E+000
  0.000000000000000E+000
  0.000000000000000E+000
  0.000000000000000E+000
  0.000000000000000E+000
  0.000000000000000E+000
  0.000000000000000E+000
  0.000000000000000E+000
  0.000000000000000E+000
  0.000000000000000E+000
  0.000000000000000E+000
  0.000000000000000E+000
  0.000000000000000E+000
  0.000000000000000E+000
  0.000000000000000E+000
  0.000000000000000E+000
  0.000000000000000E+000
  0.000000000000000E+000
  0.000000000000000E+000
  0.000000000000000E+000
  0.000000000000000E+000
  0.000000000000000E+000
  0.000000000000000E+000
  0.000000000000000E+000
  0.000000000000000E+000
  0.000000000000000E+000
  0.000000000000000E+000
  0.000000000000000E+000
  0.000000000000000E+000
  0.000000000000000E+000
  0.000000000000000E+000
  0.000000000000000E+000
  0.000000000000000E+000
  0.000000000000000E+000
  0.000000000000000E+000
  0.000000000000000E+000
  0.000000000000000E+000
  0.000000000000000E+000
  0.000000000000000E+000
  0.000000000000000E+000
  0.000000000000000E+000
  0.000000000000000E+000
  0.000000000000000E+000
  0.000000000000000E+000
  0.000000000000000E+000
  0.000000000000000E+000
  0.000000000000000E+000
  0.000000000000000E+000
  0.000000000000000E+000
  0.000000000000000E+000
  0.000000000000000E+000
  0.000000000000000E+000
  0.000000000000000E+000
  0.000000000000000E+000
  0.000000000000000E+000
  0.000000000000000E+000
  0.000000000000000E+000
  0.000000000000000E+000
  0.000000000000000E+000
  0.000000000000000E+000
  0.000000000000000E+000
  0.000000000000000E+000
  0.000000000000000E+000
  0.000000000000000E+000
  0.000000000000000E+000
  0.000000000000000E+000
  0.000000000000000E+000
  0.000000000000000E+000
  0.000000000000000E+000
  0.000000000000000E+000
  0.000000000000000E+000
  0.000000000000000E+000
  0.000000000000000E+000
  0.000000000000000E+000
  0.000000000000000E+000
  0.000000000000000E+000
  0.000000000000000E+000
  0.000000000000000E+000
  0.000000000000000E+000
  0.000000000000000E+000
  0.000000000000000E+000
  0.000000000000000E+000
  0.000000000000000E+000
  0.000000000000000E+000
  0.000000000000000E+000
  0.000000000000000E+000
  0.000000000000000E+000
  0.000000000000000E+000
  0.000000000000000E+000
  0.000000000000000E+000
  0.000000000000000E+000
  0.000000000000000E+000
  0.000000000000000E+000
  0.000000000000000E+000
  0.000000000000000E+000
  0.000000000000000E+000
  0.000000000000000E+000
  0.000000000000000E+000
  0.000000000000000E+000
  0.000000000000000E+000
  0.000000000000000E+000
  0.000000000000000E+000
  0.000000000000000E+000
  0.000000000000000E+000
  0.000000000000000E+000
  0.000000000000000E+000
  0.000000000000000E+000
  0.000000000000000E+000
  0.000000000000000E+000
  0.000000000000000E+000
  0.000000000000000E+000
  0.000000000000000E+000
  0.000000000000000E+000
  0.000000000000000E+000
  0.000000000000000E+000
  0.000000000000000E+000
  0.000000000000000E+000
  0.000000000000000E+000
  0.000000000000000E+000
  0.000000000000000E+000
  0.000000000000000E+000
  0.000000000000000E+000
  0.000000000000000E+000
  0.000000000000000E+000
  0.000000000000000E+000
  0.000000000000000E+000
  0.000000000000000E+000
  0.000000000000000E+000
  0.000000000000000E+000
  0.000000000000000E+000
  0.000000000000000E+000
  0.000000000000000E+000
  0.000000000000000E+000
  0.000000000000000E+000
  0.000000000000000E+000
  0.000000000000000E+000
  0.000000000000000E+000
  0.000000000000000E+000
  0.000000000000000E+000
  0.000000000000000E+000
  0.000000000000000E+000
  0.000000000000000E+000
  0.000000000000000E+000
  0.000000000000000E+000
  0.000000000000000E+000
  0.000000000000000E+000
  0.000000000000000E+000
  0.000000000000000E+000
  0.000000000000000E+000
  0.000000000000000E+000
  0.000000000000000E+000
  0.000000000000000E+000
  0.000000000000000E+000
  0.000000000000000E+000
  0.000000000000000E+000
  0.000000000000000E+000
  0.000000000000000E+000
  0.000000000000000E+000
  0.000000000000000E+000
  0.000000000000000E+000
  0.000000000000000E+000
  0.000000000000000E+000
  0.000000000000000E+000
  0.000000000000000E+000
SCALARS poroL double 
LOOKUP_TABLE default
  0.155933986362231     
  0.155933479009224     
  0.155933000456367     
  0.155932549922229     
  0.155932126458603     
  0.155931728987054     
  0.155931356333755     
  0.155931007262011     
  0.155930680501980     
  0.155930374777189     
  0.155930088827452     
  0.155929821427896     
  0.155929571403789     
  0.155929337640893     
  0.155929119091101     
  0.155933909921441     
  0.155933403159829     
  0.155932925402647     
  0.155932475830569     
  0.155932053458567     
  0.155931657173154     
  0.155931285767790     
  0.155930937975892     
  0.155930612500975     
  0.155930308043514     
  0.155930023324189     
  0.155929757103194     
  0.155929508195343     
  0.155929275480671     
  0.155929057910311     
  0.155933756793155     
  0.155933251252857     
  0.155932775125233     
  0.155932327514358     
  0.155931907360884     
  0.155931513480642     
  0.155931144601190     
  0.155930799395769     
  0.155930476514252     
  0.155930174610701     
  0.155929892367238     
  0.155929628513924     
  0.155929381844403     
  0.155929151227024     
  0.155928935611187     
  0.155933526483390     
  0.155933022872322     
  0.155932549285363     
  0.155932104709677     
  0.155931687972749     
  0.155931297782985     
  0.155930932767910     
  0.155930591509508     
  0.155930272576329     
  0.155929974552051     
  0.155929696060248     
  0.155929435785106     
  0.155929192487873     
  0.155928965018756     
  0.155928752324021     
  0.155933218249905     
  0.155932717395343     
  0.155932247377986     
  0.155931807025407     
  0.155931395011108     
  0.155931009897690     
  0.155930650177162     
  0.155930314308033     
  0.155930000748864     
  0.155929707988096     
  0.155929434569939     
  0.155929179116169     
  0.155928940343621     
  0.155928717077152     
  0.155928508257784     
  0.155932831101137     
  0.155932333993874     
  0.155931868735842     
  0.155931433949262     
  0.155931028110296     
  0.155930649595273     
  0.155930296723502     
  0.155929967796368     
  0.155929661132560     
  0.155929375099317     
  0.155929108139623     
  0.155928858795253     
  0.155928625725559     
  0.155928407721773     
  0.155928203716539     
  0.155932363795539     
  0.155931871637715     
  0.155931412535523     
  0.155930984856359     
  0.155930586832652     
  0.155930216611557     
  0.155929872300513     
  0.155929552008522     
  0.155929253883126     
  0.155928976143144     
  0.155928717107231     
  0.155928475218307     
  0.155928249063819     
  0.155928037391685     
  0.155927839121620     
  0.155931814842014     
  0.155931329099406     
  0.155930877806055     
  0.155930459020790     
  0.155930070682502     
  0.155929710663571     
  0.155929376818284     
  0.155929067026301     
  0.155928779231317     
  0.155928511475192     
  0.155928261927819     
  0.155928028912942     
  0.155927810930041     
  0.155927606672218     
  0.155927415039772     
  0.155931182502308     
  0.155930704961818     
  0.155930263440705     
  0.155929855630797     
  0.155929479123971     
  0.155929131469427     
  0.155928810224914     
  0.155928513002184     
  0.155928237507069     
  0.155927981574703     
  0.155927743200440     
  0.155927520566939     
  0.155927312067725     
  0.155927116327290     
  0.155926932217468     
  0.155930464796440     
  0.155929997629388     
  0.155929568212865     
  0.155929173808269     
  0.155928811603214     
  0.155928478772581     
  0.155928172532299     
  0.155927890186346     
  0.155927629167683     
  0.155927387073996     
  0.155927161699149     
  0.155926951061186     
  0.155926753427479     
  0.155926567337294     
  0.155926391621578     
  0.155929659512468     
  0.155929205344192     
  0.155928790797060     
  0.155928412633464     
  0.155928067575789     
  0.155927752371007     
  0.155927463846507     
  0.155927198957902     
  0.155926954829912     
  0.155926728791657     
  0.155926518407762     
  0.155926321506616     
  0.155926136206813     
  0.155925960942336     
  0.155925794486449     
  0.155928764222067     
  0.155928326208195     
  0.155927929796304     
  0.155927571176018     
  0.155927246540037     
  0.155926952151892     
  0.155926684403048     
  0.155926439860395     
  0.155926215305701     
  0.155926007768944     
  0.155925814557678     
  0.155925633284434     
  0.155925461893830     
  0.155925298690392     
  0.155925142367289     
  0.155927776303597     
  0.155927358213277     
  0.155926983777293     
  0.155926648533572     
  0.155926348077555     
  0.155926078132623     
  0.155925834607434     
  0.155925613641494     
  0.155925411641124     
  0.155925225308628     
  0.155925051667756     
  0.155924888088495     
  0.155924732313747     
  0.155924582489552     
  0.155924437199440     
  0.155926692974468     
  0.155926299280812     
  0.155925951315185     
  0.155925643879656     
  0.155925371902137     
  0.155925130509038     
  0.155924915081493     
  0.155924721296767     
  0.155924545157832     
  0.155924383015079     
  0.155924231584688     
  0.155924087968126     
  0.155923949676576     
  0.155923814662961     
  0.155923681362649     
  0.155925511334649     
  0.155925147312848     
  0.155924831050144     
  0.155924556522952     
  0.155924317919050     
  0.155924109712289     
  0.155923926716040     
  0.155923764117369     
  0.155923617496011     
  0.155923482833876     
  0.155923356521626     
  0.155923235368850     
  0.155923116623450     
  0.155922998004258     
  0.155922877748779     
  0.155924228423138     
  0.155923900257222     
  0.155923621758415     
  0.155923385980818     
  0.155923186297204     
  0.155923016476170     
  0.155922870730814     
  0.155922743741339     
  0.155922630657403     
  0.155922527088486     
  0.155922429091830     
  0.155922333167381     
  0.155922236267909     
  0.155922135830217     
  0.155922029830421     
  0.155922841288978     
  0.155922556189422     
  0.155922322441647     
  0.155922132071142     
  0.155921977557942     
  0.155921851917686     
  0.155921748742969     
  0.155921662208180     
  0.155921587046394     
  0.155921518510546     
  0.155921452332799     
  0.155921384695710     
  0.155921312226913     
  0.155921232025777     
  0.155921141726530     
  0.155921347078103     
  0.155921113414803     
  0.155920932439817     
  0.155920795028544     
  0.155920692686012     
  0.155920617634926     
  0.155920562846102     
  0.155920522016252     
  0.155920489506347     
  0.155920460258900     
  0.155920429714508     
  0.155920393747068     
  0.155920348634172     
  0.155920291074626     
  0.155920218259435     
  0.155919743136898     
  0.155919570596320     
  0.155919451575909     
  0.155919375654203     
  0.155919333271160     
  0.155919315828367     
  0.155919315702675     
  0.155919326182360     
  0.155919341347219     
  0.155919355920607     
  0.155919365122901     
  0.155919364553709     
  0.155919350125595     
  0.155919318065868     
  0.155919264995276     
  0.155918027133208     
  0.155917926915962     
  0.155917880345469     
  0.155917875513917     
  0.155917901693248     
  0.155917949454582     
  0.155918010653875     
  0.155918078302468     
  0.155918146358811     
  0.155918209484444     
  0.155918262806326     
  0.155918301722644     
  0.155918321782742     
  0.155918318663832     
  0.155918288257113     
  0.155916197196228     
  0.155916182284199     
  0.155916220173061     
  0.155916297207885     
  0.155916401370558     
  0.155916522425127     
  0.155916651851942     
  0.155916782611471     
  0.155916908801482     
  0.155917025273766     
  0.155917127267977     
  0.155917210110092     
  0.155917269014814     
  0.155917299023459     
  0.155917295096645     
  0.155914252079686     
  0.155914337623966     
  0.155914473773911     
  0.155914644750348     
  0.155914837100602     
  0.155915039867499     
  0.155915244420062     
  0.155915444037683     
  0.155915633362744     
  0.155915807820953     
  0.155915963081278     
  0.155916094607934     
  0.155916197351917     
  0.155916265627144     
  0.155916293206605     
  0.155912191361059     
  0.155912395280908     
  0.155912645689205     
  0.155912924121435     
  0.155913215535395     
  0.155913508467339     
  0.155913794641533     
  0.155914068243113     
  0.155914325063818     
  0.155914561660895     
  0.155914774597601     
  0.155914959804731     
  0.155915112109704     
  0.155915225008733     
  0.155915290751227     
  0.155910015710774     
  0.155910359664648     
  0.155910743121875     
  0.155911144092583     
  0.155911545845681     
  0.155911936904703     
  0.155912310167884     
  0.155912661632092     
  0.155912989097527     
  0.155913291018527     
  0.155913565508989     
  0.155913809467098     
  0.155914017864419     
  0.155914183310574     
  0.155914296085594     
  0.155907727315461     
  0.155908238347386     
  0.155908777314936     
  0.155909317486939     
  0.155909840627457     
  0.155910336364483     
  0.155910800204960     
  0.155911231298157     
  0.155911630581737     
  0.155911999376957     
  0.155912338223339     
  0.155912645767431     
  0.155912917630162     
  0.155913145582686     
  0.155913317317826     
  0.155905330690320     
  0.155906044130920     
  0.155906765959896     
  0.155907463105575     
  0.155908117038205     
  0.155908721007246     
  0.155909275571018     
  0.155909784865071     
  0.155910254241851     
  0.155910688941225     
  0.155911093049431     
  0.155911468126442     
  0.155911811567592     
  0.155912114609943     
  0.155912361646047     
  0.155902834479254     
  0.155903799455575     
  0.155904737589552     
  0.155905608515588     
  0.155906397890617     
  0.155907108043023     
  0.155907748456039     
  0.155908330173271     
  0.155908864070147     
  0.155909360174165     
  0.155909827194699     
  0.155910271657747     
  0.155910694687271     
  0.155911088944460     
  0.155911434183510     
  0.155900257112224     
  0.155901546653303     
  0.155902739814155     
  0.155903793214346     
  0.155904711366380     
  0.155905516939101     
  0.155906231668144     
  0.155906874781121     
  0.155907463075603     
  0.155908011617450     
  0.155908534411185     
  0.155909044543794     
  0.155909553598937     
  0.155910058006394     
  0.155910536287977     
  0.155897644462502     
  0.155899378073295     
  0.155900852074916     
  0.155902065667544     
  0.155903088335259     
  0.155903967227749     
  0.155904737286259     
  0.155905425302068     
  0.155906053208699     
  0.155906640386660     
  0.155907205613081     
  0.155907769197573     
  0.155908354832955     
  0.155908996493571     
  0.155909656882730     
  0.155895205482193     
  0.155897505774253     
  0.155899162652112     
  0.155900474168603     
  0.155901556068631     
  0.155902475147401     
  0.155903274866521     
  0.155903986672754     
  0.155904635508504     
  0.155905243262282     
  0.155905831626848     
  0.155906425503823     
  0.155907059314849     
  0.155907790132749     
  0.155908786410501     
