# vtk DataFile Version 3.0
vtk output
ASCII
DATASET UNSTRUCTURED_GRID
POINTS       496 double 
  0.00000000E+00  3.00000000E+02  0.00000000E+00
  0.00000000E+00  2.80000000E+02  0.00000000E+00
  0.00000000E+00  2.60000000E+02  0.00000000E+00
  0.00000000E+00  2.40000000E+02  0.00000000E+00
  0.00000000E+00  2.20000000E+02  0.00000000E+00
  0.00000000E+00  2.00000000E+02  0.00000000E+00
  0.00000000E+00  1.80000000E+02  0.00000000E+00
  0.00000000E+00  1.60000000E+02  0.00000000E+00
  0.00000000E+00  1.40000000E+02  0.00000000E+00
  0.00000000E+00  1.20000000E+02  0.00000000E+00
  0.00000000E+00  1.00000000E+02  0.00000000E+00
  0.00000000E+00  8.00000000E+01  0.00000000E+00
  0.00000000E+00  6.00000000E+01  0.00000000E+00
  0.00000000E+00  4.00000000E+01  0.00000000E+00
  0.00000000E+00  2.00000000E+01  0.00000000E+00
  0.00000000E+00  4.99600361E-14  0.00000000E+00
  2.00000000E+01  3.00000000E+02  0.00000000E+00
  2.00000000E+01  2.80000000E+02  0.00000000E+00
  2.00000000E+01  2.60000000E+02  0.00000000E+00
  2.00000000E+01  2.40000000E+02  0.00000000E+00
  2.00000000E+01  2.20000000E+02  0.00000000E+00
  2.00000000E+01  2.00000000E+02  0.00000000E+00
  2.00000000E+01  1.80000000E+02  0.00000000E+00
  2.00000000E+01  1.60000000E+02  0.00000000E+00
  2.00000000E+01  1.40000000E+02  0.00000000E+00
  2.00000000E+01  1.20000000E+02  0.00000000E+00
  2.00000000E+01  1.00000000E+02  0.00000000E+00
  2.00000000E+01  8.00000000E+01  0.00000000E+00
  2.00000000E+01  6.00000000E+01  0.00000000E+00
  2.00000000E+01  4.00000000E+01  0.00000000E+00
  2.00000000E+01  2.00000000E+01  0.00000000E+00
  2.00000000E+01  4.99600361E-14  0.00000000E+00
  4.00000000E+01  3.00000000E+02  0.00000000E+00
  4.00000000E+01  2.80000000E+02  0.00000000E+00
  4.00000000E+01  2.60000000E+02  0.00000000E+00
  4.00000000E+01  2.40000000E+02  0.00000000E+00
  4.00000000E+01  2.20000000E+02  0.00000000E+00
  4.00000000E+01  2.00000000E+02  0.00000000E+00
  4.00000000E+01  1.80000000E+02  0.00000000E+00
  4.00000000E+01  1.60000000E+02  0.00000000E+00
  4.00000000E+01  1.40000000E+02  0.00000000E+00
  4.00000000E+01  1.20000000E+02  0.00000000E+00
  4.00000000E+01  1.00000000E+02  0.00000000E+00
  4.00000000E+01  8.00000000E+01  0.00000000E+00
  4.00000000E+01  6.00000000E+01  0.00000000E+00
  4.00000000E+01  4.00000000E+01  0.00000000E+00
  4.00000000E+01  2.00000000E+01  0.00000000E+00
  4.00000000E+01  4.99600361E-14  0.00000000E+00
  6.00000000E+01  3.00000000E+02  0.00000000E+00
  6.00000000E+01  2.80000000E+02  0.00000000E+00
  6.00000000E+01  2.60000000E+02  0.00000000E+00
  6.00000000E+01  2.40000000E+02  0.00000000E+00
  6.00000000E+01  2.20000000E+02  0.00000000E+00
  6.00000000E+01  2.00000000E+02  0.00000000E+00
  6.00000000E+01  1.80000000E+02  0.00000000E+00
  6.00000000E+01  1.60000000E+02  0.00000000E+00
  6.00000000E+01  1.40000000E+02  0.00000000E+00
  6.00000000E+01  1.20000000E+02  0.00000000E+00
  6.00000000E+01  1.00000000E+02  0.00000000E+00
  6.00000000E+01  8.00000000E+01  0.00000000E+00
  6.00000000E+01  6.00000000E+01  0.00000000E+00
  6.00000000E+01  4.00000000E+01  0.00000000E+00
  6.00000000E+01  2.00000000E+01  0.00000000E+00
  6.00000000E+01  4.99600361E-14  0.00000000E+00
  8.00000000E+01  3.00000000E+02  0.00000000E+00
  8.00000000E+01  2.80000000E+02  0.00000000E+00
  8.00000000E+01  2.60000000E+02  0.00000000E+00
  8.00000000E+01  2.40000000E+02  0.00000000E+00
  8.00000000E+01  2.20000000E+02  0.00000000E+00
  8.00000000E+01  2.00000000E+02  0.00000000E+00
  8.00000000E+01  1.80000000E+02  0.00000000E+00
  8.00000000E+01  1.60000000E+02  0.00000000E+00
  8.00000000E+01  1.40000000E+02  0.00000000E+00
  8.00000000E+01  1.20000000E+02  0.00000000E+00
  8.00000000E+01  1.00000000E+02  0.00000000E+00
  8.00000000E+01  8.00000000E+01  0.00000000E+00
  8.00000000E+01  6.00000000E+01  0.00000000E+00
  8.00000000E+01  4.00000000E+01  0.00000000E+00
  8.00000000E+01  2.00000000E+01  0.00000000E+00
  8.00000000E+01  4.99600361E-14  0.00000000E+00
  1.00000000E+02  3.00000000E+02  0.00000000E+00
  1.00000000E+02  2.80000000E+02  0.00000000E+00
  1.00000000E+02  2.60000000E+02  0.00000000E+00
  1.00000000E+02  2.40000000E+02  0.00000000E+00
  1.00000000E+02  2.20000000E+02  0.00000000E+00
  1.00000000E+02  2.00000000E+02  0.00000000E+00
  1.00000000E+02  1.80000000E+02  0.00000000E+00
  1.00000000E+02  1.60000000E+02  0.00000000E+00
  1.00000000E+02  1.40000000E+02  0.00000000E+00
  1.00000000E+02  1.20000000E+02  0.00000000E+00
  1.00000000E+02  1.00000000E+02  0.00000000E+00
  1.00000000E+02  8.00000000E+01  0.00000000E+00
  1.00000000E+02  6.00000000E+01  0.00000000E+00
  1.00000000E+02  4.00000000E+01  0.00000000E+00
  1.00000000E+02  2.00000000E+01  0.00000000E+00
  1.00000000E+02  4.99600361E-14  0.00000000E+00
  1.20000000E+02  3.00000000E+02  0.00000000E+00
  1.20000000E+02  2.80000000E+02  0.00000000E+00
  1.20000000E+02  2.60000000E+02  0.00000000E+00
  1.20000000E+02  2.40000000E+02  0.00000000E+00
  1.20000000E+02  2.20000000E+02  0.00000000E+00
  1.20000000E+02  2.00000000E+02  0.00000000E+00
  1.20000000E+02  1.80000000E+02  0.00000000E+00
  1.20000000E+02  1.60000000E+02  0.00000000E+00
  1.20000000E+02  1.40000000E+02  0.00000000E+00
  1.20000000E+02  1.20000000E+02  0.00000000E+00
  1.20000000E+02  1.00000000E+02  0.00000000E+00
  1.20000000E+02  8.00000000E+01  0.00000000E+00
  1.20000000E+02  6.00000000E+01  0.00000000E+00
  1.20000000E+02  4.00000000E+01  0.00000000E+00
  1.20000000E+02  2.00000000E+01  0.00000000E+00
  1.20000000E+02  4.99600361E-14  0.00000000E+00
  1.40000000E+02  3.00000000E+02  0.00000000E+00
  1.40000000E+02  2.80000000E+02  0.00000000E+00
  1.40000000E+02  2.60000000E+02  0.00000000E+00
  1.40000000E+02  2.40000000E+02  0.00000000E+00
  1.40000000E+02  2.20000000E+02  0.00000000E+00
  1.40000000E+02  2.00000000E+02  0.00000000E+00
  1.40000000E+02  1.80000000E+02  0.00000000E+00
  1.40000000E+02  1.60000000E+02  0.00000000E+00
  1.40000000E+02  1.40000000E+02  0.00000000E+00
  1.40000000E+02  1.20000000E+02  0.00000000E+00
  1.40000000E+02  1.00000000E+02  0.00000000E+00
  1.40000000E+02  8.00000000E+01  0.00000000E+00
  1.40000000E+02  6.00000000E+01  0.00000000E+00
  1.40000000E+02  4.00000000E+01  0.00000000E+00
  1.40000000E+02  2.00000000E+01  0.00000000E+00
  1.40000000E+02  4.99600361E-14  0.00000000E+00
  1.60000000E+02  3.00000000E+02  0.00000000E+00
  1.60000000E+02  2.80000000E+02  0.00000000E+00
  1.60000000E+02  2.60000000E+02  0.00000000E+00
  1.60000000E+02  2.40000000E+02  0.00000000E+00
  1.60000000E+02  2.20000000E+02  0.00000000E+00
  1.60000000E+02  2.00000000E+02  0.00000000E+00
  1.60000000E+02  1.80000000E+02  0.00000000E+00
  1.60000000E+02  1.60000000E+02  0.00000000E+00
  1.60000000E+02  1.40000000E+02  0.00000000E+00
  1.60000000E+02  1.20000000E+02  0.00000000E+00
  1.60000000E+02  1.00000000E+02  0.00000000E+00
  1.60000000E+02  8.00000000E+01  0.00000000E+00
  1.60000000E+02  6.00000000E+01  0.00000000E+00
  1.60000000E+02  4.00000000E+01  0.00000000E+00
  1.60000000E+02  2.00000000E+01  0.00000000E+00
  1.60000000E+02  4.99600361E-14  0.00000000E+00
  1.80000000E+02  3.00000000E+02  0.00000000E+00
  1.80000000E+02  2.80000000E+02  0.00000000E+00
  1.80000000E+02  2.60000000E+02  0.00000000E+00
  1.80000000E+02  2.40000000E+02  0.00000000E+00
  1.80000000E+02  2.20000000E+02  0.00000000E+00
  1.80000000E+02  2.00000000E+02  0.00000000E+00
  1.80000000E+02  1.80000000E+02  0.00000000E+00
  1.80000000E+02  1.60000000E+02  0.00000000E+00
  1.80000000E+02  1.40000000E+02  0.00000000E+00
  1.80000000E+02  1.20000000E+02  0.00000000E+00
  1.80000000E+02  1.00000000E+02  0.00000000E+00
  1.80000000E+02  8.00000000E+01  0.00000000E+00
  1.80000000E+02  6.00000000E+01  0.00000000E+00
  1.80000000E+02  4.00000000E+01  0.00000000E+00
  1.80000000E+02  2.00000000E+01  0.00000000E+00
  1.80000000E+02  4.99600361E-14  0.00000000E+00
  2.00000000E+02  3.00000000E+02  0.00000000E+00
  2.00000000E+02  2.80000000E+02  0.00000000E+00
  2.00000000E+02  2.60000000E+02  0.00000000E+00
  2.00000000E+02  2.40000000E+02  0.00000000E+00
  2.00000000E+02  2.20000000E+02  0.00000000E+00
  2.00000000E+02  2.00000000E+02  0.00000000E+00
  2.00000000E+02  1.80000000E+02  0.00000000E+00
  2.00000000E+02  1.60000000E+02  0.00000000E+00
  2.00000000E+02  1.40000000E+02  0.00000000E+00
  2.00000000E+02  1.20000000E+02  0.00000000E+00
  2.00000000E+02  1.00000000E+02  0.00000000E+00
  2.00000000E+02  8.00000000E+01  0.00000000E+00
  2.00000000E+02  6.00000000E+01  0.00000000E+00
  2.00000000E+02  4.00000000E+01  0.00000000E+00
  2.00000000E+02  2.00000000E+01  0.00000000E+00
  2.00000000E+02  4.99600361E-14  0.00000000E+00
  2.20000000E+02  3.00000000E+02  0.00000000E+00
  2.20000000E+02  2.80000000E+02  0.00000000E+00
  2.20000000E+02  2.60000000E+02  0.00000000E+00
  2.20000000E+02  2.40000000E+02  0.00000000E+00
  2.20000000E+02  2.20000000E+02  0.00000000E+00
  2.20000000E+02  2.00000000E+02  0.00000000E+00
  2.20000000E+02  1.80000000E+02  0.00000000E+00
  2.20000000E+02  1.60000000E+02  0.00000000E+00
  2.20000000E+02  1.40000000E+02  0.00000000E+00
  2.20000000E+02  1.20000000E+02  0.00000000E+00
  2.20000000E+02  1.00000000E+02  0.00000000E+00
  2.20000000E+02  8.00000000E+01  0.00000000E+00
  2.20000000E+02  6.00000000E+01  0.00000000E+00
  2.20000000E+02  4.00000000E+01  0.00000000E+00
  2.20000000E+02  2.00000000E+01  0.00000000E+00
  2.20000000E+02  4.99600361E-14  0.00000000E+00
  2.40000000E+02  3.00000000E+02  0.00000000E+00
  2.40000000E+02  2.80000000E+02  0.00000000E+00
  2.40000000E+02  2.60000000E+02  0.00000000E+00
  2.40000000E+02  2.40000000E+02  0.00000000E+00
  2.40000000E+02  2.20000000E+02  0.00000000E+00
  2.40000000E+02  2.00000000E+02  0.00000000E+00
  2.40000000E+02  1.80000000E+02  0.00000000E+00
  2.40000000E+02  1.60000000E+02  0.00000000E+00
  2.40000000E+02  1.40000000E+02  0.00000000E+00
  2.40000000E+02  1.20000000E+02  0.00000000E+00
  2.40000000E+02  1.00000000E+02  0.00000000E+00
  2.40000000E+02  8.00000000E+01  0.00000000E+00
  2.40000000E+02  6.00000000E+01  0.00000000E+00
  2.40000000E+02  4.00000000E+01  0.00000000E+00
  2.40000000E+02  2.00000000E+01  0.00000000E+00
  2.40000000E+02  4.99600361E-14  0.00000000E+00
  2.60000000E+02  3.00000000E+02  0.00000000E+00
  2.60000000E+02  2.80000000E+02  0.00000000E+00
  2.60000000E+02  2.60000000E+02  0.00000000E+00
  2.60000000E+02  2.40000000E+02  0.00000000E+00
  2.60000000E+02  2.20000000E+02  0.00000000E+00
  2.60000000E+02  2.00000000E+02  0.00000000E+00
  2.60000000E+02  1.80000000E+02  0.00000000E+00
  2.60000000E+02  1.60000000E+02  0.00000000E+00
  2.60000000E+02  1.40000000E+02  0.00000000E+00
  2.60000000E+02  1.20000000E+02  0.00000000E+00
  2.60000000E+02  1.00000000E+02  0.00000000E+00
  2.60000000E+02  8.00000000E+01  0.00000000E+00
  2.60000000E+02  6.00000000E+01  0.00000000E+00
  2.60000000E+02  4.00000000E+01  0.00000000E+00
  2.60000000E+02  2.00000000E+01  0.00000000E+00
  2.60000000E+02  4.99600361E-14  0.00000000E+00
  2.80000000E+02  3.00000000E+02  0.00000000E+00
  2.80000000E+02  2.80000000E+02  0.00000000E+00
  2.80000000E+02  2.60000000E+02  0.00000000E+00
  2.80000000E+02  2.40000000E+02  0.00000000E+00
  2.80000000E+02  2.20000000E+02  0.00000000E+00
  2.80000000E+02  2.00000000E+02  0.00000000E+00
  2.80000000E+02  1.80000000E+02  0.00000000E+00
  2.80000000E+02  1.60000000E+02  0.00000000E+00
  2.80000000E+02  1.40000000E+02  0.00000000E+00
  2.80000000E+02  1.20000000E+02  0.00000000E+00
  2.80000000E+02  1.00000000E+02  0.00000000E+00
  2.80000000E+02  8.00000000E+01  0.00000000E+00
  2.80000000E+02  6.00000000E+01  0.00000000E+00
  2.80000000E+02  4.00000000E+01  0.00000000E+00
  2.80000000E+02  2.00000000E+01  0.00000000E+00
  2.80000000E+02  4.99600361E-14  0.00000000E+00
  3.00000000E+02  3.00000000E+02  0.00000000E+00
  3.00000000E+02  2.80000000E+02  0.00000000E+00
  3.00000000E+02  2.60000000E+02  0.00000000E+00
  3.00000000E+02  2.40000000E+02  0.00000000E+00
  3.00000000E+02  2.20000000E+02  0.00000000E+00
  3.00000000E+02  2.00000000E+02  0.00000000E+00
  3.00000000E+02  1.80000000E+02  0.00000000E+00
  3.00000000E+02  1.60000000E+02  0.00000000E+00
  3.00000000E+02  1.40000000E+02  0.00000000E+00
  3.00000000E+02  1.20000000E+02  0.00000000E+00
  3.00000000E+02  1.00000000E+02  0.00000000E+00
  3.00000000E+02  8.00000000E+01  0.00000000E+00
  3.00000000E+02  6.00000000E+01  0.00000000E+00
  3.00000000E+02  4.00000000E+01  0.00000000E+00
  3.00000000E+02  2.00000000E+01  0.00000000E+00
  3.00000000E+02  4.99600361E-14  0.00000000E+00
  3.20000000E+02  3.00000000E+02  0.00000000E+00
  3.20000000E+02  2.80000000E+02  0.00000000E+00
  3.20000000E+02  2.60000000E+02  0.00000000E+00
  3.20000000E+02  2.40000000E+02  0.00000000E+00
  3.20000000E+02  2.20000000E+02  0.00000000E+00
  3.20000000E+02  2.00000000E+02  0.00000000E+00
  3.20000000E+02  1.80000000E+02  0.00000000E+00
  3.20000000E+02  1.60000000E+02  0.00000000E+00
  3.20000000E+02  1.40000000E+02  0.00000000E+00
  3.20000000E+02  1.20000000E+02  0.00000000E+00
  3.20000000E+02  1.00000000E+02  0.00000000E+00
  3.20000000E+02  8.00000000E+01  0.00000000E+00
  3.20000000E+02  6.00000000E+01  0.00000000E+00
  3.20000000E+02  4.00000000E+01  0.00000000E+00
  3.20000000E+02  2.00000000E+01  0.00000000E+00
  3.20000000E+02  4.99600361E-14  0.00000000E+00
  3.40000000E+02  3.00000000E+02  0.00000000E+00
  3.40000000E+02  2.80000000E+02  0.00000000E+00
  3.40000000E+02  2.60000000E+02  0.00000000E+00
  3.40000000E+02  2.40000000E+02  0.00000000E+00
  3.40000000E+02  2.20000000E+02  0.00000000E+00
  3.40000000E+02  2.00000000E+02  0.00000000E+00
  3.40000000E+02  1.80000000E+02  0.00000000E+00
  3.40000000E+02  1.60000000E+02  0.00000000E+00
  3.40000000E+02  1.40000000E+02  0.00000000E+00
  3.40000000E+02  1.20000000E+02  0.00000000E+00
  3.40000000E+02  1.00000000E+02  0.00000000E+00
  3.40000000E+02  8.00000000E+01  0.00000000E+00
  3.40000000E+02  6.00000000E+01  0.00000000E+00
  3.40000000E+02  4.00000000E+01  0.00000000E+00
  3.40000000E+02  2.00000000E+01  0.00000000E+00
  3.40000000E+02  4.99600361E-14  0.00000000E+00
  3.60000000E+02  3.00000000E+02  0.00000000E+00
  3.60000000E+02  2.80000000E+02  0.00000000E+00
  3.60000000E+02  2.60000000E+02  0.00000000E+00
  3.60000000E+02  2.40000000E+02  0.00000000E+00
  3.60000000E+02  2.20000000E+02  0.00000000E+00
  3.60000000E+02  2.00000000E+02  0.00000000E+00
  3.60000000E+02  1.80000000E+02  0.00000000E+00
  3.60000000E+02  1.60000000E+02  0.00000000E+00
  3.60000000E+02  1.40000000E+02  0.00000000E+00
  3.60000000E+02  1.20000000E+02  0.00000000E+00
  3.60000000E+02  1.00000000E+02  0.00000000E+00
  3.60000000E+02  8.00000000E+01  0.00000000E+00
  3.60000000E+02  6.00000000E+01  0.00000000E+00
  3.60000000E+02  4.00000000E+01  0.00000000E+00
  3.60000000E+02  2.00000000E+01  0.00000000E+00
  3.60000000E+02  4.99600361E-14  0.00000000E+00
  3.80000000E+02  3.00000000E+02  0.00000000E+00
  3.80000000E+02  2.80000000E+02  0.00000000E+00
  3.80000000E+02  2.60000000E+02  0.00000000E+00
  3.80000000E+02  2.40000000E+02  0.00000000E+00
  3.80000000E+02  2.20000000E+02  0.00000000E+00
  3.80000000E+02  2.00000000E+02  0.00000000E+00
  3.80000000E+02  1.80000000E+02  0.00000000E+00
  3.80000000E+02  1.60000000E+02  0.00000000E+00
  3.80000000E+02  1.40000000E+02  0.00000000E+00
  3.80000000E+02  1.20000000E+02  0.00000000E+00
  3.80000000E+02  1.00000000E+02  0.00000000E+00
  3.80000000E+02  8.00000000E+01  0.00000000E+00
  3.80000000E+02  6.00000000E+01  0.00000000E+00
  3.80000000E+02  4.00000000E+01  0.00000000E+00
  3.80000000E+02  2.00000000E+01  0.00000000E+00
  3.80000000E+02  4.99600361E-14  0.00000000E+00
  4.00000000E+02  3.00000000E+02  0.00000000E+00
  4.00000000E+02  2.80000000E+02  0.00000000E+00
  4.00000000E+02  2.60000000E+02  0.00000000E+00
  4.00000000E+02  2.40000000E+02  0.00000000E+00
  4.00000000E+02  2.20000000E+02  0.00000000E+00
  4.00000000E+02  2.00000000E+02  0.00000000E+00
  4.00000000E+02  1.80000000E+02  0.00000000E+00
  4.00000000E+02  1.60000000E+02  0.00000000E+00
  4.00000000E+02  1.40000000E+02  0.00000000E+00
  4.00000000E+02  1.20000000E+02  0.00000000E+00
  4.00000000E+02  1.00000000E+02  0.00000000E+00
  4.00000000E+02  8.00000000E+01  0.00000000E+00
  4.00000000E+02  6.00000000E+01  0.00000000E+00
  4.00000000E+02  4.00000000E+01  0.00000000E+00
  4.00000000E+02  2.00000000E+01  0.00000000E+00
  4.00000000E+02  4.99600361E-14  0.00000000E+00
  4.20000000E+02  3.00000000E+02  0.00000000E+00
  4.20000000E+02  2.80000000E+02  0.00000000E+00
  4.20000000E+02  2.60000000E+02  0.00000000E+00
  4.20000000E+02  2.40000000E+02  0.00000000E+00
  4.20000000E+02  2.20000000E+02  0.00000000E+00
  4.20000000E+02  2.00000000E+02  0.00000000E+00
  4.20000000E+02  1.80000000E+02  0.00000000E+00
  4.20000000E+02  1.60000000E+02  0.00000000E+00
  4.20000000E+02  1.40000000E+02  0.00000000E+00
  4.20000000E+02  1.20000000E+02  0.00000000E+00
  4.20000000E+02  1.00000000E+02  0.00000000E+00
  4.20000000E+02  8.00000000E+01  0.00000000E+00
  4.20000000E+02  6.00000000E+01  0.00000000E+00
  4.20000000E+02  4.00000000E+01  0.00000000E+00
  4.20000000E+02  2.00000000E+01  0.00000000E+00
  4.20000000E+02  4.99600361E-14  0.00000000E+00
  4.40000000E+02  3.00000000E+02  0.00000000E+00
  4.40000000E+02  2.80000000E+02  0.00000000E+00
  4.40000000E+02  2.60000000E+02  0.00000000E+00
  4.40000000E+02  2.40000000E+02  0.00000000E+00
  4.40000000E+02  2.20000000E+02  0.00000000E+00
  4.40000000E+02  2.00000000E+02  0.00000000E+00
  4.40000000E+02  1.80000000E+02  0.00000000E+00
  4.40000000E+02  1.60000000E+02  0.00000000E+00
  4.40000000E+02  1.40000000E+02  0.00000000E+00
  4.40000000E+02  1.20000000E+02  0.00000000E+00
  4.40000000E+02  1.00000000E+02  0.00000000E+00
  4.40000000E+02  8.00000000E+01  0.00000000E+00
  4.40000000E+02  6.00000000E+01  0.00000000E+00
  4.40000000E+02  4.00000000E+01  0.00000000E+00
  4.40000000E+02  2.00000000E+01  0.00000000E+00
  4.40000000E+02  4.99600361E-14  0.00000000E+00
  4.60000000E+02  3.00000000E+02  0.00000000E+00
  4.60000000E+02  2.80000000E+02  0.00000000E+00
  4.60000000E+02  2.60000000E+02  0.00000000E+00
  4.60000000E+02  2.40000000E+02  0.00000000E+00
  4.60000000E+02  2.20000000E+02  0.00000000E+00
  4.60000000E+02  2.00000000E+02  0.00000000E+00
  4.60000000E+02  1.80000000E+02  0.00000000E+00
  4.60000000E+02  1.60000000E+02  0.00000000E+00
  4.60000000E+02  1.40000000E+02  0.00000000E+00
  4.60000000E+02  1.20000000E+02  0.00000000E+00
  4.60000000E+02  1.00000000E+02  0.00000000E+00
  4.60000000E+02  8.00000000E+01  0.00000000E+00
  4.60000000E+02  6.00000000E+01  0.00000000E+00
  4.60000000E+02  4.00000000E+01  0.00000000E+00
  4.60000000E+02  2.00000000E+01  0.00000000E+00
  4.60000000E+02  4.99600361E-14  0.00000000E+00
  4.80000000E+02  3.00000000E+02  0.00000000E+00
  4.80000000E+02  2.80000000E+02  0.00000000E+00
  4.80000000E+02  2.60000000E+02  0.00000000E+00
  4.80000000E+02  2.40000000E+02  0.00000000E+00
  4.80000000E+02  2.20000000E+02  0.00000000E+00
  4.80000000E+02  2.00000000E+02  0.00000000E+00
  4.80000000E+02  1.80000000E+02  0.00000000E+00
  4.80000000E+02  1.60000000E+02  0.00000000E+00
  4.80000000E+02  1.40000000E+02  0.00000000E+00
  4.80000000E+02  1.20000000E+02  0.00000000E+00
  4.80000000E+02  1.00000000E+02  0.00000000E+00
  4.80000000E+02  8.00000000E+01  0.00000000E+00
  4.80000000E+02  6.00000000E+01  0.00000000E+00
  4.80000000E+02  4.00000000E+01  0.00000000E+00
  4.80000000E+02  2.00000000E+01  0.00000000E+00
  4.80000000E+02  4.99600361E-14  0.00000000E+00
  5.00000000E+02  3.00000000E+02  0.00000000E+00
  5.00000000E+02  2.80000000E+02  0.00000000E+00
  5.00000000E+02  2.60000000E+02  0.00000000E+00
  5.00000000E+02  2.40000000E+02  0.00000000E+00
  5.00000000E+02  2.20000000E+02  0.00000000E+00
  5.00000000E+02  2.00000000E+02  0.00000000E+00
  5.00000000E+02  1.80000000E+02  0.00000000E+00
  5.00000000E+02  1.60000000E+02  0.00000000E+00
  5.00000000E+02  1.40000000E+02  0.00000000E+00
  5.00000000E+02  1.20000000E+02  0.00000000E+00
  5.00000000E+02  1.00000000E+02  0.00000000E+00
  5.00000000E+02  8.00000000E+01  0.00000000E+00
  5.00000000E+02  6.00000000E+01  0.00000000E+00
  5.00000000E+02  4.00000000E+01  0.00000000E+00
  5.00000000E+02  2.00000000E+01  0.00000000E+00
  5.00000000E+02  4.99600361E-14  0.00000000E+00
  5.20000000E+02  3.00000000E+02  0.00000000E+00
  5.20000000E+02  2.80000000E+02  0.00000000E+00
  5.20000000E+02  2.60000000E+02  0.00000000E+00
  5.20000000E+02  2.40000000E+02  0.00000000E+00
  5.20000000E+02  2.20000000E+02  0.00000000E+00
  5.20000000E+02  2.00000000E+02  0.00000000E+00
  5.20000000E+02  1.80000000E+02  0.00000000E+00
  5.20000000E+02  1.60000000E+02  0.00000000E+00
  5.20000000E+02  1.40000000E+02  0.00000000E+00
  5.20000000E+02  1.20000000E+02  0.00000000E+00
  5.20000000E+02  1.00000000E+02  0.00000000E+00
  5.20000000E+02  8.00000000E+01  0.00000000E+00
  5.20000000E+02  6.00000000E+01  0.00000000E+00
  5.20000000E+02  4.00000000E+01  0.00000000E+00
  5.20000000E+02  2.00000000E+01  0.00000000E+00
  5.20000000E+02  4.99600361E-14  0.00000000E+00
  5.40000000E+02  3.00000000E+02  0.00000000E+00
  5.40000000E+02  2.80000000E+02  0.00000000E+00
  5.40000000E+02  2.60000000E+02  0.00000000E+00
  5.40000000E+02  2.40000000E+02  0.00000000E+00
  5.40000000E+02  2.20000000E+02  0.00000000E+00
  5.40000000E+02  2.00000000E+02  0.00000000E+00
  5.40000000E+02  1.80000000E+02  0.00000000E+00
  5.40000000E+02  1.60000000E+02  0.00000000E+00
  5.40000000E+02  1.40000000E+02  0.00000000E+00
  5.40000000E+02  1.20000000E+02  0.00000000E+00
  5.40000000E+02  1.00000000E+02  0.00000000E+00
  5.40000000E+02  8.00000000E+01  0.00000000E+00
  5.40000000E+02  6.00000000E+01  0.00000000E+00
  5.40000000E+02  4.00000000E+01  0.00000000E+00
  5.40000000E+02  2.00000000E+01  0.00000000E+00
  5.40000000E+02  4.99600361E-14  0.00000000E+00
  5.60000000E+02  3.00000000E+02  0.00000000E+00
  5.60000000E+02  2.80000000E+02  0.00000000E+00
  5.60000000E+02  2.60000000E+02  0.00000000E+00
  5.60000000E+02  2.40000000E+02  0.00000000E+00
  5.60000000E+02  2.20000000E+02  0.00000000E+00
  5.60000000E+02  2.00000000E+02  0.00000000E+00
  5.60000000E+02  1.80000000E+02  0.00000000E+00
  5.60000000E+02  1.60000000E+02  0.00000000E+00
  5.60000000E+02  1.40000000E+02  0.00000000E+00
  5.60000000E+02  1.20000000E+02  0.00000000E+00
  5.60000000E+02  1.00000000E+02  0.00000000E+00
  5.60000000E+02  8.00000000E+01  0.00000000E+00
  5.60000000E+02  6.00000000E+01  0.00000000E+00
  5.60000000E+02  4.00000000E+01  0.00000000E+00
  5.60000000E+02  2.00000000E+01  0.00000000E+00
  5.60000000E+02  4.99600361E-14  0.00000000E+00
  5.80000000E+02  3.00000000E+02  0.00000000E+00
  5.80000000E+02  2.80000000E+02  0.00000000E+00
  5.80000000E+02  2.60000000E+02  0.00000000E+00
  5.80000000E+02  2.40000000E+02  0.00000000E+00
  5.80000000E+02  2.20000000E+02  0.00000000E+00
  5.80000000E+02  2.00000000E+02  0.00000000E+00
  5.80000000E+02  1.80000000E+02  0.00000000E+00
  5.80000000E+02  1.60000000E+02  0.00000000E+00
  5.80000000E+02  1.40000000E+02  0.00000000E+00
  5.80000000E+02  1.20000000E+02  0.00000000E+00
  5.80000000E+02  1.00000000E+02  0.00000000E+00
  5.80000000E+02  8.00000000E+01  0.00000000E+00
  5.80000000E+02  6.00000000E+01  0.00000000E+00
  5.80000000E+02  4.00000000E+01  0.00000000E+00
  5.80000000E+02  2.00000000E+01  0.00000000E+00
  5.80000000E+02  4.99600361E-14  0.00000000E+00
  6.00000000E+02  3.00000000E+02  0.00000000E+00
  6.00000000E+02  2.80000000E+02  0.00000000E+00
  6.00000000E+02  2.60000000E+02  0.00000000E+00
  6.00000000E+02  2.40000000E+02  0.00000000E+00
  6.00000000E+02  2.20000000E+02  0.00000000E+00
  6.00000000E+02  2.00000000E+02  0.00000000E+00
  6.00000000E+02  1.80000000E+02  0.00000000E+00
  6.00000000E+02  1.60000000E+02  0.00000000E+00
  6.00000000E+02  1.40000000E+02  0.00000000E+00
  6.00000000E+02  1.20000000E+02  0.00000000E+00
  6.00000000E+02  1.00000000E+02  0.00000000E+00
  6.00000000E+02  8.00000000E+01  0.00000000E+00
  6.00000000E+02  6.00000000E+01  0.00000000E+00
  6.00000000E+02  4.00000000E+01  0.00000000E+00
  6.00000000E+02  2.00000000E+01  0.00000000E+00
  6.00000000E+02  4.99600361E-14  0.00000000E+00
CELLS       450      2250
         4           0           1          17          16
         4           1           2          18          17
         4           2           3          19          18
         4           3           4          20          19
         4           4           5          21          20
         4           5           6          22          21
         4           6           7          23          22
         4           7           8          24          23
         4           8           9          25          24
         4           9          10          26          25
         4          10          11          27          26
         4          11          12          28          27
         4          12          13          29          28
         4          13          14          30          29
         4          14          15          31          30
         4          16          17          33          32
         4          17          18          34          33
         4          18          19          35          34
         4          19          20          36          35
         4          20          21          37          36
         4          21          22          38          37
         4          22          23          39          38
         4          23          24          40          39
         4          24          25          41          40
         4          25          26          42          41
         4          26          27          43          42
         4          27          28          44          43
         4          28          29          45          44
         4          29          30          46          45
         4          30          31          47          46
         4          32          33          49          48
         4          33          34          50          49
         4          34          35          51          50
         4          35          36          52          51
         4          36          37          53          52
         4          37          38          54          53
         4          38          39          55          54
         4          39          40          56          55
         4          40          41          57          56
         4          41          42          58          57
         4          42          43          59          58
         4          43          44          60          59
         4          44          45          61          60
         4          45          46          62          61
         4          46          47          63          62
         4          48          49          65          64
         4          49          50          66          65
         4          50          51          67          66
         4          51          52          68          67
         4          52          53          69          68
         4          53          54          70          69
         4          54          55          71          70
         4          55          56          72          71
         4          56          57          73          72
         4          57          58          74          73
         4          58          59          75          74
         4          59          60          76          75
         4          60          61          77          76
         4          61          62          78          77
         4          62          63          79          78
         4          64          65          81          80
         4          65          66          82          81
         4          66          67          83          82
         4          67          68          84          83
         4          68          69          85          84
         4          69          70          86          85
         4          70          71          87          86
         4          71          72          88          87
         4          72          73          89          88
         4          73          74          90          89
         4          74          75          91          90
         4          75          76          92          91
         4          76          77          93          92
         4          77          78          94          93
         4          78          79          95          94
         4          80          81          97          96
         4          81          82          98          97
         4          82          83          99          98
         4          83          84         100          99
         4          84          85         101         100
         4          85          86         102         101
         4          86          87         103         102
         4          87          88         104         103
         4          88          89         105         104
         4          89          90         106         105
         4          90          91         107         106
         4          91          92         108         107
         4          92          93         109         108
         4          93          94         110         109
         4          94          95         111         110
         4          96          97         113         112
         4          97          98         114         113
         4          98          99         115         114
         4          99         100         116         115
         4         100         101         117         116
         4         101         102         118         117
         4         102         103         119         118
         4         103         104         120         119
         4         104         105         121         120
         4         105         106         122         121
         4         106         107         123         122
         4         107         108         124         123
         4         108         109         125         124
         4         109         110         126         125
         4         110         111         127         126
         4         112         113         129         128
         4         113         114         130         129
         4         114         115         131         130
         4         115         116         132         131
         4         116         117         133         132
         4         117         118         134         133
         4         118         119         135         134
         4         119         120         136         135
         4         120         121         137         136
         4         121         122         138         137
         4         122         123         139         138
         4         123         124         140         139
         4         124         125         141         140
         4         125         126         142         141
         4         126         127         143         142
         4         128         129         145         144
         4         129         130         146         145
         4         130         131         147         146
         4         131         132         148         147
         4         132         133         149         148
         4         133         134         150         149
         4         134         135         151         150
         4         135         136         152         151
         4         136         137         153         152
         4         137         138         154         153
         4         138         139         155         154
         4         139         140         156         155
         4         140         141         157         156
         4         141         142         158         157
         4         142         143         159         158
         4         144         145         161         160
         4         145         146         162         161
         4         146         147         163         162
         4         147         148         164         163
         4         148         149         165         164
         4         149         150         166         165
         4         150         151         167         166
         4         151         152         168         167
         4         152         153         169         168
         4         153         154         170         169
         4         154         155         171         170
         4         155         156         172         171
         4         156         157         173         172
         4         157         158         174         173
         4         158         159         175         174
         4         160         161         177         176
         4         161         162         178         177
         4         162         163         179         178
         4         163         164         180         179
         4         164         165         181         180
         4         165         166         182         181
         4         166         167         183         182
         4         167         168         184         183
         4         168         169         185         184
         4         169         170         186         185
         4         170         171         187         186
         4         171         172         188         187
         4         172         173         189         188
         4         173         174         190         189
         4         174         175         191         190
         4         176         177         193         192
         4         177         178         194         193
         4         178         179         195         194
         4         179         180         196         195
         4         180         181         197         196
         4         181         182         198         197
         4         182         183         199         198
         4         183         184         200         199
         4         184         185         201         200
         4         185         186         202         201
         4         186         187         203         202
         4         187         188         204         203
         4         188         189         205         204
         4         189         190         206         205
         4         190         191         207         206
         4         192         193         209         208
         4         193         194         210         209
         4         194         195         211         210
         4         195         196         212         211
         4         196         197         213         212
         4         197         198         214         213
         4         198         199         215         214
         4         199         200         216         215
         4         200         201         217         216
         4         201         202         218         217
         4         202         203         219         218
         4         203         204         220         219
         4         204         205         221         220
         4         205         206         222         221
         4         206         207         223         222
         4         208         209         225         224
         4         209         210         226         225
         4         210         211         227         226
         4         211         212         228         227
         4         212         213         229         228
         4         213         214         230         229
         4         214         215         231         230
         4         215         216         232         231
         4         216         217         233         232
         4         217         218         234         233
         4         218         219         235         234
         4         219         220         236         235
         4         220         221         237         236
         4         221         222         238         237
         4         222         223         239         238
         4         224         225         241         240
         4         225         226         242         241
         4         226         227         243         242
         4         227         228         244         243
         4         228         229         245         244
         4         229         230         246         245
         4         230         231         247         246
         4         231         232         248         247
         4         232         233         249         248
         4         233         234         250         249
         4         234         235         251         250
         4         235         236         252         251
         4         236         237         253         252
         4         237         238         254         253
         4         238         239         255         254
         4         240         241         257         256
         4         241         242         258         257
         4         242         243         259         258
         4         243         244         260         259
         4         244         245         261         260
         4         245         246         262         261
         4         246         247         263         262
         4         247         248         264         263
         4         248         249         265         264
         4         249         250         266         265
         4         250         251         267         266
         4         251         252         268         267
         4         252         253         269         268
         4         253         254         270         269
         4         254         255         271         270
         4         256         257         273         272
         4         257         258         274         273
         4         258         259         275         274
         4         259         260         276         275
         4         260         261         277         276
         4         261         262         278         277
         4         262         263         279         278
         4         263         264         280         279
         4         264         265         281         280
         4         265         266         282         281
         4         266         267         283         282
         4         267         268         284         283
         4         268         269         285         284
         4         269         270         286         285
         4         270         271         287         286
         4         272         273         289         288
         4         273         274         290         289
         4         274         275         291         290
         4         275         276         292         291
         4         276         277         293         292
         4         277         278         294         293
         4         278         279         295         294
         4         279         280         296         295
         4         280         281         297         296
         4         281         282         298         297
         4         282         283         299         298
         4         283         284         300         299
         4         284         285         301         300
         4         285         286         302         301
         4         286         287         303         302
         4         288         289         305         304
         4         289         290         306         305
         4         290         291         307         306
         4         291         292         308         307
         4         292         293         309         308
         4         293         294         310         309
         4         294         295         311         310
         4         295         296         312         311
         4         296         297         313         312
         4         297         298         314         313
         4         298         299         315         314
         4         299         300         316         315
         4         300         301         317         316
         4         301         302         318         317
         4         302         303         319         318
         4         304         305         321         320
         4         305         306         322         321
         4         306         307         323         322
         4         307         308         324         323
         4         308         309         325         324
         4         309         310         326         325
         4         310         311         327         326
         4         311         312         328         327
         4         312         313         329         328
         4         313         314         330         329
         4         314         315         331         330
         4         315         316         332         331
         4         316         317         333         332
         4         317         318         334         333
         4         318         319         335         334
         4         320         321         337         336
         4         321         322         338         337
         4         322         323         339         338
         4         323         324         340         339
         4         324         325         341         340
         4         325         326         342         341
         4         326         327         343         342
         4         327         328         344         343
         4         328         329         345         344
         4         329         330         346         345
         4         330         331         347         346
         4         331         332         348         347
         4         332         333         349         348
         4         333         334         350         349
         4         334         335         351         350
         4         336         337         353         352
         4         337         338         354         353
         4         338         339         355         354
         4         339         340         356         355
         4         340         341         357         356
         4         341         342         358         357
         4         342         343         359         358
         4         343         344         360         359
         4         344         345         361         360
         4         345         346         362         361
         4         346         347         363         362
         4         347         348         364         363
         4         348         349         365         364
         4         349         350         366         365
         4         350         351         367         366
         4         352         353         369         368
         4         353         354         370         369
         4         354         355         371         370
         4         355         356         372         371
         4         356         357         373         372
         4         357         358         374         373
         4         358         359         375         374
         4         359         360         376         375
         4         360         361         377         376
         4         361         362         378         377
         4         362         363         379         378
         4         363         364         380         379
         4         364         365         381         380
         4         365         366         382         381
         4         366         367         383         382
         4         368         369         385         384
         4         369         370         386         385
         4         370         371         387         386
         4         371         372         388         387
         4         372         373         389         388
         4         373         374         390         389
         4         374         375         391         390
         4         375         376         392         391
         4         376         377         393         392
         4         377         378         394         393
         4         378         379         395         394
         4         379         380         396         395
         4         380         381         397         396
         4         381         382         398         397
         4         382         383         399         398
         4         384         385         401         400
         4         385         386         402         401
         4         386         387         403         402
         4         387         388         404         403
         4         388         389         405         404
         4         389         390         406         405
         4         390         391         407         406
         4         391         392         408         407
         4         392         393         409         408
         4         393         394         410         409
         4         394         395         411         410
         4         395         396         412         411
         4         396         397         413         412
         4         397         398         414         413
         4         398         399         415         414
         4         400         401         417         416
         4         401         402         418         417
         4         402         403         419         418
         4         403         404         420         419
         4         404         405         421         420
         4         405         406         422         421
         4         406         407         423         422
         4         407         408         424         423
         4         408         409         425         424
         4         409         410         426         425
         4         410         411         427         426
         4         411         412         428         427
         4         412         413         429         428
         4         413         414         430         429
         4         414         415         431         430
         4         416         417         433         432
         4         417         418         434         433
         4         418         419         435         434
         4         419         420         436         435
         4         420         421         437         436
         4         421         422         438         437
         4         422         423         439         438
         4         423         424         440         439
         4         424         425         441         440
         4         425         426         442         441
         4         426         427         443         442
         4         427         428         444         443
         4         428         429         445         444
         4         429         430         446         445
         4         430         431         447         446
         4         432         433         449         448
         4         433         434         450         449
         4         434         435         451         450
         4         435         436         452         451
         4         436         437         453         452
         4         437         438         454         453
         4         438         439         455         454
         4         439         440         456         455
         4         440         441         457         456
         4         441         442         458         457
         4         442         443         459         458
         4         443         444         460         459
         4         444         445         461         460
         4         445         446         462         461
         4         446         447         463         462
         4         448         449         465         464
         4         449         450         466         465
         4         450         451         467         466
         4         451         452         468         467
         4         452         453         469         468
         4         453         454         470         469
         4         454         455         471         470
         4         455         456         472         471
         4         456         457         473         472
         4         457         458         474         473
         4         458         459         475         474
         4         459         460         476         475
         4         460         461         477         476
         4         461         462         478         477
         4         462         463         479         478
         4         464         465         481         480
         4         465         466         482         481
         4         466         467         483         482
         4         467         468         484         483
         4         468         469         485         484
         4         469         470         486         485
         4         470         471         487         486
         4         471         472         488         487
         4         472         473         489         488
         4         473         474         490         489
         4         474         475         491         490
         4         475         476         492         491
         4         476         477         493         492
         4         477         478         494         493
         4         478         479         495         494
CELL_TYPES        450
9
9
9
9
9
9
9
9
9
9
9
9
9
9
9
9
9
9
9
9
9
9
9
9
9
9
9
9
9
9
9
9
9
9
9
9
9
9
9
9
9
9
9
9
9
9
9
9
9
9
9
9
9
9
9
9
9
9
9
9
9
9
9
9
9
9
9
9
9
9
9
9
9
9
9
9
9
9
9
9
9
9
9
9
9
9
9
9
9
9
9
9
9
9
9
9
9
9
9
9
9
9
9
9
9
9
9
9
9
9
9
9
9
9
9
9
9
9
9
9
9
9
9
9
9
9
9
9
9
9
9
9
9
9
9
9
9
9
9
9
9
9
9
9
9
9
9
9
9
9
9
9
9
9
9
9
9
9
9
9
9
9
9
9
9
9
9
9
9
9
9
9
9
9
9
9
9
9
9
9
9
9
9
9
9
9
9
9
9
9
9
9
9
9
9
9
9
9
9
9
9
9
9
9
9
9
9
9
9
9
9
9
9
9
9
9
9
9
9
9
9
9
9
9
9
9
9
9
9
9
9
9
9
9
9
9
9
9
9
9
9
9
9
9
9
9
9
9
9
9
9
9
9
9
9
9
9
9
9
9
9
9
9
9
9
9
9
9
9
9
9
9
9
9
9
9
9
9
9
9
9
9
9
9
9
9
9
9
9
9
9
9
9
9
9
9
9
9
9
9
9
9
9
9
9
9
9
9
9
9
9
9
9
9
9
9
9
9
9
9
9
9
9
9
9
9
9
9
9
9
9
9
9
9
9
9
9
9
9
9
9
9
9
9
9
9
9
9
9
9
9
9
9
9
9
9
9
9
9
9
9
9
9
9
9
9
9
9
9
9
9
9
9
9
9
9
9
9
9
9
9
9
9
9
9
9
9
9
9
9
9
9
9
9
9
9
9
9
9
9
9
9
9
9
9
9
9
9
9
9
9
9
9
9
9
9
9
9
9
9
9
9
9
9
9
9
9
9
9
9
9
9
9
9
9
9
9
9
9
9
9
9
9
9
9
9
9
9
9
9
POINT_DATA       496
SCALARS p double 
LOOKUP_TABLE default
   70979954.2158212     
   70980225.5608713     
   70980993.7576246     
   70982128.4175611     
   70983486.1777107     
   70984969.4682071     
   70986507.8357746     
   70988006.9601238     
   70989434.6475405     
   70990747.0873329     
   70991944.6468789     
   70993012.1545261     
   70993931.6138503     
   70994679.5135267     
   70995226.3545637     
   70995446.5524943     
   68955974.0433673     
   68956184.4777673     
   68956688.0763837     
   68957337.0761831     
   68958107.8074132     
   68958996.1165819     
   68959960.2440642     
   68960986.5065204     
   68962076.9872042     
   68963140.5252403     
   68964127.5533879     
   68965008.2054635     
   68965754.4158418     
   68966335.6879547     
   68966705.5174801     
   68966831.0654306     
   66931742.5040225     
   66931839.9119378     
   66932105.5185573     
   66932478.0288608     
   66932930.7727532     
   66933491.0920391     
   66934147.4078374     
   66934895.0094711     
   66935703.6702436     
   66936521.5290286     
   66937300.0063691     
   66937999.2968068     
   66938586.4317093     
   66939029.6092743     
   66939302.7854038     
   66939395.4999440     
   64907448.3813409     
   64907459.5790466     
   64907549.0636533     
   64907773.8731860     
   64908121.2782329     
   64908559.0195121     
   64909047.3622033     
   64909597.9415054     
   64910195.5958945     
   64910810.5007830     
   64911404.7330275     
   64911943.1463858     
   64912394.4739182     
   64912732.9890121     
   64912940.9158057     
   64913011.7952366     
   62883408.6971925     
   62883429.8439667     
   62883525.2086281     
   62883704.3708195     
   62883952.7912228     
   62884269.7764625     
   62884635.6914612     
   62885043.3992294     
   62885484.2801640     
   62885939.2066547     
   62886382.6309197     
   62886787.1552623     
   62887127.8221811     
   62887384.3374356     
   62887543.0845656     
   62887598.0764710     
   60860021.1854253     
   60860038.7789620     
   60860109.7388425     
   60860236.7472854     
   60860416.5259189     
   60860642.5413405     
   60860907.7209926     
   60861204.4009512     
   60861524.3967576     
   60861854.8170468     
   60862178.1904079     
   60862475.0913741     
   60862726.9306424     
   60862918.2828248     
   60863038.2421864     
   60863080.6721459     
   58837236.8218294     
   58837251.4209136     
   58837299.6520828     
   58837386.0032642     
   58837508.5895315     
   58837664.1774161     
   58837848.1965248     
   58838055.5516829     
   58838279.7526396     
   58838511.8292293     
   58838740.0387489     
   58838951.0671760     
   58839131.7858910     
   58839270.8067837     
   58839359.4164883     
   58839391.5879013     
   56815046.2863852     
   56815056.4994142     
   56815087.1170149     
   56815140.7625005     
   56815217.5801081     
   56815316.0526237     
   56815433.9497261     
   56815568.2140280     
   56815714.6732882     
   56815867.5151042     
   56816019.2107828     
   56816161.0749335     
   56816284.2428291     
   56816380.6092306     
   56816443.3692945     
   56816466.9465627     
   54793435.4965671     
   54793441.4651049     
   54793457.3101056     
   54793484.3713480     
   54793523.3848295     
   54793574.4262007     
   54793637.0334158     
   54793710.1627807     
   54793791.9013915     
   54793879.2110601     
   54793967.8716472     
   54794052.7536888     
   54794128.3171692     
   54794189.1101847     
   54794230.0341672     
   54794246.2251592     
   52772385.0668750     
   52772387.1524717     
   52772390.0288750     
   52772394.1684492     
   52772400.6590470     
   52772410.7394182     
   52772425.5532993     
   52772445.9142856     
   52772472.0465627     
   52772503.3610084     
   52772538.3717256     
   52772574.7864381     
   52772609.7220488     
   52772639.9217223     
   52772661.8386044     
   52772671.4939022     
   50751870.2810824     
   50751868.5747380     
   50751859.2707694     
   50751842.3360921     
   50751819.2335539     
   50751792.2400070     
   50751763.9662326     
   50751736.9815243     
   50751713.4956688     
   50751695.1130642     
   50751682.6880673     
   50751676.2904898     
   50751675.2451944     
   50751678.1761862     
   50751682.9785061     
   50751686.6668012     
   48731860.9497363     
   48731855.2721143     
   48731833.7007832     
   48731796.1019759     
   48731744.4910131     
   48731682.2092293     
   48731613.2977620     
   48731542.0086848     
   48731472.4176392     
   48731408.1267370     
   48731352.0577941     
   48731306.3267189     
   48731272.1714082     
   48731249.8901120     
   48731238.7468288     
   48731236.8176658     
   46712321.6493054     
   46712311.5946065     
   46712276.9771555     
   46712218.0212004     
   46712137.5654894     
   46712040.1473792     
   46711931.2775535     
   46711816.8668691     
   46711702.7752568     
   46711594.4632268     
   46711496.7314358     
   46711413.5310692     
   46711347.8206355     
   46711301.4402180     
   46711274.9776701     
   46711267.6148308     
   44693211.9890121     
   44693196.9845210     
   44693148.0319446     
   44693066.2158369     
   44692955.5347638     
   44692821.9235697     
   44692672.4609164     
   44692514.7361934     
   44692356.3503110     
   44692204.5275333     
   44692065.8171245     
   44691945.8629110     
   44691849.2175266     
   44691779.1790700     
   44691737.6338840     
   44691724.9010032     
   42674486.8873757     
   42674466.2471918     
   42674401.3248302     
   42674294.5976650     
   42674151.6050778     
   42673979.9281777     
   42673788.3531258     
   42673586.2002340     
   42673382.7961776     
   42673187.0645699     
   42673007.2093785     
   42672850.4656738     
   42672722.8936289     
   42672629.1958176     
   42672572.5455732     
   42672554.4255947     
   40656096.8309563     
   40656069.8040385     
   40655987.0790577     
   40655853.0798657     
   40655675.2968141     
   40655463.2351403     
   40655227.5517415     
   40654979.3673084     
   40654729.7320163     
   40654489.2174172     
   40654267.6044701     
   40654073.6377550     
   40653914.8189866     
   40653797.2190202     
   40653725.2969529     
   40653701.7270826     
   38637988.1094649     
   38637953.9233839     
   38637851.5003417     
   38637687.7805881     
   38637472.6331794     
   38637217.7787227     
   38636935.9141761     
   38636640.0289314     
   38636342.8887563     
   38636056.6554363     
   38635792.6056571     
   38635560.9127673     
   38635370.4593121     
   38635228.6561917     
   38635141.2556657     
   38635112.1593279     
   36620103.0245393     
   36620060.9271176     
   36619936.9779001     
   36619741.2183186     
   36619486.3326640     
   36619186.5469484     
   36618856.7551606     
   36618511.8620200     
   36618166.3139223     
   36617833.7776643     
   36617526.9208398     
   36617257.2483532     
   36617034.9550372     
   36616868.7644652     
   36616765.7380528     
   36616731.0551259     
   34602380.0710316     
   34602329.3718918     
   34602182.2663545     
   34601952.4982521     
   34601656.0054377     
   34601309.7934667     
   34600931.0776583     
   34600536.6796187     
   34600142.6402062     
   34599763.9952484     
   34599414.6540348     
   34599107.3222402     
   34598853.4185419     
   34598662.9469678     
   34598544.3040881     
   34598504.0204421     
   32584754.0892634     
   32584694.2031886     
   32584522.6469181     
   32584257.4889585     
   32583918.3545256     
   32583525.2704122     
   32583097.8411628     
   32582654.7346106     
   32582213.4214662     
   32581790.0948078     
   32581399.6903908     
   32581055.9330264     
   32580771.3451206     
   32580557.1690889     
   32580423.1753573     
   32580377.3524659     
   30567156.3852442     
   30567086.8794261     
   30566890.0659834     
   30566588.9895577     
   30566207.3847760     
   30565768.4876834     
   30565294.2737045     
   30564805.0817887     
   30564319.5392904     
   30563854.6829822     
   30563426.1721690     
   30563048.5009125     
   30562735.1314016     
   30562498.4874219     
   30562349.7683207     
   30562298.5735147     
   28549514.8135598     
   28549435.4614074     
   28549213.2490096     
   28548876.8900913     
   28548454.6275510     
   28547973.0100871     
   28547456.2392836     
   28546926.0067931     
   28546401.6832749     
   28545900.7096943     
   28545439.0588151     
   28545031.6589964     
   28544692.6909506     
   28544435.6810189     
   28544273.3325304     
   28544217.0704472     
   26531753.8143455     
   26531664.6600453     
   26531417.7883955     
   26531048.3333447     
   26530589.3991777     
   26530070.8155774     
   26529518.6820742     
   26528955.5354999     
   26528400.9077611     
   26527872.0625191     
   26527384.7564358     
   26526953.9175613     
   26526594.1499589     
   26526319.9697209     
   26526145.6798627     
   26526084.8258986     
   24513794.3894047     
   24513695.8310060     
   24513426.2064621     
   24513027.8990510     
   24512539.1317731     
   24511992.7597658     
   24511416.1857981     
   24510832.0453222     
   24510259.2657634     
   24509714.2144672     
   24509211.7873736     
   24508766.3690466     
   24508392.5944359     
   24508105.7969064     
   24507921.9863089     
   24507857.2240805     
   22495553.9883618     
   22495446.8963938     
   22495158.0029559     
   22494737.8587288     
   22494229.8539978     
   22493669.2301574     
   22493083.7129074     
   22492495.0097043     
   22491920.5149611     
   22491374.8892029     
   22490871.4452895     
   22490423.3757541     
   22490044.8208538     
   22489751.6435302     
   22489561.6435805     
   22489493.9116190     
   20476946.2607834     
   20476832.1662777     
   20476529.7180796     
   20476098.6101252     
   20475586.9765674     
   20475031.1351744     
   20474457.6207548     
   20473885.9129637     
   20473330.8760745     
   20472804.6783919     
   20472318.3392956     
   20471883.1382382     
   20471512.0076984     
   20471220.8232695     
   20471029.1356239     
   20470959.6934992     
   18457880.5968380     
   18457762.0282244     
   18457455.1170127     
   18457029.5461540     
   18456536.6807692     
   18456011.4567739     
   18455477.0710168     
   18454949.3583068     
   18454439.8038703     
   18453957.5096606     
   18453510.6755161     
   18453107.9629120     
   18452760.1579448     
   18452482.1780985     
   18452294.9120853     
   18452225.4667327     
   16438261.2457438     
   16438142.4548177     
   16437845.8421937     
   16437450.9710751     
   16437008.4615251     
   16436547.6385566     
   16436085.8799664     
   16435634.3395317     
   16435200.7079613     
   16434790.8691663     
   16434410.0543436     
   16434063.9330304     
   16433759.9997575     
   16433510.5004662     
   16433336.2716283     
   16433269.1743175     
   14417985.7155127     
   14417874.4860567     
   14417613.6357822     
   14417288.6132583     
   14416939.5606349     
   14416584.7752744     
   14416234.6700039     
   14415895.5450694     
   14415571.5538012     
   14415265.7386659     
   14414980.7324864     
   14414719.3884461     
   14414485.7126422     
   14414286.2685417     
   14414138.0568034     
   14414077.2824072     
   12396941.2743373     
   12396854.7762240     
   12396679.5123257     
   12396483.2859044     
   12396280.5267351     
   12396079.0326483     
   12395882.8776047     
   12395694.4619167     
   12395515.2800242     
   12395346.3564400     
   12395188.5259557     
   12395042.6799652     
   12394910.0323208     
   12394792.9368098     
   12394694.3765617     
   12394644.7975813     
   10375000.0000000     
   10375000.0000000     
   10375000.0000000     
   10375000.0000000     
   10375000.0000000     
   10375000.0000000     
   10375000.0000000     
   10375000.0000000     
   10375000.0000000     
   10375000.0000000     
   10375000.0000000     
   10375000.0000000     
   10375000.0000000     
   10375000.0000000     
   10375000.0000000     
   10375000.0000000     
VECTORS u double 
    0.00000E+00        -0.38751E-02         0.00000E+00
    0.00000E+00        -0.25807E-02         0.00000E+00
    0.00000E+00        -0.15435E-02         0.00000E+00
    0.00000E+00        -0.89206E-03         0.00000E+00
    0.00000E+00        -0.58511E-03         0.00000E+00
    0.00000E+00        -0.45711E-03         0.00000E+00
    0.00000E+00        -0.38040E-03         0.00000E+00
    0.00000E+00        -0.27442E-03         0.00000E+00
    0.00000E+00        -0.14517E-03         0.00000E+00
    0.00000E+00        -0.30224E-05         0.00000E+00
    0.00000E+00         0.13544E-03         0.00000E+00
    0.00000E+00         0.25259E-03         0.00000E+00
    0.00000E+00         0.32885E-03         0.00000E+00
    0.00000E+00         0.34033E-03         0.00000E+00
    0.00000E+00         0.25408E-03         0.00000E+00
    0.00000E+00         0.00000E+00         0.00000E+00
    0.46465E-02        -0.38417E-02         0.00000E+00
    0.44093E-02        -0.26953E-02         0.00000E+00
    0.38504E-02        -0.18464E-02         0.00000E+00
    0.31851E-02        -0.12991E-02         0.00000E+00
    0.25823E-02        -0.97745E-03         0.00000E+00
    0.21136E-02        -0.78107E-03         0.00000E+00
    0.17418E-02        -0.61814E-03         0.00000E+00
    0.14876E-02        -0.44819E-03         0.00000E+00
    0.13298E-02        -0.27643E-03         0.00000E+00
    0.11930E-02        -0.10692E-03         0.00000E+00
    0.10592E-02         0.51637E-04         0.00000E+00
    0.91898E-03         0.18482E-03         0.00000E+00
    0.76350E-03         0.27470E-03         0.00000E+00
    0.58105E-03         0.29845E-03         0.00000E+00
    0.35035E-03         0.22367E-03         0.00000E+00
    0.00000E+00         0.00000E+00         0.00000E+00
    0.83978E-02        -0.39943E-02         0.00000E+00
    0.76342E-02        -0.32282E-02         0.00000E+00
    0.65960E-02        -0.26693E-02         0.00000E+00
    0.55374E-02        -0.22263E-02         0.00000E+00
    0.45917E-02        -0.18470E-02         0.00000E+00
    0.38201E-02        -0.15096E-02         0.00000E+00
    0.32543E-02        -0.11980E-02         0.00000E+00
    0.28494E-02        -0.91041E-03         0.00000E+00
    0.25328E-02        -0.64570E-03         0.00000E+00
    0.22556E-02        -0.40564E-03         0.00000E+00
    0.19860E-02        -0.19167E-03         0.00000E+00
    0.17054E-02        -0.12296E-04         0.00000E+00
    0.13966E-02         0.11834E-03         0.00000E+00
    0.10382E-02         0.18070E-03         0.00000E+00
    0.59399E-03         0.14895E-03         0.00000E+00
    0.00000E+00         0.00000E+00         0.00000E+00
    0.11119E-01        -0.49126E-02         0.00000E+00
    0.98158E-02        -0.43367E-02         0.00000E+00
    0.84730E-02        -0.38443E-02         0.00000E+00
    0.72492E-02        -0.33624E-02         0.00000E+00
    0.61988E-02        -0.28843E-02         0.00000E+00
    0.53340E-02        -0.24193E-02         0.00000E+00
    0.46413E-02        -0.19781E-02         0.00000E+00
    0.40880E-02        -0.15708E-02         0.00000E+00
    0.36243E-02        -0.12011E-02         0.00000E+00
    0.32062E-02        -0.86820E-03         0.00000E+00
    0.28003E-02        -0.57369E-03         0.00000E+00
    0.23807E-02        -0.32271E-03         0.00000E+00
    0.19239E-02        -0.12539E-03         0.00000E+00
    0.14022E-02         0.39279E-05         0.00000E+00
    0.77784E-03         0.49473E-04         0.00000E+00
    0.00000E+00         0.00000E+00         0.00000E+00
    0.13029E-01        -0.63815E-02         0.00000E+00
    0.11466E-01        -0.57763E-02         0.00000E+00
    0.10051E-01        -0.51914E-02         0.00000E+00
    0.87745E-02        -0.46036E-02         0.00000E+00
    0.76557E-02        -0.40175E-02         0.00000E+00
    0.66994E-02        -0.34431E-02         0.00000E+00
    0.58926E-02        -0.28921E-02         0.00000E+00
    0.52077E-02        -0.23742E-02         0.00000E+00
    0.46079E-02        -0.18960E-02         0.00000E+00
    0.40552E-02        -0.14601E-02         0.00000E+00
    0.35166E-02        -0.10687E-02         0.00000E+00
    0.29631E-02        -0.72606E-03         0.00000E+00
    0.23672E-02        -0.43919E-03         0.00000E+00
    0.16990E-02        -0.21729E-03         0.00000E+00
    0.92341E-03        -0.69313E-04         0.00000E+00
    0.00000E+00         0.00000E+00         0.00000E+00
    0.14638E-01        -0.80718E-02         0.00000E+00
    0.12983E-01        -0.73498E-02         0.00000E+00
    0.11490E-01        -0.66419E-02         0.00000E+00
    0.10150E-01        -0.59429E-02         0.00000E+00
    0.89612E-02        -0.52502E-02         0.00000E+00
    0.79190E-02        -0.45702E-02         0.00000E+00
    0.70094E-02        -0.39125E-02         0.00000E+00
    0.62086E-02        -0.32861E-02         0.00000E+00
    0.54860E-02        -0.26978E-02         0.00000E+00
    0.48089E-02        -0.21522E-02         0.00000E+00
    0.41457E-02        -0.16525E-02         0.00000E+00
    0.34668E-02        -0.12027E-02         0.00000E+00
    0.27434E-02        -0.80767E-03         0.00000E+00
    0.19459E-02        -0.47301E-03         0.00000E+00
    0.10424E-02        -0.20336E-03         0.00000E+00
    0.00000E+00         0.00000E+00         0.00000E+00
    0.16098E-01        -0.98598E-02         0.00000E+00
    0.14358E-01        -0.90191E-02         0.00000E+00
    0.12790E-01        -0.81939E-02         0.00000E+00
    0.11382E-01        -0.73800E-02         0.00000E+00
    0.10122E-01        -0.65771E-02         0.00000E+00
    0.89987E-02        -0.57891E-02         0.00000E+00
    0.79968E-02        -0.50227E-02         0.00000E+00
    0.70935E-02        -0.42855E-02         0.00000E+00
    0.62618E-02        -0.35837E-02         0.00000E+00
    0.54723E-02        -0.29224E-02         0.00000E+00
    0.46955E-02        -0.23053E-02         0.00000E+00
    0.39025E-02        -0.17361E-02         0.00000E+00
    0.30648E-02        -0.12185E-02         0.00000E+00
    0.21540E-02        -0.75556E-03         0.00000E+00
    0.11417E-02        -0.34955E-03         0.00000E+00
    0.00000E+00         0.00000E+00         0.00000E+00
    0.17405E-01        -0.11734E-01         0.00000E+00
    0.15587E-01        -0.10777E-01         0.00000E+00
    0.13949E-01        -0.98345E-02         0.00000E+00
    0.12472E-01        -0.89051E-02         0.00000E+00
    0.11143E-01        -0.79889E-02         0.00000E+00
    0.99454E-02        -0.70888E-02         0.00000E+00
    0.88607E-02        -0.62096E-02         0.00000E+00
    0.78670E-02        -0.53573E-02         0.00000E+00
    0.69392E-02        -0.45373E-02         0.00000E+00
    0.60502E-02        -0.37542E-02         0.00000E+00
    0.51723E-02        -0.30119E-02         0.00000E+00
    0.42777E-02        -0.23136E-02         0.00000E+00
    0.33394E-02        -0.16619E-02         0.00000E+00
    0.23306E-02        -0.10590E-02         0.00000E+00
    0.12255E-02        -0.50540E-03         0.00000E+00
    0.00000E+00         0.00000E+00         0.00000E+00
    0.18553E-01        -0.13686E-01         0.00000E+00
    0.16666E-01        -0.12612E-01         0.00000E+00
    0.14963E-01        -0.11553E-01         0.00000E+00
    0.13424E-01        -0.10507E-01         0.00000E+00
    0.12031E-01        -0.94744E-02         0.00000E+00
    0.10765E-01        -0.84582E-02         0.00000E+00
    0.96067E-02        -0.74617E-02         0.00000E+00
    0.85341E-02        -0.64894E-02         0.00000E+00
    0.75228E-02        -0.55459E-02         0.00000E+00
    0.65473E-02        -0.46352E-02         0.00000E+00
    0.55813E-02        -0.37607E-02         0.00000E+00
    0.45984E-02        -0.29252E-02         0.00000E+00
    0.35730E-02        -0.21308E-02         0.00000E+00
    0.24802E-02        -0.13787E-02         0.00000E+00
    0.12963E-02        -0.66887E-03         0.00000E+00
    0.00000E+00         0.00000E+00         0.00000E+00
    0.19541E-01        -0.15704E-01         0.00000E+00
    0.17594E-01        -0.14514E-01         0.00000E+00
    0.15834E-01        -0.13337E-01         0.00000E+00
    0.14238E-01        -0.12173E-01         0.00000E+00
    0.12787E-01        -0.11022E-01         0.00000E+00
    0.11462E-01        -0.98865E-02         0.00000E+00
    0.10240E-01        -0.87684E-02         0.00000E+00
    0.90997E-02        -0.76715E-02         0.00000E+00
    0.80173E-02        -0.65995E-02         0.00000E+00
    0.69681E-02        -0.55556E-02         0.00000E+00
    0.59269E-02        -0.45429E-02         0.00000E+00
    0.48690E-02        -0.35636E-02         0.00000E+00
    0.37698E-02        -0.26194E-02         0.00000E+00
    0.26060E-02        -0.17110E-02         0.00000E+00
    0.13559E-02        -0.83834E-03         0.00000E+00
    0.00000E+00         0.00000E+00         0.00000E+00
    0.20365E-01        -0.17777E-01         0.00000E+00
    0.18369E-01        -0.16471E-01         0.00000E+00
    0.16560E-01        -0.15177E-01         0.00000E+00
    0.14916E-01        -0.13894E-01         0.00000E+00
    0.13417E-01        -0.12622E-01         0.00000E+00
    0.12040E-01        -0.11364E-01         0.00000E+00
    0.10765E-01        -0.10120E-01         0.00000E+00
    0.95681E-02        -0.88945E-02         0.00000E+00
    0.84266E-02        -0.76893E-02         0.00000E+00
    0.73163E-02        -0.65075E-02         0.00000E+00
    0.62130E-02        -0.53513E-02         0.00000E+00
    0.50928E-02        -0.42228E-02         0.00000E+00
    0.39324E-02        -0.31232E-02         0.00000E+00
    0.27101E-02        -0.20532E-02         0.00000E+00
    0.14053E-02        -0.10125E-02         0.00000E+00
    0.00000E+00         0.00000E+00         0.00000E+00
    0.21028E-01        -0.19895E-01         0.00000E+00
    0.18992E-01        -0.18473E-01         0.00000E+00
    0.17143E-01        -0.17061E-01         0.00000E+00
    0.15460E-01        -0.15658E-01         0.00000E+00
    0.13920E-01        -0.14264E-01         0.00000E+00
    0.12503E-01        -0.12880E-01         0.00000E+00
    0.11184E-01        -0.11508E-01         0.00000E+00
    0.99428E-02        -0.10150E-01         0.00000E+00
    0.87543E-02        -0.88080E-02         0.00000E+00
    0.75954E-02        -0.74841E-02         0.00000E+00
    0.64424E-02        -0.61802E-02         0.00000E+00
    0.52725E-02        -0.48981E-02         0.00000E+00
    0.40633E-02        -0.36388E-02         0.00000E+00
    0.27939E-02        -0.24030E-02         0.00000E+00
    0.14452E-02        -0.11903E-02         0.00000E+00
    0.00000E+00         0.00000E+00         0.00000E+00
    0.21527E-01        -0.22047E-01         0.00000E+00
    0.19461E-01        -0.20511E-01         0.00000E+00
    0.17582E-01        -0.18980E-01         0.00000E+00
    0.15869E-01        -0.17456E-01         0.00000E+00
    0.14300E-01        -0.15938E-01         0.00000E+00
    0.12852E-01        -0.14427E-01         0.00000E+00
    0.11502E-01        -0.12925E-01         0.00000E+00
    0.10227E-01        -0.11431E-01         0.00000E+00
    0.90033E-02        -0.99489E-02         0.00000E+00
    0.78080E-02        -0.84795E-02         0.00000E+00
    0.66178E-02        -0.70246E-02         0.00000E+00
    0.54103E-02        -0.55855E-02         0.00000E+00
    0.41640E-02        -0.41632E-02         0.00000E+00
    0.28587E-02        -0.27583E-02         0.00000E+00
    0.14761E-02        -0.13707E-02         0.00000E+00
    0.00000E+00         0.00000E+00         0.00000E+00
    0.21863E-01        -0.24226E-01         0.00000E+00
    0.19776E-01        -0.22573E-01         0.00000E+00
    0.17878E-01        -0.20925E-01         0.00000E+00
    0.16146E-01        -0.19279E-01         0.00000E+00
    0.14557E-01        -0.17637E-01         0.00000E+00
    0.13089E-01        -0.15997E-01         0.00000E+00
    0.11719E-01        -0.14361E-01         0.00000E+00
    0.10422E-01        -0.12730E-01         0.00000E+00
    0.91758E-02        -0.11106E-01         0.00000E+00
    0.79563E-02        -0.94883E-02         0.00000E+00
    0.67410E-02        -0.78798E-02         0.00000E+00
    0.55078E-02        -0.62813E-02         0.00000E+00
    0.42357E-02        -0.46936E-02         0.00000E+00
    0.29052E-02        -0.31175E-02         0.00000E+00
    0.14986E-02        -0.15530E-02         0.00000E+00
    0.00000E+00         0.00000E+00         0.00000E+00
    0.22036E-01        -0.26420E-01         0.00000E+00
    0.19938E-01        -0.24653E-01         0.00000E+00
    0.18030E-01        -0.22886E-01         0.00000E+00
    0.16289E-01        -0.21119E-01         0.00000E+00
    0.14692E-01        -0.19350E-01         0.00000E+00
    0.13216E-01        -0.17581E-01         0.00000E+00
    0.11837E-01        -0.15811E-01         0.00000E+00
    0.10531E-01        -0.14041E-01         0.00000E+00
    0.92736E-02        -0.12272E-01         0.00000E+00
    0.80421E-02        -0.10506E-01         0.00000E+00
    0.68136E-02        -0.87418E-02         0.00000E+00
    0.55663E-02        -0.69822E-02         0.00000E+00
    0.42795E-02        -0.52277E-02         0.00000E+00
    0.29341E-02        -0.34789E-02         0.00000E+00
    0.15127E-02        -0.17362E-02         0.00000E+00
    0.00000E+00         0.00000E+00         0.00000E+00
    0.22045E-01        -0.28622E-01         0.00000E+00
    0.19945E-01        -0.26740E-01         0.00000E+00
    0.18038E-01        -0.24855E-01         0.00000E+00
    0.16299E-01        -0.22966E-01         0.00000E+00
    0.14706E-01        -0.21072E-01         0.00000E+00
    0.13234E-01        -0.19172E-01         0.00000E+00
    0.11858E-01        -0.17268E-01         0.00000E+00
    0.10554E-01        -0.15358E-01         0.00000E+00
    0.92980E-02        -0.13444E-01         0.00000E+00
    0.80666E-02        -0.11526E-01         0.00000E+00
    0.68367E-02        -0.96062E-02         0.00000E+00
    0.55867E-02        -0.76849E-02         0.00000E+00
    0.42961E-02        -0.57628E-02         0.00000E+00
    0.29459E-02        -0.38409E-02         0.00000E+00
    0.15189E-02        -0.19198E-02         0.00000E+00
    0.00000E+00         0.00000E+00         0.00000E+00
    0.21888E-01        -0.30823E-01         0.00000E+00
    0.19797E-01        -0.28826E-01         0.00000E+00
    0.17901E-01        -0.26823E-01         0.00000E+00
    0.16176E-01        -0.24812E-01         0.00000E+00
    0.14598E-01        -0.22793E-01         0.00000E+00
    0.13141E-01        -0.20763E-01         0.00000E+00
    0.11781E-01        -0.18723E-01         0.00000E+00
    0.10492E-01        -0.16673E-01         0.00000E+00
    0.92498E-02        -0.14613E-01         0.00000E+00
    0.80304E-02        -0.12545E-01         0.00000E+00
    0.68110E-02        -0.10469E-01         0.00000E+00
    0.55696E-02        -0.83860E-02         0.00000E+00
    0.42859E-02        -0.62967E-02         0.00000E+00
    0.29408E-02        -0.42021E-02         0.00000E+00
    0.15172E-02        -0.21029E-02         0.00000E+00
    0.00000E+00         0.00000E+00         0.00000E+00
    0.21564E-01        -0.33013E-01         0.00000E+00
    0.19491E-01        -0.30902E-01         0.00000E+00
    0.17617E-01        -0.28781E-01         0.00000E+00
    0.15918E-01        -0.26650E-01         0.00000E+00
    0.14368E-01        -0.24504E-01         0.00000E+00
    0.12940E-01        -0.22344E-01         0.00000E+00
    0.11608E-01        -0.20169E-01         0.00000E+00
    0.10346E-01        -0.17979E-01         0.00000E+00
    0.91294E-02        -0.15775E-01         0.00000E+00
    0.79340E-02        -0.13557E-01         0.00000E+00
    0.67366E-02        -0.11326E-01         0.00000E+00
    0.55152E-02        -0.90821E-02         0.00000E+00
    0.42490E-02        -0.68268E-02         0.00000E+00
    0.29189E-02        -0.45606E-02         0.00000E+00
    0.15077E-02        -0.22846E-02         0.00000E+00
    0.00000E+00         0.00000E+00         0.00000E+00
    0.21069E-01        -0.35182E-01         0.00000E+00
    0.19025E-01        -0.32958E-01         0.00000E+00
    0.17186E-01        -0.30721E-01         0.00000E+00
    0.15526E-01        -0.28469E-01         0.00000E+00
    0.14016E-01        -0.26198E-01         0.00000E+00
    0.12629E-01        -0.23908E-01         0.00000E+00
    0.11337E-01        -0.21599E-01         0.00000E+00
    0.10115E-01        -0.19270E-01         0.00000E+00
    0.89367E-02        -0.16923E-01         0.00000E+00
    0.77773E-02        -0.14556E-01         0.00000E+00
    0.66136E-02        -0.12172E-01         0.00000E+00
    0.54232E-02        -0.97694E-02         0.00000E+00
    0.41852E-02        -0.73502E-02         0.00000E+00
    0.28802E-02        -0.49148E-02         0.00000E+00
    0.14903E-02        -0.24642E-02         0.00000E+00
    0.00000E+00         0.00000E+00         0.00000E+00
    0.20401E-01        -0.37321E-01         0.00000E+00
    0.18397E-01        -0.34984E-01         0.00000E+00
    0.16605E-01        -0.32632E-01         0.00000E+00
    0.14996E-01        -0.30259E-01         0.00000E+00
    0.13540E-01        -0.27864E-01         0.00000E+00
    0.12207E-01        -0.25446E-01         0.00000E+00
    0.10970E-01        -0.23003E-01         0.00000E+00
    0.97997E-02        -0.20538E-01         0.00000E+00
    0.86713E-02        -0.18048E-01         0.00000E+00
    0.75596E-02        -0.15536E-01         0.00000E+00
    0.64410E-02        -0.13001E-01         0.00000E+00
    0.52929E-02        -0.10444E-01         0.00000E+00
    0.40939E-02        -0.78639E-02         0.00000E+00
    0.28240E-02        -0.52626E-02         0.00000E+00
    0.14648E-02        -0.26407E-02         0.00000E+00
    0.00000E+00         0.00000E+00         0.00000E+00
    0.19554E-01        -0.39417E-01         0.00000E+00
    0.17604E-01        -0.36970E-01         0.00000E+00
    0.15873E-01        -0.34502E-01         0.00000E+00
    0.14329E-01        -0.32010E-01         0.00000E+00
    0.12941E-01        -0.29492E-01         0.00000E+00
    0.11675E-01        -0.26946E-01         0.00000E+00
    0.10504E-01        -0.24372E-01         0.00000E+00
    0.93984E-02        -0.21772E-01         0.00000E+00
    0.83320E-02        -0.19144E-01         0.00000E+00
    0.72797E-02        -0.16490E-01         0.00000E+00
    0.62177E-02        -0.13809E-01         0.00000E+00
    0.51230E-02        -0.11100E-01         0.00000E+00
    0.39740E-02        -0.83645E-02         0.00000E+00
    0.27497E-02        -0.56019E-02         0.00000E+00
    0.14308E-02        -0.28131E-02         0.00000E+00
    0.00000E+00         0.00000E+00         0.00000E+00
    0.18523E-01        -0.41458E-01         0.00000E+00
    0.16641E-01        -0.38900E-01         0.00000E+00
    0.14987E-01        -0.36319E-01         0.00000E+00
    0.13523E-01        -0.33708E-01         0.00000E+00
    0.12216E-01        -0.31068E-01         0.00000E+00
    0.11032E-01        -0.28396E-01         0.00000E+00
    0.99394E-02        -0.25694E-01         0.00000E+00
    0.89101E-02        -0.22962E-01         0.00000E+00
    0.79172E-02        -0.20200E-01         0.00000E+00
    0.69356E-02        -0.17409E-01         0.00000E+00
    0.59413E-02        -0.14587E-01         0.00000E+00
    0.49114E-02        -0.11734E-01         0.00000E+00
    0.38234E-02        -0.88483E-02         0.00000E+00
    0.26557E-02        -0.59304E-02         0.00000E+00
    0.13876E-02        -0.29804E-02         0.00000E+00
    0.00000E+00         0.00000E+00         0.00000E+00
    0.17304E-01        -0.43429E-01         0.00000E+00
    0.15507E-01        -0.40762E-01         0.00000E+00
    0.13944E-01        -0.38067E-01         0.00000E+00
    0.12577E-01        -0.35340E-01         0.00000E+00
    0.11366E-01        -0.32578E-01         0.00000E+00
    0.10276E-01        -0.29783E-01         0.00000E+00
    0.92747E-02        -0.26956E-01         0.00000E+00
    0.83331E-02        -0.24097E-01         0.00000E+00
    0.74246E-02        -0.21206E-01         0.00000E+00
    0.65243E-02        -0.18284E-01         0.00000E+00
    0.56087E-02        -0.15328E-01         0.00000E+00
    0.46547E-02        -0.12338E-01         0.00000E+00
    0.36394E-02        -0.93108E-02         0.00000E+00
    0.25400E-02        -0.62453E-02         0.00000E+00
    0.13340E-02        -0.31412E-02         0.00000E+00
    0.00000E+00         0.00000E+00         0.00000E+00
    0.15890E-01        -0.45312E-01         0.00000E+00
    0.14195E-01        -0.42538E-01         0.00000E+00
    0.12744E-01        -0.39731E-01         0.00000E+00
    0.11489E-01        -0.36887E-01         0.00000E+00
    0.10389E-01        -0.34007E-01         0.00000E+00
    0.94068E-02        -0.31091E-01         0.00000E+00
    0.85083E-02        -0.28142E-01         0.00000E+00
    0.76649E-02        -0.25162E-01         0.00000E+00
    0.68507E-02        -0.22149E-01         0.00000E+00
    0.60419E-02        -0.19104E-01         0.00000E+00
    0.52154E-02        -0.16024E-01         0.00000E+00
    0.43485E-02        -0.12907E-01         0.00000E+00
    0.34179E-02        -0.97473E-02         0.00000E+00
    0.23995E-02        -0.65437E-02         0.00000E+00
    0.12684E-02        -0.32944E-02         0.00000E+00
    0.00000E+00         0.00000E+00         0.00000E+00
    0.14275E-01        -0.47088E-01         0.00000E+00
    0.12705E-01        -0.44208E-01         0.00000E+00
    0.11384E-01        -0.41290E-01         0.00000E+00
    0.10260E-01        -0.38331E-01         0.00000E+00
    0.92866E-02        -0.35333E-01         0.00000E+00
    0.84237E-02        -0.32301E-01         0.00000E+00
    0.76382E-02        -0.29236E-01         0.00000E+00
    0.69023E-02        -0.26141E-01         0.00000E+00
    0.61912E-02        -0.23016E-01         0.00000E+00
    0.54828E-02        -0.19858E-01         0.00000E+00
    0.47552E-02        -0.16665E-01         0.00000E+00
    0.39865E-02        -0.13431E-01         0.00000E+00
    0.31531E-02        -0.10152E-01         0.00000E+00
    0.22297E-02        -0.68223E-02         0.00000E+00
    0.11883E-02        -0.34384E-02         0.00000E+00
    0.00000E+00         0.00000E+00         0.00000E+00
    0.12452E-01        -0.48734E-01         0.00000E+00
    0.11032E-01        -0.45749E-01         0.00000E+00
    0.98647E-02        -0.42720E-01         0.00000E+00
    0.88905E-02        -0.39647E-01         0.00000E+00
    0.80577E-02        -0.36535E-01         0.00000E+00
    0.73256E-02        -0.33391E-01         0.00000E+00
    0.66620E-02        -0.30218E-01         0.00000E+00
    0.60410E-02        -0.27017E-01         0.00000E+00
    0.54403E-02        -0.23790E-01         0.00000E+00
    0.48399E-02        -0.20532E-01         0.00000E+00
    0.42201E-02        -0.17239E-01         0.00000E+00
    0.35603E-02        -0.13904E-01         0.00000E+00
    0.28373E-02        -0.10519E-01         0.00000E+00
    0.20243E-02        -0.70775E-02         0.00000E+00
    0.10902E-02        -0.35718E-02         0.00000E+00
    0.00000E+00         0.00000E+00         0.00000E+00
    0.10415E-01        -0.50220E-01         0.00000E+00
    0.91742E-02        -0.47132E-01         0.00000E+00
    0.81873E-02        -0.43992E-01         0.00000E+00
    0.73821E-02        -0.40808E-01         0.00000E+00
    0.67034E-02        -0.37587E-01         0.00000E+00
    0.61111E-02        -0.34338E-01         0.00000E+00
    0.55761E-02        -0.31066E-01         0.00000E+00
    0.50755E-02        -0.27772E-01         0.00000E+00
    0.45907E-02        -0.24455E-01         0.00000E+00
    0.41044E-02        -0.21111E-01         0.00000E+00
    0.36000E-02        -0.17734E-01         0.00000E+00
    0.30590E-02        -0.14314E-01         0.00000E+00
    0.24597E-02        -0.10842E-01         0.00000E+00
    0.17748E-02        -0.73049E-02         0.00000E+00
    0.96922E-03        -0.36929E-02         0.00000E+00
    0.00000E+00         0.00000E+00         0.00000E+00
    0.81553E-02        -0.51513E-01         0.00000E+00
    0.71331E-02        -0.48321E-01         0.00000E+00
    0.63556E-02        -0.45073E-01         0.00000E+00
    0.57380E-02        -0.41780E-01         0.00000E+00
    0.52240E-02        -0.38457E-01         0.00000E+00
    0.47779E-02        -0.35115E-01         0.00000E+00
    0.43754E-02        -0.31757E-01         0.00000E+00
    0.39987E-02        -0.28385E-01         0.00000E+00
    0.36332E-02        -0.24995E-01         0.00000E+00
    0.32656E-02        -0.21582E-01         0.00000E+00
    0.28825E-02        -0.18138E-01         0.00000E+00
    0.24691E-02        -0.14652E-01         0.00000E+00
    0.20065E-02        -0.11111E-01         0.00000E+00
    0.14688E-02        -0.74994E-02         0.00000E+00
    0.81776E-03        -0.37997E-02         0.00000E+00
    0.00000E+00         0.00000E+00         0.00000E+00
    0.56673E-02        -0.52566E-01         0.00000E+00
    0.49134E-02        -0.49272E-01         0.00000E+00
    0.43768E-02        -0.45915E-01         0.00000E+00
    0.39614E-02        -0.42523E-01         0.00000E+00
    0.36183E-02        -0.39113E-01         0.00000E+00
    0.33210E-02        -0.35695E-01         0.00000E+00
    0.30528E-02        -0.32271E-01         0.00000E+00
    0.28016E-02        -0.28839E-01         0.00000E+00
    0.25573E-02        -0.25394E-01         0.00000E+00
    0.23110E-02        -0.21930E-01         0.00000E+00
    0.20536E-02        -0.18438E-01         0.00000E+00
    0.17744E-02        -0.14906E-01         0.00000E+00
    0.14596E-02        -0.11317E-01         0.00000E+00
    0.10886E-02        -0.76542E-02         0.00000E+00
    0.62405E-03        -0.38895E-02         0.00000E+00
    0.00000E+00         0.00000E+00         0.00000E+00
    0.29451E-02        -0.53313E-01         0.00000E+00
    0.25286E-02        -0.49916E-01         0.00000E+00
    0.22591E-02        -0.46462E-01         0.00000E+00
    0.20517E-02        -0.42994E-01         0.00000E+00
    0.18806E-02        -0.39524E-01         0.00000E+00
    0.17323E-02        -0.36055E-01         0.00000E+00
    0.15985E-02        -0.32588E-01         0.00000E+00
    0.14729E-02        -0.29118E-01         0.00000E+00
    0.13507E-02        -0.25639E-01         0.00000E+00
    0.12272E-02        -0.22145E-01         0.00000E+00
    0.10979E-02        -0.18623E-01         0.00000E+00
    0.95736E-03        -0.15063E-01         0.00000E+00
    0.79814E-03        -0.11449E-01         0.00000E+00
    0.60866E-03        -0.77575E-02         0.00000E+00
    0.36693E-03        -0.39583E-02         0.00000E+00
    0.00000E+00         0.00000E+00         0.00000E+00
    0.00000E+00        -0.53631E-01         0.00000E+00
    0.00000E+00        -0.50153E-01         0.00000E+00
    0.00000E+00        -0.46654E-01         0.00000E+00
    0.00000E+00        -0.43156E-01         0.00000E+00
    0.00000E+00        -0.39664E-01         0.00000E+00
    0.00000E+00        -0.36178E-01         0.00000E+00
    0.00000E+00        -0.32695E-01         0.00000E+00
    0.00000E+00        -0.29212E-01         0.00000E+00
    0.00000E+00        -0.25722E-01         0.00000E+00
    0.00000E+00        -0.22217E-01         0.00000E+00
    0.00000E+00        -0.18686E-01         0.00000E+00
    0.00000E+00        -0.15117E-01         0.00000E+00
    0.00000E+00        -0.11494E-01         0.00000E+00
    0.00000E+00        -0.77944E-02         0.00000E+00
    0.00000E+00        -0.39867E-02         0.00000E+00
    0.00000E+00         0.00000E+00         0.00000E+00
CELL_DATA        450
VECTORS vDarcy double 
    0.11597E-05         0.13803E-09         0.00000E+00
    0.11597E-05         0.36433E-09         0.00000E+00
    0.11597E-05         0.51084E-09         0.00000E+00
    0.11596E-05         0.60943E-09         0.00000E+00
    0.11596E-05         0.67882E-09         0.00000E+00
    0.11596E-05         0.71607E-09         0.00000E+00
    0.11596E-05         0.72242E-09         0.00000E+00
    0.11596E-05         0.72022E-09         0.00000E+00
    0.11596E-05         0.67947E-09         0.00000E+00
    0.11596E-05         0.62467E-09         0.00000E+00
    0.11596E-05         0.55701E-09         0.00000E+00
    0.11596E-05         0.47620E-09         0.00000E+00
    0.11596E-05         0.37997E-09         0.00000E+00
    0.11596E-05         0.26202E-09         0.00000E+00
    0.11596E-05         0.98818E-10         0.00000E+00
    0.11592E-05         0.88139E-10         0.00000E+00
    0.11590E-05         0.22019E-09         0.00000E+00
    0.11589E-05         0.29235E-09         0.00000E+00
    0.11589E-05         0.35009E-09         0.00000E+00
    0.11589E-05         0.41444E-09         0.00000E+00
    0.11588E-05         0.46351E-09         0.00000E+00
    0.11588E-05         0.50732E-09         0.00000E+00
    0.11589E-05         0.54309E-09         0.00000E+00
    0.11589E-05         0.53795E-09         0.00000E+00
    0.11589E-05         0.50477E-09         0.00000E+00
    0.11589E-05         0.45167E-09         0.00000E+00
    0.11589E-05         0.38114E-09         0.00000E+00
    0.11589E-05         0.29282E-09         0.00000E+00
    0.11589E-05         0.18378E-09         0.00000E+00
    0.11588E-05         0.62377E-10         0.00000E+00
    0.11585E-05         0.31076E-10         0.00000E+00
    0.11583E-05         0.10158E-09         0.00000E+00
    0.11582E-05         0.17085E-09         0.00000E+00
    0.11582E-05         0.22885E-09         0.00000E+00
    0.11582E-05         0.28543E-09         0.00000E+00
    0.11582E-05         0.32734E-09         0.00000E+00
    0.11582E-05         0.37120E-09         0.00000E+00
    0.11582E-05         0.40209E-09         0.00000E+00
    0.11582E-05         0.40961E-09         0.00000E+00
    0.11582E-05         0.39241E-09         0.00000E+00
    0.11582E-05         0.35378E-09         0.00000E+00
    0.11582E-05         0.29681E-09         0.00000E+00
    0.11582E-05         0.22341E-09         0.00000E+00
    0.11582E-05         0.13749E-09         0.00000E+00
    0.11581E-05         0.46749E-10         0.00000E+00
    0.11577E-05         0.92504E-11         0.00000E+00
    0.11576E-05         0.52861E-10         0.00000E+00
    0.11576E-05         0.11552E-09         0.00000E+00
    0.11576E-05         0.17037E-09         0.00000E+00
    0.11576E-05         0.21579E-09         0.00000E+00
    0.11575E-05         0.24424E-09         0.00000E+00
    0.11575E-05         0.27396E-09         0.00000E+00
    0.11575E-05         0.29688E-09         0.00000E+00
    0.11575E-05         0.30580E-09         0.00000E+00
    0.11575E-05         0.29658E-09         0.00000E+00
    0.11575E-05         0.26949E-09         0.00000E+00
    0.11575E-05         0.22633E-09         0.00000E+00
    0.11575E-05         0.17004E-09         0.00000E+00
    0.11575E-05         0.10477E-09         0.00000E+00
    0.11574E-05         0.35965E-10         0.00000E+00
    0.11571E-05         0.11077E-10         0.00000E+00
    0.11570E-05         0.47554E-10         0.00000E+00
    0.11570E-05         0.87532E-10         0.00000E+00
    0.11570E-05         0.12241E-09         0.00000E+00
    0.11569E-05         0.15522E-09         0.00000E+00
    0.11569E-05         0.18040E-09         0.00000E+00
    0.11569E-05         0.20133E-09         0.00000E+00
    0.11569E-05         0.21747E-09         0.00000E+00
    0.11569E-05         0.22444E-09         0.00000E+00
    0.11569E-05         0.21913E-09         0.00000E+00
    0.11569E-05         0.20044E-09         0.00000E+00
    0.11569E-05         0.16930E-09         0.00000E+00
    0.11569E-05         0.12797E-09         0.00000E+00
    0.11568E-05         0.79629E-10         0.00000E+00
    0.11568E-05         0.27833E-10         0.00000E+00
    0.11565E-05         0.92027E-11         0.00000E+00
    0.11564E-05         0.34071E-10         0.00000E+00
    0.11564E-05         0.60986E-10         0.00000E+00
    0.11564E-05         0.86422E-10         0.00000E+00
    0.11563E-05         0.10906E-09         0.00000E+00
    0.11563E-05         0.12838E-09         0.00000E+00
    0.11563E-05         0.14404E-09         0.00000E+00
    0.11563E-05         0.15551E-09         0.00000E+00
    0.11563E-05         0.16073E-09         0.00000E+00
    0.11563E-05         0.15760E-09         0.00000E+00
    0.11563E-05         0.14512E-09         0.00000E+00
    0.11562E-05         0.12358E-09         0.00000E+00
    0.11562E-05         0.94382E-10         0.00000E+00
    0.11562E-05         0.59582E-10         0.00000E+00
    0.11562E-05         0.21311E-10         0.00000E+00
    0.11559E-05         0.70913E-11         0.00000E+00
    0.11558E-05         0.22534E-10         0.00000E+00
    0.11558E-05         0.40007E-10         0.00000E+00
    0.11558E-05         0.56982E-10         0.00000E+00
    0.11557E-05         0.72597E-10         0.00000E+00
    0.11557E-05         0.86268E-10         0.00000E+00
    0.11557E-05         0.97607E-10         0.00000E+00
    0.11557E-05         0.10590E-09         0.00000E+00
    0.11557E-05         0.10997E-09         0.00000E+00
    0.11557E-05         0.10853E-09         0.00000E+00
    0.11557E-05         0.10081E-09         0.00000E+00
    0.11556E-05         0.86806E-10         0.00000E+00
    0.11556E-05         0.67236E-10         0.00000E+00
    0.11556E-05         0.43236E-10         0.00000E+00
    0.11556E-05         0.15923E-10         0.00000E+00
    0.11553E-05         0.46237E-11         0.00000E+00
    0.11553E-05         0.13276E-10         0.00000E+00
    0.11552E-05         0.23059E-10         0.00000E+00
    0.11552E-05         0.33093E-10         0.00000E+00
    0.11552E-05         0.42715E-10         0.00000E+00
    0.11551E-05         0.51566E-10         0.00000E+00
    0.11551E-05         0.59245E-10         0.00000E+00
    0.11551E-05         0.65186E-10         0.00000E+00
    0.11551E-05         0.68597E-10         0.00000E+00
    0.11551E-05         0.68653E-10         0.00000E+00
    0.11551E-05         0.64763E-10         0.00000E+00
    0.11551E-05         0.56760E-10         0.00000E+00
    0.11551E-05         0.44885E-10         0.00000E+00
    0.11550E-05         0.29611E-10         0.00000E+00
    0.11550E-05         0.11357E-10         0.00000E+00
    0.11547E-05         0.23009E-11         0.00000E+00
    0.11547E-05         0.53480E-11         0.00000E+00
    0.11547E-05         0.89126E-11         0.00000E+00
    0.11546E-05         0.12998E-10         0.00000E+00
    0.11546E-05         0.17458E-10         0.00000E+00
    0.11546E-05         0.22113E-10         0.00000E+00
    0.11546E-05         0.26702E-10         0.00000E+00
    0.11546E-05         0.30808E-10         0.00000E+00
    0.11546E-05         0.33878E-10         0.00000E+00
    0.11546E-05         0.35318E-10         0.00000E+00
    0.11545E-05         0.34639E-10         0.00000E+00
    0.11545E-05         0.31555E-10         0.00000E+00
    0.11545E-05         0.25984E-10         0.00000E+00
    0.11545E-05         0.17944E-10         0.00000E+00
    0.11545E-05         0.73802E-11         0.00000E+00
    0.11542E-05         0.10832E-12         0.00000E+00
    0.11541E-05        -0.18357E-11         0.00000E+00
    0.11541E-05        -0.36542E-11         0.00000E+00
    0.11541E-05        -0.47441E-11         0.00000E+00
    0.11541E-05        -0.48300E-11         0.00000E+00
    0.11541E-05        -0.38437E-11         0.00000E+00
    0.11540E-05        -0.18915E-11         0.00000E+00
    0.11540E-05         0.75568E-12         0.00000E+00
    0.11540E-05         0.36926E-11         0.00000E+00
    0.11540E-05         0.64490E-11         0.00000E+00
    0.11540E-05         0.85707E-11         0.00000E+00
    0.11540E-05         0.96763E-11         0.00000E+00
    0.11540E-05         0.94592E-11         0.00000E+00
    0.11540E-05         0.76285E-11         0.00000E+00
    0.11540E-05         0.38096E-11         0.00000E+00
    0.11536E-05        -0.21084E-11         0.00000E+00
    0.11536E-05        -0.88161E-11         0.00000E+00
    0.11536E-05        -0.15571E-10         0.00000E+00
    0.11535E-05        -0.21332E-10         0.00000E+00
    0.11535E-05        -0.25490E-10         0.00000E+00
    0.11535E-05        -0.27747E-10         0.00000E+00
    0.11535E-05        -0.28058E-10         0.00000E+00
    0.11535E-05        -0.26573E-10         0.00000E+00
    0.11535E-05        -0.23603E-10         0.00000E+00
    0.11535E-05        -0.19554E-10         0.00000E+00
    0.11535E-05        -0.14882E-10         0.00000E+00
    0.11535E-05        -0.10049E-10         0.00000E+00
    0.11535E-05        -0.55239E-11         0.00000E+00
    0.11535E-05        -0.18101E-11         0.00000E+00
    0.11535E-05         0.50216E-12         0.00000E+00
    0.11531E-05        -0.44913E-11         0.00000E+00
    0.11531E-05        -0.16040E-10         0.00000E+00
    0.11530E-05        -0.27563E-10         0.00000E+00
    0.11530E-05        -0.37700E-10         0.00000E+00
    0.11530E-05        -0.45588E-10         0.00000E+00
    0.11530E-05        -0.50748E-10         0.00000E+00
    0.11530E-05        -0.53008E-10         0.00000E+00
    0.11531E-05        -0.52431E-10         0.00000E+00
    0.11531E-05        -0.49268E-10         0.00000E+00
    0.11531E-05        -0.43900E-10         0.00000E+00
    0.11531E-05        -0.36801E-10         0.00000E+00
    0.11531E-05        -0.28504E-10         0.00000E+00
    0.11531E-05        -0.19598E-10         0.00000E+00
    0.11531E-05        -0.10733E-10         0.00000E+00
    0.11531E-05        -0.26521E-11         0.00000E+00
    0.11526E-05        -0.71523E-11         0.00000E+00
    0.11526E-05        -0.23852E-10         0.00000E+00
    0.11526E-05        -0.40178E-10         0.00000E+00
    0.11526E-05        -0.54551E-10         0.00000E+00
    0.11526E-05        -0.65936E-10         0.00000E+00
    0.11526E-05        -0.73728E-10         0.00000E+00
    0.11526E-05        -0.77666E-10         0.00000E+00
    0.11526E-05        -0.77763E-10         0.00000E+00
    0.11526E-05        -0.74239E-10         0.00000E+00
    0.11526E-05        -0.67477E-10         0.00000E+00
    0.11526E-05        -0.57977E-10         0.00000E+00
    0.11526E-05        -0.46333E-10         0.00000E+00
    0.11526E-05        -0.33223E-10         0.00000E+00
    0.11526E-05        -0.19408E-10         0.00000E+00
    0.11526E-05        -0.57348E-11         0.00000E+00
    0.11521E-05        -0.10171E-10         0.00000E+00
    0.11521E-05        -0.32494E-10         0.00000E+00
    0.11521E-05        -0.53800E-10         0.00000E+00
    0.11521E-05        -0.72385E-10         0.00000E+00
    0.11521E-05        -0.87112E-10         0.00000E+00
    0.11521E-05        -0.97312E-10         0.00000E+00
    0.11522E-05        -0.10269E-09         0.00000E+00
    0.11522E-05        -0.10323E-09         0.00000E+00
    0.11522E-05        -0.99170E-10         0.00000E+00
    0.11522E-05        -0.90898E-10         0.00000E+00
    0.11522E-05        -0.78951E-10         0.00000E+00
    0.11522E-05        -0.63977E-10         0.00000E+00
    0.11522E-05        -0.46719E-10         0.00000E+00
    0.11523E-05        -0.28018E-10         0.00000E+00
    0.11523E-05        -0.88032E-11         0.00000E+00
    0.11516E-05        -0.13599E-10         0.00000E+00
    0.11516E-05        -0.42122E-10         0.00000E+00
    0.11517E-05        -0.68676E-10         0.00000E+00
    0.11517E-05        -0.91513E-10         0.00000E+00
    0.11517E-05        -0.10948E-09         0.00000E+00
    0.11517E-05        -0.12189E-09         0.00000E+00
    0.11517E-05        -0.12847E-09         0.00000E+00
    0.11518E-05        -0.12925E-09         0.00000E+00
    0.11518E-05        -0.12445E-09         0.00000E+00
    0.11518E-05        -0.11453E-09         0.00000E+00
    0.11518E-05        -0.10005E-09         0.00000E+00
    0.11519E-05        -0.81703E-10         0.00000E+00
    0.11519E-05        -0.60280E-10         0.00000E+00
    0.11519E-05        -0.36680E-10         0.00000E+00
    0.11519E-05        -0.11893E-10         0.00000E+00
    0.11512E-05        -0.17459E-10         0.00000E+00
    0.11512E-05        -0.52808E-10         0.00000E+00
    0.11513E-05        -0.84917E-10         0.00000E+00
    0.11513E-05        -0.11207E-09         0.00000E+00
    0.11513E-05        -0.13318E-09         0.00000E+00
    0.11513E-05        -0.14762E-09         0.00000E+00
    0.11514E-05        -0.15519E-09         0.00000E+00
    0.11514E-05        -0.15596E-09         0.00000E+00
    0.11514E-05        -0.15025E-09         0.00000E+00
    0.11515E-05        -0.13853E-09         0.00000E+00
    0.11515E-05        -0.12141E-09         0.00000E+00
    0.11515E-05        -0.99626E-10         0.00000E+00
    0.11515E-05        -0.73992E-10         0.00000E+00
    0.11516E-05        -0.45445E-10         0.00000E+00
    0.11516E-05        -0.15023E-10         0.00000E+00
    0.11508E-05        -0.21753E-10         0.00000E+00
    0.11508E-05        -0.64552E-10         0.00000E+00
    0.11509E-05        -0.10251E-09         0.00000E+00
    0.11509E-05        -0.13404E-09         0.00000E+00
    0.11510E-05        -0.15817E-09         0.00000E+00
    0.11510E-05        -0.17443E-09         0.00000E+00
    0.11510E-05        -0.18274E-09         0.00000E+00
    0.11511E-05        -0.18328E-09         0.00000E+00
    0.11511E-05        -0.17646E-09         0.00000E+00
    0.11512E-05        -0.16282E-09         0.00000E+00
    0.11512E-05        -0.14298E-09         0.00000E+00
    0.11512E-05        -0.11771E-09         0.00000E+00
    0.11512E-05        -0.87838E-10         0.00000E+00
    0.11513E-05        -0.54309E-10         0.00000E+00
    0.11513E-05        -0.18190E-10         0.00000E+00
    0.11505E-05        -0.26455E-10         0.00000E+00
    0.11505E-05        -0.77276E-10         0.00000E+00
    0.11505E-05        -0.12132E-09         0.00000E+00
    0.11506E-05        -0.15720E-09         0.00000E+00
    0.11506E-05        -0.18418E-09         0.00000E+00
    0.11507E-05        -0.20201E-09         0.00000E+00
    0.11507E-05        -0.21079E-09         0.00000E+00
    0.11508E-05        -0.21088E-09         0.00000E+00
    0.11508E-05        -0.20278E-09         0.00000E+00
    0.11509E-05        -0.18711E-09         0.00000E+00
    0.11509E-05        -0.16453E-09         0.00000E+00
    0.11509E-05        -0.13579E-09         0.00000E+00
    0.11510E-05        -0.10170E-09         0.00000E+00
    0.11510E-05        -0.63209E-10         0.00000E+00
    0.11510E-05        -0.21377E-10         0.00000E+00
    0.11501E-05        -0.31519E-10         0.00000E+00
    0.11502E-05        -0.90829E-10         0.00000E+00
    0.11502E-05        -0.14107E-09         0.00000E+00
    0.11503E-05        -0.18118E-09         0.00000E+00
    0.11503E-05        -0.21074E-09         0.00000E+00
    0.11504E-05        -0.22980E-09         0.00000E+00
    0.11505E-05        -0.23875E-09         0.00000E+00
    0.11505E-05        -0.23814E-09         0.00000E+00
    0.11506E-05        -0.22863E-09         0.00000E+00
    0.11506E-05        -0.21089E-09         0.00000E+00
    0.11507E-05        -0.18562E-09         0.00000E+00
    0.11507E-05        -0.15352E-09         0.00000E+00
    0.11507E-05        -0.11537E-09         0.00000E+00
    0.11508E-05        -0.72029E-10         0.00000E+00
    0.11508E-05        -0.24550E-10         0.00000E+00
    0.11499E-05        -0.36871E-10         0.00000E+00
    0.11499E-05        -0.10497E-09         0.00000E+00
    0.11500E-05        -0.16136E-09         0.00000E+00
    0.11500E-05        -0.20540E-09         0.00000E+00
    0.11501E-05        -0.23711E-09         0.00000E+00
    0.11502E-05        -0.25697E-09         0.00000E+00
    0.11502E-05        -0.26572E-09         0.00000E+00
    0.11503E-05        -0.26418E-09         0.00000E+00
    0.11503E-05        -0.25316E-09         0.00000E+00
    0.11504E-05        -0.23342E-09         0.00000E+00
    0.11504E-05        -0.20564E-09         0.00000E+00
    0.11505E-05        -0.17045E-09         0.00000E+00
    0.11505E-05        -0.12851E-09         0.00000E+00
    0.11506E-05        -0.80591E-10         0.00000E+00
    0.11506E-05        -0.27657E-10         0.00000E+00
    0.11496E-05        -0.42408E-10         0.00000E+00
    0.11497E-05        -0.11938E-09         0.00000E+00
    0.11497E-05        -0.18161E-09         0.00000E+00
    0.11498E-05        -0.22904E-09         0.00000E+00
    0.11499E-05        -0.26229E-09         0.00000E+00
    0.11500E-05        -0.28238E-09         0.00000E+00
    0.11500E-05        -0.29050E-09         0.00000E+00
    0.11501E-05        -0.28778E-09         0.00000E+00
    0.11502E-05        -0.27525E-09         0.00000E+00
    0.11502E-05        -0.25369E-09         0.00000E+00
    0.11503E-05        -0.22375E-09         0.00000E+00
    0.11503E-05        -0.18592E-09         0.00000E+00
    0.11504E-05        -0.14070E-09         0.00000E+00
    0.11504E-05        -0.88661E-10         0.00000E+00
    0.11504E-05        -0.30628E-10         0.00000E+00
    0.11494E-05        -0.47994E-10         0.00000E+00
    0.11495E-05        -0.13361E-09         0.00000E+00
    0.11496E-05        -0.20105E-09         0.00000E+00
    0.11496E-05        -0.25102E-09         0.00000E+00
    0.11497E-05        -0.28494E-09         0.00000E+00
    0.11498E-05        -0.30453E-09         0.00000E+00
    0.11499E-05        -0.31151E-09         0.00000E+00
    0.11499E-05        -0.30742E-09         0.00000E+00
    0.11500E-05        -0.29343E-09         0.00000E+00
    0.11501E-05        -0.27040E-09         0.00000E+00
    0.11501E-05        -0.23886E-09         0.00000E+00
    0.11502E-05        -0.19912E-09         0.00000E+00
    0.11502E-05        -0.15138E-09         0.00000E+00
    0.11503E-05        -0.95936E-10         0.00000E+00
    0.11503E-05        -0.33377E-10         0.00000E+00
    0.11492E-05        -0.53452E-10         0.00000E+00
    0.11493E-05        -0.14708E-09         0.00000E+00
    0.11494E-05        -0.21865E-09         0.00000E+00
    0.11495E-05        -0.26991E-09         0.00000E+00
    0.11496E-05        -0.30333E-09         0.00000E+00
    0.11497E-05        -0.32150E-09         0.00000E+00
    0.11497E-05        -0.32681E-09         0.00000E+00
    0.11498E-05        -0.32117E-09         0.00000E+00
    0.11499E-05        -0.30594E-09         0.00000E+00
    0.11500E-05        -0.28198E-09         0.00000E+00
    0.11500E-05        -0.24966E-09         0.00000E+00
    0.11501E-05        -0.20900E-09         0.00000E+00
    0.11501E-05        -0.15984E-09         0.00000E+00
    0.11501E-05        -0.10204E-09         0.00000E+00
    0.11502E-05        -0.35794E-10         0.00000E+00
    0.11491E-05        -0.58545E-10         0.00000E+00
    0.11492E-05        -0.15901E-09         0.00000E+00
    0.11493E-05        -0.23303E-09         0.00000E+00
    0.11494E-05        -0.28383E-09         0.00000E+00
    0.11495E-05        -0.31524E-09         0.00000E+00
    0.11496E-05        -0.33095E-09         0.00000E+00
    0.11497E-05        -0.33403E-09         0.00000E+00
    0.11497E-05        -0.32677E-09         0.00000E+00
    0.11498E-05        -0.31067E-09         0.00000E+00
    0.11499E-05        -0.28653E-09         0.00000E+00
    0.11499E-05        -0.25453E-09         0.00000E+00
    0.11500E-05        -0.21433E-09         0.00000E+00
    0.11500E-05        -0.16523E-09         0.00000E+00
    0.11501E-05        -0.10650E-09         0.00000E+00
    0.11501E-05        -0.37749E-10         0.00000E+00
    0.11490E-05        -0.62952E-10         0.00000E+00
    0.11492E-05        -0.16832E-09         0.00000E+00
    0.11493E-05        -0.24232E-09         0.00000E+00
    0.11494E-05        -0.29028E-09         0.00000E+00
    0.11495E-05        -0.31787E-09         0.00000E+00
    0.11496E-05        -0.33002E-09         0.00000E+00
    0.11496E-05        -0.33043E-09         0.00000E+00
    0.11497E-05        -0.32166E-09         0.00000E+00
    0.11498E-05        -0.30525E-09         0.00000E+00
    0.11498E-05        -0.28190E-09         0.00000E+00
    0.11499E-05        -0.25158E-09         0.00000E+00
    0.11499E-05        -0.21354E-09         0.00000E+00
    0.11500E-05        -0.16646E-09         0.00000E+00
    0.11500E-05        -0.10873E-09         0.00000E+00
    0.11501E-05        -0.39078E-10         0.00000E+00
    0.11490E-05        -0.66202E-10         0.00000E+00
    0.11491E-05        -0.17341E-09         0.00000E+00
    0.11493E-05        -0.24381E-09         0.00000E+00
    0.11494E-05        -0.28591E-09         0.00000E+00
    0.11495E-05        -0.30774E-09         0.00000E+00
    0.11496E-05        -0.31540E-09         0.00000E+00
    0.11496E-05        -0.31301E-09         0.00000E+00
    0.11497E-05        -0.30312E-09         0.00000E+00
    0.11497E-05        -0.28717E-09         0.00000E+00
    0.11498E-05        -0.26574E-09         0.00000E+00
    0.11499E-05        -0.23863E-09         0.00000E+00
    0.11499E-05        -0.20476E-09         0.00000E+00
    0.11500E-05        -0.16211E-09         0.00000E+00
    0.11500E-05        -0.10794E-09         0.00000E+00
    0.11501E-05        -0.39561E-10         0.00000E+00
    0.11490E-05        -0.67521E-10         0.00000E+00
    0.11492E-05        -0.17171E-09         0.00000E+00
    0.11493E-05        -0.23345E-09         0.00000E+00
    0.11494E-05        -0.26619E-09         0.00000E+00
    0.11495E-05        -0.28064E-09         0.00000E+00
    0.11496E-05        -0.28354E-09         0.00000E+00
    0.11497E-05        -0.27876E-09         0.00000E+00
    0.11497E-05        -0.26851E-09         0.00000E+00
    0.11498E-05        -0.25400E-09         0.00000E+00
    0.11498E-05        -0.23565E-09         0.00000E+00
    0.11499E-05        -0.21323E-09         0.00000E+00
    0.11499E-05        -0.18559E-09         0.00000E+00
    0.11499E-05        -0.15022E-09         0.00000E+00
    0.11500E-05        -0.10295E-09         0.00000E+00
    0.11501E-05        -0.38889E-10         0.00000E+00
    0.11491E-05        -0.65417E-10         0.00000E+00
    0.11493E-05        -0.15857E-09         0.00000E+00
    0.11494E-05        -0.20480E-09         0.00000E+00
    0.11495E-05        -0.22522E-09         0.00000E+00
    0.11496E-05        -0.23209E-09         0.00000E+00
    0.11497E-05        -0.23105E-09         0.00000E+00
    0.11497E-05        -0.22504E-09         0.00000E+00
    0.11498E-05        -0.21565E-09         0.00000E+00
    0.11498E-05        -0.20372E-09         0.00000E+00
    0.11498E-05        -0.18955E-09         0.00000E+00
    0.11499E-05        -0.17295E-09         0.00000E+00
    0.11499E-05        -0.15307E-09         0.00000E+00
    0.11500E-05        -0.12784E-09         0.00000E+00
    0.11500E-05        -0.91821E-10         0.00000E+00
    0.11501E-05        -0.36416E-10         0.00000E+00
    0.11493E-05        -0.56219E-10         0.00000E+00
    0.11495E-05        -0.12402E-09         0.00000E+00
    0.11496E-05        -0.14826E-09         0.00000E+00
    0.11497E-05        -0.15698E-09         0.00000E+00
    0.11498E-05        -0.15827E-09         0.00000E+00
    0.11498E-05        -0.15544E-09         0.00000E+00
    0.11498E-05        -0.15012E-09         0.00000E+00
    0.11499E-05        -0.14320E-09         0.00000E+00
    0.11499E-05        -0.13512E-09         0.00000E+00
    0.11499E-05        -0.12605E-09         0.00000E+00
    0.11499E-05        -0.11591E-09         0.00000E+00
    0.11499E-05        -0.10429E-09         0.00000E+00
    0.11500E-05        -0.90123E-10         0.00000E+00
    0.11500E-05        -0.70265E-10         0.00000E+00
    0.11501E-05        -0.31424E-10         0.00000E+00
    0.11495E-05        -0.24588E-10         0.00000E+00
    0.11497E-05        -0.49833E-10         0.00000E+00
    0.11498E-05        -0.55804E-10         0.00000E+00
    0.11499E-05        -0.57671E-10         0.00000E+00
    0.11499E-05        -0.57319E-10         0.00000E+00
    0.11500E-05        -0.55807E-10         0.00000E+00
    0.11500E-05        -0.53611E-10         0.00000E+00
    0.11500E-05        -0.50988E-10         0.00000E+00
    0.11500E-05        -0.48073E-10         0.00000E+00
    0.11500E-05        -0.44920E-10         0.00000E+00
    0.11500E-05        -0.41513E-10         0.00000E+00
    0.11500E-05        -0.37759E-10         0.00000E+00
    0.11500E-05        -0.33335E-10         0.00000E+00
    0.11501E-05        -0.28060E-10         0.00000E+00
    0.11501E-05        -0.14117E-10         0.00000E+00
POINT_DATA        496
VECTORS vDarcyNodal double 
    0.11597E-05         0.15548E-09         0.00000E+00
    0.11597E-05         0.29780E-09         0.00000E+00
    0.11597E-05         0.54503E-09         0.00000E+00
    0.11596E-05         0.71372E-09         0.00000E+00
    0.11596E-05         0.81332E-09         0.00000E+00
    0.11596E-05         0.86475E-09         0.00000E+00
    0.11596E-05         0.86903E-09         0.00000E+00
    0.11596E-05         0.83718E-09         0.00000E+00
    0.11596E-05         0.78366E-09         0.00000E+00
    0.11596E-05         0.71776E-09         0.00000E+00
    0.11596E-05         0.64766E-09         0.00000E+00
    0.11596E-05         0.56809E-09         0.00000E+00
    0.11596E-05         0.47667E-09         0.00000E+00
    0.11596E-05         0.37011E-09         0.00000E+00
    0.11596E-05         0.21925E-09         0.00000E+00
    0.11596E-05         0.12587E-09         0.00000E+00
    0.11594E-05         0.12054E-09         0.00000E+00
    0.11594E-05         0.20448E-09         0.00000E+00
    0.11593E-05         0.33002E-09         0.00000E+00
    0.11593E-05         0.40642E-09         0.00000E+00
    0.11593E-05         0.47481E-09         0.00000E+00
    0.11592E-05         0.53002E-09         0.00000E+00
    0.11592E-05         0.56937E-09         0.00000E+00
    0.11592E-05         0.60541E-09         0.00000E+00
    0.11592E-05         0.61599E-09         0.00000E+00
    0.11593E-05         0.58634E-09         0.00000E+00
    0.11593E-05         0.53399E-09         0.00000E+00
    0.11593E-05         0.46510E-09         0.00000E+00
    0.11593E-05         0.37948E-09         0.00000E+00
    0.11593E-05         0.27186E-09         0.00000E+00
    0.11592E-05         0.14159E-09         0.00000E+00
    0.11592E-05         0.71763E-10         0.00000E+00
    0.11588E-05         0.55761E-10         0.00000E+00
    0.11587E-05         0.10389E-09         0.00000E+00
    0.11586E-05         0.18259E-09         0.00000E+00
    0.11586E-05         0.23610E-09         0.00000E+00
    0.11585E-05         0.28979E-09         0.00000E+00
    0.11585E-05         0.34798E-09         0.00000E+00
    0.11585E-05         0.40150E-09         0.00000E+00
    0.11585E-05         0.44502E-09         0.00000E+00
    0.11585E-05         0.46506E-09         0.00000E+00
    0.11585E-05         0.45639E-09         0.00000E+00
    0.11586E-05         0.42245E-09         0.00000E+00
    0.11586E-05         0.36772E-09         0.00000E+00
    0.11586E-05         0.29449E-09         0.00000E+00
    0.11585E-05         0.20474E-09         0.00000E+00
    0.11585E-05         0.10457E-09         0.00000E+00
    0.11585E-05         0.52991E-10         0.00000E+00
    0.11581E-05         0.64065E-11         0.00000E+00
    0.11580E-05         0.28798E-10         0.00000E+00
    0.11579E-05         0.89888E-10         0.00000E+00
    0.11579E-05         0.16364E-09         0.00000E+00
    0.11579E-05         0.22452E-09         0.00000E+00
    0.11579E-05         0.26481E-09         0.00000E+00
    0.11579E-05         0.29705E-09         0.00000E+00
    0.11579E-05         0.32828E-09         0.00000E+00
    0.11579E-05         0.34664E-09         0.00000E+00
    0.11579E-05         0.34563E-09         0.00000E+00
    0.11579E-05         0.32374E-09         0.00000E+00
    0.11579E-05         0.28288E-09         0.00000E+00
    0.11579E-05         0.22573E-09         0.00000E+00
    0.11578E-05         0.15616E-09         0.00000E+00
    0.11578E-05         0.79671E-10         0.00000E+00
    0.11578E-05         0.40507E-10         0.00000E+00
    0.11574E-05         0.12094E-10         0.00000E+00
    0.11574E-05         0.33316E-10         0.00000E+00
    0.11573E-05         0.78495E-10         0.00000E+00
    0.11573E-05         0.12225E-09         0.00000E+00
    0.11572E-05         0.16165E-09         0.00000E+00
    0.11572E-05         0.19523E-09         0.00000E+00
    0.11572E-05         0.22115E-09         0.00000E+00
    0.11572E-05         0.24257E-09         0.00000E+00
    0.11572E-05         0.25604E-09         0.00000E+00
    0.11572E-05         0.25675E-09         0.00000E+00
    0.11572E-05         0.24233E-09         0.00000E+00
    0.11572E-05         0.21295E-09         0.00000E+00
    0.11572E-05         0.17065E-09         0.00000E+00
    0.11572E-05         0.11866E-09         0.00000E+00
    0.11571E-05         0.61070E-10         0.00000E+00
    0.11571E-05         0.31424E-10         0.00000E+00
    0.11568E-05         0.10060E-10         0.00000E+00
    0.11568E-05         0.25316E-10         0.00000E+00
    0.11567E-05         0.56593E-10         0.00000E+00
    0.11567E-05         0.87697E-10         0.00000E+00
    0.11566E-05         0.11599E-09         0.00000E+00
    0.11566E-05         0.14040E-09         0.00000E+00
    0.11566E-05         0.16058E-09         0.00000E+00
    0.11566E-05         0.17624E-09         0.00000E+00
    0.11566E-05         0.18587E-09         0.00000E+00
    0.11566E-05         0.18683E-09         0.00000E+00
    0.11566E-05         0.17724E-09         0.00000E+00
    0.11566E-05         0.15679E-09         0.00000E+00
    0.11566E-05         0.12662E-09         0.00000E+00
    0.11565E-05         0.88941E-10         0.00000E+00
    0.11565E-05         0.46392E-10         0.00000E+00
    0.11565E-05         0.24243E-10         0.00000E+00
    0.11562E-05         0.83458E-11         0.00000E+00
    0.11562E-05         0.17958E-10         0.00000E+00
    0.11561E-05         0.38465E-10         0.00000E+00
    0.11561E-05         0.59713E-10         0.00000E+00
    0.11561E-05         0.79497E-10         0.00000E+00
    0.11560E-05         0.97049E-10         0.00000E+00
    0.11560E-05         0.11184E-09         0.00000E+00
    0.11560E-05         0.12331E-09         0.00000E+00
    0.11560E-05         0.13037E-09         0.00000E+00
    0.11560E-05         0.13151E-09         0.00000E+00
    0.11560E-05         0.12549E-09         0.00000E+00
    0.11560E-05         0.11191E-09         0.00000E+00
    0.11559E-05         0.91340E-10         0.00000E+00
    0.11559E-05         0.65025E-10         0.00000E+00
    0.11559E-05         0.34501E-10         0.00000E+00
    0.11559E-05         0.18379E-10         0.00000E+00
    0.11556E-05         0.58371E-11         0.00000E+00
    0.11556E-05         0.11668E-10         0.00000E+00
    0.11555E-05         0.24078E-10         0.00000E+00
    0.11555E-05         0.37278E-10         0.00000E+00
    0.11555E-05         0.50085E-10         0.00000E+00
    0.11554E-05         0.61819E-10         0.00000E+00
    0.11554E-05         0.72042E-10         0.00000E+00
    0.11554E-05         0.80199E-10         0.00000E+00
    0.11554E-05         0.85502E-10         0.00000E+00
    0.11554E-05         0.86994E-10         0.00000E+00
    0.11554E-05         0.83855E-10         0.00000E+00
    0.11554E-05         0.75703E-10         0.00000E+00
    0.11554E-05         0.62705E-10         0.00000E+00
    0.11553E-05         0.45449E-10         0.00000E+00
    0.11553E-05         0.24659E-10         0.00000E+00
    0.11553E-05         0.13468E-10         0.00000E+00
    0.11550E-05         0.34105E-11         0.00000E+00
    0.11550E-05         0.62321E-11         0.00000E+00
    0.11550E-05         0.12258E-10         0.00000E+00
    0.11549E-05         0.18876E-10         0.00000E+00
    0.11549E-05         0.25726E-10         0.00000E+00
    0.11549E-05         0.32464E-10         0.00000E+00
    0.11549E-05         0.38772E-10         0.00000E+00
    0.11549E-05         0.44235E-10         0.00000E+00
    0.11548E-05         0.48284E-10         0.00000E+00
    0.11548E-05         0.50259E-10         0.00000E+00
    0.11548E-05         0.49564E-10         0.00000E+00
    0.11548E-05         0.45822E-10         0.00000E+00
    0.11548E-05         0.38941E-10         0.00000E+00
    0.11548E-05         0.29048E-10         0.00000E+00
    0.11548E-05         0.16310E-10         0.00000E+00
    0.11548E-05         0.92471E-11         0.00000E+00
    0.11544E-05         0.11915E-11         0.00000E+00
    0.11544E-05         0.14173E-11         0.00000E+00
    0.11544E-05         0.20039E-11         0.00000E+00
    0.11544E-05         0.30361E-11         0.00000E+00
    0.11543E-05         0.47328E-11         0.00000E+00
    0.11543E-05         0.71097E-11         0.00000E+00
    0.11543E-05         0.10046E-10         0.00000E+00
    0.11543E-05         0.13278E-10         0.00000E+00
    0.11543E-05         0.16405E-10         0.00000E+00
    0.11543E-05         0.18940E-10         0.00000E+00
    0.11543E-05         0.20396E-10         0.00000E+00
    0.11543E-05         0.20374E-10         0.00000E+00
    0.11543E-05         0.18599E-10         0.00000E+00
    0.11543E-05         0.14881E-10         0.00000E+00
    0.11543E-05         0.90147E-11         0.00000E+00
    0.11542E-05         0.55136E-11         0.00000E+00
    0.11539E-05        -0.97458E-12         0.00000E+00
    0.11539E-05        -0.31442E-11         0.00000E+00
    0.11538E-05        -0.74928E-11         0.00000E+00
    0.11538E-05        -0.11433E-10         0.00000E+00
    0.11538E-05        -0.14305E-10         0.00000E+00
    0.11538E-05        -0.15781E-10         0.00000E+00
    0.11538E-05        -0.15778E-10         0.00000E+00
    0.11538E-05        -0.14411E-10         0.00000E+00
    0.11538E-05        -0.11954E-10         0.00000E+00
    0.11538E-05        -0.87960E-11         0.00000E+00
    0.11538E-05        -0.53740E-11         0.00000E+00
    0.11538E-05        -0.21250E-11         0.00000E+00
    0.11538E-05         0.53834E-12         0.00000E+00
    0.11538E-05         0.22078E-11         0.00000E+00
    0.11538E-05         0.24239E-11         0.00000E+00
    0.11538E-05         0.21059E-11         0.00000E+00
    0.11533E-05        -0.32421E-11         0.00000E+00
    0.11533E-05        -0.77798E-11         0.00000E+00
    0.11533E-05        -0.16893E-10         0.00000E+00
    0.11533E-05        -0.25469E-10         0.00000E+00
    0.11533E-05        -0.32515E-10         0.00000E+00
    0.11533E-05        -0.37454E-10         0.00000E+00
    0.11533E-05        -0.40024E-10         0.00000E+00
    0.11533E-05        -0.40218E-10         0.00000E+00
    0.11533E-05        -0.38219E-10         0.00000E+00
    0.11533E-05        -0.34358E-10         0.00000E+00
    0.11533E-05        -0.29060E-10         0.00000E+00
    0.11533E-05        -0.22804E-10         0.00000E+00
    0.11533E-05        -0.16110E-10         0.00000E+00
    0.11533E-05        -0.95408E-11         0.00000E+00
    0.11533E-05        -0.37314E-11         0.00000E+00
    0.11533E-05        -0.11013E-11         0.00000E+00
    0.11528E-05        -0.57402E-11         0.00000E+00
    0.11528E-05        -0.12751E-10         0.00000E+00
    0.11528E-05        -0.26710E-10         0.00000E+00
    0.11528E-05        -0.39793E-10         0.00000E+00
    0.11528E-05        -0.50771E-10         0.00000E+00
    0.11528E-05        -0.58880E-10         0.00000E+00
    0.11528E-05        -0.63730E-10         0.00000E+00
    0.11528E-05        -0.65219E-10         0.00000E+00
    0.11528E-05        -0.63478E-10         0.00000E+00
    0.11528E-05        -0.58807E-10         0.00000E+00
    0.11528E-05        -0.51640E-10         0.00000E+00
    0.11529E-05        -0.42500E-10         0.00000E+00
    0.11529E-05        -0.31991E-10         0.00000E+00
    0.11529E-05        -0.20789E-10         0.00000E+00
    0.11529E-05        -0.96536E-11         0.00000E+00
    0.11529E-05        -0.42026E-11         0.00000E+00
    0.11523E-05        -0.85641E-11         0.00000E+00
    0.11523E-05        -0.18252E-10         0.00000E+00
    0.11523E-05        -0.37319E-10         0.00000E+00
    0.11523E-05        -0.54934E-10         0.00000E+00
    0.11523E-05        -0.69715E-10         0.00000E+00
    0.11523E-05        -0.80781E-10         0.00000E+00
    0.11524E-05        -0.87662E-10         0.00000E+00
    0.11524E-05        -0.90207E-10         0.00000E+00
    0.11524E-05        -0.88522E-10         0.00000E+00
    0.11524E-05        -0.82907E-10         0.00000E+00
    0.11524E-05        -0.73812E-10         0.00000E+00
    0.11524E-05        -0.61808E-10         0.00000E+00
    0.11524E-05        -0.47564E-10         0.00000E+00
    0.11524E-05        -0.31841E-10         0.00000E+00
    0.11524E-05        -0.15488E-10         0.00000E+00
    0.11524E-05        -0.72667E-11         0.00000E+00
    0.11519E-05        -0.11778E-10         0.00000E+00
    0.11519E-05        -0.24413E-10         0.00000E+00
    0.11519E-05        -0.48974E-10         0.00000E+00
    0.11519E-05        -0.71249E-10         0.00000E+00
    0.11519E-05        -0.89780E-10         0.00000E+00
    0.11519E-05        -0.10364E-09         0.00000E+00
    0.11519E-05        -0.11234E-09         0.00000E+00
    0.11520E-05        -0.11571E-09         0.00000E+00
    0.11520E-05        -0.11388E-09         0.00000E+00
    0.11520E-05        -0.10716E-09         0.00000E+00
    0.11520E-05        -0.96035E-10         0.00000E+00
    0.11520E-05        -0.81118E-10         0.00000E+00
    0.11521E-05        -0.63130E-10         0.00000E+00
    0.11521E-05        -0.42895E-10         0.00000E+00
    0.11521E-05        -0.21332E-10         0.00000E+00
    0.11521E-05        -0.10339E-10         0.00000E+00
    0.11514E-05        -0.15419E-10         0.00000E+00
    0.11514E-05        -0.31307E-10         0.00000E+00
    0.11514E-05        -0.61822E-10         0.00000E+00
    0.11515E-05        -0.88938E-10         0.00000E+00
    0.11515E-05        -0.11121E-09         0.00000E+00
    0.11515E-05        -0.12772E-09         0.00000E+00
    0.11515E-05        -0.13803E-09         0.00000E+00
    0.11516E-05        -0.14201E-09         0.00000E+00
    0.11516E-05        -0.13982E-09         0.00000E+00
    0.11516E-05        -0.13183E-09         0.00000E+00
    0.11517E-05        -0.11855E-09         0.00000E+00
    0.11517E-05        -0.10064E-09         0.00000E+00
    0.11517E-05        -0.78852E-10         0.00000E+00
    0.11517E-05        -0.54063E-10         0.00000E+00
    0.11517E-05        -0.27240E-10         0.00000E+00
    0.11517E-05        -0.13447E-10         0.00000E+00
    0.11510E-05        -0.19499E-10         0.00000E+00
    0.11510E-05        -0.38960E-10         0.00000E+00
    0.11510E-05        -0.75902E-10         0.00000E+00
    0.11511E-05        -0.10805E-09         0.00000E+00
    0.11511E-05        -0.13404E-09         0.00000E+00
    0.11511E-05        -0.15307E-09         0.00000E+00
    0.11512E-05        -0.16478E-09         0.00000E+00
    0.11512E-05        -0.16913E-09         0.00000E+00
    0.11513E-05        -0.16638E-09         0.00000E+00
    0.11513E-05        -0.15695E-09         0.00000E+00
    0.11513E-05        -0.14139E-09         0.00000E+00
    0.11514E-05        -0.12040E-09         0.00000E+00
    0.11514E-05        -0.94765E-10         0.00000E+00
    0.11514E-05        -0.65373E-10         0.00000E+00
    0.11514E-05        -0.33227E-10         0.00000E+00
    0.11514E-05        -0.16598E-10         0.00000E+00
    0.11506E-05        -0.24006E-10         0.00000E+00
    0.11507E-05        -0.47344E-10         0.00000E+00
    0.11507E-05        -0.91159E-10         0.00000E+00
    0.11507E-05        -0.12849E-09         0.00000E+00
    0.11508E-05        -0.15816E-09         0.00000E+00
    0.11508E-05        -0.17952E-09         0.00000E+00
    0.11509E-05        -0.19238E-09         0.00000E+00
    0.11509E-05        -0.19688E-09         0.00000E+00
    0.11509E-05        -0.19336E-09         0.00000E+00
    0.11510E-05        -0.18233E-09         0.00000E+00
    0.11510E-05        -0.16441E-09         0.00000E+00
    0.11511E-05        -0.14029E-09         0.00000E+00
    0.11511E-05        -0.11078E-09         0.00000E+00
    0.11511E-05        -0.76773E-10         0.00000E+00
    0.11511E-05        -0.39271E-10         0.00000E+00
    0.11511E-05        -0.19781E-10         0.00000E+00
    0.11503E-05        -0.28904E-10         0.00000E+00
    0.11503E-05        -0.56387E-10         0.00000E+00
    0.11504E-05        -0.10743E-09         0.00000E+00
    0.11504E-05        -0.15002E-09         0.00000E+00
    0.11505E-05        -0.18322E-09         0.00000E+00
    0.11505E-05        -0.20667E-09         0.00000E+00
    0.11506E-05        -0.22041E-09         0.00000E+00
    0.11506E-05        -0.22478E-09         0.00000E+00
    0.11507E-05        -0.22030E-09         0.00000E+00
    0.11507E-05        -0.20756E-09         0.00000E+00
    0.11508E-05        -0.18723E-09         0.00000E+00
    0.11508E-05        -0.16002E-09         0.00000E+00
    0.11508E-05        -0.12670E-09         0.00000E+00
    0.11509E-05        -0.88137E-10         0.00000E+00
    0.11509E-05        -0.45315E-10         0.00000E+00
    0.11509E-05        -0.22972E-10         0.00000E+00
    0.11500E-05        -0.34134E-10         0.00000E+00
    0.11500E-05        -0.65960E-10         0.00000E+00
    0.11501E-05        -0.12447E-09         0.00000E+00
    0.11501E-05        -0.17223E-09         0.00000E+00
    0.11502E-05        -0.20870E-09         0.00000E+00
    0.11502E-05        -0.23387E-09         0.00000E+00
    0.11503E-05        -0.24814E-09         0.00000E+00
    0.11504E-05        -0.25210E-09         0.00000E+00
    0.11504E-05        -0.24647E-09         0.00000E+00
    0.11505E-05        -0.23196E-09         0.00000E+00
    0.11505E-05        -0.20929E-09         0.00000E+00
    0.11506E-05        -0.17912E-09         0.00000E+00
    0.11506E-05        -0.14219E-09         0.00000E+00
    0.11506E-05        -0.99257E-10         0.00000E+00
    0.11507E-05        -0.51263E-10         0.00000E+00
    0.11507E-05        -0.26127E-10         0.00000E+00
    0.11497E-05        -0.39608E-10         0.00000E+00
    0.11498E-05        -0.75883E-10         0.00000E+00
    0.11498E-05        -0.14187E-09         0.00000E+00
    0.11499E-05        -0.19453E-09         0.00000E+00
    0.11500E-05        -0.23381E-09         0.00000E+00
    0.11500E-05        -0.26021E-09         0.00000E+00
    0.11501E-05        -0.27455E-09         0.00000E+00
    0.11502E-05        -0.27779E-09         0.00000E+00
    0.11502E-05        -0.27087E-09         0.00000E+00
    0.11503E-05        -0.25462E-09         0.00000E+00
    0.11503E-05        -0.22978E-09         0.00000E+00
    0.11504E-05        -0.19697E-09         0.00000E+00
    0.11504E-05        -0.15677E-09         0.00000E+00
    0.11505E-05        -0.10984E-09         0.00000E+00
    0.11505E-05        -0.56984E-10         0.00000E+00
    0.11505E-05        -0.29186E-10         0.00000E+00
    0.11495E-05        -0.45208E-10         0.00000E+00
    0.11495E-05        -0.85905E-10         0.00000E+00
    0.11496E-05        -0.15912E-09         0.00000E+00
    0.11497E-05        -0.21612E-09         0.00000E+00
    0.11498E-05        -0.25752E-09         0.00000E+00
    0.11498E-05        -0.28446E-09         0.00000E+00
    0.11499E-05        -0.29832E-09         0.00000E+00
    0.11500E-05        -0.30049E-09         0.00000E+00
    0.11500E-05        -0.29216E-09         0.00000E+00
    0.11501E-05        -0.27431E-09         0.00000E+00
    0.11502E-05        -0.24766E-09         0.00000E+00
    0.11502E-05        -0.21270E-09         0.00000E+00
    0.11503E-05        -0.16985E-09         0.00000E+00
    0.11503E-05        -0.11952E-09         0.00000E+00
    0.11503E-05        -0.62305E-10         0.00000E+00
    0.11503E-05        -0.32070E-10         0.00000E+00
    0.11493E-05        -0.50780E-10         0.00000E+00
    0.11494E-05        -0.95700E-10         0.00000E+00
    0.11494E-05        -0.17554E-09         0.00000E+00
    0.11495E-05        -0.23595E-09         0.00000E+00
    0.11496E-05        -0.27844E-09         0.00000E+00
    0.11497E-05        -0.30501E-09         0.00000E+00
    0.11498E-05        -0.31772E-09         0.00000E+00
    0.11498E-05        -0.31844E-09         0.00000E+00
    0.11499E-05        -0.30869E-09         0.00000E+00
    0.11500E-05        -0.28952E-09         0.00000E+00
    0.11500E-05        -0.26161E-09         0.00000E+00
    0.11501E-05        -0.22527E-09         0.00000E+00
    0.11501E-05        -0.18064E-09         0.00000E+00
    0.11502E-05        -0.12779E-09         0.00000E+00
    0.11502E-05        -0.67007E-10         0.00000E+00
    0.11502E-05        -0.34683E-10         0.00000E+00
    0.11492E-05        -0.56123E-10         0.00000E+00
    0.11492E-05        -0.10483E-09         0.00000E+00
    0.11493E-05        -0.19019E-09         0.00000E+00
    0.11494E-05        -0.25261E-09         0.00000E+00
    0.11495E-05        -0.29479E-09         0.00000E+00
    0.11496E-05        -0.31982E-09         0.00000E+00
    0.11497E-05        -0.33060E-09         0.00000E+00
    0.11497E-05        -0.32954E-09         0.00000E+00
    0.11498E-05        -0.31842E-09         0.00000E+00
    0.11499E-05        -0.29840E-09         0.00000E+00
    0.11499E-05        -0.27003E-09         0.00000E+00
    0.11500E-05        -0.23339E-09         0.00000E+00
    0.11500E-05        -0.18820E-09         0.00000E+00
    0.11501E-05        -0.13408E-09         0.00000E+00
    0.11501E-05        -0.70825E-10         0.00000E+00
    0.11501E-05        -0.36905E-10         0.00000E+00
    0.11491E-05        -0.60967E-10         0.00000E+00
    0.11491E-05        -0.11272E-09         0.00000E+00
    0.11492E-05        -0.20185E-09         0.00000E+00
    0.11493E-05        -0.26425E-09         0.00000E+00
    0.11494E-05        -0.30427E-09         0.00000E+00
    0.11495E-05        -0.32637E-09         0.00000E+00
    0.11496E-05        -0.33438E-09         0.00000E+00
    0.11497E-05        -0.33127E-09         0.00000E+00
    0.11498E-05        -0.31902E-09         0.00000E+00
    0.11498E-05        -0.29880E-09         0.00000E+00
    0.11499E-05        -0.27103E-09         0.00000E+00
    0.11499E-05        -0.23547E-09         0.00000E+00
    0.11500E-05        -0.19135E-09         0.00000E+00
    0.11500E-05        -0.13765E-09         0.00000E+00
    0.11501E-05        -0.73425E-10         0.00000E+00
    0.11501E-05        -0.38593E-10         0.00000E+00
    0.11490E-05        -0.64937E-10         0.00000E+00
    0.11491E-05        -0.11855E-09         0.00000E+00
    0.11492E-05        -0.20879E-09         0.00000E+00
    0.11493E-05        -0.26835E-09         0.00000E+00
    0.11494E-05        -0.30388E-09         0.00000E+00
    0.11495E-05        -0.32153E-09         0.00000E+00
    0.11496E-05        -0.32607E-09         0.00000E+00
    0.11497E-05        -0.32083E-09         0.00000E+00
    0.11497E-05        -0.30790E-09         0.00000E+00
    0.11498E-05        -0.28835E-09         0.00000E+00
    0.11498E-05        -0.26245E-09         0.00000E+00
    0.11499E-05        -0.22965E-09         0.00000E+00
    0.11499E-05        -0.18865E-09         0.00000E+00
    0.11500E-05        -0.13754E-09         0.00000E+00
    0.11500E-05        -0.74384E-10         0.00000E+00
    0.11501E-05        -0.39563E-10         0.00000E+00
    0.11490E-05        -0.67467E-10         0.00000E+00
    0.11491E-05        -0.12106E-09         0.00000E+00
    0.11492E-05        -0.20843E-09         0.00000E+00
    0.11494E-05        -0.26138E-09         0.00000E+00
    0.11495E-05        -0.28977E-09         0.00000E+00
    0.11495E-05        -0.30161E-09         0.00000E+00
    0.11496E-05        -0.30235E-09         0.00000E+00
    0.11497E-05        -0.29531E-09         0.00000E+00
    0.11497E-05        -0.28240E-09         0.00000E+00
    0.11498E-05        -0.26456E-09         0.00000E+00
    0.11498E-05        -0.24191E-09         0.00000E+00
    0.11499E-05        -0.21373E-09         0.00000E+00
    0.11499E-05        -0.17822E-09         0.00000E+00
    0.11500E-05        -0.13251E-09         0.00000E+00
    0.11500E-05        -0.73116E-10         0.00000E+00
    0.11501E-05        -0.39560E-10         0.00000E+00
    0.11491E-05        -0.67576E-10         0.00000E+00
    0.11492E-05        -0.11817E-09         0.00000E+00
    0.11493E-05        -0.19673E-09         0.00000E+00
    0.11494E-05        -0.23826E-09         0.00000E+00
    0.11495E-05        -0.25706E-09         0.00000E+00
    0.11496E-05        -0.26256E-09         0.00000E+00
    0.11497E-05        -0.25995E-09         0.00000E+00
    0.11497E-05        -0.25197E-09         0.00000E+00
    0.11498E-05        -0.24011E-09         0.00000E+00
    0.11498E-05        -0.22510E-09         0.00000E+00
    0.11498E-05        -0.20697E-09         0.00000E+00
    0.11499E-05        -0.18509E-09         0.00000E+00
    0.11499E-05        -0.15759E-09         0.00000E+00
    0.11500E-05        -0.12067E-09         0.00000E+00
    0.11500E-05        -0.68727E-10         0.00000E+00
    0.11501E-05        -0.38219E-10         0.00000E+00
    0.11492E-05        -0.63259E-10         0.00000E+00
    0.11493E-05        -0.10582E-09         0.00000E+00
    0.11495E-05        -0.16664E-09         0.00000E+00
    0.11496E-05        -0.19176E-09         0.00000E+00
    0.11497E-05        -0.20025E-09         0.00000E+00
    0.11497E-05        -0.20058E-09         0.00000E+00
    0.11498E-05        -0.19614E-09         0.00000E+00
    0.11498E-05        -0.18873E-09         0.00000E+00
    0.11498E-05        -0.17926E-09         0.00000E+00
    0.11499E-05        -0.16818E-09         0.00000E+00
    0.11499E-05        -0.15553E-09         0.00000E+00
    0.11499E-05        -0.14093E-09         0.00000E+00
    0.11499E-05        -0.12332E-09         0.00000E+00
    0.11500E-05        -0.98992E-10         0.00000E+00
    0.11501E-05        -0.59511E-10         0.00000E+00
    0.11501E-05        -0.34614E-10         0.00000E+00
    0.11494E-05        -0.49182E-10         0.00000E+00
    0.11495E-05        -0.74428E-10         0.00000E+00
    0.11497E-05        -0.10565E-09         0.00000E+00
    0.11498E-05        -0.11348E-09         0.00000E+00
    0.11498E-05        -0.11500E-09         0.00000E+00
    0.11499E-05        -0.11313E-09         0.00000E+00
    0.11499E-05        -0.10943E-09         0.00000E+00
    0.11499E-05        -0.10461E-09         0.00000E+00
    0.11499E-05        -0.99068E-10         0.00000E+00
    0.11499E-05        -0.93000E-10         0.00000E+00
    0.11499E-05        -0.86438E-10         0.00000E+00
    0.11500E-05        -0.79277E-10         0.00000E+00
    0.11500E-05        -0.71098E-10         0.00000E+00
    0.11500E-05        -0.61399E-10         0.00000E+00
    0.11501E-05        -0.42180E-10         0.00000E+00
    0.11501E-05        -0.28235E-10         0.00000E+00
    0.11495E-05         0.00000E+00         0.00000E+00
    0.11496E-05         0.00000E+00         0.00000E+00
    0.11498E-05        -0.33107E-20         0.00000E+00
    0.11499E-05         0.52365E-24         0.00000E+00
    0.11499E-05         0.33112E-20         0.00000E+00
    0.11499E-05         0.00000E+00         0.00000E+00
    0.11500E-05         0.00000E+00         0.00000E+00
    0.11500E-05        -0.33127E-20         0.00000E+00
    0.11500E-05        -0.33127E-20         0.00000E+00
    0.11500E-05         0.33133E-20         0.00000E+00
    0.11500E-05         0.33133E-20         0.00000E+00
    0.11500E-05        -0.36452E-20         0.00000E+00
    0.11500E-05        -0.33114E-21         0.00000E+00
    0.11500E-05         0.33142E-20         0.00000E+00
    0.11501E-05         0.66288E-21         0.00000E+00
    0.11501E-05         0.00000E+00         0.00000E+00
CELL_DATA        450
TENSORS stressef double 
    0.19376E+08         0.16818E+06         0.00000E+00
    0.16818E+06         0.10722E+08         0.00000E+00
    0.00000E+00         0.00000E+00         0.68950E+07
 
    0.19525E+08         0.16473E+06         0.00000E+00
    0.16473E+06         0.11132E+08         0.00000E+00
    0.00000E+00         0.00000E+00         0.71383E+07
 
    0.19311E+08         0.90875E+04         0.00000E+00
    0.90875E+04         0.11188E+08         0.00000E+00
    0.00000E+00         0.00000E+00         0.67568E+07
 
    0.18650E+08        -0.19796E+06         0.00000E+00
   -0.19796E+06         0.10808E+08         0.00000E+00
    0.00000E+00         0.00000E+00         0.56524E+07
 
    0.17378E+08        -0.35739E+06         0.00000E+00
   -0.35739E+06         0.10130E+08         0.00000E+00
    0.00000E+00         0.00000E+00         0.36335E+07
 
    0.15767E+08        -0.34652E+06         0.00000E+00
   -0.34652E+06         0.93497E+07         0.00000E+00
    0.00000E+00         0.00000E+00         0.12387E+07
 
    0.14017E+08        -0.36268E+06         0.00000E+00
   -0.36268E+06         0.86617E+07         0.00000E+00
    0.00000E+00         0.00000E+00        -0.97507E+06
 
    0.11730E+08        -0.35953E+06         0.00000E+00
   -0.35953E+06         0.79818E+07         0.00000E+00
    0.00000E+00         0.00000E+00        -0.19239E+07
 
    0.98104E+07        -0.24078E+06         0.00000E+00
   -0.24078E+06         0.74278E+07         0.00000E+00
    0.00000E+00         0.00000E+00        -0.24203E+07
 
    0.80893E+07        -0.13270E+06         0.00000E+00
   -0.13270E+06         0.70772E+07         0.00000E+00
    0.00000E+00         0.00000E+00        -0.28354E+07
 
    0.63977E+07        -0.28824E+05         0.00000E+00
   -0.28824E+05         0.69288E+07         0.00000E+00
    0.00000E+00         0.00000E+00        -0.32033E+07
 
    0.46257E+07         0.80408E+05         0.00000E+00
    0.80408E+05         0.69885E+07         0.00000E+00
    0.00000E+00         0.00000E+00        -0.35447E+07
 
    0.26552E+07         0.20916E+06         0.00000E+00
    0.20916E+06         0.72829E+07         0.00000E+00
    0.00000E+00         0.00000E+00        -0.38780E+07
 
    0.30201E+06         0.38450E+06         0.00000E+00
    0.38450E+06         0.78795E+07         0.00000E+00
    0.00000E+00         0.00000E+00        -0.42264E+07
 
   -0.29470E+07         0.77813E+06         0.00000E+00
    0.77813E+06         0.89861E+07         0.00000E+00
    0.00000E+00         0.00000E+00        -0.46511E+07
 
    0.17655E+08         0.38664E+06         0.00000E+00
    0.38664E+06         0.78674E+07         0.00000E+00
    0.00000E+00         0.00000E+00         0.40813E+07
 
    0.17378E+08         0.33430E+06         0.00000E+00
    0.33430E+06         0.76576E+07         0.00000E+00
    0.00000E+00         0.00000E+00         0.35747E+07
 
    0.17019E+08        -0.90623E+04         0.00000E+00
   -0.90623E+04         0.75403E+07         0.00000E+00
    0.00000E+00         0.00000E+00         0.28849E+07
 
    0.16296E+08        -0.39943E+06         0.00000E+00
   -0.39943E+06         0.75316E+07         0.00000E+00
    0.00000E+00         0.00000E+00         0.16768E+07
 
    0.15179E+08        -0.71546E+06         0.00000E+00
   -0.71546E+06         0.75436E+07         0.00000E+00
    0.00000E+00         0.00000E+00         0.55101E+05
 
    0.13787E+08        -0.87775E+06         0.00000E+00
   -0.87775E+06         0.74364E+07         0.00000E+00
    0.00000E+00         0.00000E+00        -0.14203E+07
 
    0.11832E+08        -0.93561E+06         0.00000E+00
   -0.93561E+06         0.70621E+07         0.00000E+00
    0.00000E+00         0.00000E+00        -0.20848E+07
 
    0.98674E+07        -0.87280E+06         0.00000E+00
   -0.87280E+06         0.66905E+07         0.00000E+00
    0.00000E+00         0.00000E+00        -0.25547E+07
 
    0.79801E+07        -0.62222E+06         0.00000E+00
   -0.62222E+06         0.63736E+07         0.00000E+00
    0.00000E+00         0.00000E+00        -0.29973E+07
 
    0.62585E+07        -0.34160E+06         0.00000E+00
   -0.34160E+06         0.61593E+07         0.00000E+00
    0.00000E+00         0.00000E+00        -0.33853E+07
 
    0.45739E+07        -0.51247E+05         0.00000E+00
   -0.51247E+05         0.60937E+07         0.00000E+00
    0.00000E+00         0.00000E+00        -0.37352E+07
 
    0.28276E+07         0.26595E+06         0.00000E+00
    0.26595E+06         0.62077E+07         0.00000E+00
    0.00000E+00         0.00000E+00        -0.40606E+07
 
    0.91947E+06         0.64550E+06         0.00000E+00
    0.64550E+06         0.65389E+07         0.00000E+00
    0.00000E+00         0.00000E+00        -0.43740E+07
 
   -0.12854E+07         0.11711E+07         0.00000E+00
    0.11711E+07         0.71507E+07         0.00000E+00
    0.00000E+00         0.00000E+00        -0.46898E+07
 
   -0.38116E+07         0.21145E+07         0.00000E+00
    0.21145E+07         0.81295E+07         0.00000E+00
    0.00000E+00         0.00000E+00        -0.49955E+07
 
    0.15953E+08         0.98267E+05         0.00000E+00
    0.98267E+05         0.54789E+07         0.00000E+00
    0.00000E+00         0.00000E+00         0.11711E+07
 
    0.15258E+08         0.20437E+06         0.00000E+00
    0.20437E+06         0.50899E+07         0.00000E+00
    0.00000E+00         0.00000E+00        -0.10544E+06
 
    0.14602E+08        -0.62052E+05         0.00000E+00
   -0.62052E+05         0.50665E+07         0.00000E+00
    0.00000E+00         0.00000E+00        -0.12435E+07
 
    0.13925E+08        -0.42806E+06         0.00000E+00
   -0.42806E+06         0.51769E+07         0.00000E+00
    0.00000E+00         0.00000E+00        -0.19549E+07
 
    0.12850E+08        -0.75963E+06         0.00000E+00
   -0.75963E+06         0.52307E+07         0.00000E+00
    0.00000E+00         0.00000E+00        -0.22395E+07
 
    0.11513E+08        -0.10548E+07         0.00000E+00
   -0.10548E+07         0.51901E+07         0.00000E+00
    0.00000E+00         0.00000E+00        -0.25197E+07
 
    0.98303E+07        -0.11790E+07         0.00000E+00
   -0.11790E+07         0.51150E+07         0.00000E+00
    0.00000E+00         0.00000E+00        -0.28749E+07
 
    0.80214E+07        -0.10658E+07         0.00000E+00
   -0.10658E+07         0.50225E+07         0.00000E+00
    0.00000E+00         0.00000E+00        -0.32578E+07
 
    0.62626E+07        -0.79134E+06         0.00000E+00
   -0.79134E+06         0.49486E+07         0.00000E+00
    0.00000E+00         0.00000E+00        -0.36261E+07
 
    0.45779E+07        -0.41783E+06         0.00000E+00
   -0.41783E+06         0.49105E+07         0.00000E+00
    0.00000E+00         0.00000E+00        -0.39714E+07
 
    0.29290E+07         0.12775E+05         0.00000E+00
    0.12775E+05         0.49645E+07         0.00000E+00
    0.00000E+00         0.00000E+00        -0.42903E+07
 
    0.12440E+07         0.50862E+06         0.00000E+00
    0.50862E+06         0.51570E+07         0.00000E+00
    0.00000E+00         0.00000E+00        -0.45877E+07
 
   -0.54533E+06         0.11127E+07         0.00000E+00
    0.11127E+07         0.55295E+07         0.00000E+00
    0.00000E+00         0.00000E+00        -0.48691E+07
 
   -0.24758E+07         0.19231E+07         0.00000E+00
    0.19231E+07         0.61201E+07         0.00000E+00
    0.00000E+00         0.00000E+00        -0.51342E+07
 
   -0.44836E+07         0.30926E+07         0.00000E+00
    0.30926E+07         0.69002E+07         0.00000E+00
    0.00000E+00         0.00000E+00        -0.53760E+07
 
    0.14152E+08        -0.82475E+05         0.00000E+00
   -0.82475E+05         0.36156E+07         0.00000E+00
    0.00000E+00         0.00000E+00        -0.20004E+07
 
    0.13062E+08        -0.72681E+05         0.00000E+00
   -0.72681E+05         0.36262E+07         0.00000E+00
    0.00000E+00         0.00000E+00        -0.24996E+07
 
    0.12277E+08        -0.21596E+06         0.00000E+00
   -0.21596E+06         0.34706E+07         0.00000E+00
    0.00000E+00         0.00000E+00        -0.26950E+07
 
    0.11511E+08        -0.50269E+06         0.00000E+00
   -0.50269E+06         0.33061E+07         0.00000E+00
    0.00000E+00         0.00000E+00        -0.28875E+07
 
    0.10525E+08        -0.82218E+06         0.00000E+00
   -0.82218E+06         0.32049E+07         0.00000E+00
    0.00000E+00         0.00000E+00        -0.31104E+07
 
    0.92776E+07        -0.10725E+07         0.00000E+00
   -0.10725E+07         0.31717E+07         0.00000E+00
    0.00000E+00         0.00000E+00        -0.33710E+07
 
    0.78031E+07        -0.11731E+07         0.00000E+00
   -0.11731E+07         0.32043E+07         0.00000E+00
    0.00000E+00         0.00000E+00        -0.36629E+07
 
    0.62010E+07        -0.10659E+07         0.00000E+00
   -0.10659E+07         0.32657E+07         0.00000E+00
    0.00000E+00         0.00000E+00        -0.39737E+07
 
    0.45832E+07        -0.77715E+06         0.00000E+00
   -0.77715E+06         0.33351E+07         0.00000E+00
    0.00000E+00         0.00000E+00        -0.42850E+07
 
    0.29943E+07        -0.35473E+06         0.00000E+00
   -0.35473E+06         0.34334E+07         0.00000E+00
    0.00000E+00         0.00000E+00        -0.45839E+07
 
    0.14242E+07         0.17345E+06         0.00000E+00
    0.17345E+06         0.35933E+07         0.00000E+00
    0.00000E+00         0.00000E+00        -0.48658E+07
 
   -0.15993E+06         0.80848E+06         0.00000E+00
    0.80848E+06         0.38539E+07         0.00000E+00
    0.00000E+00         0.00000E+00        -0.51294E+07
 
   -0.17873E+07         0.15859E+07         0.00000E+00
    0.15859E+07         0.42470E+07         0.00000E+00
    0.00000E+00         0.00000E+00        -0.53744E+07
 
   -0.34532E+07         0.25721E+07         0.00000E+00
    0.25721E+07         0.47808E+07         0.00000E+00
    0.00000E+00         0.00000E+00        -0.55980E+07
 
   -0.50874E+07         0.38451E+07         0.00000E+00
    0.38451E+07         0.54197E+07         0.00000E+00
    0.00000E+00         0.00000E+00        -0.57933E+07
 
    0.11984E+08        -0.10966E+06         0.00000E+00
   -0.10966E+06         0.18384E+07         0.00000E+00
    0.00000E+00         0.00000E+00        -0.30657E+07
 
    0.10948E+08        -0.28588E+06         0.00000E+00
   -0.28588E+06         0.17830E+07         0.00000E+00
    0.00000E+00         0.00000E+00        -0.32923E+07
 
    0.10050E+08        -0.42572E+06         0.00000E+00
   -0.42572E+06         0.15902E+07         0.00000E+00
    0.00000E+00         0.00000E+00        -0.35176E+07
 
    0.92084E+07        -0.64702E+06         0.00000E+00
   -0.64702E+06         0.14214E+07         0.00000E+00
    0.00000E+00         0.00000E+00        -0.37259E+07
 
    0.82451E+07        -0.88479E+06         0.00000E+00
   -0.88479E+06         0.13235E+07         0.00000E+00
    0.00000E+00         0.00000E+00        -0.39435E+07
 
    0.71050E+07        -0.10563E+07         0.00000E+00
   -0.10563E+07         0.13089E+07         0.00000E+00
    0.00000E+00         0.00000E+00        -0.41788E+07
 
    0.58012E+07        -0.10949E+07         0.00000E+00
   -0.10949E+07         0.13681E+07         0.00000E+00
    0.00000E+00         0.00000E+00        -0.44312E+07
 
    0.43891E+07        -0.96110E+06         0.00000E+00
   -0.96110E+06         0.14803E+07         0.00000E+00
    0.00000E+00         0.00000E+00        -0.46937E+07
 
    0.29332E+07        -0.65260E+06         0.00000E+00
   -0.65260E+06         0.16254E+07         0.00000E+00
    0.00000E+00         0.00000E+00        -0.49575E+07
 
    0.14744E+07        -0.19033E+06         0.00000E+00
   -0.19033E+06         0.18031E+07         0.00000E+00
    0.00000E+00         0.00000E+00        -0.52144E+07
 
    0.22822E+05         0.40825E+06         0.00000E+00
    0.40825E+06         0.20311E+07         0.00000E+00
    0.00000E+00         0.00000E+00        -0.54590E+07
 
   -0.14281E+07         0.11439E+07         0.00000E+00
    0.11439E+07         0.23321E+07         0.00000E+00
    0.00000E+00         0.00000E+00        -0.56879E+07
 
   -0.28809E+07         0.20381E+07         0.00000E+00
    0.20381E+07         0.27226E+07         0.00000E+00
    0.00000E+00         0.00000E+00        -0.58984E+07
 
   -0.43148E+07         0.31281E+07         0.00000E+00
    0.31281E+07         0.32001E+07         0.00000E+00
    0.00000E+00         0.00000E+00        -0.60869E+07
 
   -0.56716E+07         0.44494E+07         0.00000E+00
    0.44494E+07         0.37336E+07         0.00000E+00
    0.00000E+00         0.00000E+00        -0.62480E+07
 
    0.97193E+07        -0.15050E+06         0.00000E+00
   -0.15050E+06        -0.16467E+06         0.00000E+00
    0.00000E+00         0.00000E+00        -0.39208E+07
 
    0.87389E+07        -0.39291E+06         0.00000E+00
   -0.39291E+06        -0.23415E+06         0.00000E+00
    0.00000E+00         0.00000E+00        -0.41389E+07
 
    0.78476E+07        -0.58942E+06         0.00000E+00
   -0.58942E+06        -0.33991E+06         0.00000E+00
    0.00000E+00         0.00000E+00        -0.43454E+07
 
    0.69771E+07        -0.77122E+06         0.00000E+00
   -0.77122E+06        -0.45820E+06         0.00000E+00
    0.00000E+00         0.00000E+00        -0.45493E+07
 
    0.60484E+07        -0.93289E+06         0.00000E+00
   -0.93289E+06        -0.52899E+06         0.00000E+00
    0.00000E+00         0.00000E+00        -0.47544E+07
 
    0.50073E+07        -0.10243E+07         0.00000E+00
   -0.10243E+07        -0.52863E+06         0.00000E+00
    0.00000E+00         0.00000E+00        -0.49668E+07
 
    0.38509E+07        -0.99593E+06         0.00000E+00
   -0.99593E+06        -0.45735E+06         0.00000E+00
    0.00000E+00         0.00000E+00        -0.51872E+07
 
    0.26073E+07        -0.81551E+06         0.00000E+00
   -0.81551E+06        -0.32786E+06         0.00000E+00
    0.00000E+00         0.00000E+00        -0.54124E+07
 
    0.13152E+07        -0.47218E+06         0.00000E+00
   -0.47218E+06        -0.15357E+06         0.00000E+00
    0.00000E+00         0.00000E+00        -0.56375E+07
 
    0.57976E+04         0.29748E+05         0.00000E+00
    0.29748E+05         0.60405E+05         0.00000E+00
    0.00000E+00         0.00000E+00        -0.58573E+07
 
   -0.13032E+07         0.68331E+06         0.00000E+00
    0.68331E+06         0.31908E+06         0.00000E+00
    0.00000E+00         0.00000E+00        -0.60671E+07
 
   -0.26029E+07         0.14891E+07         0.00000E+00
    0.14891E+07         0.63195E+06         0.00000E+00
    0.00000E+00         0.00000E+00        -0.62634E+07
 
   -0.38818E+07         0.24580E+07         0.00000E+00
    0.24580E+07         0.10041E+07         0.00000E+00
    0.00000E+00         0.00000E+00        -0.64429E+07
 
   -0.51145E+07         0.36072E+07         0.00000E+00
    0.36072E+07         0.14283E+07         0.00000E+00
    0.00000E+00         0.00000E+00        -0.66019E+07
 
   -0.62557E+07         0.49485E+07         0.00000E+00
    0.49485E+07         0.18807E+07         0.00000E+00
    0.00000E+00         0.00000E+00        -0.67361E+07
 
    0.73878E+07        -0.18063E+06         0.00000E+00
   -0.18063E+06        -0.21851E+07         0.00000E+00
    0.00000E+00         0.00000E+00        -0.47931E+07
 
    0.64841E+07        -0.46962E+06         0.00000E+00
   -0.46962E+06        -0.22279E+07         0.00000E+00
    0.00000E+00         0.00000E+00        -0.49904E+07
 
    0.56357E+07        -0.68721E+06         0.00000E+00
   -0.68721E+06        -0.22981E+07         0.00000E+00
    0.00000E+00         0.00000E+00        -0.51810E+07
 
    0.47987E+07        -0.85164E+06         0.00000E+00
   -0.85164E+06        -0.23660E+07         0.00000E+00
    0.00000E+00         0.00000E+00        -0.53680E+07
 
    0.39251E+07        -0.95803E+06         0.00000E+00
   -0.95803E+06        -0.24028E+07         0.00000E+00
    0.00000E+00         0.00000E+00        -0.55551E+07
 
    0.29815E+07        -0.98164E+06         0.00000E+00
   -0.98164E+06        -0.23856E+07         0.00000E+00
    0.00000E+00         0.00000E+00        -0.57445E+07
 
    0.19587E+07        -0.89006E+06         0.00000E+00
   -0.89006E+06        -0.23083E+07         0.00000E+00
    0.00000E+00         0.00000E+00        -0.59368E+07
 
    0.86914E+06        -0.65802E+06         0.00000E+00
   -0.65802E+06        -0.21756E+07         0.00000E+00
    0.00000E+00         0.00000E+00        -0.61305E+07
 
   -0.26406E+06        -0.27234E+06         0.00000E+00
   -0.27234E+06        -0.19958E+07         0.00000E+00
    0.00000E+00         0.00000E+00        -0.63226E+07
 
   -0.14177E+07         0.27015E+06         0.00000E+00
    0.27015E+06        -0.17746E+07         0.00000E+00
    0.00000E+00         0.00000E+00        -0.65097E+07
 
   -0.25732E+07         0.96863E+06         0.00000E+00
    0.96863E+06        -0.15128E+07         0.00000E+00
    0.00000E+00         0.00000E+00        -0.66882E+07
 
   -0.37153E+07         0.18238E+07         0.00000E+00
    0.18238E+07        -0.12097E+07         0.00000E+00
    0.00000E+00         0.00000E+00        -0.68549E+07
 
   -0.48266E+07         0.28397E+07         0.00000E+00
    0.28397E+07        -0.86678E+06         0.00000E+00
    0.00000E+00         0.00000E+00        -0.70067E+07
 
   -0.58824E+07         0.40213E+07         0.00000E+00
    0.40213E+07        -0.49315E+06         0.00000E+00
    0.00000E+00         0.00000E+00        -0.71405E+07
 
   -0.68481E+07         0.53679E+07         0.00000E+00
    0.53679E+07        -0.10703E+06         0.00000E+00
    0.00000E+00         0.00000E+00        -0.72530E+07
 
    0.50114E+07        -0.19987E+06         0.00000E+00
   -0.19987E+06        -0.42020E+07         0.00000E+00
    0.00000E+00         0.00000E+00        -0.56741E+07
 
    0.42017E+07        -0.51761E+06         0.00000E+00
   -0.51761E+06        -0.42278E+07         0.00000E+00
    0.00000E+00         0.00000E+00        -0.58489E+07
 
    0.34252E+07        -0.74469E+06         0.00000E+00
   -0.74469E+06        -0.42672E+07         0.00000E+00
    0.00000E+00         0.00000E+00        -0.60189E+07
 
    0.26539E+07        -0.89287E+06         0.00000E+00
   -0.89287E+06        -0.43021E+07         0.00000E+00
    0.00000E+00         0.00000E+00        -0.61859E+07
 
    0.18586E+07        -0.95962E+06         0.00000E+00
   -0.95962E+06        -0.43117E+07         0.00000E+00
    0.00000E+00         0.00000E+00        -0.63517E+07
 
    0.10175E+07        -0.93007E+06         0.00000E+00
   -0.93007E+06        -0.42804E+07         0.00000E+00
    0.00000E+00         0.00000E+00        -0.65176E+07
 
    0.12226E+06        -0.78391E+06         0.00000E+00
   -0.78391E+06        -0.42006E+07         0.00000E+00
    0.00000E+00         0.00000E+00        -0.66837E+07
 
   -0.82217E+06        -0.50266E+06         0.00000E+00
   -0.50266E+06        -0.40726E+07         0.00000E+00
    0.00000E+00         0.00000E+00        -0.68491E+07
 
   -0.18020E+07        -0.74200E+05         0.00000E+00
   -0.74200E+05        -0.39007E+07         0.00000E+00
    0.00000E+00         0.00000E+00        -0.70121E+07
 
   -0.28004E+07         0.50716E+06         0.00000E+00
    0.50716E+06        -0.36895E+07         0.00000E+00
    0.00000E+00         0.00000E+00        -0.71700E+07
 
   -0.38004E+07         0.12431E+07         0.00000E+00
    0.12431E+07        -0.34427E+07         0.00000E+00
    0.00000E+00         0.00000E+00        -0.73204E+07
 
   -0.47857E+07         0.21339E+07         0.00000E+00
    0.21339E+07        -0.31634E+07         0.00000E+00
    0.00000E+00         0.00000E+00        -0.74605E+07
 
   -0.57382E+07         0.31796E+07         0.00000E+00
    0.31796E+07        -0.28567E+07         0.00000E+00
    0.00000E+00         0.00000E+00        -0.75879E+07
 
   -0.66357E+07         0.43784E+07         0.00000E+00
    0.43784E+07        -0.25318E+07         0.00000E+00
    0.00000E+00         0.00000E+00        -0.76998E+07
 
   -0.74520E+07         0.57231E+07         0.00000E+00
    0.57231E+07        -0.22026E+07         0.00000E+00
    0.00000E+00         0.00000E+00        -0.77940E+07
 
    0.26082E+07        -0.21023E+06         0.00000E+00
   -0.21023E+06        -0.62201E+07         0.00000E+00
    0.00000E+00         0.00000E+00        -0.65611E+07
 
    0.19051E+07        -0.54373E+06         0.00000E+00
   -0.54373E+06        -0.62327E+07         0.00000E+00
    0.00000E+00         0.00000E+00        -0.67117E+07
 
    0.12195E+07        -0.77360E+06         0.00000E+00
   -0.77360E+06        -0.62512E+07         0.00000E+00
    0.00000E+00         0.00000E+00        -0.68590E+07
 
    0.53538E+06        -0.90758E+06         0.00000E+00
   -0.90758E+06        -0.62636E+07         0.00000E+00
    0.00000E+00         0.00000E+00        -0.70038E+07
 
   -0.16518E+06        -0.94392E+06         0.00000E+00
   -0.94392E+06        -0.62560E+07         0.00000E+00
    0.00000E+00         0.00000E+00        -0.71470E+07
 
   -0.89643E+06        -0.87324E+06         0.00000E+00
   -0.87324E+06        -0.62168E+07         0.00000E+00
    0.00000E+00         0.00000E+00        -0.72891E+07
 
   -0.16650E+07        -0.68217E+06         0.00000E+00
   -0.68217E+06        -0.61391E+07         0.00000E+00
    0.00000E+00         0.00000E+00        -0.74301E+07
 
   -0.24692E+07        -0.35770E+06         0.00000E+00
   -0.35770E+06        -0.60213E+07         0.00000E+00
    0.00000E+00         0.00000E+00        -0.75694E+07
 
   -0.33005E+07         0.10994E+06         0.00000E+00
    0.10994E+06        -0.58653E+07         0.00000E+00
    0.00000E+00         0.00000E+00        -0.77057E+07
 
   -0.41468E+07         0.72630E+06         0.00000E+00
    0.72630E+06        -0.56747E+07         0.00000E+00
    0.00000E+00         0.00000E+00        -0.78373E+07
 
   -0.49941E+07         0.14934E+07         0.00000E+00
    0.14934E+07        -0.54535E+07         0.00000E+00
    0.00000E+00         0.00000E+00        -0.79622E+07
 
   -0.58272E+07         0.24108E+07         0.00000E+00
    0.24108E+07        -0.52065E+07         0.00000E+00
    0.00000E+00         0.00000E+00        -0.80783E+07
 
   -0.66298E+07         0.34760E+07         0.00000E+00
    0.34760E+07        -0.49399E+07         0.00000E+00
    0.00000E+00         0.00000E+00        -0.81838E+07
 
   -0.73832E+07         0.46835E+07         0.00000E+00
    0.46835E+07        -0.46622E+07         0.00000E+00
    0.00000E+00         0.00000E+00        -0.82765E+07
 
   -0.80675E+07         0.60233E+07         0.00000E+00
    0.60233E+07        -0.43840E+07         0.00000E+00
    0.00000E+00         0.00000E+00        -0.83546E+07
 
    0.19177E+06        -0.21450E+06         0.00000E+00
   -0.21450E+06        -0.82387E+07         0.00000E+00
    0.00000E+00         0.00000E+00        -0.74512E+07
 
   -0.39783E+06        -0.55504E+06         0.00000E+00
   -0.55504E+06        -0.82432E+07         0.00000E+00
    0.00000E+00         0.00000E+00        -0.75772E+07
 
   -0.97981E+06        -0.78423E+06         0.00000E+00
   -0.78423E+06        -0.82490E+07         0.00000E+00
    0.00000E+00         0.00000E+00        -0.77010E+07
 
   -0.15623E+07        -0.90616E+06         0.00000E+00
   -0.90616E+06        -0.82487E+07         0.00000E+00
    0.00000E+00         0.00000E+00        -0.78226E+07
 
   -0.21561E+07        -0.91907E+06         0.00000E+00
   -0.91907E+06        -0.82327E+07         0.00000E+00
    0.00000E+00         0.00000E+00        -0.79425E+07
 
   -0.27707E+07        -0.81651E+06         0.00000E+00
   -0.81651E+06        -0.81924E+07         0.00000E+00
    0.00000E+00         0.00000E+00        -0.80608E+07
 
   -0.34112E+07        -0.58946E+06         0.00000E+00
   -0.58946E+06        -0.81220E+07         0.00000E+00
    0.00000E+00         0.00000E+00        -0.81774E+07
 
   -0.40773E+07        -0.22882E+06         0.00000E+00
   -0.22882E+06        -0.80191E+07         0.00000E+00
    0.00000E+00         0.00000E+00        -0.82919E+07
 
   -0.47639E+07         0.27260E+06         0.00000E+00
    0.27260E+06        -0.78844E+07         0.00000E+00
    0.00000E+00         0.00000E+00        -0.84033E+07
 
   -0.54621E+07         0.91909E+06         0.00000E+00
    0.91909E+06        -0.77205E+07         0.00000E+00
    0.00000E+00         0.00000E+00        -0.85105E+07
 
   -0.61610E+07         0.17120E+07         0.00000E+00
    0.17120E+07        -0.75310E+07         0.00000E+00
    0.00000E+00         0.00000E+00        -0.86120E+07
 
   -0.68480E+07         0.26497E+07         0.00000E+00
    0.26497E+07        -0.73209E+07         0.00000E+00
    0.00000E+00         0.00000E+00        -0.87064E+07
 
   -0.75091E+07         0.37282E+07         0.00000E+00
    0.37282E+07        -0.70961E+07         0.00000E+00
    0.00000E+00         0.00000E+00        -0.87920E+07
 
   -0.81294E+07         0.49401E+07         0.00000E+00
    0.49401E+07        -0.68640E+07         0.00000E+00
    0.00000E+00         0.00000E+00        -0.88673E+07
 
   -0.86937E+07         0.62744E+07         0.00000E+00
    0.62744E+07        -0.66330E+07         0.00000E+00
    0.00000E+00         0.00000E+00        -0.89311E+07
 
   -0.22292E+07        -0.21533E+06         0.00000E+00
   -0.21533E+06        -0.10258E+08         0.00000E+00
    0.00000E+00         0.00000E+00        -0.83429E+07
 
   -0.27025E+07        -0.55810E+06         0.00000E+00
   -0.55810E+06        -0.10259E+08         0.00000E+00
    0.00000E+00         0.00000E+00        -0.84445E+07
 
   -0.31727E+07        -0.78528E+06         0.00000E+00
   -0.78528E+06        -0.10259E+08         0.00000E+00
    0.00000E+00         0.00000E+00        -0.85444E+07
 
   -0.36435E+07        -0.89757E+06         0.00000E+00
   -0.89757E+06        -0.10254E+08         0.00000E+00
    0.00000E+00         0.00000E+00        -0.86424E+07
 
   -0.41218E+07        -0.89268E+06         0.00000E+00
   -0.89268E+06        -0.10237E+08         0.00000E+00
    0.00000E+00         0.00000E+00        -0.87387E+07
 
   -0.46139E+07        -0.76570E+06         0.00000E+00
   -0.76570E+06        -0.10202E+08         0.00000E+00
    0.00000E+00         0.00000E+00        -0.88333E+07
 
   -0.51241E+07        -0.51034E+06         0.00000E+00
   -0.51034E+06        -0.10144E+08         0.00000E+00
    0.00000E+00         0.00000E+00        -0.89261E+07
 
   -0.56529E+07        -0.12038E+06         0.00000E+00
   -0.12038E+06        -0.10060E+08         0.00000E+00
    0.00000E+00         0.00000E+00        -0.90167E+07
 
   -0.61972E+07         0.40907E+06         0.00000E+00
    0.40907E+06        -0.99508E+07         0.00000E+00
    0.00000E+00         0.00000E+00        -0.91045E+07
 
   -0.67512E+07         0.10807E+07         0.00000E+00
    0.10807E+07        -0.98172E+07         0.00000E+00
    0.00000E+00         0.00000E+00        -0.91888E+07
 
   -0.73065E+07         0.18946E+07         0.00000E+00
    0.18946E+07        -0.96627E+07         0.00000E+00
    0.00000E+00         0.00000E+00        -0.92686E+07
 
   -0.78532E+07         0.28483E+07         0.00000E+00
    0.28483E+07        -0.94916E+07         0.00000E+00
    0.00000E+00         0.00000E+00        -0.93427E+07
 
   -0.83802E+07         0.39365E+07         0.00000E+00
    0.39365E+07        -0.93090E+07         0.00000E+00
    0.00000E+00         0.00000E+00        -0.94100E+07
 
   -0.88759E+07         0.51509E+07         0.00000E+00
    0.51509E+07        -0.91212E+07         0.00000E+00
    0.00000E+00         0.00000E+00        -0.94694E+07
 
   -0.93287E+07         0.64802E+07         0.00000E+00
    0.64802E+07        -0.89346E+07         0.00000E+00
    0.00000E+00         0.00000E+00        -0.95201E+07
 
   -0.46507E+07        -0.21501E+06         0.00000E+00
   -0.21501E+06        -0.12278E+08         0.00000E+00
    0.00000E+00         0.00000E+00        -0.92352E+07
 
   -0.50070E+07        -0.55847E+06         0.00000E+00
   -0.55847E+06        -0.12278E+08         0.00000E+00
    0.00000E+00         0.00000E+00        -0.93129E+07
 
   -0.53602E+07        -0.78400E+06         0.00000E+00
   -0.78400E+06        -0.12278E+08         0.00000E+00
    0.00000E+00         0.00000E+00        -0.93890E+07
 
   -0.57124E+07        -0.88937E+06         0.00000E+00
   -0.88937E+06        -0.12276E+08         0.00000E+00
    0.00000E+00         0.00000E+00        -0.94634E+07
 
   -0.60683E+07        -0.87144E+06         0.00000E+00
   -0.87144E+06        -0.12265E+08         0.00000E+00
    0.00000E+00         0.00000E+00        -0.95360E+07
 
   -0.64331E+07        -0.72613E+06         0.00000E+00
   -0.72613E+06        -0.12241E+08         0.00000E+00
    0.00000E+00         0.00000E+00        -0.96069E+07
 
   -0.68105E+07        -0.44895E+06         0.00000E+00
   -0.44895E+06        -0.12199E+08         0.00000E+00
    0.00000E+00         0.00000E+00        -0.96762E+07
 
   -0.72019E+07        -0.35784E+05         0.00000E+00
   -0.35784E+05        -0.12138E+08         0.00000E+00
    0.00000E+00         0.00000E+00        -0.97435E+07
 
   -0.76059E+07         0.51630E+06         0.00000E+00
    0.51630E+06        -0.12056E+08         0.00000E+00
    0.00000E+00         0.00000E+00        -0.98087E+07
 
   -0.80188E+07         0.12084E+07         0.00000E+00
    0.12084E+07        -0.11955E+08         0.00000E+00
    0.00000E+00         0.00000E+00        -0.98712E+07
 
   -0.84347E+07         0.20394E+07         0.00000E+00
    0.20394E+07        -0.11837E+08         0.00000E+00
    0.00000E+00         0.00000E+00        -0.99303E+07
 
   -0.88464E+07         0.30059E+07         0.00000E+00
    0.30059E+07        -0.11706E+08         0.00000E+00
    0.00000E+00         0.00000E+00        -0.99854E+07
 
   -0.92454E+07         0.41016E+07         0.00000E+00
    0.41016E+07        -0.11565E+08         0.00000E+00
    0.00000E+00         0.00000E+00        -0.10036E+08
 
   -0.96231E+07         0.53179E+07         0.00000E+00
    0.53179E+07        -0.11420E+08         0.00000E+00
    0.00000E+00         0.00000E+00        -0.10080E+08
 
   -0.99708E+07         0.66434E+07         0.00000E+00
    0.66434E+07        -0.11276E+08         0.00000E+00
    0.00000E+00         0.00000E+00        -0.10119E+08
 
   -0.70722E+07        -0.21535E+06         0.00000E+00
   -0.21535E+06        -0.14298E+08         0.00000E+00
    0.00000E+00         0.00000E+00        -0.10128E+08
 
   -0.73117E+07        -0.56060E+06         0.00000E+00
   -0.56060E+06        -0.14300E+08         0.00000E+00
    0.00000E+00         0.00000E+00        -0.10182E+08
 
   -0.75444E+07        -0.78625E+06         0.00000E+00
   -0.78625E+06        -0.14306E+08         0.00000E+00
    0.00000E+00         0.00000E+00        -0.10235E+08
 
   -0.77727E+07        -0.88765E+06         0.00000E+00
   -0.88765E+06        -0.14310E+08         0.00000E+00
    0.00000E+00         0.00000E+00        -0.10285E+08
 
   -0.80010E+07        -0.86089E+06         0.00000E+00
   -0.86089E+06        -0.14311E+08         0.00000E+00
    0.00000E+00         0.00000E+00        -0.10334E+08
 
   -0.82342E+07        -0.70233E+06         0.00000E+00
   -0.70233E+06        -0.14302E+08         0.00000E+00
    0.00000E+00         0.00000E+00        -0.10382E+08
 
   -0.84764E+07        -0.40873E+06         0.00000E+00
   -0.40873E+06        -0.14280E+08         0.00000E+00
    0.00000E+00         0.00000E+00        -0.10428E+08
 
   -0.87299E+07         0.22393E+05         0.00000E+00
    0.22393E+05        -0.14244E+08         0.00000E+00
    0.00000E+00         0.00000E+00        -0.10472E+08
 
   -0.89946E+07         0.59237E+06         0.00000E+00
    0.59237E+06        -0.14192E+08         0.00000E+00
    0.00000E+00         0.00000E+00        -0.10515E+08
 
   -0.92688E+07         0.13009E+07         0.00000E+00
    0.13009E+07        -0.14125E+08         0.00000E+00
    0.00000E+00         0.00000E+00        -0.10556E+08
 
   -0.95488E+07         0.21458E+07         0.00000E+00
    0.21458E+07        -0.14044E+08         0.00000E+00
    0.00000E+00         0.00000E+00        -0.10596E+08
 
   -0.98298E+07         0.31226E+07         0.00000E+00
    0.31226E+07        -0.13952E+08         0.00000E+00
    0.00000E+00         0.00000E+00        -0.10633E+08
 
   -0.10106E+08         0.42247E+07         0.00000E+00
    0.42247E+07        -0.13853E+08         0.00000E+00
    0.00000E+00         0.00000E+00        -0.10667E+08
 
   -0.10370E+08         0.54430E+07         0.00000E+00
    0.54430E+07        -0.13749E+08         0.00000E+00
    0.00000E+00         0.00000E+00        -0.10697E+08
 
   -0.10618E+08         0.67661E+07         0.00000E+00
    0.67661E+07        -0.13645E+08         0.00000E+00
    0.00000E+00         0.00000E+00        -0.10724E+08
 
   -0.94963E+07        -0.21769E+06         0.00000E+00
   -0.21769E+06        -0.16318E+08         0.00000E+00
    0.00000E+00         0.00000E+00        -0.11022E+08
 
   -0.96188E+07        -0.56790E+06         0.00000E+00
   -0.56790E+06        -0.16325E+08         0.00000E+00
    0.00000E+00         0.00000E+00        -0.11053E+08
 
   -0.97280E+07        -0.79651E+06         0.00000E+00
   -0.79651E+06        -0.16338E+08         0.00000E+00
    0.00000E+00         0.00000E+00        -0.11082E+08
 
   -0.98279E+07        -0.89716E+06         0.00000E+00
   -0.89716E+06        -0.16355E+08         0.00000E+00
    0.00000E+00         0.00000E+00        -0.11109E+08
 
   -0.99241E+07        -0.86533E+06         0.00000E+00
   -0.86533E+06        -0.16370E+08         0.00000E+00
    0.00000E+00         0.00000E+00        -0.11134E+08
 
   -0.10022E+08        -0.69777E+06         0.00000E+00
   -0.69777E+06        -0.16380E+08         0.00000E+00
    0.00000E+00         0.00000E+00        -0.11157E+08
 
   -0.10127E+08        -0.39224E+06         0.00000E+00
   -0.39224E+06        -0.16381E+08         0.00000E+00
    0.00000E+00         0.00000E+00        -0.11180E+08
 
   -0.10241E+08         0.52441E+05         0.00000E+00
    0.52441E+05        -0.16371E+08         0.00000E+00
    0.00000E+00         0.00000E+00        -0.11202E+08
 
   -0.10368E+08         0.63625E+06         0.00000E+00
    0.63625E+06        -0.16350E+08         0.00000E+00
    0.00000E+00         0.00000E+00        -0.11223E+08
 
   -0.10505E+08         0.13577E+07         0.00000E+00
    0.13577E+07        -0.16317E+08         0.00000E+00
    0.00000E+00         0.00000E+00        -0.11243E+08
 
   -0.10652E+08         0.22137E+07         0.00000E+00
    0.22137E+07        -0.16273E+08         0.00000E+00
    0.00000E+00         0.00000E+00        -0.11263E+08
 
   -0.10805E+08         0.31991E+07         0.00000E+00
    0.31991E+07        -0.16220E+08         0.00000E+00
    0.00000E+00         0.00000E+00        -0.11283E+08
 
   -0.10962E+08         0.43067E+07         0.00000E+00
    0.43067E+07        -0.16161E+08         0.00000E+00
    0.00000E+00         0.00000E+00        -0.11301E+08
 
   -0.11117E+08         0.55274E+07         0.00000E+00
    0.55274E+07        -0.16097E+08         0.00000E+00
    0.00000E+00         0.00000E+00        -0.11318E+08
 
   -0.11268E+08         0.68498E+07         0.00000E+00
    0.68498E+07        -0.16033E+08         0.00000E+00
    0.00000E+00         0.00000E+00        -0.11334E+08
 
   -0.11928E+08        -0.22303E+06         0.00000E+00
   -0.22303E+06        -0.18338E+08         0.00000E+00
    0.00000E+00         0.00000E+00        -0.11918E+08
 
   -0.11932E+08        -0.58283E+06         0.00000E+00
   -0.58283E+06        -0.18351E+08         0.00000E+00
    0.00000E+00         0.00000E+00        -0.11926E+08
 
   -0.11914E+08        -0.81805E+06         0.00000E+00
   -0.81805E+06        -0.18375E+08         0.00000E+00
    0.00000E+00         0.00000E+00        -0.11931E+08
 
   -0.11882E+08        -0.92126E+06         0.00000E+00
   -0.92126E+06        -0.18405E+08         0.00000E+00
    0.00000E+00         0.00000E+00        -0.11933E+08
 
   -0.11841E+08        -0.88775E+06         0.00000E+00
   -0.88775E+06        -0.18438E+08         0.00000E+00
    0.00000E+00         0.00000E+00        -0.11934E+08
 
   -0.11801E+08        -0.71476E+06         0.00000E+00
   -0.71476E+06        -0.18468E+08         0.00000E+00
    0.00000E+00         0.00000E+00        -0.11933E+08
 
   -0.11766E+08        -0.40100E+06         0.00000E+00
   -0.40100E+06        -0.18494E+08         0.00000E+00
    0.00000E+00         0.00000E+00        -0.11932E+08
 
   -0.11741E+08         0.53552E+05         0.00000E+00
    0.53552E+05        -0.18511E+08         0.00000E+00
    0.00000E+00         0.00000E+00        -0.11931E+08
 
   -0.11728E+08         0.64775E+06         0.00000E+00
    0.64775E+06        -0.18521E+08         0.00000E+00
    0.00000E+00         0.00000E+00        -0.11931E+08
 
   -0.11730E+08         0.13791E+07         0.00000E+00
    0.13791E+07        -0.18521E+08         0.00000E+00
    0.00000E+00         0.00000E+00        -0.11931E+08
 
   -0.11745E+08         0.22438E+07         0.00000E+00
    0.22438E+07        -0.18513E+08         0.00000E+00
    0.00000E+00         0.00000E+00        -0.11932E+08
 
   -0.11773E+08         0.32362E+07         0.00000E+00
    0.32362E+07        -0.18499E+08         0.00000E+00
    0.00000E+00         0.00000E+00        -0.11934E+08
 
   -0.11813E+08         0.43489E+07         0.00000E+00
    0.43489E+07        -0.18479E+08         0.00000E+00
    0.00000E+00         0.00000E+00        -0.11937E+08
 
   -0.11862E+08         0.55725E+07         0.00000E+00
    0.55725E+07        -0.18455E+08         0.00000E+00
    0.00000E+00         0.00000E+00        -0.11941E+08
 
   -0.11918E+08         0.68957E+07         0.00000E+00
    0.68957E+07        -0.18428E+08         0.00000E+00
    0.00000E+00         0.00000E+00        -0.11945E+08
 
   -0.14372E+08        -0.23203E+06         0.00000E+00
   -0.23203E+06        -0.20358E+08         0.00000E+00
    0.00000E+00         0.00000E+00        -0.12817E+08
 
   -0.14255E+08        -0.60702E+06         0.00000E+00
   -0.60702E+06        -0.20378E+08         0.00000E+00
    0.00000E+00         0.00000E+00        -0.12801E+08
 
   -0.14106E+08        -0.85294E+06         0.00000E+00
   -0.85294E+06        -0.20414E+08         0.00000E+00
    0.00000E+00         0.00000E+00        -0.12782E+08
 
   -0.13937E+08        -0.96201E+06         0.00000E+00
   -0.96201E+06        -0.20460E+08         0.00000E+00
    0.00000E+00         0.00000E+00        -0.12759E+08
 
   -0.13756E+08        -0.92981E+06         0.00000E+00
   -0.92981E+06        -0.20511E+08         0.00000E+00
    0.00000E+00         0.00000E+00        -0.12735E+08
 
   -0.13574E+08        -0.75436E+06         0.00000E+00
   -0.75436E+06        -0.20563E+08         0.00000E+00
    0.00000E+00         0.00000E+00        -0.12710E+08
 
   -0.13397E+08        -0.43542E+06         0.00000E+00
   -0.43542E+06        -0.20612E+08         0.00000E+00
    0.00000E+00         0.00000E+00        -0.12685E+08
 
   -0.13231E+08         0.25912E+05         0.00000E+00
    0.25912E+05        -0.20657E+08         0.00000E+00
    0.00000E+00         0.00000E+00        -0.12661E+08
 
   -0.13080E+08         0.62747E+06         0.00000E+00
    0.62747E+06        -0.20696E+08         0.00000E+00
    0.00000E+00         0.00000E+00        -0.12638E+08
 
   -0.12946E+08         0.13660E+07         0.00000E+00
    0.13660E+07        -0.20729E+08         0.00000E+00
    0.00000E+00         0.00000E+00        -0.12617E+08
 
   -0.12831E+08         0.22372E+07         0.00000E+00
    0.22372E+07        -0.20756E+08         0.00000E+00
    0.00000E+00         0.00000E+00        -0.12599E+08
 
   -0.12736E+08         0.32350E+07         0.00000E+00
    0.32350E+07        -0.20778E+08         0.00000E+00
    0.00000E+00         0.00000E+00        -0.12584E+08
 
   -0.12660E+08         0.43522E+07         0.00000E+00
    0.43522E+07        -0.20796E+08         0.00000E+00
    0.00000E+00         0.00000E+00        -0.12572E+08
 
   -0.12604E+08         0.55793E+07         0.00000E+00
    0.55793E+07        -0.20811E+08         0.00000E+00
    0.00000E+00         0.00000E+00        -0.12563E+08
 
   -0.12568E+08         0.69048E+07         0.00000E+00
    0.69048E+07        -0.20821E+08         0.00000E+00
    0.00000E+00         0.00000E+00        -0.12557E+08
 
   -0.16838E+08        -0.24505E+06         0.00000E+00
   -0.24505E+06        -0.22378E+08         0.00000E+00
    0.00000E+00         0.00000E+00        -0.13720E+08
 
   -0.16594E+08        -0.64134E+06         0.00000E+00
   -0.64134E+06        -0.22405E+08         0.00000E+00
    0.00000E+00         0.00000E+00        -0.13680E+08
 
   -0.16309E+08        -0.90218E+06         0.00000E+00
   -0.90218E+06        -0.22453E+08         0.00000E+00
    0.00000E+00         0.00000E+00        -0.13635E+08
 
   -0.15997E+08        -0.10202E+07         0.00000E+00
   -0.10202E+07        -0.22516E+08         0.00000E+00
    0.00000E+00         0.00000E+00        -0.13587E+08
 
   -0.15672E+08        -0.99180E+06         0.00000E+00
   -0.99180E+06        -0.22585E+08         0.00000E+00
    0.00000E+00         0.00000E+00        -0.13536E+08
 
   -0.15344E+08        -0.81626E+06         0.00000E+00
   -0.81626E+06        -0.22658E+08         0.00000E+00
    0.00000E+00         0.00000E+00        -0.13486E+08
 
   -0.15023E+08        -0.49464E+06         0.00000E+00
   -0.49464E+06        -0.22730E+08         0.00000E+00
    0.00000E+00         0.00000E+00        -0.13436E+08
 
   -0.14715E+08        -0.29190E+05         0.00000E+00
   -0.29190E+05        -0.22799E+08         0.00000E+00
    0.00000E+00         0.00000E+00        -0.13388E+08
 
   -0.14425E+08         0.57696E+06         0.00000E+00
    0.57696E+06        -0.22866E+08         0.00000E+00
    0.00000E+00         0.00000E+00        -0.13343E+08
 
   -0.14157E+08         0.13200E+07         0.00000E+00
    0.13200E+07        -0.22930E+08         0.00000E+00
    0.00000E+00         0.00000E+00        -0.13301E+08
 
   -0.13912E+08         0.21952E+07         0.00000E+00
    0.21952E+07        -0.22990E+08         0.00000E+00
    0.00000E+00         0.00000E+00        -0.13264E+08
 
   -0.13694E+08         0.31968E+07         0.00000E+00
    0.31968E+07        -0.23048E+08         0.00000E+00
    0.00000E+00         0.00000E+00        -0.13231E+08
 
   -0.13503E+08         0.43176E+07         0.00000E+00
    0.43176E+07        -0.23103E+08         0.00000E+00
    0.00000E+00         0.00000E+00        -0.13204E+08
 
   -0.13343E+08         0.55483E+07         0.00000E+00
    0.55483E+07        -0.23155E+08         0.00000E+00
    0.00000E+00         0.00000E+00        -0.13182E+08
 
   -0.13215E+08         0.68777E+07         0.00000E+00
    0.68777E+07        -0.23202E+08         0.00000E+00
    0.00000E+00         0.00000E+00        -0.13165E+08
 
   -0.19331E+08        -0.26223E+06         0.00000E+00
   -0.26223E+06        -0.24397E+08         0.00000E+00
    0.00000E+00         0.00000E+00        -0.14630E+08
 
   -0.18953E+08        -0.68602E+06         0.00000E+00
   -0.68602E+06        -0.24432E+08         0.00000E+00
    0.00000E+00         0.00000E+00        -0.14563E+08
 
   -0.18524E+08        -0.96573E+06         0.00000E+00
   -0.96573E+06        -0.24493E+08         0.00000E+00
    0.00000E+00         0.00000E+00        -0.14491E+08
 
   -0.18064E+08        -0.10952E+07         0.00000E+00
   -0.10952E+07        -0.24570E+08         0.00000E+00
    0.00000E+00         0.00000E+00        -0.14415E+08
 
   -0.17589E+08        -0.10726E+07         0.00000E+00
   -0.10726E+07        -0.24656E+08         0.00000E+00
    0.00000E+00         0.00000E+00        -0.14338E+08
 
   -0.17113E+08        -0.89871E+06         0.00000E+00
   -0.89871E+06        -0.24747E+08         0.00000E+00
    0.00000E+00         0.00000E+00        -0.14261E+08
 
   -0.16646E+08        -0.57638E+06         0.00000E+00
   -0.57638E+06        -0.24839E+08         0.00000E+00
    0.00000E+00         0.00000E+00        -0.14185E+08
 
   -0.16196E+08        -0.10922E+06         0.00000E+00
   -0.10922E+06        -0.24931E+08         0.00000E+00
    0.00000E+00         0.00000E+00        -0.14113E+08
 
   -0.15767E+08         0.49874E+06         0.00000E+00
    0.49874E+06        -0.25022E+08         0.00000E+00
    0.00000E+00         0.00000E+00        -0.14044E+08
 
   -0.15364E+08         0.12433E+07         0.00000E+00
    0.12433E+07        -0.25113E+08         0.00000E+00
    0.00000E+00         0.00000E+00        -0.13981E+08
 
   -0.14990E+08         0.21197E+07         0.00000E+00
    0.21197E+07        -0.25205E+08         0.00000E+00
    0.00000E+00         0.00000E+00        -0.13924E+08
 
   -0.14649E+08         0.31228E+07         0.00000E+00
    0.31228E+07        -0.25297E+08         0.00000E+00
    0.00000E+00         0.00000E+00        -0.13874E+08
 
   -0.14343E+08         0.42457E+07         0.00000E+00
    0.42457E+07        -0.25388E+08         0.00000E+00
    0.00000E+00         0.00000E+00        -0.13831E+08
 
   -0.14078E+08         0.54800E+07         0.00000E+00
    0.54800E+07        -0.25476E+08         0.00000E+00
    0.00000E+00         0.00000E+00        -0.13796E+08
 
   -0.13856E+08         0.68144E+07         0.00000E+00
    0.68144E+07        -0.25561E+08         0.00000E+00
    0.00000E+00         0.00000E+00        -0.13769E+08
 
   -0.21860E+08        -0.28351E+06         0.00000E+00
   -0.28351E+06        -0.26417E+08         0.00000E+00
    0.00000E+00         0.00000E+00        -0.15547E+08
 
   -0.21337E+08        -0.74059E+06         0.00000E+00
   -0.74059E+06        -0.26458E+08         0.00000E+00
    0.00000E+00         0.00000E+00        -0.15452E+08
 
   -0.20755E+08        -0.10425E+07         0.00000E+00
   -0.10425E+07        -0.26530E+08         0.00000E+00
    0.00000E+00         0.00000E+00        -0.15350E+08
 
   -0.20140E+08        -0.11853E+07         0.00000E+00
   -0.11853E+07        -0.26620E+08         0.00000E+00
    0.00000E+00         0.00000E+00        -0.15245E+08
 
   -0.19511E+08        -0.11694E+07         0.00000E+00
   -0.11694E+07        -0.26720E+08         0.00000E+00
    0.00000E+00         0.00000E+00        -0.15139E+08
 
   -0.18883E+08        -0.99829E+06         0.00000E+00
   -0.99829E+06        -0.26826E+08         0.00000E+00
    0.00000E+00         0.00000E+00        -0.15034E+08
 
   -0.18269E+08        -0.67682E+06         0.00000E+00
   -0.67682E+06        -0.26933E+08         0.00000E+00
    0.00000E+00         0.00000E+00        -0.14931E+08
 
   -0.17676E+08        -0.21023E+06         0.00000E+00
   -0.21023E+06        -0.27042E+08         0.00000E+00
    0.00000E+00         0.00000E+00        -0.14833E+08
 
   -0.17109E+08         0.39653E+06         0.00000E+00
    0.39653E+06        -0.27154E+08         0.00000E+00
    0.00000E+00         0.00000E+00        -0.14741E+08
 
   -0.16572E+08         0.11390E+07         0.00000E+00
    0.11390E+07        -0.27268E+08         0.00000E+00
    0.00000E+00         0.00000E+00        -0.14656E+08
 
   -0.16069E+08         0.20131E+07         0.00000E+00
    0.20131E+07        -0.27388E+08         0.00000E+00
    0.00000E+00         0.00000E+00        -0.14578E+08
 
   -0.15603E+08         0.30143E+07         0.00000E+00
    0.30143E+07        -0.27511E+08         0.00000E+00
    0.00000E+00         0.00000E+00        -0.14510E+08
 
   -0.15181E+08         0.41372E+07         0.00000E+00
    0.41372E+07        -0.27637E+08         0.00000E+00
    0.00000E+00         0.00000E+00        -0.14451E+08
 
   -0.14808E+08         0.53741E+07         0.00000E+00
    0.53741E+07        -0.27763E+08         0.00000E+00
    0.00000E+00         0.00000E+00        -0.14402E+08
 
   -0.14491E+08         0.67145E+07         0.00000E+00
    0.67145E+07        -0.27885E+08         0.00000E+00
    0.00000E+00         0.00000E+00        -0.14364E+08
 
   -0.24432E+08        -0.30862E+06         0.00000E+00
   -0.30862E+06        -0.28436E+08         0.00000E+00
    0.00000E+00         0.00000E+00        -0.16473E+08
 
   -0.23750E+08        -0.80402E+06         0.00000E+00
   -0.80402E+06        -0.28484E+08         0.00000E+00
    0.00000E+00         0.00000E+00        -0.16346E+08
 
   -0.23005E+08        -0.11304E+07         0.00000E+00
   -0.11304E+07        -0.28564E+08         0.00000E+00
    0.00000E+00         0.00000E+00        -0.16213E+08
 
   -0.22226E+08        -0.12871E+07         0.00000E+00
   -0.12871E+07        -0.28664E+08         0.00000E+00
    0.00000E+00         0.00000E+00        -0.16076E+08
 
   -0.21437E+08        -0.12779E+07         0.00000E+00
   -0.12779E+07        -0.28773E+08         0.00000E+00
    0.00000E+00         0.00000E+00        -0.15939E+08
 
   -0.20655E+08        -0.11098E+07         0.00000E+00
   -0.11098E+07        -0.28887E+08         0.00000E+00
    0.00000E+00         0.00000E+00        -0.15804E+08
 
   -0.19893E+08        -0.79030E+06         0.00000E+00
   -0.79030E+06        -0.29004E+08         0.00000E+00
    0.00000E+00         0.00000E+00        -0.15673E+08
 
   -0.19158E+08        -0.32664E+06         0.00000E+00
   -0.32664E+06        -0.29123E+08         0.00000E+00
    0.00000E+00         0.00000E+00        -0.15548E+08
 
   -0.18455E+08         0.27536E+06         0.00000E+00
    0.27536E+06        -0.29249E+08         0.00000E+00
    0.00000E+00         0.00000E+00        -0.15431E+08
 
   -0.17785E+08         0.10114E+07         0.00000E+00
    0.10114E+07        -0.29382E+08         0.00000E+00
    0.00000E+00         0.00000E+00        -0.15323E+08
 
   -0.17152E+08         0.18782E+07         0.00000E+00
    0.18782E+07        -0.29525E+08         0.00000E+00
    0.00000E+00         0.00000E+00        -0.15224E+08
 
   -0.16561E+08         0.28730E+07         0.00000E+00
    0.28730E+07        -0.29678E+08         0.00000E+00
    0.00000E+00         0.00000E+00        -0.15137E+08
 
   -0.16019E+08         0.39922E+07         0.00000E+00
    0.39922E+07        -0.29839E+08         0.00000E+00
    0.00000E+00         0.00000E+00        -0.15061E+08
 
   -0.15534E+08         0.52299E+07         0.00000E+00
    0.52299E+07        -0.30003E+08         0.00000E+00
    0.00000E+00         0.00000E+00        -0.14999E+08
 
   -0.15118E+08         0.65767E+07         0.00000E+00
    0.65767E+07        -0.30164E+08         0.00000E+00
    0.00000E+00         0.00000E+00        -0.14949E+08
 
   -0.27053E+08        -0.33711E+06         0.00000E+00
   -0.33711E+06        -0.30455E+08         0.00000E+00
    0.00000E+00         0.00000E+00        -0.17409E+08
 
   -0.26196E+08        -0.87460E+06         0.00000E+00
   -0.87460E+06        -0.30507E+08         0.00000E+00
    0.00000E+00         0.00000E+00        -0.17247E+08
 
   -0.25273E+08        -0.12262E+07         0.00000E+00
   -0.12262E+07        -0.30594E+08         0.00000E+00
    0.00000E+00         0.00000E+00        -0.17078E+08
 
   -0.24321E+08        -0.13955E+07         0.00000E+00
   -0.13955E+07        -0.30698E+08         0.00000E+00
    0.00000E+00         0.00000E+00        -0.16907E+08
 
   -0.23366E+08        -0.13916E+07         0.00000E+00
   -0.13916E+07        -0.30810E+08         0.00000E+00
    0.00000E+00         0.00000E+00        -0.16736E+08
 
   -0.22429E+08        -0.12258E+07         0.00000E+00
   -0.12258E+07        -0.30924E+08         0.00000E+00
    0.00000E+00         0.00000E+00        -0.16569E+08
 
   -0.21521E+08        -0.90914E+06         0.00000E+00
   -0.90914E+06        -0.31041E+08         0.00000E+00
    0.00000E+00         0.00000E+00        -0.16408E+08
 
   -0.20646E+08        -0.45108E+06         0.00000E+00
   -0.45108E+06        -0.31163E+08         0.00000E+00
    0.00000E+00         0.00000E+00        -0.16256E+08
 
   -0.19808E+08         0.14176E+06         0.00000E+00
    0.14176E+06        -0.31295E+08         0.00000E+00
    0.00000E+00         0.00000E+00        -0.16113E+08
 
   -0.19007E+08         0.86547E+06         0.00000E+00
    0.86547E+06        -0.31440E+08         0.00000E+00
    0.00000E+00         0.00000E+00        -0.15981E+08
 
   -0.18245E+08         0.17185E+07         0.00000E+00
    0.17185E+07        -0.31602E+08         0.00000E+00
    0.00000E+00         0.00000E+00        -0.15861E+08
 
   -0.17527E+08         0.27003E+07         0.00000E+00
    0.27003E+07        -0.31782E+08         0.00000E+00
    0.00000E+00         0.00000E+00        -0.15754E+08
 
   -0.16860E+08         0.38104E+07         0.00000E+00
    0.38104E+07        -0.31976E+08         0.00000E+00
    0.00000E+00         0.00000E+00        -0.15660E+08
 
   -0.16257E+08         0.50455E+07         0.00000E+00
    0.50455E+07        -0.32180E+08         0.00000E+00
    0.00000E+00         0.00000E+00        -0.15582E+08
 
   -0.15734E+08         0.63986E+07         0.00000E+00
    0.63986E+07        -0.32383E+08         0.00000E+00
    0.00000E+00         0.00000E+00        -0.15521E+08
 
   -0.29728E+08        -0.36837E+06         0.00000E+00
   -0.36837E+06        -0.32474E+08         0.00000E+00
    0.00000E+00         0.00000E+00        -0.18356E+08
 
   -0.28675E+08        -0.94992E+06         0.00000E+00
   -0.94992E+06        -0.32529E+08         0.00000E+00
    0.00000E+00         0.00000E+00        -0.18154E+08
 
   -0.27558E+08        -0.13250E+07         0.00000E+00
   -0.13250E+07        -0.32617E+08         0.00000E+00
    0.00000E+00         0.00000E+00        -0.17946E+08
 
   -0.26422E+08        -0.15037E+07         0.00000E+00
   -0.15037E+07        -0.32720E+08         0.00000E+00
    0.00000E+00         0.00000E+00        -0.17736E+08
 
   -0.25298E+08        -0.15018E+07         0.00000E+00
   -0.15018E+07        -0.32825E+08         0.00000E+00
    0.00000E+00         0.00000E+00        -0.17529E+08
 
   -0.24206E+08        -0.13366E+07         0.00000E+00
   -0.13366E+07        -0.32929E+08         0.00000E+00
    0.00000E+00         0.00000E+00        -0.17329E+08
 
   -0.23153E+08        -0.10234E+07         0.00000E+00
   -0.10234E+07        -0.33035E+08         0.00000E+00
    0.00000E+00         0.00000E+00        -0.17136E+08
 
   -0.22144E+08        -0.57414E+06         0.00000E+00
   -0.57414E+06        -0.33148E+08         0.00000E+00
    0.00000E+00         0.00000E+00        -0.16955E+08
 
   -0.21176E+08         0.38492E+04         0.00000E+00
    0.38492E+04        -0.33276E+08         0.00000E+00
    0.00000E+00         0.00000E+00        -0.16785E+08
 
   -0.20247E+08         0.70762E+06         0.00000E+00
    0.70762E+06        -0.33425E+08         0.00000E+00
    0.00000E+00         0.00000E+00        -0.16628E+08
 
   -0.19357E+08         0.15379E+07         0.00000E+00
    0.15379E+07        -0.33601E+08         0.00000E+00
    0.00000E+00         0.00000E+00        -0.16485E+08
 
   -0.18509E+08         0.24978E+07         0.00000E+00
    0.24978E+07        -0.33804E+08         0.00000E+00
    0.00000E+00         0.00000E+00        -0.16357E+08
 
   -0.17711E+08         0.35907E+07         0.00000E+00
    0.35907E+07        -0.34033E+08         0.00000E+00
    0.00000E+00         0.00000E+00        -0.16246E+08
 
   -0.16981E+08         0.48181E+07         0.00000E+00
    0.48181E+07        -0.34279E+08         0.00000E+00
    0.00000E+00         0.00000E+00        -0.16151E+08
 
   -0.16339E+08         0.61759E+07         0.00000E+00
    0.61759E+07        -0.34528E+08         0.00000E+00
    0.00000E+00         0.00000E+00        -0.16076E+08
 
   -0.32461E+08        -0.40164E+06         0.00000E+00
   -0.40164E+06        -0.34492E+08         0.00000E+00
    0.00000E+00         0.00000E+00        -0.19314E+08
 
   -0.31185E+08        -0.10268E+07         0.00000E+00
   -0.10268E+07        -0.34548E+08         0.00000E+00
    0.00000E+00         0.00000E+00        -0.19067E+08
 
   -0.29856E+08        -0.14205E+07         0.00000E+00
   -0.14205E+07        -0.34633E+08         0.00000E+00
    0.00000E+00         0.00000E+00        -0.18815E+08
 
   -0.28526E+08        -0.16023E+07         0.00000E+00
   -0.16023E+07        -0.34724E+08         0.00000E+00
    0.00000E+00         0.00000E+00        -0.18563E+08
 
   -0.27229E+08        -0.15970E+07         0.00000E+00
   -0.15970E+07        -0.34810E+08         0.00000E+00
    0.00000E+00         0.00000E+00        -0.18316E+08
 
   -0.25983E+08        -0.14296E+07         0.00000E+00
   -0.14296E+07        -0.34891E+08         0.00000E+00
    0.00000E+00         0.00000E+00        -0.18079E+08
 
   -0.24793E+08        -0.11206E+07         0.00000E+00
   -0.11206E+07        -0.34972E+08         0.00000E+00
    0.00000E+00         0.00000E+00        -0.17854E+08
 
   -0.23656E+08        -0.68439E+06         0.00000E+00
   -0.68439E+06        -0.35063E+08         0.00000E+00
    0.00000E+00         0.00000E+00        -0.17643E+08
 
   -0.22566E+08        -0.12858E+06         0.00000E+00
   -0.12858E+06        -0.35176E+08         0.00000E+00
    0.00000E+00         0.00000E+00        -0.17445E+08
 
   -0.21515E+08         0.54532E+06         0.00000E+00
    0.54532E+06        -0.35320E+08         0.00000E+00
    0.00000E+00         0.00000E+00        -0.17263E+08
 
   -0.20498E+08         0.13412E+07         0.00000E+00
    0.13412E+07        -0.35502E+08         0.00000E+00
    0.00000E+00         0.00000E+00        -0.17097E+08
 
   -0.19516E+08         0.22667E+07         0.00000E+00
    0.22667E+07        -0.35727E+08         0.00000E+00
    0.00000E+00         0.00000E+00        -0.16947E+08
 
   -0.18580E+08         0.33313E+07         0.00000E+00
    0.33313E+07        -0.35990E+08         0.00000E+00
    0.00000E+00         0.00000E+00        -0.16815E+08
 
   -0.17709E+08         0.45427E+07         0.00000E+00
    0.45427E+07        -0.36282E+08         0.00000E+00
    0.00000E+00         0.00000E+00        -0.16702E+08
 
   -0.16931E+08         0.59025E+07         0.00000E+00
    0.59025E+07        -0.36584E+08         0.00000E+00
    0.00000E+00         0.00000E+00        -0.16610E+08
 
   -0.35253E+08        -0.43598E+06         0.00000E+00
   -0.43598E+06        -0.36511E+08         0.00000E+00
    0.00000E+00         0.00000E+00        -0.20285E+08
 
   -0.33723E+08        -0.11007E+07         0.00000E+00
   -0.11007E+07        -0.36565E+08         0.00000E+00
    0.00000E+00         0.00000E+00        -0.19985E+08
 
   -0.32159E+08        -0.15039E+07         0.00000E+00
   -0.15039E+07        -0.36637E+08         0.00000E+00
    0.00000E+00         0.00000E+00        -0.19682E+08
 
   -0.30624E+08        -0.16784E+07         0.00000E+00
   -0.16784E+07        -0.36704E+08         0.00000E+00
    0.00000E+00         0.00000E+00        -0.19383E+08
 
   -0.29153E+08        -0.16622E+07         0.00000E+00
   -0.16622E+07        -0.36756E+08         0.00000E+00
    0.00000E+00         0.00000E+00        -0.19094E+08
 
   -0.27760E+08        -0.14894E+07         0.00000E+00
   -0.14894E+07        -0.36796E+08         0.00000E+00
    0.00000E+00         0.00000E+00        -0.18819E+08
 
   -0.26443E+08        -0.11861E+07         0.00000E+00
   -0.11861E+07        -0.36836E+08         0.00000E+00
    0.00000E+00         0.00000E+00        -0.18560E+08
 
   -0.25190E+08        -0.76857E+06         0.00000E+00
   -0.76857E+06        -0.36890E+08         0.00000E+00
    0.00000E+00         0.00000E+00        -0.18318E+08
 
   -0.23988E+08        -0.24431E+06         0.00000E+00
   -0.24431E+06        -0.36975E+08         0.00000E+00
    0.00000E+00         0.00000E+00        -0.18093E+08
 
   -0.22822E+08         0.38722E+06         0.00000E+00
    0.38722E+06        -0.37103E+08         0.00000E+00
    0.00000E+00         0.00000E+00        -0.17885E+08
 
   -0.21681E+08         0.11336E+07         0.00000E+00
    0.11336E+07        -0.37285E+08         0.00000E+00
    0.00000E+00         0.00000E+00        -0.17694E+08
 
   -0.20564E+08         0.20085E+07         0.00000E+00
    0.20085E+07        -0.37526E+08         0.00000E+00
    0.00000E+00         0.00000E+00        -0.17520E+08
 
   -0.19479E+08         0.30291E+07         0.00000E+00
    0.30291E+07        -0.37825E+08         0.00000E+00
    0.00000E+00         0.00000E+00        -0.17366E+08
 
   -0.18449E+08         0.42124E+07         0.00000E+00
    0.42124E+07        -0.38169E+08         0.00000E+00
    0.00000E+00         0.00000E+00        -0.17232E+08
 
   -0.17513E+08         0.55687E+07         0.00000E+00
    0.55687E+07        -0.38535E+08         0.00000E+00
    0.00000E+00         0.00000E+00        -0.17122E+08
 
   -0.38103E+08        -0.47022E+06         0.00000E+00
   -0.47022E+06        -0.38529E+08         0.00000E+00
    0.00000E+00         0.00000E+00        -0.21268E+08
 
   -0.36277E+08        -0.11655E+07         0.00000E+00
   -0.11655E+07        -0.38576E+08         0.00000E+00
    0.00000E+00         0.00000E+00        -0.20906E+08
 
   -0.34454E+08        -0.15626E+07         0.00000E+00
   -0.15626E+07        -0.38626E+08         0.00000E+00
    0.00000E+00         0.00000E+00        -0.20544E+08
 
   -0.32706E+08        -0.17150E+07         0.00000E+00
   -0.17150E+07        -0.38650E+08         0.00000E+00
    0.00000E+00         0.00000E+00        -0.20193E+08
 
   -0.31066E+08        -0.16783E+07         0.00000E+00
   -0.16783E+07        -0.38646E+08         0.00000E+00
    0.00000E+00         0.00000E+00        -0.19858E+08
 
   -0.29538E+08        -0.14975E+07         0.00000E+00
   -0.14975E+07        -0.38625E+08         0.00000E+00
    0.00000E+00         0.00000E+00        -0.19543E+08
 
   -0.28108E+08        -0.12031E+07         0.00000E+00
   -0.12031E+07        -0.38606E+08         0.00000E+00
    0.00000E+00         0.00000E+00        -0.19250E+08
 
   -0.26755E+08        -0.81231E+06         0.00000E+00
   -0.81231E+06        -0.38608E+08         0.00000E+00
    0.00000E+00         0.00000E+00        -0.18977E+08
 
   -0.25454E+08        -0.33128E+06         0.00000E+00
   -0.33128E+06        -0.38651E+08         0.00000E+00
    0.00000E+00         0.00000E+00        -0.18725E+08
 
   -0.24184E+08         0.24283E+06         0.00000E+00
    0.24283E+06        -0.38752E+08         0.00000E+00
    0.00000E+00         0.00000E+00        -0.18491E+08
 
   -0.22926E+08         0.92151E+06         0.00000E+00
    0.92151E+06        -0.38925E+08         0.00000E+00
    0.00000E+00         0.00000E+00        -0.18275E+08
 
   -0.21672E+08         0.17247E+07         0.00000E+00
    0.17247E+07        -0.39179E+08         0.00000E+00
    0.00000E+00         0.00000E+00        -0.18077E+08
 
   -0.20426E+08         0.26799E+07         0.00000E+00
    0.26799E+07        -0.39515E+08         0.00000E+00
    0.00000E+00         0.00000E+00        -0.17898E+08
 
   -0.19213E+08         0.38173E+07         0.00000E+00
    0.38173E+07        -0.39920E+08         0.00000E+00
    0.00000E+00         0.00000E+00        -0.17741E+08
 
   -0.18084E+08         0.51610E+07         0.00000E+00
    0.51610E+07        -0.40363E+08         0.00000E+00
    0.00000E+00         0.00000E+00        -0.17608E+08
 
   -0.41004E+08        -0.50274E+06         0.00000E+00
   -0.50274E+06        -0.40547E+08         0.00000E+00
    0.00000E+00         0.00000E+00        -0.22261E+08
 
   -0.38831E+08        -0.12113E+07         0.00000E+00
   -0.12113E+07        -0.40580E+08         0.00000E+00
    0.00000E+00         0.00000E+00        -0.21824E+08
 
   -0.36721E+08        -0.15774E+07         0.00000E+00
   -0.15774E+07        -0.40588E+08         0.00000E+00
    0.00000E+00         0.00000E+00        -0.21395E+08
 
   -0.34758E+08        -0.16881E+07         0.00000E+00
   -0.16881E+07        -0.40544E+08         0.00000E+00
    0.00000E+00         0.00000E+00        -0.20986E+08
 
   -0.32962E+08        -0.16220E+07         0.00000E+00
   -0.16220E+07        -0.40458E+08         0.00000E+00
    0.00000E+00         0.00000E+00        -0.20603E+08
 
   -0.31318E+08        -0.14337E+07         0.00000E+00
   -0.14337E+07        -0.40353E+08         0.00000E+00
    0.00000E+00         0.00000E+00        -0.20248E+08
 
   -0.29796E+08        -0.11551E+07         0.00000E+00
   -0.11551E+07        -0.40256E+08         0.00000E+00
    0.00000E+00         0.00000E+00        -0.19921E+08
 
   -0.28361E+08        -0.80184E+06         0.00000E+00
   -0.80184E+06        -0.40192E+08         0.00000E+00
    0.00000E+00         0.00000E+00        -0.19619E+08
 
   -0.26978E+08        -0.37786E+06         0.00000E+00
   -0.37786E+06        -0.40182E+08         0.00000E+00
    0.00000E+00         0.00000E+00        -0.19340E+08
 
   -0.25618E+08         0.12197E+06         0.00000E+00
    0.12197E+06        -0.40246E+08         0.00000E+00
    0.00000E+00         0.00000E+00        -0.19081E+08
 
   -0.24253E+08         0.71211E+06         0.00000E+00
    0.71211E+06        -0.40401E+08         0.00000E+00
    0.00000E+00         0.00000E+00        -0.18841E+08
 
   -0.22863E+08         0.14182E+07         0.00000E+00
    0.14182E+07        -0.40662E+08         0.00000E+00
    0.00000E+00         0.00000E+00        -0.18617E+08
 
   -0.21444E+08         0.22790E+07         0.00000E+00
    0.22790E+07        -0.41035E+08         0.00000E+00
    0.00000E+00         0.00000E+00        -0.18411E+08
 
   -0.20019E+08         0.33437E+07         0.00000E+00
    0.33437E+07        -0.41510E+08         0.00000E+00
    0.00000E+00         0.00000E+00        -0.18225E+08
 
   -0.18651E+08         0.46596E+07         0.00000E+00
    0.46596E+07        -0.42050E+08         0.00000E+00
    0.00000E+00         0.00000E+00        -0.18065E+08
 
   -0.43944E+08        -0.53088E+06         0.00000E+00
   -0.53088E+06        -0.42564E+08         0.00000E+00
    0.00000E+00         0.00000E+00        -0.23262E+08
 
   -0.41353E+08        -0.12203E+07         0.00000E+00
   -0.12203E+07        -0.42568E+08         0.00000E+00
    0.00000E+00         0.00000E+00        -0.22733E+08
 
   -0.38934E+08        -0.15180E+07         0.00000E+00
   -0.15180E+07        -0.42502E+08         0.00000E+00
    0.00000E+00         0.00000E+00        -0.22225E+08
 
   -0.36766E+08        -0.15656E+07         0.00000E+00
   -0.15656E+07        -0.42352E+08         0.00000E+00
    0.00000E+00         0.00000E+00        -0.21753E+08
 
   -0.34840E+08        -0.14668E+07         0.00000E+00
   -0.14668E+07        -0.42151E+08         0.00000E+00
    0.00000E+00         0.00000E+00        -0.21321E+08
 
   -0.33108E+08        -0.12787E+07         0.00000E+00
   -0.12787E+07        -0.41941E+08         0.00000E+00
    0.00000E+00         0.00000E+00        -0.20928E+08
 
   -0.31518E+08        -0.10284E+07         0.00000E+00
   -0.10284E+07        -0.41753E+08         0.00000E+00
    0.00000E+00         0.00000E+00        -0.20569E+08
 
   -0.30022E+08        -0.72674E+06         0.00000E+00
   -0.72674E+06        -0.41613E+08         0.00000E+00
    0.00000E+00         0.00000E+00        -0.20241E+08
 
   -0.28577E+08        -0.37497E+06         0.00000E+00
   -0.37497E+06        -0.41544E+08         0.00000E+00
    0.00000E+00         0.00000E+00        -0.19938E+08
 
   -0.27144E+08         0.33580E+05         0.00000E+00
    0.33580E+05        -0.41564E+08         0.00000E+00
    0.00000E+00         0.00000E+00        -0.19656E+08
 
   -0.25686E+08         0.51415E+06         0.00000E+00
    0.51415E+06        -0.41693E+08         0.00000E+00
    0.00000E+00         0.00000E+00        -0.19392E+08
 
   -0.24168E+08         0.10945E+07         0.00000E+00
    0.10945E+07        -0.41951E+08         0.00000E+00
    0.00000E+00         0.00000E+00        -0.19143E+08
 
   -0.22568E+08         0.18232E+07         0.00000E+00
    0.18232E+07        -0.42357E+08         0.00000E+00
    0.00000E+00         0.00000E+00        -0.18907E+08
 
   -0.20896E+08         0.27745E+07         0.00000E+00
    0.27745E+07        -0.42911E+08         0.00000E+00
    0.00000E+00         0.00000E+00        -0.18687E+08
 
   -0.19222E+08         0.40352E+07         0.00000E+00
    0.40352E+07        -0.43577E+08         0.00000E+00
    0.00000E+00         0.00000E+00        -0.18491E+08
 
   -0.46895E+08        -0.54833E+06         0.00000E+00
   -0.54833E+06        -0.44576E+08         0.00000E+00
    0.00000E+00         0.00000E+00        -0.24264E+08
 
   -0.43794E+08        -0.11559E+07         0.00000E+00
   -0.11559E+07        -0.44520E+08         0.00000E+00
    0.00000E+00         0.00000E+00        -0.23618E+08
 
   -0.41059E+08        -0.13339E+07         0.00000E+00
   -0.13339E+07        -0.44319E+08         0.00000E+00
    0.00000E+00         0.00000E+00        -0.23018E+08
 
   -0.38727E+08        -0.13077E+07         0.00000E+00
   -0.13077E+07        -0.44010E+08         0.00000E+00
    0.00000E+00         0.00000E+00        -0.22481E+08
 
   -0.36711E+08        -0.11893E+07         0.00000E+00
   -0.11893E+07        -0.43668E+08         0.00000E+00
    0.00000E+00         0.00000E+00        -0.22003E+08
 
   -0.34923E+08        -0.10204E+07         0.00000E+00
   -0.10204E+07        -0.43341E+08         0.00000E+00
    0.00000E+00         0.00000E+00        -0.21576E+08
 
   -0.33289E+08        -0.81684E+06         0.00000E+00
   -0.81684E+06        -0.43059E+08         0.00000E+00
    0.00000E+00         0.00000E+00        -0.21191E+08
 
   -0.31754E+08        -0.58353E+06         0.00000E+00
   -0.58353E+06        -0.42845E+08         0.00000E+00
    0.00000E+00         0.00000E+00        -0.20840E+08
 
   -0.30266E+08        -0.31895E+06         0.00000E+00
   -0.31895E+06        -0.42717E+08         0.00000E+00
    0.00000E+00         0.00000E+00        -0.20517E+08
 
   -0.28780E+08        -0.16530E+05         0.00000E+00
   -0.16530E+05        -0.42691E+08         0.00000E+00
    0.00000E+00         0.00000E+00        -0.20216E+08
 
   -0.27249E+08         0.33683E+06         0.00000E+00
    0.33683E+06        -0.42788E+08         0.00000E+00
    0.00000E+00         0.00000E+00        -0.19931E+08
 
   -0.25623E+08         0.76547E+06         0.00000E+00
    0.76547E+06        -0.43032E+08         0.00000E+00
    0.00000E+00         0.00000E+00        -0.19657E+08
 
   -0.23848E+08         0.13166E+07         0.00000E+00
    0.13166E+07        -0.43456E+08         0.00000E+00
    0.00000E+00         0.00000E+00        -0.19390E+08
 
   -0.21892E+08         0.20904E+07         0.00000E+00
    0.20904E+07        -0.44094E+08         0.00000E+00
    0.00000E+00         0.00000E+00        -0.19130E+08
 
   -0.19818E+08         0.32440E+07         0.00000E+00
    0.32440E+07        -0.44921E+08         0.00000E+00
    0.00000E+00         0.00000E+00        -0.18885E+08
 
   -0.49792E+08        -0.53263E+06         0.00000E+00
   -0.53263E+06        -0.46572E+08         0.00000E+00
    0.00000E+00         0.00000E+00        -0.25250E+08
 
   -0.46071E+08        -0.92973E+06         0.00000E+00
   -0.92973E+06        -0.46356E+08         0.00000E+00
    0.00000E+00         0.00000E+00        -0.24446E+08
 
   -0.43085E+08        -0.95362E+06         0.00000E+00
   -0.95362E+06        -0.45913E+08         0.00000E+00
    0.00000E+00         0.00000E+00        -0.23747E+08
 
   -0.40661E+08        -0.88536E+06         0.00000E+00
   -0.88536E+06        -0.45412E+08         0.00000E+00
    0.00000E+00         0.00000E+00        -0.23154E+08
 
   -0.38601E+08        -0.78298E+06         0.00000E+00
   -0.78298E+06        -0.44928E+08         0.00000E+00
    0.00000E+00         0.00000E+00        -0.22639E+08
 
   -0.36784E+08        -0.66217E+06         0.00000E+00
   -0.66217E+06        -0.44496E+08         0.00000E+00
    0.00000E+00         0.00000E+00        -0.22186E+08
 
   -0.35129E+08        -0.52745E+06         0.00000E+00
   -0.52745E+06        -0.44135E+08         0.00000E+00
    0.00000E+00         0.00000E+00        -0.21781E+08
 
   -0.33571E+08        -0.37899E+06         0.00000E+00
   -0.37899E+06        -0.43860E+08         0.00000E+00
    0.00000E+00         0.00000E+00        -0.21414E+08
 
   -0.32057E+08        -0.21442E+06         0.00000E+00
   -0.21442E+06        -0.43683E+08         0.00000E+00
    0.00000E+00         0.00000E+00        -0.21076E+08
 
   -0.30537E+08        -0.28927E+05         0.00000E+00
   -0.28927E+05        -0.43619E+08         0.00000E+00
    0.00000E+00         0.00000E+00        -0.20761E+08
 
   -0.28957E+08         0.18607E+06         0.00000E+00
    0.18607E+06        -0.43686E+08         0.00000E+00
    0.00000E+00         0.00000E+00        -0.20461E+08
 
   -0.27255E+08         0.44640E+06         0.00000E+00
    0.44640E+06        -0.43909E+08         0.00000E+00
    0.00000E+00         0.00000E+00        -0.20167E+08
 
   -0.25345E+08         0.78448E+06         0.00000E+00
    0.78448E+06        -0.44327E+08         0.00000E+00
    0.00000E+00         0.00000E+00        -0.19872E+08
 
   -0.23100E+08         0.12822E+07         0.00000E+00
    0.12822E+07        -0.45010E+08         0.00000E+00
    0.00000E+00         0.00000E+00        -0.19563E+08
 
   -0.20487E+08         0.22109E+07         0.00000E+00
    0.22109E+07        -0.46052E+08         0.00000E+00
    0.00000E+00         0.00000E+00        -0.19253E+08
 
   -0.52447E+08        -0.33579E+06         0.00000E+00
   -0.33579E+06        -0.48374E+08         0.00000E+00
    0.00000E+00         0.00000E+00        -0.26151E+08
 
   -0.48131E+08        -0.38442E+06         0.00000E+00
   -0.38442E+06        -0.47759E+08         0.00000E+00
    0.00000E+00         0.00000E+00        -0.25145E+08
 
   -0.45068E+08        -0.35244E+06         0.00000E+00
   -0.35244E+06        -0.47071E+08         0.00000E+00
    0.00000E+00         0.00000E+00        -0.24383E+08
 
   -0.42616E+08        -0.31549E+06         0.00000E+00
   -0.31549E+06        -0.46425E+08         0.00000E+00
    0.00000E+00         0.00000E+00        -0.23755E+08
 
   -0.40543E+08        -0.27418E+06         0.00000E+00
   -0.27418E+06        -0.45848E+08         0.00000E+00
    0.00000E+00         0.00000E+00        -0.23220E+08
 
   -0.38718E+08        -0.22989E+06         0.00000E+00
   -0.22989E+06        -0.45352E+08         0.00000E+00
    0.00000E+00         0.00000E+00        -0.22753E+08
 
   -0.37054E+08        -0.18254E+06         0.00000E+00
   -0.18254E+06        -0.44946E+08         0.00000E+00
    0.00000E+00         0.00000E+00        -0.22337E+08
 
   -0.35486E+08        -0.13148E+06         0.00000E+00
   -0.13148E+06        -0.44636E+08         0.00000E+00
    0.00000E+00         0.00000E+00        -0.21962E+08
 
   -0.33960E+08        -0.75598E+05         0.00000E+00
   -0.75598E+05        -0.44432E+08         0.00000E+00
    0.00000E+00         0.00000E+00        -0.21617E+08
 
   -0.32424E+08        -0.13131E+05         0.00000E+00
   -0.13131E+05        -0.44346E+08         0.00000E+00
    0.00000E+00         0.00000E+00        -0.21294E+08
 
   -0.30820E+08         0.58860E+05         0.00000E+00
    0.58860E+05        -0.44394E+08         0.00000E+00
    0.00000E+00         0.00000E+00        -0.20985E+08
 
   -0.29079E+08         0.14564E+06         0.00000E+00
    0.14564E+06        -0.44600E+08         0.00000E+00
    0.00000E+00         0.00000E+00        -0.20681E+08
 
   -0.27097E+08         0.25860E+06         0.00000E+00
    0.25860E+06        -0.45005E+08         0.00000E+00
    0.00000E+00         0.00000E+00        -0.20368E+08
 
   -0.24693E+08         0.42361E+06         0.00000E+00
    0.42361E+06        -0.45687E+08         0.00000E+00
    0.00000E+00         0.00000E+00        -0.20026E+08
 
   -0.21351E+08         0.81091E+06         0.00000E+00
    0.81091E+06        -0.46863E+08         0.00000E+00
    0.00000E+00         0.00000E+00        -0.19595E+08
 
TENSORS stresstot double 
   -0.50593E+08         0.16818E+06         0.00000E+00
    0.16818E+06        -0.59246E+08         0.00000E+00
    0.00000E+00         0.00000E+00        -0.63073E+08
 
   -0.50443E+08         0.16473E+06         0.00000E+00
    0.16473E+06        -0.58837E+08         0.00000E+00
    0.00000E+00         0.00000E+00        -0.62830E+08
 
   -0.50659E+08         0.90875E+04         0.00000E+00
    0.90875E+04        -0.58782E+08         0.00000E+00
    0.00000E+00         0.00000E+00        -0.63213E+08
 
   -0.51321E+08        -0.19796E+06         0.00000E+00
   -0.19796E+06        -0.59163E+08         0.00000E+00
    0.00000E+00         0.00000E+00        -0.64318E+08
 
   -0.52594E+08        -0.35739E+06         0.00000E+00
   -0.35739E+06        -0.59841E+08         0.00000E+00
    0.00000E+00         0.00000E+00        -0.66338E+08
 
   -0.54206E+08        -0.34652E+06         0.00000E+00
   -0.34652E+06        -0.60623E+08         0.00000E+00
    0.00000E+00         0.00000E+00        -0.68734E+08
 
   -0.55957E+08        -0.36268E+06         0.00000E+00
   -0.36268E+06        -0.61312E+08         0.00000E+00
    0.00000E+00         0.00000E+00        -0.70949E+08
 
   -0.58245E+08        -0.35953E+06         0.00000E+00
   -0.35953E+06        -0.61993E+08         0.00000E+00
    0.00000E+00         0.00000E+00        -0.71899E+08
 
   -0.60166E+08        -0.24078E+06         0.00000E+00
   -0.24078E+06        -0.62549E+08         0.00000E+00
    0.00000E+00         0.00000E+00        -0.72397E+08
 
   -0.61888E+08        -0.13270E+06         0.00000E+00
   -0.13270E+06        -0.62900E+08         0.00000E+00
    0.00000E+00         0.00000E+00        -0.72813E+08
 
   -0.63581E+08        -0.28824E+05         0.00000E+00
   -0.28824E+05        -0.63050E+08         0.00000E+00
    0.00000E+00         0.00000E+00        -0.73182E+08
 
   -0.65354E+08         0.80408E+05         0.00000E+00
    0.80408E+05        -0.62991E+08         0.00000E+00
    0.00000E+00         0.00000E+00        -0.73524E+08
 
   -0.67325E+08         0.20916E+06         0.00000E+00
    0.20916E+06        -0.62697E+08         0.00000E+00
    0.00000E+00         0.00000E+00        -0.73858E+08
 
   -0.69679E+08         0.38450E+06         0.00000E+00
    0.38450E+06        -0.62101E+08         0.00000E+00
    0.00000E+00         0.00000E+00        -0.74207E+08
 
   -0.72928E+08         0.77813E+06         0.00000E+00
    0.77813E+06        -0.60995E+08         0.00000E+00
    0.00000E+00         0.00000E+00        -0.74632E+08
 
   -0.50289E+08         0.38664E+06         0.00000E+00
    0.38664E+06        -0.60077E+08         0.00000E+00
    0.00000E+00         0.00000E+00        -0.63863E+08
 
   -0.50566E+08         0.33430E+06         0.00000E+00
    0.33430E+06        -0.60287E+08         0.00000E+00
    0.00000E+00         0.00000E+00        -0.64370E+08
 
   -0.50925E+08        -0.90623E+04         0.00000E+00
   -0.90623E+04        -0.60404E+08         0.00000E+00
    0.00000E+00         0.00000E+00        -0.65060E+08
 
   -0.51649E+08        -0.39943E+06         0.00000E+00
   -0.39943E+06        -0.60414E+08         0.00000E+00
    0.00000E+00         0.00000E+00        -0.66268E+08
 
   -0.52767E+08        -0.71546E+06         0.00000E+00
   -0.71546E+06        -0.60402E+08         0.00000E+00
    0.00000E+00         0.00000E+00        -0.67891E+08
 
   -0.54159E+08        -0.87775E+06         0.00000E+00
   -0.87775E+06        -0.60510E+08         0.00000E+00
    0.00000E+00         0.00000E+00        -0.69367E+08
 
   -0.56116E+08        -0.93561E+06         0.00000E+00
   -0.93561E+06        -0.60885E+08         0.00000E+00
    0.00000E+00         0.00000E+00        -0.70032E+08
 
   -0.58081E+08        -0.87280E+06         0.00000E+00
   -0.87280E+06        -0.61258E+08         0.00000E+00
    0.00000E+00         0.00000E+00        -0.70503E+08
 
   -0.59969E+08        -0.62222E+06         0.00000E+00
   -0.62222E+06        -0.61576E+08         0.00000E+00
    0.00000E+00         0.00000E+00        -0.70947E+08
 
   -0.61692E+08        -0.34160E+06         0.00000E+00
   -0.34160E+06        -0.61791E+08         0.00000E+00
    0.00000E+00         0.00000E+00        -0.71336E+08
 
   -0.63377E+08        -0.51247E+05         0.00000E+00
   -0.51247E+05        -0.61857E+08         0.00000E+00
    0.00000E+00         0.00000E+00        -0.71686E+08
 
   -0.65124E+08         0.26595E+06         0.00000E+00
    0.26595E+06        -0.61744E+08         0.00000E+00
    0.00000E+00         0.00000E+00        -0.72012E+08
 
   -0.67033E+08         0.64550E+06         0.00000E+00
    0.64550E+06        -0.61414E+08         0.00000E+00
    0.00000E+00         0.00000E+00        -0.72326E+08
 
   -0.69238E+08         0.11711E+07         0.00000E+00
    0.11711E+07        -0.60802E+08         0.00000E+00
    0.00000E+00         0.00000E+00        -0.72643E+08
 
   -0.71765E+08         0.21145E+07         0.00000E+00
    0.21145E+07        -0.59824E+08         0.00000E+00
    0.00000E+00         0.00000E+00        -0.72949E+08
 
   -0.49967E+08         0.98267E+05         0.00000E+00
    0.98267E+05        -0.60441E+08         0.00000E+00
    0.00000E+00         0.00000E+00        -0.64749E+08
 
   -0.50662E+08         0.20437E+06         0.00000E+00
    0.20437E+06        -0.60830E+08         0.00000E+00
    0.00000E+00         0.00000E+00        -0.66025E+08
 
   -0.51318E+08        -0.62052E+05         0.00000E+00
   -0.62052E+05        -0.60853E+08         0.00000E+00
    0.00000E+00         0.00000E+00        -0.67163E+08
 
   -0.51995E+08        -0.42806E+06         0.00000E+00
   -0.42806E+06        -0.60743E+08         0.00000E+00
    0.00000E+00         0.00000E+00        -0.67875E+08
 
   -0.53070E+08        -0.75963E+06         0.00000E+00
   -0.75963E+06        -0.60690E+08         0.00000E+00
    0.00000E+00         0.00000E+00        -0.68160E+08
 
   -0.54408E+08        -0.10548E+07         0.00000E+00
   -0.10548E+07        -0.60731E+08         0.00000E+00
    0.00000E+00         0.00000E+00        -0.68441E+08
 
   -0.56092E+08        -0.11790E+07         0.00000E+00
   -0.11790E+07        -0.60807E+08         0.00000E+00
    0.00000E+00         0.00000E+00        -0.68797E+08
 
   -0.57901E+08        -0.10658E+07         0.00000E+00
   -0.10658E+07        -0.60900E+08         0.00000E+00
    0.00000E+00         0.00000E+00        -0.69180E+08
 
   -0.59661E+08        -0.79134E+06         0.00000E+00
   -0.79134E+06        -0.60975E+08         0.00000E+00
    0.00000E+00         0.00000E+00        -0.69549E+08
 
   -0.61346E+08        -0.41783E+06         0.00000E+00
   -0.41783E+06        -0.61013E+08         0.00000E+00
    0.00000E+00         0.00000E+00        -0.69895E+08
 
   -0.62996E+08         0.12775E+05         0.00000E+00
    0.12775E+05        -0.60960E+08         0.00000E+00
    0.00000E+00         0.00000E+00        -0.70215E+08
 
   -0.64681E+08         0.50862E+06         0.00000E+00
    0.50862E+06        -0.60768E+08         0.00000E+00
    0.00000E+00         0.00000E+00        -0.70513E+08
 
   -0.66471E+08         0.11127E+07         0.00000E+00
    0.11127E+07        -0.60396E+08         0.00000E+00
    0.00000E+00         0.00000E+00        -0.70795E+08
 
   -0.68402E+08         0.19231E+07         0.00000E+00
    0.19231E+07        -0.59806E+08         0.00000E+00
    0.00000E+00         0.00000E+00        -0.71060E+08
 
   -0.70410E+08         0.30926E+07         0.00000E+00
    0.30926E+07        -0.59026E+08         0.00000E+00
    0.00000E+00         0.00000E+00        -0.71302E+08
 
   -0.49744E+08        -0.82475E+05         0.00000E+00
   -0.82475E+05        -0.60280E+08         0.00000E+00
    0.00000E+00         0.00000E+00        -0.65896E+08
 
   -0.50834E+08        -0.72681E+05         0.00000E+00
   -0.72681E+05        -0.60269E+08         0.00000E+00
    0.00000E+00         0.00000E+00        -0.66395E+08
 
   -0.51618E+08        -0.21596E+06         0.00000E+00
   -0.21596E+06        -0.60425E+08         0.00000E+00
    0.00000E+00         0.00000E+00        -0.66591E+08
 
   -0.52385E+08        -0.50269E+06         0.00000E+00
   -0.50269E+06        -0.60590E+08         0.00000E+00
    0.00000E+00         0.00000E+00        -0.66783E+08
 
   -0.53371E+08        -0.82218E+06         0.00000E+00
   -0.82218E+06        -0.60691E+08         0.00000E+00
    0.00000E+00         0.00000E+00        -0.67007E+08
 
   -0.54619E+08        -0.10725E+07         0.00000E+00
   -0.10725E+07        -0.60725E+08         0.00000E+00
    0.00000E+00         0.00000E+00        -0.67268E+08
 
   -0.56094E+08        -0.11731E+07         0.00000E+00
   -0.11731E+07        -0.60693E+08         0.00000E+00
    0.00000E+00         0.00000E+00        -0.67560E+08
 
   -0.57697E+08        -0.10659E+07         0.00000E+00
   -0.10659E+07        -0.60632E+08         0.00000E+00
    0.00000E+00         0.00000E+00        -0.67871E+08
 
   -0.59315E+08        -0.77715E+06         0.00000E+00
   -0.77715E+06        -0.60563E+08         0.00000E+00
    0.00000E+00         0.00000E+00        -0.68183E+08
 
   -0.60904E+08        -0.35473E+06         0.00000E+00
   -0.35473E+06        -0.60465E+08         0.00000E+00
    0.00000E+00         0.00000E+00        -0.68483E+08
 
   -0.62475E+08         0.17345E+06         0.00000E+00
    0.17345E+06        -0.60306E+08         0.00000E+00
    0.00000E+00         0.00000E+00        -0.68765E+08
 
   -0.64059E+08         0.80848E+06         0.00000E+00
    0.80848E+06        -0.60046E+08         0.00000E+00
    0.00000E+00         0.00000E+00        -0.69029E+08
 
   -0.65687E+08         0.15859E+07         0.00000E+00
    0.15859E+07        -0.59653E+08         0.00000E+00
    0.00000E+00         0.00000E+00        -0.69274E+08
 
   -0.67353E+08         0.25721E+07         0.00000E+00
    0.25721E+07        -0.59119E+08         0.00000E+00
    0.00000E+00         0.00000E+00        -0.69498E+08
 
   -0.68988E+08         0.38451E+07         0.00000E+00
    0.38451E+07        -0.58481E+08         0.00000E+00
    0.00000E+00         0.00000E+00        -0.69694E+08
 
   -0.49888E+08        -0.10966E+06         0.00000E+00
   -0.10966E+06        -0.60033E+08         0.00000E+00
    0.00000E+00         0.00000E+00        -0.64937E+08
 
   -0.50924E+08        -0.28588E+06         0.00000E+00
   -0.28588E+06        -0.60089E+08         0.00000E+00
    0.00000E+00         0.00000E+00        -0.65164E+08
 
   -0.51822E+08        -0.42572E+06         0.00000E+00
   -0.42572E+06        -0.60282E+08         0.00000E+00
    0.00000E+00         0.00000E+00        -0.65389E+08
 
   -0.52664E+08        -0.64702E+06         0.00000E+00
   -0.64702E+06        -0.60451E+08         0.00000E+00
    0.00000E+00         0.00000E+00        -0.65598E+08
 
   -0.53627E+08        -0.88479E+06         0.00000E+00
   -0.88479E+06        -0.60549E+08         0.00000E+00
    0.00000E+00         0.00000E+00        -0.65816E+08
 
   -0.54768E+08        -0.10563E+07         0.00000E+00
   -0.10563E+07        -0.60564E+08         0.00000E+00
    0.00000E+00         0.00000E+00        -0.66051E+08
 
   -0.56072E+08        -0.10949E+07         0.00000E+00
   -0.10949E+07        -0.60505E+08         0.00000E+00
    0.00000E+00         0.00000E+00        -0.66304E+08
 
   -0.57484E+08        -0.96110E+06         0.00000E+00
   -0.96110E+06        -0.60393E+08         0.00000E+00
    0.00000E+00         0.00000E+00        -0.66567E+08
 
   -0.58940E+08        -0.65260E+06         0.00000E+00
   -0.65260E+06        -0.60248E+08         0.00000E+00
    0.00000E+00         0.00000E+00        -0.66831E+08
 
   -0.60400E+08        -0.19033E+06         0.00000E+00
   -0.19033E+06        -0.60071E+08         0.00000E+00
    0.00000E+00         0.00000E+00        -0.67089E+08
 
   -0.61852E+08         0.40825E+06         0.00000E+00
    0.40825E+06        -0.59843E+08         0.00000E+00
    0.00000E+00         0.00000E+00        -0.67333E+08
 
   -0.63303E+08         0.11439E+07         0.00000E+00
    0.11439E+07        -0.59543E+08         0.00000E+00
    0.00000E+00         0.00000E+00        -0.67563E+08
 
   -0.64756E+08         0.20381E+07         0.00000E+00
    0.20381E+07        -0.59152E+08         0.00000E+00
    0.00000E+00         0.00000E+00        -0.67773E+08
 
   -0.66190E+08         0.31281E+07         0.00000E+00
    0.31281E+07        -0.58675E+08         0.00000E+00
    0.00000E+00         0.00000E+00        -0.67962E+08
 
   -0.67547E+08         0.44494E+07         0.00000E+00
    0.44494E+07        -0.58142E+08         0.00000E+00
    0.00000E+00         0.00000E+00        -0.68123E+08
 
   -0.50129E+08        -0.15050E+06         0.00000E+00
   -0.15050E+06        -0.60013E+08         0.00000E+00
    0.00000E+00         0.00000E+00        -0.63769E+08
 
   -0.51110E+08        -0.39291E+06         0.00000E+00
   -0.39291E+06        -0.60083E+08         0.00000E+00
    0.00000E+00         0.00000E+00        -0.63988E+08
 
   -0.52001E+08        -0.58942E+06         0.00000E+00
   -0.58942E+06        -0.60189E+08         0.00000E+00
    0.00000E+00         0.00000E+00        -0.64194E+08
 
   -0.52872E+08        -0.77122E+06         0.00000E+00
   -0.77122E+06        -0.60307E+08         0.00000E+00
    0.00000E+00         0.00000E+00        -0.64398E+08
 
   -0.53801E+08        -0.93289E+06         0.00000E+00
   -0.93289E+06        -0.60378E+08         0.00000E+00
    0.00000E+00         0.00000E+00        -0.64603E+08
 
   -0.54842E+08        -0.10243E+07         0.00000E+00
   -0.10243E+07        -0.60378E+08         0.00000E+00
    0.00000E+00         0.00000E+00        -0.64816E+08
 
   -0.55999E+08        -0.99593E+06         0.00000E+00
   -0.99593E+06        -0.60307E+08         0.00000E+00
    0.00000E+00         0.00000E+00        -0.65037E+08
 
   -0.57242E+08        -0.81551E+06         0.00000E+00
   -0.81551E+06        -0.60178E+08         0.00000E+00
    0.00000E+00         0.00000E+00        -0.65262E+08
 
   -0.58535E+08        -0.47218E+06         0.00000E+00
   -0.47218E+06        -0.60004E+08         0.00000E+00
    0.00000E+00         0.00000E+00        -0.65488E+08
 
   -0.59845E+08         0.29748E+05         0.00000E+00
    0.29748E+05        -0.59790E+08         0.00000E+00
    0.00000E+00         0.00000E+00        -0.65708E+08
 
   -0.61154E+08         0.68331E+06         0.00000E+00
    0.68331E+06        -0.59532E+08         0.00000E+00
    0.00000E+00         0.00000E+00        -0.65918E+08
 
   -0.62454E+08         0.14891E+07         0.00000E+00
    0.14891E+07        -0.59219E+08         0.00000E+00
    0.00000E+00         0.00000E+00        -0.66114E+08
 
   -0.63733E+08         0.24580E+07         0.00000E+00
    0.24580E+07        -0.58847E+08         0.00000E+00
    0.00000E+00         0.00000E+00        -0.66294E+08
 
   -0.64966E+08         0.36072E+07         0.00000E+00
    0.36072E+07        -0.58423E+08         0.00000E+00
    0.00000E+00         0.00000E+00        -0.66453E+08
 
   -0.66107E+08         0.49485E+07         0.00000E+00
    0.49485E+07        -0.57971E+08         0.00000E+00
    0.00000E+00         0.00000E+00        -0.66587E+08
 
   -0.50438E+08        -0.18063E+06         0.00000E+00
   -0.18063E+06        -0.60011E+08         0.00000E+00
    0.00000E+00         0.00000E+00        -0.62619E+08
 
   -0.51342E+08        -0.46962E+06         0.00000E+00
   -0.46962E+06        -0.60054E+08         0.00000E+00
    0.00000E+00         0.00000E+00        -0.62817E+08
 
   -0.52190E+08        -0.68721E+06         0.00000E+00
   -0.68721E+06        -0.60124E+08         0.00000E+00
    0.00000E+00         0.00000E+00        -0.63007E+08
 
   -0.53028E+08        -0.85164E+06         0.00000E+00
   -0.85164E+06        -0.60192E+08         0.00000E+00
    0.00000E+00         0.00000E+00        -0.63194E+08
 
   -0.53901E+08        -0.95803E+06         0.00000E+00
   -0.95803E+06        -0.60229E+08         0.00000E+00
    0.00000E+00         0.00000E+00        -0.63382E+08
 
   -0.54845E+08        -0.98164E+06         0.00000E+00
   -0.98164E+06        -0.60212E+08         0.00000E+00
    0.00000E+00         0.00000E+00        -0.63571E+08
 
   -0.55868E+08        -0.89006E+06         0.00000E+00
   -0.89006E+06        -0.60135E+08         0.00000E+00
    0.00000E+00         0.00000E+00        -0.63764E+08
 
   -0.56958E+08        -0.65802E+06         0.00000E+00
   -0.65802E+06        -0.60003E+08         0.00000E+00
    0.00000E+00         0.00000E+00        -0.63957E+08
 
   -0.58091E+08        -0.27234E+06         0.00000E+00
   -0.27234E+06        -0.59823E+08         0.00000E+00
    0.00000E+00         0.00000E+00        -0.64150E+08
 
   -0.59245E+08         0.27015E+06         0.00000E+00
    0.27015E+06        -0.59602E+08         0.00000E+00
    0.00000E+00         0.00000E+00        -0.64337E+08
 
   -0.60401E+08         0.96863E+06         0.00000E+00
    0.96863E+06        -0.59340E+08         0.00000E+00
    0.00000E+00         0.00000E+00        -0.64516E+08
 
   -0.61543E+08         0.18238E+07         0.00000E+00
    0.18238E+07        -0.59037E+08         0.00000E+00
    0.00000E+00         0.00000E+00        -0.64683E+08
 
   -0.62654E+08         0.28397E+07         0.00000E+00
    0.28397E+07        -0.58695E+08         0.00000E+00
    0.00000E+00         0.00000E+00        -0.64835E+08
 
   -0.63710E+08         0.40213E+07         0.00000E+00
    0.40213E+07        -0.58321E+08         0.00000E+00
    0.00000E+00         0.00000E+00        -0.64968E+08
 
   -0.64676E+08         0.53679E+07         0.00000E+00
    0.53679E+07        -0.57935E+08         0.00000E+00
    0.00000E+00         0.00000E+00        -0.65081E+08
 
   -0.50793E+08        -0.19987E+06         0.00000E+00
   -0.19987E+06        -0.60006E+08         0.00000E+00
    0.00000E+00         0.00000E+00        -0.61478E+08
 
   -0.51603E+08        -0.51761E+06         0.00000E+00
   -0.51761E+06        -0.60032E+08         0.00000E+00
    0.00000E+00         0.00000E+00        -0.61653E+08
 
   -0.52379E+08        -0.74469E+06         0.00000E+00
   -0.74469E+06        -0.60072E+08         0.00000E+00
    0.00000E+00         0.00000E+00        -0.61823E+08
 
   -0.53150E+08        -0.89287E+06         0.00000E+00
   -0.89287E+06        -0.60106E+08         0.00000E+00
    0.00000E+00         0.00000E+00        -0.61990E+08
 
   -0.53946E+08        -0.95962E+06         0.00000E+00
   -0.95962E+06        -0.60116E+08         0.00000E+00
    0.00000E+00         0.00000E+00        -0.62156E+08
 
   -0.54787E+08        -0.93007E+06         0.00000E+00
   -0.93007E+06        -0.60085E+08         0.00000E+00
    0.00000E+00         0.00000E+00        -0.62322E+08
 
   -0.55682E+08        -0.78391E+06         0.00000E+00
   -0.78391E+06        -0.60005E+08         0.00000E+00
    0.00000E+00         0.00000E+00        -0.62488E+08
 
   -0.56627E+08        -0.50266E+06         0.00000E+00
   -0.50266E+06        -0.59877E+08         0.00000E+00
    0.00000E+00         0.00000E+00        -0.62654E+08
 
   -0.57607E+08        -0.74200E+05         0.00000E+00
   -0.74200E+05        -0.59705E+08         0.00000E+00
    0.00000E+00         0.00000E+00        -0.62817E+08
 
   -0.58605E+08         0.50716E+06         0.00000E+00
    0.50716E+06        -0.59494E+08         0.00000E+00
    0.00000E+00         0.00000E+00        -0.62975E+08
 
   -0.59605E+08         0.12431E+07         0.00000E+00
    0.12431E+07        -0.59248E+08         0.00000E+00
    0.00000E+00         0.00000E+00        -0.63125E+08
 
   -0.60591E+08         0.21339E+07         0.00000E+00
    0.21339E+07        -0.58969E+08         0.00000E+00
    0.00000E+00         0.00000E+00        -0.63266E+08
 
   -0.61543E+08         0.31796E+07         0.00000E+00
    0.31796E+07        -0.58662E+08         0.00000E+00
    0.00000E+00         0.00000E+00        -0.63393E+08
 
   -0.62441E+08         0.43784E+07         0.00000E+00
    0.43784E+07        -0.58337E+08         0.00000E+00
    0.00000E+00         0.00000E+00        -0.63505E+08
 
   -0.63257E+08         0.57231E+07         0.00000E+00
    0.57231E+07        -0.58008E+08         0.00000E+00
    0.00000E+00         0.00000E+00        -0.63599E+08
 
   -0.51175E+08        -0.21023E+06         0.00000E+00
   -0.21023E+06        -0.60003E+08         0.00000E+00
    0.00000E+00         0.00000E+00        -0.60344E+08
 
   -0.51878E+08        -0.54373E+06         0.00000E+00
   -0.54373E+06        -0.60016E+08         0.00000E+00
    0.00000E+00         0.00000E+00        -0.60495E+08
 
   -0.52563E+08        -0.77360E+06         0.00000E+00
   -0.77360E+06        -0.60034E+08         0.00000E+00
    0.00000E+00         0.00000E+00        -0.60642E+08
 
   -0.53248E+08        -0.90758E+06         0.00000E+00
   -0.90758E+06        -0.60047E+08         0.00000E+00
    0.00000E+00         0.00000E+00        -0.60787E+08
 
   -0.53948E+08        -0.94392E+06         0.00000E+00
   -0.94392E+06        -0.60039E+08         0.00000E+00
    0.00000E+00         0.00000E+00        -0.60930E+08
 
   -0.54679E+08        -0.87324E+06         0.00000E+00
   -0.87324E+06        -0.60000E+08         0.00000E+00
    0.00000E+00         0.00000E+00        -0.61072E+08
 
   -0.55448E+08        -0.68217E+06         0.00000E+00
   -0.68217E+06        -0.59922E+08         0.00000E+00
    0.00000E+00         0.00000E+00        -0.61213E+08
 
   -0.56252E+08        -0.35770E+06         0.00000E+00
   -0.35770E+06        -0.59804E+08         0.00000E+00
    0.00000E+00         0.00000E+00        -0.61353E+08
 
   -0.57084E+08         0.10994E+06         0.00000E+00
    0.10994E+06        -0.59648E+08         0.00000E+00
    0.00000E+00         0.00000E+00        -0.61489E+08
 
   -0.57930E+08         0.72630E+06         0.00000E+00
    0.72630E+06        -0.59458E+08         0.00000E+00
    0.00000E+00         0.00000E+00        -0.61620E+08
 
   -0.58777E+08         0.14934E+07         0.00000E+00
    0.14934E+07        -0.59237E+08         0.00000E+00
    0.00000E+00         0.00000E+00        -0.61745E+08
 
   -0.59611E+08         0.24108E+07         0.00000E+00
    0.24108E+07        -0.58990E+08         0.00000E+00
    0.00000E+00         0.00000E+00        -0.61862E+08
 
   -0.60413E+08         0.34760E+07         0.00000E+00
    0.34760E+07        -0.58723E+08         0.00000E+00
    0.00000E+00         0.00000E+00        -0.61967E+08
 
   -0.61167E+08         0.46835E+07         0.00000E+00
    0.46835E+07        -0.58446E+08         0.00000E+00
    0.00000E+00         0.00000E+00        -0.62060E+08
 
   -0.61851E+08         0.60233E+07         0.00000E+00
    0.60233E+07        -0.58167E+08         0.00000E+00
    0.00000E+00         0.00000E+00        -0.62138E+08
 
   -0.51570E+08        -0.21450E+06         0.00000E+00
   -0.21450E+06        -0.60001E+08         0.00000E+00
    0.00000E+00         0.00000E+00        -0.59213E+08
 
   -0.52160E+08        -0.55504E+06         0.00000E+00
   -0.55504E+06        -0.60005E+08         0.00000E+00
    0.00000E+00         0.00000E+00        -0.59339E+08
 
   -0.52742E+08        -0.78423E+06         0.00000E+00
   -0.78423E+06        -0.60011E+08         0.00000E+00
    0.00000E+00         0.00000E+00        -0.59463E+08
 
   -0.53324E+08        -0.90616E+06         0.00000E+00
   -0.90616E+06        -0.60011E+08         0.00000E+00
    0.00000E+00         0.00000E+00        -0.59585E+08
 
   -0.53918E+08        -0.91907E+06         0.00000E+00
   -0.91907E+06        -0.59995E+08         0.00000E+00
    0.00000E+00         0.00000E+00        -0.59705E+08
 
   -0.54533E+08        -0.81651E+06         0.00000E+00
   -0.81651E+06        -0.59954E+08         0.00000E+00
    0.00000E+00         0.00000E+00        -0.59823E+08
 
   -0.55173E+08        -0.58946E+06         0.00000E+00
   -0.58946E+06        -0.59884E+08         0.00000E+00
    0.00000E+00         0.00000E+00        -0.59940E+08
 
   -0.55839E+08        -0.22882E+06         0.00000E+00
   -0.22882E+06        -0.59781E+08         0.00000E+00
    0.00000E+00         0.00000E+00        -0.60054E+08
 
   -0.56526E+08         0.27260E+06         0.00000E+00
    0.27260E+06        -0.59647E+08         0.00000E+00
    0.00000E+00         0.00000E+00        -0.60165E+08
 
   -0.57224E+08         0.91909E+06         0.00000E+00
    0.91909E+06        -0.59483E+08         0.00000E+00
    0.00000E+00         0.00000E+00        -0.60273E+08
 
   -0.57923E+08         0.17120E+07         0.00000E+00
    0.17120E+07        -0.59293E+08         0.00000E+00
    0.00000E+00         0.00000E+00        -0.60374E+08
 
   -0.58610E+08         0.26497E+07         0.00000E+00
    0.26497E+07        -0.59083E+08         0.00000E+00
    0.00000E+00         0.00000E+00        -0.60469E+08
 
   -0.59271E+08         0.37282E+07         0.00000E+00
    0.37282E+07        -0.58858E+08         0.00000E+00
    0.00000E+00         0.00000E+00        -0.60554E+08
 
   -0.59892E+08         0.49401E+07         0.00000E+00
    0.49401E+07        -0.58626E+08         0.00000E+00
    0.00000E+00         0.00000E+00        -0.60629E+08
 
   -0.60456E+08         0.62744E+07         0.00000E+00
    0.62744E+07        -0.58395E+08         0.00000E+00
    0.00000E+00         0.00000E+00        -0.60693E+08
 
   -0.51971E+08        -0.21533E+06         0.00000E+00
   -0.21533E+06        -0.60000E+08         0.00000E+00
    0.00000E+00         0.00000E+00        -0.58085E+08
 
   -0.52444E+08        -0.55810E+06         0.00000E+00
   -0.55810E+06        -0.60000E+08         0.00000E+00
    0.00000E+00         0.00000E+00        -0.58186E+08
 
   -0.52915E+08        -0.78528E+06         0.00000E+00
   -0.78528E+06        -0.60001E+08         0.00000E+00
    0.00000E+00         0.00000E+00        -0.58286E+08
 
   -0.53385E+08        -0.89757E+06         0.00000E+00
   -0.89757E+06        -0.59996E+08         0.00000E+00
    0.00000E+00         0.00000E+00        -0.58384E+08
 
   -0.53864E+08        -0.89268E+06         0.00000E+00
   -0.89268E+06        -0.59979E+08         0.00000E+00
    0.00000E+00         0.00000E+00        -0.58480E+08
 
   -0.54356E+08        -0.76570E+06         0.00000E+00
   -0.76570E+06        -0.59944E+08         0.00000E+00
    0.00000E+00         0.00000E+00        -0.58575E+08
 
   -0.54866E+08        -0.51034E+06         0.00000E+00
   -0.51034E+06        -0.59886E+08         0.00000E+00
    0.00000E+00         0.00000E+00        -0.58668E+08
 
   -0.55394E+08        -0.12038E+06         0.00000E+00
   -0.12038E+06        -0.59802E+08         0.00000E+00
    0.00000E+00         0.00000E+00        -0.58758E+08
 
   -0.55939E+08         0.40907E+06         0.00000E+00
    0.40907E+06        -0.59692E+08         0.00000E+00
    0.00000E+00         0.00000E+00        -0.58846E+08
 
   -0.56493E+08         0.10807E+07         0.00000E+00
    0.10807E+07        -0.59559E+08         0.00000E+00
    0.00000E+00         0.00000E+00        -0.58930E+08
 
   -0.57048E+08         0.18946E+07         0.00000E+00
    0.18946E+07        -0.59404E+08         0.00000E+00
    0.00000E+00         0.00000E+00        -0.59010E+08
 
   -0.57595E+08         0.28483E+07         0.00000E+00
    0.28483E+07        -0.59233E+08         0.00000E+00
    0.00000E+00         0.00000E+00        -0.59084E+08
 
   -0.58122E+08         0.39365E+07         0.00000E+00
    0.39365E+07        -0.59051E+08         0.00000E+00
    0.00000E+00         0.00000E+00        -0.59151E+08
 
   -0.58617E+08         0.51509E+07         0.00000E+00
    0.51509E+07        -0.58863E+08         0.00000E+00
    0.00000E+00         0.00000E+00        -0.59211E+08
 
   -0.59070E+08         0.64802E+07         0.00000E+00
    0.64802E+07        -0.58676E+08         0.00000E+00
    0.00000E+00         0.00000E+00        -0.59262E+08
 
   -0.52373E+08        -0.21501E+06         0.00000E+00
   -0.21501E+06        -0.60000E+08         0.00000E+00
    0.00000E+00         0.00000E+00        -0.56957E+08
 
   -0.52729E+08        -0.55847E+06         0.00000E+00
   -0.55847E+06        -0.60000E+08         0.00000E+00
    0.00000E+00         0.00000E+00        -0.57035E+08
 
   -0.53082E+08        -0.78400E+06         0.00000E+00
   -0.78400E+06        -0.60000E+08         0.00000E+00
    0.00000E+00         0.00000E+00        -0.57111E+08
 
   -0.53434E+08        -0.88937E+06         0.00000E+00
   -0.88937E+06        -0.59998E+08         0.00000E+00
    0.00000E+00         0.00000E+00        -0.57185E+08
 
   -0.53790E+08        -0.87144E+06         0.00000E+00
   -0.87144E+06        -0.59987E+08         0.00000E+00
    0.00000E+00         0.00000E+00        -0.57258E+08
 
   -0.54155E+08        -0.72613E+06         0.00000E+00
   -0.72613E+06        -0.59963E+08         0.00000E+00
    0.00000E+00         0.00000E+00        -0.57329E+08
 
   -0.54532E+08        -0.44895E+06         0.00000E+00
   -0.44895E+06        -0.59921E+08         0.00000E+00
    0.00000E+00         0.00000E+00        -0.57398E+08
 
   -0.54924E+08        -0.35784E+05         0.00000E+00
   -0.35784E+05        -0.59860E+08         0.00000E+00
    0.00000E+00         0.00000E+00        -0.57465E+08
 
   -0.55327E+08         0.51630E+06         0.00000E+00
    0.51630E+06        -0.59778E+08         0.00000E+00
    0.00000E+00         0.00000E+00        -0.57530E+08
 
   -0.55740E+08         0.12084E+07         0.00000E+00
    0.12084E+07        -0.59677E+08         0.00000E+00
    0.00000E+00         0.00000E+00        -0.57593E+08
 
   -0.56156E+08         0.20394E+07         0.00000E+00
    0.20394E+07        -0.59559E+08         0.00000E+00
    0.00000E+00         0.00000E+00        -0.57652E+08
 
   -0.56568E+08         0.30059E+07         0.00000E+00
    0.30059E+07        -0.59427E+08         0.00000E+00
    0.00000E+00         0.00000E+00        -0.57707E+08
 
   -0.56967E+08         0.41016E+07         0.00000E+00
    0.41016E+07        -0.59287E+08         0.00000E+00
    0.00000E+00         0.00000E+00        -0.57757E+08
 
   -0.57344E+08         0.53179E+07         0.00000E+00
    0.53179E+07        -0.59141E+08         0.00000E+00
    0.00000E+00         0.00000E+00        -0.57801E+08
 
   -0.57692E+08         0.66434E+07         0.00000E+00
    0.66434E+07        -0.58997E+08         0.00000E+00
    0.00000E+00         0.00000E+00        -0.57840E+08
 
   -0.52775E+08        -0.21535E+06         0.00000E+00
   -0.21535E+06        -0.60000E+08         0.00000E+00
    0.00000E+00         0.00000E+00        -0.55831E+08
 
   -0.53014E+08        -0.56060E+06         0.00000E+00
   -0.56060E+06        -0.60003E+08         0.00000E+00
    0.00000E+00         0.00000E+00        -0.55885E+08
 
   -0.53247E+08        -0.78625E+06         0.00000E+00
   -0.78625E+06        -0.60008E+08         0.00000E+00
    0.00000E+00         0.00000E+00        -0.55938E+08
 
   -0.53475E+08        -0.88765E+06         0.00000E+00
   -0.88765E+06        -0.60013E+08         0.00000E+00
    0.00000E+00         0.00000E+00        -0.55988E+08
 
   -0.53703E+08        -0.86089E+06         0.00000E+00
   -0.86089E+06        -0.60013E+08         0.00000E+00
    0.00000E+00         0.00000E+00        -0.56037E+08
 
   -0.53937E+08        -0.70233E+06         0.00000E+00
   -0.70233E+06        -0.60004E+08         0.00000E+00
    0.00000E+00         0.00000E+00        -0.56084E+08
 
   -0.54179E+08        -0.40873E+06         0.00000E+00
   -0.40873E+06        -0.59983E+08         0.00000E+00
    0.00000E+00         0.00000E+00        -0.56130E+08
 
   -0.54432E+08         0.22393E+05         0.00000E+00
    0.22393E+05        -0.59946E+08         0.00000E+00
    0.00000E+00         0.00000E+00        -0.56174E+08
 
   -0.54697E+08         0.59237E+06         0.00000E+00
    0.59237E+06        -0.59894E+08         0.00000E+00
    0.00000E+00         0.00000E+00        -0.56217E+08
 
   -0.54971E+08         0.13009E+07         0.00000E+00
    0.13009E+07        -0.59827E+08         0.00000E+00
    0.00000E+00         0.00000E+00        -0.56258E+08
 
   -0.55251E+08         0.21458E+07         0.00000E+00
    0.21458E+07        -0.59746E+08         0.00000E+00
    0.00000E+00         0.00000E+00        -0.56298E+08
 
   -0.55531E+08         0.31226E+07         0.00000E+00
    0.31226E+07        -0.59654E+08         0.00000E+00
    0.00000E+00         0.00000E+00        -0.56334E+08
 
   -0.55807E+08         0.42247E+07         0.00000E+00
    0.42247E+07        -0.59554E+08         0.00000E+00
    0.00000E+00         0.00000E+00        -0.56368E+08
 
   -0.56072E+08         0.54430E+07         0.00000E+00
    0.54430E+07        -0.59451E+08         0.00000E+00
    0.00000E+00         0.00000E+00        -0.56399E+08
 
   -0.56319E+08         0.67661E+07         0.00000E+00
    0.67661E+07        -0.59347E+08         0.00000E+00
    0.00000E+00         0.00000E+00        -0.56425E+08
 
   -0.53180E+08        -0.21769E+06         0.00000E+00
   -0.21769E+06        -0.60002E+08         0.00000E+00
    0.00000E+00         0.00000E+00        -0.54706E+08
 
   -0.53303E+08        -0.56790E+06         0.00000E+00
   -0.56790E+06        -0.60009E+08         0.00000E+00
    0.00000E+00         0.00000E+00        -0.54737E+08
 
   -0.53412E+08        -0.79651E+06         0.00000E+00
   -0.79651E+06        -0.60022E+08         0.00000E+00
    0.00000E+00         0.00000E+00        -0.54766E+08
 
   -0.53512E+08        -0.89716E+06         0.00000E+00
   -0.89716E+06        -0.60038E+08         0.00000E+00
    0.00000E+00         0.00000E+00        -0.54792E+08
 
   -0.53608E+08        -0.86533E+06         0.00000E+00
   -0.86533E+06        -0.60053E+08         0.00000E+00
    0.00000E+00         0.00000E+00        -0.54817E+08
 
   -0.53705E+08        -0.69777E+06         0.00000E+00
   -0.69777E+06        -0.60063E+08         0.00000E+00
    0.00000E+00         0.00000E+00        -0.54841E+08
 
   -0.53810E+08        -0.39224E+06         0.00000E+00
   -0.39224E+06        -0.60064E+08         0.00000E+00
    0.00000E+00         0.00000E+00        -0.54863E+08
 
   -0.53924E+08         0.52441E+05         0.00000E+00
    0.52441E+05        -0.60054E+08         0.00000E+00
    0.00000E+00         0.00000E+00        -0.54885E+08
 
   -0.54050E+08         0.63625E+06         0.00000E+00
    0.63625E+06        -0.60033E+08         0.00000E+00
    0.00000E+00         0.00000E+00        -0.54906E+08
 
   -0.54187E+08         0.13577E+07         0.00000E+00
    0.13577E+07        -0.59999E+08         0.00000E+00
    0.00000E+00         0.00000E+00        -0.54926E+08
 
   -0.54334E+08         0.22137E+07         0.00000E+00
    0.22137E+07        -0.59955E+08         0.00000E+00
    0.00000E+00         0.00000E+00        -0.54946E+08
 
   -0.54487E+08         0.31991E+07         0.00000E+00
    0.31991E+07        -0.59902E+08         0.00000E+00
    0.00000E+00         0.00000E+00        -0.54965E+08
 
   -0.54644E+08         0.43067E+07         0.00000E+00
    0.43067E+07        -0.59843E+08         0.00000E+00
    0.00000E+00         0.00000E+00        -0.54983E+08
 
   -0.54799E+08         0.55274E+07         0.00000E+00
    0.55274E+07        -0.59780E+08         0.00000E+00
    0.00000E+00         0.00000E+00        -0.55000E+08
 
   -0.54950E+08         0.68498E+07         0.00000E+00
    0.68498E+07        -0.59715E+08         0.00000E+00
    0.00000E+00         0.00000E+00        -0.55016E+08
 
   -0.53593E+08        -0.22303E+06         0.00000E+00
   -0.22303E+06        -0.60003E+08         0.00000E+00
    0.00000E+00         0.00000E+00        -0.53583E+08
 
   -0.53597E+08        -0.58283E+06         0.00000E+00
   -0.58283E+06        -0.60016E+08         0.00000E+00
    0.00000E+00         0.00000E+00        -0.53591E+08
 
   -0.53579E+08        -0.81805E+06         0.00000E+00
   -0.81805E+06        -0.60040E+08         0.00000E+00
    0.00000E+00         0.00000E+00        -0.53596E+08
 
   -0.53547E+08        -0.92126E+06         0.00000E+00
   -0.92126E+06        -0.60070E+08         0.00000E+00
    0.00000E+00         0.00000E+00        -0.53598E+08
 
   -0.53506E+08        -0.88775E+06         0.00000E+00
   -0.88775E+06        -0.60103E+08         0.00000E+00
    0.00000E+00         0.00000E+00        -0.53599E+08
 
   -0.53466E+08        -0.71476E+06         0.00000E+00
   -0.71476E+06        -0.60133E+08         0.00000E+00
    0.00000E+00         0.00000E+00        -0.53598E+08
 
   -0.53430E+08        -0.40100E+06         0.00000E+00
   -0.40100E+06        -0.60158E+08         0.00000E+00
    0.00000E+00         0.00000E+00        -0.53597E+08
 
   -0.53405E+08         0.53552E+05         0.00000E+00
    0.53552E+05        -0.60176E+08         0.00000E+00
    0.00000E+00         0.00000E+00        -0.53596E+08
 
   -0.53392E+08         0.64775E+06         0.00000E+00
    0.64775E+06        -0.60185E+08         0.00000E+00
    0.00000E+00         0.00000E+00        -0.53595E+08
 
   -0.53393E+08         0.13791E+07         0.00000E+00
    0.13791E+07        -0.60185E+08         0.00000E+00
    0.00000E+00         0.00000E+00        -0.53595E+08
 
   -0.53409E+08         0.22438E+07         0.00000E+00
    0.22438E+07        -0.60177E+08         0.00000E+00
    0.00000E+00         0.00000E+00        -0.53595E+08
 
   -0.53437E+08         0.32362E+07         0.00000E+00
    0.32362E+07        -0.60162E+08         0.00000E+00
    0.00000E+00         0.00000E+00        -0.53597E+08
 
   -0.53476E+08         0.43489E+07         0.00000E+00
    0.43489E+07        -0.60142E+08         0.00000E+00
    0.00000E+00         0.00000E+00        -0.53600E+08
 
   -0.53525E+08         0.55725E+07         0.00000E+00
    0.55725E+07        -0.60118E+08         0.00000E+00
    0.00000E+00         0.00000E+00        -0.53604E+08
 
   -0.53581E+08         0.68957E+07         0.00000E+00
    0.68957E+07        -0.60091E+08         0.00000E+00
    0.00000E+00         0.00000E+00        -0.53609E+08
 
   -0.54019E+08        -0.23203E+06         0.00000E+00
   -0.23203E+06        -0.60005E+08         0.00000E+00
    0.00000E+00         0.00000E+00        -0.52464E+08
 
   -0.53902E+08        -0.60702E+06         0.00000E+00
   -0.60702E+06        -0.60025E+08         0.00000E+00
    0.00000E+00         0.00000E+00        -0.52448E+08
 
   -0.53753E+08        -0.85294E+06         0.00000E+00
   -0.85294E+06        -0.60061E+08         0.00000E+00
    0.00000E+00         0.00000E+00        -0.52429E+08
 
   -0.53584E+08        -0.96201E+06         0.00000E+00
   -0.96201E+06        -0.60107E+08         0.00000E+00
    0.00000E+00         0.00000E+00        -0.52406E+08
 
   -0.53403E+08        -0.92981E+06         0.00000E+00
   -0.92981E+06        -0.60158E+08         0.00000E+00
    0.00000E+00         0.00000E+00        -0.52381E+08
 
   -0.53220E+08        -0.75436E+06         0.00000E+00
   -0.75436E+06        -0.60209E+08         0.00000E+00
    0.00000E+00         0.00000E+00        -0.52356E+08
 
   -0.53043E+08        -0.43542E+06         0.00000E+00
   -0.43542E+06        -0.60258E+08         0.00000E+00
    0.00000E+00         0.00000E+00        -0.52331E+08
 
   -0.52877E+08         0.25912E+05         0.00000E+00
    0.25912E+05        -0.60302E+08         0.00000E+00
    0.00000E+00         0.00000E+00        -0.52306E+08
 
   -0.52725E+08         0.62747E+06         0.00000E+00
    0.62747E+06        -0.60341E+08         0.00000E+00
    0.00000E+00         0.00000E+00        -0.52283E+08
 
   -0.52591E+08         0.13660E+07         0.00000E+00
    0.13660E+07        -0.60374E+08         0.00000E+00
    0.00000E+00         0.00000E+00        -0.52262E+08
 
   -0.52476E+08         0.22372E+07         0.00000E+00
    0.22372E+07        -0.60401E+08         0.00000E+00
    0.00000E+00         0.00000E+00        -0.52244E+08
 
   -0.52381E+08         0.32350E+07         0.00000E+00
    0.32350E+07        -0.60423E+08         0.00000E+00
    0.00000E+00         0.00000E+00        -0.52229E+08
 
   -0.52305E+08         0.43522E+07         0.00000E+00
    0.43522E+07        -0.60441E+08         0.00000E+00
    0.00000E+00         0.00000E+00        -0.52216E+08
 
   -0.52249E+08         0.55793E+07         0.00000E+00
    0.55793E+07        -0.60455E+08         0.00000E+00
    0.00000E+00         0.00000E+00        -0.52207E+08
 
   -0.52212E+08         0.69048E+07         0.00000E+00
    0.69048E+07        -0.60466E+08         0.00000E+00
    0.00000E+00         0.00000E+00        -0.52201E+08
 
   -0.54467E+08        -0.24505E+06         0.00000E+00
   -0.24505E+06        -0.60007E+08         0.00000E+00
    0.00000E+00         0.00000E+00        -0.51349E+08
 
   -0.54223E+08        -0.64134E+06         0.00000E+00
   -0.64134E+06        -0.60034E+08         0.00000E+00
    0.00000E+00         0.00000E+00        -0.51309E+08
 
   -0.53937E+08        -0.90218E+06         0.00000E+00
   -0.90218E+06        -0.60082E+08         0.00000E+00
    0.00000E+00         0.00000E+00        -0.51264E+08
 
   -0.53625E+08        -0.10202E+07         0.00000E+00
   -0.10202E+07        -0.60144E+08         0.00000E+00
    0.00000E+00         0.00000E+00        -0.51215E+08
 
   -0.53300E+08        -0.99180E+06         0.00000E+00
   -0.99180E+06        -0.60213E+08         0.00000E+00
    0.00000E+00         0.00000E+00        -0.51165E+08
 
   -0.52972E+08        -0.81626E+06         0.00000E+00
   -0.81626E+06        -0.60286E+08         0.00000E+00
    0.00000E+00         0.00000E+00        -0.51114E+08
 
   -0.52651E+08        -0.49464E+06         0.00000E+00
   -0.49464E+06        -0.60357E+08         0.00000E+00
    0.00000E+00         0.00000E+00        -0.51064E+08
 
   -0.52342E+08        -0.29190E+05         0.00000E+00
   -0.29190E+05        -0.60427E+08         0.00000E+00
    0.00000E+00         0.00000E+00        -0.51015E+08
 
   -0.52052E+08         0.57696E+06         0.00000E+00
    0.57696E+06        -0.60493E+08         0.00000E+00
    0.00000E+00         0.00000E+00        -0.50970E+08
 
   -0.51784E+08         0.13200E+07         0.00000E+00
    0.13200E+07        -0.60556E+08         0.00000E+00
    0.00000E+00         0.00000E+00        -0.50928E+08
 
   -0.51539E+08         0.21952E+07         0.00000E+00
    0.21952E+07        -0.60617E+08         0.00000E+00
    0.00000E+00         0.00000E+00        -0.50890E+08
 
   -0.51320E+08         0.31968E+07         0.00000E+00
    0.31968E+07        -0.60674E+08         0.00000E+00
    0.00000E+00         0.00000E+00        -0.50857E+08
 
   -0.51130E+08         0.43176E+07         0.00000E+00
    0.43176E+07        -0.60729E+08         0.00000E+00
    0.00000E+00         0.00000E+00        -0.50830E+08
 
   -0.50969E+08         0.55483E+07         0.00000E+00
    0.55483E+07        -0.60781E+08         0.00000E+00
    0.00000E+00         0.00000E+00        -0.50808E+08
 
   -0.50841E+08         0.68777E+07         0.00000E+00
    0.68777E+07        -0.60828E+08         0.00000E+00
    0.00000E+00         0.00000E+00        -0.50791E+08
 
   -0.54942E+08        -0.26223E+06         0.00000E+00
   -0.26223E+06        -0.60008E+08         0.00000E+00
    0.00000E+00         0.00000E+00        -0.50241E+08
 
   -0.54564E+08        -0.68602E+06         0.00000E+00
   -0.68602E+06        -0.60043E+08         0.00000E+00
    0.00000E+00         0.00000E+00        -0.50174E+08
 
   -0.54135E+08        -0.96573E+06         0.00000E+00
   -0.96573E+06        -0.60104E+08         0.00000E+00
    0.00000E+00         0.00000E+00        -0.50102E+08
 
   -0.53675E+08        -0.10952E+07         0.00000E+00
   -0.10952E+07        -0.60180E+08         0.00000E+00
    0.00000E+00         0.00000E+00        -0.50026E+08
 
   -0.53200E+08        -0.10726E+07         0.00000E+00
   -0.10726E+07        -0.60267E+08         0.00000E+00
    0.00000E+00         0.00000E+00        -0.49948E+08
 
   -0.52723E+08        -0.89871E+06         0.00000E+00
   -0.89871E+06        -0.60357E+08         0.00000E+00
    0.00000E+00         0.00000E+00        -0.49871E+08
 
   -0.52256E+08        -0.57638E+06         0.00000E+00
   -0.57638E+06        -0.60449E+08         0.00000E+00
    0.00000E+00         0.00000E+00        -0.49795E+08
 
   -0.51805E+08        -0.10922E+06         0.00000E+00
   -0.10922E+06        -0.60540E+08         0.00000E+00
    0.00000E+00         0.00000E+00        -0.49722E+08
 
   -0.51376E+08         0.49874E+06         0.00000E+00
    0.49874E+06        -0.60631E+08         0.00000E+00
    0.00000E+00         0.00000E+00        -0.49653E+08
 
   -0.50973E+08         0.12433E+07         0.00000E+00
    0.12433E+07        -0.60722E+08         0.00000E+00
    0.00000E+00         0.00000E+00        -0.49590E+08
 
   -0.50599E+08         0.21197E+07         0.00000E+00
    0.21197E+07        -0.60813E+08         0.00000E+00
    0.00000E+00         0.00000E+00        -0.49532E+08
 
   -0.50257E+08         0.31228E+07         0.00000E+00
    0.31228E+07        -0.60905E+08         0.00000E+00
    0.00000E+00         0.00000E+00        -0.49482E+08
 
   -0.49951E+08         0.42457E+07         0.00000E+00
    0.42457E+07        -0.60995E+08         0.00000E+00
    0.00000E+00         0.00000E+00        -0.49439E+08
 
   -0.49685E+08         0.54800E+07         0.00000E+00
    0.54800E+07        -0.61084E+08         0.00000E+00
    0.00000E+00         0.00000E+00        -0.49403E+08
 
   -0.49464E+08         0.68144E+07         0.00000E+00
    0.68144E+07        -0.61169E+08         0.00000E+00
    0.00000E+00         0.00000E+00        -0.49377E+08
 
   -0.55454E+08        -0.28351E+06         0.00000E+00
   -0.28351E+06        -0.60010E+08         0.00000E+00
    0.00000E+00         0.00000E+00        -0.49140E+08
 
   -0.54930E+08        -0.74059E+06         0.00000E+00
   -0.74059E+06        -0.60052E+08         0.00000E+00
    0.00000E+00         0.00000E+00        -0.49045E+08
 
   -0.54349E+08        -0.10425E+07         0.00000E+00
   -0.10425E+07        -0.60123E+08         0.00000E+00
    0.00000E+00         0.00000E+00        -0.48944E+08
 
   -0.53733E+08        -0.11853E+07         0.00000E+00
   -0.11853E+07        -0.60213E+08         0.00000E+00
    0.00000E+00         0.00000E+00        -0.48838E+08
 
   -0.53103E+08        -0.11694E+07         0.00000E+00
   -0.11694E+07        -0.60313E+08         0.00000E+00
    0.00000E+00         0.00000E+00        -0.48732E+08
 
   -0.52476E+08        -0.99829E+06         0.00000E+00
   -0.99829E+06        -0.60418E+08         0.00000E+00
    0.00000E+00         0.00000E+00        -0.48626E+08
 
   -0.51861E+08        -0.67682E+06         0.00000E+00
   -0.67682E+06        -0.60525E+08         0.00000E+00
    0.00000E+00         0.00000E+00        -0.48523E+08
 
   -0.51267E+08        -0.21023E+06         0.00000E+00
   -0.21023E+06        -0.60634E+08         0.00000E+00
    0.00000E+00         0.00000E+00        -0.48424E+08
 
   -0.50700E+08         0.39653E+06         0.00000E+00
    0.39653E+06        -0.60745E+08         0.00000E+00
    0.00000E+00         0.00000E+00        -0.48332E+08
 
   -0.50163E+08         0.11390E+07         0.00000E+00
    0.11390E+07        -0.60859E+08         0.00000E+00
    0.00000E+00         0.00000E+00        -0.48246E+08
 
   -0.49659E+08         0.20131E+07         0.00000E+00
    0.20131E+07        -0.60978E+08         0.00000E+00
    0.00000E+00         0.00000E+00        -0.48168E+08
 
   -0.49193E+08         0.30143E+07         0.00000E+00
    0.30143E+07        -0.61101E+08         0.00000E+00
    0.00000E+00         0.00000E+00        -0.48100E+08
 
   -0.48771E+08         0.41372E+07         0.00000E+00
    0.41372E+07        -0.61227E+08         0.00000E+00
    0.00000E+00         0.00000E+00        -0.48041E+08
 
   -0.48397E+08         0.53741E+07         0.00000E+00
    0.53741E+07        -0.61353E+08         0.00000E+00
    0.00000E+00         0.00000E+00        -0.47992E+08
 
   -0.48081E+08         0.67145E+07         0.00000E+00
    0.67145E+07        -0.61475E+08         0.00000E+00
    0.00000E+00         0.00000E+00        -0.47954E+08
 
   -0.56008E+08        -0.30862E+06         0.00000E+00
   -0.30862E+06        -0.60012E+08         0.00000E+00
    0.00000E+00         0.00000E+00        -0.48049E+08
 
   -0.55326E+08        -0.80402E+06         0.00000E+00
   -0.80402E+06        -0.60059E+08         0.00000E+00
    0.00000E+00         0.00000E+00        -0.47922E+08
 
   -0.54580E+08        -0.11304E+07         0.00000E+00
   -0.11304E+07        -0.60140E+08         0.00000E+00
    0.00000E+00         0.00000E+00        -0.47788E+08
 
   -0.53801E+08        -0.12871E+07         0.00000E+00
   -0.12871E+07        -0.60239E+08         0.00000E+00
    0.00000E+00         0.00000E+00        -0.47651E+08
 
   -0.53012E+08        -0.12779E+07         0.00000E+00
   -0.12779E+07        -0.60348E+08         0.00000E+00
    0.00000E+00         0.00000E+00        -0.47514E+08
 
   -0.52230E+08        -0.11098E+07         0.00000E+00
   -0.11098E+07        -0.60462E+08         0.00000E+00
    0.00000E+00         0.00000E+00        -0.47378E+08
 
   -0.51467E+08        -0.79030E+06         0.00000E+00
   -0.79030E+06        -0.60578E+08         0.00000E+00
    0.00000E+00         0.00000E+00        -0.47247E+08
 
   -0.50732E+08        -0.32664E+06         0.00000E+00
   -0.32664E+06        -0.60697E+08         0.00000E+00
    0.00000E+00         0.00000E+00        -0.47122E+08
 
   -0.50028E+08         0.27536E+06         0.00000E+00
    0.27536E+06        -0.60822E+08         0.00000E+00
    0.00000E+00         0.00000E+00        -0.47004E+08
 
   -0.49357E+08         0.10114E+07         0.00000E+00
    0.10114E+07        -0.60955E+08         0.00000E+00
    0.00000E+00         0.00000E+00        -0.46895E+08
 
   -0.48724E+08         0.18782E+07         0.00000E+00
    0.18782E+07        -0.61097E+08         0.00000E+00
    0.00000E+00         0.00000E+00        -0.46797E+08
 
   -0.48133E+08         0.28730E+07         0.00000E+00
    0.28730E+07        -0.61250E+08         0.00000E+00
    0.00000E+00         0.00000E+00        -0.46709E+08
 
   -0.47590E+08         0.39922E+07         0.00000E+00
    0.39922E+07        -0.61410E+08         0.00000E+00
    0.00000E+00         0.00000E+00        -0.46633E+08
 
   -0.47105E+08         0.52299E+07         0.00000E+00
    0.52299E+07        -0.61574E+08         0.00000E+00
    0.00000E+00         0.00000E+00        -0.46570E+08
 
   -0.46689E+08         0.65767E+07         0.00000E+00
    0.65767E+07        -0.61735E+08         0.00000E+00
    0.00000E+00         0.00000E+00        -0.46521E+08
 
   -0.56611E+08        -0.33711E+06         0.00000E+00
   -0.33711E+06        -0.60013E+08         0.00000E+00
    0.00000E+00         0.00000E+00        -0.46967E+08
 
   -0.55754E+08        -0.87460E+06         0.00000E+00
   -0.87460E+06        -0.60065E+08         0.00000E+00
    0.00000E+00         0.00000E+00        -0.46805E+08
 
   -0.54831E+08        -0.12262E+07         0.00000E+00
   -0.12262E+07        -0.60152E+08         0.00000E+00
    0.00000E+00         0.00000E+00        -0.46636E+08
 
   -0.53878E+08        -0.13955E+07         0.00000E+00
   -0.13955E+07        -0.60256E+08         0.00000E+00
    0.00000E+00         0.00000E+00        -0.46464E+08
 
   -0.52924E+08        -0.13916E+07         0.00000E+00
   -0.13916E+07        -0.60367E+08         0.00000E+00
    0.00000E+00         0.00000E+00        -0.46293E+08
 
   -0.51986E+08        -0.12258E+07         0.00000E+00
   -0.12258E+07        -0.60481E+08         0.00000E+00
    0.00000E+00         0.00000E+00        -0.46126E+08
 
   -0.51077E+08        -0.90914E+06         0.00000E+00
   -0.90914E+06        -0.60597E+08         0.00000E+00
    0.00000E+00         0.00000E+00        -0.45965E+08
 
   -0.50202E+08        -0.45108E+06         0.00000E+00
   -0.45108E+06        -0.60719E+08         0.00000E+00
    0.00000E+00         0.00000E+00        -0.45811E+08
 
   -0.49363E+08         0.14176E+06         0.00000E+00
    0.14176E+06        -0.60850E+08         0.00000E+00
    0.00000E+00         0.00000E+00        -0.45668E+08
 
   -0.48562E+08         0.86547E+06         0.00000E+00
    0.86547E+06        -0.60994E+08         0.00000E+00
    0.00000E+00         0.00000E+00        -0.45535E+08
 
   -0.47800E+08         0.17185E+07         0.00000E+00
    0.17185E+07        -0.61156E+08         0.00000E+00
    0.00000E+00         0.00000E+00        -0.45415E+08
 
   -0.47081E+08         0.27003E+07         0.00000E+00
    0.27003E+07        -0.61336E+08         0.00000E+00
    0.00000E+00         0.00000E+00        -0.45307E+08
 
   -0.46414E+08         0.38104E+07         0.00000E+00
    0.38104E+07        -0.61530E+08         0.00000E+00
    0.00000E+00         0.00000E+00        -0.45214E+08
 
   -0.45811E+08         0.50455E+07         0.00000E+00
    0.50455E+07        -0.61733E+08         0.00000E+00
    0.00000E+00         0.00000E+00        -0.45136E+08
 
   -0.45287E+08         0.63986E+07         0.00000E+00
    0.63986E+07        -0.61936E+08         0.00000E+00
    0.00000E+00         0.00000E+00        -0.45074E+08
 
   -0.57269E+08        -0.36837E+06         0.00000E+00
   -0.36837E+06        -0.60014E+08         0.00000E+00
    0.00000E+00         0.00000E+00        -0.45896E+08
 
   -0.56215E+08        -0.94992E+06         0.00000E+00
   -0.94992E+06        -0.60070E+08         0.00000E+00
    0.00000E+00         0.00000E+00        -0.45695E+08
 
   -0.55098E+08        -0.13250E+07         0.00000E+00
   -0.13250E+07        -0.60157E+08         0.00000E+00
    0.00000E+00         0.00000E+00        -0.45486E+08
 
   -0.53962E+08        -0.15037E+07         0.00000E+00
   -0.15037E+07        -0.60259E+08         0.00000E+00
    0.00000E+00         0.00000E+00        -0.45276E+08
 
   -0.52838E+08        -0.15018E+07         0.00000E+00
   -0.15018E+07        -0.60364E+08         0.00000E+00
    0.00000E+00         0.00000E+00        -0.45069E+08
 
   -0.51744E+08        -0.13366E+07         0.00000E+00
   -0.13366E+07        -0.60468E+08         0.00000E+00
    0.00000E+00         0.00000E+00        -0.44867E+08
 
   -0.50691E+08        -0.10234E+07         0.00000E+00
   -0.10234E+07        -0.60573E+08         0.00000E+00
    0.00000E+00         0.00000E+00        -0.44675E+08
 
   -0.49682E+08        -0.57414E+06         0.00000E+00
   -0.57414E+06        -0.60686E+08         0.00000E+00
    0.00000E+00         0.00000E+00        -0.44492E+08
 
   -0.48713E+08         0.38492E+04         0.00000E+00
    0.38492E+04        -0.60813E+08         0.00000E+00
    0.00000E+00         0.00000E+00        -0.44322E+08
 
   -0.47784E+08         0.70762E+06         0.00000E+00
    0.70762E+06        -0.60962E+08         0.00000E+00
    0.00000E+00         0.00000E+00        -0.44165E+08
 
   -0.46893E+08         0.15379E+07         0.00000E+00
    0.15379E+07        -0.61137E+08         0.00000E+00
    0.00000E+00         0.00000E+00        -0.44022E+08
 
   -0.46045E+08         0.24978E+07         0.00000E+00
    0.24978E+07        -0.61340E+08         0.00000E+00
    0.00000E+00         0.00000E+00        -0.43893E+08
 
   -0.45247E+08         0.35907E+07         0.00000E+00
    0.35907E+07        -0.61569E+08         0.00000E+00
    0.00000E+00         0.00000E+00        -0.43781E+08
 
   -0.44516E+08         0.48181E+07         0.00000E+00
    0.48181E+07        -0.61814E+08         0.00000E+00
    0.00000E+00         0.00000E+00        -0.43686E+08
 
   -0.43874E+08         0.61759E+07         0.00000E+00
    0.61759E+07        -0.62063E+08         0.00000E+00
    0.00000E+00         0.00000E+00        -0.43611E+08
 
   -0.57984E+08        -0.40164E+06         0.00000E+00
   -0.40164E+06        -0.60015E+08         0.00000E+00
    0.00000E+00         0.00000E+00        -0.44837E+08
 
   -0.56708E+08        -0.10268E+07         0.00000E+00
   -0.10268E+07        -0.60071E+08         0.00000E+00
    0.00000E+00         0.00000E+00        -0.44590E+08
 
   -0.55379E+08        -0.14205E+07         0.00000E+00
   -0.14205E+07        -0.60155E+08         0.00000E+00
    0.00000E+00         0.00000E+00        -0.44337E+08
 
   -0.54048E+08        -0.16023E+07         0.00000E+00
   -0.16023E+07        -0.60245E+08         0.00000E+00
    0.00000E+00         0.00000E+00        -0.44085E+08
 
   -0.52750E+08        -0.15970E+07         0.00000E+00
   -0.15970E+07        -0.60331E+08         0.00000E+00
    0.00000E+00         0.00000E+00        -0.43838E+08
 
   -0.51504E+08        -0.14296E+07         0.00000E+00
   -0.14296E+07        -0.60412E+08         0.00000E+00
    0.00000E+00         0.00000E+00        -0.43600E+08
 
   -0.50313E+08        -0.11206E+07         0.00000E+00
   -0.11206E+07        -0.60492E+08         0.00000E+00
    0.00000E+00         0.00000E+00        -0.43374E+08
 
   -0.49176E+08        -0.68439E+06         0.00000E+00
   -0.68439E+06        -0.60583E+08         0.00000E+00
    0.00000E+00         0.00000E+00        -0.43162E+08
 
   -0.48085E+08        -0.12858E+06         0.00000E+00
   -0.12858E+06        -0.60695E+08         0.00000E+00
    0.00000E+00         0.00000E+00        -0.42965E+08
 
   -0.47033E+08         0.54532E+06         0.00000E+00
    0.54532E+06        -0.60838E+08         0.00000E+00
    0.00000E+00         0.00000E+00        -0.42782E+08
 
   -0.46016E+08         0.13412E+07         0.00000E+00
    0.13412E+07        -0.61020E+08         0.00000E+00
    0.00000E+00         0.00000E+00        -0.42615E+08
 
   -0.45034E+08         0.22667E+07         0.00000E+00
    0.22667E+07        -0.61244E+08         0.00000E+00
    0.00000E+00         0.00000E+00        -0.42465E+08
 
   -0.44098E+08         0.33313E+07         0.00000E+00
    0.33313E+07        -0.61507E+08         0.00000E+00
    0.00000E+00         0.00000E+00        -0.42332E+08
 
   -0.43226E+08         0.45427E+07         0.00000E+00
    0.45427E+07        -0.61799E+08         0.00000E+00
    0.00000E+00         0.00000E+00        -0.42219E+08
 
   -0.42448E+08         0.59025E+07         0.00000E+00
    0.59025E+07        -0.62101E+08         0.00000E+00
    0.00000E+00         0.00000E+00        -0.42127E+08
 
   -0.58758E+08        -0.43598E+06         0.00000E+00
   -0.43598E+06        -0.60015E+08         0.00000E+00
    0.00000E+00         0.00000E+00        -0.43790E+08
 
   -0.57227E+08        -0.11007E+07         0.00000E+00
   -0.11007E+07        -0.60069E+08         0.00000E+00
    0.00000E+00         0.00000E+00        -0.43490E+08
 
   -0.55664E+08        -0.15039E+07         0.00000E+00
   -0.15039E+07        -0.60141E+08         0.00000E+00
    0.00000E+00         0.00000E+00        -0.43186E+08
 
   -0.54128E+08        -0.16784E+07         0.00000E+00
   -0.16784E+07        -0.60208E+08         0.00000E+00
    0.00000E+00         0.00000E+00        -0.42887E+08
 
   -0.52657E+08        -0.16622E+07         0.00000E+00
   -0.16622E+07        -0.60259E+08         0.00000E+00
    0.00000E+00         0.00000E+00        -0.42597E+08
 
   -0.51263E+08        -0.14894E+07         0.00000E+00
   -0.14894E+07        -0.60298E+08         0.00000E+00
    0.00000E+00         0.00000E+00        -0.42321E+08
 
   -0.49945E+08        -0.11861E+07         0.00000E+00
   -0.11861E+07        -0.60338E+08         0.00000E+00
    0.00000E+00         0.00000E+00        -0.42062E+08
 
   -0.48692E+08        -0.76857E+06         0.00000E+00
   -0.76857E+06        -0.60392E+08         0.00000E+00
    0.00000E+00         0.00000E+00        -0.41819E+08
 
   -0.47489E+08        -0.24431E+06         0.00000E+00
   -0.24431E+06        -0.60476E+08         0.00000E+00
    0.00000E+00         0.00000E+00        -0.41593E+08
 
   -0.46322E+08         0.38722E+06         0.00000E+00
    0.38722E+06        -0.60603E+08         0.00000E+00
    0.00000E+00         0.00000E+00        -0.41385E+08
 
   -0.45181E+08         0.11336E+07         0.00000E+00
    0.11336E+07        -0.60785E+08         0.00000E+00
    0.00000E+00         0.00000E+00        -0.41194E+08
 
   -0.44064E+08         0.20085E+07         0.00000E+00
    0.20085E+07        -0.61026E+08         0.00000E+00
    0.00000E+00         0.00000E+00        -0.41020E+08
 
   -0.42978E+08         0.30291E+07         0.00000E+00
    0.30291E+07        -0.61324E+08         0.00000E+00
    0.00000E+00         0.00000E+00        -0.40865E+08
 
   -0.41948E+08         0.42124E+07         0.00000E+00
    0.42124E+07        -0.61668E+08         0.00000E+00
    0.00000E+00         0.00000E+00        -0.40731E+08
 
   -0.41011E+08         0.55687E+07         0.00000E+00
    0.55687E+07        -0.62034E+08         0.00000E+00
    0.00000E+00         0.00000E+00        -0.40621E+08
 
   -0.59589E+08        -0.47022E+06         0.00000E+00
   -0.47022E+06        -0.60015E+08         0.00000E+00
    0.00000E+00         0.00000E+00        -0.42754E+08
 
   -0.57763E+08        -0.11655E+07         0.00000E+00
   -0.11655E+07        -0.60062E+08         0.00000E+00
    0.00000E+00         0.00000E+00        -0.42392E+08
 
   -0.55940E+08        -0.15626E+07         0.00000E+00
   -0.15626E+07        -0.60111E+08         0.00000E+00
    0.00000E+00         0.00000E+00        -0.42030E+08
 
   -0.54191E+08        -0.17150E+07         0.00000E+00
   -0.17150E+07        -0.60135E+08         0.00000E+00
    0.00000E+00         0.00000E+00        -0.41678E+08
 
   -0.52551E+08        -0.16783E+07         0.00000E+00
   -0.16783E+07        -0.60131E+08         0.00000E+00
    0.00000E+00         0.00000E+00        -0.41342E+08
 
   -0.51022E+08        -0.14975E+07         0.00000E+00
   -0.14975E+07        -0.60109E+08         0.00000E+00
    0.00000E+00         0.00000E+00        -0.41027E+08
 
   -0.49592E+08        -0.12031E+07         0.00000E+00
   -0.12031E+07        -0.60089E+08         0.00000E+00
    0.00000E+00         0.00000E+00        -0.40733E+08
 
   -0.48238E+08        -0.81231E+06         0.00000E+00
   -0.81231E+06        -0.60091E+08         0.00000E+00
    0.00000E+00         0.00000E+00        -0.40460E+08
 
   -0.46936E+08        -0.33128E+06         0.00000E+00
   -0.33128E+06        -0.60134E+08         0.00000E+00
    0.00000E+00         0.00000E+00        -0.40207E+08
 
   -0.45665E+08         0.24283E+06         0.00000E+00
    0.24283E+06        -0.60234E+08         0.00000E+00
    0.00000E+00         0.00000E+00        -0.39973E+08
 
   -0.44407E+08         0.92151E+06         0.00000E+00
    0.92151E+06        -0.60407E+08         0.00000E+00
    0.00000E+00         0.00000E+00        -0.39756E+08
 
   -0.43153E+08         0.17247E+07         0.00000E+00
    0.17247E+07        -0.60660E+08         0.00000E+00
    0.00000E+00         0.00000E+00        -0.39558E+08
 
   -0.41906E+08         0.26799E+07         0.00000E+00
    0.26799E+07        -0.60996E+08         0.00000E+00
    0.00000E+00         0.00000E+00        -0.39379E+08
 
   -0.40694E+08         0.38173E+07         0.00000E+00
    0.38173E+07        -0.61400E+08         0.00000E+00
    0.00000E+00         0.00000E+00        -0.39221E+08
 
   -0.39564E+08         0.51610E+07         0.00000E+00
    0.51610E+07        -0.61844E+08         0.00000E+00
    0.00000E+00         0.00000E+00        -0.39088E+08
 
   -0.60471E+08        -0.50274E+06         0.00000E+00
   -0.50274E+06        -0.60014E+08         0.00000E+00
    0.00000E+00         0.00000E+00        -0.41728E+08
 
   -0.58298E+08        -0.12113E+07         0.00000E+00
   -0.12113E+07        -0.60047E+08         0.00000E+00
    0.00000E+00         0.00000E+00        -0.41291E+08
 
   -0.56188E+08        -0.15774E+07         0.00000E+00
   -0.15774E+07        -0.60054E+08         0.00000E+00
    0.00000E+00         0.00000E+00        -0.40862E+08
 
   -0.54224E+08        -0.16881E+07         0.00000E+00
   -0.16881E+07        -0.60010E+08         0.00000E+00
    0.00000E+00         0.00000E+00        -0.40452E+08
 
   -0.52428E+08        -0.16220E+07         0.00000E+00
   -0.16220E+07        -0.59923E+08         0.00000E+00
    0.00000E+00         0.00000E+00        -0.40068E+08
 
   -0.50783E+08        -0.14337E+07         0.00000E+00
   -0.14337E+07        -0.59818E+08         0.00000E+00
    0.00000E+00         0.00000E+00        -0.39713E+08
 
   -0.49261E+08        -0.11551E+07         0.00000E+00
   -0.11551E+07        -0.59720E+08         0.00000E+00
    0.00000E+00         0.00000E+00        -0.39386E+08
 
   -0.47825E+08        -0.80184E+06         0.00000E+00
   -0.80184E+06        -0.59656E+08         0.00000E+00
    0.00000E+00         0.00000E+00        -0.39083E+08
 
   -0.46442E+08        -0.37786E+06         0.00000E+00
   -0.37786E+06        -0.59645E+08         0.00000E+00
    0.00000E+00         0.00000E+00        -0.38804E+08
 
   -0.45081E+08         0.12197E+06         0.00000E+00
    0.12197E+06        -0.59709E+08         0.00000E+00
    0.00000E+00         0.00000E+00        -0.38545E+08
 
   -0.43716E+08         0.71211E+06         0.00000E+00
    0.71211E+06        -0.59864E+08         0.00000E+00
    0.00000E+00         0.00000E+00        -0.38304E+08
 
   -0.42325E+08         0.14182E+07         0.00000E+00
    0.14182E+07        -0.60124E+08         0.00000E+00
    0.00000E+00         0.00000E+00        -0.38080E+08
 
   -0.40906E+08         0.22790E+07         0.00000E+00
    0.22790E+07        -0.60497E+08         0.00000E+00
    0.00000E+00         0.00000E+00        -0.37873E+08
 
   -0.39481E+08         0.33437E+07         0.00000E+00
    0.33437E+07        -0.60971E+08         0.00000E+00
    0.00000E+00         0.00000E+00        -0.37687E+08
 
   -0.38112E+08         0.46596E+07         0.00000E+00
    0.46596E+07        -0.61512E+08         0.00000E+00
    0.00000E+00         0.00000E+00        -0.37526E+08
 
   -0.61392E+08        -0.53088E+06         0.00000E+00
   -0.53088E+06        -0.60012E+08         0.00000E+00
    0.00000E+00         0.00000E+00        -0.40710E+08
 
   -0.58801E+08        -0.12203E+07         0.00000E+00
   -0.12203E+07        -0.60016E+08         0.00000E+00
    0.00000E+00         0.00000E+00        -0.40181E+08
 
   -0.56381E+08        -0.15180E+07         0.00000E+00
   -0.15180E+07        -0.59949E+08         0.00000E+00
    0.00000E+00         0.00000E+00        -0.39673E+08
 
   -0.54213E+08        -0.15656E+07         0.00000E+00
   -0.15656E+07        -0.59799E+08         0.00000E+00
    0.00000E+00         0.00000E+00        -0.39200E+08
 
   -0.52287E+08        -0.14668E+07         0.00000E+00
   -0.14668E+07        -0.59598E+08         0.00000E+00
    0.00000E+00         0.00000E+00        -0.38767E+08
 
   -0.50554E+08        -0.12787E+07         0.00000E+00
   -0.12787E+07        -0.59387E+08         0.00000E+00
    0.00000E+00         0.00000E+00        -0.38374E+08
 
   -0.48963E+08        -0.10284E+07         0.00000E+00
   -0.10284E+07        -0.59198E+08         0.00000E+00
    0.00000E+00         0.00000E+00        -0.38015E+08
 
   -0.47467E+08        -0.72674E+06         0.00000E+00
   -0.72674E+06        -0.59059E+08         0.00000E+00
    0.00000E+00         0.00000E+00        -0.37686E+08
 
   -0.46022E+08        -0.37497E+06         0.00000E+00
   -0.37497E+06        -0.58989E+08         0.00000E+00
    0.00000E+00         0.00000E+00        -0.37382E+08
 
   -0.44589E+08         0.33580E+05         0.00000E+00
    0.33580E+05        -0.59008E+08         0.00000E+00
    0.00000E+00         0.00000E+00        -0.37100E+08
 
   -0.43130E+08         0.51415E+06         0.00000E+00
    0.51415E+06        -0.59136E+08         0.00000E+00
    0.00000E+00         0.00000E+00        -0.36836E+08
 
   -0.41612E+08         0.10945E+07         0.00000E+00
    0.10945E+07        -0.59394E+08         0.00000E+00
    0.00000E+00         0.00000E+00        -0.36586E+08
 
   -0.40011E+08         0.18232E+07         0.00000E+00
    0.18232E+07        -0.59800E+08         0.00000E+00
    0.00000E+00         0.00000E+00        -0.36350E+08
 
   -0.38338E+08         0.27745E+07         0.00000E+00
    0.27745E+07        -0.60354E+08         0.00000E+00
    0.00000E+00         0.00000E+00        -0.36130E+08
 
   -0.36665E+08         0.40352E+07         0.00000E+00
    0.40352E+07        -0.61020E+08         0.00000E+00
    0.00000E+00         0.00000E+00        -0.35933E+08
 
   -0.62323E+08        -0.54833E+06         0.00000E+00
   -0.54833E+06        -0.60004E+08         0.00000E+00
    0.00000E+00         0.00000E+00        -0.39692E+08
 
   -0.59221E+08        -0.11559E+07         0.00000E+00
   -0.11559E+07        -0.59948E+08         0.00000E+00
    0.00000E+00         0.00000E+00        -0.39046E+08
 
   -0.56487E+08        -0.13339E+07         0.00000E+00
   -0.13339E+07        -0.59746E+08         0.00000E+00
    0.00000E+00         0.00000E+00        -0.38446E+08
 
   -0.54154E+08        -0.13077E+07         0.00000E+00
   -0.13077E+07        -0.59437E+08         0.00000E+00
    0.00000E+00         0.00000E+00        -0.37908E+08
 
   -0.52138E+08        -0.11893E+07         0.00000E+00
   -0.11893E+07        -0.59095E+08         0.00000E+00
    0.00000E+00         0.00000E+00        -0.37430E+08
 
   -0.50349E+08        -0.10204E+07         0.00000E+00
   -0.10204E+07        -0.58767E+08         0.00000E+00
    0.00000E+00         0.00000E+00        -0.37002E+08
 
   -0.48715E+08        -0.81684E+06         0.00000E+00
   -0.81684E+06        -0.58485E+08         0.00000E+00
    0.00000E+00         0.00000E+00        -0.36616E+08
 
   -0.47179E+08        -0.58353E+06         0.00000E+00
   -0.58353E+06        -0.58271E+08         0.00000E+00
    0.00000E+00         0.00000E+00        -0.36265E+08
 
   -0.45691E+08        -0.31895E+06         0.00000E+00
   -0.31895E+06        -0.58142E+08         0.00000E+00
    0.00000E+00         0.00000E+00        -0.35942E+08
 
   -0.44204E+08        -0.16530E+05         0.00000E+00
   -0.16530E+05        -0.58116E+08         0.00000E+00
    0.00000E+00         0.00000E+00        -0.35641E+08
 
   -0.42673E+08         0.33683E+06         0.00000E+00
    0.33683E+06        -0.58212E+08         0.00000E+00
    0.00000E+00         0.00000E+00        -0.35355E+08
 
   -0.41047E+08         0.76547E+06         0.00000E+00
    0.76547E+06        -0.58456E+08         0.00000E+00
    0.00000E+00         0.00000E+00        -0.35081E+08
 
   -0.39272E+08         0.13166E+07         0.00000E+00
    0.13166E+07        -0.58880E+08         0.00000E+00
    0.00000E+00         0.00000E+00        -0.34814E+08
 
   -0.37316E+08         0.20904E+07         0.00000E+00
    0.20904E+07        -0.59518E+08         0.00000E+00
    0.00000E+00         0.00000E+00        -0.34554E+08
 
   -0.35242E+08         0.32440E+07         0.00000E+00
    0.32440E+07        -0.60344E+08         0.00000E+00
    0.00000E+00         0.00000E+00        -0.34309E+08
 
   -0.63199E+08        -0.53263E+06         0.00000E+00
   -0.53263E+06        -0.59979E+08         0.00000E+00
    0.00000E+00         0.00000E+00        -0.38658E+08
 
   -0.59479E+08        -0.92973E+06         0.00000E+00
   -0.92973E+06        -0.59763E+08         0.00000E+00
    0.00000E+00         0.00000E+00        -0.37853E+08
 
   -0.56492E+08        -0.95362E+06         0.00000E+00
   -0.95362E+06        -0.59320E+08         0.00000E+00
    0.00000E+00         0.00000E+00        -0.37154E+08
 
   -0.54068E+08        -0.88536E+06         0.00000E+00
   -0.88536E+06        -0.58818E+08         0.00000E+00
    0.00000E+00         0.00000E+00        -0.36560E+08
 
   -0.52007E+08        -0.78298E+06         0.00000E+00
   -0.78298E+06        -0.58334E+08         0.00000E+00
    0.00000E+00         0.00000E+00        -0.36046E+08
 
   -0.50190E+08        -0.66217E+06         0.00000E+00
   -0.66217E+06        -0.57902E+08         0.00000E+00
    0.00000E+00         0.00000E+00        -0.35592E+08
 
   -0.48535E+08        -0.52745E+06         0.00000E+00
   -0.52745E+06        -0.57541E+08         0.00000E+00
    0.00000E+00         0.00000E+00        -0.35187E+08
 
   -0.46976E+08        -0.37899E+06         0.00000E+00
   -0.37899E+06        -0.57266E+08         0.00000E+00
    0.00000E+00         0.00000E+00        -0.34820E+08
 
   -0.45462E+08        -0.21442E+06         0.00000E+00
   -0.21442E+06        -0.57089E+08         0.00000E+00
    0.00000E+00         0.00000E+00        -0.34482E+08
 
   -0.43942E+08        -0.28927E+05         0.00000E+00
   -0.28927E+05        -0.57024E+08         0.00000E+00
    0.00000E+00         0.00000E+00        -0.34166E+08
 
   -0.42362E+08         0.18607E+06         0.00000E+00
    0.18607E+06        -0.57091E+08         0.00000E+00
    0.00000E+00         0.00000E+00        -0.33866E+08
 
   -0.40659E+08         0.44640E+06         0.00000E+00
    0.44640E+06        -0.57313E+08         0.00000E+00
    0.00000E+00         0.00000E+00        -0.33572E+08
 
   -0.38750E+08         0.78448E+06         0.00000E+00
    0.78448E+06        -0.57732E+08         0.00000E+00
    0.00000E+00         0.00000E+00        -0.33277E+08
 
   -0.36504E+08         0.12822E+07         0.00000E+00
    0.12822E+07        -0.58415E+08         0.00000E+00
    0.00000E+00         0.00000E+00        -0.32967E+08
 
   -0.33892E+08         0.22109E+07         0.00000E+00
    0.22109E+07        -0.59456E+08         0.00000E+00
    0.00000E+00         0.00000E+00        -0.32657E+08
 
   -0.63833E+08        -0.33579E+06         0.00000E+00
   -0.33579E+06        -0.59760E+08         0.00000E+00
    0.00000E+00         0.00000E+00        -0.37537E+08
 
   -0.59517E+08        -0.38442E+06         0.00000E+00
   -0.38442E+06        -0.59145E+08         0.00000E+00
    0.00000E+00         0.00000E+00        -0.36531E+08
 
   -0.56454E+08        -0.35244E+06         0.00000E+00
   -0.35244E+06        -0.58456E+08         0.00000E+00
    0.00000E+00         0.00000E+00        -0.35768E+08
 
   -0.54002E+08        -0.31549E+06         0.00000E+00
   -0.31549E+06        -0.57810E+08         0.00000E+00
    0.00000E+00         0.00000E+00        -0.35141E+08
 
   -0.51929E+08        -0.27418E+06         0.00000E+00
   -0.27418E+06        -0.57234E+08         0.00000E+00
    0.00000E+00         0.00000E+00        -0.34605E+08
 
   -0.50103E+08        -0.22989E+06         0.00000E+00
   -0.22989E+06        -0.56738E+08         0.00000E+00
    0.00000E+00         0.00000E+00        -0.34138E+08
 
   -0.48439E+08        -0.18254E+06         0.00000E+00
   -0.18254E+06        -0.56331E+08         0.00000E+00
    0.00000E+00         0.00000E+00        -0.33722E+08
 
   -0.46872E+08        -0.13148E+06         0.00000E+00
   -0.13148E+06        -0.56022E+08         0.00000E+00
    0.00000E+00         0.00000E+00        -0.33347E+08
 
   -0.45346E+08        -0.75598E+05         0.00000E+00
   -0.75598E+05        -0.55818E+08         0.00000E+00
    0.00000E+00         0.00000E+00        -0.33002E+08
 
   -0.43809E+08        -0.13131E+05         0.00000E+00
   -0.13131E+05        -0.55731E+08         0.00000E+00
    0.00000E+00         0.00000E+00        -0.32679E+08
 
   -0.42205E+08         0.58860E+05         0.00000E+00
    0.58860E+05        -0.55779E+08         0.00000E+00
    0.00000E+00         0.00000E+00        -0.32370E+08
 
   -0.40464E+08         0.14564E+06         0.00000E+00
    0.14564E+06        -0.55985E+08         0.00000E+00
    0.00000E+00         0.00000E+00        -0.32066E+08
 
   -0.38482E+08         0.25860E+06         0.00000E+00
    0.25860E+06        -0.56390E+08         0.00000E+00
    0.00000E+00         0.00000E+00        -0.31753E+08
 
   -0.36078E+08         0.42361E+06         0.00000E+00
    0.42361E+06        -0.57072E+08         0.00000E+00
    0.00000E+00         0.00000E+00        -0.31411E+08
 
   -0.32736E+08         0.81091E+06         0.00000E+00
    0.81091E+06        -0.58248E+08         0.00000E+00
    0.00000E+00         0.00000E+00        -0.30980E+08
 
SCALARS stressS double 
LOOKUP_TABLE default
  -57637318.6830016     
  -57370106.0690920     
  -57550868.6749827     
  -58267019.1916648     
  -59590825.2588784     
  -61187507.0274365     
  -62739437.9656289     
  -64045926.6659832     
  -65037033.7937723     
  -65867137.8486107     
  -66604128.1563293     
  -67289603.2557379     
  -67960114.1846654     
  -68662353.4011926     
  -69518373.4232151     
  -58075925.3387896     
  -58407296.3001742     
  -58796486.7355252     
  -59443626.0651264     
  -60353445.6382574     
  -61345529.2146048     
  -62344382.3442330     
  -63280689.5358283     
  -64163891.2770013     
  -64939449.5767542     
  -65640312.4055473     
  -66293613.3786492     
  -66924308.5822487     
  -67561026.2859181     
  -68178927.5669099     
  -58385351.2421946     
  -59172301.7800289     
  -59778371.4310225     
  -60204685.3558116     
  -60640244.7932455     
  -61193500.4602439     
  -61898450.7230685     
  -62660575.1993817     
  -63394936.3041197     
  -64085005.7623852     
  -64723587.2480264     
  -65320808.3697496     
  -65887314.4455969     
  -66422652.2146222     
  -66912616.7867105     
  -58639868.0045552     
  -59166075.9396102     
  -59544659.2599112     
  -59919219.4093692     
  -60356412.4627846     
  -60870535.1620030     
  -61448914.0699463     
  -62066572.8211188     
  -62687038.7647302     
  -63284038.2016500     
  -63848591.8505526     
  -64378039.1393393     
  -64871456.9719359     
  -65323605.7801874     
  -65720612.7737773     
  -58286192.8668976     
  -58725695.2098814     
  -59164366.6771886     
  -59570794.2434679     
  -59997297.6726644     
  -60460943.8277115     
  -60960242.2255006     
  -61481404.5483640     
  -62006645.0865693     
  -62519712.9932007     
  -63009464.0209706     
  -63469391.3588937     
  -63893959.0670322     
  -64275773.9608452     
  -64603975.8450381     
  -57970690.0839318     
  -58393365.4297301     
  -58794669.5402241     
  -59192337.5176897     
  -59594052.0888724     
  -60011993.9910181     
  -60447387.1748125     
  -60894084.5885687     
  -61342020.0817162     
  -61780677.2722534     
  -62200997.7722272     
  -62595609.0409229     
  -62957854.9433581     
  -63280470.6369326     
  -63554936.1154794     
  -57689625.5969592     
  -58070887.8720351     
  -58440682.5404286     
  -58804736.0264456     
  -59170702.7812912     
  -59542760.9055142     
  -59922192.4051705     
  -60305884.3630207     
  -60687927.1822504     
  -61061262.6952994     
  -61418883.9710221     
  -61754259.3514207     
  -62061148.7177874     
  -62333234.3346032     
  -62563990.5518121     
  -57425808.9577381     
  -57762605.7437185     
  -58091257.6142472     
  -58415689.8909173     
  -58739320.7509499     
  -59064643.7794385     
  -59391944.9616613     
  -59719342.7910389     
  -60043062.6781542     
  -60358232.5916450     
  -60659562.0625344     
  -60941731.9770993     
  -61199509.6192935     
  -61427759.1714284     
  -61621555.9799315     
  -57173907.2043136     
  -57462660.3103732     
  -57746527.6966496     
  -58026981.1916304     
  -58305721.0293405     
  -58583794.1998222     
  -58861159.3611320     
  -59136426.3996888     
  -59407014.7311170     
  -59669473.5332263     
  -59919863.1342193     
  -60154048.5410540     
  -60367888.5929122     
  -60557380.5816661     
  -60718848.7013444     
  -56928200.7349645     
  -57168198.7431066     
  -57405386.2901477     
  -57639978.0083124     
  -57872526.1263979     
  -58103381.9042401     
  -58332288.0946228     
  -58558203.9800037     
  -58779305.0679844     
  -58993133.4197138     
  -59196803.5545013     
  -59387208.2129330     
  -59561196.6222047     
  -59715740.3847197     
  -59848118.2212094     
  -56685240.4339452     
  -56877039.3820625     
  -57067126.2917690     
  -57255105.5947653     
  -57441007.5664377     
  -57624863.3489010     
  -57806406.1082402     
  -57984899.3892713     
  -58159095.9909875     
  -58327292.5976173     
  -58487444.6452322     
  -58637304.0085674     
  -58774561.0898915     
  -58896988.2410561     
  -59002590.7089853     
  -56443278.0152129     
  -56588033.1260681     
  -56731258.6386074     
  -56872480.9701199     
  -57011631.8375181     
  -57148737.5664556     
  -57283684.0407181     
  -57416071.5893406     
  -57545155.2735506     
  -57669857.0952213     
  -57788827.6611451     
  -57900536.4997469     
  -58003375.8444536     
  -58095769.8374305     
  -58176285.3137050     
  -56202056.6978826     
  -56300909.3857106     
  -56397656.7520572     
  -56492121.1005009     
  -56584457.0307675     
  -56674923.0135208     
  -56763702.5159243     
  -56850784.7608246     
  -56935905.8387680     
  -57018541.9768812     
  -57097942.4007583     
  -57173187.5001480     
  -57243260.7817381     
  -57307125.4086695     
  -57363798.5150915     
  -55962482.6203784     
  -56016150.0850745     
  -56066551.7744552     
  -56114072.6685903     
  -56159324.7980166     
  -56202980.8318831     
  -56245640.0407518     
  -56287735.7454143     
  -56329485.8192068     
  -56370881.7100019     
  -56411707.3282238     
  -56451577.6813976     
  -56489987.6245068     
  -56526361.9235204     
  -56560099.7662326     
  -55726330.7141999     
  -55734820.6288238     
  -55738478.2422526     
  -55738440.8588197     
  -55735949.4841431     
  -55732227.1177834     
  -55728380.7446194     
  -55725334.2580600     
  -55723793.6936744     
  -55724241.2603673     
  -55726951.2723319     
  -55732019.8327279     
  -55739398.9214562     
  -55748927.5848525     
  -55760353.2280139     
  -55495982.4046991     
  -55458395.1642841     
  -55414177.4937615     
  -55365358.0228157     
  -55313932.6393389     
  -55261774.0154507     
  -55210562.5827511     
  -55161743.9574083     
  -55116512.9121816     
  -55075820.1990287     
  -55040394.8697700     
  -55010774.2702178     
  -54987332.5647463     
  -54970300.1028866     
  -54959767.1441917     
  -55274197.8987988     
  -55188582.4835894     
  -55094476.7287636     
  -54994909.5069002     
  -54892726.4019955     
  -54790519.5423976     
  -54690582.4602035     
  -54594892.6683047     
  -54505119.3818629     
  -54422650.9401544     
  -54348633.5920266     
  -54284011.4581879     
  -54229558.5034017     
  -54185893.0880084     
  -54153468.2264474     
  -55063916.3632723     
  -54927155.0857995     
  -54780150.4072544     
  -54627027.7186713     
  -54471558.0712985     
  -54317098.6525096     
  -54166568.6779309     
  -54022460.0032286     
  -53886876.9162777     
  -53761594.9053465     
  -53648127.2662498     
  -53547787.1724973     
  -53461732.7210230     
  -53390983.3112534     
  -53336399.0654905     
  -54868076.7599212     
  -54675778.2878170     
  -54471764.3869790     
  -54261357.3095139     
  -54049321.0232269     
  -53839802.4438496     
  -53636327.7635811     
  -53441848.8052775     
  -53258827.8448524     
  -53089343.7697651     
  -52935202.7280199     
  -52798037.1261648     
  -52679374.7506718     
  -52580663.2608506     
  -52503239.8753238     
  -54689452.5534122     
  -54435832.0461173     
  -54169496.1654597     
  -53897087.1105637     
  -53624430.4915906     
  -53356466.7163155     
  -53097270.3062035     
  -52850147.1310517     
  -52617785.4433978     
  -52402433.5047642     
  -52206078.4688597     
  -52030600.3130236     
  -51877877.5950512     
  -51749826.0479856     
  -51648358.6765889     
  -54530493.9665033     
  -54208213.1300695     
  -53872916.1555037     
  -53532735.3121191     
  -53194635.7626685     
  -52864326.9858584     
  -52546316.9722087     
  -52244085.4682124     
  -51960335.7765548     
  -51697281.2407485     
  -51456923.7270759     
  -51241285.1216311     
  -51052563.7635047     
  -50893194.3999604     
  -50765798.0659873     
  -54393167.9833489     
  -53993095.6330123     
  -53580702.6122594     
  -53165862.7458940     
  -52756770.8978996     
  -52359833.2805825     
  -51979786.1039453     
  -51619994.1786002     
  -51282857.7173131     
  -50970257.4263827     
  -50683968.7420078     
  -50425997.7069934     
  -50198807.0636037     
  -50005409.7280919     
  -49849309.9109795     
  -54278785.4877426     
  -53789610.9731153     
  -53290241.4164081     
  -52792669.0126857     
  -52306416.2196888     
  -51838412.5794006     
  -51393262.5953040     
  -50973767.9777368     
  -50581572.2270076     
  -50217810.2327028     
  -49883689.4222455     
  -49580960.5482325     
  -49312248.5751522     
  -49081205.8907591     
  -48892452.0328704     
  -54187798.4527050     
  -53595378.0589484     
  -52997017.1180320     
  -52407404.3704824     
  -51837433.1353267     
  -51294166.9784087     
  -50781449.3249622     
  -50300847.8271177     
  -49852636.2666490     
  -49436662.9205257     
  -49053094.7068585     
  -48703060.4421885     
  -48389150.5687279     
  -48115703.5950515     
  -47888766.5194078     
  -54119482.6266812     
  -53405721.5850222     
  -52693640.7992610     
  -52001485.8518302     
  -51341334.1641167     
  -50719508.9924062     
  -50138018.0538180     
  -49596240.1369707     
  -49092302.6443923     
  -48624102.8122922     
  -48190149.9105379     
  -47790377.0899676     
  -47426962.9272992     
  -47104890.2044540     
  -46832074.0891498     
  -54071338.6438993     
  -53212189.5404163     
  -52368173.5591027     
  -51562172.5783292     
  -50806483.9473179     
  -50104789.6824008     
  -49455522.4207570     
  -48854604.3535059     
  -48297143.4424737     
  -47778364.8761538     
  -47294342.4041860     
  -46842983.9097978     
  -46425218.2119337     
  -46046439.0476629     
  -45716927.5897084     
  -54037839.4407348     
  -52999482.6416505     
  -52001074.2777453     
  -51070640.0077740     
  -50217273.8286467     
  -49438167.6501246     
  -48725508.5698114     
  -48070446.5712298     
  -47464292.0274832     
  -46898984.5138659     
  -46367414.5029024     
  -45864028.5468600     
  -45387135.9060969     
  -44941073.9877624     
  -44539442.8622495     
  -54006467.5417061     
  -52738356.3250602     
  -51559590.8937454     
  -50499668.1256371     
  -49554198.7255188     
  -48706092.8749580     
  -47939015.4741440     
  -47238446.7887740     
  -46591601.6127667     
  -45986933.1699505     
  -45413660.1108396     
  -44861656.2827887     
  -44321859.2997519     
  -43796029.3011888     
  -43298425.3542911     
  -53945337.5128618     
  -52364961.9807997     
  -50988580.9667600     
  -49815526.6712950     
  -48795678.7401977     
  -47894855.4631753     
  -47087528.1214642     
  -46353914.4177437     
  -45677662.8601549     
  -45044226.6751741     
  -44439488.6921954     
  -43848256.9824210     
  -43252954.9198127     
  -42628724.5507540     
  -42001659.8333971     
  -53710004.2920741     
  -51731007.5185901     
  -50226314.3792158     
  -48984329.7816909     
  -47922538.4983172     
  -46993009.5803095     
  -46164268.4817778     
  -45413305.6281107     
  -44721681.4960522     
  -44073097.4900868     
  -43451388.4629155     
  -42838128.9145236     
  -42208172.5667442     
  -41520342.1711106     
  -40654464.0597713     
SCALARS 2waySource double 
LOOKUP_TABLE default
  3.188584863821772E-005
  3.328412106559786E-005
  3.381698876562163E-005
  3.382210110457192E-005
  3.192981108323974E-005
  2.919466224084364E-005
  3.334408446992486E-005
  3.811970740039245E-005
  4.343059350905255E-005
  4.642623295644795E-005
  4.851850780978805E-005
  5.010686428729020E-005
  5.135908271840865E-005
  5.235673846401602E-005
  5.313654978529608E-005
  3.297057698292948E-005
  3.299267230695070E-005
  3.217031377557139E-005
  2.976625698516870E-005
  2.923602206167814E-005
  3.885483400673750E-005
  4.414792480106230E-005
  4.180477742035157E-005
  4.468814869983093E-005
  4.700913365703252E-005
  4.881989230605433E-005
  5.026779882539624E-005
  5.144785273284370E-005
  5.241195888885245E-005
  5.318576010031645E-005
  3.199791367453710E-005
  2.909818410777861E-005
  3.301139850965103E-005
  3.869732338728527E-005
  4.773268910138430E-005
  4.832104176257813E-005
  4.496979867546173E-005
  4.538529096083493E-005
  4.620925179467672E-005
  4.777241369056023E-005
  4.921284196339992E-005
  5.046874036431162E-005
  5.154589119830675E-005
  5.246304023475477E-005
  5.323274390053270E-005
  4.030966403695998E-005
  4.634267696678423E-005
  5.007978645338303E-005
  4.906750890402535E-005
  4.695436089057075E-005
  4.778567969963035E-005
  4.709129015656701E-005
  4.687867426148457E-005
  4.752489442106113E-005
  4.848306948477754E-005
  4.958691763358442E-005
  5.064263273794391E-005
  5.160696484417681E-005
  5.247049708878189E-005
  5.323545801328861E-005
  5.022974973694115E-005
  4.788703182538840E-005
  4.854880102195995E-005
  4.857483645976946E-005
  4.798995218488937E-005
  4.777101352865387E-005
  4.777709575395382E-005
  4.785641870201686E-005
  4.827784308764291E-005
  4.899609114784353E-005
  4.984416080735164E-005
  5.072773750994343E-005
  5.158435778774657E-005
  5.239257050694423E-005
  5.314838958886834E-005
  4.839789943434325E-005
  4.805337164389695E-005
  4.793684335643578E-005
  4.805958805332375E-005
  4.799274730498441E-005
  4.795043545940681E-005
  4.802776544480026E-005
  4.825494643846350E-005
  4.865332044633219E-005
  4.922789929998388E-005
  4.992351014852239E-005
  5.067407676817486E-005
  5.143757157648559E-005
  5.219153032303538E-005
  5.293082176563948E-005
  4.696631933494099E-005
  4.721994353139785E-005
  4.738718641120234E-005
  4.754799608367325E-005
  4.769263969669972E-005
  4.782578249498660E-005
  4.801389404074430E-005
  4.829521100792774E-005
  4.869061483548313E-005
  4.919763647879367E-005
  4.979469069018842E-005
  5.045000277249031E-005
  5.113620220194114E-005
  5.183796454127489E-005
  5.255185547132040E-005
  4.567742493962729E-005
  4.623617064604102E-005
  4.663159443842738E-005
  4.694649133198850E-005
  4.721540098799926E-005
  4.746958372038865E-005
  4.774188972324370E-005
  4.806490980014088E-005
  4.845729765912624E-005
  4.892363654540866E-005
  4.945595405280811E-005
  5.003992479199136E-005
  5.066158734209595E-005
  5.131245482973109E-005
  5.199199781371040E-005
  4.446935991934046E-005
  4.521335332267116E-005
  4.577637975299603E-005
  4.622048050488195E-005
  4.659261842690785E-005
  4.692788234338304E-005
  4.725752787289280E-005
  4.760735206181839E-005
  4.799563930783695E-005
  4.843107037252038E-005
  4.891421346168198E-005
  4.944070457455412E-005
  5.000527156430066E-005
  5.060511615408200E-005
  5.124212681078112E-005
  4.333022518141790E-005
  4.419128312655558E-005
  4.486330383417998E-005
  4.539949745623052E-005
  4.584390672322991E-005
  4.623271911410819E-005
  4.659576111546439E-005
  4.695733031836944E-005
  4.733540876391698E-005
  4.774143452199663E-005
  4.818102753391875E-005
  4.865593790755700E-005
  4.916645584608683E-005
  4.971366805928066E-005
  5.030112897588356E-005
  4.226204489195178E-005
  4.318515250961336E-005
  4.391834321017914E-005
  4.450749441187389E-005
  4.499284287666884E-005
  4.540866222480995E-005
  4.578371718802849E-005
  4.614148848728687E-005
  4.650023506892082E-005
  4.687311527830177E-005
  4.726885373680506E-005
  4.769294389743355E-005
  4.814917456725895E-005
  4.864110888400573E-005
  4.917324306261451E-005
  4.126480669155044E-005
  4.220442040751615E-005
  4.295724256241746E-005
  4.356337875704429E-005
  4.405915513491676E-005
  4.447650414280243E-005
  4.484279765195927E-005
  4.518088835987976E-005
  4.550920262828093E-005
  4.584199715606738E-005
  4.618988008603292E-005
  4.656062805160573E-005
  4.696017193907924E-005
  4.739356401845211E-005
  4.786573986932884E-005
  4.033747070703323E-005
  4.125486476810577E-005
  4.199093215375820E-005
  4.258123177174317E-005
  4.305873783986540E-005
  4.345309762680401E-005
  4.379027321523451E-005
  4.409242214055329E-005
  4.437794846929224E-005
  4.466171424208012E-005
  4.495543529224395E-005
  4.526824237251971E-005
  4.560733460990936E-005
  4.597860849706491E-005
  4.638714063531228E-005
  3.947903321285902E-005
  4.034045790099475E-005
  4.102729538716328E-005
  4.157172149887884E-005
  4.200402507070967E-005
  4.235189018816828E-005
  4.263997207763526E-005
  4.288970424213600E-005
  4.311928639937763E-005
  4.334382900962643E-005
  4.357563622950197E-005
  4.382459606877705E-005
  4.409861943879501E-005
  4.440404972518877E-005
  4.474595868389475E-005
  3.868924066047642E-005
  3.946431584168312E-005
  4.007229223375655E-005
  4.054297315675822E-005
  4.090463992092923E-005
  4.118340924608173E-005
  4.140281421791579E-005
  4.158358351389401E-005
  4.174358966203249E-005
  4.189793863986385E-005
  4.205917226915928E-005
  4.223754605317332E-005
  4.244133291628835E-005
  4.267709359295988E-005
  4.294985284985326E-005
  3.796879277069307E-005
  3.862921019128916E-005
  3.913057322613618E-005
  3.950116583136635E-005
  3.976788537451096E-005
  3.995568576661195E-005
  4.008719177916272E-005
  4.018248230976784E-005
  4.025902622118631E-005
  4.033174571298748E-005
  4.041317513251898E-005
  4.051367621349195E-005
  4.064166439088563E-005
  4.080379747730022E-005
  4.100507963682431E-005
  3.731926649280075E-005
  3.783774474937323E-005
  3.820578511092856E-005
  3.845086868733214E-005
  3.859906430847710E-005
  3.867454246755056E-005
  3.869923025829515E-005
  3.869261902047049E-005
  3.867171606769685E-005
  3.865111597840866E-005
  3.864315609890066E-005
  3.865811454080931E-005
  3.870440634866933E-005
  3.878873424101827E-005
  3.891615458675029E-005
  3.674288886440277E-005
  3.709231699935239E-005
  3.730064319690963E-005
  3.739516622987497E-005
  3.740162285425564E-005
  3.734374237820140E-005
  3.724293658004414E-005
  3.711814710168506E-005
  3.698584362914441E-005
  3.686014305181987E-005
  3.675300604419553E-005
  3.667446282246116E-005
  3.663282139940718E-005
  3.663481648021315E-005
  3.668566357835809E-005
  3.624223341072478E-005
  3.639493083317750E-005
  3.641682036123327E-005
  3.633559550646463E-005
  3.617712372553253E-005
  3.596499673892497E-005
  3.572024224209774E-005
  3.546122843537107E-005
  3.520374830411231E-005
  3.496123749486836E-005
  3.474506445520974E-005
  3.456483191820142E-005
  3.442863783255791E-005
  3.434325432578013E-005
  3.431419161698562E-005
  3.581987700370102E-005
  3.574689300378162E-005
  3.555466937456407E-005
  3.527189742911334E-005
  3.492504314120615E-005
  3.453782788756187E-005
  3.413094576087871E-005
  3.372205597178428E-005
  3.332601445949527E-005
  3.295526199473439E-005
  3.262027410431558E-005
  3.232999178438022E-005
  3.209217513740783E-005
  3.191364156958343E-005
  3.180035917034206E-005
  3.547803544050280E-005
  3.514839423769869E-005
  3.471276039760371E-005
  3.420155282663766E-005
  3.364236347828781E-005
  3.305927129305174E-005
  3.247255561512809E-005
  3.189884240710270E-005
  3.135158794242667E-005
  3.084174354764966E-005
  3.037845107596356E-005
  2.996966167931136E-005
  2.962261957800828E-005
  2.934418464214340E-005
  2.914097528983906E-005
  3.521818506128315E-005
  3.459794011049108E-005
  3.388716656762579E-005
  3.311902756396550E-005
  3.232290183155191E-005
  3.152338709108805E-005
  3.074003525786300E-005
  2.998780016326851E-005
  2.927795819889878E-005
  2.861920770512192E-005
  2.801871584184334E-005
  2.748298424741190E-005
  2.701848972260557E-005
  2.663210920678223E-005
  2.633133444900655E-005
  3.504066608918424E-005
  3.409153849791351E-005
  3.307034861685916E-005
  3.201457740600272E-005
  3.095627242664412E-005
  2.992054274744323E-005
  2.892546399801509E-005
  2.798315674686796E-005
  2.710146363018089E-005
  2.628569732534495E-005
  2.554015054157743E-005
  2.486924864434238E-005
  2.427835662841527E-005
  2.377430335844810E-005
  2.336570375262545E-005
  3.494423783479103E-005
  3.362143329963090E-005
  3.224933119715166E-005
  3.087234213702328E-005
  2.952633612770725E-005
  2.823644677528046E-005
  2.701766873832747E-005
  2.587728353276868E-005
  2.481779708247459E-005
  2.383955493785383E-005
  2.294276627990398E-005
  2.212895915897823E-005
  2.140191649263142E-005
  2.076829658588271E-005
  2.023807469968915E-005
  3.492549925451116E-005
  3.317389376126070E-005
  3.140253522042026E-005
  2.966726172283652E-005
  2.800898751731104E-005
  2.645101946242060E-005
  2.500198151535826E-005
  2.366106084055857E-005
  2.242279282634117E-005
  2.128053626858239E-005
  2.022889175266186E-005
  1.926537649883963E-005
  1.839159125603258E-005
  1.761373237977604E-005
  1.694332005067028E-005
  3.497787501328457E-005
  3.272486808940228E-005
  3.049386927324691E-005
  2.836010407259741E-005
  2.636934962831084E-005
  2.453750284823326E-005
  2.286047730994052E-005
  2.132462389804408E-005
  1.991349452003700E-005
  1.861128173700395E-005
  1.740503713721385E-005
  1.628681578182754E-005
  1.525487303350617E-005
  1.431473425801719E-005
  1.347899397852865E-005
  3.508946132434725E-005
  3.222988157557622E-005
  2.946111844334035E-005
  2.688999312443358E-005
  2.455939183260597E-005
  2.246301540489964E-005
  2.057318105902015E-005
  1.885857692527469E-005
  1.728932927027489E-005
  1.583877866963660E-005
  1.448445467450929E-005
  1.320972489494965E-005
  1.200846972611517E-005
  1.088340661227140E-005
  9.848750332860443E-006
  3.523414356295370E-005
  3.159794232453235E-005
  2.819231162324654E-005
  2.516659238535156E-005
  2.252067017045130E-005
  2.019189217646776E-005
  1.812067503031787E-005
  1.625556338304679E-005
  1.455292798082497E-005
  1.297507344490132E-005
  1.148876064213394E-005
  1.006519332240051E-005
  8.682910348828752E-006
  7.349059634041942E-006
  6.067592699271719E-006
  3.534024300121129E-005
  3.060155292963483E-005
  2.649048304458590E-005
  2.308527346166665E-005
  2.019476552943246E-005
  1.769267001475766E-005
  1.548781019693612E-005
  1.351182383165008E-005
  1.171009062741158E-005
  1.003598290989244E-005
  8.446638340721465E-006
  6.899463688013806E-006
  5.350317400455293E-006
  3.755855683608569E-006
  2.189598648001359E-006
  3.489582080013759E-005
  2.867299599077102E-005
  2.417048048505468E-005
  2.056081102549230E-005
  1.754171558928520E-005
  1.494630248912675E-005
  1.266740497631804E-005
  1.062822514908590E-005
  8.768717878785596E-006
  7.037628156870798E-006
  5.386587371898152E-006
  3.764049008411845E-006
  2.106669069124716E-006
  3.210488963257098E-007
 -1.728356073365106E-006
SCALARS poroP double 
LOOKUP_TABLE default
  7.052460860131792E-005
  6.242707701350891E-005
  5.039348476668968E-005
  3.844436208148390E-005
  2.943703176647999E-005
  2.281697187053470E-005
  1.818845732983578E-005
  1.730101598239487E-005
  1.728218947382811E-005
  1.726199749661368E-005
  1.724051775498202E-005
  1.721783699207408E-005
  1.719405127553460E-005
  1.716926634746174E-005
  1.714359777604710E-005
  5.068472630854069E-005
  4.070751826944926E-005
  3.231890241635652E-005
  2.612298284612660E-005
  2.114903071184453E-005
  1.783285405868594E-005
  1.731812228137970E-005
  1.730077441206317E-005
  1.728200348731061E-005
  1.726187888567586E-005
  1.724047854002034E-005
  1.721788907561339E-005
  1.719420612026467E-005
  1.716953464018307E-005
  1.714398949122742E-005
  3.106265384412389E-005
  2.328245597272964E-005
  1.935127814939222E-005
  1.756895417485548E-005
  1.734761311305180E-005
  1.733333930209867E-005
  1.731754682173406E-005
  1.730029058864660E-005
  1.728163333145484E-005
  1.726164554167124E-005
  1.724040551065004E-005
  1.721799953170155E-005
  1.719452235623408E-005
  1.717007754077508E-005
  1.714477793582981E-005
  1.904988814737992E-005
  1.737966342957679E-005
  1.737023367527094E-005
  1.735917967043508E-005
  1.734653800316217E-005
  1.733235264950578E-005
  1.731667491724314E-005
  1.729956318733123E-005
  1.728108264360455E-005
  1.726130513563286E-005
  1.724030925681627E-005
  1.721818068569731E-005
  1.719501278929677E-005
  1.717090691367461E-005
  1.714597282097394E-005
  1.738567300248353E-005
  1.737794352526463E-005
  1.736857391719880E-005
  1.735759857856283E-005
  1.734505966187412E-005
  1.733100675583926E-005
  1.731549618046929E-005
  1.729859026999940E-005
  1.728035684386993E-005
  1.726086900782918E-005
  1.724020532812170E-005
  1.721845052793550E-005
  1.719569584648934E-005
  1.717203971742182E-005
  1.714758844688403E-005
  1.738331007806538E-005
  1.737565573416902E-005
  1.736638124629115E-005
  1.735552631235572E-005
  1.734313919760793E-005
  1.732927551101895E-005
  1.731399677640763E-005
  1.729736920164185E-005
  1.727946292201371E-005
  1.726035180320749E-005
  1.724011379383956E-005
  1.721883188703732E-005
  1.719659494969164E-005
  1.717349811569530E-005
  1.714964363888882E-005
  1.738024194619104E-005
  1.737270408321335E-005
  1.736357425458848E-005
  1.735289728947110E-005
  1.734072744765792E-005
  1.732712603583995E-005
  1.731215922110557E-005
  1.729589632072410E-005
  1.727840889226472E-005
  1.725977067100099E-005
  1.724005823042078E-005
  1.721935221339933E-005
  1.719773848220239E-005
  1.717530872952782E-005
  1.715216136562826E-005
  1.737633377693370E-005
  1.736897002733603E-005
  1.736005293017718E-005
  1.734963138597175E-005
  1.733776458052728E-005
  1.732451827889079E-005
  1.730996183582175E-005
  1.729416616276831E-005
  1.727720280007899E-005
  1.725914409342712E-005
  1.724006447755236E-005
  1.722004171671448E-005
  1.719915803103425E-005
  1.717750187683075E-005
  1.715516846106372E-005
  1.737142315731592E-005
  1.736431148257931E-005
  1.735569796808905E-005
  1.734563337987522E-005
  1.733417951708629E-005
  1.732140422736227E-005
  1.730737763257202E-005
  1.729216996619065E-005
  1.727585087221227E-005
  1.725848993838990E-005
  1.724015845597992E-005
  1.722093106266631E-005
  1.720088670207811E-005
  1.718011072688951E-005
  1.715869549395763E-005
  1.736531959347241E-005
  1.735856244857038E-005
  1.735037039885174E-005
  1.734079238331288E-005
  1.732988901001539E-005
  1.731772649399297E-005
  1.730437233825983E-005
  1.728989320269887E-005
  1.727435465997636E-005
  1.725782232055724E-005
  1.724036367748977E-005
  1.722204994958160E-005
  1.720295766383019E-005
  1.718316988710049E-005
  1.716277629610865E-005
  1.735780551660118E-005
  1.735153367791366E-005
  1.734391172654476E-005
  1.733498127029262E-005
  1.732479618628613E-005
  1.731341595984630E-005
  1.730090122005809E-005
  1.728731181469607E-005
  1.727270708606140E-005
  1.725714757584020E-005
  1.724069700334123E-005
  1.722342374626668E-005
  1.720540251536606E-005
  1.718671459382287E-005
  1.716744751483737E-005
  1.734863888914465E-005
  1.734301477516997E-005
  1.733614474544213E-005
  1.732805590991624E-005
  1.731878824809555E-005
  1.730838813743170E-005
  1.729690442448752E-005
  1.728438692491696E-005
  1.727088699977985E-005
  1.725645967341682E-005
  1.724116545151216E-005
  1.722507080429009E-005
  1.720824874754958E-005
  1.719077910933425E-005
  1.717274810068595E-005
  1.733755980022905E-005
  1.733277797419927E-005
  1.732687496258471E-005
  1.731985412148175E-005
  1.731173308376012E-005
  1.730253798023551E-005
  1.729230067313867E-005
  1.728105805807136E-005
  1.726885265638456E-005
  1.725573438525250E-005
  1.724176129609388E-005
  1.722699826973206E-005
  1.721151703032026E-005
  1.719539590676917E-005
  1.717871902461596E-005
  1.732430149067340E-005
  1.732058507255718E-005
  1.731589276083050E-005
  1.731019406074562E-005
  1.730347463566829E-005
  1.729573303947080E-005
  1.728697930856138E-005
  1.727723506384854E-005
  1.726653406956613E-005
  1.725492237935362E-005
  1.724245602371417E-005
  1.722919848735802E-005
  1.721521973944878E-005
  1.720059450545572E-005
  1.718540220413778E-005
  1.730860644183813E-005
  1.730619776000483E-005
  1.730297738187693E-005
  1.729887225840429E-005
  1.729382698553902E-005
  1.728780517646306E-005
  1.728079084977804E-005
  1.727278885652000E-005
  1.726382487937660E-005
  1.725394243915711E-005
  1.724319568278425E-005
  1.723164581469365E-005
  1.721935816437346E-005
  1.720639922851202E-005
  1.719283864429587E-005
  1.729024854904489E-005
  1.728939167944931E-005
  1.728790318623915E-005
  1.728566284635449E-005
  1.728256800447473E-005
  1.727854135855668E-005
  1.727353691831866E-005
  1.726754183789130E-005
  1.726057459412985E-005
  1.725267562376700E-005
  1.724389630460560E-005
  1.723429272091827E-005
  1.722391909701417E-005
  1.721282600913387E-005
  1.720106560469616E-005
  1.726906083458253E-005
  1.726997511370769E-005
  1.727044930622951E-005
  1.727031947222434E-005
  1.726943511935793E-005
  1.726767515917967E-005
  1.726496044686728E-005
  1.726125901098547E-005
  1.725658046090110E-005
  1.725095911229486E-005
  1.724443966608707E-005
  1.723706571297816E-005
  1.722887033613030E-005
  1.721987751579537E-005
  1.721011243798454E-005
  1.724496640808532E-005
  1.724781213303306E-005
  1.725041497598542E-005
  1.725258264363042E-005
  1.725412564907525E-005
  1.725488211331241E-005
  1.725473860757679E-005
  1.725364061954893E-005
  1.725158167744187E-005
  1.724858161179643E-005
  1.724466846524476E-005
  1.723985970816189E-005
  1.723415380992671E-005
  1.722753619532418E-005
  1.721999533216589E-005
  1.721800805908049E-005
  1.722284885361176E-005
  1.722764205418493E-005
  1.723219640772985E-005
  1.723630624368807E-005
  1.723978238187490E-005
  1.724248137590344E-005
  1.724431847494788E-005
  1.724525509254476E-005
  1.724527865966317E-005
  1.724437940158735E-005
  1.724252858240657E-005
  1.723967483098528E-005
  1.723575451591344E-005
  1.723071133794567E-005
  1.718836743625592E-005
  1.719513827041942E-005
  1.720204400640691E-005
  1.720893727727451E-005
  1.721563709376950E-005
  1.722195801611897E-005
  1.722774007161193E-005
  1.723285751221140E-005
  1.723721271553598E-005
  1.724072537505023E-005
  1.724331132721939E-005
  1.724487029013720E-005
  1.724528735283819E-005
  1.724444350101386E-005
  1.724223265575046E-005
  1.715636908237727E-005
  1.716485466993945E-005
  1.717363403632137E-005
  1.718265426617797E-005
  1.719181651405498E-005
  1.720099291205299E-005
  1.721003539525334E-005
  1.721876998339199E-005
  1.722700099165582E-005
  1.723452168401367E-005
  1.724112264380004E-005
  1.724660288678740E-005
  1.725077397555525E-005
  1.725346012355117E-005
  1.725450199839484E-005
  1.712245860071856E-005
  1.713229235336610E-005
  1.714254422089466E-005
  1.715331205547144E-005
  1.716464493589179E-005
  1.717654307996975E-005
  1.718891724853720E-005
  1.720154887497622E-005
  1.721409952804561E-005
  1.722616571318695E-005
  1.723735430724064E-005
  1.724733070992775E-005
  1.725582203578847E-005
  1.726259426586653E-005
  1.726742987836648E-005
  1.708715843584720E-005
  1.709783423710675E-005
  1.710902616886258E-005
  1.712102670554109E-005
  1.713410117691336E-005
  1.714844346640040E-005
  1.716406922931099E-005
  1.718072908661364E-005
  1.719792355527310E-005
  1.721501552979661E-005
  1.723137945612960E-005
  1.724650138410108E-005
  1.725999511494781E-005
  1.727155414419516E-005
  1.728089046282933E-005
  1.705099507731419E-005
  1.706189822000057E-005
  1.707341493564507E-005
  1.708607673642326E-005
  1.710041632513960E-005
  1.711683798442272E-005
  1.713544967077891E-005
  1.715598594197577E-005
  1.717785705607749E-005
  1.720026403418117E-005
  1.722234951152960E-005
  1.724335268820704E-005
  1.726269347204727E-005
  1.727994177594577E-005
  1.729471476210024E-005
  1.701440581648175E-005
  1.702484290535329E-005
  1.703606815096852E-005
  1.704889934873040E-005
  1.706413303737264E-005
  1.708227574001000E-005
  1.710340307773978E-005
  1.712726509128848E-005
  1.715337022113241E-005
  1.718098884678915E-005
  1.720916389418334E-005
  1.723683891206092E-005
  1.726308197478725E-005
  1.728720412808422E-005
  1.730867703154184E-005
  1.697777622056609E-005
  1.698691091249391E-005
  1.699731775015160E-005
  1.701011267448744E-005
  1.702613641939738E-005
  1.704566870702960E-005
  1.706863833188903E-005
  1.709490118408453E-005
  1.712427188651445E-005
  1.715639005924119E-005
  1.719053511155994E-005
  1.722553286530901E-005
  1.725995068536745E-005
  1.729254611979721E-005
  1.732246307402935E-005
  1.694134410755412E-005
  1.694826207800791E-005
  1.695762348100351E-005
  1.697065299115817E-005
  1.698752784066573E-005
  1.700802598600635E-005
  1.703204310971289E-005
  1.705964312201018E-005
  1.709100214064161E-005
  1.712627334960114E-005
  1.716536275617465E-005
  1.720760947786930E-005
  1.725145537507282E-005
  1.729468906176449E-005
  1.733561882095803E-005
  1.690510895676398E-005
  1.690911206747088E-005
  1.691808712475608E-005
  1.693174448337940E-005
  1.694920611268826E-005
  1.697010548678472E-005
  1.699446132571027E-005
  1.702252162713739E-005
  1.705468753182461E-005
  1.709150729928576E-005
  1.713361300950727E-005
  1.718146218956786E-005
  1.723477693007405E-005
  1.729137427450708E-005
  1.734730851599110E-005
  1.686856834362043E-005
  1.687112735708035E-005
  1.688045732373231E-005
  1.689411194623182E-005
  1.691149226689667E-005
  1.693231462939055E-005
  1.695659594453702E-005
  1.698459952453264E-005
  1.701679546554905E-005
  1.705390639167915E-005
  1.709699894964926E-005
  1.714752520229904E-005
  1.720721319016955E-005
  1.727759877302234E-005
  1.735549642986620E-005
  1.683708670098481E-005
  1.683766488424352E-005
  1.684494388904476E-005
  1.685757480205662E-005
  1.687442123012043E-005
  1.689495147569277E-005
  1.691900613534899E-005
  1.694674262339213E-005
  1.697862297191009E-005
  1.701542748049198E-005
  1.705832222999823E-005
  1.710912040985768E-005
  1.717079501953503E-005
  1.724841760257631E-005
  1.735255490737571E-005
SCALARS elementIsPlast double 
LOOKUP_TABLE default
   1.00000000000000     
   1.00000000000000     
   1.00000000000000     
   1.00000000000000     
   1.00000000000000     
   1.00000000000000     
   1.00000000000000     
  0.000000000000000E+000
  0.000000000000000E+000
  0.000000000000000E+000
  0.000000000000000E+000
  0.000000000000000E+000
  0.000000000000000E+000
  0.000000000000000E+000
  0.000000000000000E+000
   1.00000000000000     
   1.00000000000000     
   1.00000000000000     
   1.00000000000000     
   1.00000000000000     
   1.00000000000000     
  0.000000000000000E+000
  0.000000000000000E+000
  0.000000000000000E+000
  0.000000000000000E+000
  0.000000000000000E+000
  0.000000000000000E+000
  0.000000000000000E+000
  0.000000000000000E+000
  0.000000000000000E+000
   1.00000000000000     
   1.00000000000000     
   1.00000000000000     
   1.00000000000000     
  0.000000000000000E+000
  0.000000000000000E+000
  0.000000000000000E+000
  0.000000000000000E+000
  0.000000000000000E+000
  0.000000000000000E+000
  0.000000000000000E+000
  0.000000000000000E+000
  0.000000000000000E+000
  0.000000000000000E+000
  0.000000000000000E+000
   1.00000000000000     
  0.000000000000000E+000
  0.000000000000000E+000
  0.000000000000000E+000
  0.000000000000000E+000
  0.000000000000000E+000
  0.000000000000000E+000
  0.000000000000000E+000
  0.000000000000000E+000
  0.000000000000000E+000
  0.000000000000000E+000
  0.000000000000000E+000
  0.000000000000000E+000
  0.000000000000000E+000
  0.000000000000000E+000
  0.000000000000000E+000
  0.000000000000000E+000
  0.000000000000000E+000
  0.000000000000000E+000
  0.000000000000000E+000
  0.000000000000000E+000
  0.000000000000000E+000
  0.000000000000000E+000
  0.000000000000000E+000
  0.000000000000000E+000
  0.000000000000000E+000
  0.000000000000000E+000
  0.000000000000000E+000
  0.000000000000000E+000
  0.000000000000000E+000
  0.000000000000000E+000
  0.000000000000000E+000
  0.000000000000000E+000
  0.000000000000000E+000
  0.000000000000000E+000
  0.000000000000000E+000
  0.000000000000000E+000
  0.000000000000000E+000
  0.000000000000000E+000
  0.000000000000000E+000
  0.000000000000000E+000
  0.000000000000000E+000
  0.000000000000000E+000
  0.000000000000000E+000
  0.000000000000000E+000
  0.000000000000000E+000
  0.000000000000000E+000
  0.000000000000000E+000
  0.000000000000000E+000
  0.000000000000000E+000
  0.000000000000000E+000
  0.000000000000000E+000
  0.000000000000000E+000
  0.000000000000000E+000
  0.000000000000000E+000
  0.000000000000000E+000
  0.000000000000000E+000
  0.000000000000000E+000
  0.000000000000000E+000
  0.000000000000000E+000
  0.000000000000000E+000
  0.000000000000000E+000
  0.000000000000000E+000
  0.000000000000000E+000
  0.000000000000000E+000
  0.000000000000000E+000
  0.000000000000000E+000
  0.000000000000000E+000
  0.000000000000000E+000
  0.000000000000000E+000
  0.000000000000000E+000
  0.000000000000000E+000
  0.000000000000000E+000
  0.000000000000000E+000
  0.000000000000000E+000
  0.000000000000000E+000
  0.000000000000000E+000
  0.000000000000000E+000
  0.000000000000000E+000
  0.000000000000000E+000
  0.000000000000000E+000
  0.000000000000000E+000
  0.000000000000000E+000
  0.000000000000000E+000
  0.000000000000000E+000
  0.000000000000000E+000
  0.000000000000000E+000
  0.000000000000000E+000
  0.000000000000000E+000
  0.000000000000000E+000
  0.000000000000000E+000
  0.000000000000000E+000
  0.000000000000000E+000
  0.000000000000000E+000
  0.000000000000000E+000
  0.000000000000000E+000
  0.000000000000000E+000
  0.000000000000000E+000
  0.000000000000000E+000
  0.000000000000000E+000
  0.000000000000000E+000
  0.000000000000000E+000
  0.000000000000000E+000
  0.000000000000000E+000
  0.000000000000000E+000
  0.000000000000000E+000
  0.000000000000000E+000
  0.000000000000000E+000
  0.000000000000000E+000
  0.000000000000000E+000
  0.000000000000000E+000
  0.000000000000000E+000
  0.000000000000000E+000
  0.000000000000000E+000
  0.000000000000000E+000
  0.000000000000000E+000
  0.000000000000000E+000
  0.000000000000000E+000
  0.000000000000000E+000
  0.000000000000000E+000
  0.000000000000000E+000
  0.000000000000000E+000
  0.000000000000000E+000
  0.000000000000000E+000
  0.000000000000000E+000
  0.000000000000000E+000
  0.000000000000000E+000
  0.000000000000000E+000
  0.000000000000000E+000
  0.000000000000000E+000
  0.000000000000000E+000
  0.000000000000000E+000
  0.000000000000000E+000
  0.000000000000000E+000
  0.000000000000000E+000
  0.000000000000000E+000
  0.000000000000000E+000
  0.000000000000000E+000
  0.000000000000000E+000
  0.000000000000000E+000
  0.000000000000000E+000
  0.000000000000000E+000
  0.000000000000000E+000
  0.000000000000000E+000
  0.000000000000000E+000
  0.000000000000000E+000
  0.000000000000000E+000
  0.000000000000000E+000
  0.000000000000000E+000
  0.000000000000000E+000
  0.000000000000000E+000
  0.000000000000000E+000
  0.000000000000000E+000
  0.000000000000000E+000
  0.000000000000000E+000
  0.000000000000000E+000
  0.000000000000000E+000
  0.000000000000000E+000
  0.000000000000000E+000
  0.000000000000000E+000
  0.000000000000000E+000
  0.000000000000000E+000
  0.000000000000000E+000
  0.000000000000000E+000
  0.000000000000000E+000
  0.000000000000000E+000
  0.000000000000000E+000
  0.000000000000000E+000
  0.000000000000000E+000
  0.000000000000000E+000
  0.000000000000000E+000
  0.000000000000000E+000
  0.000000000000000E+000
  0.000000000000000E+000
  0.000000000000000E+000
  0.000000000000000E+000
  0.000000000000000E+000
  0.000000000000000E+000
  0.000000000000000E+000
  0.000000000000000E+000
  0.000000000000000E+000
  0.000000000000000E+000
  0.000000000000000E+000
  0.000000000000000E+000
  0.000000000000000E+000
  0.000000000000000E+000
  0.000000000000000E+000
  0.000000000000000E+000
  0.000000000000000E+000
  0.000000000000000E+000
  0.000000000000000E+000
  0.000000000000000E+000
  0.000000000000000E+000
  0.000000000000000E+000
  0.000000000000000E+000
  0.000000000000000E+000
  0.000000000000000E+000
  0.000000000000000E+000
  0.000000000000000E+000
  0.000000000000000E+000
  0.000000000000000E+000
  0.000000000000000E+000
  0.000000000000000E+000
  0.000000000000000E+000
  0.000000000000000E+000
  0.000000000000000E+000
  0.000000000000000E+000
  0.000000000000000E+000
  0.000000000000000E+000
  0.000000000000000E+000
  0.000000000000000E+000
  0.000000000000000E+000
  0.000000000000000E+000
  0.000000000000000E+000
  0.000000000000000E+000
  0.000000000000000E+000
  0.000000000000000E+000
  0.000000000000000E+000
  0.000000000000000E+000
  0.000000000000000E+000
  0.000000000000000E+000
  0.000000000000000E+000
  0.000000000000000E+000
  0.000000000000000E+000
  0.000000000000000E+000
  0.000000000000000E+000
  0.000000000000000E+000
  0.000000000000000E+000
  0.000000000000000E+000
  0.000000000000000E+000
  0.000000000000000E+000
  0.000000000000000E+000
  0.000000000000000E+000
  0.000000000000000E+000
  0.000000000000000E+000
  0.000000000000000E+000
  0.000000000000000E+000
  0.000000000000000E+000
  0.000000000000000E+000
  0.000000000000000E+000
  0.000000000000000E+000
  0.000000000000000E+000
  0.000000000000000E+000
  0.000000000000000E+000
  0.000000000000000E+000
  0.000000000000000E+000
  0.000000000000000E+000
  0.000000000000000E+000
  0.000000000000000E+000
  0.000000000000000E+000
  0.000000000000000E+000
  0.000000000000000E+000
  0.000000000000000E+000
  0.000000000000000E+000
  0.000000000000000E+000
  0.000000000000000E+000
  0.000000000000000E+000
  0.000000000000000E+000
  0.000000000000000E+000
  0.000000000000000E+000
  0.000000000000000E+000
  0.000000000000000E+000
  0.000000000000000E+000
  0.000000000000000E+000
  0.000000000000000E+000
  0.000000000000000E+000
  0.000000000000000E+000
  0.000000000000000E+000
  0.000000000000000E+000
  0.000000000000000E+000
  0.000000000000000E+000
  0.000000000000000E+000
  0.000000000000000E+000
  0.000000000000000E+000
  0.000000000000000E+000
  0.000000000000000E+000
  0.000000000000000E+000
  0.000000000000000E+000
  0.000000000000000E+000
  0.000000000000000E+000
  0.000000000000000E+000
  0.000000000000000E+000
  0.000000000000000E+000
  0.000000000000000E+000
  0.000000000000000E+000
  0.000000000000000E+000
  0.000000000000000E+000
  0.000000000000000E+000
  0.000000000000000E+000
  0.000000000000000E+000
  0.000000000000000E+000
  0.000000000000000E+000
  0.000000000000000E+000
  0.000000000000000E+000
  0.000000000000000E+000
  0.000000000000000E+000
  0.000000000000000E+000
  0.000000000000000E+000
  0.000000000000000E+000
  0.000000000000000E+000
  0.000000000000000E+000
  0.000000000000000E+000
  0.000000000000000E+000
  0.000000000000000E+000
  0.000000000000000E+000
  0.000000000000000E+000
  0.000000000000000E+000
  0.000000000000000E+000
  0.000000000000000E+000
  0.000000000000000E+000
  0.000000000000000E+000
  0.000000000000000E+000
  0.000000000000000E+000
  0.000000000000000E+000
  0.000000000000000E+000
  0.000000000000000E+000
  0.000000000000000E+000
  0.000000000000000E+000
  0.000000000000000E+000
  0.000000000000000E+000
  0.000000000000000E+000
  0.000000000000000E+000
  0.000000000000000E+000
  0.000000000000000E+000
  0.000000000000000E+000
  0.000000000000000E+000
  0.000000000000000E+000
  0.000000000000000E+000
  0.000000000000000E+000
  0.000000000000000E+000
  0.000000000000000E+000
  0.000000000000000E+000
  0.000000000000000E+000
  0.000000000000000E+000
  0.000000000000000E+000
  0.000000000000000E+000
  0.000000000000000E+000
  0.000000000000000E+000
  0.000000000000000E+000
  0.000000000000000E+000
  0.000000000000000E+000
  0.000000000000000E+000
  0.000000000000000E+000
  0.000000000000000E+000
  0.000000000000000E+000
  0.000000000000000E+000
  0.000000000000000E+000
  0.000000000000000E+000
  0.000000000000000E+000
  0.000000000000000E+000
  0.000000000000000E+000
  0.000000000000000E+000
  0.000000000000000E+000
  0.000000000000000E+000
  0.000000000000000E+000
  0.000000000000000E+000
  0.000000000000000E+000
  0.000000000000000E+000
  0.000000000000000E+000
  0.000000000000000E+000
  0.000000000000000E+000
  0.000000000000000E+000
  0.000000000000000E+000
  0.000000000000000E+000
  0.000000000000000E+000
  0.000000000000000E+000
  0.000000000000000E+000
  0.000000000000000E+000
  0.000000000000000E+000
  0.000000000000000E+000
  0.000000000000000E+000
  0.000000000000000E+000
  0.000000000000000E+000
  0.000000000000000E+000
  0.000000000000000E+000
  0.000000000000000E+000
  0.000000000000000E+000
  0.000000000000000E+000
  0.000000000000000E+000
  0.000000000000000E+000
  0.000000000000000E+000
  0.000000000000000E+000
  0.000000000000000E+000
  0.000000000000000E+000
  0.000000000000000E+000
  0.000000000000000E+000
  0.000000000000000E+000
  0.000000000000000E+000
  0.000000000000000E+000
  0.000000000000000E+000
  0.000000000000000E+000
  0.000000000000000E+000
  0.000000000000000E+000
  0.000000000000000E+000
  0.000000000000000E+000
  0.000000000000000E+000
  0.000000000000000E+000
  0.000000000000000E+000
  0.000000000000000E+000
  0.000000000000000E+000
  0.000000000000000E+000
  0.000000000000000E+000
  0.000000000000000E+000
  0.000000000000000E+000
  0.000000000000000E+000
SCALARS poroL double 
LOOKUP_TABLE default
  0.156165376653920     
  0.156159337976237     
  0.156145919778282     
  0.156128469328836     
  0.156109287528948     
  0.156090394674861     
  0.156073837899030     
  0.156062910243747     
  0.156055276928074     
  0.156048880090609     
  0.156043197402245     
  0.156037908785774     
  0.156032732982992     
  0.156027310676864     
  0.156020702666617     
  0.156126592494735     
  0.156114068350546     
  0.156102689405797     
  0.156091519808663     
  0.156079552383088     
  0.156068610696370     
  0.156060419006495     
  0.156053206359085     
  0.156046400998879     
  0.156040422054476     
  0.156035015835155     
  0.156029973456066     
  0.156025102805766     
  0.156020183512441     
  0.156015406536800     
  0.156089018587320     
  0.156075185815498     
  0.156066594394996     
  0.156061535420578     
  0.156057967080401     
  0.156053701114380     
  0.156048267325339     
  0.156042392774088     
  0.156036730645023     
  0.156031407825772     
  0.156026479440492     
  0.156021867403128     
  0.156017489687205     
  0.156013349688004     
  0.156009556669954     
  0.156059477339077     
  0.156053759778693     
  0.156050839301900     
  0.156047948938663     
  0.156044575870723     
  0.156040609989576     
  0.156036148728984     
  0.156031384236134     
  0.156026596995191     
  0.156021988967183     
  0.156017629059763     
  0.156013537596148     
  0.156009721573818     
  0.156006221249618     
  0.156003143362777     
  0.156044966686537     
  0.156041578564162     
  0.156038195707296     
  0.156035059778312     
  0.156031768311478     
  0.156028190007562     
  0.156024336308316     
  0.156020313279277     
  0.156016257707525     
  0.156012294528378     
  0.156008509372605     
  0.156004952203535     
  0.156001665544125     
  0.155998706247609     
  0.155996157889784     
  0.156031829055985     
  0.156028570343949     
  0.156025474754286     
  0.156022405906688     
  0.156019304722811     
  0.156016077519111     
  0.156012714895182     
  0.156009264149486     
  0.156005802713824     
  0.156002411459085     
  0.155999160023984     
  0.155996105079409     
  0.155993297802705     
  0.155990794083117     
  0.155988659500287     
  0.156018430412409     
  0.156015490287163     
  0.156012637003818     
  0.156009826568116     
  0.156007000141437     
  0.156004125623640     
  0.156001193190550     
  0.155998226820820     
  0.155995271995510     
  0.155992383016465     
  0.155989613780360     
  0.155987014526762     
  0.155984633262662     
  0.155982518610390     
  0.155980720813506     
  0.156004902764386     
  0.156002304776598     
  0.155999768012746     
  0.155997262336261     
  0.155994761511580     
  0.155992246415095     
  0.155989714903208     
  0.155987181500369     
  0.155984675284701     
  0.155982233766097     
  0.155979897665749     
  0.155977707923409     
  0.155975704819189     
  0.155973927898871     
  0.155972415096645     
  0.155991286846934     
  0.155989058609012     
  0.155986866496222     
  0.155984699244567     
  0.155982543843156     
  0.155980392309906     
  0.155978245033823     
  0.155976112774632     
  0.155974015442402     
  0.155971979633559     
  0.155970035699315     
  0.155968215491476     
  0.155966550911124     
  0.155965072800300     
  0.155963809493160     
  0.155977626296777     
  0.155975773389476     
  0.155973940640867     
  0.155972126454622     
  0.155970326655099     
  0.155968538620498     
  0.155966764410871     
  0.155965012109584     
  0.155963295823399     
  0.155961634525888     
  0.155960050475060     
  0.155958567633012     
  0.155957210297234     
  0.155956001826380     
  0.155954963218783     
  0.155963947215789     
  0.155962465493851     
  0.155960995500655     
  0.155959540327008     
  0.155958099811394     
  0.155956673797340     
  0.155955264423953     
  0.155953877441327     
  0.155952522524758     
  0.155951212854490     
  0.155949964233123     
  0.155948794027592     
  0.155947720077753     
  0.155946759593108     
  0.155945927990541     
  0.155950262556975     
  0.155949143293699     
  0.155948034395220     
  0.155946939541101     
  0.155945859321062     
  0.155944793612495     
  0.155943743379978     
  0.155942711786369     
  0.155941704649863     
  0.155940730350055     
  0.155939799353918     
  0.155938923520517     
  0.155938115302487     
  0.155937386905465     
  0.155936749434451     
  0.155936573743312     
  0.155935808347292     
  0.155935057802343     
  0.155934323494382     
  0.155933604285099     
  0.155932898256741     
  0.155932204080054     
  0.155931521926684     
  0.155930853919505     
  0.155930204183677     
  0.155929578592718     
  0.155928984318330     
  0.155928429275743     
  0.155927921533592     
  0.155927468740307     
  0.155922873208465     
  0.155922456377858     
  0.155922063398669     
  0.155921691304213     
  0.155921335416558     
  0.155920990616382     
  0.155920652366977     
  0.155920317421797     
  0.155919984202265     
  0.155919652879646     
  0.155919325225336     
  0.155919004309476     
  0.155918694123563     
  0.155918399192314     
  0.155918124229976     
  0.155909146677428     
  0.155909078586106     
  0.155909046483367     
  0.155909041585997     
  0.155909054350310     
  0.155909075402478     
  0.155909096287953     
  0.155909109983209     
  0.155909111159563     
  0.155909096223313     
  0.155909063183813     
  0.155909011419825     
  0.155908941412860     
  0.155908854502917     
  0.155908752725343     
  0.155895375208259     
  0.155895663010237     
  0.155896000729080     
  0.155896372694960     
  0.155896763526440     
  0.155897158826778     
  0.155897545714863     
  0.155897913149891     
  0.155898252049296     
  0.155898555224252     
  0.155898817194923     
  0.155899033951852     
  0.155899202728510     
  0.155899321849117     
  0.155899390703801     
  0.155881536973122     
  0.155882195885488     
  0.155882919123464     
  0.155883683300121     
  0.155884466469126     
  0.155885248672900     
  0.155886012296446     
  0.155886742202127     
  0.155887425661438     
  0.155888052124880     
  0.155888612907588     
  0.155889100869064     
  0.155889510156531     
  0.155889836093020     
  0.155890075261096     
  0.155867608827834     
  0.155868662983672     
  0.155869795052153     
  0.155870973207990     
  0.155872168368713     
  0.155873354669735     
  0.155874509664882     
  0.155875614251164     
  0.155876652349104     
  0.155877610427239     
  0.155878476970543     
  0.155879241983274     
  0.155879896633042     
  0.155880433129481     
  0.155880844896978     
  0.155853567720935     
  0.155855050955271     
  0.155856623521578     
  0.155858244417771     
  0.155859876931880     
  0.155861489117396     
  0.155863053845373     
  0.155864548457426     
  0.155865954098885     
  0.155867254881266     
  0.155868437007647     
  0.155869487989187     
  0.155870396109210     
  0.155871150244039     
  0.155871740113936     
  0.155839391985404     
  0.155841348725984     
  0.155843402571948     
  0.155845502444538     
  0.155847603516961     
  0.155849667763800     
  0.155851663837584     
  0.155853566327229     
  0.155855354589571     
  0.155857011372724     
  0.155858521419829     
  0.155859870273479     
  0.155861043463801     
  0.155862026221209     
  0.155862803798354     
  0.155825062556916     
  0.155827549033777     
  0.155830134988984     
  0.155832758013196     
  0.155835364625090     
  0.155837910962272     
  0.155840362369458     
  0.155842692059288     
  0.155844879180817     
  0.155846906628724     
  0.155848758912033     
  0.155850420386532     
  0.155851874056546     
  0.155853101113334     
  0.155854081322154     
  0.155810564183247     
  0.155813650270482     
  0.155816830516936     
  0.155820029308722     
  0.155823183883899     
  0.155826245169281     
  0.155829176825033     
  0.155831952909296     
  0.155834554762016     
  0.155836967640486     
  0.155839177612815     
  0.155841169026074     
  0.155842922772492     
  0.155844415547633     
  0.155845620278465     
  0.155795886709866     
  0.155799658912301     
  0.155803508938787     
  0.155807345120384     
  0.155811094730461     
  0.155814704882170     
  0.155818140361667     
  0.155821379528785     
  0.155824409380368     
  0.155827220673011     
  0.155829803608574     
  0.155832144318380     
  0.155834222337827     
  0.155836009380817     
  0.155837469739664     
  0.155781026566797     
  0.155785593080337     
  0.155790204725503     
  0.155794749379163     
  0.155799144067160     
  0.155803335095629     
  0.155807293199005     
  0.155811006208110     
  0.155814471556706     
  0.155817689726831     
  0.155820658684415     
  0.155823369093825     
  0.155825800563820     
  0.155827919416180     
  0.155829678885316     
  0.155765989115057     
  0.155771488459143     
  0.155776974454676     
  0.155782307956834     
  0.155787397172536     
  0.155792194209835     
  0.155796683883926     
  0.155800870864641     
  0.155804769178646     
  0.155808394369814     
  0.155811757042080     
  0.155814856752340     
  0.155817675923487     
  0.155820175670336     
  0.155822294730931     
  0.155750793288675     
  0.155757409643351     
  0.155763909661510     
  0.155770118884790     
  0.155775943887304     
  0.155781356858234     
  0.155786369946563     
  0.155791014494525     
  0.155795328039383     
  0.155799347027940     
  0.155803101016841     
  0.155806605009072     
  0.155809850532069     
  0.155812794990078     
  0.155815358614707     
  0.155735481129805     
  0.155743473790685     
  0.155751160478030     
  0.155758327317661     
  0.155764904852693     
  0.155770914663382     
  0.155776416874590     
  0.155781479716054     
  0.155786170272873     
  0.155790550756144     
  0.155794675813937     
  0.155798587566913     
  0.155802297550013     
  0.155805770319660     
  0.155808899761851     
  0.155720148173832     
  0.155729905364219     
  0.155738979309216     
  0.155747143311991     
  0.155754430524447     
  0.155760972185225     
  0.155766894054668     
  0.155772308127380     
  0.155777313192183     
  0.155781998650982     
  0.155786448100827     
  0.155790739931233     
  0.155794943633242     
  0.155799043593299     
  0.155802926384224     
  0.155705038387960     
  0.155717196462909     
  0.155727791498055     
  0.155736826583680     
  0.155744686817141     
  0.155751634929058     
  0.155757867355692     
  0.155763536559467     
  0.155768768809866     
  0.155773676742263     
  0.155778370030792     
  0.155782967005748     
  0.155787604627173     
  0.155792475701534     
  0.155797376487160     
  0.155691267430705     
  0.155706490557604     
  0.155718071684815     
  0.155727637276121     
  0.155735820970396     
  0.155742990958378     
  0.155749389205005     
  0.155755192871911     
  0.155760544268457     
  0.155765569552331     
  0.155770394240219     
  0.155775161883976     
  0.155780068896370     
  0.155785437107274     
  0.155792201560552     
