# vtk DataFile Version 3.0
vtk output
ASCII
DATASET UNSTRUCTURED_GRID
POINTS       496 double 
  0.00000000E+00  3.00000000E+02  0.00000000E+00
  0.00000000E+00  2.80000000E+02  0.00000000E+00
  0.00000000E+00  2.60000000E+02  0.00000000E+00
  0.00000000E+00  2.40000000E+02  0.00000000E+00
  0.00000000E+00  2.20000000E+02  0.00000000E+00
  0.00000000E+00  2.00000000E+02  0.00000000E+00
  0.00000000E+00  1.80000000E+02  0.00000000E+00
  0.00000000E+00  1.60000000E+02  0.00000000E+00
  0.00000000E+00  1.40000000E+02  0.00000000E+00
  0.00000000E+00  1.20000000E+02  0.00000000E+00
  0.00000000E+00  1.00000000E+02  0.00000000E+00
  0.00000000E+00  8.00000000E+01  0.00000000E+00
  0.00000000E+00  6.00000000E+01  0.00000000E+00
  0.00000000E+00  4.00000000E+01  0.00000000E+00
  0.00000000E+00  2.00000000E+01  0.00000000E+00
  0.00000000E+00  4.99600361E-14  0.00000000E+00
  2.00000000E+01  3.00000000E+02  0.00000000E+00
  2.00000000E+01  2.80000000E+02  0.00000000E+00
  2.00000000E+01  2.60000000E+02  0.00000000E+00
  2.00000000E+01  2.40000000E+02  0.00000000E+00
  2.00000000E+01  2.20000000E+02  0.00000000E+00
  2.00000000E+01  2.00000000E+02  0.00000000E+00
  2.00000000E+01  1.80000000E+02  0.00000000E+00
  2.00000000E+01  1.60000000E+02  0.00000000E+00
  2.00000000E+01  1.40000000E+02  0.00000000E+00
  2.00000000E+01  1.20000000E+02  0.00000000E+00
  2.00000000E+01  1.00000000E+02  0.00000000E+00
  2.00000000E+01  8.00000000E+01  0.00000000E+00
  2.00000000E+01  6.00000000E+01  0.00000000E+00
  2.00000000E+01  4.00000000E+01  0.00000000E+00
  2.00000000E+01  2.00000000E+01  0.00000000E+00
  2.00000000E+01  4.99600361E-14  0.00000000E+00
  4.00000000E+01  3.00000000E+02  0.00000000E+00
  4.00000000E+01  2.80000000E+02  0.00000000E+00
  4.00000000E+01  2.60000000E+02  0.00000000E+00
  4.00000000E+01  2.40000000E+02  0.00000000E+00
  4.00000000E+01  2.20000000E+02  0.00000000E+00
  4.00000000E+01  2.00000000E+02  0.00000000E+00
  4.00000000E+01  1.80000000E+02  0.00000000E+00
  4.00000000E+01  1.60000000E+02  0.00000000E+00
  4.00000000E+01  1.40000000E+02  0.00000000E+00
  4.00000000E+01  1.20000000E+02  0.00000000E+00
  4.00000000E+01  1.00000000E+02  0.00000000E+00
  4.00000000E+01  8.00000000E+01  0.00000000E+00
  4.00000000E+01  6.00000000E+01  0.00000000E+00
  4.00000000E+01  4.00000000E+01  0.00000000E+00
  4.00000000E+01  2.00000000E+01  0.00000000E+00
  4.00000000E+01  4.99600361E-14  0.00000000E+00
  6.00000000E+01  3.00000000E+02  0.00000000E+00
  6.00000000E+01  2.80000000E+02  0.00000000E+00
  6.00000000E+01  2.60000000E+02  0.00000000E+00
  6.00000000E+01  2.40000000E+02  0.00000000E+00
  6.00000000E+01  2.20000000E+02  0.00000000E+00
  6.00000000E+01  2.00000000E+02  0.00000000E+00
  6.00000000E+01  1.80000000E+02  0.00000000E+00
  6.00000000E+01  1.60000000E+02  0.00000000E+00
  6.00000000E+01  1.40000000E+02  0.00000000E+00
  6.00000000E+01  1.20000000E+02  0.00000000E+00
  6.00000000E+01  1.00000000E+02  0.00000000E+00
  6.00000000E+01  8.00000000E+01  0.00000000E+00
  6.00000000E+01  6.00000000E+01  0.00000000E+00
  6.00000000E+01  4.00000000E+01  0.00000000E+00
  6.00000000E+01  2.00000000E+01  0.00000000E+00
  6.00000000E+01  4.99600361E-14  0.00000000E+00
  8.00000000E+01  3.00000000E+02  0.00000000E+00
  8.00000000E+01  2.80000000E+02  0.00000000E+00
  8.00000000E+01  2.60000000E+02  0.00000000E+00
  8.00000000E+01  2.40000000E+02  0.00000000E+00
  8.00000000E+01  2.20000000E+02  0.00000000E+00
  8.00000000E+01  2.00000000E+02  0.00000000E+00
  8.00000000E+01  1.80000000E+02  0.00000000E+00
  8.00000000E+01  1.60000000E+02  0.00000000E+00
  8.00000000E+01  1.40000000E+02  0.00000000E+00
  8.00000000E+01  1.20000000E+02  0.00000000E+00
  8.00000000E+01  1.00000000E+02  0.00000000E+00
  8.00000000E+01  8.00000000E+01  0.00000000E+00
  8.00000000E+01  6.00000000E+01  0.00000000E+00
  8.00000000E+01  4.00000000E+01  0.00000000E+00
  8.00000000E+01  2.00000000E+01  0.00000000E+00
  8.00000000E+01  4.99600361E-14  0.00000000E+00
  1.00000000E+02  3.00000000E+02  0.00000000E+00
  1.00000000E+02  2.80000000E+02  0.00000000E+00
  1.00000000E+02  2.60000000E+02  0.00000000E+00
  1.00000000E+02  2.40000000E+02  0.00000000E+00
  1.00000000E+02  2.20000000E+02  0.00000000E+00
  1.00000000E+02  2.00000000E+02  0.00000000E+00
  1.00000000E+02  1.80000000E+02  0.00000000E+00
  1.00000000E+02  1.60000000E+02  0.00000000E+00
  1.00000000E+02  1.40000000E+02  0.00000000E+00
  1.00000000E+02  1.20000000E+02  0.00000000E+00
  1.00000000E+02  1.00000000E+02  0.00000000E+00
  1.00000000E+02  8.00000000E+01  0.00000000E+00
  1.00000000E+02  6.00000000E+01  0.00000000E+00
  1.00000000E+02  4.00000000E+01  0.00000000E+00
  1.00000000E+02  2.00000000E+01  0.00000000E+00
  1.00000000E+02  4.99600361E-14  0.00000000E+00
  1.20000000E+02  3.00000000E+02  0.00000000E+00
  1.20000000E+02  2.80000000E+02  0.00000000E+00
  1.20000000E+02  2.60000000E+02  0.00000000E+00
  1.20000000E+02  2.40000000E+02  0.00000000E+00
  1.20000000E+02  2.20000000E+02  0.00000000E+00
  1.20000000E+02  2.00000000E+02  0.00000000E+00
  1.20000000E+02  1.80000000E+02  0.00000000E+00
  1.20000000E+02  1.60000000E+02  0.00000000E+00
  1.20000000E+02  1.40000000E+02  0.00000000E+00
  1.20000000E+02  1.20000000E+02  0.00000000E+00
  1.20000000E+02  1.00000000E+02  0.00000000E+00
  1.20000000E+02  8.00000000E+01  0.00000000E+00
  1.20000000E+02  6.00000000E+01  0.00000000E+00
  1.20000000E+02  4.00000000E+01  0.00000000E+00
  1.20000000E+02  2.00000000E+01  0.00000000E+00
  1.20000000E+02  4.99600361E-14  0.00000000E+00
  1.40000000E+02  3.00000000E+02  0.00000000E+00
  1.40000000E+02  2.80000000E+02  0.00000000E+00
  1.40000000E+02  2.60000000E+02  0.00000000E+00
  1.40000000E+02  2.40000000E+02  0.00000000E+00
  1.40000000E+02  2.20000000E+02  0.00000000E+00
  1.40000000E+02  2.00000000E+02  0.00000000E+00
  1.40000000E+02  1.80000000E+02  0.00000000E+00
  1.40000000E+02  1.60000000E+02  0.00000000E+00
  1.40000000E+02  1.40000000E+02  0.00000000E+00
  1.40000000E+02  1.20000000E+02  0.00000000E+00
  1.40000000E+02  1.00000000E+02  0.00000000E+00
  1.40000000E+02  8.00000000E+01  0.00000000E+00
  1.40000000E+02  6.00000000E+01  0.00000000E+00
  1.40000000E+02  4.00000000E+01  0.00000000E+00
  1.40000000E+02  2.00000000E+01  0.00000000E+00
  1.40000000E+02  4.99600361E-14  0.00000000E+00
  1.60000000E+02  3.00000000E+02  0.00000000E+00
  1.60000000E+02  2.80000000E+02  0.00000000E+00
  1.60000000E+02  2.60000000E+02  0.00000000E+00
  1.60000000E+02  2.40000000E+02  0.00000000E+00
  1.60000000E+02  2.20000000E+02  0.00000000E+00
  1.60000000E+02  2.00000000E+02  0.00000000E+00
  1.60000000E+02  1.80000000E+02  0.00000000E+00
  1.60000000E+02  1.60000000E+02  0.00000000E+00
  1.60000000E+02  1.40000000E+02  0.00000000E+00
  1.60000000E+02  1.20000000E+02  0.00000000E+00
  1.60000000E+02  1.00000000E+02  0.00000000E+00
  1.60000000E+02  8.00000000E+01  0.00000000E+00
  1.60000000E+02  6.00000000E+01  0.00000000E+00
  1.60000000E+02  4.00000000E+01  0.00000000E+00
  1.60000000E+02  2.00000000E+01  0.00000000E+00
  1.60000000E+02  4.99600361E-14  0.00000000E+00
  1.80000000E+02  3.00000000E+02  0.00000000E+00
  1.80000000E+02  2.80000000E+02  0.00000000E+00
  1.80000000E+02  2.60000000E+02  0.00000000E+00
  1.80000000E+02  2.40000000E+02  0.00000000E+00
  1.80000000E+02  2.20000000E+02  0.00000000E+00
  1.80000000E+02  2.00000000E+02  0.00000000E+00
  1.80000000E+02  1.80000000E+02  0.00000000E+00
  1.80000000E+02  1.60000000E+02  0.00000000E+00
  1.80000000E+02  1.40000000E+02  0.00000000E+00
  1.80000000E+02  1.20000000E+02  0.00000000E+00
  1.80000000E+02  1.00000000E+02  0.00000000E+00
  1.80000000E+02  8.00000000E+01  0.00000000E+00
  1.80000000E+02  6.00000000E+01  0.00000000E+00
  1.80000000E+02  4.00000000E+01  0.00000000E+00
  1.80000000E+02  2.00000000E+01  0.00000000E+00
  1.80000000E+02  4.99600361E-14  0.00000000E+00
  2.00000000E+02  3.00000000E+02  0.00000000E+00
  2.00000000E+02  2.80000000E+02  0.00000000E+00
  2.00000000E+02  2.60000000E+02  0.00000000E+00
  2.00000000E+02  2.40000000E+02  0.00000000E+00
  2.00000000E+02  2.20000000E+02  0.00000000E+00
  2.00000000E+02  2.00000000E+02  0.00000000E+00
  2.00000000E+02  1.80000000E+02  0.00000000E+00
  2.00000000E+02  1.60000000E+02  0.00000000E+00
  2.00000000E+02  1.40000000E+02  0.00000000E+00
  2.00000000E+02  1.20000000E+02  0.00000000E+00
  2.00000000E+02  1.00000000E+02  0.00000000E+00
  2.00000000E+02  8.00000000E+01  0.00000000E+00
  2.00000000E+02  6.00000000E+01  0.00000000E+00
  2.00000000E+02  4.00000000E+01  0.00000000E+00
  2.00000000E+02  2.00000000E+01  0.00000000E+00
  2.00000000E+02  4.99600361E-14  0.00000000E+00
  2.20000000E+02  3.00000000E+02  0.00000000E+00
  2.20000000E+02  2.80000000E+02  0.00000000E+00
  2.20000000E+02  2.60000000E+02  0.00000000E+00
  2.20000000E+02  2.40000000E+02  0.00000000E+00
  2.20000000E+02  2.20000000E+02  0.00000000E+00
  2.20000000E+02  2.00000000E+02  0.00000000E+00
  2.20000000E+02  1.80000000E+02  0.00000000E+00
  2.20000000E+02  1.60000000E+02  0.00000000E+00
  2.20000000E+02  1.40000000E+02  0.00000000E+00
  2.20000000E+02  1.20000000E+02  0.00000000E+00
  2.20000000E+02  1.00000000E+02  0.00000000E+00
  2.20000000E+02  8.00000000E+01  0.00000000E+00
  2.20000000E+02  6.00000000E+01  0.00000000E+00
  2.20000000E+02  4.00000000E+01  0.00000000E+00
  2.20000000E+02  2.00000000E+01  0.00000000E+00
  2.20000000E+02  4.99600361E-14  0.00000000E+00
  2.40000000E+02  3.00000000E+02  0.00000000E+00
  2.40000000E+02  2.80000000E+02  0.00000000E+00
  2.40000000E+02  2.60000000E+02  0.00000000E+00
  2.40000000E+02  2.40000000E+02  0.00000000E+00
  2.40000000E+02  2.20000000E+02  0.00000000E+00
  2.40000000E+02  2.00000000E+02  0.00000000E+00
  2.40000000E+02  1.80000000E+02  0.00000000E+00
  2.40000000E+02  1.60000000E+02  0.00000000E+00
  2.40000000E+02  1.40000000E+02  0.00000000E+00
  2.40000000E+02  1.20000000E+02  0.00000000E+00
  2.40000000E+02  1.00000000E+02  0.00000000E+00
  2.40000000E+02  8.00000000E+01  0.00000000E+00
  2.40000000E+02  6.00000000E+01  0.00000000E+00
  2.40000000E+02  4.00000000E+01  0.00000000E+00
  2.40000000E+02  2.00000000E+01  0.00000000E+00
  2.40000000E+02  4.99600361E-14  0.00000000E+00
  2.60000000E+02  3.00000000E+02  0.00000000E+00
  2.60000000E+02  2.80000000E+02  0.00000000E+00
  2.60000000E+02  2.60000000E+02  0.00000000E+00
  2.60000000E+02  2.40000000E+02  0.00000000E+00
  2.60000000E+02  2.20000000E+02  0.00000000E+00
  2.60000000E+02  2.00000000E+02  0.00000000E+00
  2.60000000E+02  1.80000000E+02  0.00000000E+00
  2.60000000E+02  1.60000000E+02  0.00000000E+00
  2.60000000E+02  1.40000000E+02  0.00000000E+00
  2.60000000E+02  1.20000000E+02  0.00000000E+00
  2.60000000E+02  1.00000000E+02  0.00000000E+00
  2.60000000E+02  8.00000000E+01  0.00000000E+00
  2.60000000E+02  6.00000000E+01  0.00000000E+00
  2.60000000E+02  4.00000000E+01  0.00000000E+00
  2.60000000E+02  2.00000000E+01  0.00000000E+00
  2.60000000E+02  4.99600361E-14  0.00000000E+00
  2.80000000E+02  3.00000000E+02  0.00000000E+00
  2.80000000E+02  2.80000000E+02  0.00000000E+00
  2.80000000E+02  2.60000000E+02  0.00000000E+00
  2.80000000E+02  2.40000000E+02  0.00000000E+00
  2.80000000E+02  2.20000000E+02  0.00000000E+00
  2.80000000E+02  2.00000000E+02  0.00000000E+00
  2.80000000E+02  1.80000000E+02  0.00000000E+00
  2.80000000E+02  1.60000000E+02  0.00000000E+00
  2.80000000E+02  1.40000000E+02  0.00000000E+00
  2.80000000E+02  1.20000000E+02  0.00000000E+00
  2.80000000E+02  1.00000000E+02  0.00000000E+00
  2.80000000E+02  8.00000000E+01  0.00000000E+00
  2.80000000E+02  6.00000000E+01  0.00000000E+00
  2.80000000E+02  4.00000000E+01  0.00000000E+00
  2.80000000E+02  2.00000000E+01  0.00000000E+00
  2.80000000E+02  4.99600361E-14  0.00000000E+00
  3.00000000E+02  3.00000000E+02  0.00000000E+00
  3.00000000E+02  2.80000000E+02  0.00000000E+00
  3.00000000E+02  2.60000000E+02  0.00000000E+00
  3.00000000E+02  2.40000000E+02  0.00000000E+00
  3.00000000E+02  2.20000000E+02  0.00000000E+00
  3.00000000E+02  2.00000000E+02  0.00000000E+00
  3.00000000E+02  1.80000000E+02  0.00000000E+00
  3.00000000E+02  1.60000000E+02  0.00000000E+00
  3.00000000E+02  1.40000000E+02  0.00000000E+00
  3.00000000E+02  1.20000000E+02  0.00000000E+00
  3.00000000E+02  1.00000000E+02  0.00000000E+00
  3.00000000E+02  8.00000000E+01  0.00000000E+00
  3.00000000E+02  6.00000000E+01  0.00000000E+00
  3.00000000E+02  4.00000000E+01  0.00000000E+00
  3.00000000E+02  2.00000000E+01  0.00000000E+00
  3.00000000E+02  4.99600361E-14  0.00000000E+00
  3.20000000E+02  3.00000000E+02  0.00000000E+00
  3.20000000E+02  2.80000000E+02  0.00000000E+00
  3.20000000E+02  2.60000000E+02  0.00000000E+00
  3.20000000E+02  2.40000000E+02  0.00000000E+00
  3.20000000E+02  2.20000000E+02  0.00000000E+00
  3.20000000E+02  2.00000000E+02  0.00000000E+00
  3.20000000E+02  1.80000000E+02  0.00000000E+00
  3.20000000E+02  1.60000000E+02  0.00000000E+00
  3.20000000E+02  1.40000000E+02  0.00000000E+00
  3.20000000E+02  1.20000000E+02  0.00000000E+00
  3.20000000E+02  1.00000000E+02  0.00000000E+00
  3.20000000E+02  8.00000000E+01  0.00000000E+00
  3.20000000E+02  6.00000000E+01  0.00000000E+00
  3.20000000E+02  4.00000000E+01  0.00000000E+00
  3.20000000E+02  2.00000000E+01  0.00000000E+00
  3.20000000E+02  4.99600361E-14  0.00000000E+00
  3.40000000E+02  3.00000000E+02  0.00000000E+00
  3.40000000E+02  2.80000000E+02  0.00000000E+00
  3.40000000E+02  2.60000000E+02  0.00000000E+00
  3.40000000E+02  2.40000000E+02  0.00000000E+00
  3.40000000E+02  2.20000000E+02  0.00000000E+00
  3.40000000E+02  2.00000000E+02  0.00000000E+00
  3.40000000E+02  1.80000000E+02  0.00000000E+00
  3.40000000E+02  1.60000000E+02  0.00000000E+00
  3.40000000E+02  1.40000000E+02  0.00000000E+00
  3.40000000E+02  1.20000000E+02  0.00000000E+00
  3.40000000E+02  1.00000000E+02  0.00000000E+00
  3.40000000E+02  8.00000000E+01  0.00000000E+00
  3.40000000E+02  6.00000000E+01  0.00000000E+00
  3.40000000E+02  4.00000000E+01  0.00000000E+00
  3.40000000E+02  2.00000000E+01  0.00000000E+00
  3.40000000E+02  4.99600361E-14  0.00000000E+00
  3.60000000E+02  3.00000000E+02  0.00000000E+00
  3.60000000E+02  2.80000000E+02  0.00000000E+00
  3.60000000E+02  2.60000000E+02  0.00000000E+00
  3.60000000E+02  2.40000000E+02  0.00000000E+00
  3.60000000E+02  2.20000000E+02  0.00000000E+00
  3.60000000E+02  2.00000000E+02  0.00000000E+00
  3.60000000E+02  1.80000000E+02  0.00000000E+00
  3.60000000E+02  1.60000000E+02  0.00000000E+00
  3.60000000E+02  1.40000000E+02  0.00000000E+00
  3.60000000E+02  1.20000000E+02  0.00000000E+00
  3.60000000E+02  1.00000000E+02  0.00000000E+00
  3.60000000E+02  8.00000000E+01  0.00000000E+00
  3.60000000E+02  6.00000000E+01  0.00000000E+00
  3.60000000E+02  4.00000000E+01  0.00000000E+00
  3.60000000E+02  2.00000000E+01  0.00000000E+00
  3.60000000E+02  4.99600361E-14  0.00000000E+00
  3.80000000E+02  3.00000000E+02  0.00000000E+00
  3.80000000E+02  2.80000000E+02  0.00000000E+00
  3.80000000E+02  2.60000000E+02  0.00000000E+00
  3.80000000E+02  2.40000000E+02  0.00000000E+00
  3.80000000E+02  2.20000000E+02  0.00000000E+00
  3.80000000E+02  2.00000000E+02  0.00000000E+00
  3.80000000E+02  1.80000000E+02  0.00000000E+00
  3.80000000E+02  1.60000000E+02  0.00000000E+00
  3.80000000E+02  1.40000000E+02  0.00000000E+00
  3.80000000E+02  1.20000000E+02  0.00000000E+00
  3.80000000E+02  1.00000000E+02  0.00000000E+00
  3.80000000E+02  8.00000000E+01  0.00000000E+00
  3.80000000E+02  6.00000000E+01  0.00000000E+00
  3.80000000E+02  4.00000000E+01  0.00000000E+00
  3.80000000E+02  2.00000000E+01  0.00000000E+00
  3.80000000E+02  4.99600361E-14  0.00000000E+00
  4.00000000E+02  3.00000000E+02  0.00000000E+00
  4.00000000E+02  2.80000000E+02  0.00000000E+00
  4.00000000E+02  2.60000000E+02  0.00000000E+00
  4.00000000E+02  2.40000000E+02  0.00000000E+00
  4.00000000E+02  2.20000000E+02  0.00000000E+00
  4.00000000E+02  2.00000000E+02  0.00000000E+00
  4.00000000E+02  1.80000000E+02  0.00000000E+00
  4.00000000E+02  1.60000000E+02  0.00000000E+00
  4.00000000E+02  1.40000000E+02  0.00000000E+00
  4.00000000E+02  1.20000000E+02  0.00000000E+00
  4.00000000E+02  1.00000000E+02  0.00000000E+00
  4.00000000E+02  8.00000000E+01  0.00000000E+00
  4.00000000E+02  6.00000000E+01  0.00000000E+00
  4.00000000E+02  4.00000000E+01  0.00000000E+00
  4.00000000E+02  2.00000000E+01  0.00000000E+00
  4.00000000E+02  4.99600361E-14  0.00000000E+00
  4.20000000E+02  3.00000000E+02  0.00000000E+00
  4.20000000E+02  2.80000000E+02  0.00000000E+00
  4.20000000E+02  2.60000000E+02  0.00000000E+00
  4.20000000E+02  2.40000000E+02  0.00000000E+00
  4.20000000E+02  2.20000000E+02  0.00000000E+00
  4.20000000E+02  2.00000000E+02  0.00000000E+00
  4.20000000E+02  1.80000000E+02  0.00000000E+00
  4.20000000E+02  1.60000000E+02  0.00000000E+00
  4.20000000E+02  1.40000000E+02  0.00000000E+00
  4.20000000E+02  1.20000000E+02  0.00000000E+00
  4.20000000E+02  1.00000000E+02  0.00000000E+00
  4.20000000E+02  8.00000000E+01  0.00000000E+00
  4.20000000E+02  6.00000000E+01  0.00000000E+00
  4.20000000E+02  4.00000000E+01  0.00000000E+00
  4.20000000E+02  2.00000000E+01  0.00000000E+00
  4.20000000E+02  4.99600361E-14  0.00000000E+00
  4.40000000E+02  3.00000000E+02  0.00000000E+00
  4.40000000E+02  2.80000000E+02  0.00000000E+00
  4.40000000E+02  2.60000000E+02  0.00000000E+00
  4.40000000E+02  2.40000000E+02  0.00000000E+00
  4.40000000E+02  2.20000000E+02  0.00000000E+00
  4.40000000E+02  2.00000000E+02  0.00000000E+00
  4.40000000E+02  1.80000000E+02  0.00000000E+00
  4.40000000E+02  1.60000000E+02  0.00000000E+00
  4.40000000E+02  1.40000000E+02  0.00000000E+00
  4.40000000E+02  1.20000000E+02  0.00000000E+00
  4.40000000E+02  1.00000000E+02  0.00000000E+00
  4.40000000E+02  8.00000000E+01  0.00000000E+00
  4.40000000E+02  6.00000000E+01  0.00000000E+00
  4.40000000E+02  4.00000000E+01  0.00000000E+00
  4.40000000E+02  2.00000000E+01  0.00000000E+00
  4.40000000E+02  4.99600361E-14  0.00000000E+00
  4.60000000E+02  3.00000000E+02  0.00000000E+00
  4.60000000E+02  2.80000000E+02  0.00000000E+00
  4.60000000E+02  2.60000000E+02  0.00000000E+00
  4.60000000E+02  2.40000000E+02  0.00000000E+00
  4.60000000E+02  2.20000000E+02  0.00000000E+00
  4.60000000E+02  2.00000000E+02  0.00000000E+00
  4.60000000E+02  1.80000000E+02  0.00000000E+00
  4.60000000E+02  1.60000000E+02  0.00000000E+00
  4.60000000E+02  1.40000000E+02  0.00000000E+00
  4.60000000E+02  1.20000000E+02  0.00000000E+00
  4.60000000E+02  1.00000000E+02  0.00000000E+00
  4.60000000E+02  8.00000000E+01  0.00000000E+00
  4.60000000E+02  6.00000000E+01  0.00000000E+00
  4.60000000E+02  4.00000000E+01  0.00000000E+00
  4.60000000E+02  2.00000000E+01  0.00000000E+00
  4.60000000E+02  4.99600361E-14  0.00000000E+00
  4.80000000E+02  3.00000000E+02  0.00000000E+00
  4.80000000E+02  2.80000000E+02  0.00000000E+00
  4.80000000E+02  2.60000000E+02  0.00000000E+00
  4.80000000E+02  2.40000000E+02  0.00000000E+00
  4.80000000E+02  2.20000000E+02  0.00000000E+00
  4.80000000E+02  2.00000000E+02  0.00000000E+00
  4.80000000E+02  1.80000000E+02  0.00000000E+00
  4.80000000E+02  1.60000000E+02  0.00000000E+00
  4.80000000E+02  1.40000000E+02  0.00000000E+00
  4.80000000E+02  1.20000000E+02  0.00000000E+00
  4.80000000E+02  1.00000000E+02  0.00000000E+00
  4.80000000E+02  8.00000000E+01  0.00000000E+00
  4.80000000E+02  6.00000000E+01  0.00000000E+00
  4.80000000E+02  4.00000000E+01  0.00000000E+00
  4.80000000E+02  2.00000000E+01  0.00000000E+00
  4.80000000E+02  4.99600361E-14  0.00000000E+00
  5.00000000E+02  3.00000000E+02  0.00000000E+00
  5.00000000E+02  2.80000000E+02  0.00000000E+00
  5.00000000E+02  2.60000000E+02  0.00000000E+00
  5.00000000E+02  2.40000000E+02  0.00000000E+00
  5.00000000E+02  2.20000000E+02  0.00000000E+00
  5.00000000E+02  2.00000000E+02  0.00000000E+00
  5.00000000E+02  1.80000000E+02  0.00000000E+00
  5.00000000E+02  1.60000000E+02  0.00000000E+00
  5.00000000E+02  1.40000000E+02  0.00000000E+00
  5.00000000E+02  1.20000000E+02  0.00000000E+00
  5.00000000E+02  1.00000000E+02  0.00000000E+00
  5.00000000E+02  8.00000000E+01  0.00000000E+00
  5.00000000E+02  6.00000000E+01  0.00000000E+00
  5.00000000E+02  4.00000000E+01  0.00000000E+00
  5.00000000E+02  2.00000000E+01  0.00000000E+00
  5.00000000E+02  4.99600361E-14  0.00000000E+00
  5.20000000E+02  3.00000000E+02  0.00000000E+00
  5.20000000E+02  2.80000000E+02  0.00000000E+00
  5.20000000E+02  2.60000000E+02  0.00000000E+00
  5.20000000E+02  2.40000000E+02  0.00000000E+00
  5.20000000E+02  2.20000000E+02  0.00000000E+00
  5.20000000E+02  2.00000000E+02  0.00000000E+00
  5.20000000E+02  1.80000000E+02  0.00000000E+00
  5.20000000E+02  1.60000000E+02  0.00000000E+00
  5.20000000E+02  1.40000000E+02  0.00000000E+00
  5.20000000E+02  1.20000000E+02  0.00000000E+00
  5.20000000E+02  1.00000000E+02  0.00000000E+00
  5.20000000E+02  8.00000000E+01  0.00000000E+00
  5.20000000E+02  6.00000000E+01  0.00000000E+00
  5.20000000E+02  4.00000000E+01  0.00000000E+00
  5.20000000E+02  2.00000000E+01  0.00000000E+00
  5.20000000E+02  4.99600361E-14  0.00000000E+00
  5.40000000E+02  3.00000000E+02  0.00000000E+00
  5.40000000E+02  2.80000000E+02  0.00000000E+00
  5.40000000E+02  2.60000000E+02  0.00000000E+00
  5.40000000E+02  2.40000000E+02  0.00000000E+00
  5.40000000E+02  2.20000000E+02  0.00000000E+00
  5.40000000E+02  2.00000000E+02  0.00000000E+00
  5.40000000E+02  1.80000000E+02  0.00000000E+00
  5.40000000E+02  1.60000000E+02  0.00000000E+00
  5.40000000E+02  1.40000000E+02  0.00000000E+00
  5.40000000E+02  1.20000000E+02  0.00000000E+00
  5.40000000E+02  1.00000000E+02  0.00000000E+00
  5.40000000E+02  8.00000000E+01  0.00000000E+00
  5.40000000E+02  6.00000000E+01  0.00000000E+00
  5.40000000E+02  4.00000000E+01  0.00000000E+00
  5.40000000E+02  2.00000000E+01  0.00000000E+00
  5.40000000E+02  4.99600361E-14  0.00000000E+00
  5.60000000E+02  3.00000000E+02  0.00000000E+00
  5.60000000E+02  2.80000000E+02  0.00000000E+00
  5.60000000E+02  2.60000000E+02  0.00000000E+00
  5.60000000E+02  2.40000000E+02  0.00000000E+00
  5.60000000E+02  2.20000000E+02  0.00000000E+00
  5.60000000E+02  2.00000000E+02  0.00000000E+00
  5.60000000E+02  1.80000000E+02  0.00000000E+00
  5.60000000E+02  1.60000000E+02  0.00000000E+00
  5.60000000E+02  1.40000000E+02  0.00000000E+00
  5.60000000E+02  1.20000000E+02  0.00000000E+00
  5.60000000E+02  1.00000000E+02  0.00000000E+00
  5.60000000E+02  8.00000000E+01  0.00000000E+00
  5.60000000E+02  6.00000000E+01  0.00000000E+00
  5.60000000E+02  4.00000000E+01  0.00000000E+00
  5.60000000E+02  2.00000000E+01  0.00000000E+00
  5.60000000E+02  4.99600361E-14  0.00000000E+00
  5.80000000E+02  3.00000000E+02  0.00000000E+00
  5.80000000E+02  2.80000000E+02  0.00000000E+00
  5.80000000E+02  2.60000000E+02  0.00000000E+00
  5.80000000E+02  2.40000000E+02  0.00000000E+00
  5.80000000E+02  2.20000000E+02  0.00000000E+00
  5.80000000E+02  2.00000000E+02  0.00000000E+00
  5.80000000E+02  1.80000000E+02  0.00000000E+00
  5.80000000E+02  1.60000000E+02  0.00000000E+00
  5.80000000E+02  1.40000000E+02  0.00000000E+00
  5.80000000E+02  1.20000000E+02  0.00000000E+00
  5.80000000E+02  1.00000000E+02  0.00000000E+00
  5.80000000E+02  8.00000000E+01  0.00000000E+00
  5.80000000E+02  6.00000000E+01  0.00000000E+00
  5.80000000E+02  4.00000000E+01  0.00000000E+00
  5.80000000E+02  2.00000000E+01  0.00000000E+00
  5.80000000E+02  4.99600361E-14  0.00000000E+00
  6.00000000E+02  3.00000000E+02  0.00000000E+00
  6.00000000E+02  2.80000000E+02  0.00000000E+00
  6.00000000E+02  2.60000000E+02  0.00000000E+00
  6.00000000E+02  2.40000000E+02  0.00000000E+00
  6.00000000E+02  2.20000000E+02  0.00000000E+00
  6.00000000E+02  2.00000000E+02  0.00000000E+00
  6.00000000E+02  1.80000000E+02  0.00000000E+00
  6.00000000E+02  1.60000000E+02  0.00000000E+00
  6.00000000E+02  1.40000000E+02  0.00000000E+00
  6.00000000E+02  1.20000000E+02  0.00000000E+00
  6.00000000E+02  1.00000000E+02  0.00000000E+00
  6.00000000E+02  8.00000000E+01  0.00000000E+00
  6.00000000E+02  6.00000000E+01  0.00000000E+00
  6.00000000E+02  4.00000000E+01  0.00000000E+00
  6.00000000E+02  2.00000000E+01  0.00000000E+00
  6.00000000E+02  4.99600361E-14  0.00000000E+00
CELLS       450      2250
         4           0           1          17          16
         4           1           2          18          17
         4           2           3          19          18
         4           3           4          20          19
         4           4           5          21          20
         4           5           6          22          21
         4           6           7          23          22
         4           7           8          24          23
         4           8           9          25          24
         4           9          10          26          25
         4          10          11          27          26
         4          11          12          28          27
         4          12          13          29          28
         4          13          14          30          29
         4          14          15          31          30
         4          16          17          33          32
         4          17          18          34          33
         4          18          19          35          34
         4          19          20          36          35
         4          20          21          37          36
         4          21          22          38          37
         4          22          23          39          38
         4          23          24          40          39
         4          24          25          41          40
         4          25          26          42          41
         4          26          27          43          42
         4          27          28          44          43
         4          28          29          45          44
         4          29          30          46          45
         4          30          31          47          46
         4          32          33          49          48
         4          33          34          50          49
         4          34          35          51          50
         4          35          36          52          51
         4          36          37          53          52
         4          37          38          54          53
         4          38          39          55          54
         4          39          40          56          55
         4          40          41          57          56
         4          41          42          58          57
         4          42          43          59          58
         4          43          44          60          59
         4          44          45          61          60
         4          45          46          62          61
         4          46          47          63          62
         4          48          49          65          64
         4          49          50          66          65
         4          50          51          67          66
         4          51          52          68          67
         4          52          53          69          68
         4          53          54          70          69
         4          54          55          71          70
         4          55          56          72          71
         4          56          57          73          72
         4          57          58          74          73
         4          58          59          75          74
         4          59          60          76          75
         4          60          61          77          76
         4          61          62          78          77
         4          62          63          79          78
         4          64          65          81          80
         4          65          66          82          81
         4          66          67          83          82
         4          67          68          84          83
         4          68          69          85          84
         4          69          70          86          85
         4          70          71          87          86
         4          71          72          88          87
         4          72          73          89          88
         4          73          74          90          89
         4          74          75          91          90
         4          75          76          92          91
         4          76          77          93          92
         4          77          78          94          93
         4          78          79          95          94
         4          80          81          97          96
         4          81          82          98          97
         4          82          83          99          98
         4          83          84         100          99
         4          84          85         101         100
         4          85          86         102         101
         4          86          87         103         102
         4          87          88         104         103
         4          88          89         105         104
         4          89          90         106         105
         4          90          91         107         106
         4          91          92         108         107
         4          92          93         109         108
         4          93          94         110         109
         4          94          95         111         110
         4          96          97         113         112
         4          97          98         114         113
         4          98          99         115         114
         4          99         100         116         115
         4         100         101         117         116
         4         101         102         118         117
         4         102         103         119         118
         4         103         104         120         119
         4         104         105         121         120
         4         105         106         122         121
         4         106         107         123         122
         4         107         108         124         123
         4         108         109         125         124
         4         109         110         126         125
         4         110         111         127         126
         4         112         113         129         128
         4         113         114         130         129
         4         114         115         131         130
         4         115         116         132         131
         4         116         117         133         132
         4         117         118         134         133
         4         118         119         135         134
         4         119         120         136         135
         4         120         121         137         136
         4         121         122         138         137
         4         122         123         139         138
         4         123         124         140         139
         4         124         125         141         140
         4         125         126         142         141
         4         126         127         143         142
         4         128         129         145         144
         4         129         130         146         145
         4         130         131         147         146
         4         131         132         148         147
         4         132         133         149         148
         4         133         134         150         149
         4         134         135         151         150
         4         135         136         152         151
         4         136         137         153         152
         4         137         138         154         153
         4         138         139         155         154
         4         139         140         156         155
         4         140         141         157         156
         4         141         142         158         157
         4         142         143         159         158
         4         144         145         161         160
         4         145         146         162         161
         4         146         147         163         162
         4         147         148         164         163
         4         148         149         165         164
         4         149         150         166         165
         4         150         151         167         166
         4         151         152         168         167
         4         152         153         169         168
         4         153         154         170         169
         4         154         155         171         170
         4         155         156         172         171
         4         156         157         173         172
         4         157         158         174         173
         4         158         159         175         174
         4         160         161         177         176
         4         161         162         178         177
         4         162         163         179         178
         4         163         164         180         179
         4         164         165         181         180
         4         165         166         182         181
         4         166         167         183         182
         4         167         168         184         183
         4         168         169         185         184
         4         169         170         186         185
         4         170         171         187         186
         4         171         172         188         187
         4         172         173         189         188
         4         173         174         190         189
         4         174         175         191         190
         4         176         177         193         192
         4         177         178         194         193
         4         178         179         195         194
         4         179         180         196         195
         4         180         181         197         196
         4         181         182         198         197
         4         182         183         199         198
         4         183         184         200         199
         4         184         185         201         200
         4         185         186         202         201
         4         186         187         203         202
         4         187         188         204         203
         4         188         189         205         204
         4         189         190         206         205
         4         190         191         207         206
         4         192         193         209         208
         4         193         194         210         209
         4         194         195         211         210
         4         195         196         212         211
         4         196         197         213         212
         4         197         198         214         213
         4         198         199         215         214
         4         199         200         216         215
         4         200         201         217         216
         4         201         202         218         217
         4         202         203         219         218
         4         203         204         220         219
         4         204         205         221         220
         4         205         206         222         221
         4         206         207         223         222
         4         208         209         225         224
         4         209         210         226         225
         4         210         211         227         226
         4         211         212         228         227
         4         212         213         229         228
         4         213         214         230         229
         4         214         215         231         230
         4         215         216         232         231
         4         216         217         233         232
         4         217         218         234         233
         4         218         219         235         234
         4         219         220         236         235
         4         220         221         237         236
         4         221         222         238         237
         4         222         223         239         238
         4         224         225         241         240
         4         225         226         242         241
         4         226         227         243         242
         4         227         228         244         243
         4         228         229         245         244
         4         229         230         246         245
         4         230         231         247         246
         4         231         232         248         247
         4         232         233         249         248
         4         233         234         250         249
         4         234         235         251         250
         4         235         236         252         251
         4         236         237         253         252
         4         237         238         254         253
         4         238         239         255         254
         4         240         241         257         256
         4         241         242         258         257
         4         242         243         259         258
         4         243         244         260         259
         4         244         245         261         260
         4         245         246         262         261
         4         246         247         263         262
         4         247         248         264         263
         4         248         249         265         264
         4         249         250         266         265
         4         250         251         267         266
         4         251         252         268         267
         4         252         253         269         268
         4         253         254         270         269
         4         254         255         271         270
         4         256         257         273         272
         4         257         258         274         273
         4         258         259         275         274
         4         259         260         276         275
         4         260         261         277         276
         4         261         262         278         277
         4         262         263         279         278
         4         263         264         280         279
         4         264         265         281         280
         4         265         266         282         281
         4         266         267         283         282
         4         267         268         284         283
         4         268         269         285         284
         4         269         270         286         285
         4         270         271         287         286
         4         272         273         289         288
         4         273         274         290         289
         4         274         275         291         290
         4         275         276         292         291
         4         276         277         293         292
         4         277         278         294         293
         4         278         279         295         294
         4         279         280         296         295
         4         280         281         297         296
         4         281         282         298         297
         4         282         283         299         298
         4         283         284         300         299
         4         284         285         301         300
         4         285         286         302         301
         4         286         287         303         302
         4         288         289         305         304
         4         289         290         306         305
         4         290         291         307         306
         4         291         292         308         307
         4         292         293         309         308
         4         293         294         310         309
         4         294         295         311         310
         4         295         296         312         311
         4         296         297         313         312
         4         297         298         314         313
         4         298         299         315         314
         4         299         300         316         315
         4         300         301         317         316
         4         301         302         318         317
         4         302         303         319         318
         4         304         305         321         320
         4         305         306         322         321
         4         306         307         323         322
         4         307         308         324         323
         4         308         309         325         324
         4         309         310         326         325
         4         310         311         327         326
         4         311         312         328         327
         4         312         313         329         328
         4         313         314         330         329
         4         314         315         331         330
         4         315         316         332         331
         4         316         317         333         332
         4         317         318         334         333
         4         318         319         335         334
         4         320         321         337         336
         4         321         322         338         337
         4         322         323         339         338
         4         323         324         340         339
         4         324         325         341         340
         4         325         326         342         341
         4         326         327         343         342
         4         327         328         344         343
         4         328         329         345         344
         4         329         330         346         345
         4         330         331         347         346
         4         331         332         348         347
         4         332         333         349         348
         4         333         334         350         349
         4         334         335         351         350
         4         336         337         353         352
         4         337         338         354         353
         4         338         339         355         354
         4         339         340         356         355
         4         340         341         357         356
         4         341         342         358         357
         4         342         343         359         358
         4         343         344         360         359
         4         344         345         361         360
         4         345         346         362         361
         4         346         347         363         362
         4         347         348         364         363
         4         348         349         365         364
         4         349         350         366         365
         4         350         351         367         366
         4         352         353         369         368
         4         353         354         370         369
         4         354         355         371         370
         4         355         356         372         371
         4         356         357         373         372
         4         357         358         374         373
         4         358         359         375         374
         4         359         360         376         375
         4         360         361         377         376
         4         361         362         378         377
         4         362         363         379         378
         4         363         364         380         379
         4         364         365         381         380
         4         365         366         382         381
         4         366         367         383         382
         4         368         369         385         384
         4         369         370         386         385
         4         370         371         387         386
         4         371         372         388         387
         4         372         373         389         388
         4         373         374         390         389
         4         374         375         391         390
         4         375         376         392         391
         4         376         377         393         392
         4         377         378         394         393
         4         378         379         395         394
         4         379         380         396         395
         4         380         381         397         396
         4         381         382         398         397
         4         382         383         399         398
         4         384         385         401         400
         4         385         386         402         401
         4         386         387         403         402
         4         387         388         404         403
         4         388         389         405         404
         4         389         390         406         405
         4         390         391         407         406
         4         391         392         408         407
         4         392         393         409         408
         4         393         394         410         409
         4         394         395         411         410
         4         395         396         412         411
         4         396         397         413         412
         4         397         398         414         413
         4         398         399         415         414
         4         400         401         417         416
         4         401         402         418         417
         4         402         403         419         418
         4         403         404         420         419
         4         404         405         421         420
         4         405         406         422         421
         4         406         407         423         422
         4         407         408         424         423
         4         408         409         425         424
         4         409         410         426         425
         4         410         411         427         426
         4         411         412         428         427
         4         412         413         429         428
         4         413         414         430         429
         4         414         415         431         430
         4         416         417         433         432
         4         417         418         434         433
         4         418         419         435         434
         4         419         420         436         435
         4         420         421         437         436
         4         421         422         438         437
         4         422         423         439         438
         4         423         424         440         439
         4         424         425         441         440
         4         425         426         442         441
         4         426         427         443         442
         4         427         428         444         443
         4         428         429         445         444
         4         429         430         446         445
         4         430         431         447         446
         4         432         433         449         448
         4         433         434         450         449
         4         434         435         451         450
         4         435         436         452         451
         4         436         437         453         452
         4         437         438         454         453
         4         438         439         455         454
         4         439         440         456         455
         4         440         441         457         456
         4         441         442         458         457
         4         442         443         459         458
         4         443         444         460         459
         4         444         445         461         460
         4         445         446         462         461
         4         446         447         463         462
         4         448         449         465         464
         4         449         450         466         465
         4         450         451         467         466
         4         451         452         468         467
         4         452         453         469         468
         4         453         454         470         469
         4         454         455         471         470
         4         455         456         472         471
         4         456         457         473         472
         4         457         458         474         473
         4         458         459         475         474
         4         459         460         476         475
         4         460         461         477         476
         4         461         462         478         477
         4         462         463         479         478
         4         464         465         481         480
         4         465         466         482         481
         4         466         467         483         482
         4         467         468         484         483
         4         468         469         485         484
         4         469         470         486         485
         4         470         471         487         486
         4         471         472         488         487
         4         472         473         489         488
         4         473         474         490         489
         4         474         475         491         490
         4         475         476         492         491
         4         476         477         493         492
         4         477         478         494         493
         4         478         479         495         494
CELL_TYPES        450
9
9
9
9
9
9
9
9
9
9
9
9
9
9
9
9
9
9
9
9
9
9
9
9
9
9
9
9
9
9
9
9
9
9
9
9
9
9
9
9
9
9
9
9
9
9
9
9
9
9
9
9
9
9
9
9
9
9
9
9
9
9
9
9
9
9
9
9
9
9
9
9
9
9
9
9
9
9
9
9
9
9
9
9
9
9
9
9
9
9
9
9
9
9
9
9
9
9
9
9
9
9
9
9
9
9
9
9
9
9
9
9
9
9
9
9
9
9
9
9
9
9
9
9
9
9
9
9
9
9
9
9
9
9
9
9
9
9
9
9
9
9
9
9
9
9
9
9
9
9
9
9
9
9
9
9
9
9
9
9
9
9
9
9
9
9
9
9
9
9
9
9
9
9
9
9
9
9
9
9
9
9
9
9
9
9
9
9
9
9
9
9
9
9
9
9
9
9
9
9
9
9
9
9
9
9
9
9
9
9
9
9
9
9
9
9
9
9
9
9
9
9
9
9
9
9
9
9
9
9
9
9
9
9
9
9
9
9
9
9
9
9
9
9
9
9
9
9
9
9
9
9
9
9
9
9
9
9
9
9
9
9
9
9
9
9
9
9
9
9
9
9
9
9
9
9
9
9
9
9
9
9
9
9
9
9
9
9
9
9
9
9
9
9
9
9
9
9
9
9
9
9
9
9
9
9
9
9
9
9
9
9
9
9
9
9
9
9
9
9
9
9
9
9
9
9
9
9
9
9
9
9
9
9
9
9
9
9
9
9
9
9
9
9
9
9
9
9
9
9
9
9
9
9
9
9
9
9
9
9
9
9
9
9
9
9
9
9
9
9
9
9
9
9
9
9
9
9
9
9
9
9
9
9
9
9
9
9
9
9
9
9
9
9
9
9
9
9
9
9
9
9
9
9
9
9
9
9
9
9
9
9
9
9
9
9
9
9
9
9
9
9
9
9
9
9
9
9
9
9
9
9
9
9
9
9
9
9
9
9
9
9
9
9
9
9
9
9
9
9
POINT_DATA       496
SCALARS p double 
LOOKUP_TABLE default
   20173994.3374476     
   20173990.0741962     
   20173978.8418668     
   20173962.1232884     
   20173941.3637527     
   20173917.9496436     
   20173893.1871738     
   20173868.2813761     
   20173844.3154626     
   20173822.2306248     
   20173802.8063167     
   20173786.6410218     
   20173774.1334608     
   20173765.4641381     
   20173760.5770584     
   20173759.1613600     
   20172086.5187424     
   20172082.2519048     
   20172071.0086551     
   20172054.2724849     
   20172033.4898087     
   20172010.0484131     
   20171985.2560325     
   20171960.3192046     
   20171936.3225231     
   20171914.2083669     
   20171894.7571545     
   20171878.5681267     
   20171866.0406206     
   20171857.3557370     
   20171852.4582344     
   20171851.0384029     
   20166363.2019746     
   20166358.9247822     
   20166347.6498752     
   20166330.8626341     
   20166310.0127386     
   20166286.4920782     
   20166261.6128449     
   20166236.5859809     
   20166212.5001132     
   20166190.3010737     
   20166170.7720641     
   20166154.5144879     
   20166141.9294208     
   20166133.1996356     
   20166128.2720267     
   20166126.8401969     
   20156824.8053522     
   20156820.5122498     
   20156809.1882677     
   20156792.3215986     
   20156771.3670215     
   20156747.7229099     
   20156722.7085220     
   20156697.5417719     
   20156673.3176399     
   20156650.9873449     
   20156631.3383646     
   20156614.9753446     
   20156602.3018906     
   20156593.5031785     
   20156588.5292460     
   20156587.0787498     
   20143472.0264285     
   20143467.7138914     
   20143456.3289701     
   20143439.3630839     
   20143418.2774202     
   20143394.4786764     
   20143369.2952323     
   20143343.9539824     
   20143319.5580224     
   20143297.0653441     
   20143277.2686536     
   20143260.7763847     
   20143247.9949256     
   20143239.1120236     
   20143234.0812589     
   20143232.6073969     
   20126305.8428806     
   20126301.5102415     
   20126290.0603353     
   20126272.9874961     
   20126251.7598743     
   20126227.7935546     
   20126202.4273011     
   20126176.8982031     
   20126152.3184497     
   20126129.6534257     
   20126109.7012749     
   20126093.0740361     
   20126080.1804028     
   20126071.2101052     
   20126066.1198428     
   20126064.6206174     
   20105327.5135379     
   20105323.1638255     
   20105311.6550052     
   20105294.4830563     
   20105273.1226472     
   20105248.9992790     
   20105223.4623167     
   20105197.7592186     
   20105173.0112319     
   20105150.1907779     
   20105130.1007117     
   20105113.3555897     
   20105100.3650377     
   20105091.3192575     
   20105086.1766465     
   20105084.6534344     
   20080538.5796026     
   20080534.2203884     
   20080522.6711653     
   20080505.4270852     
   20080483.9676181     
   20080459.7263986     
   20080434.0622884     
   20080408.2319937     
   20080383.3645379     
   20080360.4378446     
   20080340.2576426     
   20080323.4388640     
   20080310.3896667     
   20080301.2981662     
   20080296.1219074     
   20080294.5800476     
   20051940.8659877     
   20051936.5102324     
   20051924.9538899     
   20051907.6873445     
   20051886.1915832     
   20051861.9054748     
   20051836.1946592     
   20051810.3224057     
   20051785.4227554     
   20051762.4762271     
   20051742.2883229     
   20051725.4710380     
   20051712.4275481     
   20051703.3402107     
   20051698.1619740     
   20051696.6112392     
   20019536.4826919     
   20019532.1495766     
   20019520.6364690     
   20019503.4232991     
   20019481.9873977     
   20019457.7680177     
   20019432.1329315     
   20019406.3474452     
   20019381.5461508     
   20019358.7077038     
   20019338.6328886     
   20019321.9262045     
   20019308.9811890     
   20019299.9696644     
   20019294.8350664     
   20019293.2899782     
   19983327.8261260     
   19983323.5418405     
   19983312.1415954     
   19983295.0871462     
   19983273.8447601     
   19983249.8469213     
   19983224.4566260     
   19983198.9345606     
   19983174.4094608     
   19983151.8519445     
   19983132.0521012     
   19983115.6011051     
   19983102.8771034     
   19983094.0356074     
   19983089.0045982     
   19983087.4845325     
   19943317.5803112     
   19943313.3787624     
   19943302.1822905     
   19943285.4244410     
   19943264.5504264     
   19943240.9761330     
   19943216.0502604     
   19943191.0197846     
   19943166.9990026     
   19943144.9424490     
   19943125.6219951     
   19943109.6084323     
   19943097.2578142     
   19943088.7028067     
   19943083.8492685     
   19943082.3782837     
   19899508.7178981     
   19899504.6412843     
   19899493.7624619     
   19899477.4741634     
   19899457.1876323     
   19899434.2892812     
   19899410.1010144     
   19899385.8442524     
   19899362.6078471     
   19899341.3201865     
   19899322.7258320     
   19899307.3670262     
   19899295.5703494     
   19899287.4387398     
   19899282.8490546     
   19899281.4553617     
   19851904.5010040     
   19851900.6001919     
   19851890.1770378     
   19851874.5681017     
   19851855.1345313     
   19851833.2169898     
   19851810.0947393     
   19851786.9486969     
   19851764.8285682     
   19851744.6243658     
   19851727.0427029     
   19851712.5882258     
   19851701.5504208     
   19851693.9959037     
   19851689.7662164     
   19851688.4811951     
   19800508.4819689     
   19800504.8165967     
   19800495.0117223     
   19800480.3295257     
   19800462.0615213     
   19800441.4826541     
   19800419.8099826     
   19800398.1654947     
   19800377.5430449     
   19800358.7797223     
   19800342.5320859     
   19800329.2576113     
   19800319.2014784     
   19800312.3885768     
   19800308.6204681     
   19800307.4771317     
   19745324.5042863     
   19745321.1425171     
   19745312.1425862     
   19745298.6712757     
   19745281.9274677     
   19745263.0965363     
   19745243.3097347     
   19745223.6078210     
   19745204.9087442     
   19745187.9796486     
   19745173.4136126     
   19745161.6113685     
   19745152.7678886     
   19745146.8633335     
   19745143.6576767     
   19745142.6885092     
   19686356.7042065     
   19686353.7220613     
   19686345.7359668     
   19686333.7936461     
   19686318.9750338     
   19686302.3481789     
   19686284.9306582     
   19686267.6554509     
   19686251.3408408     
   19686236.6643993     
   19686224.1412459     
   19686214.1065434     
   19686206.7016528     
   19686201.8629060     
   19686199.3118240     
   19686198.5459657     
   19623609.5138341     
   19623606.9940460     
   19623600.2494871     
   19623590.1827733     
   19623577.7256205     
   19623563.7973319     
   19623549.2696431     
   19623534.9367093     
   19623521.4894133     
   19623509.4934956     
   19623499.3710455     
   19623491.3845778     
   19623485.6223768     
   19623481.9834482     
   19623480.1605489     
   19623479.6203856     
   19557087.6669242     
   19557085.6972642     
   19557080.4354012     
   19557072.6106266     
   19557062.9747615     
   19557052.2638334     
   19557041.1676193     
   19557030.3060053     
   19557020.2108005     
   19557011.3113111     
   19557003.9216913     
   19556998.2277250     
   19556994.2706432     
   19556991.9258745     
   19556990.8753251     
   19556990.5726665     
   19486796.2090255     
   19486794.8800178     
   19486791.3478291     
   19486786.1380613     
   19486779.7891657     
   19486772.8171323     
   19486765.6906291     
   19486758.8162665     
   19486752.5319778     
   19486747.1046664     
   19486742.7270132     
   19486739.5083123     
   19486737.4555381     
   19486736.4426918     
   19486736.1680953     
   19486736.1002742     
   19412740.5139573     
   19412739.9158378     
   19412738.3557116     
   19412736.1226183     
   19412733.5067844     
   19412730.7662729     
   19412728.1081669     
   19412725.6854306     
   19412723.6066427     
   19412721.9512584     
   19412720.7800530     
   19412720.1313659     
   19412719.9977811     
   19412720.2824256     
   19412720.7368495     
   19412720.8832061     
   19334926.3084769     
   19334926.5272730     
   19334927.1633081     
   19334928.2326901     
   19334929.7411373     
   19334931.6509311     
   19334933.8685429     
   19334936.2560114     
   19334938.6617409     
   19334940.9580876     
   19334943.0688009     
   19334944.9718378     
   19334946.6705731     
   19334948.1342714     
   19334949.2129732     
   19334949.5322460     
   19253359.7076273     
   19253360.8199491     
   19253363.8398233     
   19253368.4689296     
   19253374.3900879     
   19253381.2330334     
   19253388.5702926     
   19253395.9467293     
   19253402.9338925     
   19253409.1901507     
   19253414.5047828     
   19253418.8084023     
   19253422.1406369     
   19253424.5756993     
   19253426.1131378     
   19253426.5422892     
   19168047.2629855     
   19168049.3291193     
   19168054.8597560     
   19168063.1930184     
   19168073.6471878     
   19168085.4856981     
   19168097.9268225     
   19168110.1953791     
   19168121.5971516     
   19168131.5920282     
   19168139.8472034     
   19168146.2562359     
   19168150.9117753     
   19168154.0253688     
   19168155.7981331     
   19168156.2531637     
   19078996.0278680     
   19078999.0818844     
   19079007.1549927     
   19079019.1614455     
   19079034.0096385     
   19079050.5721092     
   19079067.7192061     
   19079084.3931345     
   19079099.6869236     
   19079112.9084511     
   19079123.6270062     
   19079131.7010108     
   19079137.2723092     
   19079140.7029851     
   19079142.4406858     
   19079142.8200924     
   18986213.6453704     
   18986217.6800014     
   18986228.1788685     
   18986243.5573825     
   18986262.2697315     
   18986282.8004828     
   18986303.7299114     
   18986323.8125623     
   18986342.0293930     
   18986357.6146494     
   18986370.0778963     
   18986379.2361158     
   18986385.2462614     
   18986388.5967058     
   18986390.0042170     
   18986390.1963648     
   18889708.4673469     
   18889713.4096471     
   18889725.9795810     
   18889744.0033232     
   18889765.4648916     
   18889788.5369619     
   18889811.6518915     
   18889833.5339772     
   18889853.1873066     
   18889869.8701316     
   18889883.0856055     
   18889892.6069904     
   18889898.5465197     
   18889901.4373605     
   18889902.2353759     
   18889902.1326173     
   18789489.7267948     
   18789495.3914969     
   18789509.2662222     
   18789528.5129180     
   18789550.7496737     
   18789574.0621576     
   18789596.9751111     
   18789618.3760644     
   18789637.4279210     
   18789653.5068420     
   18789666.1719019     
   18789675.1746449     
   18789680.5292258     
   18789682.6762317     
   18789682.6748340     
   18789682.2012603     
   18685567.8200936     
   18685573.7899719     
   18685587.4076997     
   18685605.2998701     
   18685625.1540842     
   18685645.3750116     
   18685664.8635939     
   18685682.8348976     
   18685698.7096061     
   18685712.0504835     
   18685722.5297495     
   18685729.9257128     
   18685734.1642280     
   18685735.4579129     
   18685734.6953241     
   18685733.8682080     
   18577954.8221782     
   18577960.0976121     
   18577970.1491456     
   18577982.3403892     
   18577995.2289625     
   18578007.9764027     
   18578020.0373246     
   18578031.0315090     
   18578040.6782408     
   18578048.7597943     
   18578055.1017080     
   18578059.5661273     
   18578062.0639179     
   18578062.6130271     
   18578061.5501340     
   18578060.6824616     
   18466666.6666667     
   18466666.6666667     
   18466666.6666667     
   18466666.6666667     
   18466666.6666667     
   18466666.6666667     
   18466666.6666667     
   18466666.6666667     
   18466666.6666667     
   18466666.6666667     
   18466666.6666667     
   18466666.6666667     
   18466666.6666667     
   18466666.6666667     
   18466666.6666667     
   18466666.6666667     
VECTORS u double 
    0.00000E+00        -0.49088E-01         0.00000E+00
    0.00000E+00        -0.45793E-01         0.00000E+00
    0.00000E+00        -0.42501E-01         0.00000E+00
    0.00000E+00        -0.39212E-01         0.00000E+00
    0.00000E+00        -0.35927E-01         0.00000E+00
    0.00000E+00        -0.32645E-01         0.00000E+00
    0.00000E+00        -0.29367E-01         0.00000E+00
    0.00000E+00        -0.26092E-01         0.00000E+00
    0.00000E+00        -0.22820E-01         0.00000E+00
    0.00000E+00        -0.19551E-01         0.00000E+00
    0.00000E+00        -0.16285E-01         0.00000E+00
    0.00000E+00        -0.13022E-01         0.00000E+00
    0.00000E+00        -0.97625E-02         0.00000E+00
    0.00000E+00        -0.65056E-02         0.00000E+00
    0.00000E+00        -0.32515E-02         0.00000E+00
    0.00000E+00         0.00000E+00         0.00000E+00
    0.60654E-04        -0.49091E-01         0.00000E+00
    0.55559E-04        -0.45795E-01         0.00000E+00
    0.50566E-04        -0.42503E-01         0.00000E+00
    0.45681E-04        -0.39215E-01         0.00000E+00
    0.40912E-04        -0.35929E-01         0.00000E+00
    0.36270E-04        -0.32647E-01         0.00000E+00
    0.31767E-04        -0.29369E-01         0.00000E+00
    0.27418E-04        -0.26093E-01         0.00000E+00
    0.23238E-04        -0.22821E-01         0.00000E+00
    0.19243E-04        -0.19552E-01         0.00000E+00
    0.15448E-04        -0.16286E-01         0.00000E+00
    0.11869E-04        -0.13023E-01         0.00000E+00
    0.85202E-05        -0.97632E-02         0.00000E+00
    0.54168E-05        -0.65061E-02         0.00000E+00
    0.25723E-05        -0.32517E-02         0.00000E+00
    0.00000E+00         0.00000E+00         0.00000E+00
    0.12109E-03        -0.49098E-01         0.00000E+00
    0.11091E-03        -0.45803E-01         0.00000E+00
    0.10094E-03        -0.42510E-01         0.00000E+00
    0.91177E-04        -0.39221E-01         0.00000E+00
    0.81652E-04        -0.35935E-01         0.00000E+00
    0.72381E-04        -0.32653E-01         0.00000E+00
    0.63391E-04        -0.29374E-01         0.00000E+00
    0.54708E-04        -0.26098E-01         0.00000E+00
    0.46365E-04        -0.22825E-01         0.00000E+00
    0.38391E-04        -0.19556E-01         0.00000E+00
    0.30818E-04        -0.16289E-01         0.00000E+00
    0.23677E-04        -0.13026E-01         0.00000E+00
    0.16996E-04        -0.97652E-02         0.00000E+00
    0.10805E-04        -0.65074E-02         0.00000E+00
    0.51312E-05        -0.32524E-02         0.00000E+00
    0.00000E+00         0.00000E+00         0.00000E+00
    0.18110E-03        -0.49111E-01         0.00000E+00
    0.16585E-03        -0.45815E-01         0.00000E+00
    0.15091E-03        -0.42522E-01         0.00000E+00
    0.13630E-03        -0.39232E-01         0.00000E+00
    0.12204E-03        -0.35946E-01         0.00000E+00
    0.10817E-03        -0.32663E-01         0.00000E+00
    0.94725E-04        -0.29383E-01         0.00000E+00
    0.81742E-04        -0.26106E-01         0.00000E+00
    0.69268E-04        -0.22833E-01         0.00000E+00
    0.57350E-04        -0.19562E-01         0.00000E+00
    0.46034E-04        -0.16295E-01         0.00000E+00
    0.35364E-04        -0.13030E-01         0.00000E+00
    0.25385E-04        -0.97685E-02         0.00000E+00
    0.16139E-04        -0.65097E-02         0.00000E+00
    0.76640E-05        -0.32536E-02         0.00000E+00
    0.00000E+00         0.00000E+00         0.00000E+00
    0.24044E-03        -0.49129E-01         0.00000E+00
    0.22014E-03        -0.45832E-01         0.00000E+00
    0.20027E-03        -0.42538E-01         0.00000E+00
    0.18085E-03        -0.39248E-01         0.00000E+00
    0.16191E-03        -0.35960E-01         0.00000E+00
    0.14348E-03        -0.32676E-01         0.00000E+00
    0.12563E-03        -0.29395E-01         0.00000E+00
    0.10839E-03        -0.26117E-01         0.00000E+00
    0.91837E-04        -0.22843E-01         0.00000E+00
    0.76027E-04        -0.19571E-01         0.00000E+00
    0.61020E-04        -0.16302E-01         0.00000E+00
    0.46874E-04        -0.13036E-01         0.00000E+00
    0.33646E-04        -0.97732E-02         0.00000E+00
    0.21391E-04        -0.65129E-02         0.00000E+00
    0.10159E-04        -0.32552E-02         0.00000E+00
    0.00000E+00         0.00000E+00         0.00000E+00
    0.29886E-03        -0.49152E-01         0.00000E+00
    0.27356E-03        -0.45854E-01         0.00000E+00
    0.24882E-03        -0.42559E-01         0.00000E+00
    0.22464E-03        -0.39267E-01         0.00000E+00
    0.20106E-03        -0.35979E-01         0.00000E+00
    0.17814E-03        -0.32693E-01         0.00000E+00
    0.15594E-03        -0.29411E-01         0.00000E+00
    0.13452E-03        -0.26132E-01         0.00000E+00
    0.11396E-03        -0.22856E-01         0.00000E+00
    0.94332E-04        -0.19582E-01         0.00000E+00
    0.75704E-04        -0.16312E-01         0.00000E+00
    0.58151E-04        -0.13044E-01         0.00000E+00
    0.41741E-04        -0.97792E-02         0.00000E+00
    0.26538E-04        -0.65170E-02         0.00000E+00
    0.12605E-04        -0.32572E-02         0.00000E+00
    0.00000E+00         0.00000E+00         0.00000E+00
    0.35610E-03        -0.49180E-01         0.00000E+00
    0.32586E-03        -0.45881E-01         0.00000E+00
    0.29630E-03        -0.42585E-01         0.00000E+00
    0.26743E-03        -0.39291E-01         0.00000E+00
    0.23931E-03        -0.36001E-01         0.00000E+00
    0.21198E-03        -0.32715E-01         0.00000E+00
    0.18552E-03        -0.29431E-01         0.00000E+00
    0.16001E-03        -0.26150E-01         0.00000E+00
    0.13554E-03        -0.22871E-01         0.00000E+00
    0.11218E-03        -0.19596E-01         0.00000E+00
    0.90019E-04        -0.16324E-01         0.00000E+00
    0.69146E-04        -0.13054E-01         0.00000E+00
    0.49636E-04        -0.97866E-02         0.00000E+00
    0.31562E-04        -0.65220E-02         0.00000E+00
    0.14994E-04        -0.32598E-02         0.00000E+00
    0.00000E+00         0.00000E+00         0.00000E+00
    0.41185E-03        -0.49213E-01         0.00000E+00
    0.37675E-03        -0.45912E-01         0.00000E+00
    0.34246E-03        -0.42615E-01         0.00000E+00
    0.30901E-03        -0.39320E-01         0.00000E+00
    0.27644E-03        -0.36028E-01         0.00000E+00
    0.24481E-03        -0.32740E-01         0.00000E+00
    0.21421E-03        -0.29454E-01         0.00000E+00
    0.18473E-03        -0.26171E-01         0.00000E+00
    0.15645E-03        -0.22890E-01         0.00000E+00
    0.12948E-03        -0.19613E-01         0.00000E+00
    0.10390E-03        -0.16338E-01         0.00000E+00
    0.79814E-04        -0.13065E-01         0.00000E+00
    0.57301E-04        -0.97953E-02         0.00000E+00
    0.36444E-04        -0.65278E-02         0.00000E+00
    0.17320E-04        -0.32628E-02         0.00000E+00
    0.00000E+00         0.00000E+00         0.00000E+00
    0.46579E-03        -0.49251E-01         0.00000E+00
    0.42593E-03        -0.45949E-01         0.00000E+00
    0.38703E-03        -0.42649E-01         0.00000E+00
    0.34911E-03        -0.39353E-01         0.00000E+00
    0.31223E-03        -0.36059E-01         0.00000E+00
    0.27645E-03        -0.32769E-01         0.00000E+00
    0.24185E-03        -0.29480E-01         0.00000E+00
    0.20853E-03        -0.26195E-01         0.00000E+00
    0.17660E-03        -0.22912E-01         0.00000E+00
    0.14615E-03        -0.19632E-01         0.00000E+00
    0.11729E-03        -0.16354E-01         0.00000E+00
    0.90114E-04        -0.13078E-01         0.00000E+00
    0.64712E-04        -0.98054E-02         0.00000E+00
    0.41173E-04        -0.65346E-02         0.00000E+00
    0.19577E-04        -0.32662E-02         0.00000E+00
    0.00000E+00         0.00000E+00         0.00000E+00
    0.51753E-03        -0.49294E-01         0.00000E+00
    0.47304E-03        -0.45990E-01         0.00000E+00
    0.42969E-03        -0.42689E-01         0.00000E+00
    0.38747E-03        -0.39390E-01         0.00000E+00
    0.34645E-03        -0.36094E-01         0.00000E+00
    0.30669E-03        -0.32801E-01         0.00000E+00
    0.26827E-03        -0.29511E-01         0.00000E+00
    0.23130E-03        -0.26222E-01         0.00000E+00
    0.19588E-03        -0.22937E-01         0.00000E+00
    0.16213E-03        -0.19653E-01         0.00000E+00
    0.13014E-03        -0.16372E-01         0.00000E+00
    0.10001E-03        -0.13093E-01         0.00000E+00
    0.71852E-04        -0.98167E-02         0.00000E+00
    0.45742E-04        -0.65423E-02         0.00000E+00
    0.21766E-04        -0.32701E-02         0.00000E+00
    0.00000E+00         0.00000E+00         0.00000E+00
    0.56665E-03        -0.49341E-01         0.00000E+00
    0.51772E-03        -0.46035E-01         0.00000E+00
    0.47010E-03        -0.42732E-01         0.00000E+00
    0.42379E-03        -0.39432E-01         0.00000E+00
    0.37884E-03        -0.36134E-01         0.00000E+00
    0.33531E-03        -0.32838E-01         0.00000E+00
    0.29329E-03        -0.29544E-01         0.00000E+00
    0.25289E-03        -0.26253E-01         0.00000E+00
    0.21419E-03        -0.22964E-01         0.00000E+00
    0.17733E-03        -0.19677E-01         0.00000E+00
    0.14239E-03        -0.16393E-01         0.00000E+00
    0.10948E-03        -0.13110E-01         0.00000E+00
    0.78707E-04        -0.98294E-02         0.00000E+00
    0.50147E-04        -0.65509E-02         0.00000E+00
    0.23886E-04        -0.32744E-02         0.00000E+00
    0.00000E+00         0.00000E+00         0.00000E+00
    0.61269E-03        -0.49393E-01         0.00000E+00
    0.55953E-03        -0.46085E-01         0.00000E+00
    0.50788E-03        -0.42780E-01         0.00000E+00
    0.45773E-03        -0.39477E-01         0.00000E+00
    0.40912E-03        -0.36177E-01         0.00000E+00
    0.36209E-03        -0.32878E-01         0.00000E+00
    0.31674E-03        -0.29582E-01         0.00000E+00
    0.27315E-03        -0.26287E-01         0.00000E+00
    0.23143E-03        -0.22995E-01         0.00000E+00
    0.19168E-03        -0.19704E-01         0.00000E+00
    0.15400E-03        -0.16415E-01         0.00000E+00
    0.11850E-03        -0.13128E-01         0.00000E+00
    0.85270E-04        -0.98434E-02         0.00000E+00
    0.54390E-04        -0.65603E-02         0.00000E+00
    0.25942E-04        -0.32792E-02         0.00000E+00
    0.00000E+00         0.00000E+00         0.00000E+00
    0.65510E-03        -0.49449E-01         0.00000E+00
    0.59799E-03        -0.46140E-01         0.00000E+00
    0.54261E-03        -0.42832E-01         0.00000E+00
    0.48894E-03        -0.39527E-01         0.00000E+00
    0.43698E-03        -0.36224E-01         0.00000E+00
    0.38678E-03        -0.32922E-01         0.00000E+00
    0.33841E-03        -0.29622E-01         0.00000E+00
    0.29194E-03        -0.26324E-01         0.00000E+00
    0.24748E-03        -0.23028E-01         0.00000E+00
    0.20511E-03        -0.19733E-01         0.00000E+00
    0.16494E-03        -0.16440E-01         0.00000E+00
    0.12705E-03        -0.13148E-01         0.00000E+00
    0.91537E-04        -0.98586E-02         0.00000E+00
    0.58475E-04        -0.65706E-02         0.00000E+00
    0.27940E-04        -0.32843E-02         0.00000E+00
    0.00000E+00         0.00000E+00         0.00000E+00
    0.69330E-03        -0.49509E-01         0.00000E+00
    0.63258E-03        -0.46198E-01         0.00000E+00
    0.57384E-03        -0.42888E-01         0.00000E+00
    0.51701E-03        -0.39580E-01         0.00000E+00
    0.46210E-03        -0.36274E-01         0.00000E+00
    0.40911E-03        -0.32970E-01         0.00000E+00
    0.35809E-03        -0.29666E-01         0.00000E+00
    0.30911E-03        -0.26364E-01         0.00000E+00
    0.26224E-03        -0.23064E-01         0.00000E+00
    0.21756E-03        -0.19765E-01         0.00000E+00
    0.17516E-03        -0.16467E-01         0.00000E+00
    0.13512E-03        -0.13170E-01         0.00000E+00
    0.97510E-04        -0.98751E-02         0.00000E+00
    0.62412E-04        -0.65816E-02         0.00000E+00
    0.29888E-04        -0.32899E-02         0.00000E+00
    0.00000E+00         0.00000E+00         0.00000E+00
    0.72663E-03        -0.49573E-01         0.00000E+00
    0.66271E-03        -0.46259E-01         0.00000E+00
    0.60104E-03        -0.42948E-01         0.00000E+00
    0.54152E-03        -0.39637E-01         0.00000E+00
    0.48410E-03        -0.36328E-01         0.00000E+00
    0.42877E-03        -0.33020E-01         0.00000E+00
    0.37555E-03        -0.29713E-01         0.00000E+00
    0.32446E-03        -0.26407E-01         0.00000E+00
    0.27557E-03        -0.23102E-01         0.00000E+00
    0.22893E-03        -0.19798E-01         0.00000E+00
    0.18461E-03        -0.16495E-01         0.00000E+00
    0.14268E-03        -0.13193E-01         0.00000E+00
    0.10319E-03        -0.98927E-02         0.00000E+00
    0.66207E-04        -0.65935E-02         0.00000E+00
    0.31793E-04        -0.32959E-02         0.00000E+00
    0.00000E+00         0.00000E+00         0.00000E+00
    0.75438E-03        -0.49639E-01         0.00000E+00
    0.68776E-03        -0.46324E-01         0.00000E+00
    0.62366E-03        -0.43010E-01         0.00000E+00
    0.56197E-03        -0.39698E-01         0.00000E+00
    0.50259E-03        -0.36386E-01         0.00000E+00
    0.44545E-03        -0.33074E-01         0.00000E+00
    0.39053E-03        -0.29763E-01         0.00000E+00
    0.33783E-03        -0.26453E-01         0.00000E+00
    0.28736E-03        -0.23143E-01         0.00000E+00
    0.23915E-03        -0.19834E-01         0.00000E+00
    0.19326E-03        -0.16526E-01         0.00000E+00
    0.14971E-03        -0.13218E-01         0.00000E+00
    0.10857E-03        -0.99114E-02         0.00000E+00
    0.69867E-04        -0.66061E-02         0.00000E+00
    0.33662E-04        -0.33022E-02         0.00000E+00
    0.00000E+00         0.00000E+00         0.00000E+00
    0.77579E-03        -0.49709E-01         0.00000E+00
    0.70702E-03        -0.46392E-01         0.00000E+00
    0.64111E-03        -0.43076E-01         0.00000E+00
    0.57786E-03        -0.39761E-01         0.00000E+00
    0.51712E-03        -0.36445E-01         0.00000E+00
    0.45877E-03        -0.33131E-01         0.00000E+00
    0.40274E-03        -0.29816E-01         0.00000E+00
    0.34897E-03        -0.26501E-01         0.00000E+00
    0.29743E-03        -0.23186E-01         0.00000E+00
    0.24811E-03        -0.19872E-01         0.00000E+00
    0.20102E-03        -0.16558E-01         0.00000E+00
    0.15619E-03        -0.13244E-01         0.00000E+00
    0.11364E-03        -0.99311E-02         0.00000E+00
    0.73393E-04        -0.66193E-02         0.00000E+00
    0.35499E-04        -0.33089E-02         0.00000E+00
    0.00000E+00         0.00000E+00         0.00000E+00
    0.79005E-03        -0.49780E-01         0.00000E+00
    0.71980E-03        -0.46462E-01         0.00000E+00
    0.65273E-03        -0.43144E-01         0.00000E+00
    0.58861E-03        -0.39826E-01         0.00000E+00
    0.52721E-03        -0.36508E-01         0.00000E+00
    0.46834E-03        -0.33189E-01         0.00000E+00
    0.41186E-03        -0.29871E-01         0.00000E+00
    0.35764E-03        -0.26551E-01         0.00000E+00
    0.30559E-03        -0.23231E-01         0.00000E+00
    0.25567E-03        -0.19911E-01         0.00000E+00
    0.20783E-03        -0.16591E-01         0.00000E+00
    0.16207E-03        -0.13271E-01         0.00000E+00
    0.11837E-03        -0.99518E-02         0.00000E+00
    0.76773E-04        -0.66332E-02         0.00000E+00
    0.37300E-04        -0.33158E-02         0.00000E+00
    0.00000E+00         0.00000E+00         0.00000E+00
    0.79635E-03        -0.49852E-01         0.00000E+00
    0.72533E-03        -0.46533E-01         0.00000E+00
    0.65786E-03        -0.43213E-01         0.00000E+00
    0.59362E-03        -0.39893E-01         0.00000E+00
    0.53232E-03        -0.36572E-01         0.00000E+00
    0.47369E-03        -0.33250E-01         0.00000E+00
    0.41750E-03        -0.29927E-01         0.00000E+00
    0.36353E-03        -0.26603E-01         0.00000E+00
    0.31163E-03        -0.23278E-01         0.00000E+00
    0.26167E-03        -0.19952E-01         0.00000E+00
    0.21356E-03        -0.16626E-01         0.00000E+00
    0.16725E-03        -0.13299E-01         0.00000E+00
    0.12272E-03        -0.99733E-02         0.00000E+00
    0.79978E-04        -0.66477E-02         0.00000E+00
    0.39052E-04        -0.33231E-02         0.00000E+00
    0.00000E+00         0.00000E+00         0.00000E+00
    0.79386E-03        -0.49926E-01         0.00000E+00
    0.72286E-03        -0.46605E-01         0.00000E+00
    0.65578E-03        -0.43283E-01         0.00000E+00
    0.59225E-03        -0.39961E-01         0.00000E+00
    0.53188E-03        -0.36637E-01         0.00000E+00
    0.47433E-03        -0.33311E-01         0.00000E+00
    0.41923E-03        -0.29984E-01         0.00000E+00
    0.36629E-03        -0.26656E-01         0.00000E+00
    0.31524E-03        -0.23325E-01         0.00000E+00
    0.26588E-03        -0.19994E-01         0.00000E+00
    0.21804E-03        -0.16662E-01         0.00000E+00
    0.17163E-03        -0.13328E-01         0.00000E+00
    0.12660E-03        -0.99954E-02         0.00000E+00
    0.82949E-04        -0.66626E-02         0.00000E+00
    0.40725E-04        -0.33306E-02         0.00000E+00
    0.00000E+00         0.00000E+00         0.00000E+00
    0.78178E-03        -0.49999E-01         0.00000E+00
    0.71165E-03        -0.46677E-01         0.00000E+00
    0.64581E-03        -0.43353E-01         0.00000E+00
    0.58385E-03        -0.40029E-01         0.00000E+00
    0.52529E-03        -0.36702E-01         0.00000E+00
    0.46968E-03        -0.33373E-01         0.00000E+00
    0.41656E-03        -0.30042E-01         0.00000E+00
    0.36549E-03        -0.26709E-01         0.00000E+00
    0.31608E-03        -0.23374E-01         0.00000E+00
    0.26801E-03        -0.20036E-01         0.00000E+00
    0.22103E-03        -0.16698E-01         0.00000E+00
    0.17500E-03        -0.13358E-01         0.00000E+00
    0.12986E-03        -0.10018E-01         0.00000E+00
    0.85591E-04        -0.66779E-02         0.00000E+00
    0.42270E-04        -0.33384E-02         0.00000E+00
    0.00000E+00         0.00000E+00         0.00000E+00
    0.75935E-03        -0.50070E-01         0.00000E+00
    0.69096E-03        -0.46747E-01         0.00000E+00
    0.62726E-03        -0.43423E-01         0.00000E+00
    0.56776E-03        -0.40096E-01         0.00000E+00
    0.51192E-03        -0.36766E-01         0.00000E+00
    0.45917E-03        -0.33434E-01         0.00000E+00
    0.40894E-03        -0.30099E-01         0.00000E+00
    0.36062E-03        -0.26762E-01         0.00000E+00
    0.31368E-03        -0.23422E-01         0.00000E+00
    0.26765E-03        -0.20079E-01         0.00000E+00
    0.22220E-03        -0.16734E-01         0.00000E+00
    0.17711E-03        -0.13388E-01         0.00000E+00
    0.13229E-03        -0.10041E-01         0.00000E+00
    0.87755E-04        -0.66935E-02         0.00000E+00
    0.43608E-04        -0.33463E-02         0.00000E+00
    0.00000E+00         0.00000E+00         0.00000E+00
    0.72588E-03        -0.50140E-01         0.00000E+00
    0.66015E-03        -0.46816E-01         0.00000E+00
    0.59949E-03        -0.43490E-01         0.00000E+00
    0.54335E-03        -0.40161E-01         0.00000E+00
    0.49114E-03        -0.36829E-01         0.00000E+00
    0.44217E-03        -0.33494E-01         0.00000E+00
    0.39573E-03        -0.30155E-01         0.00000E+00
    0.35106E-03        -0.26813E-01         0.00000E+00
    0.30745E-03        -0.23468E-01         0.00000E+00
    0.26428E-03        -0.20121E-01         0.00000E+00
    0.22107E-03        -0.16770E-01         0.00000E+00
    0.17754E-03        -0.13418E-01         0.00000E+00
    0.13358E-03        -0.10064E-01         0.00000E+00
    0.89231E-04        -0.67092E-02         0.00000E+00
    0.44632E-04        -0.33544E-02         0.00000E+00
    0.00000E+00         0.00000E+00         0.00000E+00
    0.68074E-03        -0.50207E-01         0.00000E+00
    0.61862E-03        -0.46882E-01         0.00000E+00
    0.56192E-03        -0.43554E-01         0.00000E+00
    0.51007E-03        -0.40223E-01         0.00000E+00
    0.46237E-03        -0.36888E-01         0.00000E+00
    0.41806E-03        -0.33550E-01         0.00000E+00
    0.37627E-03        -0.30208E-01         0.00000E+00
    0.33610E-03        -0.26863E-01         0.00000E+00
    0.29665E-03        -0.23513E-01         0.00000E+00
    0.25714E-03        -0.20161E-01         0.00000E+00
    0.21697E-03        -0.16805E-01         0.00000E+00
    0.17575E-03        -0.13447E-01         0.00000E+00
    0.13331E-03        -0.10087E-01         0.00000E+00
    0.89728E-04        -0.67251E-02         0.00000E+00
    0.45192E-04        -0.33626E-02         0.00000E+00
    0.00000E+00         0.00000E+00         0.00000E+00
    0.62340E-03        -0.50270E-01         0.00000E+00
    0.56586E-03        -0.46944E-01         0.00000E+00
    0.51408E-03        -0.43615E-01         0.00000E+00
    0.46742E-03        -0.40281E-01         0.00000E+00
    0.42512E-03        -0.36944E-01         0.00000E+00
    0.38627E-03        -0.33603E-01         0.00000E+00
    0.34987E-03        -0.30257E-01         0.00000E+00
    0.31490E-03        -0.26908E-01         0.00000E+00
    0.28034E-03        -0.23555E-01         0.00000E+00
    0.24529E-03        -0.20199E-01         0.00000E+00
    0.20901E-03        -0.16839E-01         0.00000E+00
    0.17096E-03        -0.13476E-01         0.00000E+00
    0.13089E-03        -0.10109E-01         0.00000E+00
    0.88852E-04        -0.67410E-02         0.00000E+00
    0.45092E-04        -0.33710E-02         0.00000E+00
    0.00000E+00         0.00000E+00         0.00000E+00
    0.55335E-03        -0.50328E-01         0.00000E+00
    0.50143E-03        -0.47001E-01         0.00000E+00
    0.45558E-03        -0.43670E-01         0.00000E+00
    0.41506E-03        -0.40334E-01         0.00000E+00
    0.37896E-03        -0.36994E-01         0.00000E+00
    0.34624E-03        -0.33650E-01         0.00000E+00
    0.31579E-03        -0.30301E-01         0.00000E+00
    0.28652E-03        -0.26949E-01         0.00000E+00
    0.25740E-03        -0.23593E-01         0.00000E+00
    0.22751E-03        -0.20234E-01         0.00000E+00
    0.19599E-03        -0.16870E-01         0.00000E+00
    0.16214E-03        -0.13502E-01         0.00000E+00
    0.12552E-03        -0.10131E-01         0.00000E+00
    0.86073E-04        -0.67566E-02         0.00000E+00
    0.44067E-04        -0.33793E-02         0.00000E+00
    0.00000E+00         0.00000E+00         0.00000E+00
    0.47019E-03        -0.50381E-01         0.00000E+00
    0.42504E-03        -0.47052E-01         0.00000E+00
    0.38621E-03        -0.43719E-01         0.00000E+00
    0.35276E-03        -0.40380E-01         0.00000E+00
    0.32359E-03        -0.37037E-01         0.00000E+00
    0.29747E-03        -0.33690E-01         0.00000E+00
    0.27326E-03        -0.30339E-01         0.00000E+00
    0.24994E-03        -0.26984E-01         0.00000E+00
    0.22661E-03        -0.23626E-01         0.00000E+00
    0.20239E-03        -0.20264E-01         0.00000E+00
    0.17643E-03        -0.16898E-01         0.00000E+00
    0.14790E-03        -0.13527E-01         0.00000E+00
    0.11610E-03        -0.10152E-01         0.00000E+00
    0.80659E-04        -0.67719E-02         0.00000E+00
    0.41760E-04        -0.33877E-02         0.00000E+00
    0.00000E+00         0.00000E+00         0.00000E+00
    0.37354E-03        -0.50425E-01         0.00000E+00
    0.33650E-03        -0.47095E-01         0.00000E+00
    0.30588E-03        -0.43759E-01         0.00000E+00
    0.28042E-03        -0.40418E-01         0.00000E+00
    0.25867E-03        -0.37072E-01         0.00000E+00
    0.23934E-03        -0.33722E-01         0.00000E+00
    0.22141E-03        -0.30369E-01         0.00000E+00
    0.20409E-03        -0.27012E-01         0.00000E+00
    0.18666E-03        -0.23652E-01         0.00000E+00
    0.16842E-03        -0.20288E-01         0.00000E+00
    0.14864E-03        -0.16921E-01         0.00000E+00
    0.12649E-03        -0.13548E-01         0.00000E+00
    0.10106E-03        -0.10170E-01         0.00000E+00
    0.71537E-04        -0.67863E-02         0.00000E+00
    0.37649E-04        -0.33960E-02         0.00000E+00
    0.00000E+00         0.00000E+00         0.00000E+00
    0.26309E-03        -0.50462E-01         0.00000E+00
    0.23582E-03        -0.47130E-01         0.00000E+00
    0.21475E-03        -0.43791E-01         0.00000E+00
    0.19795E-03        -0.40447E-01         0.00000E+00
    0.18373E-03        -0.37098E-01         0.00000E+00
    0.17107E-03        -0.33746E-01         0.00000E+00
    0.15930E-03        -0.30391E-01         0.00000E+00
    0.14787E-03        -0.27033E-01         0.00000E+00
    0.13633E-03        -0.23671E-01         0.00000E+00
    0.12419E-03        -0.20307E-01         0.00000E+00
    0.11093E-03        -0.16938E-01         0.00000E+00
    0.95899E-04        -0.13565E-01         0.00000E+00
    0.78281E-04        -0.10186E-01         0.00000E+00
    0.57002E-04        -0.67991E-02         0.00000E+00
    0.30899E-04        -0.34040E-02         0.00000E+00
    0.00000E+00         0.00000E+00         0.00000E+00
    0.13853E-03        -0.50487E-01         0.00000E+00
    0.12336E-03        -0.47153E-01         0.00000E+00
    0.11304E-03        -0.43811E-01         0.00000E+00
    0.10486E-03        -0.40464E-01         0.00000E+00
    0.97909E-04        -0.37114E-01         0.00000E+00
    0.91680E-04        -0.33760E-01         0.00000E+00
    0.85859E-04        -0.30404E-01         0.00000E+00
    0.80196E-04        -0.27045E-01         0.00000E+00
    0.74462E-04        -0.23683E-01         0.00000E+00
    0.68417E-04        -0.20318E-01         0.00000E+00
    0.61789E-04        -0.16949E-01         0.00000E+00
    0.54238E-04        -0.13575E-01         0.00000E+00
    0.45293E-04        -0.10196E-01         0.00000E+00
    0.34219E-04        -0.68085E-02         0.00000E+00
    0.19805E-04        -0.34110E-02         0.00000E+00
    0.00000E+00         0.00000E+00         0.00000E+00
    0.00000E+00        -0.50499E-01         0.00000E+00
    0.00000E+00        -0.47161E-01         0.00000E+00
    0.00000E+00        -0.43818E-01         0.00000E+00
    0.00000E+00        -0.40470E-01         0.00000E+00
    0.00000E+00        -0.37119E-01         0.00000E+00
    0.00000E+00        -0.33765E-01         0.00000E+00
    0.00000E+00        -0.30408E-01         0.00000E+00
    0.00000E+00        -0.27049E-01         0.00000E+00
    0.00000E+00        -0.23687E-01         0.00000E+00
    0.00000E+00        -0.20322E-01         0.00000E+00
    0.00000E+00        -0.16952E-01         0.00000E+00
    0.00000E+00        -0.13579E-01         0.00000E+00
    0.00000E+00        -0.10199E-01         0.00000E+00
    0.00000E+00        -0.68120E-02         0.00000E+00
    0.00000E+00        -0.34142E-02         0.00000E+00
    0.00000E+00         0.00000E+00         0.00000E+00
CELL_DATA        450
VECTORS vDarcy double 
    0.10873E-08        -0.24307E-11         0.00000E+00
    0.10873E-08        -0.64044E-11         0.00000E+00
    0.10873E-08        -0.95330E-11         0.00000E+00
    0.10873E-08        -0.11837E-10         0.00000E+00
    0.10873E-08        -0.13351E-10         0.00000E+00
    0.10873E-08        -0.14121E-10         0.00000E+00
    0.10873E-08        -0.14203E-10         0.00000E+00
    0.10874E-08        -0.13667E-10         0.00000E+00
    0.10874E-08        -0.12594E-10         0.00000E+00
    0.10874E-08        -0.11078E-10         0.00000E+00
    0.10874E-08        -0.92193E-11         0.00000E+00
    0.10874E-08        -0.71337E-11         0.00000E+00
    0.10874E-08        -0.49451E-11         0.00000E+00
    0.10874E-08        -0.27881E-11         0.00000E+00
    0.10874E-08        -0.80798E-12         0.00000E+00
    0.32617E-08        -0.24346E-11         0.00000E+00
    0.32617E-08        -0.64166E-11         0.00000E+00
    0.32618E-08        -0.95525E-11         0.00000E+00
    0.32618E-08        -0.11863E-10         0.00000E+00
    0.32618E-08        -0.13382E-10         0.00000E+00
    0.32619E-08        -0.14154E-10         0.00000E+00
    0.32619E-08        -0.14237E-10         0.00000E+00
    0.32620E-08        -0.13701E-10         0.00000E+00
    0.32620E-08        -0.12627E-10         0.00000E+00
    0.32621E-08        -0.11107E-10         0.00000E+00
    0.32621E-08        -0.92456E-11         0.00000E+00
    0.32621E-08        -0.71558E-11         0.00000E+00
    0.32622E-08        -0.49623E-11         0.00000E+00
    0.32622E-08        -0.27997E-11         0.00000E+00
    0.32622E-08        -0.81258E-12         0.00000E+00
    0.54360E-08        -0.24421E-11         0.00000E+00
    0.54360E-08        -0.64396E-11         0.00000E+00
    0.54360E-08        -0.95897E-11         0.00000E+00
    0.54361E-08        -0.11912E-10         0.00000E+00
    0.54361E-08        -0.13440E-10         0.00000E+00
    0.54362E-08        -0.14217E-10         0.00000E+00
    0.54363E-08        -0.14303E-10         0.00000E+00
    0.54363E-08        -0.13766E-10         0.00000E+00
    0.54364E-08        -0.12689E-10         0.00000E+00
    0.54365E-08        -0.11164E-10         0.00000E+00
    0.54365E-08        -0.92952E-11         0.00000E+00
    0.54366E-08        -0.71974E-11         0.00000E+00
    0.54366E-08        -0.49947E-11         0.00000E+00
    0.54367E-08        -0.28214E-11         0.00000E+00
    0.54367E-08        -0.82131E-12         0.00000E+00
    0.76098E-08        -0.24522E-11         0.00000E+00
    0.76098E-08        -0.64709E-11         0.00000E+00
    0.76098E-08        -0.96406E-11         0.00000E+00
    0.76099E-08        -0.11979E-10         0.00000E+00
    0.76100E-08        -0.13519E-10         0.00000E+00
    0.76100E-08        -0.14304E-10         0.00000E+00
    0.76101E-08        -0.14392E-10         0.00000E+00
    0.76102E-08        -0.13854E-10         0.00000E+00
    0.76103E-08        -0.12772E-10         0.00000E+00
    0.76104E-08        -0.11240E-10         0.00000E+00
    0.76105E-08        -0.93621E-11         0.00000E+00
    0.76105E-08        -0.72533E-11         0.00000E+00
    0.76106E-08        -0.50383E-11         0.00000E+00
    0.76106E-08        -0.28508E-11         0.00000E+00
    0.76107E-08        -0.83329E-12         0.00000E+00
    0.97830E-08        -0.24634E-11         0.00000E+00
    0.97830E-08        -0.65068E-11         0.00000E+00
    0.97831E-08        -0.96993E-11         0.00000E+00
    0.97831E-08        -0.12057E-10         0.00000E+00
    0.97832E-08        -0.13611E-10         0.00000E+00
    0.97833E-08        -0.14404E-10         0.00000E+00
    0.97834E-08        -0.14495E-10         0.00000E+00
    0.97835E-08        -0.13956E-10         0.00000E+00
    0.97836E-08        -0.12868E-10         0.00000E+00
    0.97837E-08        -0.11326E-10         0.00000E+00
    0.97838E-08        -0.94373E-11         0.00000E+00
    0.97838E-08        -0.73161E-11         0.00000E+00
    0.97839E-08        -0.50872E-11         0.00000E+00
    0.97839E-08        -0.28840E-11         0.00000E+00
    0.97839E-08        -0.84717E-12         0.00000E+00
    0.11956E-07        -0.24740E-11         0.00000E+00
    0.11956E-07        -0.65421E-11         0.00000E+00
    0.11956E-07        -0.97580E-11         0.00000E+00
    0.11956E-07        -0.12135E-10         0.00000E+00
    0.11956E-07        -0.13703E-10         0.00000E+00
    0.11956E-07        -0.14505E-10         0.00000E+00
    0.11956E-07        -0.14599E-10         0.00000E+00
    0.11956E-07        -0.14056E-10         0.00000E+00
    0.11956E-07        -0.12961E-10         0.00000E+00
    0.11956E-07        -0.11410E-10         0.00000E+00
    0.11956E-07        -0.95094E-11         0.00000E+00
    0.11956E-07        -0.73756E-11         0.00000E+00
    0.11956E-07        -0.51336E-11         0.00000E+00
    0.11956E-07        -0.29158E-11         0.00000E+00
    0.11956E-07        -0.86123E-12         0.00000E+00
    0.14127E-07        -0.24816E-11         0.00000E+00
    0.14127E-07        -0.65704E-11         0.00000E+00
    0.14127E-07        -0.98068E-11         0.00000E+00
    0.14127E-07        -0.12201E-10         0.00000E+00
    0.14127E-07        -0.13781E-10         0.00000E+00
    0.14127E-07        -0.14590E-10         0.00000E+00
    0.14127E-07        -0.14684E-10         0.00000E+00
    0.14127E-07        -0.14138E-10         0.00000E+00
    0.14128E-07        -0.13036E-10         0.00000E+00
    0.14128E-07        -0.11475E-10         0.00000E+00
    0.14128E-07        -0.95639E-11         0.00000E+00
    0.14128E-07        -0.74199E-11         0.00000E+00
    0.14128E-07        -0.51682E-11         0.00000E+00
    0.14128E-07        -0.29403E-11         0.00000E+00
    0.14128E-07        -0.87338E-12         0.00000E+00
    0.16298E-07        -0.24833E-11         0.00000E+00
    0.16298E-07        -0.65839E-11         0.00000E+00
    0.16298E-07        -0.98337E-11         0.00000E+00
    0.16298E-07        -0.12240E-10         0.00000E+00
    0.16298E-07        -0.13828E-10         0.00000E+00
    0.16298E-07        -0.14639E-10         0.00000E+00
    0.16298E-07        -0.14732E-10         0.00000E+00
    0.16298E-07        -0.14181E-10         0.00000E+00
    0.16298E-07        -0.13071E-10         0.00000E+00
    0.16298E-07        -0.11503E-10         0.00000E+00
    0.16298E-07        -0.95845E-11         0.00000E+00
    0.16298E-07        -0.74350E-11         0.00000E+00
    0.16298E-07        -0.51800E-11         0.00000E+00
    0.16298E-07        -0.29505E-11         0.00000E+00
    0.16298E-07        -0.88122E-12         0.00000E+00
    0.18467E-07        -0.24759E-11         0.00000E+00
    0.18467E-07        -0.65736E-11         0.00000E+00
    0.18467E-07        -0.98249E-11         0.00000E+00
    0.18467E-07        -0.12233E-10         0.00000E+00
    0.18467E-07        -0.13821E-10         0.00000E+00
    0.18467E-07        -0.14631E-10         0.00000E+00
    0.18467E-07        -0.14720E-10         0.00000E+00
    0.18467E-07        -0.14162E-10         0.00000E+00
    0.18467E-07        -0.13046E-10         0.00000E+00
    0.18467E-07        -0.11473E-10         0.00000E+00
    0.18466E-07        -0.95525E-11         0.00000E+00
    0.18466E-07        -0.74053E-11         0.00000E+00
    0.18466E-07        -0.51572E-11         0.00000E+00
    0.18466E-07        -0.29386E-11         0.00000E+00
    0.18466E-07        -0.88214E-12         0.00000E+00
    0.20635E-07        -0.24555E-11         0.00000E+00
    0.20635E-07        -0.65291E-11         0.00000E+00
    0.20635E-07        -0.97644E-11         0.00000E+00
    0.20635E-07        -0.12161E-10         0.00000E+00
    0.20635E-07        -0.13739E-10         0.00000E+00
    0.20634E-07        -0.14539E-10         0.00000E+00
    0.20634E-07        -0.14620E-10         0.00000E+00
    0.20634E-07        -0.14055E-10         0.00000E+00
    0.20634E-07        -0.12935E-10         0.00000E+00
    0.20634E-07        -0.11362E-10         0.00000E+00
    0.20634E-07        -0.94481E-11         0.00000E+00
    0.20633E-07        -0.73142E-11         0.00000E+00
    0.20633E-07        -0.50871E-11         0.00000E+00
    0.20633E-07        -0.28966E-11         0.00000E+00
    0.20633E-07        -0.87340E-12         0.00000E+00
    0.22801E-07        -0.24180E-11         0.00000E+00
    0.22801E-07        -0.64388E-11         0.00000E+00
    0.22801E-07        -0.96346E-11         0.00000E+00
    0.22801E-07        -0.12001E-10         0.00000E+00
    0.22801E-07        -0.13555E-10         0.00000E+00
    0.22800E-07        -0.14337E-10         0.00000E+00
    0.22800E-07        -0.14405E-10         0.00000E+00
    0.22800E-07        -0.13833E-10         0.00000E+00
    0.22800E-07        -0.12712E-10         0.00000E+00
    0.22799E-07        -0.11147E-10         0.00000E+00
    0.22799E-07        -0.92505E-11         0.00000E+00
    0.22799E-07        -0.71448E-11         0.00000E+00
    0.22799E-07        -0.49570E-11         0.00000E+00
    0.22798E-07        -0.28165E-11         0.00000E+00
    0.22798E-07        -0.85228E-12         0.00000E+00
    0.24966E-07        -0.23588E-11         0.00000E+00
    0.24966E-07        -0.62902E-11         0.00000E+00
    0.24966E-07        -0.94163E-11         0.00000E+00
    0.24965E-07        -0.11728E-10         0.00000E+00
    0.24965E-07        -0.13242E-10         0.00000E+00
    0.24965E-07        -0.13995E-10         0.00000E+00
    0.24964E-07        -0.14044E-10         0.00000E+00
    0.24964E-07        -0.13466E-10         0.00000E+00
    0.24963E-07        -0.12351E-10         0.00000E+00
    0.24963E-07        -0.10804E-10         0.00000E+00
    0.24962E-07        -0.89393E-11         0.00000E+00
    0.24962E-07        -0.68806E-11         0.00000E+00
    0.24962E-07        -0.47547E-11         0.00000E+00
    0.24962E-07        -0.26908E-11         0.00000E+00
    0.24961E-07        -0.81627E-12         0.00000E+00
    0.27129E-07        -0.22731E-11         0.00000E+00
    0.27129E-07        -0.60698E-11         0.00000E+00
    0.27128E-07        -0.90889E-11         0.00000E+00
    0.27128E-07        -0.11318E-10         0.00000E+00
    0.27127E-07        -0.12770E-10         0.00000E+00
    0.27127E-07        -0.13481E-10         0.00000E+00
    0.27126E-07        -0.13507E-10         0.00000E+00
    0.27125E-07        -0.12924E-10         0.00000E+00
    0.27125E-07        -0.11823E-10         0.00000E+00
    0.27124E-07        -0.10308E-10         0.00000E+00
    0.27124E-07        -0.84950E-11         0.00000E+00
    0.27123E-07        -0.65065E-11         0.00000E+00
    0.27123E-07        -0.44696E-11         0.00000E+00
    0.27122E-07        -0.25130E-11         0.00000E+00
    0.27122E-07        -0.76327E-12         0.00000E+00
    0.29290E-07        -0.21559E-11         0.00000E+00
    0.29289E-07        -0.57638E-11         0.00000E+00
    0.29289E-07        -0.86312E-11         0.00000E+00
    0.29288E-07        -0.10743E-10         0.00000E+00
    0.29288E-07        -0.12109E-10         0.00000E+00
    0.29287E-07        -0.12764E-10         0.00000E+00
    0.29286E-07        -0.12763E-10         0.00000E+00
    0.29285E-07        -0.12179E-10         0.00000E+00
    0.29284E-07        -0.11103E-10         0.00000E+00
    0.29283E-07        -0.96393E-11         0.00000E+00
    0.29283E-07        -0.79011E-11         0.00000E+00
    0.29282E-07        -0.60105E-11         0.00000E+00
    0.29281E-07        -0.40938E-11         0.00000E+00
    0.29281E-07        -0.22789E-11         0.00000E+00
    0.29281E-07        -0.69193E-12         0.00000E+00
    0.31448E-07        -0.20023E-11         0.00000E+00
    0.31448E-07        -0.53582E-11         0.00000E+00
    0.31447E-07        -0.80220E-11         0.00000E+00
    0.31446E-07        -0.99762E-11         0.00000E+00
    0.31445E-07        -0.11229E-10         0.00000E+00
    0.31444E-07        -0.11813E-10         0.00000E+00
    0.31443E-07        -0.11781E-10         0.00000E+00
    0.31442E-07        -0.11204E-10         0.00000E+00
    0.31441E-07        -0.10170E-10         0.00000E+00
    0.31440E-07        -0.87800E-11         0.00000E+00
    0.31439E-07        -0.71453E-11         0.00000E+00
    0.31438E-07        -0.53852E-11         0.00000E+00
    0.31438E-07        -0.36237E-11         0.00000E+00
    0.31437E-07        -0.19871E-11         0.00000E+00
    0.31437E-07        -0.60193E-12         0.00000E+00
    0.33604E-07        -0.18076E-11         0.00000E+00
    0.33604E-07        -0.48400E-11         0.00000E+00
    0.33603E-07        -0.72413E-11         0.00000E+00
    0.33602E-07        -0.89933E-11         0.00000E+00
    0.33601E-07        -0.10103E-10         0.00000E+00
    0.33600E-07        -0.10601E-10         0.00000E+00
    0.33598E-07        -0.10536E-10         0.00000E+00
    0.33597E-07        -0.99767E-11         0.00000E+00
    0.33595E-07        -0.90056E-11         0.00000E+00
    0.33594E-07        -0.77187E-11         0.00000E+00
    0.33593E-07        -0.62221E-11         0.00000E+00
    0.33592E-07        -0.46297E-11         0.00000E+00
    0.33591E-07        -0.30612E-11         0.00000E+00
    0.33591E-07        -0.16403E-11         0.00000E+00
    0.33591E-07        -0.49437E-12         0.00000E+00
    0.35758E-07        -0.15677E-11         0.00000E+00
    0.35757E-07        -0.41973E-11         0.00000E+00
    0.35756E-07        -0.62712E-11         0.00000E+00
    0.35755E-07        -0.77718E-11         0.00000E+00
    0.35754E-07        -0.87062E-11         0.00000E+00
    0.35752E-07        -0.91023E-11         0.00000E+00
    0.35750E-07        -0.90063E-11         0.00000E+00
    0.35749E-07        -0.84802E-11         0.00000E+00
    0.35747E-07        -0.75999E-11         0.00000E+00
    0.35746E-07        -0.64525E-11         0.00000E+00
    0.35744E-07        -0.51349E-11         0.00000E+00
    0.35743E-07        -0.37518E-11         0.00000E+00
    0.35742E-07        -0.24156E-11         0.00000E+00
    0.35742E-07        -0.12463E-11         0.00000E+00
    0.35742E-07        -0.37213E-12         0.00000E+00
    0.37909E-07        -0.12792E-11         0.00000E+00
    0.37908E-07        -0.34210E-11         0.00000E+00
    0.37907E-07        -0.50979E-11         0.00000E+00
    0.37905E-07        -0.62950E-11         0.00000E+00
    0.37904E-07        -0.70205E-11         0.00000E+00
    0.37902E-07        -0.73011E-11         0.00000E+00
    0.37900E-07        -0.71788E-11         0.00000E+00
    0.37898E-07        -0.67080E-11         0.00000E+00
    0.37896E-07        -0.59538E-11         0.00000E+00
    0.37894E-07        -0.49898E-11         0.00000E+00
    0.37893E-07        -0.38980E-11         0.00000E+00
    0.37892E-07        -0.27693E-11         0.00000E+00
    0.37891E-07        -0.17050E-11         0.00000E+00
    0.37890E-07        -0.81874E-12         0.00000E+00
    0.37890E-07        -0.24015E-12         0.00000E+00
    0.40056E-07        -0.93989E-12         0.00000E+00
    0.40056E-07        -0.25057E-11         0.00000E+00
    0.40054E-07        -0.37140E-11         0.00000E+00
    0.40053E-07        -0.45546E-11         0.00000E+00
    0.40051E-07        -0.50384E-11         0.00000E+00
    0.40049E-07        -0.51922E-11         0.00000E+00
    0.40046E-07        -0.50535E-11         0.00000E+00
    0.40044E-07        -0.46670E-11         0.00000E+00
    0.40042E-07        -0.40822E-11         0.00000E+00
    0.40040E-07        -0.33529E-11         0.00000E+00
    0.40038E-07        -0.25395E-11         0.00000E+00
    0.40037E-07        -0.17124E-11         0.00000E+00
    0.40036E-07        -0.95669E-12         0.00000E+00
    0.40036E-07        -0.37757E-12         0.00000E+00
    0.40035E-07        -0.10556E-12         0.00000E+00
    0.42201E-07        -0.54909E-12         0.00000E+00
    0.42200E-07        -0.14509E-11         0.00000E+00
    0.42199E-07        -0.21207E-11         0.00000E+00
    0.42197E-07        -0.25543E-11         0.00000E+00
    0.42195E-07        -0.27674E-11         0.00000E+00
    0.42192E-07        -0.27879E-11         0.00000E+00
    0.42190E-07        -0.26490E-11         0.00000E+00
    0.42187E-07        -0.23829E-11         0.00000E+00
    0.42185E-07        -0.20181E-11         0.00000E+00
    0.42183E-07        -0.15810E-11         0.00000E+00
    0.42181E-07        -0.11019E-11         0.00000E+00
    0.42180E-07        -0.62296E-12         0.00000E+00
    0.42179E-07        -0.20749E-12         0.00000E+00
    0.42179E-07         0.51238E-13         0.00000E+00
    0.42178E-07         0.22377E-13         0.00000E+00
    0.44342E-07        -0.10808E-12         0.00000E+00
    0.44342E-07        -0.26330E-12         0.00000E+00
    0.44340E-07        -0.33157E-12         0.00000E+00
    0.44338E-07        -0.31552E-12         0.00000E+00
    0.44335E-07        -0.23669E-12         0.00000E+00
    0.44333E-07        -0.12551E-12         0.00000E+00
    0.44330E-07        -0.10049E-13         0.00000E+00
    0.44327E-07         0.93155E-13         0.00000E+00
    0.44325E-07         0.18263E-12         0.00000E+00
    0.44323E-07         0.26769E-12         0.00000E+00
    0.44321E-07         0.35740E-12         0.00000E+00
    0.44320E-07         0.44595E-12         0.00000E+00
    0.44319E-07         0.49815E-12         0.00000E+00
    0.44319E-07         0.43683E-12         0.00000E+00
    0.44318E-07         0.13267E-12         0.00000E+00
    0.46480E-07         0.37927E-12         0.00000E+00
    0.46479E-07         0.10417E-11         0.00000E+00
    0.46478E-07         0.16236E-11         0.00000E+00
    0.46475E-07         0.21169E-11         0.00000E+00
    0.46473E-07         0.24939E-11         0.00000E+00
    0.46470E-07         0.27224E-11         0.00000E+00
    0.46467E-07         0.27820E-11         0.00000E+00
    0.46464E-07         0.26763E-11         0.00000E+00
    0.46462E-07         0.24369E-11         0.00000E+00
    0.46460E-07         0.21157E-11         0.00000E+00
    0.46458E-07         0.17684E-11         0.00000E+00
    0.46457E-07         0.14335E-11         0.00000E+00
    0.46457E-07         0.11109E-11         0.00000E+00
    0.46456E-07         0.74540E-12         0.00000E+00
    0.46456E-07         0.21324E-12         0.00000E+00
    0.48614E-07         0.90561E-12         0.00000E+00
    0.48613E-07         0.24362E-11         0.00000E+00
    0.48612E-07         0.36933E-11         0.00000E+00
    0.48609E-07         0.46657E-11         0.00000E+00
    0.48607E-07         0.53228E-11         0.00000E+00
    0.48604E-07         0.56353E-11         0.00000E+00
    0.48601E-07         0.55973E-11         0.00000E+00
    0.48598E-07         0.52394E-11         0.00000E+00
    0.48596E-07         0.46303E-11         0.00000E+00
    0.48594E-07         0.38664E-11         0.00000E+00
    0.48593E-07         0.30523E-11         0.00000E+00
    0.48592E-07         0.22759E-11         0.00000E+00
    0.48591E-07         0.15809E-11         0.00000E+00
    0.48591E-07         0.94315E-12         0.00000E+00
    0.48591E-07         0.25192E-12         0.00000E+00
    0.50744E-07         0.14588E-11         0.00000E+00
    0.50743E-07         0.38760E-11         0.00000E+00
    0.50742E-07         0.57952E-11         0.00000E+00
    0.50739E-07         0.72091E-11         0.00000E+00
    0.50737E-07         0.80920E-11         0.00000E+00
    0.50734E-07         0.84303E-11         0.00000E+00
    0.50732E-07         0.82463E-11         0.00000E+00
    0.50729E-07         0.76061E-11         0.00000E+00
    0.50727E-07         0.66148E-11         0.00000E+00
    0.50726E-07         0.54060E-11         0.00000E+00
    0.50725E-07         0.41265E-11         0.00000E+00
    0.50724E-07         0.29138E-11         0.00000E+00
    0.50724E-07         0.18646E-11         0.00000E+00
    0.50724E-07         0.10002E-11         0.00000E+00
    0.50724E-07         0.23775E-12         0.00000E+00
    0.52870E-07         0.20197E-11         0.00000E+00
    0.52869E-07         0.52914E-11         0.00000E+00
    0.52867E-07         0.78024E-11         0.00000E+00
    0.52865E-07         0.95619E-11         0.00000E+00
    0.52863E-07         0.10568E-10         0.00000E+00
    0.52861E-07         0.10849E-10         0.00000E+00
    0.52859E-07         0.10473E-10         0.00000E+00
    0.52858E-07         0.95478E-11         0.00000E+00
    0.52856E-07         0.82076E-11         0.00000E+00
    0.52855E-07         0.66049E-11         0.00000E+00
    0.52854E-07         0.49098E-11         0.00000E+00
    0.52854E-07         0.32998E-11         0.00000E+00
    0.52854E-07         0.19321E-11         0.00000E+00
    0.52854E-07         0.89613E-12         0.00000E+00
    0.52854E-07         0.16285E-12         0.00000E+00
    0.54991E-07         0.25576E-11         0.00000E+00
    0.54990E-07         0.65726E-11         0.00000E+00
    0.54989E-07         0.95167E-11         0.00000E+00
    0.54987E-07         0.11446E-10         0.00000E+00
    0.54986E-07         0.12423E-10         0.00000E+00
    0.54985E-07         0.12549E-10         0.00000E+00
    0.54984E-07         0.11956E-10         0.00000E+00
    0.54983E-07         0.10790E-10         0.00000E+00
    0.54982E-07         0.91937E-11         0.00000E+00
    0.54982E-07         0.73163E-11         0.00000E+00
    0.54981E-07         0.53221E-11         0.00000E+00
    0.54981E-07         0.34047E-11         0.00000E+00
    0.54982E-07         0.17782E-11         0.00000E+00
    0.54982E-07         0.62839E-12         0.00000E+00
    0.54982E-07         0.25469E-13         0.00000E+00
    0.57106E-07         0.30220E-11         0.00000E+00
    0.57106E-07         0.75343E-11         0.00000E+00
    0.57105E-07         0.10619E-10         0.00000E+00
    0.57105E-07         0.12450E-10         0.00000E+00
    0.57104E-07         0.13215E-10         0.00000E+00
    0.57105E-07         0.13114E-10         0.00000E+00
    0.57105E-07         0.12332E-10         0.00000E+00
    0.57105E-07         0.11028E-10         0.00000E+00
    0.57106E-07         0.93343E-11         0.00000E+00
    0.57106E-07         0.73737E-11         0.00000E+00
    0.57107E-07         0.52778E-11         0.00000E+00
    0.57107E-07         0.32179E-11         0.00000E+00
    0.57107E-07         0.14354E-11         0.00000E+00
    0.57108E-07         0.22697E-12         0.00000E+00
    0.57108E-07        -0.16421E-12         0.00000E+00
    0.59216E-07         0.33147E-11         0.00000E+00
    0.59216E-07         0.78328E-11         0.00000E+00
    0.59216E-07         0.10581E-10         0.00000E+00
    0.59218E-07         0.11992E-10         0.00000E+00
    0.59219E-07         0.12403E-10         0.00000E+00
    0.59221E-07         0.12081E-10         0.00000E+00
    0.59223E-07         0.11218E-10         0.00000E+00
    0.59225E-07         0.99509E-11         0.00000E+00
    0.59227E-07         0.83820E-11         0.00000E+00
    0.59229E-07         0.65941E-11         0.00000E+00
    0.59230E-07         0.46722E-11         0.00000E+00
    0.59231E-07         0.27332E-11         0.00000E+00
    0.59231E-07         0.98030E-12         0.00000E+00
    0.59232E-07        -0.21767E-12         0.00000E+00
    0.59232E-07        -0.37058E-12         0.00000E+00
    0.61318E-07         0.32038E-11         0.00000E+00
    0.61320E-07         0.67434E-11         0.00000E+00
    0.61323E-07         0.85709E-11         0.00000E+00
    0.61326E-07         0.93286E-11         0.00000E+00
    0.61331E-07         0.93929E-11         0.00000E+00
    0.61335E-07         0.89886E-11         0.00000E+00
    0.61339E-07         0.82525E-11         0.00000E+00
    0.61343E-07         0.72712E-11         0.00000E+00
    0.61347E-07         0.61034E-11         0.00000E+00
    0.61350E-07         0.47925E-11         0.00000E+00
    0.61352E-07         0.33791E-11         0.00000E+00
    0.61353E-07         0.19192E-11         0.00000E+00
    0.61354E-07         0.52503E-12         0.00000E+00
    0.61354E-07        -0.52010E-12         0.00000E+00
    0.61354E-07        -0.48286E-12         0.00000E+00
    0.63413E-07         0.15030E-11         0.00000E+00
    0.63418E-07         0.28637E-11         0.00000E+00
    0.63424E-07         0.34733E-11         0.00000E+00
    0.63432E-07         0.36720E-11         0.00000E+00
    0.63439E-07         0.36318E-11         0.00000E+00
    0.63446E-07         0.34362E-11         0.00000E+00
    0.63453E-07         0.31323E-11         0.00000E+00
    0.63459E-07         0.27484E-11         0.00000E+00
    0.63464E-07         0.23025E-11         0.00000E+00
    0.63469E-07         0.18068E-11         0.00000E+00
    0.63472E-07         0.12719E-11         0.00000E+00
    0.63474E-07         0.71164E-12         0.00000E+00
    0.63475E-07         0.15645E-12         0.00000E+00
    0.63475E-07        -0.30283E-12         0.00000E+00
    0.63474E-07        -0.24721E-12         0.00000E+00
POINT_DATA        496
VECTORS vDarcyNodal double 
    0.10873E-08        -0.24296E-11         0.00000E+00
    0.10873E-08        -0.44155E-11         0.00000E+00
    0.10873E-08        -0.79646E-11         0.00000E+00
    0.10873E-08        -0.10679E-10         0.00000E+00
    0.10873E-08        -0.12587E-10         0.00000E+00
    0.10873E-08        -0.13728E-10         0.00000E+00
    0.10873E-08        -0.14153E-10         0.00000E+00
    0.10873E-08        -0.13926E-10         0.00000E+00
    0.10874E-08        -0.13122E-10         0.00000E+00
    0.10874E-08        -0.11828E-10         0.00000E+00
    0.10874E-08        -0.10141E-10         0.00000E+00
    0.10874E-08        -0.81703E-11         0.00000E+00
    0.10874E-08        -0.60343E-11         0.00000E+00
    0.10874E-08        -0.38629E-11         0.00000E+00
    0.10874E-08        -0.17960E-11         0.00000E+00
    0.10874E-08        -0.80680E-12         0.00000E+00
    0.21745E-08        -0.24317E-11         0.00000E+00
    0.21745E-08        -0.44196E-11         0.00000E+00
    0.21745E-08        -0.79728E-11         0.00000E+00
    0.21745E-08        -0.10691E-10         0.00000E+00
    0.21746E-08        -0.12602E-10         0.00000E+00
    0.21746E-08        -0.13744E-10         0.00000E+00
    0.21746E-08        -0.14170E-10         0.00000E+00
    0.21746E-08        -0.13944E-10         0.00000E+00
    0.21747E-08        -0.13139E-10         0.00000E+00
    0.21747E-08        -0.11844E-10         0.00000E+00
    0.21747E-08        -0.10156E-10         0.00000E+00
    0.21748E-08        -0.81827E-11         0.00000E+00
    0.21748E-08        -0.60444E-11         0.00000E+00
    0.21748E-08        -0.38703E-11         0.00000E+00
    0.21748E-08        -0.18001E-11         0.00000E+00
    0.21748E-08        -0.80916E-12         0.00000E+00
    0.43488E-08        -0.24376E-11         0.00000E+00
    0.43489E-08        -0.44316E-11         0.00000E+00
    0.43489E-08        -0.79963E-11         0.00000E+00
    0.43489E-08        -0.10725E-10         0.00000E+00
    0.43489E-08        -0.12643E-10         0.00000E+00
    0.43490E-08        -0.13792E-10         0.00000E+00
    0.43491E-08        -0.14221E-10         0.00000E+00
    0.43491E-08        -0.13995E-10         0.00000E+00
    0.43492E-08        -0.13189E-10         0.00000E+00
    0.43492E-08        -0.11890E-10         0.00000E+00
    0.43493E-08        -0.10197E-10         0.00000E+00
    0.43493E-08        -0.82187E-11         0.00000E+00
    0.43494E-08        -0.60736E-11         0.00000E+00
    0.43494E-08        -0.38917E-11         0.00000E+00
    0.43494E-08        -0.18121E-11         0.00000E+00
    0.43494E-08        -0.81600E-12         0.00000E+00
    0.65229E-08        -0.24467E-11         0.00000E+00
    0.65229E-08        -0.44501E-11         0.00000E+00
    0.65229E-08        -0.80329E-11         0.00000E+00
    0.65229E-08        -0.10777E-10         0.00000E+00
    0.65230E-08        -0.12708E-10         0.00000E+00
    0.65231E-08        -0.13865E-10         0.00000E+00
    0.65232E-08        -0.14299E-10         0.00000E+00
    0.65232E-08        -0.14074E-10         0.00000E+00
    0.65233E-08        -0.13266E-10         0.00000E+00
    0.65234E-08        -0.11962E-10         0.00000E+00
    0.65235E-08        -0.10262E-10         0.00000E+00
    0.65235E-08        -0.82739E-11         0.00000E+00
    0.65236E-08        -0.61185E-11         0.00000E+00
    0.65236E-08        -0.39245E-11         0.00000E+00
    0.65237E-08        -0.18306E-11         0.00000E+00
    0.65237E-08        -0.82663E-12         0.00000E+00
    0.86964E-08        -0.24577E-11         0.00000E+00
    0.86964E-08        -0.44730E-11         0.00000E+00
    0.86964E-08        -0.80786E-11         0.00000E+00
    0.86965E-08        -0.10843E-10         0.00000E+00
    0.86966E-08        -0.12790E-10         0.00000E+00
    0.86966E-08        -0.13957E-10         0.00000E+00
    0.86967E-08        -0.14397E-10         0.00000E+00
    0.86968E-08        -0.14173E-10         0.00000E+00
    0.86969E-08        -0.13361E-10         0.00000E+00
    0.86970E-08        -0.12050E-10         0.00000E+00
    0.86971E-08        -0.10340E-10         0.00000E+00
    0.86972E-08        -0.83415E-11         0.00000E+00
    0.86972E-08        -0.61732E-11         0.00000E+00
    0.86973E-08        -0.39647E-11         0.00000E+00
    0.86973E-08        -0.18535E-11         0.00000E+00
    0.86973E-08        -0.83995E-12         0.00000E+00
    0.10869E-07        -0.24692E-11         0.00000E+00
    0.10869E-07        -0.44972E-11         0.00000E+00
    0.10869E-07        -0.81276E-11         0.00000E+00
    0.10869E-07        -0.10914E-10         0.00000E+00
    0.10869E-07        -0.12878E-10         0.00000E+00
    0.10870E-07        -0.14057E-10         0.00000E+00
    0.10870E-07        -0.14503E-10         0.00000E+00
    0.10870E-07        -0.14278E-10         0.00000E+00
    0.10870E-07        -0.13462E-10         0.00000E+00
    0.10870E-07        -0.12144E-10         0.00000E+00
    0.10870E-07        -0.10423E-10         0.00000E+00
    0.10870E-07        -0.84119E-11         0.00000E+00
    0.10870E-07        -0.62301E-11         0.00000E+00
    0.10870E-07        -0.40065E-11         0.00000E+00
    0.10870E-07        -0.18777E-11         0.00000E+00
    0.10870E-07        -0.85440E-12         0.00000E+00
    0.13041E-07        -0.24789E-11         0.00000E+00
    0.13041E-07        -0.45189E-11         0.00000E+00
    0.13041E-07        -0.81726E-11         0.00000E+00
    0.13041E-07        -0.10980E-10         0.00000E+00
    0.13041E-07        -0.12961E-10         0.00000E+00
    0.13042E-07        -0.14151E-10         0.00000E+00
    0.13042E-07        -0.14601E-10         0.00000E+00
    0.13042E-07        -0.14376E-10         0.00000E+00
    0.13042E-07        -0.13555E-10         0.00000E+00
    0.13042E-07        -0.12227E-10         0.00000E+00
    0.13042E-07        -0.10496E-10         0.00000E+00
    0.13042E-07        -0.84731E-11         0.00000E+00
    0.13042E-07        -0.62792E-11         0.00000E+00
    0.13042E-07        -0.40429E-11         0.00000E+00
    0.13042E-07        -0.18994E-11         0.00000E+00
    0.13042E-07        -0.86807E-12         0.00000E+00
    0.15212E-07        -0.24843E-11         0.00000E+00
    0.15212E-07        -0.45331E-11         0.00000E+00
    0.15212E-07        -0.82046E-11         0.00000E+00
    0.15212E-07        -0.11029E-10         0.00000E+00
    0.15212E-07        -0.13022E-10         0.00000E+00
    0.15213E-07        -0.14220E-10         0.00000E+00
    0.15213E-07        -0.14673E-10         0.00000E+00
    0.15213E-07        -0.14446E-10         0.00000E+00
    0.15213E-07        -0.13619E-10         0.00000E+00
    0.15213E-07        -0.12283E-10         0.00000E+00
    0.15213E-07        -0.10543E-10         0.00000E+00
    0.15213E-07        -0.85108E-11         0.00000E+00
    0.15213E-07        -0.63089E-11         0.00000E+00
    0.15213E-07        -0.40655E-11         0.00000E+00
    0.15213E-07        -0.19143E-11         0.00000E+00
    0.15213E-07        -0.87869E-12         0.00000E+00
    0.17382E-07        -0.24823E-11         0.00000E+00
    0.17382E-07        -0.45341E-11         0.00000E+00
    0.17382E-07        -0.82130E-11         0.00000E+00
    0.17382E-07        -0.11045E-10         0.00000E+00
    0.17382E-07        -0.13045E-10         0.00000E+00
    0.17382E-07        -0.14246E-10         0.00000E+00
    0.17382E-07        -0.14698E-10         0.00000E+00
    0.17382E-07        -0.14467E-10         0.00000E+00
    0.17382E-07        -0.13634E-10         0.00000E+00
    0.17382E-07        -0.12291E-10         0.00000E+00
    0.17382E-07        -0.10544E-10         0.00000E+00
    0.17382E-07        -0.85087E-11         0.00000E+00
    0.17382E-07        -0.63061E-11         0.00000E+00
    0.17382E-07        -0.40649E-11         0.00000E+00
    0.17382E-07        -0.19174E-11         0.00000E+00
    0.17382E-07        -0.88375E-12         0.00000E+00
    0.19551E-07        -0.24694E-11         0.00000E+00
    0.19551E-07        -0.45153E-11         0.00000E+00
    0.19551E-07        -0.81855E-11         0.00000E+00
    0.19551E-07        -0.11013E-10         0.00000E+00
    0.19551E-07        -0.13009E-10         0.00000E+00
    0.19551E-07        -0.14206E-10         0.00000E+00
    0.19551E-07        -0.14652E-10         0.00000E+00
    0.19550E-07        -0.14414E-10         0.00000E+00
    0.19550E-07        -0.13575E-10         0.00000E+00
    0.19550E-07        -0.12228E-10         0.00000E+00
    0.19550E-07        -0.10481E-10         0.00000E+00
    0.19550E-07        -0.84491E-11         0.00000E+00
    0.19550E-07        -0.62564E-11         0.00000E+00
    0.19550E-07        -0.40309E-11         0.00000E+00
    0.19550E-07        -0.19033E-11         0.00000E+00
    0.19550E-07        -0.88053E-12         0.00000E+00
    0.21718E-07        -0.24416E-11         0.00000E+00
    0.21718E-07        -0.44692E-11         0.00000E+00
    0.21718E-07        -0.81080E-11         0.00000E+00
    0.21718E-07        -0.10913E-10         0.00000E+00
    0.21718E-07        -0.12891E-10         0.00000E+00
    0.21718E-07        -0.14073E-10         0.00000E+00
    0.21717E-07        -0.14507E-10         0.00000E+00
    0.21717E-07        -0.14261E-10         0.00000E+00
    0.21717E-07        -0.13416E-10         0.00000E+00
    0.21717E-07        -0.12069E-10         0.00000E+00
    0.21716E-07        -0.10329E-10         0.00000E+00
    0.21716E-07        -0.83132E-11         0.00000E+00
    0.21716E-07        -0.61449E-11         0.00000E+00
    0.21716E-07        -0.39529E-11         0.00000E+00
    0.21716E-07        -0.18667E-11         0.00000E+00
    0.21716E-07        -0.86626E-12         0.00000E+00
    0.23884E-07        -0.23944E-11         0.00000E+00
    0.23884E-07        -0.43876E-11         0.00000E+00
    0.23884E-07        -0.79654E-11         0.00000E+00
    0.23883E-07        -0.10723E-10         0.00000E+00
    0.23883E-07        -0.12665E-10         0.00000E+00
    0.23883E-07        -0.13820E-10         0.00000E+00
    0.23882E-07        -0.14235E-10         0.00000E+00
    0.23882E-07        -0.13977E-10         0.00000E+00
    0.23882E-07        -0.13129E-10         0.00000E+00
    0.23881E-07        -0.11790E-10         0.00000E+00
    0.23881E-07        -0.10068E-10         0.00000E+00
    0.23881E-07        -0.80822E-11         0.00000E+00
    0.23880E-07        -0.59569E-11         0.00000E+00
    0.23880E-07        -0.38207E-11         0.00000E+00
    0.23880E-07        -0.18021E-11         0.00000E+00
    0.23880E-07        -0.83829E-12         0.00000E+00
    0.26048E-07        -0.23232E-11         0.00000E+00
    0.26047E-07        -0.42615E-11         0.00000E+00
    0.26047E-07        -0.77411E-11         0.00000E+00
    0.26047E-07        -0.10422E-10         0.00000E+00
    0.26046E-07        -0.12305E-10         0.00000E+00
    0.26046E-07        -0.13417E-10         0.00000E+00
    0.26045E-07        -0.13804E-10         0.00000E+00
    0.26045E-07        -0.13533E-10         0.00000E+00
    0.26044E-07        -0.12687E-10         0.00000E+00
    0.26044E-07        -0.11364E-10         0.00000E+00
    0.26043E-07        -0.96747E-11         0.00000E+00
    0.26043E-07        -0.77377E-11         0.00000E+00
    0.26042E-07        -0.56784E-11         0.00000E+00
    0.26042E-07        -0.36248E-11         0.00000E+00
    0.26042E-07        -0.17049E-11         0.00000E+00
    0.26042E-07        -0.79424E-12         0.00000E+00
    0.28209E-07        -0.22230E-11         0.00000E+00
    0.28209E-07        -0.40815E-11         0.00000E+00
    0.28209E-07        -0.74176E-11         0.00000E+00
    0.28208E-07        -0.99851E-11         0.00000E+00
    0.28208E-07        -0.11783E-10         0.00000E+00
    0.28207E-07        -0.12834E-10         0.00000E+00
    0.28206E-07        -0.13184E-10         0.00000E+00
    0.28206E-07        -0.12898E-10         0.00000E+00
    0.28205E-07        -0.12060E-10         0.00000E+00
    0.28204E-07        -0.10767E-10         0.00000E+00
    0.28203E-07        -0.91284E-11         0.00000E+00
    0.28203E-07        -0.72638E-11         0.00000E+00
    0.28202E-07        -0.52977E-11         0.00000E+00
    0.28202E-07        -0.33578E-11         0.00000E+00
    0.28202E-07        -0.15714E-11         0.00000E+00
    0.28202E-07        -0.73231E-12         0.00000E+00
    0.30369E-07        -0.20888E-11         0.00000E+00
    0.30369E-07        -0.38382E-11         0.00000E+00
    0.30368E-07        -0.69774E-11         0.00000E+00
    0.30368E-07        -0.93888E-11         0.00000E+00
    0.30367E-07        -0.11069E-10         0.00000E+00
    0.30366E-07        -0.12039E-10         0.00000E+00
    0.30365E-07        -0.12343E-10         0.00000E+00
    0.30364E-07        -0.12044E-10         0.00000E+00
    0.30363E-07        -0.11223E-10         0.00000E+00
    0.30362E-07        -0.99760E-11         0.00000E+00
    0.30361E-07        -0.84120E-11         0.00000E+00
    0.30360E-07        -0.66478E-11         0.00000E+00
    0.30360E-07        -0.48066E-11         0.00000E+00
    0.30359E-07        -0.30149E-11         0.00000E+00
    0.30359E-07        -0.13995E-11         0.00000E+00
    0.30359E-07        -0.65156E-12         0.00000E+00
    0.32526E-07        -0.19158E-11         0.00000E+00
    0.32526E-07        -0.35223E-11         0.00000E+00
    0.32526E-07        -0.64029E-11         0.00000E+00
    0.32525E-07        -0.86094E-11         0.00000E+00
    0.32524E-07        -0.10137E-10         0.00000E+00
    0.32523E-07        -0.11004E-10         0.00000E+00
    0.32521E-07        -0.11252E-10         0.00000E+00
    0.32520E-07        -0.10942E-10         0.00000E+00
    0.32519E-07        -0.10152E-10         0.00000E+00
    0.32518E-07        -0.89741E-11         0.00000E+00
    0.32517E-07        -0.75133E-11         0.00000E+00
    0.32516E-07        -0.58827E-11         0.00000E+00
    0.32515E-07        -0.42023E-11         0.00000E+00
    0.32514E-07        -0.25958E-11         0.00000E+00
    0.32514E-07        -0.11896E-11         0.00000E+00
    0.32514E-07        -0.55230E-12         0.00000E+00
    0.34681E-07        -0.16994E-11         0.00000E+00
    0.34681E-07        -0.31253E-11         0.00000E+00
    0.34680E-07        -0.56783E-11         0.00000E+00
    0.34679E-07        -0.76252E-11         0.00000E+00
    0.34678E-07        -0.89600E-11         0.00000E+00
    0.34677E-07        -0.97005E-11         0.00000E+00
    0.34675E-07        -0.98852E-11         0.00000E+00
    0.34673E-07        -0.95709E-11         0.00000E+00
    0.34672E-07        -0.88305E-11         0.00000E+00
    0.34671E-07        -0.77501E-11         0.00000E+00
    0.34669E-07        -0.64275E-11         0.00000E+00
    0.34668E-07        -0.49692E-11         0.00000E+00
    0.34667E-07        -0.34886E-11         0.00000E+00
    0.34667E-07        -0.21056E-11         0.00000E+00
    0.34666E-07        -0.94511E-12         0.00000E+00
    0.34666E-07        -0.43644E-12         0.00000E+00
    0.36833E-07        -0.14360E-11         0.00000E+00
    0.36833E-07        -0.26397E-11         0.00000E+00
    0.36832E-07        -0.47901E-11         0.00000E+00
    0.36831E-07        -0.64178E-11         0.00000E+00
    0.36829E-07        -0.75181E-11         0.00000E+00
    0.36828E-07        -0.81081E-11         0.00000E+00
    0.36826E-07        -0.82234E-11         0.00000E+00
    0.36824E-07        -0.79155E-11         0.00000E+00
    0.36822E-07        -0.72496E-11         0.00000E+00
    0.36821E-07        -0.63023E-11         0.00000E+00
    0.36819E-07        -0.51598E-11         0.00000E+00
    0.36818E-07        -0.39175E-11         0.00000E+00
    0.36817E-07        -0.26787E-11         0.00000E+00
    0.36816E-07        -0.15563E-11         0.00000E+00
    0.36816E-07        -0.67332E-12         0.00000E+00
    0.36816E-07        -0.30782E-12         0.00000E+00
    0.38983E-07        -0.11224E-11         0.00000E+00
    0.38982E-07        -0.20605E-11         0.00000E+00
    0.38981E-07        -0.37288E-11         0.00000E+00
    0.38980E-07        -0.49751E-11         0.00000E+00
    0.38978E-07        -0.57975E-11         0.00000E+00
    0.38976E-07        -0.62136E-11         0.00000E+00
    0.38974E-07        -0.62565E-11         0.00000E+00
    0.38972E-07        -0.59713E-11         0.00000E+00
    0.38970E-07        -0.54122E-11         0.00000E+00
    0.38968E-07        -0.46413E-11         0.00000E+00
    0.38966E-07        -0.37279E-11         0.00000E+00
    0.38965E-07        -0.27499E-11         0.00000E+00
    0.38964E-07        -0.17956E-11         0.00000E+00
    0.38963E-07        -0.96743E-12         0.00000E+00
    0.38963E-07        -0.38557E-12         0.00000E+00
    0.38963E-07        -0.17247E-12         0.00000E+00
    0.41129E-07        -0.75735E-12         0.00000E+00
    0.41128E-07        -0.13851E-11         0.00000E+00
    0.41127E-07        -0.24908E-11         0.00000E+00
    0.41126E-07        -0.32934E-11         0.00000E+00
    0.41124E-07        -0.37955E-11         0.00000E+00
    0.41122E-07        -0.40171E-11         0.00000E+00
    0.41119E-07        -0.39893E-11         0.00000E+00
    0.41117E-07        -0.37493E-11         0.00000E+00
    0.41114E-07        -0.33370E-11         0.00000E+00
    0.41112E-07        -0.27937E-11         0.00000E+00
    0.41111E-07        -0.21644E-11         0.00000E+00
    0.41109E-07        -0.15020E-11         0.00000E+00
    0.41108E-07        -0.87349E-12         0.00000E+00
    0.41107E-07        -0.36683E-12         0.00000E+00
    0.41107E-07        -0.97565E-13         0.00000E+00
    0.41107E-07        -0.38649E-13         0.00000E+00
    0.43272E-07        -0.34084E-12         0.00000E+00
    0.43272E-07        -0.61494E-12         0.00000E+00
    0.43270E-07        -0.10808E-11         0.00000E+00
    0.43269E-07        -0.13816E-11         0.00000E+00
    0.43266E-07        -0.15262E-11         0.00000E+00
    0.43264E-07        -0.15382E-11         0.00000E+00
    0.43261E-07        -0.14477E-11         0.00000E+00
    0.43259E-07        -0.12826E-11         0.00000E+00
    0.43256E-07        -0.10640E-11         0.00000E+00
    0.43254E-07        -0.80538E-12         0.00000E+00
    0.43252E-07        -0.51854E-12         0.00000E+00
    0.43251E-07        -0.22289E-12         0.00000E+00
    0.43249E-07         0.43041E-13         0.00000E+00
    0.43249E-07         0.21058E-12         0.00000E+00
    0.43248E-07         0.17118E-12         0.00000E+00
    0.43248E-07         0.83402E-13         0.00000E+00
    0.45412E-07         0.12468E-12         0.00000E+00
    0.45411E-07         0.24356E-12         0.00000E+00
    0.45410E-07         0.48592E-12         0.00000E+00
    0.45408E-07         0.73449E-12         0.00000E+00
    0.45406E-07         0.97394E-12         0.00000E+00
    0.45403E-07         0.11760E-11         0.00000E+00
    0.45400E-07         0.13121E-11         0.00000E+00
    0.45397E-07         0.13657E-11         0.00000E+00
    0.45395E-07         0.13397E-11         0.00000E+00
    0.45392E-07         0.12557E-11         0.00000E+00
    0.45391E-07         0.11436E-11         0.00000E+00
    0.45389E-07         0.10262E-11         0.00000E+00
    0.45388E-07         0.90106E-12         0.00000E+00
    0.45388E-07         0.72440E-12         0.00000E+00
    0.45387E-07         0.39832E-12         0.00000E+00
    0.45387E-07         0.18194E-12         0.00000E+00
    0.47548E-07         0.63385E-12         0.00000E+00
    0.47547E-07         0.11774E-11         0.00000E+00
    0.47546E-07         0.21794E-11         0.00000E+00
    0.47544E-07         0.30060E-11         0.00000E+00
    0.47541E-07         0.36368E-11         0.00000E+00
    0.47538E-07         0.40403E-11         0.00000E+00
    0.47536E-07         0.41923E-11         0.00000E+00
    0.47533E-07         0.40925E-11         0.00000E+00
    0.47530E-07         0.37734E-11         0.00000E+00
    0.47528E-07         0.32968E-11         0.00000E+00
    0.47526E-07         0.27405E-11         0.00000E+00
    0.47525E-07         0.21756E-11         0.00000E+00
    0.47524E-07         0.16432E-11         0.00000E+00
    0.47524E-07         0.11319E-11         0.00000E+00
    0.47523E-07         0.56033E-12         0.00000E+00
    0.47523E-07         0.24455E-12         0.00000E+00
    0.49680E-07         0.11774E-11         0.00000E+00
    0.49679E-07         0.21645E-11         0.00000E+00
    0.49678E-07         0.39501E-11         0.00000E+00
    0.49676E-07         0.53529E-11         0.00000E+00
    0.49673E-07         0.63516E-11         0.00000E+00
    0.49670E-07         0.69178E-11         0.00000E+00
    0.49668E-07         0.70403E-11         0.00000E+00
    0.49665E-07         0.67442E-11         0.00000E+00
    0.49663E-07         0.60964E-11         0.00000E+00
    0.49661E-07         0.51998E-11         0.00000E+00
    0.49659E-07         0.41782E-11         0.00000E+00
    0.49658E-07         0.31525E-11         0.00000E+00
    0.49658E-07         0.22136E-11         0.00000E+00
    0.49657E-07         0.13922E-11         0.00000E+00
    0.49657E-07         0.63475E-12         0.00000E+00
    0.49657E-07         0.25930E-12         0.00000E+00
    0.51807E-07         0.17403E-11         0.00000E+00
    0.51807E-07         0.31703E-11         0.00000E+00
    0.51806E-07         0.57210E-11         0.00000E+00
    0.51804E-07         0.76514E-11         0.00000E+00
    0.51801E-07         0.89495E-11         0.00000E+00
    0.51799E-07         0.96045E-11         0.00000E+00
    0.51797E-07         0.96362E-11         0.00000E+00
    0.51794E-07         0.91082E-11         0.00000E+00
    0.51793E-07         0.81246E-11         0.00000E+00
    0.51791E-07         0.68210E-11         0.00000E+00
    0.51790E-07         0.53544E-11         0.00000E+00
    0.51789E-07         0.38878E-11         0.00000E+00
    0.51789E-07         0.25648E-11         0.00000E+00
    0.51789E-07         0.14726E-11         0.00000E+00
    0.51789E-07         0.60321E-12         0.00000E+00
    0.51789E-07         0.21620E-12         0.00000E+00
    0.53931E-07         0.22990E-11         0.00000E+00
    0.53930E-07         0.41408E-11         0.00000E+00
    0.53929E-07         0.73728E-11         0.00000E+00
    0.53927E-07         0.97130E-11         0.00000E+00
    0.53925E-07         0.11181E-10         0.00000E+00
    0.53924E-07         0.11813E-10         0.00000E+00
    0.53922E-07         0.11685E-10         0.00000E+00
    0.53921E-07         0.10912E-10         0.00000E+00
    0.53920E-07         0.96308E-11         0.00000E+00
    0.53919E-07         0.79915E-11         0.00000E+00
    0.53918E-07         0.61603E-11         0.00000E+00
    0.53918E-07         0.43217E-11         0.00000E+00
    0.53918E-07         0.26670E-11         0.00000E+00
    0.53918E-07         0.13556E-11         0.00000E+00
    0.53918E-07         0.45577E-12         0.00000E+00
    0.53918E-07         0.10949E-12         0.00000E+00
    0.56049E-07         0.28162E-11         0.00000E+00
    0.56048E-07         0.49894E-11         0.00000E+00
    0.56047E-07         0.87165E-11         0.00000E+00
    0.56046E-07         0.11250E-10         0.00000E+00
    0.56046E-07         0.12688E-10         0.00000E+00
    0.56045E-07         0.13159E-10         0.00000E+00
    0.56044E-07         0.12820E-10         0.00000E+00
    0.56044E-07         0.11834E-10         0.00000E+00
    0.56044E-07         0.10353E-10         0.00000E+00
    0.56044E-07         0.85185E-11         0.00000E+00
    0.56044E-07         0.64781E-11         0.00000E+00
    0.56044E-07         0.44051E-11         0.00000E+00
    0.56044E-07         0.25159E-11         0.00000E+00
    0.56045E-07         0.10510E-11         0.00000E+00
    0.56045E-07         0.19809E-12         0.00000E+00
    0.56045E-07        -0.58555E-13         0.00000E+00
    0.58161E-07         0.32278E-11         0.00000E+00
    0.58161E-07         0.55669E-11         0.00000E+00
    0.58161E-07         0.94365E-11         0.00000E+00
    0.58161E-07         0.11819E-10         0.00000E+00
    0.58161E-07         0.12977E-10         0.00000E+00
    0.58162E-07         0.13170E-10         0.00000E+00
    0.58164E-07         0.12626E-10         0.00000E+00
    0.58165E-07         0.11525E-10         0.00000E+00
    0.58166E-07         0.10009E-10         0.00000E+00
    0.58167E-07         0.81895E-11         0.00000E+00
    0.58168E-07         0.61734E-11         0.00000E+00
    0.58169E-07         0.40906E-11         0.00000E+00
    0.58169E-07         0.21373E-11         0.00000E+00
    0.58170E-07         0.61131E-12         0.00000E+00
    0.58170E-07        -0.13533E-12         0.00000E+00
    0.58170E-07        -0.26986E-12         0.00000E+00
    0.60267E-07         0.34017E-11         0.00000E+00
    0.60267E-07         0.55806E-11         0.00000E+00
    0.60268E-07         0.89773E-11         0.00000E+00
    0.60271E-07         0.10754E-10         0.00000E+00
    0.60273E-07         0.11418E-10         0.00000E+00
    0.60277E-07         0.11314E-10         0.00000E+00
    0.60280E-07         0.10673E-10         0.00000E+00
    0.60283E-07         0.96430E-11         0.00000E+00
    0.60286E-07         0.83238E-11         0.00000E+00
    0.60288E-07         0.67866E-11         0.00000E+00
    0.60290E-07         0.50928E-11         0.00000E+00
    0.60292E-07         0.33148E-11         0.00000E+00
    0.60292E-07         0.15762E-11         0.00000E+00
    0.60293E-07         0.15132E-12         0.00000E+00
    0.60293E-07        -0.45293E-12         0.00000E+00
    0.60293E-07        -0.47131E-12         0.00000E+00
    0.62365E-07         0.30059E-11         0.00000E+00
    0.62367E-07         0.43667E-11         0.00000E+00
    0.62371E-07         0.63370E-11         0.00000E+00
    0.62376E-07         0.71453E-11         0.00000E+00
    0.62382E-07         0.73038E-11         0.00000E+00
    0.62388E-07         0.70680E-11         0.00000E+00
    0.62394E-07         0.65685E-11         0.00000E+00
    0.62399E-07         0.58807E-11         0.00000E+00
    0.62404E-07         0.50509E-11         0.00000E+00
    0.62407E-07         0.41093E-11         0.00000E+00
    0.62411E-07         0.30788E-11         0.00000E+00
    0.62413E-07         0.19836E-11         0.00000E+00
    0.62414E-07         0.86809E-12         0.00000E+00
    0.62415E-07        -0.14638E-12         0.00000E+00
    0.62414E-07        -0.55004E-12         0.00000E+00
    0.62414E-07        -0.49442E-12         0.00000E+00
    0.63411E-07         0.00000E+00         0.00000E+00
    0.63415E-07         0.00000E+00         0.00000E+00
    0.63421E-07         0.00000E+00         0.00000E+00
    0.63428E-07         0.00000E+00         0.00000E+00
    0.63435E-07         0.00000E+00         0.00000E+00
    0.63443E-07         0.00000E+00         0.00000E+00
    0.63450E-07         0.00000E+00         0.00000E+00
    0.63456E-07         0.00000E+00         0.00000E+00
    0.63462E-07         0.00000E+00         0.00000E+00
    0.63467E-07         0.00000E+00         0.00000E+00
    0.63470E-07         0.00000E+00         0.00000E+00
    0.63473E-07         0.00000E+00         0.00000E+00
    0.63475E-07        -0.13267E-20         0.00000E+00
    0.63475E-07        -0.66335E-21         0.00000E+00
    0.63475E-07         0.66335E-21         0.00000E+00
    0.63474E-07         0.00000E+00         0.00000E+00
CELL_DATA        450
TENSORS stressef double 
   -0.13219E+08         0.14081E+03         0.00000E+00
    0.14081E+03        -0.39827E+08         0.00000E+00
    0.00000E+00         0.00000E+00        -0.13637E+08
 
   -0.13235E+08         0.43282E+03         0.00000E+00
    0.43282E+03        -0.39826E+08         0.00000E+00
    0.00000E+00         0.00000E+00        -0.13619E+08
 
   -0.13251E+08         0.73055E+03         0.00000E+00
    0.73055E+03        -0.39825E+08         0.00000E+00
    0.00000E+00         0.00000E+00        -0.13601E+08
 
   -0.13266E+08         0.10317E+04         0.00000E+00
    0.10317E+04        -0.39823E+08         0.00000E+00
    0.00000E+00         0.00000E+00        -0.13583E+08
 
   -0.13281E+08         0.13348E+04         0.00000E+00
    0.13348E+04        -0.39821E+08         0.00000E+00
    0.00000E+00         0.00000E+00        -0.13565E+08
 
   -0.13295E+08         0.16390E+04         0.00000E+00
    0.16390E+04        -0.39818E+08         0.00000E+00
    0.00000E+00         0.00000E+00        -0.13547E+08
 
   -0.13308E+08         0.19443E+04         0.00000E+00
    0.19443E+04        -0.39815E+08         0.00000E+00
    0.00000E+00         0.00000E+00        -0.13528E+08
 
   -0.13321E+08         0.22512E+04         0.00000E+00
    0.22512E+04        -0.39810E+08         0.00000E+00
    0.00000E+00         0.00000E+00        -0.13510E+08
 
   -0.13333E+08         0.25607E+04         0.00000E+00
    0.25607E+04        -0.39806E+08         0.00000E+00
    0.00000E+00         0.00000E+00        -0.13492E+08
 
   -0.13343E+08         0.28741E+04         0.00000E+00
    0.28741E+04        -0.39800E+08         0.00000E+00
    0.00000E+00         0.00000E+00        -0.13474E+08
 
   -0.13353E+08         0.31928E+04         0.00000E+00
    0.31928E+04        -0.39794E+08         0.00000E+00
    0.00000E+00         0.00000E+00        -0.13456E+08
 
   -0.13361E+08         0.35183E+04         0.00000E+00
    0.35183E+04        -0.39788E+08         0.00000E+00
    0.00000E+00         0.00000E+00        -0.13439E+08
 
   -0.13369E+08         0.38516E+04         0.00000E+00
    0.38516E+04        -0.39780E+08         0.00000E+00
    0.00000E+00         0.00000E+00        -0.13422E+08
 
   -0.13375E+08         0.41932E+04         0.00000E+00
    0.41932E+04        -0.39772E+08         0.00000E+00
    0.00000E+00         0.00000E+00        -0.13405E+08
 
   -0.13379E+08         0.45431E+04         0.00000E+00
    0.45431E+04        -0.39763E+08         0.00000E+00
    0.00000E+00         0.00000E+00        -0.13389E+08
 
   -0.13222E+08         0.41764E+03         0.00000E+00
    0.41764E+03        -0.39831E+08         0.00000E+00
    0.00000E+00         0.00000E+00        -0.13639E+08
 
   -0.13238E+08         0.12854E+04         0.00000E+00
    0.12854E+04        -0.39830E+08         0.00000E+00
    0.00000E+00         0.00000E+00        -0.13621E+08
 
   -0.13254E+08         0.21715E+04         0.00000E+00
    0.21715E+04        -0.39829E+08         0.00000E+00
    0.00000E+00         0.00000E+00        -0.13603E+08
 
   -0.13269E+08         0.30692E+04         0.00000E+00
    0.30692E+04        -0.39827E+08         0.00000E+00
    0.00000E+00         0.00000E+00        -0.13585E+08
 
   -0.13284E+08         0.39738E+04         0.00000E+00
    0.39738E+04        -0.39825E+08         0.00000E+00
    0.00000E+00         0.00000E+00        -0.13567E+08
 
   -0.13298E+08         0.48830E+04         0.00000E+00
    0.48830E+04        -0.39822E+08         0.00000E+00
    0.00000E+00         0.00000E+00        -0.13549E+08
 
   -0.13312E+08         0.57965E+04         0.00000E+00
    0.57965E+04        -0.39819E+08         0.00000E+00
    0.00000E+00         0.00000E+00        -0.13531E+08
 
   -0.13324E+08         0.67159E+04         0.00000E+00
    0.67159E+04        -0.39815E+08         0.00000E+00
    0.00000E+00         0.00000E+00        -0.13512E+08
 
   -0.13336E+08         0.76439E+04         0.00000E+00
    0.76439E+04        -0.39810E+08         0.00000E+00
    0.00000E+00         0.00000E+00        -0.13494E+08
 
   -0.13346E+08         0.85846E+04         0.00000E+00
    0.85846E+04        -0.39805E+08         0.00000E+00
    0.00000E+00         0.00000E+00        -0.13477E+08
 
   -0.13356E+08         0.95420E+04         0.00000E+00
    0.95420E+04        -0.39799E+08         0.00000E+00
    0.00000E+00         0.00000E+00        -0.13459E+08
 
   -0.13364E+08         0.10520E+05         0.00000E+00
    0.10520E+05        -0.39792E+08         0.00000E+00
    0.00000E+00         0.00000E+00        -0.13442E+08
 
   -0.13372E+08         0.11522E+05         0.00000E+00
    0.11522E+05        -0.39785E+08         0.00000E+00
    0.00000E+00         0.00000E+00        -0.13425E+08
 
   -0.13378E+08         0.12548E+05         0.00000E+00
    0.12548E+05        -0.39777E+08         0.00000E+00
    0.00000E+00         0.00000E+00        -0.13408E+08
 
   -0.13382E+08         0.13600E+05         0.00000E+00
    0.13600E+05        -0.39768E+08         0.00000E+00
    0.00000E+00         0.00000E+00        -0.13392E+08
 
   -0.13228E+08         0.68004E+03         0.00000E+00
    0.68004E+03        -0.39838E+08         0.00000E+00
    0.00000E+00         0.00000E+00        -0.13642E+08
 
   -0.13245E+08         0.20986E+04         0.00000E+00
    0.20986E+04        -0.39838E+08         0.00000E+00
    0.00000E+00         0.00000E+00        -0.13625E+08
 
   -0.13261E+08         0.35519E+04         0.00000E+00
    0.35519E+04        -0.39837E+08         0.00000E+00
    0.00000E+00         0.00000E+00        -0.13607E+08
 
   -0.13276E+08         0.50284E+04         0.00000E+00
    0.50284E+04        -0.39835E+08         0.00000E+00
    0.00000E+00         0.00000E+00        -0.13589E+08
 
   -0.13291E+08         0.65206E+04         0.00000E+00
    0.65206E+04        -0.39833E+08         0.00000E+00
    0.00000E+00         0.00000E+00        -0.13571E+08
 
   -0.13305E+08         0.80244E+04         0.00000E+00
    0.80244E+04        -0.39830E+08         0.00000E+00
    0.00000E+00         0.00000E+00        -0.13553E+08
 
   -0.13318E+08         0.95392E+04         0.00000E+00
    0.95392E+04        -0.39827E+08         0.00000E+00
    0.00000E+00         0.00000E+00        -0.13535E+08
 
   -0.13330E+08         0.11067E+05         0.00000E+00
    0.11067E+05        -0.39823E+08         0.00000E+00
    0.00000E+00         0.00000E+00        -0.13517E+08
 
   -0.13342E+08         0.12613E+05         0.00000E+00
    0.12613E+05        -0.39818E+08         0.00000E+00
    0.00000E+00         0.00000E+00        -0.13499E+08
 
   -0.13353E+08         0.14182E+05         0.00000E+00
    0.14182E+05        -0.39813E+08         0.00000E+00
    0.00000E+00         0.00000E+00        -0.13482E+08
 
   -0.13362E+08         0.15782E+05         0.00000E+00
    0.15782E+05        -0.39807E+08         0.00000E+00
    0.00000E+00         0.00000E+00        -0.13464E+08
 
   -0.13371E+08         0.17417E+05         0.00000E+00
    0.17417E+05        -0.39801E+08         0.00000E+00
    0.00000E+00         0.00000E+00        -0.13447E+08
 
   -0.13378E+08         0.19093E+05         0.00000E+00
    0.19093E+05        -0.39794E+08         0.00000E+00
    0.00000E+00         0.00000E+00        -0.13430E+08
 
   -0.13384E+08         0.20811E+05         0.00000E+00
    0.20811E+05        -0.39786E+08         0.00000E+00
    0.00000E+00         0.00000E+00        -0.13414E+08
 
   -0.13389E+08         0.22569E+05         0.00000E+00
    0.22569E+05        -0.39777E+08         0.00000E+00
    0.00000E+00         0.00000E+00        -0.13398E+08
 
   -0.13238E+08         0.91808E+03         0.00000E+00
    0.91808E+03        -0.39850E+08         0.00000E+00
    0.00000E+00         0.00000E+00        -0.13647E+08
 
   -0.13255E+08         0.28455E+04         0.00000E+00
    0.28455E+04        -0.39849E+08         0.00000E+00
    0.00000E+00         0.00000E+00        -0.13630E+08
 
   -0.13270E+08         0.48302E+04         0.00000E+00
    0.48302E+04        -0.39848E+08         0.00000E+00
    0.00000E+00         0.00000E+00        -0.13612E+08
 
   -0.13286E+08         0.68562E+04         0.00000E+00
    0.68562E+04        -0.39847E+08         0.00000E+00
    0.00000E+00         0.00000E+00        -0.13595E+08
 
   -0.13300E+08         0.89127E+04         0.00000E+00
    0.89127E+04        -0.39845E+08         0.00000E+00
    0.00000E+00         0.00000E+00        -0.13577E+08
 
   -0.13314E+08         0.10994E+05         0.00000E+00
    0.10994E+05        -0.39842E+08         0.00000E+00
    0.00000E+00         0.00000E+00        -0.13559E+08
 
   -0.13328E+08         0.13099E+05         0.00000E+00
    0.13099E+05        -0.39839E+08         0.00000E+00
    0.00000E+00         0.00000E+00        -0.13542E+08
 
   -0.13340E+08         0.15230E+05         0.00000E+00
    0.15230E+05        -0.39836E+08         0.00000E+00
    0.00000E+00         0.00000E+00        -0.13524E+08
 
   -0.13352E+08         0.17392E+05         0.00000E+00
    0.17392E+05        -0.39831E+08         0.00000E+00
    0.00000E+00         0.00000E+00        -0.13506E+08
 
   -0.13362E+08         0.19593E+05         0.00000E+00
    0.19593E+05        -0.39826E+08         0.00000E+00
    0.00000E+00         0.00000E+00        -0.13489E+08
 
   -0.13372E+08         0.21841E+05         0.00000E+00
    0.21841E+05        -0.39821E+08         0.00000E+00
    0.00000E+00         0.00000E+00        -0.13472E+08
 
   -0.13380E+08         0.24143E+05         0.00000E+00
    0.24143E+05        -0.39814E+08         0.00000E+00
    0.00000E+00         0.00000E+00        -0.13455E+08
 
   -0.13387E+08         0.26502E+05         0.00000E+00
    0.26502E+05        -0.39808E+08         0.00000E+00
    0.00000E+00         0.00000E+00        -0.13439E+08
 
   -0.13393E+08         0.28921E+05         0.00000E+00
    0.28921E+05        -0.39800E+08         0.00000E+00
    0.00000E+00         0.00000E+00        -0.13423E+08
 
   -0.13398E+08         0.31397E+05         0.00000E+00
    0.31397E+05        -0.39791E+08         0.00000E+00
    0.00000E+00         0.00000E+00        -0.13408E+08
 
   -0.13251E+08         0.11215E+04         0.00000E+00
    0.11215E+04        -0.39865E+08         0.00000E+00
    0.00000E+00         0.00000E+00        -0.13654E+08
 
   -0.13268E+08         0.34981E+04         0.00000E+00
    0.34981E+04        -0.39865E+08         0.00000E+00
    0.00000E+00         0.00000E+00        -0.13637E+08
 
   -0.13283E+08         0.59636E+04         0.00000E+00
    0.59636E+04        -0.39864E+08         0.00000E+00
    0.00000E+00         0.00000E+00        -0.13620E+08
 
   -0.13299E+08         0.84977E+04         0.00000E+00
    0.84977E+04        -0.39863E+08         0.00000E+00
    0.00000E+00         0.00000E+00        -0.13602E+08
 
   -0.13313E+08         0.11086E+05         0.00000E+00
    0.11086E+05        -0.39861E+08         0.00000E+00
    0.00000E+00         0.00000E+00        -0.13585E+08
 
   -0.13327E+08         0.13722E+05         0.00000E+00
    0.13722E+05        -0.39859E+08         0.00000E+00
    0.00000E+00         0.00000E+00        -0.13568E+08
 
   -0.13340E+08         0.16401E+05         0.00000E+00
    0.16401E+05        -0.39856E+08         0.00000E+00
    0.00000E+00         0.00000E+00        -0.13550E+08
 
   -0.13353E+08         0.19128E+05         0.00000E+00
    0.19128E+05        -0.39852E+08         0.00000E+00
    0.00000E+00         0.00000E+00        -0.13533E+08
 
   -0.13364E+08         0.21906E+05         0.00000E+00
    0.21906E+05        -0.39848E+08         0.00000E+00
    0.00000E+00         0.00000E+00        -0.13516E+08
 
   -0.13375E+08         0.24745E+05         0.00000E+00
    0.24745E+05        -0.39844E+08         0.00000E+00
    0.00000E+00         0.00000E+00        -0.13499E+08
 
   -0.13385E+08         0.27651E+05         0.00000E+00
    0.27651E+05        -0.39838E+08         0.00000E+00
    0.00000E+00         0.00000E+00        -0.13483E+08
 
   -0.13393E+08         0.30631E+05         0.00000E+00
    0.30631E+05        -0.39832E+08         0.00000E+00
    0.00000E+00         0.00000E+00        -0.13466E+08
 
   -0.13400E+08         0.33689E+05         0.00000E+00
    0.33689E+05        -0.39826E+08         0.00000E+00
    0.00000E+00         0.00000E+00        -0.13450E+08
 
   -0.13406E+08         0.36825E+05         0.00000E+00
    0.36825E+05        -0.39818E+08         0.00000E+00
    0.00000E+00         0.00000E+00        -0.13435E+08
 
   -0.13410E+08         0.40032E+05         0.00000E+00
    0.40032E+05        -0.39810E+08         0.00000E+00
    0.00000E+00         0.00000E+00        -0.13420E+08
 
   -0.13268E+08         0.12794E+04         0.00000E+00
    0.12794E+04        -0.39884E+08         0.00000E+00
    0.00000E+00         0.00000E+00        -0.13662E+08
 
   -0.13284E+08         0.40272E+04         0.00000E+00
    0.40272E+04        -0.39884E+08         0.00000E+00
    0.00000E+00         0.00000E+00        -0.13646E+08
 
   -0.13300E+08         0.69078E+04         0.00000E+00
    0.69078E+04        -0.39883E+08         0.00000E+00
    0.00000E+00         0.00000E+00        -0.13629E+08
 
   -0.13315E+08         0.98964E+04         0.00000E+00
    0.98964E+04        -0.39882E+08         0.00000E+00
    0.00000E+00         0.00000E+00        -0.13612E+08
 
   -0.13329E+08         0.12976E+05         0.00000E+00
    0.12976E+05        -0.39881E+08         0.00000E+00
    0.00000E+00         0.00000E+00        -0.13595E+08
 
   -0.13343E+08         0.16136E+05         0.00000E+00
    0.16136E+05        -0.39879E+08         0.00000E+00
    0.00000E+00         0.00000E+00        -0.13578E+08
 
   -0.13357E+08         0.19372E+05         0.00000E+00
    0.19372E+05        -0.39876E+08         0.00000E+00
    0.00000E+00         0.00000E+00        -0.13561E+08
 
   -0.13369E+08         0.22686E+05         0.00000E+00
    0.22686E+05        -0.39873E+08         0.00000E+00
    0.00000E+00         0.00000E+00        -0.13545E+08
 
   -0.13380E+08         0.26082E+05         0.00000E+00
    0.26082E+05        -0.39870E+08         0.00000E+00
    0.00000E+00         0.00000E+00        -0.13528E+08
 
   -0.13391E+08         0.29566E+05         0.00000E+00
    0.29566E+05        -0.39865E+08         0.00000E+00
    0.00000E+00         0.00000E+00        -0.13512E+08
 
   -0.13400E+08         0.33144E+05         0.00000E+00
    0.33144E+05        -0.39860E+08         0.00000E+00
    0.00000E+00         0.00000E+00        -0.13496E+08
 
   -0.13409E+08         0.36822E+05         0.00000E+00
    0.36822E+05        -0.39855E+08         0.00000E+00
    0.00000E+00         0.00000E+00        -0.13480E+08
 
   -0.13416E+08         0.40600E+05         0.00000E+00
    0.40600E+05        -0.39848E+08         0.00000E+00
    0.00000E+00         0.00000E+00        -0.13465E+08
 
   -0.13421E+08         0.44474E+05         0.00000E+00
    0.44474E+05        -0.39841E+08         0.00000E+00
    0.00000E+00         0.00000E+00        -0.13450E+08
 
   -0.13426E+08         0.48433E+05         0.00000E+00
    0.48433E+05        -0.39833E+08         0.00000E+00
    0.00000E+00         0.00000E+00        -0.13435E+08
 
   -0.13288E+08         0.13804E+04         0.00000E+00
    0.13804E+04        -0.39907E+08         0.00000E+00
    0.00000E+00         0.00000E+00        -0.13672E+08
 
   -0.13304E+08         0.44022E+04         0.00000E+00
    0.44022E+04        -0.39907E+08         0.00000E+00
    0.00000E+00         0.00000E+00        -0.13656E+08
 
   -0.13319E+08         0.76163E+04         0.00000E+00
    0.76163E+04        -0.39906E+08         0.00000E+00
    0.00000E+00         0.00000E+00        -0.13639E+08
 
   -0.13334E+08         0.10994E+05         0.00000E+00
    0.10994E+05        -0.39906E+08         0.00000E+00
    0.00000E+00         0.00000E+00        -0.13623E+08
 
   -0.13349E+08         0.14514E+05         0.00000E+00
    0.14514E+05        -0.39905E+08         0.00000E+00
    0.00000E+00         0.00000E+00        -0.13607E+08
 
   -0.13363E+08         0.18163E+05         0.00000E+00
    0.18163E+05        -0.39903E+08         0.00000E+00
    0.00000E+00         0.00000E+00        -0.13590E+08
 
   -0.13376E+08         0.21936E+05         0.00000E+00
    0.21936E+05        -0.39901E+08         0.00000E+00
    0.00000E+00         0.00000E+00        -0.13574E+08
 
   -0.13388E+08         0.25829E+05         0.00000E+00
    0.25829E+05        -0.39898E+08         0.00000E+00
    0.00000E+00         0.00000E+00        -0.13559E+08
 
   -0.13400E+08         0.29846E+05         0.00000E+00
    0.29846E+05        -0.39895E+08         0.00000E+00
    0.00000E+00         0.00000E+00        -0.13543E+08
 
   -0.13410E+08         0.33988E+05         0.00000E+00
    0.33988E+05        -0.39891E+08         0.00000E+00
    0.00000E+00         0.00000E+00        -0.13527E+08
 
   -0.13419E+08         0.38260E+05         0.00000E+00
    0.38260E+05        -0.39887E+08         0.00000E+00
    0.00000E+00         0.00000E+00        -0.13512E+08
 
   -0.13427E+08         0.42660E+05         0.00000E+00
    0.42660E+05        -0.39882E+08         0.00000E+00
    0.00000E+00         0.00000E+00        -0.13497E+08
 
   -0.13434E+08         0.47185E+05         0.00000E+00
    0.47185E+05        -0.39876E+08         0.00000E+00
    0.00000E+00         0.00000E+00        -0.13482E+08
 
   -0.13440E+08         0.51826E+05         0.00000E+00
    0.51826E+05        -0.39869E+08         0.00000E+00
    0.00000E+00         0.00000E+00        -0.13467E+08
 
   -0.13444E+08         0.56565E+05         0.00000E+00
    0.56565E+05        -0.39861E+08         0.00000E+00
    0.00000E+00         0.00000E+00        -0.13453E+08
 
   -0.13312E+08         0.14128E+04         0.00000E+00
    0.14128E+04        -0.39934E+08         0.00000E+00
    0.00000E+00         0.00000E+00        -0.13684E+08
 
   -0.13327E+08         0.45911E+04         0.00000E+00
    0.45911E+04        -0.39934E+08         0.00000E+00
    0.00000E+00         0.00000E+00        -0.13667E+08
 
   -0.13343E+08         0.80412E+04         0.00000E+00
    0.80412E+04        -0.39933E+08         0.00000E+00
    0.00000E+00         0.00000E+00        -0.13652E+08
 
   -0.13357E+08         0.11730E+05         0.00000E+00
    0.11730E+05        -0.39933E+08         0.00000E+00
    0.00000E+00         0.00000E+00        -0.13636E+08
 
   -0.13372E+08         0.15632E+05         0.00000E+00
    0.15632E+05        -0.39932E+08         0.00000E+00
    0.00000E+00         0.00000E+00        -0.13620E+08
 
   -0.13385E+08         0.19731E+05         0.00000E+00
    0.19731E+05        -0.39931E+08         0.00000E+00
    0.00000E+00         0.00000E+00        -0.13605E+08
 
   -0.13398E+08         0.24018E+05         0.00000E+00
    0.24018E+05        -0.39930E+08         0.00000E+00
    0.00000E+00         0.00000E+00        -0.13590E+08
 
   -0.13411E+08         0.28485E+05         0.00000E+00
    0.28485E+05        -0.39928E+08         0.00000E+00
    0.00000E+00         0.00000E+00        -0.13575E+08
 
   -0.13422E+08         0.33129E+05         0.00000E+00
    0.33129E+05        -0.39925E+08         0.00000E+00
    0.00000E+00         0.00000E+00        -0.13560E+08
 
   -0.13432E+08         0.37949E+05         0.00000E+00
    0.37949E+05        -0.39922E+08         0.00000E+00
    0.00000E+00         0.00000E+00        -0.13545E+08
 
   -0.13441E+08         0.42939E+05         0.00000E+00
    0.42939E+05        -0.39918E+08         0.00000E+00
    0.00000E+00         0.00000E+00        -0.13531E+08
 
   -0.13449E+08         0.48095E+05         0.00000E+00
    0.48095E+05        -0.39913E+08         0.00000E+00
    0.00000E+00         0.00000E+00        -0.13516E+08
 
   -0.13456E+08         0.53404E+05         0.00000E+00
    0.53404E+05        -0.39907E+08         0.00000E+00
    0.00000E+00         0.00000E+00        -0.13502E+08
 
   -0.13462E+08         0.58848E+05         0.00000E+00
    0.58848E+05        -0.39901E+08         0.00000E+00
    0.00000E+00         0.00000E+00        -0.13488E+08
 
   -0.13466E+08         0.64402E+05         0.00000E+00
    0.64402E+05        -0.39894E+08         0.00000E+00
    0.00000E+00         0.00000E+00        -0.13474E+08
 
   -0.13339E+08         0.13641E+04         0.00000E+00
    0.13641E+04        -0.39964E+08         0.00000E+00
    0.00000E+00         0.00000E+00        -0.13696E+08
 
   -0.13355E+08         0.45613E+04         0.00000E+00
    0.45613E+04        -0.39964E+08         0.00000E+00
    0.00000E+00         0.00000E+00        -0.13680E+08
 
   -0.13369E+08         0.81333E+04         0.00000E+00
    0.81333E+04        -0.39964E+08         0.00000E+00
    0.00000E+00         0.00000E+00        -0.13665E+08
 
   -0.13384E+08         0.12043E+05         0.00000E+00
    0.12043E+05        -0.39965E+08         0.00000E+00
    0.00000E+00         0.00000E+00        -0.13650E+08
 
   -0.13398E+08         0.16262E+05         0.00000E+00
    0.16262E+05        -0.39964E+08         0.00000E+00
    0.00000E+00         0.00000E+00        -0.13636E+08
 
   -0.13412E+08         0.20768E+05         0.00000E+00
    0.20768E+05        -0.39964E+08         0.00000E+00
    0.00000E+00         0.00000E+00        -0.13621E+08
 
   -0.13424E+08         0.25545E+05         0.00000E+00
    0.25545E+05        -0.39963E+08         0.00000E+00
    0.00000E+00         0.00000E+00        -0.13607E+08
 
   -0.13436E+08         0.30581E+05         0.00000E+00
    0.30581E+05        -0.39961E+08         0.00000E+00
    0.00000E+00         0.00000E+00        -0.13593E+08
 
   -0.13447E+08         0.35866E+05         0.00000E+00
    0.35866E+05        -0.39959E+08         0.00000E+00
    0.00000E+00         0.00000E+00        -0.13579E+08
 
   -0.13457E+08         0.41387E+05         0.00000E+00
    0.41387E+05        -0.39957E+08         0.00000E+00
    0.00000E+00         0.00000E+00        -0.13566E+08
 
   -0.13466E+08         0.47132E+05         0.00000E+00
    0.47132E+05        -0.39953E+08         0.00000E+00
    0.00000E+00         0.00000E+00        -0.13552E+08
 
   -0.13474E+08         0.53084E+05         0.00000E+00
    0.53084E+05        -0.39949E+08         0.00000E+00
    0.00000E+00         0.00000E+00        -0.13539E+08
 
   -0.13481E+08         0.59222E+05         0.00000E+00
    0.59222E+05        -0.39944E+08         0.00000E+00
    0.00000E+00         0.00000E+00        -0.13525E+08
 
   -0.13486E+08         0.65517E+05         0.00000E+00
    0.65517E+05        -0.39938E+08         0.00000E+00
    0.00000E+00         0.00000E+00        -0.13512E+08
 
   -0.13490E+08         0.71932E+05         0.00000E+00
    0.71932E+05        -0.39931E+08         0.00000E+00
    0.00000E+00         0.00000E+00        -0.13499E+08
 
   -0.13371E+08         0.12221E+04         0.00000E+00
    0.12221E+04        -0.39998E+08         0.00000E+00
    0.00000E+00         0.00000E+00        -0.13709E+08
 
   -0.13385E+08         0.42799E+04         0.00000E+00
    0.42799E+04        -0.39999E+08         0.00000E+00
    0.00000E+00         0.00000E+00        -0.13695E+08
 
   -0.13400E+08         0.78440E+04         0.00000E+00
    0.78440E+04        -0.39999E+08         0.00000E+00
    0.00000E+00         0.00000E+00        -0.13680E+08
 
   -0.13414E+08         0.11873E+05         0.00000E+00
    0.11873E+05        -0.40000E+08         0.00000E+00
    0.00000E+00         0.00000E+00        -0.13667E+08
 
   -0.13428E+08         0.16335E+05         0.00000E+00
    0.16335E+05        -0.40000E+08         0.00000E+00
    0.00000E+00         0.00000E+00        -0.13653E+08
 
   -0.13441E+08         0.21201E+05         0.00000E+00
    0.21201E+05        -0.40000E+08         0.00000E+00
    0.00000E+00         0.00000E+00        -0.13640E+08
 
   -0.13453E+08         0.26448E+05         0.00000E+00
    0.26448E+05        -0.40000E+08         0.00000E+00
    0.00000E+00         0.00000E+00        -0.13627E+08
 
   -0.13465E+08         0.32053E+05         0.00000E+00
    0.32053E+05        -0.39999E+08         0.00000E+00
    0.00000E+00         0.00000E+00        -0.13614E+08
 
   -0.13476E+08         0.37994E+05         0.00000E+00
    0.37994E+05        -0.39998E+08         0.00000E+00
    0.00000E+00         0.00000E+00        -0.13601E+08
 
   -0.13486E+08         0.44249E+05         0.00000E+00
    0.44249E+05        -0.39996E+08         0.00000E+00
    0.00000E+00         0.00000E+00        -0.13589E+08
 
   -0.13494E+08         0.50792E+05         0.00000E+00
    0.50792E+05        -0.39993E+08         0.00000E+00
    0.00000E+00         0.00000E+00        -0.13576E+08
 
   -0.13502E+08         0.57592E+05         0.00000E+00
    0.57592E+05        -0.39989E+08         0.00000E+00
    0.00000E+00         0.00000E+00        -0.13564E+08
 
   -0.13508E+08         0.64615E+05         0.00000E+00
    0.64615E+05        -0.39984E+08         0.00000E+00
    0.00000E+00         0.00000E+00        -0.13551E+08
 
   -0.13514E+08         0.71818E+05         0.00000E+00
    0.71818E+05        -0.39979E+08         0.00000E+00
    0.00000E+00         0.00000E+00        -0.13538E+08
 
   -0.13518E+08         0.79150E+05         0.00000E+00
    0.79150E+05        -0.39972E+08         0.00000E+00
    0.00000E+00         0.00000E+00        -0.13526E+08
 
   -0.13406E+08         0.97502E+03         0.00000E+00
    0.97502E+03        -0.40037E+08         0.00000E+00
    0.00000E+00         0.00000E+00        -0.13724E+08
 
   -0.13420E+08         0.37155E+04         0.00000E+00
    0.37155E+04        -0.40037E+08         0.00000E+00
    0.00000E+00         0.00000E+00        -0.13710E+08
 
   -0.13434E+08         0.71263E+04         0.00000E+00
    0.71263E+04        -0.40038E+08         0.00000E+00
    0.00000E+00         0.00000E+00        -0.13697E+08
 
   -0.13448E+08         0.11164E+05         0.00000E+00
    0.11164E+05        -0.40039E+08         0.00000E+00
    0.00000E+00         0.00000E+00        -0.13684E+08
 
   -0.13461E+08         0.15789E+05         0.00000E+00
    0.15789E+05        -0.40040E+08         0.00000E+00
    0.00000E+00         0.00000E+00        -0.13672E+08
 
   -0.13474E+08         0.20966E+05         0.00000E+00
    0.20966E+05        -0.40041E+08         0.00000E+00
    0.00000E+00         0.00000E+00        -0.13660E+08
 
   -0.13486E+08         0.26660E+05         0.00000E+00
    0.26660E+05        -0.40041E+08         0.00000E+00
    0.00000E+00         0.00000E+00        -0.13649E+08
 
   -0.13497E+08         0.32836E+05         0.00000E+00
    0.32836E+05        -0.40041E+08         0.00000E+00
    0.00000E+00         0.00000E+00        -0.13637E+08
 
   -0.13507E+08         0.39459E+05         0.00000E+00
    0.39459E+05        -0.40041E+08         0.00000E+00
    0.00000E+00         0.00000E+00        -0.13626E+08
 
   -0.13517E+08         0.46488E+05         0.00000E+00
    0.46488E+05        -0.40039E+08         0.00000E+00
    0.00000E+00         0.00000E+00        -0.13614E+08
 
   -0.13525E+08         0.53882E+05         0.00000E+00
    0.53882E+05        -0.40037E+08         0.00000E+00
    0.00000E+00         0.00000E+00        -0.13603E+08
 
   -0.13533E+08         0.61592E+05         0.00000E+00
    0.61592E+05        -0.40033E+08         0.00000E+00
    0.00000E+00         0.00000E+00        -0.13591E+08
 
   -0.13539E+08         0.69567E+05         0.00000E+00
    0.69567E+05        -0.40029E+08         0.00000E+00
    0.00000E+00         0.00000E+00        -0.13580E+08
 
   -0.13544E+08         0.77748E+05         0.00000E+00
    0.77748E+05        -0.40024E+08         0.00000E+00
    0.00000E+00         0.00000E+00        -0.13568E+08
 
   -0.13548E+08         0.86067E+05         0.00000E+00
    0.86067E+05        -0.40018E+08         0.00000E+00
    0.00000E+00         0.00000E+00        -0.13556E+08
 
   -0.13446E+08         0.61266E+03         0.00000E+00
    0.61266E+03        -0.40078E+08         0.00000E+00
    0.00000E+00         0.00000E+00        -0.13739E+08
 
   -0.13459E+08         0.28400E+04         0.00000E+00
    0.28400E+04        -0.40079E+08         0.00000E+00
    0.00000E+00         0.00000E+00        -0.13726E+08
 
   -0.13473E+08         0.59386E+04         0.00000E+00
    0.59386E+04        -0.40081E+08         0.00000E+00
    0.00000E+00         0.00000E+00        -0.13714E+08
 
   -0.13486E+08         0.98619E+04         0.00000E+00
    0.98619E+04        -0.40082E+08         0.00000E+00
    0.00000E+00         0.00000E+00        -0.13703E+08
 
   -0.13498E+08         0.14565E+05         0.00000E+00
    0.14565E+05        -0.40084E+08         0.00000E+00
    0.00000E+00         0.00000E+00        -0.13693E+08
 
   -0.13510E+08         0.20001E+05         0.00000E+00
    0.20001E+05        -0.40085E+08         0.00000E+00
    0.00000E+00         0.00000E+00        -0.13682E+08
 
   -0.13522E+08         0.26123E+05         0.00000E+00
    0.26123E+05        -0.40087E+08         0.00000E+00
    0.00000E+00         0.00000E+00        -0.13672E+08
 
   -0.13532E+08         0.32877E+05         0.00000E+00
    0.32877E+05        -0.40087E+08         0.00000E+00
    0.00000E+00         0.00000E+00        -0.13663E+08
 
   -0.13542E+08         0.40211E+05         0.00000E+00
    0.40211E+05        -0.40087E+08         0.00000E+00
    0.00000E+00         0.00000E+00        -0.13653E+08
 
   -0.13551E+08         0.48063E+05         0.00000E+00
    0.48063E+05        -0.40087E+08         0.00000E+00
    0.00000E+00         0.00000E+00        -0.13643E+08
 
   -0.13559E+08         0.56370E+05         0.00000E+00
    0.56370E+05        -0.40085E+08         0.00000E+00
    0.00000E+00         0.00000E+00        -0.13632E+08
 
   -0.13566E+08         0.65065E+05         0.00000E+00
    0.65065E+05        -0.40082E+08         0.00000E+00
    0.00000E+00         0.00000E+00        -0.13622E+08
 
   -0.13572E+08         0.74072E+05         0.00000E+00
    0.74072E+05        -0.40079E+08         0.00000E+00
    0.00000E+00         0.00000E+00        -0.13611E+08
 
   -0.13577E+08         0.83312E+05         0.00000E+00
    0.83312E+05        -0.40074E+08         0.00000E+00
    0.00000E+00         0.00000E+00        -0.13600E+08
 
   -0.13581E+08         0.92700E+05         0.00000E+00
    0.92700E+05        -0.40068E+08         0.00000E+00
    0.00000E+00         0.00000E+00        -0.13589E+08
 
   -0.13490E+08         0.12749E+03         0.00000E+00
    0.12749E+03        -0.40124E+08         0.00000E+00
    0.00000E+00         0.00000E+00        -0.13754E+08
 
   -0.13503E+08         0.16321E+04         0.00000E+00
    0.16321E+04        -0.40125E+08         0.00000E+00
    0.00000E+00         0.00000E+00        -0.13743E+08
 
   -0.13515E+08         0.42479E+04         0.00000E+00
    0.42479E+04        -0.40127E+08         0.00000E+00
    0.00000E+00         0.00000E+00        -0.13733E+08
 
   -0.13527E+08         0.79267E+04         0.00000E+00
    0.79267E+04        -0.40129E+08         0.00000E+00
    0.00000E+00         0.00000E+00        -0.13723E+08
 
   -0.13539E+08         0.12616E+05         0.00000E+00
    0.12616E+05        -0.40132E+08         0.00000E+00
    0.00000E+00         0.00000E+00        -0.13715E+08
 
   -0.13550E+08         0.18258E+05         0.00000E+00
    0.18258E+05        -0.40134E+08         0.00000E+00
    0.00000E+00         0.00000E+00        -0.13706E+08
 
   -0.13561E+08         0.24787E+05         0.00000E+00
    0.24787E+05        -0.40136E+08         0.00000E+00
    0.00000E+00         0.00000E+00        -0.13698E+08
 
   -0.13571E+08         0.32130E+05         0.00000E+00
    0.32130E+05        -0.40137E+08         0.00000E+00
    0.00000E+00         0.00000E+00        -0.13690E+08
 
   -0.13580E+08         0.40210E+05         0.00000E+00
    0.40210E+05        -0.40138E+08         0.00000E+00
    0.00000E+00         0.00000E+00        -0.13682E+08
 
   -0.13588E+08         0.48941E+05         0.00000E+00
    0.48941E+05        -0.40138E+08         0.00000E+00
    0.00000E+00         0.00000E+00        -0.13673E+08
 
   -0.13596E+08         0.58235E+05         0.00000E+00
    0.58235E+05        -0.40137E+08         0.00000E+00
    0.00000E+00         0.00000E+00        -0.13665E+08
 
   -0.13603E+08         0.67998E+05         0.00000E+00
    0.67998E+05        -0.40135E+08         0.00000E+00
    0.00000E+00         0.00000E+00        -0.13655E+08
 
   -0.13608E+08         0.78129E+05         0.00000E+00
    0.78129E+05        -0.40132E+08         0.00000E+00
    0.00000E+00         0.00000E+00        -0.13645E+08
 
   -0.13613E+08         0.88526E+05         0.00000E+00
    0.88526E+05        -0.40127E+08         0.00000E+00
    0.00000E+00         0.00000E+00        -0.13635E+08
 
   -0.13617E+08         0.99079E+05         0.00000E+00
    0.99079E+05        -0.40122E+08         0.00000E+00
    0.00000E+00         0.00000E+00        -0.13624E+08
 
   -0.13539E+08        -0.48356E+03         0.00000E+00
   -0.48356E+03        -0.40174E+08         0.00000E+00
    0.00000E+00         0.00000E+00        -0.13770E+08
 
   -0.13550E+08         0.80817E+02         0.00000E+00
    0.80817E+02        -0.40175E+08         0.00000E+00
    0.00000E+00         0.00000E+00        -0.13760E+08
 
   -0.13562E+08         0.20352E+04         0.00000E+00
    0.20352E+04        -0.40177E+08         0.00000E+00
    0.00000E+00         0.00000E+00        -0.13752E+08
 
   -0.13572E+08         0.53317E+04         0.00000E+00
    0.53317E+04        -0.40180E+08         0.00000E+00
    0.00000E+00         0.00000E+00        -0.13745E+08
 
   -0.13583E+08         0.99112E+04         0.00000E+00
    0.99112E+04        -0.40183E+08         0.00000E+00
    0.00000E+00         0.00000E+00        -0.13738E+08
 
   -0.13593E+08         0.15701E+05         0.00000E+00
    0.15701E+05        -0.40186E+08         0.00000E+00
    0.00000E+00         0.00000E+00        -0.13732E+08
 
   -0.13603E+08         0.22616E+05         0.00000E+00
    0.22616E+05        -0.40189E+08         0.00000E+00
    0.00000E+00         0.00000E+00        -0.13726E+08
 
   -0.13612E+08         0.30560E+05         0.00000E+00
    0.30560E+05        -0.40191E+08         0.00000E+00
    0.00000E+00         0.00000E+00        -0.13720E+08
 
   -0.13621E+08         0.39425E+05         0.00000E+00
    0.39425E+05        -0.40193E+08         0.00000E+00
    0.00000E+00         0.00000E+00        -0.13713E+08
 
   -0.13628E+08         0.49099E+05         0.00000E+00
    0.49099E+05        -0.40194E+08         0.00000E+00
    0.00000E+00         0.00000E+00        -0.13707E+08
 
   -0.13635E+08         0.59461E+05         0.00000E+00
    0.59461E+05        -0.40193E+08         0.00000E+00
    0.00000E+00         0.00000E+00        -0.13699E+08
 
   -0.13642E+08         0.70387E+05         0.00000E+00
    0.70387E+05        -0.40192E+08         0.00000E+00
    0.00000E+00         0.00000E+00        -0.13691E+08
 
   -0.13647E+08         0.81747E+05         0.00000E+00
    0.81747E+05        -0.40189E+08         0.00000E+00
    0.00000E+00         0.00000E+00        -0.13682E+08
 
   -0.13651E+08         0.93408E+05         0.00000E+00
    0.93408E+05        -0.40185E+08         0.00000E+00
    0.00000E+00         0.00000E+00        -0.13673E+08
 
   -0.13655E+08         0.10524E+06         0.00000E+00
    0.10524E+06        -0.40180E+08         0.00000E+00
    0.00000E+00         0.00000E+00        -0.13662E+08
 
   -0.13593E+08        -0.12172E+04         0.00000E+00
   -0.12172E+04        -0.40227E+08         0.00000E+00
    0.00000E+00         0.00000E+00        -0.13786E+08
 
   -0.13603E+08        -0.18099E+04         0.00000E+00
   -0.18099E+04        -0.40229E+08         0.00000E+00
    0.00000E+00         0.00000E+00        -0.13778E+08
 
   -0.13613E+08        -0.69885E+03         0.00000E+00
   -0.69885E+03        -0.40231E+08         0.00000E+00
    0.00000E+00         0.00000E+00        -0.13772E+08
 
   -0.13622E+08         0.20716E+04         0.00000E+00
    0.20716E+04        -0.40234E+08         0.00000E+00
    0.00000E+00         0.00000E+00        -0.13767E+08
 
   -0.13631E+08         0.64373E+04         0.00000E+00
    0.64373E+04        -0.40238E+08         0.00000E+00
    0.00000E+00         0.00000E+00        -0.13762E+08
 
   -0.13640E+08         0.12312E+05         0.00000E+00
    0.12312E+05        -0.40242E+08         0.00000E+00
    0.00000E+00         0.00000E+00        -0.13759E+08
 
   -0.13649E+08         0.19589E+05         0.00000E+00
    0.19589E+05        -0.40246E+08         0.00000E+00
    0.00000E+00         0.00000E+00        -0.13755E+08
 
   -0.13657E+08         0.28143E+05         0.00000E+00
    0.28143E+05        -0.40249E+08         0.00000E+00
    0.00000E+00         0.00000E+00        -0.13751E+08
 
   -0.13664E+08         0.37837E+05         0.00000E+00
    0.37837E+05        -0.40252E+08         0.00000E+00
    0.00000E+00         0.00000E+00        -0.13747E+08
 
   -0.13671E+08         0.48521E+05         0.00000E+00
    0.48521E+05        -0.40253E+08         0.00000E+00
    0.00000E+00         0.00000E+00        -0.13742E+08
 
   -0.13677E+08         0.60041E+05         0.00000E+00
    0.60041E+05        -0.40254E+08         0.00000E+00
    0.00000E+00         0.00000E+00        -0.13736E+08
 
   -0.13683E+08         0.72235E+05         0.00000E+00
    0.72235E+05        -0.40253E+08         0.00000E+00
    0.00000E+00         0.00000E+00        -0.13729E+08
 
   -0.13688E+08         0.84937E+05         0.00000E+00
    0.84937E+05        -0.40250E+08         0.00000E+00
    0.00000E+00         0.00000E+00        -0.13722E+08
 
   -0.13692E+08         0.97982E+05         0.00000E+00
    0.97982E+05        -0.40247E+08         0.00000E+00
    0.00000E+00         0.00000E+00        -0.13713E+08
 
   -0.13696E+08         0.11121E+06         0.00000E+00
    0.11121E+06        -0.40242E+08         0.00000E+00
    0.00000E+00         0.00000E+00        -0.13703E+08
 
   -0.13653E+08        -0.20619E+04         0.00000E+00
   -0.20619E+04        -0.40284E+08         0.00000E+00
    0.00000E+00         0.00000E+00        -0.13801E+08
 
   -0.13660E+08        -0.40164E+04         0.00000E+00
   -0.40164E+04        -0.40286E+08         0.00000E+00
    0.00000E+00         0.00000E+00        -0.13796E+08
 
   -0.13668E+08        -0.39271E+04         0.00000E+00
   -0.39271E+04        -0.40289E+08         0.00000E+00
    0.00000E+00         0.00000E+00        -0.13792E+08
 
   -0.13676E+08        -0.18301E+04         0.00000E+00
   -0.18301E+04        -0.40293E+08         0.00000E+00
    0.00000E+00         0.00000E+00        -0.13789E+08
 
   -0.13683E+08         0.22099E+04         0.00000E+00
    0.22099E+04        -0.40297E+08         0.00000E+00
    0.00000E+00         0.00000E+00        -0.13788E+08
 
   -0.13690E+08         0.80962E+04         0.00000E+00
    0.80962E+04        -0.40302E+08         0.00000E+00
    0.00000E+00         0.00000E+00        -0.13787E+08
 
   -0.13697E+08         0.15702E+05         0.00000E+00
    0.15702E+05        -0.40306E+08         0.00000E+00
    0.00000E+00         0.00000E+00        -0.13785E+08
 
   -0.13704E+08         0.24873E+05         0.00000E+00
    0.24873E+05        -0.40310E+08         0.00000E+00
    0.00000E+00         0.00000E+00        -0.13784E+08
 
   -0.13711E+08         0.35437E+05         0.00000E+00
    0.35437E+05        -0.40314E+08         0.00000E+00
    0.00000E+00         0.00000E+00        -0.13782E+08
 
   -0.13716E+08         0.47204E+05         0.00000E+00
    0.47204E+05        -0.40316E+08         0.00000E+00
    0.00000E+00         0.00000E+00        -0.13779E+08
 
   -0.13722E+08         0.59975E+05         0.00000E+00
    0.59975E+05        -0.40317E+08         0.00000E+00
    0.00000E+00         0.00000E+00        -0.13775E+08
 
   -0.13727E+08         0.73546E+05         0.00000E+00
    0.73546E+05        -0.40317E+08         0.00000E+00
    0.00000E+00         0.00000E+00        -0.13770E+08
 
   -0.13731E+08         0.87711E+05         0.00000E+00
    0.87711E+05        -0.40315E+08         0.00000E+00
    0.00000E+00         0.00000E+00        -0.13763E+08
 
   -0.13735E+08         0.10227E+06         0.00000E+00
    0.10227E+06        -0.40312E+08         0.00000E+00
    0.00000E+00         0.00000E+00        -0.13755E+08
 
   -0.13739E+08         0.11703E+06         0.00000E+00
    0.11703E+06        -0.40307E+08         0.00000E+00
    0.00000E+00         0.00000E+00        -0.13746E+08
 
   -0.13717E+08        -0.29966E+04         0.00000E+00
   -0.29966E+04        -0.40345E+08         0.00000E+00
    0.00000E+00         0.00000E+00        -0.13816E+08
 
   -0.13723E+08        -0.64911E+04         0.00000E+00
   -0.64911E+04        -0.40347E+08         0.00000E+00
    0.00000E+00         0.00000E+00        -0.13813E+08
 
   -0.13728E+08        -0.75901E+04         0.00000E+00
   -0.75901E+04        -0.40350E+08         0.00000E+00
    0.00000E+00         0.00000E+00        -0.13812E+08
 
   -0.13734E+08        -0.63146E+04         0.00000E+00
   -0.63146E+04        -0.40355E+08         0.00000E+00
    0.00000E+00         0.00000E+00        -0.13812E+08
 
   -0.13739E+08        -0.27212E+04         0.00000E+00
   -0.27212E+04        -0.40360E+08         0.00000E+00
    0.00000E+00         0.00000E+00        -0.13814E+08
 
   -0.13744E+08         0.30909E+04         0.00000E+00
    0.30909E+04        -0.40365E+08         0.00000E+00
    0.00000E+00         0.00000E+00        -0.13815E+08
 
   -0.13750E+08         0.10980E+05         0.00000E+00
    0.10980E+05        -0.40370E+08         0.00000E+00
    0.00000E+00         0.00000E+00        -0.13817E+08
 
   -0.13755E+08         0.20765E+05         0.00000E+00
    0.20765E+05        -0.40375E+08         0.00000E+00
    0.00000E+00         0.00000E+00        -0.13819E+08
 
   -0.13760E+08         0.32234E+05         0.00000E+00
    0.32234E+05        -0.40379E+08         0.00000E+00
    0.00000E+00         0.00000E+00        -0.13819E+08
 
   -0.13764E+08         0.45151E+05         0.00000E+00
    0.45151E+05        -0.40382E+08         0.00000E+00
    0.00000E+00         0.00000E+00        -0.13818E+08
 
   -0.13769E+08         0.59267E+05         0.00000E+00
    0.59267E+05        -0.40384E+08         0.00000E+00
    0.00000E+00         0.00000E+00        -0.13816E+08
 
   -0.13773E+08         0.74327E+05         0.00000E+00
    0.74327E+05        -0.40384E+08         0.00000E+00
    0.00000E+00         0.00000E+00        -0.13813E+08
 
   -0.13777E+08         0.90076E+05         0.00000E+00
    0.90076E+05        -0.40383E+08         0.00000E+00
    0.00000E+00         0.00000E+00        -0.13807E+08
 
   -0.13781E+08         0.10627E+06         0.00000E+00
    0.10627E+06        -0.40380E+08         0.00000E+00
    0.00000E+00         0.00000E+00        -0.13800E+08
 
   -0.13784E+08         0.12270E+06         0.00000E+00
    0.12270E+06        -0.40375E+08         0.00000E+00
    0.00000E+00         0.00000E+00        -0.13791E+08
 
   -0.13788E+08        -0.39911E+04         0.00000E+00
   -0.39911E+04        -0.40410E+08         0.00000E+00
    0.00000E+00         0.00000E+00        -0.13831E+08
 
   -0.13790E+08        -0.91614E+04         0.00000E+00
   -0.91614E+04        -0.40412E+08         0.00000E+00
    0.00000E+00         0.00000E+00        -0.13831E+08
 
   -0.13793E+08        -0.11592E+05         0.00000E+00
   -0.11592E+05        -0.40415E+08         0.00000E+00
    0.00000E+00         0.00000E+00        -0.13832E+08
 
   -0.13796E+08        -0.11279E+05         0.00000E+00
   -0.11279E+05        -0.40420E+08         0.00000E+00
    0.00000E+00         0.00000E+00        -0.13836E+08
 
   -0.13799E+08        -0.82617E+04         0.00000E+00
   -0.82617E+04        -0.40425E+08         0.00000E+00
    0.00000E+00         0.00000E+00        -0.13840E+08
 
   -0.13802E+08        -0.26264E+04         0.00000E+00
   -0.26264E+04        -0.40431E+08         0.00000E+00
    0.00000E+00         0.00000E+00        -0.13845E+08
 
   -0.13805E+08         0.54810E+04         0.00000E+00
    0.54810E+04        -0.40437E+08         0.00000E+00
    0.00000E+00         0.00000E+00        -0.13850E+08
 
   -0.13808E+08         0.15858E+05         0.00000E+00
    0.15858E+05        -0.40443E+08         0.00000E+00
    0.00000E+00         0.00000E+00        -0.13854E+08
 
   -0.13812E+08         0.28255E+05         0.00000E+00
    0.28255E+05        -0.40448E+08         0.00000E+00
    0.00000E+00         0.00000E+00        -0.13857E+08
 
   -0.13815E+08         0.42381E+05         0.00000E+00
    0.42381E+05        -0.40452E+08         0.00000E+00
    0.00000E+00         0.00000E+00        -0.13859E+08
 
   -0.13818E+08         0.57928E+05         0.00000E+00
    0.57928E+05        -0.40454E+08         0.00000E+00
    0.00000E+00         0.00000E+00        -0.13859E+08
 
   -0.13822E+08         0.74578E+05         0.00000E+00
    0.74578E+05        -0.40455E+08         0.00000E+00
    0.00000E+00         0.00000E+00        -0.13857E+08
 
   -0.13825E+08         0.92023E+05         0.00000E+00
    0.92023E+05        -0.40454E+08         0.00000E+00
    0.00000E+00         0.00000E+00        -0.13853E+08
 
   -0.13828E+08         0.10998E+06         0.00000E+00
    0.10998E+06        -0.40451E+08         0.00000E+00
    0.00000E+00         0.00000E+00        -0.13846E+08
 
   -0.13831E+08         0.12820E+06         0.00000E+00
    0.12820E+06        -0.40447E+08         0.00000E+00
    0.00000E+00         0.00000E+00        -0.13838E+08
 
   -0.13863E+08        -0.50075E+04         0.00000E+00
   -0.50075E+04        -0.40478E+08         0.00000E+00
    0.00000E+00         0.00000E+00        -0.13845E+08
 
   -0.13863E+08        -0.11932E+05         0.00000E+00
   -0.11932E+05        -0.40480E+08         0.00000E+00
    0.00000E+00         0.00000E+00        -0.13848E+08
 
   -0.13863E+08        -0.15798E+05         0.00000E+00
   -0.15798E+05        -0.40484E+08         0.00000E+00
    0.00000E+00         0.00000E+00        -0.13852E+08
 
   -0.13863E+08        -0.16573E+05         0.00000E+00
   -0.16573E+05        -0.40488E+08         0.00000E+00
    0.00000E+00         0.00000E+00        -0.13859E+08
 
   -0.13864E+08        -0.14262E+05         0.00000E+00
   -0.14262E+05        -0.40494E+08         0.00000E+00
    0.00000E+00         0.00000E+00        -0.13866E+08
 
   -0.13864E+08        -0.89225E+04         0.00000E+00
   -0.89225E+04        -0.40501E+08         0.00000E+00
    0.00000E+00         0.00000E+00        -0.13875E+08
 
   -0.13864E+08        -0.68683E+03         0.00000E+00
   -0.68683E+03        -0.40507E+08         0.00000E+00
    0.00000E+00         0.00000E+00        -0.13883E+08
 
   -0.13865E+08         0.10235E+05         0.00000E+00
    0.10235E+05        -0.40513E+08         0.00000E+00
    0.00000E+00         0.00000E+00        -0.13890E+08
 
   -0.13866E+08         0.23554E+05         0.00000E+00
    0.23554E+05        -0.40519E+08         0.00000E+00
    0.00000E+00         0.00000E+00        -0.13896E+08
 
   -0.13868E+08         0.38924E+05         0.00000E+00
    0.38924E+05        -0.40523E+08         0.00000E+00
    0.00000E+00         0.00000E+00        -0.13901E+08
 
   -0.13870E+08         0.55963E+05         0.00000E+00
    0.55963E+05        -0.40527E+08         0.00000E+00
    0.00000E+00         0.00000E+00        -0.13903E+08
 
   -0.13872E+08         0.74283E+05         0.00000E+00
    0.74283E+05        -0.40528E+08         0.00000E+00
    0.00000E+00         0.00000E+00        -0.13903E+08
 
   -0.13875E+08         0.93517E+05         0.00000E+00
    0.93517E+05        -0.40528E+08         0.00000E+00
    0.00000E+00         0.00000E+00        -0.13900E+08
 
   -0.13878E+08         0.11334E+06         0.00000E+00
    0.11334E+06        -0.40526E+08         0.00000E+00
    0.00000E+00         0.00000E+00        -0.13895E+08
 
   -0.13881E+08         0.13347E+06         0.00000E+00
    0.13347E+06        -0.40521E+08         0.00000E+00
    0.00000E+00         0.00000E+00        -0.13887E+08
 
   -0.13945E+08        -0.60051E+04         0.00000E+00
   -0.60051E+04        -0.40550E+08         0.00000E+00
    0.00000E+00         0.00000E+00        -0.13859E+08
 
   -0.13942E+08        -0.14690E+05         0.00000E+00
   -0.14690E+05        -0.40552E+08         0.00000E+00
    0.00000E+00         0.00000E+00        -0.13864E+08
 
   -0.13939E+08        -0.20042E+05         0.00000E+00
   -0.20042E+05        -0.40556E+08         0.00000E+00
    0.00000E+00         0.00000E+00        -0.13872E+08
 
   -0.13935E+08        -0.21993E+05         0.00000E+00
   -0.21993E+05        -0.40560E+08         0.00000E+00
    0.00000E+00         0.00000E+00        -0.13882E+08
 
   -0.13932E+08        -0.20505E+05         0.00000E+00
   -0.20505E+05        -0.40566E+08         0.00000E+00
    0.00000E+00         0.00000E+00        -0.13893E+08
 
   -0.13929E+08        -0.15590E+05         0.00000E+00
   -0.15590E+05        -0.40573E+08         0.00000E+00
    0.00000E+00         0.00000E+00        -0.13904E+08
 
   -0.13927E+08        -0.73441E+04         0.00000E+00
   -0.73441E+04        -0.40580E+08         0.00000E+00
    0.00000E+00         0.00000E+00        -0.13916E+08
 
   -0.13925E+08         0.40322E+04         0.00000E+00
    0.40322E+04        -0.40586E+08         0.00000E+00
    0.00000E+00         0.00000E+00        -0.13926E+08
 
   -0.13923E+08         0.18224E+05         0.00000E+00
    0.18224E+05        -0.40592E+08         0.00000E+00
    0.00000E+00         0.00000E+00        -0.13936E+08
 
   -0.13923E+08         0.34824E+05         0.00000E+00
    0.34824E+05        -0.40597E+08         0.00000E+00
    0.00000E+00         0.00000E+00        -0.13943E+08
 
   -0.13923E+08         0.53371E+05         0.00000E+00
    0.53371E+05        -0.40601E+08         0.00000E+00
    0.00000E+00         0.00000E+00        -0.13947E+08
 
   -0.13925E+08         0.73398E+05         0.00000E+00
    0.73398E+05        -0.40603E+08         0.00000E+00
    0.00000E+00         0.00000E+00        -0.13949E+08
 
   -0.13926E+08         0.94476E+05         0.00000E+00
    0.94476E+05        -0.40604E+08         0.00000E+00
    0.00000E+00         0.00000E+00        -0.13948E+08
 
   -0.13929E+08         0.11623E+06         0.00000E+00
    0.11623E+06        -0.40602E+08         0.00000E+00
    0.00000E+00         0.00000E+00        -0.13944E+08
 
   -0.13931E+08         0.13838E+06         0.00000E+00
    0.13838E+06        -0.40598E+08         0.00000E+00
    0.00000E+00         0.00000E+00        -0.13937E+08
 
   -0.14032E+08        -0.69461E+04         0.00000E+00
   -0.69461E+04        -0.40626E+08         0.00000E+00
    0.00000E+00         0.00000E+00        -0.13872E+08
 
   -0.14026E+08        -0.17322E+05         0.00000E+00
   -0.17322E+05        -0.40628E+08         0.00000E+00
    0.00000E+00         0.00000E+00        -0.13881E+08
 
   -0.14019E+08        -0.24134E+05         0.00000E+00
   -0.24134E+05        -0.40631E+08         0.00000E+00
    0.00000E+00         0.00000E+00        -0.13892E+08
 
   -0.14012E+08        -0.27288E+05         0.00000E+00
   -0.27288E+05        -0.40636E+08         0.00000E+00
    0.00000E+00         0.00000E+00        -0.13904E+08
 
   -0.14005E+08        -0.26699E+05         0.00000E+00
   -0.26699E+05        -0.40641E+08         0.00000E+00
    0.00000E+00         0.00000E+00        -0.13918E+08
 
   -0.13999E+08        -0.22326E+05         0.00000E+00
   -0.22326E+05        -0.40648E+08         0.00000E+00
    0.00000E+00         0.00000E+00        -0.13933E+08
 
   -0.13993E+08        -0.14210E+05         0.00000E+00
   -0.14210E+05        -0.40654E+08         0.00000E+00
    0.00000E+00         0.00000E+00        -0.13948E+08
 
   -0.13988E+08        -0.25250E+04         0.00000E+00
   -0.25250E+04        -0.40661E+08         0.00000E+00
    0.00000E+00         0.00000E+00        -0.13962E+08
 
   -0.13983E+08         0.12409E+05         0.00000E+00
    0.12409E+05        -0.40667E+08         0.00000E+00
    0.00000E+00         0.00000E+00        -0.13974E+08
 
   -0.13981E+08         0.30137E+05         0.00000E+00
    0.30137E+05        -0.40673E+08         0.00000E+00
    0.00000E+00         0.00000E+00        -0.13984E+08
 
   -0.13979E+08         0.50124E+05         0.00000E+00
    0.50124E+05        -0.40677E+08         0.00000E+00
    0.00000E+00         0.00000E+00        -0.13992E+08
 
   -0.13979E+08         0.71826E+05         0.00000E+00
    0.71826E+05        -0.40680E+08         0.00000E+00
    0.00000E+00         0.00000E+00        -0.13996E+08
 
   -0.13980E+08         0.94747E+05         0.00000E+00
    0.94747E+05        -0.40681E+08         0.00000E+00
    0.00000E+00         0.00000E+00        -0.13997E+08
 
   -0.13982E+08         0.11848E+06         0.00000E+00
    0.11848E+06        -0.40681E+08         0.00000E+00
    0.00000E+00         0.00000E+00        -0.13994E+08
 
   -0.13984E+08         0.14270E+06         0.00000E+00
    0.14270E+06        -0.40678E+08         0.00000E+00
    0.00000E+00         0.00000E+00        -0.13989E+08
 
   -0.14125E+08        -0.78012E+04         0.00000E+00
   -0.78012E+04        -0.40706E+08         0.00000E+00
    0.00000E+00         0.00000E+00        -0.13885E+08
 
   -0.14115E+08        -0.19718E+05         0.00000E+00
   -0.19718E+05        -0.40707E+08         0.00000E+00
    0.00000E+00         0.00000E+00        -0.13897E+08
 
   -0.14104E+08        -0.27880E+05         0.00000E+00
   -0.27880E+05        -0.40710E+08         0.00000E+00
    0.00000E+00         0.00000E+00        -0.13911E+08
 
   -0.14094E+08        -0.32172E+05         0.00000E+00
   -0.32172E+05        -0.40714E+08         0.00000E+00
    0.00000E+00         0.00000E+00        -0.13927E+08
 
   -0.14083E+08        -0.32476E+05         0.00000E+00
   -0.32476E+05        -0.40719E+08         0.00000E+00
    0.00000E+00         0.00000E+00        -0.13944E+08
 
   -0.14072E+08        -0.28709E+05         0.00000E+00
   -0.28709E+05        -0.40725E+08         0.00000E+00
    0.00000E+00         0.00000E+00        -0.13961E+08
 
   -0.14062E+08        -0.20870E+05         0.00000E+00
   -0.20870E+05        -0.40731E+08         0.00000E+00
    0.00000E+00         0.00000E+00        -0.13979E+08
 
   -0.14054E+08        -0.90920E+04         0.00000E+00
   -0.90920E+04        -0.40738E+08         0.00000E+00
    0.00000E+00         0.00000E+00        -0.13996E+08
 
   -0.14046E+08         0.63286E+04         0.00000E+00
    0.63286E+04        -0.40744E+08         0.00000E+00
    0.00000E+00         0.00000E+00        -0.14012E+08
 
   -0.14041E+08         0.24936E+05         0.00000E+00
    0.24936E+05        -0.40750E+08         0.00000E+00
    0.00000E+00         0.00000E+00        -0.14025E+08
 
   -0.14037E+08         0.46161E+05         0.00000E+00
    0.46161E+05        -0.40754E+08         0.00000E+00
    0.00000E+00         0.00000E+00        -0.14035E+08
 
   -0.14035E+08         0.69398E+05         0.00000E+00
    0.69398E+05        -0.40758E+08         0.00000E+00
    0.00000E+00         0.00000E+00        -0.14042E+08
 
   -0.14035E+08         0.94088E+05         0.00000E+00
    0.94088E+05        -0.40760E+08         0.00000E+00
    0.00000E+00         0.00000E+00        -0.14046E+08
 
   -0.14036E+08         0.11977E+06         0.00000E+00
    0.11977E+06        -0.40761E+08         0.00000E+00
    0.00000E+00         0.00000E+00        -0.14045E+08
 
   -0.14038E+08         0.14611E+06         0.00000E+00
    0.14611E+06        -0.40759E+08         0.00000E+00
    0.00000E+00         0.00000E+00        -0.14042E+08
 
   -0.14223E+08        -0.85499E+04         0.00000E+00
   -0.85499E+04        -0.40789E+08         0.00000E+00
    0.00000E+00         0.00000E+00        -0.13898E+08
 
   -0.14209E+08        -0.21793E+05         0.00000E+00
   -0.21793E+05        -0.40791E+08         0.00000E+00
    0.00000E+00         0.00000E+00        -0.13913E+08
 
   -0.14194E+08        -0.31096E+05         0.00000E+00
   -0.31096E+05        -0.40793E+08         0.00000E+00
    0.00000E+00         0.00000E+00        -0.13930E+08
 
   -0.14180E+08        -0.36336E+05         0.00000E+00
   -0.36336E+05        -0.40796E+08         0.00000E+00
    0.00000E+00         0.00000E+00        -0.13949E+08
 
   -0.14165E+08        -0.37395E+05         0.00000E+00
   -0.37395E+05        -0.40800E+08         0.00000E+00
    0.00000E+00         0.00000E+00        -0.13969E+08
 
   -0.14150E+08        -0.34196E+05         0.00000E+00
   -0.34196E+05        -0.40805E+08         0.00000E+00
    0.00000E+00         0.00000E+00        -0.13989E+08
 
   -0.14136E+08        -0.26750E+05         0.00000E+00
   -0.26750E+05        -0.40810E+08         0.00000E+00
    0.00000E+00         0.00000E+00        -0.14009E+08
 
   -0.14123E+08        -0.15172E+05         0.00000E+00
   -0.15172E+05        -0.40815E+08         0.00000E+00
    0.00000E+00         0.00000E+00        -0.14029E+08
 
   -0.14113E+08         0.30632E+03         0.00000E+00
    0.30632E+03        -0.40821E+08         0.00000E+00
    0.00000E+00         0.00000E+00        -0.14047E+08
 
   -0.14104E+08         0.19324E+05         0.00000E+00
    0.19324E+05        -0.40826E+08         0.00000E+00
    0.00000E+00         0.00000E+00        -0.14063E+08
 
   -0.14098E+08         0.41376E+05         0.00000E+00
    0.41376E+05        -0.40832E+08         0.00000E+00
    0.00000E+00         0.00000E+00        -0.14077E+08
 
   -0.14094E+08         0.65854E+05         0.00000E+00
    0.65854E+05        -0.40837E+08         0.00000E+00
    0.00000E+00         0.00000E+00        -0.14087E+08
 
   -0.14093E+08         0.92140E+05         0.00000E+00
    0.92140E+05        -0.40841E+08         0.00000E+00
    0.00000E+00         0.00000E+00        -0.14094E+08
 
   -0.14093E+08         0.11970E+06         0.00000E+00
    0.11970E+06        -0.40843E+08         0.00000E+00
    0.00000E+00         0.00000E+00        -0.14097E+08
 
   -0.14094E+08         0.14816E+06         0.00000E+00
    0.14816E+06        -0.40843E+08         0.00000E+00
    0.00000E+00         0.00000E+00        -0.14096E+08
 
   -0.14326E+08        -0.91827E+04         0.00000E+00
   -0.91827E+04        -0.40877E+08         0.00000E+00
    0.00000E+00         0.00000E+00        -0.13911E+08
 
   -0.14308E+08        -0.23488E+05         0.00000E+00
   -0.23488E+05        -0.40878E+08         0.00000E+00
    0.00000E+00         0.00000E+00        -0.13930E+08
 
   -0.14289E+08        -0.33609E+05         0.00000E+00
   -0.33609E+05        -0.40879E+08         0.00000E+00
    0.00000E+00         0.00000E+00        -0.13950E+08
 
   -0.14270E+08        -0.39455E+05         0.00000E+00
   -0.39455E+05        -0.40882E+08         0.00000E+00
    0.00000E+00         0.00000E+00        -0.13971E+08
 
   -0.14251E+08        -0.40953E+05         0.00000E+00
   -0.40953E+05        -0.40884E+08         0.00000E+00
    0.00000E+00         0.00000E+00        -0.13993E+08
 
   -0.14232E+08        -0.38139E+05         0.00000E+00
   -0.38139E+05        -0.40887E+08         0.00000E+00
    0.00000E+00         0.00000E+00        -0.14015E+08
 
   -0.14214E+08        -0.31141E+05         0.00000E+00
   -0.31141E+05        -0.40890E+08         0.00000E+00
    0.00000E+00         0.00000E+00        -0.14037E+08
 
   -0.14197E+08        -0.20121E+05         0.00000E+00
   -0.20121E+05        -0.40893E+08         0.00000E+00
    0.00000E+00         0.00000E+00        -0.14058E+08
 
   -0.14183E+08        -0.52075E+04         0.00000E+00
   -0.52075E+04        -0.40898E+08         0.00000E+00
    0.00000E+00         0.00000E+00        -0.14079E+08
 
   -0.14170E+08         0.13468E+05         0.00000E+00
    0.13468E+05        -0.40903E+08         0.00000E+00
    0.00000E+00         0.00000E+00        -0.14098E+08
 
   -0.14161E+08         0.35644E+05         0.00000E+00
    0.35644E+05        -0.40909E+08         0.00000E+00
    0.00000E+00         0.00000E+00        -0.14115E+08
 
   -0.14155E+08         0.60841E+05         0.00000E+00
    0.60841E+05        -0.40916E+08         0.00000E+00
    0.00000E+00         0.00000E+00        -0.14129E+08
 
   -0.14152E+08         0.88410E+05         0.00000E+00
    0.88410E+05        -0.40921E+08         0.00000E+00
    0.00000E+00         0.00000E+00        -0.14140E+08
 
   -0.14151E+08         0.11771E+06         0.00000E+00
    0.11771E+06        -0.40925E+08         0.00000E+00
    0.00000E+00         0.00000E+00        -0.14147E+08
 
   -0.14151E+08         0.14824E+06         0.00000E+00
    0.14824E+06        -0.40928E+08         0.00000E+00
    0.00000E+00         0.00000E+00        -0.14151E+08
 
   -0.14433E+08        -0.97173E+04         0.00000E+00
   -0.97173E+04        -0.40967E+08         0.00000E+00
    0.00000E+00         0.00000E+00        -0.13925E+08
 
   -0.14411E+08        -0.24743E+05         0.00000E+00
   -0.24743E+05        -0.40968E+08         0.00000E+00
    0.00000E+00         0.00000E+00        -0.13947E+08
 
   -0.14388E+08        -0.35241E+05         0.00000E+00
   -0.35241E+05        -0.40969E+08         0.00000E+00
    0.00000E+00         0.00000E+00        -0.13970E+08
 
   -0.14365E+08        -0.41152E+05         0.00000E+00
   -0.41152E+05        -0.40970E+08         0.00000E+00
    0.00000E+00         0.00000E+00        -0.13994E+08
 
   -0.14342E+08        -0.42584E+05         0.00000E+00
   -0.42584E+05        -0.40971E+08         0.00000E+00
    0.00000E+00         0.00000E+00        -0.14018E+08
 
   -0.14318E+08        -0.39838E+05         0.00000E+00
   -0.39838E+05        -0.40971E+08         0.00000E+00
    0.00000E+00         0.00000E+00        -0.14040E+08
 
   -0.14296E+08        -0.33302E+05         0.00000E+00
   -0.33302E+05        -0.40971E+08         0.00000E+00
    0.00000E+00         0.00000E+00        -0.14063E+08
 
   -0.14276E+08        -0.23232E+05         0.00000E+00
   -0.23232E+05        -0.40973E+08         0.00000E+00
    0.00000E+00         0.00000E+00        -0.14084E+08
 
   -0.14257E+08        -0.96338E+04         0.00000E+00
   -0.96338E+04        -0.40975E+08         0.00000E+00
    0.00000E+00         0.00000E+00        -0.14106E+08
 
   -0.14241E+08         0.76863E+04         0.00000E+00
    0.76863E+04        -0.40980E+08         0.00000E+00
    0.00000E+00         0.00000E+00        -0.14127E+08
 
   -0.14229E+08         0.28920E+05         0.00000E+00
    0.28920E+05        -0.40986E+08         0.00000E+00
    0.00000E+00         0.00000E+00        -0.14148E+08
 
   -0.14219E+08         0.53963E+05         0.00000E+00
    0.53963E+05        -0.40994E+08         0.00000E+00
    0.00000E+00         0.00000E+00        -0.14168E+08
 
   -0.14214E+08         0.82269E+05         0.00000E+00
    0.82269E+05        -0.41002E+08         0.00000E+00
    0.00000E+00         0.00000E+00        -0.14184E+08
 
   -0.14211E+08         0.11304E+06         0.00000E+00
    0.11304E+06        -0.41009E+08         0.00000E+00
    0.00000E+00         0.00000E+00        -0.14197E+08
 
   -0.14210E+08         0.14556E+06         0.00000E+00
    0.14556E+06        -0.41015E+08         0.00000E+00
    0.00000E+00         0.00000E+00        -0.14206E+08
 
   -0.14546E+08        -0.10172E+05         0.00000E+00
   -0.10172E+05        -0.41062E+08         0.00000E+00
    0.00000E+00         0.00000E+00        -0.13939E+08
 
   -0.14519E+08        -0.25510E+05         0.00000E+00
   -0.25510E+05        -0.41063E+08         0.00000E+00
    0.00000E+00         0.00000E+00        -0.13966E+08
 
   -0.14491E+08        -0.35717E+05         0.00000E+00
   -0.35717E+05        -0.41063E+08         0.00000E+00
    0.00000E+00         0.00000E+00        -0.13992E+08
 
   -0.14463E+08        -0.40928E+05         0.00000E+00
   -0.40928E+05        -0.41062E+08         0.00000E+00
    0.00000E+00         0.00000E+00        -0.14018E+08
 
   -0.14435E+08        -0.41645E+05         0.00000E+00
   -0.41645E+05        -0.41060E+08         0.00000E+00
    0.00000E+00         0.00000E+00        -0.14042E+08
 
   -0.14408E+08        -0.38658E+05         0.00000E+00
   -0.38658E+05        -0.41057E+08         0.00000E+00
    0.00000E+00         0.00000E+00        -0.14064E+08
 
   -0.14383E+08        -0.32656E+05         0.00000E+00
   -0.32656E+05        -0.41054E+08         0.00000E+00
    0.00000E+00         0.00000E+00        -0.14086E+08
 
   -0.14359E+08        -0.23924E+05         0.00000E+00
   -0.23924E+05        -0.41053E+08         0.00000E+00
    0.00000E+00         0.00000E+00        -0.14107E+08
 
   -0.14337E+08        -0.12344E+05         0.00000E+00
   -0.12344E+05        -0.41053E+08         0.00000E+00
    0.00000E+00         0.00000E+00        -0.14129E+08
 
   -0.14318E+08         0.25486E+04         0.00000E+00
    0.25486E+04        -0.41056E+08         0.00000E+00
    0.00000E+00         0.00000E+00        -0.14152E+08
 
   -0.14301E+08         0.21438E+05         0.00000E+00
    0.21438E+05        -0.41062E+08         0.00000E+00
    0.00000E+00         0.00000E+00        -0.14176E+08
 
   -0.14288E+08         0.44924E+05         0.00000E+00
    0.44924E+05        -0.41071E+08         0.00000E+00
    0.00000E+00         0.00000E+00        -0.14201E+08
 
   -0.14278E+08         0.72972E+05         0.00000E+00
    0.72972E+05        -0.41082E+08         0.00000E+00
    0.00000E+00         0.00000E+00        -0.14225E+08
 
   -0.14273E+08         0.10473E+06         0.00000E+00
    0.10473E+06        -0.41093E+08         0.00000E+00
    0.00000E+00         0.00000E+00        -0.14245E+08
 
   -0.14270E+08         0.13908E+06         0.00000E+00
    0.13908E+06        -0.41103E+08         0.00000E+00
    0.00000E+00         0.00000E+00        -0.14262E+08
 
   -0.14662E+08        -0.10570E+05         0.00000E+00
   -0.10570E+05        -0.41161E+08         0.00000E+00
    0.00000E+00         0.00000E+00        -0.13955E+08
 
   -0.14630E+08        -0.25618E+05         0.00000E+00
   -0.25618E+05        -0.41161E+08         0.00000E+00
    0.00000E+00         0.00000E+00        -0.13986E+08
 
   -0.14597E+08        -0.34541E+05         0.00000E+00
   -0.34541E+05        -0.41159E+08         0.00000E+00
    0.00000E+00         0.00000E+00        -0.14016E+08
 
   -0.14564E+08        -0.38026E+05         0.00000E+00
   -0.38026E+05        -0.41156E+08         0.00000E+00
    0.00000E+00         0.00000E+00        -0.14042E+08
 
   -0.14532E+08        -0.37477E+05         0.00000E+00
   -0.37477E+05        -0.41150E+08         0.00000E+00
    0.00000E+00         0.00000E+00        -0.14065E+08
 
   -0.14502E+08        -0.34247E+05         0.00000E+00
   -0.34247E+05        -0.41144E+08         0.00000E+00
    0.00000E+00         0.00000E+00        -0.14086E+08
 
   -0.14475E+08        -0.29017E+05         0.00000E+00
   -0.29017E+05        -0.41138E+08         0.00000E+00
    0.00000E+00         0.00000E+00        -0.14106E+08
 
   -0.14448E+08        -0.21956E+05         0.00000E+00
   -0.21956E+05        -0.41134E+08         0.00000E+00
    0.00000E+00         0.00000E+00        -0.14125E+08
 
   -0.14424E+08        -0.12858E+05         0.00000E+00
   -0.12858E+05        -0.41132E+08         0.00000E+00
    0.00000E+00         0.00000E+00        -0.14147E+08
 
   -0.14401E+08        -0.11832E+04         0.00000E+00
   -0.11832E+04        -0.41133E+08         0.00000E+00
    0.00000E+00         0.00000E+00        -0.14170E+08
 
   -0.14379E+08         0.13980E+05         0.00000E+00
    0.13980E+05        -0.41137E+08         0.00000E+00
    0.00000E+00         0.00000E+00        -0.14197E+08
 
   -0.14361E+08         0.33906E+05         0.00000E+00
    0.33906E+05        -0.41146E+08         0.00000E+00
    0.00000E+00         0.00000E+00        -0.14227E+08
 
   -0.14347E+08         0.59800E+05         0.00000E+00
    0.59800E+05        -0.41160E+08         0.00000E+00
    0.00000E+00         0.00000E+00        -0.14259E+08
 
   -0.14338E+08         0.91493E+05         0.00000E+00
    0.91493E+05        -0.41176E+08         0.00000E+00
    0.00000E+00         0.00000E+00        -0.14290E+08
 
   -0.14332E+08         0.12737E+06         0.00000E+00
    0.12737E+06        -0.41193E+08         0.00000E+00
    0.00000E+00         0.00000E+00        -0.14318E+08
 
   -0.14782E+08        -0.10920E+05         0.00000E+00
   -0.10920E+05        -0.41263E+08         0.00000E+00
    0.00000E+00         0.00000E+00        -0.13973E+08
 
   -0.14743E+08        -0.24570E+05         0.00000E+00
   -0.24570E+05        -0.41262E+08         0.00000E+00
    0.00000E+00         0.00000E+00        -0.14009E+08
 
   -0.14704E+08        -0.30603E+05         0.00000E+00
   -0.30603E+05        -0.41258E+08         0.00000E+00
    0.00000E+00         0.00000E+00        -0.14040E+08
 
   -0.14666E+08        -0.31437E+05         0.00000E+00
   -0.31437E+05        -0.41250E+08         0.00000E+00
    0.00000E+00         0.00000E+00        -0.14066E+08
 
   -0.14632E+08        -0.29786E+05         0.00000E+00
   -0.29786E+05        -0.41241E+08         0.00000E+00
    0.00000E+00         0.00000E+00        -0.14086E+08
 
   -0.14601E+08        -0.26767E+05         0.00000E+00
   -0.26767E+05        -0.41232E+08         0.00000E+00
    0.00000E+00         0.00000E+00        -0.14105E+08
 
   -0.14571E+08        -0.22688E+05         0.00000E+00
   -0.22688E+05        -0.41223E+08         0.00000E+00
    0.00000E+00         0.00000E+00        -0.14122E+08
 
   -0.14544E+08        -0.17531E+05         0.00000E+00
   -0.17531E+05        -0.41217E+08         0.00000E+00
    0.00000E+00         0.00000E+00        -0.14141E+08
 
   -0.14517E+08        -0.11079E+05         0.00000E+00
   -0.11079E+05        -0.41213E+08         0.00000E+00
    0.00000E+00         0.00000E+00        -0.14161E+08
 
   -0.14491E+08        -0.29102E+04         0.00000E+00
   -0.29102E+04        -0.41211E+08         0.00000E+00
    0.00000E+00         0.00000E+00        -0.14184E+08
 
   -0.14466E+08         0.77386E+04         0.00000E+00
    0.77386E+04        -0.41214E+08         0.00000E+00
    0.00000E+00         0.00000E+00        -0.14212E+08
 
   -0.14443E+08         0.22210E+05         0.00000E+00
    0.22210E+05        -0.41222E+08         0.00000E+00
    0.00000E+00         0.00000E+00        -0.14245E+08
 
   -0.14422E+08         0.42693E+05         0.00000E+00
    0.42693E+05        -0.41236E+08         0.00000E+00
    0.00000E+00         0.00000E+00        -0.14285E+08
 
   -0.14406E+08         0.71692E+05         0.00000E+00
    0.71692E+05        -0.41258E+08         0.00000E+00
    0.00000E+00         0.00000E+00        -0.14329E+08
 
   -0.14396E+08         0.10827E+06         0.00000E+00
    0.10827E+06        -0.41283E+08         0.00000E+00
    0.00000E+00         0.00000E+00        -0.14372E+08
 
   -0.14906E+08        -0.11118E+05         0.00000E+00
   -0.11118E+05        -0.41368E+08         0.00000E+00
    0.00000E+00         0.00000E+00        -0.13992E+08
 
   -0.14857E+08        -0.20763E+05         0.00000E+00
   -0.20763E+05        -0.41365E+08         0.00000E+00
    0.00000E+00         0.00000E+00        -0.14034E+08
 
   -0.14811E+08        -0.21834E+05         0.00000E+00
   -0.21834E+05        -0.41355E+08         0.00000E+00
    0.00000E+00         0.00000E+00        -0.14063E+08
 
   -0.14771E+08        -0.20778E+05         0.00000E+00
   -0.20778E+05        -0.41343E+08         0.00000E+00
    0.00000E+00         0.00000E+00        -0.14085E+08
 
   -0.14736E+08        -0.19070E+05         0.00000E+00
   -0.19070E+05        -0.41331E+08         0.00000E+00
    0.00000E+00         0.00000E+00        -0.14103E+08
 
   -0.14703E+08        -0.16934E+05         0.00000E+00
   -0.16934E+05        -0.41320E+08         0.00000E+00
    0.00000E+00         0.00000E+00        -0.14120E+08
 
   -0.14673E+08        -0.14355E+05         0.00000E+00
   -0.14355E+05        -0.41310E+08         0.00000E+00
    0.00000E+00         0.00000E+00        -0.14136E+08
 
   -0.14645E+08        -0.11227E+05         0.00000E+00
   -0.11227E+05        -0.41302E+08         0.00000E+00
    0.00000E+00         0.00000E+00        -0.14153E+08
 
   -0.14617E+08        -0.73955E+04         0.00000E+00
   -0.73955E+04        -0.41296E+08         0.00000E+00
    0.00000E+00         0.00000E+00        -0.14172E+08
 
   -0.14590E+08        -0.26268E+04         0.00000E+00
   -0.26268E+04        -0.41293E+08         0.00000E+00
    0.00000E+00         0.00000E+00        -0.14195E+08
 
   -0.14562E+08         0.35122E+04         0.00000E+00
    0.35122E+04        -0.41294E+08         0.00000E+00
    0.00000E+00         0.00000E+00        -0.14222E+08
 
   -0.14535E+08         0.11850E+05         0.00000E+00
    0.11850E+05        -0.41300E+08         0.00000E+00
    0.00000E+00         0.00000E+00        -0.14257E+08
 
   -0.14506E+08         0.24102E+05         0.00000E+00
    0.24102E+05        -0.41313E+08         0.00000E+00
    0.00000E+00         0.00000E+00        -0.14301E+08
 
   -0.14480E+08         0.44029E+05         0.00000E+00
    0.44029E+05        -0.41336E+08         0.00000E+00
    0.00000E+00         0.00000E+00        -0.14357E+08
 
   -0.14463E+08         0.77872E+05         0.00000E+00
    0.77872E+05        -0.41373E+08         0.00000E+00
    0.00000E+00         0.00000E+00        -0.14423E+08
 
   -0.15030E+08        -0.10078E+05         0.00000E+00
   -0.10078E+05        -0.41478E+08         0.00000E+00
    0.00000E+00         0.00000E+00        -0.14017E+08
 
   -0.14967E+08        -0.91387E+04         0.00000E+00
   -0.91387E+04        -0.41463E+08         0.00000E+00
    0.00000E+00         0.00000E+00        -0.14055E+08
 
   -0.14919E+08        -0.79653E+04         0.00000E+00
   -0.79653E+04        -0.41448E+08         0.00000E+00
    0.00000E+00         0.00000E+00        -0.14080E+08
 
   -0.14879E+08        -0.72377E+04         0.00000E+00
   -0.72377E+04        -0.41433E+08         0.00000E+00
    0.00000E+00         0.00000E+00        -0.14099E+08
 
   -0.14844E+08        -0.65397E+04         0.00000E+00
   -0.65397E+04        -0.41420E+08         0.00000E+00
    0.00000E+00         0.00000E+00        -0.14115E+08
 
   -0.14811E+08        -0.57741E+04         0.00000E+00
   -0.57741E+04        -0.41408E+08         0.00000E+00
    0.00000E+00         0.00000E+00        -0.14130E+08
 
   -0.14781E+08        -0.48964E+04         0.00000E+00
   -0.48964E+04        -0.41397E+08         0.00000E+00
    0.00000E+00         0.00000E+00        -0.14146E+08
 
   -0.14752E+08        -0.38498E+04         0.00000E+00
   -0.38498E+04        -0.41389E+08         0.00000E+00
    0.00000E+00         0.00000E+00        -0.14162E+08
 
   -0.14724E+08        -0.25782E+04         0.00000E+00
   -0.25782E+04        -0.41382E+08         0.00000E+00
    0.00000E+00         0.00000E+00        -0.14181E+08
 
   -0.14696E+08        -0.10154E+04         0.00000E+00
   -0.10154E+04        -0.41379E+08         0.00000E+00
    0.00000E+00         0.00000E+00        -0.14203E+08
 
   -0.14667E+08         0.97089E+03         0.00000E+00
    0.97089E+03        -0.41379E+08         0.00000E+00
    0.00000E+00         0.00000E+00        -0.14231E+08
 
   -0.14637E+08         0.36250E+04         0.00000E+00
    0.36250E+04        -0.41384E+08         0.00000E+00
    0.00000E+00         0.00000E+00        -0.14265E+08
 
   -0.14605E+08         0.74913E+04         0.00000E+00
    0.74913E+04        -0.41395E+08         0.00000E+00
    0.00000E+00         0.00000E+00        -0.14311E+08
 
   -0.14570E+08         0.14066E+05         0.00000E+00
    0.14066E+05        -0.41416E+08         0.00000E+00
    0.00000E+00         0.00000E+00        -0.14373E+08
 
   -0.14531E+08         0.29617E+05         0.00000E+00
    0.29617E+05        -0.41453E+08         0.00000E+00
    0.00000E+00         0.00000E+00        -0.14460E+08
 
TENSORS stresstot double 
   -0.33392E+08         0.14081E+03         0.00000E+00
    0.14081E+03        -0.60000E+08         0.00000E+00
    0.00000E+00         0.00000E+00        -0.33810E+08
 
   -0.33408E+08         0.43282E+03         0.00000E+00
    0.43282E+03        -0.59999E+08         0.00000E+00
    0.00000E+00         0.00000E+00        -0.33792E+08
 
   -0.33424E+08         0.73055E+03         0.00000E+00
    0.73055E+03        -0.59998E+08         0.00000E+00
    0.00000E+00         0.00000E+00        -0.33774E+08
 
   -0.33439E+08         0.10317E+04         0.00000E+00
    0.10317E+04        -0.59996E+08         0.00000E+00
    0.00000E+00         0.00000E+00        -0.33756E+08
 
   -0.33454E+08         0.13348E+04         0.00000E+00
    0.13348E+04        -0.59994E+08         0.00000E+00
    0.00000E+00         0.00000E+00        -0.33738E+08
 
   -0.33468E+08         0.16390E+04         0.00000E+00
    0.16390E+04        -0.59991E+08         0.00000E+00
    0.00000E+00         0.00000E+00        -0.33720E+08
 
   -0.33481E+08         0.19443E+04         0.00000E+00
    0.19443E+04        -0.59987E+08         0.00000E+00
    0.00000E+00         0.00000E+00        -0.33701E+08
 
   -0.33494E+08         0.22512E+04         0.00000E+00
    0.22512E+04        -0.59983E+08         0.00000E+00
    0.00000E+00         0.00000E+00        -0.33683E+08
 
   -0.33505E+08         0.25607E+04         0.00000E+00
    0.25607E+04        -0.59979E+08         0.00000E+00
    0.00000E+00         0.00000E+00        -0.33665E+08
 
   -0.33516E+08         0.28741E+04         0.00000E+00
    0.28741E+04        -0.59973E+08         0.00000E+00
    0.00000E+00         0.00000E+00        -0.33647E+08
 
   -0.33526E+08         0.31928E+04         0.00000E+00
    0.31928E+04        -0.59967E+08         0.00000E+00
    0.00000E+00         0.00000E+00        -0.33629E+08
 
   -0.33534E+08         0.35183E+04         0.00000E+00
    0.35183E+04        -0.59960E+08         0.00000E+00
    0.00000E+00         0.00000E+00        -0.33612E+08
 
   -0.33541E+08         0.38516E+04         0.00000E+00
    0.38516E+04        -0.59953E+08         0.00000E+00
    0.00000E+00         0.00000E+00        -0.33595E+08
 
   -0.33547E+08         0.41932E+04         0.00000E+00
    0.41932E+04        -0.59945E+08         0.00000E+00
    0.00000E+00         0.00000E+00        -0.33578E+08
 
   -0.33552E+08         0.45431E+04         0.00000E+00
    0.45431E+04        -0.59936E+08         0.00000E+00
    0.00000E+00         0.00000E+00        -0.33562E+08
 
   -0.33391E+08         0.41764E+03         0.00000E+00
    0.41764E+03        -0.60000E+08         0.00000E+00
    0.00000E+00         0.00000E+00        -0.33808E+08
 
   -0.33408E+08         0.12854E+04         0.00000E+00
    0.12854E+04        -0.59999E+08         0.00000E+00
    0.00000E+00         0.00000E+00        -0.33790E+08
 
   -0.33423E+08         0.21715E+04         0.00000E+00
    0.21715E+04        -0.59998E+08         0.00000E+00
    0.00000E+00         0.00000E+00        -0.33772E+08
 
   -0.33439E+08         0.30692E+04         0.00000E+00
    0.30692E+04        -0.59996E+08         0.00000E+00
    0.00000E+00         0.00000E+00        -0.33754E+08
 
   -0.33453E+08         0.39738E+04         0.00000E+00
    0.39738E+04        -0.59994E+08         0.00000E+00
    0.00000E+00         0.00000E+00        -0.33736E+08
 
   -0.33467E+08         0.48830E+04         0.00000E+00
    0.48830E+04        -0.59991E+08         0.00000E+00
    0.00000E+00         0.00000E+00        -0.33718E+08
 
   -0.33481E+08         0.57965E+04         0.00000E+00
    0.57965E+04        -0.59988E+08         0.00000E+00
    0.00000E+00         0.00000E+00        -0.33700E+08
 
   -0.33493E+08         0.67159E+04         0.00000E+00
    0.67159E+04        -0.59984E+08         0.00000E+00
    0.00000E+00         0.00000E+00        -0.33681E+08
 
   -0.33505E+08         0.76439E+04         0.00000E+00
    0.76439E+04        -0.59979E+08         0.00000E+00
    0.00000E+00         0.00000E+00        -0.33663E+08
 
   -0.33515E+08         0.85846E+04         0.00000E+00
    0.85846E+04        -0.59974E+08         0.00000E+00
    0.00000E+00         0.00000E+00        -0.33646E+08
 
   -0.33525E+08         0.95420E+04         0.00000E+00
    0.95420E+04        -0.59968E+08         0.00000E+00
    0.00000E+00         0.00000E+00        -0.33628E+08
 
   -0.33533E+08         0.10520E+05         0.00000E+00
    0.10520E+05        -0.59961E+08         0.00000E+00
    0.00000E+00         0.00000E+00        -0.33611E+08
 
   -0.33541E+08         0.11522E+05         0.00000E+00
    0.11522E+05        -0.59954E+08         0.00000E+00
    0.00000E+00         0.00000E+00        -0.33594E+08
 
   -0.33547E+08         0.12548E+05         0.00000E+00
    0.12548E+05        -0.59946E+08         0.00000E+00
    0.00000E+00         0.00000E+00        -0.33577E+08
 
   -0.33551E+08         0.13600E+05         0.00000E+00
    0.13600E+05        -0.59937E+08         0.00000E+00
    0.00000E+00         0.00000E+00        -0.33561E+08
 
   -0.33390E+08         0.68004E+03         0.00000E+00
    0.68004E+03        -0.60000E+08         0.00000E+00
    0.00000E+00         0.00000E+00        -0.33804E+08
 
   -0.33406E+08         0.20986E+04         0.00000E+00
    0.20986E+04        -0.59999E+08         0.00000E+00
    0.00000E+00         0.00000E+00        -0.33786E+08
 
   -0.33422E+08         0.35519E+04         0.00000E+00
    0.35519E+04        -0.59998E+08         0.00000E+00
    0.00000E+00         0.00000E+00        -0.33768E+08
 
   -0.33437E+08         0.50284E+04         0.00000E+00
    0.50284E+04        -0.59997E+08         0.00000E+00
    0.00000E+00         0.00000E+00        -0.33750E+08
 
   -0.33452E+08         0.65206E+04         0.00000E+00
    0.65206E+04        -0.59994E+08         0.00000E+00
    0.00000E+00         0.00000E+00        -0.33732E+08
 
   -0.33466E+08         0.80244E+04         0.00000E+00
    0.80244E+04        -0.59992E+08         0.00000E+00
    0.00000E+00         0.00000E+00        -0.33714E+08
 
   -0.33479E+08         0.95392E+04         0.00000E+00
    0.95392E+04        -0.59988E+08         0.00000E+00
    0.00000E+00         0.00000E+00        -0.33696E+08
 
   -0.33492E+08         0.11067E+05         0.00000E+00
    0.11067E+05        -0.59984E+08         0.00000E+00
    0.00000E+00         0.00000E+00        -0.33678E+08
 
   -0.33504E+08         0.12613E+05         0.00000E+00
    0.12613E+05        -0.59980E+08         0.00000E+00
    0.00000E+00         0.00000E+00        -0.33661E+08
 
   -0.33514E+08         0.14182E+05         0.00000E+00
    0.14182E+05        -0.59975E+08         0.00000E+00
    0.00000E+00         0.00000E+00        -0.33643E+08
 
   -0.33524E+08         0.15782E+05         0.00000E+00
    0.15782E+05        -0.59969E+08         0.00000E+00
    0.00000E+00         0.00000E+00        -0.33626E+08
 
   -0.33532E+08         0.17417E+05         0.00000E+00
    0.17417E+05        -0.59962E+08         0.00000E+00
    0.00000E+00         0.00000E+00        -0.33609E+08
 
   -0.33539E+08         0.19093E+05         0.00000E+00
    0.19093E+05        -0.59955E+08         0.00000E+00
    0.00000E+00         0.00000E+00        -0.33592E+08
 
   -0.33545E+08         0.20811E+05         0.00000E+00
    0.20811E+05        -0.59947E+08         0.00000E+00
    0.00000E+00         0.00000E+00        -0.33576E+08
 
   -0.33550E+08         0.22569E+05         0.00000E+00
    0.22569E+05        -0.59939E+08         0.00000E+00
    0.00000E+00         0.00000E+00        -0.33560E+08
 
   -0.33388E+08         0.91808E+03         0.00000E+00
    0.91808E+03        -0.60000E+08         0.00000E+00
    0.00000E+00         0.00000E+00        -0.33797E+08
 
   -0.33405E+08         0.28455E+04         0.00000E+00
    0.28455E+04        -0.59999E+08         0.00000E+00
    0.00000E+00         0.00000E+00        -0.33780E+08
 
   -0.33420E+08         0.48302E+04         0.00000E+00
    0.48302E+04        -0.59998E+08         0.00000E+00
    0.00000E+00         0.00000E+00        -0.33762E+08
 
   -0.33436E+08         0.68562E+04         0.00000E+00
    0.68562E+04        -0.59997E+08         0.00000E+00
    0.00000E+00         0.00000E+00        -0.33745E+08
 
   -0.33450E+08         0.89127E+04         0.00000E+00
    0.89127E+04        -0.59995E+08         0.00000E+00
    0.00000E+00         0.00000E+00        -0.33727E+08
 
   -0.33464E+08         0.10994E+05         0.00000E+00
    0.10994E+05        -0.59992E+08         0.00000E+00
    0.00000E+00         0.00000E+00        -0.33709E+08
 
   -0.33478E+08         0.13099E+05         0.00000E+00
    0.13099E+05        -0.59989E+08         0.00000E+00
    0.00000E+00         0.00000E+00        -0.33692E+08
 
   -0.33490E+08         0.15230E+05         0.00000E+00
    0.15230E+05        -0.59986E+08         0.00000E+00
    0.00000E+00         0.00000E+00        -0.33674E+08
 
   -0.33502E+08         0.17392E+05         0.00000E+00
    0.17392E+05        -0.59981E+08         0.00000E+00
    0.00000E+00         0.00000E+00        -0.33656E+08
 
   -0.33512E+08         0.19593E+05         0.00000E+00
    0.19593E+05        -0.59976E+08         0.00000E+00
    0.00000E+00         0.00000E+00        -0.33639E+08
 
   -0.33522E+08         0.21841E+05         0.00000E+00
    0.21841E+05        -0.59971E+08         0.00000E+00
    0.00000E+00         0.00000E+00        -0.33622E+08
 
   -0.33530E+08         0.24143E+05         0.00000E+00
    0.24143E+05        -0.59964E+08         0.00000E+00
    0.00000E+00         0.00000E+00        -0.33605E+08
 
   -0.33537E+08         0.26502E+05         0.00000E+00
    0.26502E+05        -0.59957E+08         0.00000E+00
    0.00000E+00         0.00000E+00        -0.33589E+08
 
   -0.33543E+08         0.28921E+05         0.00000E+00
    0.28921E+05        -0.59950E+08         0.00000E+00
    0.00000E+00         0.00000E+00        -0.33573E+08
 
   -0.33548E+08         0.31397E+05         0.00000E+00
    0.31397E+05        -0.59941E+08         0.00000E+00
    0.00000E+00         0.00000E+00        -0.33557E+08
 
   -0.33386E+08         0.11215E+04         0.00000E+00
    0.11215E+04        -0.60000E+08         0.00000E+00
    0.00000E+00         0.00000E+00        -0.33789E+08
 
   -0.33402E+08         0.34981E+04         0.00000E+00
    0.34981E+04        -0.59999E+08         0.00000E+00
    0.00000E+00         0.00000E+00        -0.33772E+08
 
   -0.33418E+08         0.59636E+04         0.00000E+00
    0.59636E+04        -0.59999E+08         0.00000E+00
    0.00000E+00         0.00000E+00        -0.33754E+08
 
   -0.33433E+08         0.84977E+04         0.00000E+00
    0.84977E+04        -0.59997E+08         0.00000E+00
    0.00000E+00         0.00000E+00        -0.33737E+08
 
   -0.33448E+08         0.11086E+05         0.00000E+00
    0.11086E+05        -0.59996E+08         0.00000E+00
    0.00000E+00         0.00000E+00        -0.33720E+08
 
   -0.33462E+08         0.13722E+05         0.00000E+00
    0.13722E+05        -0.59993E+08         0.00000E+00
    0.00000E+00         0.00000E+00        -0.33702E+08
 
   -0.33475E+08         0.16401E+05         0.00000E+00
    0.16401E+05        -0.59990E+08         0.00000E+00
    0.00000E+00         0.00000E+00        -0.33685E+08
 
   -0.33488E+08         0.19128E+05         0.00000E+00
    0.19128E+05        -0.59987E+08         0.00000E+00
    0.00000E+00         0.00000E+00        -0.33668E+08
 
   -0.33499E+08         0.21906E+05         0.00000E+00
    0.21906E+05        -0.59983E+08         0.00000E+00
    0.00000E+00         0.00000E+00        -0.33651E+08
 
   -0.33510E+08         0.24745E+05         0.00000E+00
    0.24745E+05        -0.59978E+08         0.00000E+00
    0.00000E+00         0.00000E+00        -0.33634E+08
 
   -0.33519E+08         0.27651E+05         0.00000E+00
    0.27651E+05        -0.59973E+08         0.00000E+00
    0.00000E+00         0.00000E+00        -0.33617E+08
 
   -0.33528E+08         0.30631E+05         0.00000E+00
    0.30631E+05        -0.59967E+08         0.00000E+00
    0.00000E+00         0.00000E+00        -0.33601E+08
 
   -0.33535E+08         0.33689E+05         0.00000E+00
    0.33689E+05        -0.59960E+08         0.00000E+00
    0.00000E+00         0.00000E+00        -0.33585E+08
 
   -0.33540E+08         0.36825E+05         0.00000E+00
    0.36825E+05        -0.59953E+08         0.00000E+00
    0.00000E+00         0.00000E+00        -0.33570E+08
 
   -0.33545E+08         0.40032E+05         0.00000E+00
    0.40032E+05        -0.59945E+08         0.00000E+00
    0.00000E+00         0.00000E+00        -0.33554E+08
 
   -0.33384E+08         0.12794E+04         0.00000E+00
    0.12794E+04        -0.60000E+08         0.00000E+00
    0.00000E+00         0.00000E+00        -0.33778E+08
 
   -0.33400E+08         0.40272E+04         0.00000E+00
    0.40272E+04        -0.60000E+08         0.00000E+00
    0.00000E+00         0.00000E+00        -0.33761E+08
 
   -0.33415E+08         0.69078E+04         0.00000E+00
    0.69078E+04        -0.59999E+08         0.00000E+00
    0.00000E+00         0.00000E+00        -0.33744E+08
 
   -0.33431E+08         0.98964E+04         0.00000E+00
    0.98964E+04        -0.59998E+08         0.00000E+00
    0.00000E+00         0.00000E+00        -0.33727E+08
 
   -0.33445E+08         0.12976E+05         0.00000E+00
    0.12976E+05        -0.59996E+08         0.00000E+00
    0.00000E+00         0.00000E+00        -0.33711E+08
 
   -0.33459E+08         0.16136E+05         0.00000E+00
    0.16136E+05        -0.59994E+08         0.00000E+00
    0.00000E+00         0.00000E+00        -0.33694E+08
 
   -0.33472E+08         0.19372E+05         0.00000E+00
    0.19372E+05        -0.59992E+08         0.00000E+00
    0.00000E+00         0.00000E+00        -0.33677E+08
 
   -0.33485E+08         0.22686E+05         0.00000E+00
    0.22686E+05        -0.59989E+08         0.00000E+00
    0.00000E+00         0.00000E+00        -0.33660E+08
 
   -0.33496E+08         0.26082E+05         0.00000E+00
    0.26082E+05        -0.59985E+08         0.00000E+00
    0.00000E+00         0.00000E+00        -0.33644E+08
 
   -0.33507E+08         0.29566E+05         0.00000E+00
    0.29566E+05        -0.59981E+08         0.00000E+00
    0.00000E+00         0.00000E+00        -0.33628E+08
 
   -0.33516E+08         0.33144E+05         0.00000E+00
    0.33144E+05        -0.59976E+08         0.00000E+00
    0.00000E+00         0.00000E+00        -0.33612E+08
 
   -0.33524E+08         0.36822E+05         0.00000E+00
    0.36822E+05        -0.59970E+08         0.00000E+00
    0.00000E+00         0.00000E+00        -0.33596E+08
 
   -0.33531E+08         0.40600E+05         0.00000E+00
    0.40600E+05        -0.59964E+08         0.00000E+00
    0.00000E+00         0.00000E+00        -0.33580E+08
 
   -0.33537E+08         0.44474E+05         0.00000E+00
    0.44474E+05        -0.59957E+08         0.00000E+00
    0.00000E+00         0.00000E+00        -0.33565E+08
 
   -0.33541E+08         0.48433E+05         0.00000E+00
    0.48433E+05        -0.59949E+08         0.00000E+00
    0.00000E+00         0.00000E+00        -0.33551E+08
 
   -0.33381E+08         0.13804E+04         0.00000E+00
    0.13804E+04        -0.60000E+08         0.00000E+00
    0.00000E+00         0.00000E+00        -0.33765E+08
 
   -0.33397E+08         0.44022E+04         0.00000E+00
    0.44022E+04        -0.60000E+08         0.00000E+00
    0.00000E+00         0.00000E+00        -0.33749E+08
 
   -0.33412E+08         0.76163E+04         0.00000E+00
    0.76163E+04        -0.59999E+08         0.00000E+00
    0.00000E+00         0.00000E+00        -0.33732E+08
 
   -0.33427E+08         0.10994E+05         0.00000E+00
    0.10994E+05        -0.59999E+08         0.00000E+00
    0.00000E+00         0.00000E+00        -0.33716E+08
 
   -0.33442E+08         0.14514E+05         0.00000E+00
    0.14514E+05        -0.59997E+08         0.00000E+00
    0.00000E+00         0.00000E+00        -0.33700E+08
 
   -0.33456E+08         0.18163E+05         0.00000E+00
    0.18163E+05        -0.59996E+08         0.00000E+00
    0.00000E+00         0.00000E+00        -0.33683E+08
 
   -0.33469E+08         0.21936E+05         0.00000E+00
    0.21936E+05        -0.59994E+08         0.00000E+00
    0.00000E+00         0.00000E+00        -0.33667E+08
 
   -0.33481E+08         0.25829E+05         0.00000E+00
    0.25829E+05        -0.59991E+08         0.00000E+00
    0.00000E+00         0.00000E+00        -0.33651E+08
 
   -0.33492E+08         0.29846E+05         0.00000E+00
    0.29846E+05        -0.59988E+08         0.00000E+00
    0.00000E+00         0.00000E+00        -0.33636E+08
 
   -0.33503E+08         0.33988E+05         0.00000E+00
    0.33988E+05        -0.59984E+08         0.00000E+00
    0.00000E+00         0.00000E+00        -0.33620E+08
 
   -0.33512E+08         0.38260E+05         0.00000E+00
    0.38260E+05        -0.59980E+08         0.00000E+00
    0.00000E+00         0.00000E+00        -0.33605E+08
 
   -0.33520E+08         0.42660E+05         0.00000E+00
    0.42660E+05        -0.59974E+08         0.00000E+00
    0.00000E+00         0.00000E+00        -0.33590E+08
 
   -0.33527E+08         0.47185E+05         0.00000E+00
    0.47185E+05        -0.59968E+08         0.00000E+00
    0.00000E+00         0.00000E+00        -0.33575E+08
 
   -0.33533E+08         0.51826E+05         0.00000E+00
    0.51826E+05        -0.59962E+08         0.00000E+00
    0.00000E+00         0.00000E+00        -0.33560E+08
 
   -0.33537E+08         0.56565E+05         0.00000E+00
    0.56565E+05        -0.59954E+08         0.00000E+00
    0.00000E+00         0.00000E+00        -0.33546E+08
 
   -0.33378E+08         0.14128E+04         0.00000E+00
    0.14128E+04        -0.60000E+08         0.00000E+00
    0.00000E+00         0.00000E+00        -0.33750E+08
 
   -0.33394E+08         0.45911E+04         0.00000E+00
    0.45911E+04        -0.60000E+08         0.00000E+00
    0.00000E+00         0.00000E+00        -0.33734E+08
 
   -0.33409E+08         0.80412E+04         0.00000E+00
    0.80412E+04        -0.60000E+08         0.00000E+00
    0.00000E+00         0.00000E+00        -0.33718E+08
 
   -0.33424E+08         0.11730E+05         0.00000E+00
    0.11730E+05        -0.59999E+08         0.00000E+00
    0.00000E+00         0.00000E+00        -0.33702E+08
 
   -0.33438E+08         0.15632E+05         0.00000E+00
    0.15632E+05        -0.59999E+08         0.00000E+00
    0.00000E+00         0.00000E+00        -0.33687E+08
 
   -0.33452E+08         0.19731E+05         0.00000E+00
    0.19731E+05        -0.59998E+08         0.00000E+00
    0.00000E+00         0.00000E+00        -0.33671E+08
 
   -0.33465E+08         0.24018E+05         0.00000E+00
    0.24018E+05        -0.59996E+08         0.00000E+00
    0.00000E+00         0.00000E+00        -0.33656E+08
 
   -0.33477E+08         0.28485E+05         0.00000E+00
    0.28485E+05        -0.59994E+08         0.00000E+00
    0.00000E+00         0.00000E+00        -0.33641E+08
 
   -0.33488E+08         0.33129E+05         0.00000E+00
    0.33129E+05        -0.59991E+08         0.00000E+00
    0.00000E+00         0.00000E+00        -0.33626E+08
 
   -0.33498E+08         0.37949E+05         0.00000E+00
    0.37949E+05        -0.59988E+08         0.00000E+00
    0.00000E+00         0.00000E+00        -0.33611E+08
 
   -0.33507E+08         0.42939E+05         0.00000E+00
    0.42939E+05        -0.59984E+08         0.00000E+00
    0.00000E+00         0.00000E+00        -0.33597E+08
 
   -0.33515E+08         0.48095E+05         0.00000E+00
    0.48095E+05        -0.59979E+08         0.00000E+00
    0.00000E+00         0.00000E+00        -0.33582E+08
 
   -0.33522E+08         0.53404E+05         0.00000E+00
    0.53404E+05        -0.59973E+08         0.00000E+00
    0.00000E+00         0.00000E+00        -0.33568E+08
 
   -0.33528E+08         0.58848E+05         0.00000E+00
    0.58848E+05        -0.59967E+08         0.00000E+00
    0.00000E+00         0.00000E+00        -0.33554E+08
 
   -0.33532E+08         0.64402E+05         0.00000E+00
    0.64402E+05        -0.59960E+08         0.00000E+00
    0.00000E+00         0.00000E+00        -0.33540E+08
 
   -0.33375E+08         0.13641E+04         0.00000E+00
    0.13641E+04        -0.60000E+08         0.00000E+00
    0.00000E+00         0.00000E+00        -0.33732E+08
 
   -0.33390E+08         0.45613E+04         0.00000E+00
    0.45613E+04        -0.60000E+08         0.00000E+00
    0.00000E+00         0.00000E+00        -0.33716E+08
 
   -0.33405E+08         0.81333E+04         0.00000E+00
    0.81333E+04        -0.60000E+08         0.00000E+00
    0.00000E+00         0.00000E+00        -0.33701E+08
 
   -0.33420E+08         0.12043E+05         0.00000E+00
    0.12043E+05        -0.60000E+08         0.00000E+00
    0.00000E+00         0.00000E+00        -0.33686E+08
 
   -0.33434E+08         0.16262E+05         0.00000E+00
    0.16262E+05        -0.60000E+08         0.00000E+00
    0.00000E+00         0.00000E+00        -0.33672E+08
 
   -0.33447E+08         0.20768E+05         0.00000E+00
    0.20768E+05        -0.59999E+08         0.00000E+00
    0.00000E+00         0.00000E+00        -0.33657E+08
 
   -0.33460E+08         0.25545E+05         0.00000E+00
    0.25545E+05        -0.59999E+08         0.00000E+00
    0.00000E+00         0.00000E+00        -0.33643E+08
 
   -0.33472E+08         0.30581E+05         0.00000E+00
    0.30581E+05        -0.59997E+08         0.00000E+00
    0.00000E+00         0.00000E+00        -0.33629E+08
 
   -0.33483E+08         0.35866E+05         0.00000E+00
    0.35866E+05        -0.59995E+08         0.00000E+00
    0.00000E+00         0.00000E+00        -0.33615E+08
 
   -0.33493E+08         0.41387E+05         0.00000E+00
    0.41387E+05        -0.59992E+08         0.00000E+00
    0.00000E+00         0.00000E+00        -0.33601E+08
 
   -0.33502E+08         0.47132E+05         0.00000E+00
    0.47132E+05        -0.59989E+08         0.00000E+00
    0.00000E+00         0.00000E+00        -0.33588E+08
 
   -0.33510E+08         0.53084E+05         0.00000E+00
    0.53084E+05        -0.59984E+08         0.00000E+00
    0.00000E+00         0.00000E+00        -0.33574E+08
 
   -0.33516E+08         0.59222E+05         0.00000E+00
    0.59222E+05        -0.59979E+08         0.00000E+00
    0.00000E+00         0.00000E+00        -0.33561E+08
 
   -0.33522E+08         0.65517E+05         0.00000E+00
    0.65517E+05        -0.59973E+08         0.00000E+00
    0.00000E+00         0.00000E+00        -0.33547E+08
 
   -0.33526E+08         0.71932E+05         0.00000E+00
    0.71932E+05        -0.59966E+08         0.00000E+00
    0.00000E+00         0.00000E+00        -0.33534E+08
 
   -0.33372E+08         0.12221E+04         0.00000E+00
    0.12221E+04        -0.60000E+08         0.00000E+00
    0.00000E+00         0.00000E+00        -0.33711E+08
 
   -0.33387E+08         0.42799E+04         0.00000E+00
    0.42799E+04        -0.60000E+08         0.00000E+00
    0.00000E+00         0.00000E+00        -0.33696E+08
 
   -0.33401E+08         0.78440E+04         0.00000E+00
    0.78440E+04        -0.60001E+08         0.00000E+00
    0.00000E+00         0.00000E+00        -0.33682E+08
 
   -0.33416E+08         0.11873E+05         0.00000E+00
    0.11873E+05        -0.60001E+08         0.00000E+00
    0.00000E+00         0.00000E+00        -0.33668E+08
 
   -0.33429E+08         0.16335E+05         0.00000E+00
    0.16335E+05        -0.60002E+08         0.00000E+00
    0.00000E+00         0.00000E+00        -0.33654E+08
 
   -0.33442E+08         0.21201E+05         0.00000E+00
    0.21201E+05        -0.60002E+08         0.00000E+00
    0.00000E+00         0.00000E+00        -0.33641E+08
 
   -0.33455E+08         0.26448E+05         0.00000E+00
    0.26448E+05        -0.60001E+08         0.00000E+00
    0.00000E+00         0.00000E+00        -0.33628E+08
 
   -0.33466E+08         0.32053E+05         0.00000E+00
    0.32053E+05        -0.60001E+08         0.00000E+00
    0.00000E+00         0.00000E+00        -0.33615E+08
 
   -0.33477E+08         0.37994E+05         0.00000E+00
    0.37994E+05        -0.59999E+08         0.00000E+00
    0.00000E+00         0.00000E+00        -0.33603E+08
 
   -0.33487E+08         0.44249E+05         0.00000E+00
    0.44249E+05        -0.59997E+08         0.00000E+00
    0.00000E+00         0.00000E+00        -0.33590E+08
 
   -0.33496E+08         0.50792E+05         0.00000E+00
    0.50792E+05        -0.59994E+08         0.00000E+00
    0.00000E+00         0.00000E+00        -0.33577E+08
 
   -0.33503E+08         0.57592E+05         0.00000E+00
    0.57592E+05        -0.59990E+08         0.00000E+00
    0.00000E+00         0.00000E+00        -0.33565E+08
 
   -0.33510E+08         0.64615E+05         0.00000E+00
    0.64615E+05        -0.59985E+08         0.00000E+00
    0.00000E+00         0.00000E+00        -0.33552E+08
 
   -0.33515E+08         0.71818E+05         0.00000E+00
    0.71818E+05        -0.59980E+08         0.00000E+00
    0.00000E+00         0.00000E+00        -0.33540E+08
 
   -0.33519E+08         0.79150E+05         0.00000E+00
    0.79150E+05        -0.59973E+08         0.00000E+00
    0.00000E+00         0.00000E+00        -0.33527E+08
 
   -0.33369E+08         0.97502E+03         0.00000E+00
    0.97502E+03        -0.60000E+08         0.00000E+00
    0.00000E+00         0.00000E+00        -0.33687E+08
 
   -0.33384E+08         0.37155E+04         0.00000E+00
    0.37155E+04        -0.60000E+08         0.00000E+00
    0.00000E+00         0.00000E+00        -0.33673E+08
 
   -0.33398E+08         0.71263E+04         0.00000E+00
    0.71263E+04        -0.60001E+08         0.00000E+00
    0.00000E+00         0.00000E+00        -0.33660E+08
 
   -0.33411E+08         0.11164E+05         0.00000E+00
    0.11164E+05        -0.60002E+08         0.00000E+00
    0.00000E+00         0.00000E+00        -0.33648E+08
 
   -0.33424E+08         0.15789E+05         0.00000E+00
    0.15789E+05        -0.60003E+08         0.00000E+00
    0.00000E+00         0.00000E+00        -0.33635E+08
 
   -0.33437E+08         0.20966E+05         0.00000E+00
    0.20966E+05        -0.60004E+08         0.00000E+00
    0.00000E+00         0.00000E+00        -0.33624E+08
 
   -0.33449E+08         0.26660E+05         0.00000E+00
    0.26660E+05        -0.60004E+08         0.00000E+00
    0.00000E+00         0.00000E+00        -0.33612E+08
 
   -0.33460E+08         0.32836E+05         0.00000E+00
    0.32836E+05        -0.60004E+08         0.00000E+00
    0.00000E+00         0.00000E+00        -0.33600E+08
 
   -0.33471E+08         0.39459E+05         0.00000E+00
    0.39459E+05        -0.60004E+08         0.00000E+00
    0.00000E+00         0.00000E+00        -0.33589E+08
 
   -0.33480E+08         0.46488E+05         0.00000E+00
    0.46488E+05        -0.60002E+08         0.00000E+00
    0.00000E+00         0.00000E+00        -0.33578E+08
 
   -0.33488E+08         0.53882E+05         0.00000E+00
    0.53882E+05        -0.60000E+08         0.00000E+00
    0.00000E+00         0.00000E+00        -0.33566E+08
 
   -0.33496E+08         0.61592E+05         0.00000E+00
    0.61592E+05        -0.59997E+08         0.00000E+00
    0.00000E+00         0.00000E+00        -0.33555E+08
 
   -0.33502E+08         0.69567E+05         0.00000E+00
    0.69567E+05        -0.59992E+08         0.00000E+00
    0.00000E+00         0.00000E+00        -0.33543E+08
 
   -0.33507E+08         0.77748E+05         0.00000E+00
    0.77748E+05        -0.59987E+08         0.00000E+00
    0.00000E+00         0.00000E+00        -0.33531E+08
 
   -0.33511E+08         0.86067E+05         0.00000E+00
    0.86067E+05        -0.59981E+08         0.00000E+00
    0.00000E+00         0.00000E+00        -0.33519E+08
 
   -0.33367E+08         0.61266E+03         0.00000E+00
    0.61266E+03        -0.60000E+08         0.00000E+00
    0.00000E+00         0.00000E+00        -0.33660E+08
 
   -0.33381E+08         0.28400E+04         0.00000E+00
    0.28400E+04        -0.60001E+08         0.00000E+00
    0.00000E+00         0.00000E+00        -0.33648E+08
 
   -0.33394E+08         0.59386E+04         0.00000E+00
    0.59386E+04        -0.60002E+08         0.00000E+00
    0.00000E+00         0.00000E+00        -0.33636E+08
 
   -0.33407E+08         0.98619E+04         0.00000E+00
    0.98619E+04        -0.60004E+08         0.00000E+00
    0.00000E+00         0.00000E+00        -0.33625E+08
 
   -0.33419E+08         0.14565E+05         0.00000E+00
    0.14565E+05        -0.60005E+08         0.00000E+00
    0.00000E+00         0.00000E+00        -0.33614E+08
 
   -0.33431E+08         0.20001E+05         0.00000E+00
    0.20001E+05        -0.60007E+08         0.00000E+00
    0.00000E+00         0.00000E+00        -0.33604E+08
 
   -0.33443E+08         0.26123E+05         0.00000E+00
    0.26123E+05        -0.60008E+08         0.00000E+00
    0.00000E+00         0.00000E+00        -0.33594E+08
 
   -0.33454E+08         0.32877E+05         0.00000E+00
    0.32877E+05        -0.60009E+08         0.00000E+00
    0.00000E+00         0.00000E+00        -0.33584E+08
 
   -0.33463E+08         0.40211E+05         0.00000E+00
    0.40211E+05        -0.60009E+08         0.00000E+00
    0.00000E+00         0.00000E+00        -0.33574E+08
 
   -0.33472E+08         0.48063E+05         0.00000E+00
    0.48063E+05        -0.60008E+08         0.00000E+00
    0.00000E+00         0.00000E+00        -0.33564E+08
 
   -0.33480E+08         0.56370E+05         0.00000E+00
    0.56370E+05        -0.60006E+08         0.00000E+00
    0.00000E+00         0.00000E+00        -0.33554E+08
 
   -0.33487E+08         0.65065E+05         0.00000E+00
    0.65065E+05        -0.60003E+08         0.00000E+00
    0.00000E+00         0.00000E+00        -0.33543E+08
 
   -0.33493E+08         0.74072E+05         0.00000E+00
    0.74072E+05        -0.60000E+08         0.00000E+00
    0.00000E+00         0.00000E+00        -0.33532E+08
 
   -0.33498E+08         0.83312E+05         0.00000E+00
    0.83312E+05        -0.59995E+08         0.00000E+00
    0.00000E+00         0.00000E+00        -0.33521E+08
 
   -0.33502E+08         0.92700E+05         0.00000E+00
    0.92700E+05        -0.59989E+08         0.00000E+00
    0.00000E+00         0.00000E+00        -0.33510E+08
 
   -0.33366E+08         0.12749E+03         0.00000E+00
    0.12749E+03        -0.60000E+08         0.00000E+00
    0.00000E+00         0.00000E+00        -0.33630E+08
 
   -0.33378E+08         0.16321E+04         0.00000E+00
    0.16321E+04        -0.60001E+08         0.00000E+00
    0.00000E+00         0.00000E+00        -0.33619E+08
 
   -0.33391E+08         0.42479E+04         0.00000E+00
    0.42479E+04        -0.60003E+08         0.00000E+00
    0.00000E+00         0.00000E+00        -0.33608E+08
 
   -0.33403E+08         0.79267E+04         0.00000E+00
    0.79267E+04        -0.60005E+08         0.00000E+00
    0.00000E+00         0.00000E+00        -0.33599E+08
 
   -0.33414E+08         0.12616E+05         0.00000E+00
    0.12616E+05        -0.60007E+08         0.00000E+00
    0.00000E+00         0.00000E+00        -0.33590E+08
 
   -0.33426E+08         0.18258E+05         0.00000E+00
    0.18258E+05        -0.60009E+08         0.00000E+00
    0.00000E+00         0.00000E+00        -0.33582E+08
 
   -0.33436E+08         0.24787E+05         0.00000E+00
    0.24787E+05        -0.60011E+08         0.00000E+00
    0.00000E+00         0.00000E+00        -0.33574E+08
 
   -0.33446E+08         0.32130E+05         0.00000E+00
    0.32130E+05        -0.60013E+08         0.00000E+00
    0.00000E+00         0.00000E+00        -0.33566E+08
 
   -0.33455E+08         0.40210E+05         0.00000E+00
    0.40210E+05        -0.60014E+08         0.00000E+00
    0.00000E+00         0.00000E+00        -0.33557E+08
 
   -0.33464E+08         0.48941E+05         0.00000E+00
    0.48941E+05        -0.60014E+08         0.00000E+00
    0.00000E+00         0.00000E+00        -0.33549E+08
 
   -0.33471E+08         0.58235E+05         0.00000E+00
    0.58235E+05        -0.60013E+08         0.00000E+00
    0.00000E+00         0.00000E+00        -0.33540E+08
 
   -0.33478E+08         0.67998E+05         0.00000E+00
    0.67998E+05        -0.60011E+08         0.00000E+00
    0.00000E+00         0.00000E+00        -0.33531E+08
 
   -0.33484E+08         0.78129E+05         0.00000E+00
    0.78129E+05        -0.60007E+08         0.00000E+00
    0.00000E+00         0.00000E+00        -0.33521E+08
 
   -0.33488E+08         0.88526E+05         0.00000E+00
    0.88526E+05        -0.60003E+08         0.00000E+00
    0.00000E+00         0.00000E+00        -0.33511E+08
 
   -0.33492E+08         0.99079E+05         0.00000E+00
    0.99079E+05        -0.59997E+08         0.00000E+00
    0.00000E+00         0.00000E+00        -0.33499E+08
 
   -0.33366E+08        -0.48356E+03         0.00000E+00
   -0.48356E+03        -0.60000E+08         0.00000E+00
    0.00000E+00         0.00000E+00        -0.33596E+08
 
   -0.33377E+08         0.80817E+02         0.00000E+00
    0.80817E+02        -0.60001E+08         0.00000E+00
    0.00000E+00         0.00000E+00        -0.33587E+08
 
   -0.33388E+08         0.20352E+04         0.00000E+00
    0.20352E+04        -0.60003E+08         0.00000E+00
    0.00000E+00         0.00000E+00        -0.33578E+08
 
   -0.33399E+08         0.53317E+04         0.00000E+00
    0.53317E+04        -0.60006E+08         0.00000E+00
    0.00000E+00         0.00000E+00        -0.33571E+08
 
   -0.33409E+08         0.99112E+04         0.00000E+00
    0.99112E+04        -0.60009E+08         0.00000E+00
    0.00000E+00         0.00000E+00        -0.33564E+08
 
   -0.33419E+08         0.15701E+05         0.00000E+00
    0.15701E+05        -0.60012E+08         0.00000E+00
    0.00000E+00         0.00000E+00        -0.33558E+08
 
   -0.33429E+08         0.22616E+05         0.00000E+00
    0.22616E+05        -0.60015E+08         0.00000E+00
    0.00000E+00         0.00000E+00        -0.33552E+08
 
   -0.33438E+08         0.30560E+05         0.00000E+00
    0.30560E+05        -0.60017E+08         0.00000E+00
    0.00000E+00         0.00000E+00        -0.33546E+08
 
   -0.33447E+08         0.39425E+05         0.00000E+00
    0.39425E+05        -0.60019E+08         0.00000E+00
    0.00000E+00         0.00000E+00        -0.33539E+08
 
   -0.33454E+08         0.49099E+05         0.00000E+00
    0.49099E+05        -0.60020E+08         0.00000E+00
    0.00000E+00         0.00000E+00        -0.33533E+08
 
   -0.33461E+08         0.59461E+05         0.00000E+00
    0.59461E+05        -0.60019E+08         0.00000E+00
    0.00000E+00         0.00000E+00        -0.33525E+08
 
   -0.33468E+08         0.70387E+05         0.00000E+00
    0.70387E+05        -0.60018E+08         0.00000E+00
    0.00000E+00         0.00000E+00        -0.33517E+08
 
   -0.33473E+08         0.81747E+05         0.00000E+00
    0.81747E+05        -0.60015E+08         0.00000E+00
    0.00000E+00         0.00000E+00        -0.33508E+08
 
   -0.33477E+08         0.93408E+05         0.00000E+00
    0.93408E+05        -0.60011E+08         0.00000E+00
    0.00000E+00         0.00000E+00        -0.33499E+08
 
   -0.33481E+08         0.10524E+06         0.00000E+00
    0.10524E+06        -0.60006E+08         0.00000E+00
    0.00000E+00         0.00000E+00        -0.33488E+08
 
   -0.33366E+08        -0.12172E+04         0.00000E+00
   -0.12172E+04        -0.60000E+08         0.00000E+00
    0.00000E+00         0.00000E+00        -0.33559E+08
 
   -0.33376E+08        -0.18099E+04         0.00000E+00
   -0.18099E+04        -0.60001E+08         0.00000E+00
    0.00000E+00         0.00000E+00        -0.33551E+08
 
   -0.33385E+08        -0.69885E+03         0.00000E+00
   -0.69885E+03        -0.60004E+08         0.00000E+00
    0.00000E+00         0.00000E+00        -0.33545E+08
 
   -0.33395E+08         0.20716E+04         0.00000E+00
    0.20716E+04        -0.60007E+08         0.00000E+00
    0.00000E+00         0.00000E+00        -0.33540E+08
 
   -0.33404E+08         0.64373E+04         0.00000E+00
    0.64373E+04        -0.60011E+08         0.00000E+00
    0.00000E+00         0.00000E+00        -0.33535E+08
 
   -0.33413E+08         0.12312E+05         0.00000E+00
    0.12312E+05        -0.60015E+08         0.00000E+00
    0.00000E+00         0.00000E+00        -0.33531E+08
 
   -0.33421E+08         0.19589E+05         0.00000E+00
    0.19589E+05        -0.60019E+08         0.00000E+00
    0.00000E+00         0.00000E+00        -0.33528E+08
 
   -0.33429E+08         0.28143E+05         0.00000E+00
    0.28143E+05        -0.60022E+08         0.00000E+00
    0.00000E+00         0.00000E+00        -0.33524E+08
 
   -0.33437E+08         0.37837E+05         0.00000E+00
    0.37837E+05        -0.60024E+08         0.00000E+00
    0.00000E+00         0.00000E+00        -0.33520E+08
 
   -0.33444E+08         0.48521E+05         0.00000E+00
    0.48521E+05        -0.60026E+08         0.00000E+00
    0.00000E+00         0.00000E+00        -0.33515E+08
 
   -0.33450E+08         0.60041E+05         0.00000E+00
    0.60041E+05        -0.60026E+08         0.00000E+00
    0.00000E+00         0.00000E+00        -0.33509E+08
 
   -0.33456E+08         0.72235E+05         0.00000E+00
    0.72235E+05        -0.60025E+08         0.00000E+00
    0.00000E+00         0.00000E+00        -0.33502E+08
 
   -0.33461E+08         0.84937E+05         0.00000E+00
    0.84937E+05        -0.60023E+08         0.00000E+00
    0.00000E+00         0.00000E+00        -0.33494E+08
 
   -0.33465E+08         0.97982E+05         0.00000E+00
    0.97982E+05        -0.60019E+08         0.00000E+00
    0.00000E+00         0.00000E+00        -0.33486E+08
 
   -0.33468E+08         0.11121E+06         0.00000E+00
    0.11121E+06        -0.60014E+08         0.00000E+00
    0.00000E+00         0.00000E+00        -0.33475E+08
 
   -0.33368E+08        -0.20619E+04         0.00000E+00
   -0.20619E+04        -0.60000E+08         0.00000E+00
    0.00000E+00         0.00000E+00        -0.33517E+08
 
   -0.33376E+08        -0.40164E+04         0.00000E+00
   -0.40164E+04        -0.60002E+08         0.00000E+00
    0.00000E+00         0.00000E+00        -0.33512E+08
 
   -0.33384E+08        -0.39271E+04         0.00000E+00
   -0.39271E+04        -0.60005E+08         0.00000E+00
    0.00000E+00         0.00000E+00        -0.33508E+08
 
   -0.33391E+08        -0.18301E+04         0.00000E+00
   -0.18301E+04        -0.60009E+08         0.00000E+00
    0.00000E+00         0.00000E+00        -0.33505E+08
 
   -0.33399E+08         0.22099E+04         0.00000E+00
    0.22099E+04        -0.60013E+08         0.00000E+00
    0.00000E+00         0.00000E+00        -0.33503E+08
 
   -0.33406E+08         0.80962E+04         0.00000E+00
    0.80962E+04        -0.60018E+08         0.00000E+00
    0.00000E+00         0.00000E+00        -0.33502E+08
 
   -0.33413E+08         0.15702E+05         0.00000E+00
    0.15702E+05        -0.60022E+08         0.00000E+00
    0.00000E+00         0.00000E+00        -0.33501E+08
 
   -0.33420E+08         0.24873E+05         0.00000E+00
    0.24873E+05        -0.60026E+08         0.00000E+00
    0.00000E+00         0.00000E+00        -0.33500E+08
 
   -0.33426E+08         0.35437E+05         0.00000E+00
    0.35437E+05        -0.60030E+08         0.00000E+00
    0.00000E+00         0.00000E+00        -0.33498E+08
 
   -0.33432E+08         0.47204E+05         0.00000E+00
    0.47204E+05        -0.60032E+08         0.00000E+00
    0.00000E+00         0.00000E+00        -0.33495E+08
 
   -0.33438E+08         0.59975E+05         0.00000E+00
    0.59975E+05        -0.60033E+08         0.00000E+00
    0.00000E+00         0.00000E+00        -0.33491E+08
 
   -0.33443E+08         0.73546E+05         0.00000E+00
    0.73546E+05        -0.60033E+08         0.00000E+00
    0.00000E+00         0.00000E+00        -0.33486E+08
 
   -0.33447E+08         0.87711E+05         0.00000E+00
    0.87711E+05        -0.60031E+08         0.00000E+00
    0.00000E+00         0.00000E+00        -0.33479E+08
 
   -0.33451E+08         0.10227E+06         0.00000E+00
    0.10227E+06        -0.60027E+08         0.00000E+00
    0.00000E+00         0.00000E+00        -0.33471E+08
 
   -0.33454E+08         0.11703E+06         0.00000E+00
    0.11703E+06        -0.60022E+08         0.00000E+00
    0.00000E+00         0.00000E+00        -0.33461E+08
 
   -0.33372E+08        -0.29966E+04         0.00000E+00
   -0.29966E+04        -0.60000E+08         0.00000E+00
    0.00000E+00         0.00000E+00        -0.33471E+08
 
   -0.33378E+08        -0.64911E+04         0.00000E+00
   -0.64911E+04        -0.60002E+08         0.00000E+00
    0.00000E+00         0.00000E+00        -0.33468E+08
 
   -0.33383E+08        -0.75901E+04         0.00000E+00
   -0.75901E+04        -0.60005E+08         0.00000E+00
    0.00000E+00         0.00000E+00        -0.33467E+08
 
   -0.33389E+08        -0.63146E+04         0.00000E+00
   -0.63146E+04        -0.60009E+08         0.00000E+00
    0.00000E+00         0.00000E+00        -0.33467E+08
 
   -0.33394E+08        -0.27212E+04         0.00000E+00
   -0.27212E+04        -0.60015E+08         0.00000E+00
    0.00000E+00         0.00000E+00        -0.33469E+08
 
   -0.33399E+08         0.30909E+04         0.00000E+00
    0.30909E+04        -0.60020E+08         0.00000E+00
    0.00000E+00         0.00000E+00        -0.33470E+08
 
   -0.33405E+08         0.10980E+05         0.00000E+00
    0.10980E+05        -0.60025E+08         0.00000E+00
    0.00000E+00         0.00000E+00        -0.33472E+08
 
   -0.33410E+08         0.20765E+05         0.00000E+00
    0.20765E+05        -0.60030E+08         0.00000E+00
    0.00000E+00         0.00000E+00        -0.33473E+08
 
   -0.33415E+08         0.32234E+05         0.00000E+00
    0.32234E+05        -0.60034E+08         0.00000E+00
    0.00000E+00         0.00000E+00        -0.33474E+08
 
   -0.33419E+08         0.45151E+05         0.00000E+00
    0.45151E+05        -0.60037E+08         0.00000E+00
    0.00000E+00         0.00000E+00        -0.33473E+08
 
   -0.33424E+08         0.59267E+05         0.00000E+00
    0.59267E+05        -0.60039E+08         0.00000E+00
    0.00000E+00         0.00000E+00        -0.33471E+08
 
   -0.33428E+08         0.74327E+05         0.00000E+00
    0.74327E+05        -0.60039E+08         0.00000E+00
    0.00000E+00         0.00000E+00        -0.33468E+08
 
   -0.33432E+08         0.90076E+05         0.00000E+00
    0.90076E+05        -0.60038E+08         0.00000E+00
    0.00000E+00         0.00000E+00        -0.33462E+08
 
   -0.33436E+08         0.10627E+06         0.00000E+00
    0.10627E+06        -0.60035E+08         0.00000E+00
    0.00000E+00         0.00000E+00        -0.33455E+08
 
   -0.33439E+08         0.12270E+06         0.00000E+00
    0.12270E+06        -0.60030E+08         0.00000E+00
    0.00000E+00         0.00000E+00        -0.33446E+08
 
   -0.33378E+08        -0.39911E+04         0.00000E+00
   -0.39911E+04        -0.60000E+08         0.00000E+00
    0.00000E+00         0.00000E+00        -0.33421E+08
 
   -0.33381E+08        -0.91614E+04         0.00000E+00
   -0.91614E+04        -0.60002E+08         0.00000E+00
    0.00000E+00         0.00000E+00        -0.33421E+08
 
   -0.33384E+08        -0.11592E+05         0.00000E+00
   -0.11592E+05        -0.60005E+08         0.00000E+00
    0.00000E+00         0.00000E+00        -0.33423E+08
 
   -0.33387E+08        -0.11279E+05         0.00000E+00
   -0.11279E+05        -0.60010E+08         0.00000E+00
    0.00000E+00         0.00000E+00        -0.33426E+08
 
   -0.33390E+08        -0.82617E+04         0.00000E+00
   -0.82617E+04        -0.60016E+08         0.00000E+00
    0.00000E+00         0.00000E+00        -0.33430E+08
 
   -0.33393E+08        -0.26264E+04         0.00000E+00
   -0.26264E+04        -0.60022E+08         0.00000E+00
    0.00000E+00         0.00000E+00        -0.33435E+08
 
   -0.33396E+08         0.54810E+04         0.00000E+00
    0.54810E+04        -0.60028E+08         0.00000E+00
    0.00000E+00         0.00000E+00        -0.33440E+08
 
   -0.33399E+08         0.15858E+05         0.00000E+00
    0.15858E+05        -0.60033E+08         0.00000E+00
    0.00000E+00         0.00000E+00        -0.33444E+08
 
   -0.33402E+08         0.28255E+05         0.00000E+00
    0.28255E+05        -0.60038E+08         0.00000E+00
    0.00000E+00         0.00000E+00        -0.33448E+08
 
   -0.33405E+08         0.42381E+05         0.00000E+00
    0.42381E+05        -0.60042E+08         0.00000E+00
    0.00000E+00         0.00000E+00        -0.33449E+08
 
   -0.33408E+08         0.57928E+05         0.00000E+00
    0.57928E+05        -0.60044E+08         0.00000E+00
    0.00000E+00         0.00000E+00        -0.33449E+08
 
   -0.33412E+08         0.74578E+05         0.00000E+00
    0.74578E+05        -0.60045E+08         0.00000E+00
    0.00000E+00         0.00000E+00        -0.33447E+08
 
   -0.33415E+08         0.92023E+05         0.00000E+00
    0.92023E+05        -0.60044E+08         0.00000E+00
    0.00000E+00         0.00000E+00        -0.33443E+08
 
   -0.33418E+08         0.10998E+06         0.00000E+00
    0.10998E+06        -0.60042E+08         0.00000E+00
    0.00000E+00         0.00000E+00        -0.33437E+08
 
   -0.33422E+08         0.12820E+06         0.00000E+00
    0.12820E+06        -0.60037E+08         0.00000E+00
    0.00000E+00         0.00000E+00        -0.33428E+08
 
   -0.33385E+08        -0.50075E+04         0.00000E+00
   -0.50075E+04        -0.60000E+08         0.00000E+00
    0.00000E+00         0.00000E+00        -0.33367E+08
 
   -0.33385E+08        -0.11932E+05         0.00000E+00
   -0.11932E+05        -0.60002E+08         0.00000E+00
    0.00000E+00         0.00000E+00        -0.33370E+08
 
   -0.33385E+08        -0.15798E+05         0.00000E+00
   -0.15798E+05        -0.60006E+08         0.00000E+00
    0.00000E+00         0.00000E+00        -0.33374E+08
 
   -0.33385E+08        -0.16573E+05         0.00000E+00
   -0.16573E+05        -0.60010E+08         0.00000E+00
    0.00000E+00         0.00000E+00        -0.33381E+08
 
   -0.33385E+08        -0.14262E+05         0.00000E+00
   -0.14262E+05        -0.60016E+08         0.00000E+00
    0.00000E+00         0.00000E+00        -0.33388E+08
 
   -0.33386E+08        -0.89225E+04         0.00000E+00
   -0.89225E+04        -0.60023E+08         0.00000E+00
    0.00000E+00         0.00000E+00        -0.33396E+08
 
   -0.33386E+08        -0.68683E+03         0.00000E+00
   -0.68683E+03        -0.60029E+08         0.00000E+00
    0.00000E+00         0.00000E+00        -0.33405E+08
 
   -0.33387E+08         0.10235E+05         0.00000E+00
    0.10235E+05        -0.60035E+08         0.00000E+00
    0.00000E+00         0.00000E+00        -0.33412E+08
 
   -0.33388E+08         0.23554E+05         0.00000E+00
    0.23554E+05        -0.60041E+08         0.00000E+00
    0.00000E+00         0.00000E+00        -0.33418E+08
 
   -0.33390E+08         0.38924E+05         0.00000E+00
    0.38924E+05        -0.60045E+08         0.00000E+00
    0.00000E+00         0.00000E+00        -0.33423E+08
 
   -0.33392E+08         0.55963E+05         0.00000E+00
    0.55963E+05        -0.60048E+08         0.00000E+00
    0.00000E+00         0.00000E+00        -0.33425E+08
 
   -0.33394E+08         0.74283E+05         0.00000E+00
    0.74283E+05        -0.60050E+08         0.00000E+00
    0.00000E+00         0.00000E+00        -0.33425E+08
 
   -0.33397E+08         0.93517E+05         0.00000E+00
    0.93517E+05        -0.60050E+08         0.00000E+00
    0.00000E+00         0.00000E+00        -0.33422E+08
 
   -0.33399E+08         0.11334E+06         0.00000E+00
    0.11334E+06        -0.60047E+08         0.00000E+00
    0.00000E+00         0.00000E+00        -0.33416E+08
 
   -0.33402E+08         0.13347E+06         0.00000E+00
    0.13347E+06        -0.60043E+08         0.00000E+00
    0.00000E+00         0.00000E+00        -0.33409E+08
 
   -0.33395E+08        -0.60051E+04         0.00000E+00
   -0.60051E+04        -0.60000E+08         0.00000E+00
    0.00000E+00         0.00000E+00        -0.33308E+08
 
   -0.33392E+08        -0.14690E+05         0.00000E+00
   -0.14690E+05        -0.60002E+08         0.00000E+00
    0.00000E+00         0.00000E+00        -0.33314E+08
 
   -0.33388E+08        -0.20042E+05         0.00000E+00
   -0.20042E+05        -0.60005E+08         0.00000E+00
    0.00000E+00         0.00000E+00        -0.33322E+08
 
   -0.33385E+08        -0.21993E+05         0.00000E+00
   -0.21993E+05        -0.60010E+08         0.00000E+00
    0.00000E+00         0.00000E+00        -0.33331E+08
 
   -0.33382E+08        -0.20505E+05         0.00000E+00
   -0.20505E+05        -0.60016E+08         0.00000E+00
    0.00000E+00         0.00000E+00        -0.33342E+08
 
   -0.33379E+08        -0.15590E+05         0.00000E+00
   -0.15590E+05        -0.60023E+08         0.00000E+00
    0.00000E+00         0.00000E+00        -0.33354E+08
 
   -0.33376E+08        -0.73441E+04         0.00000E+00
   -0.73441E+04        -0.60029E+08         0.00000E+00
    0.00000E+00         0.00000E+00        -0.33365E+08
 
   -0.33374E+08         0.40322E+04         0.00000E+00
    0.40322E+04        -0.60036E+08         0.00000E+00
    0.00000E+00         0.00000E+00        -0.33376E+08
 
   -0.33373E+08         0.18224E+05         0.00000E+00
    0.18224E+05        -0.60042E+08         0.00000E+00
    0.00000E+00         0.00000E+00        -0.33385E+08
 
   -0.33373E+08         0.34824E+05         0.00000E+00
    0.34824E+05        -0.60047E+08         0.00000E+00
    0.00000E+00         0.00000E+00        -0.33392E+08
 
   -0.33373E+08         0.53371E+05         0.00000E+00
    0.53371E+05        -0.60051E+08         0.00000E+00
    0.00000E+00         0.00000E+00        -0.33397E+08
 
   -0.33374E+08         0.73398E+05         0.00000E+00
    0.73398E+05        -0.60053E+08         0.00000E+00
    0.00000E+00         0.00000E+00        -0.33399E+08
 
   -0.33376E+08         0.94476E+05         0.00000E+00
    0.94476E+05        -0.60053E+08         0.00000E+00
    0.00000E+00         0.00000E+00        -0.33398E+08
 
   -0.33378E+08         0.11623E+06         0.00000E+00
    0.11623E+06        -0.60052E+08         0.00000E+00
    0.00000E+00         0.00000E+00        -0.33394E+08
 
   -0.33381E+08         0.13838E+06         0.00000E+00
    0.13838E+06        -0.60048E+08         0.00000E+00
    0.00000E+00         0.00000E+00        -0.33387E+08
 
   -0.33406E+08        -0.69461E+04         0.00000E+00
   -0.69461E+04        -0.60000E+08         0.00000E+00
    0.00000E+00         0.00000E+00        -0.33246E+08
 
   -0.33399E+08        -0.17322E+05         0.00000E+00
   -0.17322E+05        -0.60002E+08         0.00000E+00
    0.00000E+00         0.00000E+00        -0.33254E+08
 
   -0.33393E+08        -0.24134E+05         0.00000E+00
   -0.24134E+05        -0.60005E+08         0.00000E+00
    0.00000E+00         0.00000E+00        -0.33265E+08
 
   -0.33386E+08        -0.27288E+05         0.00000E+00
   -0.27288E+05        -0.60010E+08         0.00000E+00
    0.00000E+00         0.00000E+00        -0.33278E+08
 
   -0.33379E+08        -0.26699E+05         0.00000E+00
   -0.26699E+05        -0.60015E+08         0.00000E+00
    0.00000E+00         0.00000E+00        -0.33292E+08
 
   -0.33373E+08        -0.22326E+05         0.00000E+00
   -0.22326E+05        -0.60022E+08         0.00000E+00
    0.00000E+00         0.00000E+00        -0.33307E+08
 
   -0.33367E+08        -0.14210E+05         0.00000E+00
   -0.14210E+05        -0.60028E+08         0.00000E+00
    0.00000E+00         0.00000E+00        -0.33322E+08
 
   -0.33361E+08        -0.25250E+04         0.00000E+00
   -0.25250E+04        -0.60035E+08         0.00000E+00
    0.00000E+00         0.00000E+00        -0.33336E+08
 
   -0.33357E+08         0.12409E+05         0.00000E+00
    0.12409E+05        -0.60041E+08         0.00000E+00
    0.00000E+00         0.00000E+00        -0.33348E+08
 
   -0.33354E+08         0.30137E+05         0.00000E+00
    0.30137E+05        -0.60047E+08         0.00000E+00
    0.00000E+00         0.00000E+00        -0.33358E+08
 
   -0.33353E+08         0.50124E+05         0.00000E+00
    0.50124E+05        -0.60051E+08         0.00000E+00
    0.00000E+00         0.00000E+00        -0.33366E+08
 
   -0.33353E+08         0.71826E+05         0.00000E+00
    0.71826E+05        -0.60054E+08         0.00000E+00
    0.00000E+00         0.00000E+00        -0.33370E+08
 
   -0.33354E+08         0.94747E+05         0.00000E+00
    0.94747E+05        -0.60055E+08         0.00000E+00
    0.00000E+00         0.00000E+00        -0.33371E+08
 
   -0.33355E+08         0.11848E+06         0.00000E+00
    0.11848E+06        -0.60054E+08         0.00000E+00
    0.00000E+00         0.00000E+00        -0.33368E+08
 
   -0.33358E+08         0.14270E+06         0.00000E+00
    0.14270E+06        -0.60052E+08         0.00000E+00
    0.00000E+00         0.00000E+00        -0.33363E+08
 
   -0.33419E+08        -0.78012E+04         0.00000E+00
   -0.78012E+04        -0.60000E+08         0.00000E+00
    0.00000E+00         0.00000E+00        -0.33179E+08
 
   -0.33409E+08        -0.19718E+05         0.00000E+00
   -0.19718E+05        -0.60002E+08         0.00000E+00
    0.00000E+00         0.00000E+00        -0.33191E+08
 
   -0.33398E+08        -0.27880E+05         0.00000E+00
   -0.27880E+05        -0.60004E+08         0.00000E+00
    0.00000E+00         0.00000E+00        -0.33205E+08
 
   -0.33388E+08        -0.32172E+05         0.00000E+00
   -0.32172E+05        -0.60009E+08         0.00000E+00
    0.00000E+00         0.00000E+00        -0.33221E+08
 
   -0.33377E+08        -0.32476E+05         0.00000E+00
   -0.32476E+05        -0.60013E+08         0.00000E+00
    0.00000E+00         0.00000E+00        -0.33238E+08
 
   -0.33366E+08        -0.28709E+05         0.00000E+00
   -0.28709E+05        -0.60019E+08         0.00000E+00
    0.00000E+00         0.00000E+00        -0.33256E+08
 
   -0.33357E+08        -0.20870E+05         0.00000E+00
   -0.20870E+05        -0.60025E+08         0.00000E+00
    0.00000E+00         0.00000E+00        -0.33273E+08
 
   -0.33348E+08        -0.90920E+04         0.00000E+00
   -0.90920E+04        -0.60032E+08         0.00000E+00
    0.00000E+00         0.00000E+00        -0.33290E+08
 
   -0.33341E+08         0.63286E+04         0.00000E+00
    0.63286E+04        -0.60038E+08         0.00000E+00
    0.00000E+00         0.00000E+00        -0.33306E+08
 
   -0.33335E+08         0.24936E+05         0.00000E+00
    0.24936E+05        -0.60044E+08         0.00000E+00
    0.00000E+00         0.00000E+00        -0.33319E+08
 
   -0.33331E+08         0.46161E+05         0.00000E+00
    0.46161E+05        -0.60049E+08         0.00000E+00
    0.00000E+00         0.00000E+00        -0.33329E+08
 
   -0.33330E+08         0.69398E+05         0.00000E+00
    0.69398E+05        -0.60052E+08         0.00000E+00
    0.00000E+00         0.00000E+00        -0.33336E+08
 
   -0.33329E+08         0.94088E+05         0.00000E+00
    0.94088E+05        -0.60055E+08         0.00000E+00
    0.00000E+00         0.00000E+00        -0.33340E+08
 
   -0.33330E+08         0.11977E+06         0.00000E+00
    0.11977E+06        -0.60055E+08         0.00000E+00
    0.00000E+00         0.00000E+00        -0.33340E+08
 
   -0.33332E+08         0.14611E+06         0.00000E+00
    0.14611E+06        -0.60053E+08         0.00000E+00
    0.00000E+00         0.00000E+00        -0.33336E+08
 
   -0.33433E+08        -0.85499E+04         0.00000E+00
   -0.85499E+04        -0.60000E+08         0.00000E+00
    0.00000E+00         0.00000E+00        -0.33108E+08
 
   -0.33419E+08        -0.21793E+05         0.00000E+00
   -0.21793E+05        -0.60001E+08         0.00000E+00
    0.00000E+00         0.00000E+00        -0.33124E+08
 
   -0.33405E+08        -0.31096E+05         0.00000E+00
   -0.31096E+05        -0.60004E+08         0.00000E+00
    0.00000E+00         0.00000E+00        -0.33141E+08
 
   -0.33390E+08        -0.36336E+05         0.00000E+00
   -0.36336E+05        -0.60007E+08         0.00000E+00
    0.00000E+00         0.00000E+00        -0.33160E+08
 
   -0.33376E+08        -0.37395E+05         0.00000E+00
   -0.37395E+05        -0.60011E+08         0.00000E+00
    0.00000E+00         0.00000E+00        -0.33179E+08
 
   -0.33361E+08        -0.34196E+05         0.00000E+00
   -0.34196E+05        -0.60016E+08         0.00000E+00
    0.00000E+00         0.00000E+00        -0.33200E+08
 
   -0.33347E+08        -0.26750E+05         0.00000E+00
   -0.26750E+05        -0.60020E+08         0.00000E+00
    0.00000E+00         0.00000E+00        -0.33220E+08
 
   -0.33334E+08        -0.15172E+05         0.00000E+00
   -0.15172E+05        -0.60026E+08         0.00000E+00
    0.00000E+00         0.00000E+00        -0.33239E+08
 
   -0.33323E+08         0.30632E+03         0.00000E+00
    0.30632E+03        -0.60031E+08         0.00000E+00
    0.00000E+00         0.00000E+00        -0.33258E+08
 
   -0.33315E+08         0.19324E+05         0.00000E+00
    0.19324E+05        -0.60037E+08         0.00000E+00
    0.00000E+00         0.00000E+00        -0.33274E+08
 
   -0.33309E+08         0.41376E+05         0.00000E+00
    0.41376E+05        -0.60043E+08         0.00000E+00
    0.00000E+00         0.00000E+00        -0.33287E+08
 
   -0.33305E+08         0.65854E+05         0.00000E+00
    0.65854E+05        -0.60048E+08         0.00000E+00
    0.00000E+00         0.00000E+00        -0.33298E+08
 
   -0.33303E+08         0.92140E+05         0.00000E+00
    0.92140E+05        -0.60051E+08         0.00000E+00
    0.00000E+00         0.00000E+00        -0.33304E+08
 
   -0.33303E+08         0.11970E+06         0.00000E+00
    0.11970E+06        -0.60053E+08         0.00000E+00
    0.00000E+00         0.00000E+00        -0.33307E+08
 
   -0.33305E+08         0.14816E+06         0.00000E+00
    0.14816E+06        -0.60053E+08         0.00000E+00
    0.00000E+00         0.00000E+00        -0.33307E+08
 
   -0.33449E+08        -0.91827E+04         0.00000E+00
   -0.91827E+04        -0.60000E+08         0.00000E+00
    0.00000E+00         0.00000E+00        -0.33034E+08
 
   -0.33431E+08        -0.23488E+05         0.00000E+00
   -0.23488E+05        -0.60001E+08         0.00000E+00
    0.00000E+00         0.00000E+00        -0.33053E+08
 
   -0.33413E+08        -0.33609E+05         0.00000E+00
   -0.33609E+05        -0.60003E+08         0.00000E+00
    0.00000E+00         0.00000E+00        -0.33073E+08
 
   -0.33394E+08        -0.39455E+05         0.00000E+00
   -0.39455E+05        -0.60005E+08         0.00000E+00
    0.00000E+00         0.00000E+00        -0.33095E+08
 
   -0.33375E+08        -0.40953E+05         0.00000E+00
   -0.40953E+05        -0.60008E+08         0.00000E+00
    0.00000E+00         0.00000E+00        -0.33117E+08
 
   -0.33356E+08        -0.38139E+05         0.00000E+00
   -0.38139E+05        -0.60010E+08         0.00000E+00
    0.00000E+00         0.00000E+00        -0.33139E+08
 
   -0.33338E+08        -0.31141E+05         0.00000E+00
   -0.31141E+05        -0.60013E+08         0.00000E+00
    0.00000E+00         0.00000E+00        -0.33161E+08
 
   -0.33321E+08        -0.20121E+05         0.00000E+00
   -0.20121E+05        -0.60017E+08         0.00000E+00
    0.00000E+00         0.00000E+00        -0.33182E+08
 
   -0.33306E+08        -0.52075E+04         0.00000E+00
   -0.52075E+04        -0.60021E+08         0.00000E+00
    0.00000E+00         0.00000E+00        -0.33202E+08
 
   -0.33294E+08         0.13468E+05         0.00000E+00
    0.13468E+05        -0.60027E+08         0.00000E+00
    0.00000E+00         0.00000E+00        -0.33221E+08
 
   -0.33285E+08         0.35644E+05         0.00000E+00
    0.35644E+05        -0.60033E+08         0.00000E+00
    0.00000E+00         0.00000E+00        -0.33238E+08
 
   -0.33279E+08         0.60841E+05         0.00000E+00
    0.60841E+05        -0.60039E+08         0.00000E+00
    0.00000E+00         0.00000E+00        -0.33253E+08
 
   -0.33276E+08         0.88410E+05         0.00000E+00
    0.88410E+05        -0.60045E+08         0.00000E+00
    0.00000E+00         0.00000E+00        -0.33264E+08
 
   -0.33274E+08         0.11771E+06         0.00000E+00
    0.11771E+06        -0.60049E+08         0.00000E+00
    0.00000E+00         0.00000E+00        -0.33271E+08
 
   -0.33275E+08         0.14824E+06         0.00000E+00
    0.14824E+06        -0.60051E+08         0.00000E+00
    0.00000E+00         0.00000E+00        -0.33275E+08
 
   -0.33466E+08        -0.97173E+04         0.00000E+00
   -0.97173E+04        -0.60000E+08         0.00000E+00
    0.00000E+00         0.00000E+00        -0.32957E+08
 
   -0.33444E+08        -0.24743E+05         0.00000E+00
   -0.24743E+05        -0.60001E+08         0.00000E+00
    0.00000E+00         0.00000E+00        -0.32980E+08
 
   -0.33421E+08        -0.35241E+05         0.00000E+00
   -0.35241E+05        -0.60002E+08         0.00000E+00
    0.00000E+00         0.00000E+00        -0.33003E+08
 
   -0.33398E+08        -0.41152E+05         0.00000E+00
   -0.41152E+05        -0.60003E+08         0.00000E+00
    0.00000E+00         0.00000E+00        -0.33027E+08
 
   -0.33374E+08        -0.42584E+05         0.00000E+00
   -0.42584E+05        -0.60003E+08         0.00000E+00
    0.00000E+00         0.00000E+00        -0.33050E+08
 
   -0.33351E+08        -0.39838E+05         0.00000E+00
   -0.39838E+05        -0.60004E+08         0.00000E+00
    0.00000E+00         0.00000E+00        -0.33073E+08
 
   -0.33329E+08        -0.33302E+05         0.00000E+00
   -0.33302E+05        -0.60004E+08         0.00000E+00
    0.00000E+00         0.00000E+00        -0.33095E+08
 
   -0.33308E+08        -0.23232E+05         0.00000E+00
   -0.23232E+05        -0.60005E+08         0.00000E+00
    0.00000E+00         0.00000E+00        -0.33117E+08
 
   -0.33290E+08        -0.96338E+04         0.00000E+00
   -0.96338E+04        -0.60008E+08         0.00000E+00
    0.00000E+00         0.00000E+00        -0.33139E+08
 
   -0.33274E+08         0.76863E+04         0.00000E+00
    0.76863E+04        -0.60012E+08         0.00000E+00
    0.00000E+00         0.00000E+00        -0.33160E+08
 
   -0.33261E+08         0.28920E+05         0.00000E+00
    0.28920E+05        -0.60019E+08         0.00000E+00
    0.00000E+00         0.00000E+00        -0.33181E+08
 
   -0.33252E+08         0.53963E+05         0.00000E+00
    0.53963E+05        -0.60027E+08         0.00000E+00
    0.00000E+00         0.00000E+00        -0.33201E+08
 
   -0.33247E+08         0.82269E+05         0.00000E+00
    0.82269E+05        -0.60035E+08         0.00000E+00
    0.00000E+00         0.00000E+00        -0.33217E+08
 
   -0.33244E+08         0.11304E+06         0.00000E+00
    0.11304E+06        -0.60042E+08         0.00000E+00
    0.00000E+00         0.00000E+00        -0.33230E+08
 
   -0.33243E+08         0.14556E+06         0.00000E+00
    0.14556E+06        -0.60047E+08         0.00000E+00
    0.00000E+00         0.00000E+00        -0.33239E+08
 
   -0.33484E+08        -0.10172E+05         0.00000E+00
   -0.10172E+05        -0.60000E+08         0.00000E+00
    0.00000E+00         0.00000E+00        -0.32877E+08
 
   -0.33457E+08        -0.25510E+05         0.00000E+00
   -0.25510E+05        -0.60001E+08         0.00000E+00
    0.00000E+00         0.00000E+00        -0.32904E+08
 
   -0.33429E+08        -0.35717E+05         0.00000E+00
   -0.35717E+05        -0.60001E+08         0.00000E+00
    0.00000E+00         0.00000E+00        -0.32930E+08
 
   -0.33401E+08        -0.40928E+05         0.00000E+00
   -0.40928E+05        -0.60000E+08         0.00000E+00
    0.00000E+00         0.00000E+00        -0.32956E+08
 
   -0.33373E+08        -0.41645E+05         0.00000E+00
   -0.41645E+05        -0.59998E+08         0.00000E+00
    0.00000E+00         0.00000E+00        -0.32980E+08
 
   -0.33347E+08        -0.38658E+05         0.00000E+00
   -0.38658E+05        -0.59995E+08         0.00000E+00
    0.00000E+00         0.00000E+00        -0.33002E+08
 
   -0.33321E+08        -0.32656E+05         0.00000E+00
   -0.32656E+05        -0.59992E+08         0.00000E+00
    0.00000E+00         0.00000E+00        -0.33024E+08
 
   -0.33297E+08        -0.23924E+05         0.00000E+00
   -0.23924E+05        -0.59991E+08         0.00000E+00
    0.00000E+00         0.00000E+00        -0.33045E+08
 
   -0.33275E+08        -0.12344E+05         0.00000E+00
   -0.12344E+05        -0.59991E+08         0.00000E+00
    0.00000E+00         0.00000E+00        -0.33067E+08
 
   -0.33256E+08         0.25486E+04         0.00000E+00
    0.25486E+04        -0.59994E+08         0.00000E+00
    0.00000E+00         0.00000E+00        -0.33090E+08
 
   -0.33239E+08         0.21438E+05         0.00000E+00
    0.21438E+05        -0.60000E+08         0.00000E+00
    0.00000E+00         0.00000E+00        -0.33114E+08
 
   -0.33226E+08         0.44924E+05         0.00000E+00
    0.44924E+05        -0.60009E+08         0.00000E+00
    0.00000E+00         0.00000E+00        -0.33139E+08
 
   -0.33217E+08         0.72972E+05         0.00000E+00
    0.72972E+05        -0.60020E+08         0.00000E+00
    0.00000E+00         0.00000E+00        -0.33163E+08
 
   -0.33211E+08         0.10473E+06         0.00000E+00
    0.10473E+06        -0.60031E+08         0.00000E+00
    0.00000E+00         0.00000E+00        -0.33183E+08
 
   -0.33208E+08         0.13908E+06         0.00000E+00
    0.13908E+06        -0.60041E+08         0.00000E+00
    0.00000E+00         0.00000E+00        -0.33200E+08
 
   -0.33502E+08        -0.10570E+05         0.00000E+00
   -0.10570E+05        -0.60000E+08         0.00000E+00
    0.00000E+00         0.00000E+00        -0.32795E+08
 
   -0.33469E+08        -0.25618E+05         0.00000E+00
   -0.25618E+05        -0.60000E+08         0.00000E+00
    0.00000E+00         0.00000E+00        -0.32826E+08
 
   -0.33436E+08        -0.34541E+05         0.00000E+00
   -0.34541E+05        -0.59999E+08         0.00000E+00
    0.00000E+00         0.00000E+00        -0.32855E+08
 
   -0.33403E+08        -0.38026E+05         0.00000E+00
   -0.38026E+05        -0.59995E+08         0.00000E+00
    0.00000E+00         0.00000E+00        -0.32882E+08
 
   -0.33372E+08        -0.37477E+05         0.00000E+00
   -0.37477E+05        -0.59990E+08         0.00000E+00
    0.00000E+00         0.00000E+00        -0.32905E+08
 
   -0.33342E+08        -0.34247E+05         0.00000E+00
   -0.34247E+05        -0.59984E+08         0.00000E+00
    0.00000E+00         0.00000E+00        -0.32926E+08
 
   -0.33314E+08        -0.29017E+05         0.00000E+00
   -0.29017E+05        -0.59978E+08         0.00000E+00
    0.00000E+00         0.00000E+00        -0.32945E+08
 
   -0.33288E+08        -0.21956E+05         0.00000E+00
   -0.21956E+05        -0.59974E+08         0.00000E+00
    0.00000E+00         0.00000E+00        -0.32965E+08
 
   -0.33264E+08        -0.12858E+05         0.00000E+00
   -0.12858E+05        -0.59972E+08         0.00000E+00
    0.00000E+00         0.00000E+00        -0.32986E+08
 
   -0.33240E+08        -0.11832E+04         0.00000E+00
   -0.11832E+04        -0.59972E+08         0.00000E+00
    0.00000E+00         0.00000E+00        -0.33010E+08
 
   -0.33219E+08         0.13980E+05         0.00000E+00
    0.13980E+05        -0.59977E+08         0.00000E+00
    0.00000E+00         0.00000E+00        -0.33037E+08
 
   -0.33201E+08         0.33906E+05         0.00000E+00
    0.33906E+05        -0.59986E+08         0.00000E+00
    0.00000E+00         0.00000E+00        -0.33067E+08
 
   -0.33187E+08         0.59800E+05         0.00000E+00
    0.59800E+05        -0.60000E+08         0.00000E+00
    0.00000E+00         0.00000E+00        -0.33099E+08
 
   -0.33178E+08         0.91493E+05         0.00000E+00
    0.91493E+05        -0.60016E+08         0.00000E+00
    0.00000E+00         0.00000E+00        -0.33130E+08
 
   -0.33172E+08         0.12737E+06         0.00000E+00
    0.12737E+06        -0.60032E+08         0.00000E+00
    0.00000E+00         0.00000E+00        -0.33157E+08
 
   -0.33520E+08        -0.10920E+05         0.00000E+00
   -0.10920E+05        -0.60000E+08         0.00000E+00
    0.00000E+00         0.00000E+00        -0.32710E+08
 
   -0.33480E+08        -0.24570E+05         0.00000E+00
   -0.24570E+05        -0.60000E+08         0.00000E+00
    0.00000E+00         0.00000E+00        -0.32746E+08
 
   -0.33441E+08        -0.30603E+05         0.00000E+00
   -0.30603E+05        -0.59995E+08         0.00000E+00
    0.00000E+00         0.00000E+00        -0.32778E+08
 
   -0.33404E+08        -0.31437E+05         0.00000E+00
   -0.31437E+05        -0.59988E+08         0.00000E+00
    0.00000E+00         0.00000E+00        -0.32803E+08
 
   -0.33370E+08        -0.29786E+05         0.00000E+00
   -0.29786E+05        -0.59978E+08         0.00000E+00
    0.00000E+00         0.00000E+00        -0.32824E+08
 
   -0.33338E+08        -0.26767E+05         0.00000E+00
   -0.26767E+05        -0.59969E+08         0.00000E+00
    0.00000E+00         0.00000E+00        -0.32842E+08
 
   -0.33309E+08        -0.22688E+05         0.00000E+00
   -0.22688E+05        -0.59961E+08         0.00000E+00
    0.00000E+00         0.00000E+00        -0.32860E+08
 
   -0.33281E+08        -0.17531E+05         0.00000E+00
   -0.17531E+05        -0.59955E+08         0.00000E+00
    0.00000E+00         0.00000E+00        -0.32878E+08
 
   -0.33255E+08        -0.11079E+05         0.00000E+00
   -0.11079E+05        -0.59950E+08         0.00000E+00
    0.00000E+00         0.00000E+00        -0.32898E+08
 
   -0.33229E+08        -0.29102E+04         0.00000E+00
   -0.29102E+04        -0.59949E+08         0.00000E+00
    0.00000E+00         0.00000E+00        -0.32922E+08
 
   -0.33204E+08         0.77386E+04         0.00000E+00
    0.77386E+04        -0.59952E+08         0.00000E+00
    0.00000E+00         0.00000E+00        -0.32950E+08
 
   -0.33180E+08         0.22210E+05         0.00000E+00
    0.22210E+05        -0.59960E+08         0.00000E+00
    0.00000E+00         0.00000E+00        -0.32983E+08
 
   -0.33159E+08         0.42693E+05         0.00000E+00
    0.42693E+05        -0.59974E+08         0.00000E+00
    0.00000E+00         0.00000E+00        -0.33023E+08
 
   -0.33144E+08         0.71692E+05         0.00000E+00
    0.71692E+05        -0.59996E+08         0.00000E+00
    0.00000E+00         0.00000E+00        -0.33067E+08
 
   -0.33134E+08         0.10827E+06         0.00000E+00
    0.10827E+06        -0.60021E+08         0.00000E+00
    0.00000E+00         0.00000E+00        -0.33110E+08
 
   -0.33537E+08        -0.11118E+05         0.00000E+00
   -0.11118E+05        -0.60000E+08         0.00000E+00
    0.00000E+00         0.00000E+00        -0.32624E+08
 
   -0.33489E+08        -0.20763E+05         0.00000E+00
   -0.20763E+05        -0.59997E+08         0.00000E+00
    0.00000E+00         0.00000E+00        -0.32665E+08
 
   -0.33443E+08        -0.21834E+05         0.00000E+00
   -0.21834E+05        -0.59987E+08         0.00000E+00
    0.00000E+00         0.00000E+00        -0.32695E+08
 
   -0.33403E+08        -0.20778E+05         0.00000E+00
   -0.20778E+05        -0.59975E+08         0.00000E+00
    0.00000E+00         0.00000E+00        -0.32717E+08
 
   -0.33367E+08        -0.19070E+05         0.00000E+00
   -0.19070E+05        -0.59963E+08         0.00000E+00
    0.00000E+00         0.00000E+00        -0.32735E+08
 
   -0.33335E+08        -0.16934E+05         0.00000E+00
   -0.16934E+05        -0.59951E+08         0.00000E+00
    0.00000E+00         0.00000E+00        -0.32751E+08
 
   -0.33305E+08        -0.14355E+05         0.00000E+00
   -0.14355E+05        -0.59942E+08         0.00000E+00
    0.00000E+00         0.00000E+00        -0.32767E+08
 
   -0.33277E+08        -0.11227E+05         0.00000E+00
   -0.11227E+05        -0.59934E+08         0.00000E+00
    0.00000E+00         0.00000E+00        -0.32785E+08
 
   -0.33249E+08        -0.73955E+04         0.00000E+00
   -0.73955E+04        -0.59928E+08         0.00000E+00
    0.00000E+00         0.00000E+00        -0.32804E+08
 
   -0.33222E+08        -0.26268E+04         0.00000E+00
   -0.26268E+04        -0.59925E+08         0.00000E+00
    0.00000E+00         0.00000E+00        -0.32826E+08
 
   -0.33194E+08         0.35122E+04         0.00000E+00
    0.35122E+04        -0.59926E+08         0.00000E+00
    0.00000E+00         0.00000E+00        -0.32854E+08
 
   -0.33166E+08         0.11850E+05         0.00000E+00
    0.11850E+05        -0.59932E+08         0.00000E+00
    0.00000E+00         0.00000E+00        -0.32889E+08
 
   -0.33138E+08         0.24102E+05         0.00000E+00
    0.24102E+05        -0.59945E+08         0.00000E+00
    0.00000E+00         0.00000E+00        -0.32933E+08
 
   -0.33112E+08         0.44029E+05         0.00000E+00
    0.44029E+05        -0.59968E+08         0.00000E+00
    0.00000E+00         0.00000E+00        -0.32989E+08
 
   -0.33095E+08         0.77872E+05         0.00000E+00
    0.77872E+05        -0.60004E+08         0.00000E+00
    0.00000E+00         0.00000E+00        -0.33055E+08
 
   -0.33552E+08        -0.10078E+05         0.00000E+00
   -0.10078E+05        -0.60001E+08         0.00000E+00
    0.00000E+00         0.00000E+00        -0.32539E+08
 
   -0.33489E+08        -0.91387E+04         0.00000E+00
   -0.91387E+04        -0.59985E+08         0.00000E+00
    0.00000E+00         0.00000E+00        -0.32577E+08
 
   -0.33442E+08        -0.79653E+04         0.00000E+00
   -0.79653E+04        -0.59970E+08         0.00000E+00
    0.00000E+00         0.00000E+00        -0.32602E+08
 
   -0.33402E+08        -0.72377E+04         0.00000E+00
   -0.72377E+04        -0.59956E+08         0.00000E+00
    0.00000E+00         0.00000E+00        -0.32621E+08
 
   -0.33366E+08        -0.65397E+04         0.00000E+00
   -0.65397E+04        -0.59942E+08         0.00000E+00
    0.00000E+00         0.00000E+00        -0.32638E+08
 
   -0.33333E+08        -0.57741E+04         0.00000E+00
   -0.57741E+04        -0.59930E+08         0.00000E+00
    0.00000E+00         0.00000E+00        -0.32653E+08
 
   -0.33303E+08        -0.48964E+04         0.00000E+00
   -0.48964E+04        -0.59920E+08         0.00000E+00
    0.00000E+00         0.00000E+00        -0.32668E+08
 
   -0.33274E+08        -0.38498E+04         0.00000E+00
   -0.38498E+04        -0.59911E+08         0.00000E+00
    0.00000E+00         0.00000E+00        -0.32684E+08
 
   -0.33246E+08        -0.25782E+04         0.00000E+00
   -0.25782E+04        -0.59905E+08         0.00000E+00
    0.00000E+00         0.00000E+00        -0.32703E+08
 
   -0.33218E+08        -0.10154E+04         0.00000E+00
   -0.10154E+04        -0.59901E+08         0.00000E+00
    0.00000E+00         0.00000E+00        -0.32725E+08
 
   -0.33189E+08         0.97089E+03         0.00000E+00
    0.97089E+03        -0.59901E+08         0.00000E+00
    0.00000E+00         0.00000E+00        -0.32753E+08
 
   -0.33160E+08         0.36250E+04         0.00000E+00
    0.36250E+04        -0.59906E+08         0.00000E+00
    0.00000E+00         0.00000E+00        -0.32788E+08
 
   -0.33128E+08         0.74913E+04         0.00000E+00
    0.74913E+04        -0.59917E+08         0.00000E+00
    0.00000E+00         0.00000E+00        -0.32833E+08
 
   -0.33092E+08         0.14066E+05         0.00000E+00
    0.14066E+05        -0.59938E+08         0.00000E+00
    0.00000E+00         0.00000E+00        -0.32895E+08
 
   -0.33053E+08         0.29617E+05         0.00000E+00
    0.29617E+05        -0.59975E+08         0.00000E+00
    0.00000E+00         0.00000E+00        -0.32982E+08
 
SCALARS stressS double 
LOOKUP_TABLE default
  -42400481.4659327     
  -42399844.5902803     
  -42398771.6100559     
  -42397255.4640214     
  -42395291.9722287     
  -42392878.6008611     
  -42390013.2846508     
  -42386693.3759370     
  -42382914.7860164     
  -42378671.3751917     
  -42373954.6337166     
  -42368753.6794643     
  -42363055.5801489     
  -42356846.0146908     
  -42350110.1905938     
  -42399602.5460023     
  -42398981.0236560     
  -42397935.2849317     
  -42396456.3705871     
  -42394538.2062343     
  -42392176.3879284     
  -42389367.0372089     
  -42386105.7924467     
  -42382386.9980343     
  -42378203.1430255     
  -42373544.5863514     
  -42368399.5912780     
  -42362754.6748345     
  -42356595.2638117     
  -42349906.6232716     
  -42397844.6822608     
  -42397254.1437472     
  -42396263.3199658     
  -42394859.3815047     
  -42393032.3897824     
  -42390774.1291348     
  -42388077.0319137     
  -42384933.2580815     
  -42381333.9828957     
  -42377268.9333228     
  -42372726.2017390     
  -42367692.3425683     
  -42362152.7768383     
  -42356092.4403452     
  -42349496.6840896     
  -42395207.8355655     
  -42394664.4457052     
  -42393757.0380069     
  -42392466.7948337     
  -42390777.7961835     
  -42388675.9344090     
  -42386147.9565731     
  -42383180.6855253     
  -42379760.4594424     
  -42375872.8163180     
  -42371502.4308629     
  -42366633.3172960     
  -42361249.2477970     
  -42355334.4322449     
  -42348874.3837194     
  -42391691.9697371     
  -42391212.6415537     
  -42390418.2982894     
  -42389281.8039046     
  -42387778.9273811     
  -42385887.3926542     
  -42383586.0991670     
  -42380854.5471490     
  -42377672.4866565     
  -42374019.7929725     
  -42369876.5654409     
  -42365223.4089726     
  -42360041.9880713     
  -42354315.5619510     
  -42348029.8118083     
  -42387297.0816984     
  -42386899.6178561     
  -42386249.3295363     
  -42385308.1640166     
  -42384040.9860988     
  -42382414.8374840     
  -42380398.4133238     
  -42377961.7637044     
  -42375076.2100345     
  -42371714.4540866     
  -42367850.8418433     
  -42363461.7772803     
  -42358526.2377465     
  -42353026.3184998     
  -42346947.9771137     
  -42382023.2459990     
  -42381726.3697838     
  -42381252.4773427     
  -42380549.6986430     
  -42379569.1085418     
  -42378264.2986844     
  -42376591.2065586     
  -42374508.1701090     
  -42371976.1636390     
  -42368959.1613244     
  -42365424.5947679     
  -42361343.8207184     
  -42356692.6287295     
  -42351451.7499326     
  -42345607.3909281     
  -42375870.6782924     
  -42375693.9011982     
  -42375429.8385100     
  -42375009.6012562     
  -42374367.3044090     
  -42373440.0872194     
  -42372168.4076693     
  -42370496.5273942     
  -42368373.1057913     
  -42365751.8241164     
  -42362591.9765652     
  -42358859.0974032     
  -42354525.2693536     
  -42349569.5676794     
  -42343978.3927442     
  -42368839.8238959     
  -42368803.0770741     
  -42368782.7451921     
  -42368689.4795680     
  -42368437.0454596     
  -42367942.9604690     
  -42367129.3771248     
  -42365924.0683987     
  -42364261.3952511     
  -42362083.1872521     
  -42359339.4341190     
  -42355988.8960880     
  -42351999.3666517     
  -42347347.9968697     
  -42342021.2682318     
  -42360931.4714560     
  -42361054.4133415     
  -42361311.0627618     
  -42361588.0903539     
  -42361775.4497562     
  -42361767.8275939     
  -42361466.2423405     
  -42360779.5828013     
  -42359625.9499482     
  -42357933.7248890     
  -42355642.3884575     
  -42352703.0038894     
  -42349078.4284765     
  -42344743.4042966     
  -42339684.2100068     
  -42352146.9025957     
  -42352447.7926477     
  -42353012.2734066     
  -42353699.7345545     
  -42354373.0405364     
  -42354900.9942251     
  -42355160.7758042     
  -42355040.0777382     
  -42354438.8027683     
  -42353270.3017918     
  -42351462.2195827     
  -42348956.8666305     
  -42345711.3991913     
  -42341697.5424935     
  -42336901.0339069     
  -42342488.0806063     
  -42342982.1172782     
  -42343880.3621346     
  -42345012.3374745     
  -42346211.1228754     
  -42347317.0096415     
  -42348180.8985859     
  -42348667.0911154     
  -42348655.3597700     
  -42348042.3383507     
  -42346742.4055928     
  -42344687.9627294     
  -42341829.4959712     
  -42338135.0548741     
  -42333589.2596718     
  -42331957.8840931     
  -42332654.9466146     
  -42333904.6069117     
  -42335505.3590004     
  -42337258.9439100     
  -42338975.2846174     
  -42340476.9632560     
  -42341602.8035997     
  -42342210.4375049     
  -42342177.9304102     
  -42341404.8131322     
  -42339812.2547444     
  -42337343.0170033     
  -42333960.7003798     
  -42329648.1851105     
  -42320560.3916251     
  -42321462.2403923     
  -42323068.5193534     
  -42325147.8672166     
  -42327470.9850595     
  -42329816.7815592     
  -42331978.0480715     
  -42333766.1073222     
  -42335014.2240428     
  -42335579.8249768     
  -42335345.6952884     
  -42334220.3498302     
  -42332137.9098223     
  -42329056.7934079     
  -42324957.3908231     
  -42308301.2200879     
  -42309398.4207330     
  -42311349.3816343     
  -42313897.3612795     
  -42316784.9932171     
  -42319761.2784141     
  -42322588.5639950     
  -42325048.7380998     
  -42326948.1400527     
  -42328121.0040020     
  -42328431.2664037     
  -42327773.6016263     
  -42326072.6621078     
  -42323281.1513872     
  -42319376.1665309     
  -42295187.9065407     
  -42296457.0462899     
  -42298719.0169303     
  -42301700.2006828     
  -42305121.6165715     
  -42308705.9268900     
  -42312185.6581110     
  -42315311.6274952     
  -42317860.3325354     
  -42319639.8689897     
  -42320493.3090923     
  -42320300.2439737     
  -42318975.5616194     
  -42316465.9667550     
  -42312744.3455770     
  -42281230.3035629     
  -42282632.3650740     
  -42285146.4877276     
  -42288494.6652364     
  -42292386.7393788     
  -42296526.0067259     
  -42300618.0228870     
  -42304381.8369346     
  -42307561.4084885     
  -42309935.4828800     
  -42311324.3611053     
  -42311591.8054532     
  -42310642.9277440     
  -42308418.2498151     
  -42304885.1250318     
  -42266440.8709081     
  -42267921.8301377     
  -42270603.1114081     
  -42274217.4612995     
  -42278477.6889646     
  -42283078.9821074     
  -42287706.7922846     
  -42292050.2262799     
  -42295819.4266197     
  -42298761.7410643     
  -42300672.8706622     
  -42301400.2200414     
  -42300838.9603043     
  -42298922.5188407     
  -42295610.3207245     
  -42250834.8987139     
  -42252329.1259134     
  -42255069.3733242     
  -42258813.6300498     
  -42263293.9407053     
  -42268213.2133268     
  -42273249.5731179     
  -42278070.4303307     
  -42282355.6112198     
  -42285821.6297264     
  -42288238.6512934     
  -42289436.3568394     
  -42289297.8311885     
  -42287746.1001274     
  -42284728.0355940     
  -42234430.0100894     
  -42235866.8975266     
  -42238541.9294615     
  -42242248.2495574     
  -42246751.6136195     
  -42251781.4579891     
  -42257029.3557823     
  -42262161.1284450     
  -42266841.3139854     
  -42270762.5721975     
  -42273670.0116967     
  -42275370.8194303     
  -42275728.3745641     
  -42274646.6544912     
  -42272051.8036997     
  -42217246.3601535     
  -42218557.1351882     
  -42221037.6769882     
  -42224516.2051209     
  -42228798.4848230     
  -42233657.3947877     
  -42238828.3675464     
  -42244014.3236614     
  -42248900.1767805     
  -42253176.1923350     
  -42256564.6575494     
  -42258837.7179471     
  -42259820.4567672     
  -42259380.3312111     
  -42257409.5082815     
  -42199303.2365269     
  -42200429.1283527     
  -42202592.7087516     
  -42205643.9804593     
  -42209420.5740048     
  -42213749.4482270     
  -42218446.9384159     
  -42223314.5722307     
  -42228124.3092686     
  -42232609.7144697     
  -42236477.5385085     
  -42239440.8159492     
  -42241250.7629563     
  -42241707.3993619     
  -42240649.5912664     
  -42180616.6020114     
  -42181513.2169134     
  -42183254.5636301     
  -42185676.1022204     
  -42188629.6172175     
  -42191998.0097292     
  -42195720.5596739     
  -42199775.7823605     
  -42204118.5862219     
  -42208601.2060621     
  -42212939.8093889     
  -42216759.6865854     
  -42219682.9732864     
  -42221392.4423090     
  -42221641.6363322     
  -42161211.3684750     
  -42161841.2376939     
  -42163061.3719177     
  -42164642.6031901     
  -42166416.9935123     
  -42168339.1348472     
  -42170522.8128960     
  -42173199.0601199     
  -42176589.6158581     
  -42180756.4823366     
  -42185496.8461659     
  -42190353.9173527     
  -42194757.6121052     
  -42198192.2638569     
  -42200269.7558965     
  -42141114.0840461     
  -42141449.5726809     
  -42142021.8248909     
  -42142494.3620768     
  -42142668.2202480     
  -42142631.2358951     
  -42142750.0566833     
  -42143535.7941852     
  -42145472.7705560     
  -42148883.8192682     
  -42153787.6026074     
  -42159771.6306226     
  -42166064.2000117     
  -42171827.2819239     
  -42176420.7825473     
  -42120333.5620343     
  -42120336.2707727     
  -42120062.5073048     
  -42118998.2293141     
  -42117040.4042769     
  -42114581.8221414     
  -42112310.8374196     
  -42110918.8076900     
  -42111030.2793979     
  -42113177.4854461     
  -42117716.9846426     
  -42124607.4959626     
  -42133096.6390990     
  -42141928.6345633     
  -42149957.5341604     
  -42098889.5655838     
  -42098437.8127247     
  -42096851.4162122     
  -42093537.7977842     
  -42088858.0956341     
  -42083781.2942012     
  -42079144.9314672     
  -42075623.0016847     
  -42073811.8889819     
  -42074316.6741426     
  -42077775.7754521     
  -42084742.0398780     
  -42095252.0756134     
  -42107909.5251094     
  -42120680.4219948     
  -42076813.8846249     
  -42075471.2281544     
  -42071491.7097714     
  -42064843.0898194     
  -42057276.2708869     
  -42049859.4755742     
  -42043256.5774136     
  -42037966.5791858     
  -42034463.7816686     
  -42033298.9124931     
  -42035189.0529385     
  -42041085.0346457     
  -42052092.3872504     
  -42068806.6398330     
  -42088122.4108184     
  -42053907.2283914     
  -42050455.4454540     
  -42041516.0663105     
  -42031505.4082951     
  -42021685.0424260     
  -42012631.0041661     
  -42004703.9916733     
  -41998213.9383688     
  -41993515.7661302     
  -41991067.3371021     
  -41991506.3705313     
  -41995792.6270579     
  -42005460.4034766     
  -42022883.9961425     
  -42051359.1052328     
  -42030633.6308979     
  -42017315.2060678     
  -42004642.6332154     
  -41992778.6273689     
  -41981882.9928386     
  -41972085.7303345     
  -41963555.9775220     
  -41956523.1583241     
  -41951285.1974730     
  -41948233.6840158     
  -41947919.2700541     
  -41951178.4116698     
  -41959391.1488876     
  -41975123.9319855     
  -42003608.3074173     
SCALARS 2waySource double 
LOOKUP_TABLE default
 -3.311020438018922E-004
 -3.310687128572378E-004
 -3.310417516462906E-004
 -3.310213928347999E-004
 -3.310079147824546E-004
 -3.310015499169258E-004
 -3.310024126722438E-004
 -3.310104522822189E-004
 -3.310254345891728E-004
 -3.310469554535941E-004
 -3.310744866077091E-004
 -3.311074530948539E-004
 -3.311453400797149E-004
 -3.311878270112334E-004
 -3.312349434253029E-004
 -3.310729099136544E-004
 -3.310414124331564E-004
 -3.310174418848366E-004
 -3.310009852111726E-004
 -3.309920680475926E-004
 -3.309906683283436E-004
 -3.309966507610137E-004
 -3.310097268724043E-004
 -3.310294440735125E-004
 -3.310552055519021E-004
 -3.310863211742588E-004
 -3.311220882353300E-004
 -3.311618998397577E-004
 -3.312053779545446E-004
 -3.312525278596884E-004
 -3.310191515925369E-004
 -3.309909741812827E-004
 -3.309724524431261E-004
 -3.309631156302449E-004
 -3.309625199274455E-004
 -3.309701725956336E-004
 -3.309854790849820E-004
 -3.310077167070993E-004
 -3.310360369998179E-004
 -3.310694972739445E-004
 -3.311071204029611E-004
 -3.311479808610416E-004
 -3.311913156991315E-004
 -3.312366562160146E-004
 -3.312839763503779E-004
 -3.309405144821469E-004
 -3.309171924799814E-004
 -3.309066203746421E-004
 -3.309076499500460E-004
 -3.309191437693492E-004
 -3.309399161055602E-004
 -3.309686993835711E-004
 -3.310041380630702E-004
 -3.310448100745246E-004
 -3.310892745773778E-004
 -3.311361438522384E-004
 -3.311841766675774E-004
 -3.312323916320398E-004
 -3.312801949786421E-004
 -3.313275263291205E-004
 -3.308366932091694E-004
 -3.308198175870228E-004
 -3.308197393582561E-004
 -3.308344027216075E-004
 -3.308617429879372E-004
 -3.308996517036603E-004
 -3.309459698917192E-004
 -3.309985087140515E-004
 -3.310550951937761E-004
 -3.311136398228144E-004
 -3.311722227958844E-004
 -3.312291959085450E-004
 -3.312832978821336E-004
 -3.313337795067183E-004
 -3.313805400695922E-004
 -3.307073400169502E-004
 -3.306985572208601E-004
 -3.307115503423532E-004
 -3.307431145143718E-004
 -3.307900140577126E-004
 -3.308489808407008E-004
 -3.309167424682733E-004
 -3.309900757584700E-004
 -3.310658810183906E-004
 -3.311412721120931E-004
 -3.312136780080817E-004
 -3.312809535702494E-004
 -3.313414982849853E-004
 -3.313943747979528E-004
 -3.314394386302016E-004
 -3.305520770497859E-004
 -3.305530782536880E-004
 -3.305817276382006E-004
 -3.306334196509074E-004
 -3.307034953618039E-004
 -3.307872850981525E-004
 -3.308801795445244E-004
 -3.309777216002957E-004
 -3.310757117901258E-004
 -3.311703218506302E-004
 -3.312582125227465E-004
 -3.313366539939967E-004
 -3.314036449212247E-004
 -3.314580308416043E-004
 -3.314996196343011E-004
 -3.303705132082157E-004
 -3.303830084513558E-004
 -3.304298594314868E-004
 -3.305048029279611E-004
 -3.306015010060807E-004
 -3.307136398003858E-004
 -3.308350516724721E-004
 -3.309598495639286E-004
 -3.310825648383475E-004
 -3.311982842117358E-004
 -3.313027839597168E-004
 -3.313926620779729E-004
 -3.314654577731445E-004
 -3.315197703513832E-004
 -3.315553579748245E-004
 -3.301622665239985E-004
 -3.301879384105294E-004
 -3.302554222934960E-004
 -3.303565450150079E-004
 -3.304830393273501E-004
 -3.306267105625551E-004
 -3.307796174514997E-004
 -3.309342517660673E-004
 -3.310837094841917E-004
 -3.312218513488919E-004
 -3.313434541855277E-004
 -3.314443555064127E-004
 -3.315215797637158E-004
 -3.315734560277934E-004
 -3.315996962734606E-004
 -3.299269929447833E-004
 -3.299674242746120E-004
 -3.300577502683139E-004
 -3.301876575445010E-004
 -3.303467183898969E-004
 -3.305246357033834E-004
 -3.307114887681044E-004
 -3.308979616571838E-004
 -3.310755494710081E-004
 -3.312367450752006E-004
 -3.313752121929100E-004
 -3.314859445826141E-004
 -3.315654069815001E-004
 -3.316116442601757E-004
 -3.316243328027234E-004
 -3.296644224354371E-004
 -3.297209931257970E-004
 -3.298360021083421E-004
 -3.299968128194993E-004
 -3.301906439983048E-004
 -3.304048997412941E-004
 -3.306274859084350E-004
 -3.308470937368995E-004
 -3.310534484784170E-004
 -3.312375308795586E-004
 -3.313917810369552E-004
 -3.315102800981452E-004
 -3.315889063019199E-004
 -3.316254283628702E-004
 -3.316195197621743E-004
 -3.293744027558021E-004
 -3.294481551199251E-004
 -3.295891347316021E-004
 -3.297822788931816E-004
 -3.300123213445174E-004
 -3.302642072711513E-004
 -3.305234875317853E-004
 -3.307766714693263E-004
 -3.310115364744175E-004
 -3.312174040849354E-004
 -3.313853923359435E-004
 -3.315086288166938E-004
 -3.315824146225181E-004
 -3.316042968946222E-004
 -3.315740038717717E-004
 -3.290569507931744E-004
 -3.291484294023702E-004
 -3.293158973988388E-004
 -3.295418783982621E-004
 -3.298085771490955E-004
 -3.300983687223543E-004
 -3.303942803180703E-004
 -3.306804411600896E-004
 -3.309424908032909E-004
 -3.311679465219032E-004
 -3.313465323146531E-004
 -3.314704305988498E-004
 -3.315344482601533E-004
 -3.315360221931419E-004
 -3.314750288618945E-004
 -3.287123103110657E-004
 -3.288213938847955E-004
 -3.290148676416779E-004
 -3.292729974564466E-004
 -3.295755265227204E-004
 -3.299022129561980E-004
 -3.302334114866536E-004
 -3.305506656244984E-004
 -3.308372785022393E-004
 -3.310788369047748E-004
 -3.312636478538004E-004
 -3.313830481845267E-004
 -3.314315306335514E-004
 -3.314066149351146E-004
 -3.313084515030566E-004
 -3.283410132705720E-004
 -3.284667695376985E-004
 -3.286845530033081E-004
 -3.289726752722549E-004
 -3.293086119679913E-004
 -3.296695433825781E-004
 -3.300330446869526E-004
 -3.303778818197406E-004
 -3.306848396657561E-004
 -3.309374953120668E-004
 -3.311228145712093E-004
 -3.312315187487402E-004
 -3.312580886100971E-004
 -3.312003986840316E-004
 -3.310590126856592E-004
 -3.279439396271082E-004
 -3.280845437109119E-004
 -3.283235760811494E-004
 -3.286377998978095E-004
 -3.290027394928075E-004
 -3.293931524983724E-004
 -3.297838183508041E-004
 -3.301506061223294E-004
 -3.304716824718662E-004
 -3.307286491350776E-004
 -3.309073739381430E-004
 -3.309983496449253E-004
 -3.309964657626691E-004
 -3.309002586696814E-004
 -3.307107950854930E-004
 -3.275223657789556E-004
 -3.276751232733198E-004
 -3.279309344577700E-004
 -3.282654133459216E-004
 -3.286525236651028E-004
 -3.290649023320866E-004
 -3.294746999994277E-004
 -3.298549689754696E-004
 -3.301813785062905E-004
 -3.304338327093298E-004
 -3.305975738690118E-004
 -3.306634175896294E-004
 -3.306271203175829E-004
 -3.304881037162667E-004
 -3.302478809479871E-004
 -3.270780002543260E-004
 -3.272394750475129E-004
 -3.275062852146540E-004
 -3.278530819522481E-004
 -3.282526180243829E-004
 -3.286758596350953E-004
 -3.290928207659399E-004
 -3.294742602299593E-004
 -3.297939537199496E-004
 -3.300308411234873E-004
 -3.301702930983305E-004
 -3.302040602087558E-004
 -3.301290636918925E-004
 -3.299455487686503E-004
 -3.296551474248076E-004
 -3.266129448405684E-004
 -3.267792125007537E-004
 -3.270501530245391E-004
 -3.273992119553563E-004
 -3.277980298671344E-004
 -3.282164242246994E-004
 -3.286232649716435E-004
 -3.289883967486923E-004
 -3.292852626508474E-004
 -3.294932910435102E-004
 -3.295989979544737E-004
 -3.295954620242319E-004
 -3.294805580599750E-004
 -3.292547470560440E-004
 -3.289190738696852E-004
 -3.261297411384671E-004
 -3.262965288333315E-004
 -3.265639042852898E-004
 -3.269031145285114E-004
 -3.272841859983146E-004
 -3.276762568778185E-004
 -3.280487557206323E-004
 -3.283734268647780E-004
 -3.286265663965078E-004
 -3.287905582338662E-004
 -3.288541425285132E-004
 -3.288114003214379E-004
 -3.286599837785465E-004
 -3.283991970800498E-004
 -3.280283919963321E-004
 -3.256311873391749E-004
 -3.257940534042506E-004
 -3.260494405516800E-004
 -3.263644776684217E-004
 -3.267062983630222E-004
 -3.270436138191302E-004
 -3.273491094682533E-004
 -3.276013381395462E-004
 -3.277848297685644E-004
 -3.278885567276614E-004
 -3.279042081931815E-004
 -3.278252668431927E-004
 -3.276466553418970E-004
 -3.273643061667155E-004
 -3.269743806989534E-004
 -3.251202842898886E-004
 -3.252745279731527E-004
 -3.255084606515462E-004
 -3.257820455808022E-004
 -3.260574191251545E-004
 -3.263034283858944E-004
 -3.265003147208595E-004
 -3.266406909944148E-004
 -3.267246148633531E-004
 -3.267519457763994E-004
 -3.267174423159390E-004
 -3.266110711888550E-004
 -3.264212345543178E-004
 -3.261373975358651E-004
 -3.257507132213594E-004
 -3.246002727622284E-004
 -3.247405144429067E-004
 -3.249412809142305E-004
 -3.251508077159930E-004
 -3.253243345925224E-004
 -3.254334767090937E-004
 -3.254733068050446E-004
 -3.254589607092460E-004
 -3.254125316884293E-004
 -3.253482176510731E-004
 -3.252641453469265E-004
 -3.251440364885288E-004
 -3.249653445952892E-004
 -3.247070558161704E-004
 -3.243528188086464E-004
 -3.240750021949894E-004
 -3.241941178243697E-004
 -3.243445617777079E-004
 -3.244571235399337E-004
 -3.244806708890824E-004
 -3.243989452197577E-004
 -3.242332514505679E-004
 -3.240270071296126E-004
 -3.238242157683872E-004
 -3.236536075609420E-004
 -3.235194583130081E-004
 -3.234005275510960E-004
 -3.232601976915213E-004
 -3.230616004177698E-004
 -3.227768513084587E-004
 -3.235486854590606E-004
 -3.236361303106117E-004
 -3.237069463840573E-004
 -3.236693461740484E-004
 -3.234774516012610E-004
 -3.231485003005610E-004
 -3.227420207018118E-004
 -3.223245890545206E-004
 -3.219511768580924E-004
 -3.216601547366338E-004
 -3.214677142342773E-004
 -3.213582639516698E-004
 -3.212842250409507E-004
 -3.211866443637334E-004
 -3.210182813237472E-004
 -3.230266158460431E-004
 -3.230624596523476E-004
 -3.229969280000067E-004
 -3.227217289725878E-004
 -3.222353605046950E-004
 -3.216194359905538E-004
 -3.209657542745832E-004
 -3.203432166282747E-004
 -3.198018062458735E-004
 -3.193808655472034E-004
 -3.191105708419853E-004
 -3.189996368978437E-004
 -3.190105780061833E-004
 -3.190610400454673E-004
 -3.190699612024883E-004
 -3.225163793506992E-004
 -3.224522473807085E-004
 -3.221329625030947E-004
 -3.214930700548785E-004
 -3.206544973706245E-004
 -3.197564970040280E-004
 -3.188831574935248E-004
 -3.180839383387342E-004
 -3.173939899040675E-004
 -3.168461028065048E-004
 -3.164771338208520E-004
 -3.163261543030402E-004
 -3.164075791141980E-004
 -3.166505370525559E-004
 -3.169184463827088E-004
 -3.220218560682101E-004
 -3.217215179001615E-004
 -3.209229637282164E-004
 -3.198199389365066E-004
 -3.186545806146448E-004
 -3.175289715503176E-004
 -3.164866110988891E-004
 -3.155518577963225E-004
 -3.147447910007318E-004
 -3.140890655605223E-004
 -3.136186813998945E-004
 -3.133856737965531E-004
 -3.134630496126435E-004
 -3.138954008785323E-004
 -3.145371995103035E-004
 -3.215014460125521E-004
 -3.205409555774357E-004
 -3.190710234490609E-004
 -3.175913516852009E-004
 -3.162029658086386E-004
 -3.149283030271182E-004
 -3.137755653502350E-004
 -3.127510510872224E-004
 -3.118644165484007E-004
 -3.111320946142344E-004
 -3.105819417537510E-004
 -3.102623399261050E-004
 -3.102610290697595E-004
 -3.107370449675711E-004
 -3.118476519839044E-004
 -3.202829080542014E-004
 -3.182649484280828E-004
 -3.164333764492374E-004
 -3.147847017898171E-004
 -3.132960706957224E-004
 -3.119534841024036E-004
 -3.107490072862710E-004
 -3.096810772440831E-004
 -3.087549314894495E-004
 -3.079832661699612E-004
 -3.073900604406578E-004
 -3.070184598556431E-004
 -3.069485300741704E-004
 -3.073498854508298E-004
 -3.086671734680315E-004
SCALARS poroP double 
LOOKUP_TABLE default
  9.117960351046415E-006
  9.030115917153961E-006
  8.943627988279629E-006
  8.858593067006723E-006
  8.775161286476579E-006
  8.693525035738289E-006
  8.613907550554876E-006
  8.536551980124004E-006
  8.461711449313141E-006
  8.389640596661658E-006
  8.320588990983483E-006
  8.254796719261043E-006
  8.192492373695257E-006
  8.133893323280342E-006
  8.079208201152921E-006
  9.117952656003040E-006
  9.030288408125971E-006
  8.944020916703520E-006
  8.859241654546686E-006
  8.776096169742687E-006
  8.694772390070816E-006
  8.615488953706789E-006
  8.538484098315993E-006
  8.464005635752967E-006
  8.392302486649686E-006
  8.323618158444076E-006
  8.258186450637444E-006
  8.196229553096964E-006
  8.137958363533142E-006
  8.083574924378164E-006
  9.117849532732053E-006
  9.030559670984046E-006
  8.944747572709927E-006
  8.860494230308385E-006
  8.777935536561794E-006
  8.697249978550905E-006
  8.618646482971263E-006
  8.542352987912609E-006
  8.468606278703813E-006
  8.397643544090277E-006
  8.329695985495460E-006
  8.264984719870738E-006
  8.203719166979948E-006
  8.146097406177812E-006
  8.092308342664999E-006
  9.117474470400119E-006
  9.030781479708090E-006
  8.945688970850286E-006
  8.862261152563161E-006
  8.780618213893500E-006
  8.700923183638609E-006
  8.623369140026409E-006
  8.548167399484940E-006
  8.475537227358713E-006
  8.405697486592242E-006
  8.338860491391273E-006
  8.275228223846059E-006
  8.214990967920257E-006
  8.158327551276825E-006
  8.105407756426203E-006
  9.116560244111464E-006
  9.030729639633939E-006
  8.946665242756805E-006
  8.864406872928407E-006
  8.784051482334339E-006
  8.705739066527777E-006
  8.629639209325927E-006
  8.555938935517010E-006
  8.484832398394044E-006
  8.416512749668959E-006
  8.351166351226083E-006
  8.288969554353238E-006
  8.230087000798956E-006
  8.174672289328892E-006
  8.122870793486034E-006
  9.114746404117829E-006
  9.030102084039139E-006
  8.947434161838819E-006
  8.866748688216352E-006
  8.788109842613662E-006
  8.711624949883495E-006
  8.637430500932949E-006
  8.565679862659903E-006
  8.496533155580919E-006
  8.430149520413631E-006
  8.366681793578064E-006
  8.306273673361665E-006
  8.249058509719071E-006
  8.195159390471623E-006
  8.144691754814177E-006
  9.111576702727556E-006
  9.028516891500079E-006
  8.947689491375797E-006
  8.869055146949906E-006
  8.792633210178888E-006
  8.718486171475560E-006
  8.646705513670180E-006
  8.577399640999136E-006
  8.510684246037788E-006
  8.446675206394526E-006
  8.385483845885721E-006
  8.327214406259265E-006
  8.271962992738234E-006
  8.219817446934716E-006
  8.170859241357987E-006
  9.106497195409937E-006
  9.025510736213990E-006
  8.947059415442411E-006
  8.871044129386025E-006
  8.797424354266410E-006
  8.726202674782944E-006
  8.657411096554100E-006
  8.591099725812247E-006
  8.527327995736450E-006
  8.466158333535026E-006
  8.407652316605076E-006
  8.351867985435963E-006
  8.298858325420014E-006
  8.248671981809555E-006
  8.201353679454286E-006
  9.098856055182097E-006
  9.020538443258199E-006
  8.945105367303946E-006
  8.872380581679319E-006
  8.802245304707624E-006
  8.734624001940568E-006
  8.669472109452450E-006
  8.606766132985679E-006
  8.546496131778598E-006
  8.488660254166335E-006
  8.433261450426518E-006
  8.380304977951560E-006
  8.329796124719450E-006
  8.281740634182152E-006
  8.236144361755145E-006
  9.087906526204776E-006
  9.012974522418799E-006
  8.941321609316857E-006
  8.872673840709235E-006
  8.806812362384918E-006
  8.743562168288582E-006
  8.682782536134283E-006
  8.624359310699523E-006
  8.568198937160841E-006
  8.514224022667877E-006
  8.462369942602818E-006
  8.412582184236082E-006
  8.364814371853196E-006
  8.319027000837417E-006
  8.275185797912769E-006
  9.072814820392596E-006
  9.002117801495927E-006
  8.935136007853016E-006
  8.871474468073175E-006
  8.810789312643009E-006
  8.752781885578206E-006
  8.697193522430208E-006
  8.643800853078853E-006
  8.592411552268676E-006
  8.542860681956629E-006
  8.495007191045354E-006
  8.448730460280168E-006
  8.403928235494317E-006
  8.360513881421798E-006
  8.318413668950833E-006
  9.052675220098927E-006
  8.987200528630014E-006
  8.925912601712405E-006
  8.868270610987802E-006
  8.813778549635514E-006
  8.761987750931943E-006
  8.712497996700908E-006
  8.664956787575897E-006
  8.619056889496931E-006
  8.574533247319178E-006
  8.531159126329999E-006
  8.488741470307080E-006
  8.447117805308681E-006
  8.406153859940077E-006
  8.365740096356062E-006
  9.026534993278429E-006
  8.967403640544436E-006
  8.912956896835107E-006
  8.862484257685247E-006
  8.815310153614267E-006
  8.770808363219098E-006
  8.728411894775325E-006
  8.687617525993158E-006
  8.647985582302049E-006
  8.609137198502503E-006
  8.570749573888139E-006
  8.532549960318392E-006
  8.494313138302343E-006
  8.455859289384884E-006
  8.417049109677505E-006
  8.993431726844712E-006
  8.941880223893520E-006
  8.895525452483479E-006
  8.853468574126629E-006
  8.814829757697448E-006
  8.778777922254801E-006
  8.744552362717228E-006
  8.711474710681875E-006
  8.678952486362993E-006
  8.646476981274741E-006
  8.613616927178124E-006
  8.580013276327150E-006
  8.545377745120655E-006
  8.509489879499969E-006
  8.472191195479682E-006
  8.952444989139427E-006
  8.909789428719393E-006
  8.872842346933435E-006
  8.840508937052752E-006
  8.811687471788473E-006
  8.785316858272894E-006
  8.760413597149763E-006
  8.736094885367130E-006
  8.711589579251228E-006
  8.686238568070148E-006
  8.659487823871536E-006
  8.630886609848048E-006
  8.600086535979599E-006
  8.566837010112513E-006
  8.530977592367762E-006
  8.902762358602520E-006
  8.870342953880547E-006
  8.844126438718941E-006
  8.822832354766542E-006
  8.805132227654938E-006
  8.789714741139629E-006
  8.775341952904333E-006
  8.760890082479735E-006
  8.745374488699438E-006
  8.727956658448053E-006
  8.707943755963559E-006
  8.684791047656248E-006
  8.658098918018026E-006
  8.627605781501505E-006
  8.593175140646003E-006
  8.843756446273367E-006
  8.822865177866327E-006
  8.808634451100373E-006
  8.799632441210088E-006
  8.794318472266954E-006
  8.791120530769797E-006
  8.788512994322516E-006
  8.785085069184064E-006
  8.779590083022611E-006
  8.770971117977156E-006
  8.758378019484177E-006
  8.741173923127590E-006
  8.718927072352637E-006
  8.691395491917219E-006
  8.658502435576162E-006
  8.775064505560876E-006
  8.766865452562351E-006
  8.765724614091188E-006
  8.770118874117842E-006
  8.778335124058844E-006
  8.788547481632237E-006
  8.798913626813688E-006
  8.807680486220540E-006
  8.813274332011987E-006
  8.814369867786368E-006
  8.809938716955249E-006
  8.799259562888058E-006
  8.781899939990673E-006
  8.757680493692975E-006
  8.726628509819616E-006
  8.696657840137493E-006
  8.702116472902990E-006
  8.714942124689167E-006
  8.733599127762038E-006
  8.756268571584284E-006
  8.780903979664421E-006
  8.805334713549996E-006
  8.827409313937499E-006
  8.845151839795282E-006
  8.856910518731255E-006
  8.861454068106940E-006
  8.857989858754429E-006
  8.846125385909505E-006
  8.825794375275304E-006
  8.797175111062034E-006
  8.608883624628934E-006
  8.628727159571505E-006
  8.656120239574695E-006
  8.689594134912002E-006
  8.727308942531113E-006
  8.767063395046749E-006
  8.806382395364309E-006
  8.842687491042516E-006
  8.873542760603017E-006
  8.896914167946199E-006
  8.911337165408420E-006
  8.915956306949070E-006
  8.910453843974207E-006
  8.894919993687504E-006
  8.869722856852598E-006
  8.512462403632039E-006
  8.547190292158446E-006
  8.589479010675838E-006
  8.637977568443929E-006
  8.690900344642358E-006
  8.745980559768336E-006
  8.800519640412196E-006
  8.851568634073769E-006
  8.896251846049760E-006
  8.932131360064661E-006
  8.957471668327543E-006
  8.971326498273636E-006
  8.973445455189291E-006
  8.964084660599671E-006
  8.943818836409191E-006
  8.408437508463799E-006
  8.458391122039988E-006
  8.515695493768641E-006
  8.579106906733246E-006
  8.646908632453718E-006
  8.716844546336479E-006
  8.786149186363367E-006
  8.851725502727939E-006
  8.910460681450440E-006
  8.959599474838639E-006
  8.997087925847269E-006
  9.021765633880016E-006
  9.033334303724836E-006
  9.032151967458598E-006
  9.018981313410863E-006
  8.298089029900339E-006
  8.363574168702886E-006
  8.435933430070551E-006
  8.513901747336491E-006
  8.595737515619608E-006
  8.679211814201899E-006
  8.761730708350169E-006
  8.840508280542618E-006
  8.912702093752231E-006
  8.975549198178144E-006
  9.026646859661689E-006
  9.064339915466217E-006
  9.087968332089763E-006
  9.097792826051332E-006
  9.094690607202206E-006
  8.182814791153237E-006
  8.264288732058999E-006
  8.351811869599010E-006
  8.443817854540870E-006
  8.538292020482829E-006
  8.633003964130575E-006
  8.725882305547733E-006
  8.815154333268759E-006
  8.899071520016459E-006
  8.975481616295200E-006
  9.041760095630741E-006
  9.095366400782082E-006
  9.134674719693163E-006
  9.159398496615395E-006
  9.170357470075729E-006
  8.064005025649895E-006
  8.162315585133535E-006
  8.265325863849196E-006
  8.370647998488353E-006
  8.475644311194297E-006
  8.578206881379945E-006
  8.677379089367348E-006
  8.773210117642346E-006
  8.865866810099183E-006
  8.954627315668833E-006
  9.037237991539758E-006
  9.110157778687758E-006
  9.169953252125625E-006
  9.214873236437406E-006
  9.245251990261027E-006
  7.943142938887313E-006
  8.059715320753723E-006
  8.178689860853808E-006
  8.296013180777601E-006
  8.408264914864334E-006
  8.514222693810102E-006
  8.615036888795847E-006
  8.713068128404191E-006
  8.810635110728117E-006
  8.909030280773391E-006
  9.007548795263238E-006
  9.102701951059421E-006
  9.188855886678612E-006
  9.261194568737483E-006
  9.318351001219681E-006
  7.821864470263262E-006
  7.959037155259048E-006
  8.094009255244744E-006
  8.220278578267683E-006
  8.334789041211955E-006
  8.439251275840067E-006
  8.537674472009539E-006
  8.634324556476791E-006
  8.733082123491173E-006
  8.837135783057316E-006
  8.948343847852678E-006
  9.065811427879585E-006
  9.183931054832659E-006
  9.293367078663753E-006
  9.388008399834953E-006
  7.702270205767221E-006
  7.863298515121900E-006
  8.011936523476150E-006
  8.140408134349535E-006
  8.251139955939542E-006
  8.350475470819124E-006
  8.444312937549635E-006
  8.537671372632110E-006
  8.635045656036980E-006
  8.740784771312983E-006
  8.859161018959303E-006
  8.993632994706073E-006
  9.144255085442021E-006
  9.302116925064459E-006
  9.450927344895833E-006
  7.587211241757067E-006
  7.774837358466642E-006
  7.926776062894545E-006
  8.048314310119212E-006
  8.151719142694927E-006
  8.245158180629211E-006
  8.334446507794871E-006
  8.424368776922530E-006
  8.519412030386522E-006
  8.624332101920953E-006
  8.744691496516907E-006
  8.887296861099968E-006
  9.060001186547271E-006
  9.268349789351557E-006
  9.498572776467065E-006
  7.485043326154025E-006
  7.682327161727861E-006
  7.822021148147024E-006
  7.934603816172561E-006
  8.032184639024963E-006
  8.121678463103789E-006
  8.208062427468038E-006
  8.295656382332965E-006
  8.388798603683764E-006
  8.492312555217916E-006
  8.612079401226382E-006
  8.756075136727863E-006
  8.936339202927454E-006
  9.172769491436275E-006
  9.500061601643627E-006
SCALARS elementIsPlast double 
LOOKUP_TABLE default
   1.00000000000000     
   1.00000000000000     
   1.00000000000000     
   1.00000000000000     
   1.00000000000000     
   1.00000000000000     
   1.00000000000000     
   1.00000000000000     
   1.00000000000000     
   1.00000000000000     
   1.00000000000000     
   1.00000000000000     
   1.00000000000000     
   1.00000000000000     
   1.00000000000000     
   1.00000000000000     
   1.00000000000000     
   1.00000000000000     
   1.00000000000000     
   1.00000000000000     
   1.00000000000000     
   1.00000000000000     
   1.00000000000000     
   1.00000000000000     
   1.00000000000000     
   1.00000000000000     
   1.00000000000000     
   1.00000000000000     
   1.00000000000000     
   1.00000000000000     
   1.00000000000000     
   1.00000000000000     
   1.00000000000000     
   1.00000000000000     
   1.00000000000000     
   1.00000000000000     
   1.00000000000000     
   1.00000000000000     
   1.00000000000000     
   1.00000000000000     
   1.00000000000000     
   1.00000000000000     
   1.00000000000000     
   1.00000000000000     
   1.00000000000000     
   1.00000000000000     
   1.00000000000000     
   1.00000000000000     
   1.00000000000000     
   1.00000000000000     
   1.00000000000000     
   1.00000000000000     
   1.00000000000000     
   1.00000000000000     
   1.00000000000000     
   1.00000000000000     
   1.00000000000000     
   1.00000000000000     
   1.00000000000000     
   1.00000000000000     
   1.00000000000000     
   1.00000000000000     
   1.00000000000000     
   1.00000000000000     
   1.00000000000000     
   1.00000000000000     
   1.00000000000000     
   1.00000000000000     
   1.00000000000000     
   1.00000000000000     
   1.00000000000000     
   1.00000000000000     
   1.00000000000000     
   1.00000000000000     
   1.00000000000000     
   1.00000000000000     
   1.00000000000000     
   1.00000000000000     
   1.00000000000000     
   1.00000000000000     
   1.00000000000000     
   1.00000000000000     
   1.00000000000000     
   1.00000000000000     
   1.00000000000000     
   1.00000000000000     
   1.00000000000000     
   1.00000000000000     
   1.00000000000000     
   1.00000000000000     
   1.00000000000000     
   1.00000000000000     
   1.00000000000000     
   1.00000000000000     
   1.00000000000000     
   1.00000000000000     
   1.00000000000000     
   1.00000000000000     
   1.00000000000000     
   1.00000000000000     
   1.00000000000000     
   1.00000000000000     
   1.00000000000000     
   1.00000000000000     
   1.00000000000000     
   1.00000000000000     
   1.00000000000000     
   1.00000000000000     
   1.00000000000000     
   1.00000000000000     
   1.00000000000000     
   1.00000000000000     
   1.00000000000000     
   1.00000000000000     
   1.00000000000000     
   1.00000000000000     
   1.00000000000000     
   1.00000000000000     
   1.00000000000000     
   1.00000000000000     
   1.00000000000000     
   1.00000000000000     
   1.00000000000000     
   1.00000000000000     
   1.00000000000000     
   1.00000000000000     
   1.00000000000000     
   1.00000000000000     
   1.00000000000000     
   1.00000000000000     
   1.00000000000000     
   1.00000000000000     
   1.00000000000000     
   1.00000000000000     
   1.00000000000000     
   1.00000000000000     
   1.00000000000000     
   1.00000000000000     
   1.00000000000000     
   1.00000000000000     
   1.00000000000000     
   1.00000000000000     
   1.00000000000000     
   1.00000000000000     
   1.00000000000000     
   1.00000000000000     
   1.00000000000000     
   1.00000000000000     
   1.00000000000000     
   1.00000000000000     
   1.00000000000000     
   1.00000000000000     
   1.00000000000000     
   1.00000000000000     
   1.00000000000000     
   1.00000000000000     
   1.00000000000000     
   1.00000000000000     
   1.00000000000000     
   1.00000000000000     
   1.00000000000000     
   1.00000000000000     
   1.00000000000000     
   1.00000000000000     
   1.00000000000000     
   1.00000000000000     
   1.00000000000000     
   1.00000000000000     
   1.00000000000000     
   1.00000000000000     
   1.00000000000000     
   1.00000000000000     
   1.00000000000000     
   1.00000000000000     
   1.00000000000000     
   1.00000000000000     
   1.00000000000000     
   1.00000000000000     
   1.00000000000000     
   1.00000000000000     
   1.00000000000000     
   1.00000000000000     
   1.00000000000000     
   1.00000000000000     
   1.00000000000000     
   1.00000000000000     
   1.00000000000000     
   1.00000000000000     
   1.00000000000000     
   1.00000000000000     
   1.00000000000000     
   1.00000000000000     
   1.00000000000000     
   1.00000000000000     
   1.00000000000000     
   1.00000000000000     
   1.00000000000000     
   1.00000000000000     
   1.00000000000000     
   1.00000000000000     
   1.00000000000000     
   1.00000000000000     
   1.00000000000000     
   1.00000000000000     
   1.00000000000000     
   1.00000000000000     
   1.00000000000000     
   1.00000000000000     
   1.00000000000000     
   1.00000000000000     
   1.00000000000000     
   1.00000000000000     
   1.00000000000000     
   1.00000000000000     
   1.00000000000000     
   1.00000000000000     
   1.00000000000000     
   1.00000000000000     
   1.00000000000000     
   1.00000000000000     
   1.00000000000000     
   1.00000000000000     
   1.00000000000000     
   1.00000000000000     
   1.00000000000000     
   1.00000000000000     
   1.00000000000000     
   1.00000000000000     
   1.00000000000000     
   1.00000000000000     
   1.00000000000000     
   1.00000000000000     
   1.00000000000000     
   1.00000000000000     
   1.00000000000000     
   1.00000000000000     
   1.00000000000000     
   1.00000000000000     
   1.00000000000000     
   1.00000000000000     
   1.00000000000000     
   1.00000000000000     
   1.00000000000000     
   1.00000000000000     
   1.00000000000000     
   1.00000000000000     
   1.00000000000000     
   1.00000000000000     
   1.00000000000000     
   1.00000000000000     
   1.00000000000000     
   1.00000000000000     
   1.00000000000000     
   1.00000000000000     
   1.00000000000000     
   1.00000000000000     
   1.00000000000000     
   1.00000000000000     
   1.00000000000000     
   1.00000000000000     
   1.00000000000000     
   1.00000000000000     
   1.00000000000000     
   1.00000000000000     
   1.00000000000000     
   1.00000000000000     
   1.00000000000000     
   1.00000000000000     
   1.00000000000000     
   1.00000000000000     
   1.00000000000000     
   1.00000000000000     
   1.00000000000000     
   1.00000000000000     
   1.00000000000000     
   1.00000000000000     
   1.00000000000000     
   1.00000000000000     
   1.00000000000000     
   1.00000000000000     
   1.00000000000000     
   1.00000000000000     
   1.00000000000000     
   1.00000000000000     
   1.00000000000000     
   1.00000000000000     
   1.00000000000000     
   1.00000000000000     
   1.00000000000000     
   1.00000000000000     
   1.00000000000000     
   1.00000000000000     
   1.00000000000000     
   1.00000000000000     
   1.00000000000000     
   1.00000000000000     
   1.00000000000000     
   1.00000000000000     
   1.00000000000000     
   1.00000000000000     
   1.00000000000000     
   1.00000000000000     
   1.00000000000000     
   1.00000000000000     
   1.00000000000000     
   1.00000000000000     
   1.00000000000000     
   1.00000000000000     
   1.00000000000000     
   1.00000000000000     
   1.00000000000000     
   1.00000000000000     
   1.00000000000000     
   1.00000000000000     
   1.00000000000000     
   1.00000000000000     
   1.00000000000000     
   1.00000000000000     
   1.00000000000000     
   1.00000000000000     
   1.00000000000000     
   1.00000000000000     
   1.00000000000000     
   1.00000000000000     
   1.00000000000000     
   1.00000000000000     
   1.00000000000000     
   1.00000000000000     
   1.00000000000000     
   1.00000000000000     
   1.00000000000000     
   1.00000000000000     
   1.00000000000000     
   1.00000000000000     
   1.00000000000000     
   1.00000000000000     
   1.00000000000000     
   1.00000000000000     
   1.00000000000000     
   1.00000000000000     
   1.00000000000000     
   1.00000000000000     
   1.00000000000000     
   1.00000000000000     
   1.00000000000000     
   1.00000000000000     
   1.00000000000000     
   1.00000000000000     
   1.00000000000000     
   1.00000000000000     
   1.00000000000000     
   1.00000000000000     
   1.00000000000000     
   1.00000000000000     
   1.00000000000000     
   1.00000000000000     
   1.00000000000000     
   1.00000000000000     
   1.00000000000000     
   1.00000000000000     
   1.00000000000000     
   1.00000000000000     
   1.00000000000000     
   1.00000000000000     
   1.00000000000000     
   1.00000000000000     
   1.00000000000000     
   1.00000000000000     
   1.00000000000000     
   1.00000000000000     
   1.00000000000000     
   1.00000000000000     
   1.00000000000000     
   1.00000000000000     
   1.00000000000000     
   1.00000000000000     
   1.00000000000000     
   1.00000000000000     
   1.00000000000000     
   1.00000000000000     
   1.00000000000000     
   1.00000000000000     
   1.00000000000000     
   1.00000000000000     
   1.00000000000000     
   1.00000000000000     
   1.00000000000000     
   1.00000000000000     
   1.00000000000000     
   1.00000000000000     
   1.00000000000000     
   1.00000000000000     
   1.00000000000000     
   1.00000000000000     
   1.00000000000000     
   1.00000000000000     
   1.00000000000000     
   1.00000000000000     
   1.00000000000000     
   1.00000000000000     
   1.00000000000000     
   1.00000000000000     
   1.00000000000000     
   1.00000000000000     
   1.00000000000000     
   1.00000000000000     
   1.00000000000000     
   1.00000000000000     
   1.00000000000000     
   1.00000000000000     
   1.00000000000000     
   1.00000000000000     
   1.00000000000000     
   1.00000000000000     
   1.00000000000000     
   1.00000000000000     
   1.00000000000000     
   1.00000000000000     
   1.00000000000000     
   1.00000000000000     
   1.00000000000000     
   1.00000000000000     
   1.00000000000000     
   1.00000000000000     
   1.00000000000000     
   1.00000000000000     
   1.00000000000000     
   1.00000000000000     
   1.00000000000000     
   1.00000000000000     
   1.00000000000000     
   1.00000000000000     
   1.00000000000000     
   1.00000000000000     
   1.00000000000000     
   1.00000000000000     
   1.00000000000000     
   1.00000000000000     
   1.00000000000000     
   1.00000000000000     
   1.00000000000000     
   1.00000000000000     
   1.00000000000000     
   1.00000000000000     
   1.00000000000000     
   1.00000000000000     
   1.00000000000000     
   1.00000000000000     
   1.00000000000000     
   1.00000000000000     
SCALARS poroL double 
LOOKUP_TABLE default
  0.155838137628271     
  0.155838054623255     
  0.155837976281462     
  0.155837902764977     
  0.155837834266984     
  0.155837771009724     
  0.155837713241984     
  0.155837661236086     
  0.155837615284397     
  0.155837575695408     
  0.155837542789448     
  0.155837516894153     
  0.155837498339822     
  0.155837487454470     
  0.155837484559110     
  0.155838115030951     
  0.155838032087909     
  0.155837953756790     
  0.155837880209261     
  0.155837811648512     
  0.155837748306732     
  0.155837690442079     
  0.155837638335171     
  0.155837592285136     
  0.155837552605307     
  0.155837519618671     
  0.155837493653157     
  0.155837475036911     
  0.155837464093422     
  0.155837461136685     
  0.155838069750908     
  0.155837986943710     
  0.155837908645154     
  0.155837835046226     
  0.155837766370220     
  0.155837702869247     
  0.155837644820178     
  0.155837592520129     
  0.155837546281614     
  0.155837506427516     
  0.155837473285973     
  0.155837447185395     
  0.155837428449603     
  0.155837417393065     
  0.155837414316004     
  0.155838001616231     
  0.155837919042942     
  0.155837840821759     
  0.155837767172979     
  0.155837698350255     
  0.155837634635622     
  0.155837576333896     
  0.155837523766687     
  0.155837477266248     
  0.155837437169399     
  0.155837403811713     
  0.155837377522030     
  0.155837358617739     
  0.155837347399660     
  0.155837344147683     
  0.155837910366426     
  0.155837828162423     
  0.155837750098986     
  0.155837676436050     
  0.155837607468021     
  0.155837543516805     
  0.155837484924167     
  0.155837432043820     
  0.155837385233646     
  0.155837344848359     
  0.155837311232810     
  0.155837284716458     
  0.155837265607280     
  0.155837254188204     
  0.155837250713451     
  0.155837795649680     
  0.155837714001926     
  0.155837636226215     
  0.155837562632721     
  0.155837493567018     
  0.155837429400589     
  0.155837370520681     
  0.155837317320117     
  0.155837270187644     
  0.155837229499193     
  0.155837195610379     
  0.155837168850339     
  0.155837149516440     
  0.155837137870067     
  0.155837134133413     
  0.155837657019959     
  0.155837576182721     
  0.155837498890120     
  0.155837425513235     
  0.155837356458944     
  0.155837292157432     
  0.155837233049147     
  0.155837179572115     
  0.155837132150303     
  0.155837091183556     
  0.155837057039180     
  0.155837030045688     
  0.155837010487718     
  0.155836998601901     
  0.155836994574565     
  0.155837493934624     
  0.155837414246796     
  0.155837337715926     
  0.155837264784261     
  0.155837195929303     
  0.155837131647944     
  0.155837072440290     
  0.155837018794403     
  0.155836971172762     
  0.155836930000956     
  0.155836895659143     
  0.155836868474404     
  0.155836848716745     
  0.155836836596312     
  0.155836832261188     
  0.155837305753580     
  0.155837227657562     
  0.155837152270214     
  0.155837080113988     
  0.155837011744671     
  0.155836947732000     
  0.155836888640357     
  0.155836835011066     
  0.155836787347231     
  0.155836746101324     
  0.155836711666416     
  0.155836684368866     
  0.155836664463917     
  0.155836652133556     
  0.155836647486334     
  0.155837091741362     
  0.155837015803015     
  0.155836942065912     
  0.155836871139189     
  0.155836803661686     
  0.155836740279272     
  0.155836681622733     
  0.155836628287977     
  0.155836580819544     
  0.155836539697763     
  0.155836505328901     
  0.155836478038665     
  0.155836458068506     
  0.155836445573593     
  0.155836440623825     
  0.155836851073891     
  0.155836778002559     
  0.155836706570127     
  0.155836637474408     
  0.155836571437497     
  0.155836509180641     
  0.155836451399980     
  0.155836398745184     
  0.155836351801921     
  0.155836311078492     
  0.155836276995663     
  0.155836249880226     
  0.155836229961460     
  0.155836217370463     
  0.155836212141709     
  0.155836582852135     
  0.155836513518790     
  0.155836445215284     
  0.155836378723086     
  0.155836314841073     
  0.155836254359632     
  0.155836198035345     
  0.155836146568531     
  0.155836100584640     
  0.155836060620280     
  0.155836027112397     
  0.155836000391379     
  0.155835980677393     
  0.155835968081976     
  0.155835962612199     
  0.155836286125232     
  0.155836221575553     
  0.155836157413732     
  0.155836094489889     
  0.155836033664101     
  0.155835975782524     
  0.155835921652540     
  0.155835872019478     
  0.155835827546411     
  0.155835788798721     
  0.155835756231249     
  0.155835730180839     
  0.155835710864076     
  0.155835698380921     
  0.155835692721824     
  0.155835959925637     
  0.155835901383385     
  0.155835842575470     
  0.155835784392853     
  0.155835727729672     
  0.155835673465380     
  0.155835622442414     
  0.155835575442127     
  0.155835533161870     
  0.155835496195595     
  0.155835465018157     
  0.155835439977119     
  0.155835421292163     
  0.155835409062182     
  0.155835403277314     
  0.155835603318191     
  0.155835552172949     
  0.155835500128171     
  0.155835448073446     
  0.155835396896309     
  0.155835347475676     
  0.155835300664822     
  0.155835257266564     
  0.155835218006216     
  0.155835183505278     
  0.155835154260418     
  0.155835130633594     
  0.155835112856868     
  0.155835101042634     
  0.155835095204088     
  0.155835215463218     
  0.155835173236335     
  0.155835129538507     
  0.155835085202671     
  0.155835041055076     
  0.155834997926236     
  0.155834956643628     
  0.155834918007396     
  0.155834882758265     
  0.155834851538818     
  0.155834824866903     
  0.155834803126070     
  0.155834786571897     
  0.155834775351606     
  0.155834769534413     
  0.155834795690523     
  0.155834763975257     
  0.155834730334472     
  0.155834695482472     
  0.155834660118258     
  0.155834624959606     
  0.155834590752804     
  0.155834558254444     
  0.155834528192687     
  0.155834501216769     
  0.155834477861787     
  0.155834458540449     
  0.155834443551033     
  0.155834433107645     
  0.155834427381548     
  0.155834343576791     
  0.155834323954021     
  0.155834302130446     
  0.155834278645121     
  0.155834254000520     
  0.155834228721655     
  0.155834203391532     
  0.155834178653636     
  0.155834155168175     
  0.155834133556663     
  0.155834114364529     
  0.155834098045380     
  0.155834084972942     
  0.155834075478320     
  0.155834069897637     
  0.155833859013337     
  0.155833852954659     
  0.155833844659507     
  0.155833834458729     
  0.155833822599499     
  0.155833809325299     
  0.155833794945652     
  0.155833779871129     
  0.155833764591674     
  0.155833749638491     
  0.155833735549798     
  0.155833722843772     
  0.155833712026867     
  0.155833703623244     
  0.155833698216600     
  0.155833342251852     
  0.155833351028908     
  0.155833357820713     
  0.155833362752901     
  0.155833365790529     
  0.155833366816376     
  0.155833365730236     
  0.155833362526196     
  0.155833357350335     
  0.155833350533926     
  0.155833342573896     
  0.155833334098259     
  0.155833325839767     
  0.155833318625786     
  0.155833313389537     
  0.155832793900529     
  0.155832818543026     
  0.155832841746638     
  0.155832863482920     
  0.155832883461356     
  0.155832901162896     
  0.155832915924348     
  0.155832927081932     
  0.155832934183520     
  0.155832937173646     
  0.155832936453057     
  0.155832932828229     
  0.155832927394028     
  0.155832921425125     
  0.155832916323321     
  0.155832214899849     
  0.155832256202347     
  0.155832296881782     
  0.155832336847120     
  0.155832375629246     
  0.155832412301335     
  0.155832445508586     
  0.155832473678405     
  0.155832495450118     
  0.155832510116521     
  0.155832517878695     
  0.155832519783572     
  0.155832517446745     
  0.155832512764349     
  0.155832507737151     
  0.155831606455783     
  0.155831665066440     
  0.155831724072097     
  0.155831783469613     
  0.155831842653452     
  0.155831900291001     
  0.155831954250709     
  0.155832001907403     
  0.155832040761648     
  0.155832069184410     
  0.155832086954896     
  0.155832095300244     
  0.155832096467871     
  0.155832093159640     
  0.155832088148610     
  0.155830969826768     
  0.155831046491569     
  0.155831124694334     
  0.155831204624775     
  0.155831285553060     
  0.155831365590819     
  0.155831441784196     
  0.155831510576703     
  0.155831568508676     
  0.155831612947088     
  0.155831642825570     
  0.155831659117308     
  0.155831664583304     
  0.155831662906019     
  0.155831657892640     
  0.155830306255216     
  0.155830402034441     
  0.155830500731158     
  0.155830602535594     
  0.155830706330409     
  0.155830809322032     
  0.155830907724143     
  0.155830997646166     
  0.155831075522882     
  0.155831138144529     
  0.155831183111514     
  0.155831210055727     
  0.155831221482133     
  0.155831222089807     
  0.155831217141089     
  0.155829617217851     
  0.155829733831023     
  0.155829855020034     
  0.155829980671600     
  0.155830108144636     
  0.155830233183137     
  0.155830351631848     
  0.155830460524537     
  0.155830557368926     
  0.155830639358563     
  0.155830703043157     
  0.155830745251282     
  0.155830766139099     
  0.155830770555598     
  0.155830765955678     
  0.155828904265880     
  0.155829044984840     
  0.155829192282519     
  0.155829344196924     
  0.155829494878332     
  0.155829638570601     
  0.155829772829878     
  0.155829896729400     
  0.155830009556039     
  0.155830109839510     
  0.155830194524497     
  0.155830258462770     
  0.155830295767376     
  0.155830307849624     
  0.155830304253700     
  0.155828169330186     
  0.155828340761867     
  0.155828520135846     
  0.155828699903052     
  0.155828869005836     
  0.155829025558882     
  0.155829170345130     
  0.155829304538741     
  0.155829428981364     
  0.155829543782096     
  0.155829647694846     
  0.155829736863101     
  0.155829802838314     
  0.155829832134127     
  0.155829832357722     
  0.155827416879735     
  0.155827631125171     
  0.155827851931701     
  0.155828050595830     
  0.155828229668306     
  0.155828392877865     
  0.155828543259586     
  0.155828683210125     
  0.155828814483441     
  0.155828938311128     
  0.155829055348499     
  0.155829165018422     
  0.155829263371735     
  0.155829337692735     
  0.155829348869652     
  0.155826651800498     
  0.155826951563231     
  0.155827188781321     
  0.155827392673803     
  0.155827574116499     
  0.155827739021589     
  0.155827891063374     
  0.155828032795632     
  0.155828166263953     
  0.155828293278822     
  0.155828415485018     
  0.155828534423823     
  0.155828651518847     
  0.155828766926739     
  0.155828875104556     
