# vtk DataFile Version 3.0
vtk output
ASCII
DATASET UNSTRUCTURED_GRID
POINTS       496 double 
  0.00000000E+00  3.00000000E+02  0.00000000E+00
  0.00000000E+00  2.80000000E+02  0.00000000E+00
  0.00000000E+00  2.60000000E+02  0.00000000E+00
  0.00000000E+00  2.40000000E+02  0.00000000E+00
  0.00000000E+00  2.20000000E+02  0.00000000E+00
  0.00000000E+00  2.00000000E+02  0.00000000E+00
  0.00000000E+00  1.80000000E+02  0.00000000E+00
  0.00000000E+00  1.60000000E+02  0.00000000E+00
  0.00000000E+00  1.40000000E+02  0.00000000E+00
  0.00000000E+00  1.20000000E+02  0.00000000E+00
  0.00000000E+00  1.00000000E+02  0.00000000E+00
  0.00000000E+00  8.00000000E+01  0.00000000E+00
  0.00000000E+00  6.00000000E+01  0.00000000E+00
  0.00000000E+00  4.00000000E+01  0.00000000E+00
  0.00000000E+00  2.00000000E+01  0.00000000E+00
  0.00000000E+00  4.99600361E-14  0.00000000E+00
  2.00000000E+01  3.00000000E+02  0.00000000E+00
  2.00000000E+01  2.80000000E+02  0.00000000E+00
  2.00000000E+01  2.60000000E+02  0.00000000E+00
  2.00000000E+01  2.40000000E+02  0.00000000E+00
  2.00000000E+01  2.20000000E+02  0.00000000E+00
  2.00000000E+01  2.00000000E+02  0.00000000E+00
  2.00000000E+01  1.80000000E+02  0.00000000E+00
  2.00000000E+01  1.60000000E+02  0.00000000E+00
  2.00000000E+01  1.40000000E+02  0.00000000E+00
  2.00000000E+01  1.20000000E+02  0.00000000E+00
  2.00000000E+01  1.00000000E+02  0.00000000E+00
  2.00000000E+01  8.00000000E+01  0.00000000E+00
  2.00000000E+01  6.00000000E+01  0.00000000E+00
  2.00000000E+01  4.00000000E+01  0.00000000E+00
  2.00000000E+01  2.00000000E+01  0.00000000E+00
  2.00000000E+01  4.99600361E-14  0.00000000E+00
  4.00000000E+01  3.00000000E+02  0.00000000E+00
  4.00000000E+01  2.80000000E+02  0.00000000E+00
  4.00000000E+01  2.60000000E+02  0.00000000E+00
  4.00000000E+01  2.40000000E+02  0.00000000E+00
  4.00000000E+01  2.20000000E+02  0.00000000E+00
  4.00000000E+01  2.00000000E+02  0.00000000E+00
  4.00000000E+01  1.80000000E+02  0.00000000E+00
  4.00000000E+01  1.60000000E+02  0.00000000E+00
  4.00000000E+01  1.40000000E+02  0.00000000E+00
  4.00000000E+01  1.20000000E+02  0.00000000E+00
  4.00000000E+01  1.00000000E+02  0.00000000E+00
  4.00000000E+01  8.00000000E+01  0.00000000E+00
  4.00000000E+01  6.00000000E+01  0.00000000E+00
  4.00000000E+01  4.00000000E+01  0.00000000E+00
  4.00000000E+01  2.00000000E+01  0.00000000E+00
  4.00000000E+01  4.99600361E-14  0.00000000E+00
  6.00000000E+01  3.00000000E+02  0.00000000E+00
  6.00000000E+01  2.80000000E+02  0.00000000E+00
  6.00000000E+01  2.60000000E+02  0.00000000E+00
  6.00000000E+01  2.40000000E+02  0.00000000E+00
  6.00000000E+01  2.20000000E+02  0.00000000E+00
  6.00000000E+01  2.00000000E+02  0.00000000E+00
  6.00000000E+01  1.80000000E+02  0.00000000E+00
  6.00000000E+01  1.60000000E+02  0.00000000E+00
  6.00000000E+01  1.40000000E+02  0.00000000E+00
  6.00000000E+01  1.20000000E+02  0.00000000E+00
  6.00000000E+01  1.00000000E+02  0.00000000E+00
  6.00000000E+01  8.00000000E+01  0.00000000E+00
  6.00000000E+01  6.00000000E+01  0.00000000E+00
  6.00000000E+01  4.00000000E+01  0.00000000E+00
  6.00000000E+01  2.00000000E+01  0.00000000E+00
  6.00000000E+01  4.99600361E-14  0.00000000E+00
  8.00000000E+01  3.00000000E+02  0.00000000E+00
  8.00000000E+01  2.80000000E+02  0.00000000E+00
  8.00000000E+01  2.60000000E+02  0.00000000E+00
  8.00000000E+01  2.40000000E+02  0.00000000E+00
  8.00000000E+01  2.20000000E+02  0.00000000E+00
  8.00000000E+01  2.00000000E+02  0.00000000E+00
  8.00000000E+01  1.80000000E+02  0.00000000E+00
  8.00000000E+01  1.60000000E+02  0.00000000E+00
  8.00000000E+01  1.40000000E+02  0.00000000E+00
  8.00000000E+01  1.20000000E+02  0.00000000E+00
  8.00000000E+01  1.00000000E+02  0.00000000E+00
  8.00000000E+01  8.00000000E+01  0.00000000E+00
  8.00000000E+01  6.00000000E+01  0.00000000E+00
  8.00000000E+01  4.00000000E+01  0.00000000E+00
  8.00000000E+01  2.00000000E+01  0.00000000E+00
  8.00000000E+01  4.99600361E-14  0.00000000E+00
  1.00000000E+02  3.00000000E+02  0.00000000E+00
  1.00000000E+02  2.80000000E+02  0.00000000E+00
  1.00000000E+02  2.60000000E+02  0.00000000E+00
  1.00000000E+02  2.40000000E+02  0.00000000E+00
  1.00000000E+02  2.20000000E+02  0.00000000E+00
  1.00000000E+02  2.00000000E+02  0.00000000E+00
  1.00000000E+02  1.80000000E+02  0.00000000E+00
  1.00000000E+02  1.60000000E+02  0.00000000E+00
  1.00000000E+02  1.40000000E+02  0.00000000E+00
  1.00000000E+02  1.20000000E+02  0.00000000E+00
  1.00000000E+02  1.00000000E+02  0.00000000E+00
  1.00000000E+02  8.00000000E+01  0.00000000E+00
  1.00000000E+02  6.00000000E+01  0.00000000E+00
  1.00000000E+02  4.00000000E+01  0.00000000E+00
  1.00000000E+02  2.00000000E+01  0.00000000E+00
  1.00000000E+02  4.99600361E-14  0.00000000E+00
  1.20000000E+02  3.00000000E+02  0.00000000E+00
  1.20000000E+02  2.80000000E+02  0.00000000E+00
  1.20000000E+02  2.60000000E+02  0.00000000E+00
  1.20000000E+02  2.40000000E+02  0.00000000E+00
  1.20000000E+02  2.20000000E+02  0.00000000E+00
  1.20000000E+02  2.00000000E+02  0.00000000E+00
  1.20000000E+02  1.80000000E+02  0.00000000E+00
  1.20000000E+02  1.60000000E+02  0.00000000E+00
  1.20000000E+02  1.40000000E+02  0.00000000E+00
  1.20000000E+02  1.20000000E+02  0.00000000E+00
  1.20000000E+02  1.00000000E+02  0.00000000E+00
  1.20000000E+02  8.00000000E+01  0.00000000E+00
  1.20000000E+02  6.00000000E+01  0.00000000E+00
  1.20000000E+02  4.00000000E+01  0.00000000E+00
  1.20000000E+02  2.00000000E+01  0.00000000E+00
  1.20000000E+02  4.99600361E-14  0.00000000E+00
  1.40000000E+02  3.00000000E+02  0.00000000E+00
  1.40000000E+02  2.80000000E+02  0.00000000E+00
  1.40000000E+02  2.60000000E+02  0.00000000E+00
  1.40000000E+02  2.40000000E+02  0.00000000E+00
  1.40000000E+02  2.20000000E+02  0.00000000E+00
  1.40000000E+02  2.00000000E+02  0.00000000E+00
  1.40000000E+02  1.80000000E+02  0.00000000E+00
  1.40000000E+02  1.60000000E+02  0.00000000E+00
  1.40000000E+02  1.40000000E+02  0.00000000E+00
  1.40000000E+02  1.20000000E+02  0.00000000E+00
  1.40000000E+02  1.00000000E+02  0.00000000E+00
  1.40000000E+02  8.00000000E+01  0.00000000E+00
  1.40000000E+02  6.00000000E+01  0.00000000E+00
  1.40000000E+02  4.00000000E+01  0.00000000E+00
  1.40000000E+02  2.00000000E+01  0.00000000E+00
  1.40000000E+02  4.99600361E-14  0.00000000E+00
  1.60000000E+02  3.00000000E+02  0.00000000E+00
  1.60000000E+02  2.80000000E+02  0.00000000E+00
  1.60000000E+02  2.60000000E+02  0.00000000E+00
  1.60000000E+02  2.40000000E+02  0.00000000E+00
  1.60000000E+02  2.20000000E+02  0.00000000E+00
  1.60000000E+02  2.00000000E+02  0.00000000E+00
  1.60000000E+02  1.80000000E+02  0.00000000E+00
  1.60000000E+02  1.60000000E+02  0.00000000E+00
  1.60000000E+02  1.40000000E+02  0.00000000E+00
  1.60000000E+02  1.20000000E+02  0.00000000E+00
  1.60000000E+02  1.00000000E+02  0.00000000E+00
  1.60000000E+02  8.00000000E+01  0.00000000E+00
  1.60000000E+02  6.00000000E+01  0.00000000E+00
  1.60000000E+02  4.00000000E+01  0.00000000E+00
  1.60000000E+02  2.00000000E+01  0.00000000E+00
  1.60000000E+02  4.99600361E-14  0.00000000E+00
  1.80000000E+02  3.00000000E+02  0.00000000E+00
  1.80000000E+02  2.80000000E+02  0.00000000E+00
  1.80000000E+02  2.60000000E+02  0.00000000E+00
  1.80000000E+02  2.40000000E+02  0.00000000E+00
  1.80000000E+02  2.20000000E+02  0.00000000E+00
  1.80000000E+02  2.00000000E+02  0.00000000E+00
  1.80000000E+02  1.80000000E+02  0.00000000E+00
  1.80000000E+02  1.60000000E+02  0.00000000E+00
  1.80000000E+02  1.40000000E+02  0.00000000E+00
  1.80000000E+02  1.20000000E+02  0.00000000E+00
  1.80000000E+02  1.00000000E+02  0.00000000E+00
  1.80000000E+02  8.00000000E+01  0.00000000E+00
  1.80000000E+02  6.00000000E+01  0.00000000E+00
  1.80000000E+02  4.00000000E+01  0.00000000E+00
  1.80000000E+02  2.00000000E+01  0.00000000E+00
  1.80000000E+02  4.99600361E-14  0.00000000E+00
  2.00000000E+02  3.00000000E+02  0.00000000E+00
  2.00000000E+02  2.80000000E+02  0.00000000E+00
  2.00000000E+02  2.60000000E+02  0.00000000E+00
  2.00000000E+02  2.40000000E+02  0.00000000E+00
  2.00000000E+02  2.20000000E+02  0.00000000E+00
  2.00000000E+02  2.00000000E+02  0.00000000E+00
  2.00000000E+02  1.80000000E+02  0.00000000E+00
  2.00000000E+02  1.60000000E+02  0.00000000E+00
  2.00000000E+02  1.40000000E+02  0.00000000E+00
  2.00000000E+02  1.20000000E+02  0.00000000E+00
  2.00000000E+02  1.00000000E+02  0.00000000E+00
  2.00000000E+02  8.00000000E+01  0.00000000E+00
  2.00000000E+02  6.00000000E+01  0.00000000E+00
  2.00000000E+02  4.00000000E+01  0.00000000E+00
  2.00000000E+02  2.00000000E+01  0.00000000E+00
  2.00000000E+02  4.99600361E-14  0.00000000E+00
  2.20000000E+02  3.00000000E+02  0.00000000E+00
  2.20000000E+02  2.80000000E+02  0.00000000E+00
  2.20000000E+02  2.60000000E+02  0.00000000E+00
  2.20000000E+02  2.40000000E+02  0.00000000E+00
  2.20000000E+02  2.20000000E+02  0.00000000E+00
  2.20000000E+02  2.00000000E+02  0.00000000E+00
  2.20000000E+02  1.80000000E+02  0.00000000E+00
  2.20000000E+02  1.60000000E+02  0.00000000E+00
  2.20000000E+02  1.40000000E+02  0.00000000E+00
  2.20000000E+02  1.20000000E+02  0.00000000E+00
  2.20000000E+02  1.00000000E+02  0.00000000E+00
  2.20000000E+02  8.00000000E+01  0.00000000E+00
  2.20000000E+02  6.00000000E+01  0.00000000E+00
  2.20000000E+02  4.00000000E+01  0.00000000E+00
  2.20000000E+02  2.00000000E+01  0.00000000E+00
  2.20000000E+02  4.99600361E-14  0.00000000E+00
  2.40000000E+02  3.00000000E+02  0.00000000E+00
  2.40000000E+02  2.80000000E+02  0.00000000E+00
  2.40000000E+02  2.60000000E+02  0.00000000E+00
  2.40000000E+02  2.40000000E+02  0.00000000E+00
  2.40000000E+02  2.20000000E+02  0.00000000E+00
  2.40000000E+02  2.00000000E+02  0.00000000E+00
  2.40000000E+02  1.80000000E+02  0.00000000E+00
  2.40000000E+02  1.60000000E+02  0.00000000E+00
  2.40000000E+02  1.40000000E+02  0.00000000E+00
  2.40000000E+02  1.20000000E+02  0.00000000E+00
  2.40000000E+02  1.00000000E+02  0.00000000E+00
  2.40000000E+02  8.00000000E+01  0.00000000E+00
  2.40000000E+02  6.00000000E+01  0.00000000E+00
  2.40000000E+02  4.00000000E+01  0.00000000E+00
  2.40000000E+02  2.00000000E+01  0.00000000E+00
  2.40000000E+02  4.99600361E-14  0.00000000E+00
  2.60000000E+02  3.00000000E+02  0.00000000E+00
  2.60000000E+02  2.80000000E+02  0.00000000E+00
  2.60000000E+02  2.60000000E+02  0.00000000E+00
  2.60000000E+02  2.40000000E+02  0.00000000E+00
  2.60000000E+02  2.20000000E+02  0.00000000E+00
  2.60000000E+02  2.00000000E+02  0.00000000E+00
  2.60000000E+02  1.80000000E+02  0.00000000E+00
  2.60000000E+02  1.60000000E+02  0.00000000E+00
  2.60000000E+02  1.40000000E+02  0.00000000E+00
  2.60000000E+02  1.20000000E+02  0.00000000E+00
  2.60000000E+02  1.00000000E+02  0.00000000E+00
  2.60000000E+02  8.00000000E+01  0.00000000E+00
  2.60000000E+02  6.00000000E+01  0.00000000E+00
  2.60000000E+02  4.00000000E+01  0.00000000E+00
  2.60000000E+02  2.00000000E+01  0.00000000E+00
  2.60000000E+02  4.99600361E-14  0.00000000E+00
  2.80000000E+02  3.00000000E+02  0.00000000E+00
  2.80000000E+02  2.80000000E+02  0.00000000E+00
  2.80000000E+02  2.60000000E+02  0.00000000E+00
  2.80000000E+02  2.40000000E+02  0.00000000E+00
  2.80000000E+02  2.20000000E+02  0.00000000E+00
  2.80000000E+02  2.00000000E+02  0.00000000E+00
  2.80000000E+02  1.80000000E+02  0.00000000E+00
  2.80000000E+02  1.60000000E+02  0.00000000E+00
  2.80000000E+02  1.40000000E+02  0.00000000E+00
  2.80000000E+02  1.20000000E+02  0.00000000E+00
  2.80000000E+02  1.00000000E+02  0.00000000E+00
  2.80000000E+02  8.00000000E+01  0.00000000E+00
  2.80000000E+02  6.00000000E+01  0.00000000E+00
  2.80000000E+02  4.00000000E+01  0.00000000E+00
  2.80000000E+02  2.00000000E+01  0.00000000E+00
  2.80000000E+02  4.99600361E-14  0.00000000E+00
  3.00000000E+02  3.00000000E+02  0.00000000E+00
  3.00000000E+02  2.80000000E+02  0.00000000E+00
  3.00000000E+02  2.60000000E+02  0.00000000E+00
  3.00000000E+02  2.40000000E+02  0.00000000E+00
  3.00000000E+02  2.20000000E+02  0.00000000E+00
  3.00000000E+02  2.00000000E+02  0.00000000E+00
  3.00000000E+02  1.80000000E+02  0.00000000E+00
  3.00000000E+02  1.60000000E+02  0.00000000E+00
  3.00000000E+02  1.40000000E+02  0.00000000E+00
  3.00000000E+02  1.20000000E+02  0.00000000E+00
  3.00000000E+02  1.00000000E+02  0.00000000E+00
  3.00000000E+02  8.00000000E+01  0.00000000E+00
  3.00000000E+02  6.00000000E+01  0.00000000E+00
  3.00000000E+02  4.00000000E+01  0.00000000E+00
  3.00000000E+02  2.00000000E+01  0.00000000E+00
  3.00000000E+02  4.99600361E-14  0.00000000E+00
  3.20000000E+02  3.00000000E+02  0.00000000E+00
  3.20000000E+02  2.80000000E+02  0.00000000E+00
  3.20000000E+02  2.60000000E+02  0.00000000E+00
  3.20000000E+02  2.40000000E+02  0.00000000E+00
  3.20000000E+02  2.20000000E+02  0.00000000E+00
  3.20000000E+02  2.00000000E+02  0.00000000E+00
  3.20000000E+02  1.80000000E+02  0.00000000E+00
  3.20000000E+02  1.60000000E+02  0.00000000E+00
  3.20000000E+02  1.40000000E+02  0.00000000E+00
  3.20000000E+02  1.20000000E+02  0.00000000E+00
  3.20000000E+02  1.00000000E+02  0.00000000E+00
  3.20000000E+02  8.00000000E+01  0.00000000E+00
  3.20000000E+02  6.00000000E+01  0.00000000E+00
  3.20000000E+02  4.00000000E+01  0.00000000E+00
  3.20000000E+02  2.00000000E+01  0.00000000E+00
  3.20000000E+02  4.99600361E-14  0.00000000E+00
  3.40000000E+02  3.00000000E+02  0.00000000E+00
  3.40000000E+02  2.80000000E+02  0.00000000E+00
  3.40000000E+02  2.60000000E+02  0.00000000E+00
  3.40000000E+02  2.40000000E+02  0.00000000E+00
  3.40000000E+02  2.20000000E+02  0.00000000E+00
  3.40000000E+02  2.00000000E+02  0.00000000E+00
  3.40000000E+02  1.80000000E+02  0.00000000E+00
  3.40000000E+02  1.60000000E+02  0.00000000E+00
  3.40000000E+02  1.40000000E+02  0.00000000E+00
  3.40000000E+02  1.20000000E+02  0.00000000E+00
  3.40000000E+02  1.00000000E+02  0.00000000E+00
  3.40000000E+02  8.00000000E+01  0.00000000E+00
  3.40000000E+02  6.00000000E+01  0.00000000E+00
  3.40000000E+02  4.00000000E+01  0.00000000E+00
  3.40000000E+02  2.00000000E+01  0.00000000E+00
  3.40000000E+02  4.99600361E-14  0.00000000E+00
  3.60000000E+02  3.00000000E+02  0.00000000E+00
  3.60000000E+02  2.80000000E+02  0.00000000E+00
  3.60000000E+02  2.60000000E+02  0.00000000E+00
  3.60000000E+02  2.40000000E+02  0.00000000E+00
  3.60000000E+02  2.20000000E+02  0.00000000E+00
  3.60000000E+02  2.00000000E+02  0.00000000E+00
  3.60000000E+02  1.80000000E+02  0.00000000E+00
  3.60000000E+02  1.60000000E+02  0.00000000E+00
  3.60000000E+02  1.40000000E+02  0.00000000E+00
  3.60000000E+02  1.20000000E+02  0.00000000E+00
  3.60000000E+02  1.00000000E+02  0.00000000E+00
  3.60000000E+02  8.00000000E+01  0.00000000E+00
  3.60000000E+02  6.00000000E+01  0.00000000E+00
  3.60000000E+02  4.00000000E+01  0.00000000E+00
  3.60000000E+02  2.00000000E+01  0.00000000E+00
  3.60000000E+02  4.99600361E-14  0.00000000E+00
  3.80000000E+02  3.00000000E+02  0.00000000E+00
  3.80000000E+02  2.80000000E+02  0.00000000E+00
  3.80000000E+02  2.60000000E+02  0.00000000E+00
  3.80000000E+02  2.40000000E+02  0.00000000E+00
  3.80000000E+02  2.20000000E+02  0.00000000E+00
  3.80000000E+02  2.00000000E+02  0.00000000E+00
  3.80000000E+02  1.80000000E+02  0.00000000E+00
  3.80000000E+02  1.60000000E+02  0.00000000E+00
  3.80000000E+02  1.40000000E+02  0.00000000E+00
  3.80000000E+02  1.20000000E+02  0.00000000E+00
  3.80000000E+02  1.00000000E+02  0.00000000E+00
  3.80000000E+02  8.00000000E+01  0.00000000E+00
  3.80000000E+02  6.00000000E+01  0.00000000E+00
  3.80000000E+02  4.00000000E+01  0.00000000E+00
  3.80000000E+02  2.00000000E+01  0.00000000E+00
  3.80000000E+02  4.99600361E-14  0.00000000E+00
  4.00000000E+02  3.00000000E+02  0.00000000E+00
  4.00000000E+02  2.80000000E+02  0.00000000E+00
  4.00000000E+02  2.60000000E+02  0.00000000E+00
  4.00000000E+02  2.40000000E+02  0.00000000E+00
  4.00000000E+02  2.20000000E+02  0.00000000E+00
  4.00000000E+02  2.00000000E+02  0.00000000E+00
  4.00000000E+02  1.80000000E+02  0.00000000E+00
  4.00000000E+02  1.60000000E+02  0.00000000E+00
  4.00000000E+02  1.40000000E+02  0.00000000E+00
  4.00000000E+02  1.20000000E+02  0.00000000E+00
  4.00000000E+02  1.00000000E+02  0.00000000E+00
  4.00000000E+02  8.00000000E+01  0.00000000E+00
  4.00000000E+02  6.00000000E+01  0.00000000E+00
  4.00000000E+02  4.00000000E+01  0.00000000E+00
  4.00000000E+02  2.00000000E+01  0.00000000E+00
  4.00000000E+02  4.99600361E-14  0.00000000E+00
  4.20000000E+02  3.00000000E+02  0.00000000E+00
  4.20000000E+02  2.80000000E+02  0.00000000E+00
  4.20000000E+02  2.60000000E+02  0.00000000E+00
  4.20000000E+02  2.40000000E+02  0.00000000E+00
  4.20000000E+02  2.20000000E+02  0.00000000E+00
  4.20000000E+02  2.00000000E+02  0.00000000E+00
  4.20000000E+02  1.80000000E+02  0.00000000E+00
  4.20000000E+02  1.60000000E+02  0.00000000E+00
  4.20000000E+02  1.40000000E+02  0.00000000E+00
  4.20000000E+02  1.20000000E+02  0.00000000E+00
  4.20000000E+02  1.00000000E+02  0.00000000E+00
  4.20000000E+02  8.00000000E+01  0.00000000E+00
  4.20000000E+02  6.00000000E+01  0.00000000E+00
  4.20000000E+02  4.00000000E+01  0.00000000E+00
  4.20000000E+02  2.00000000E+01  0.00000000E+00
  4.20000000E+02  4.99600361E-14  0.00000000E+00
  4.40000000E+02  3.00000000E+02  0.00000000E+00
  4.40000000E+02  2.80000000E+02  0.00000000E+00
  4.40000000E+02  2.60000000E+02  0.00000000E+00
  4.40000000E+02  2.40000000E+02  0.00000000E+00
  4.40000000E+02  2.20000000E+02  0.00000000E+00
  4.40000000E+02  2.00000000E+02  0.00000000E+00
  4.40000000E+02  1.80000000E+02  0.00000000E+00
  4.40000000E+02  1.60000000E+02  0.00000000E+00
  4.40000000E+02  1.40000000E+02  0.00000000E+00
  4.40000000E+02  1.20000000E+02  0.00000000E+00
  4.40000000E+02  1.00000000E+02  0.00000000E+00
  4.40000000E+02  8.00000000E+01  0.00000000E+00
  4.40000000E+02  6.00000000E+01  0.00000000E+00
  4.40000000E+02  4.00000000E+01  0.00000000E+00
  4.40000000E+02  2.00000000E+01  0.00000000E+00
  4.40000000E+02  4.99600361E-14  0.00000000E+00
  4.60000000E+02  3.00000000E+02  0.00000000E+00
  4.60000000E+02  2.80000000E+02  0.00000000E+00
  4.60000000E+02  2.60000000E+02  0.00000000E+00
  4.60000000E+02  2.40000000E+02  0.00000000E+00
  4.60000000E+02  2.20000000E+02  0.00000000E+00
  4.60000000E+02  2.00000000E+02  0.00000000E+00
  4.60000000E+02  1.80000000E+02  0.00000000E+00
  4.60000000E+02  1.60000000E+02  0.00000000E+00
  4.60000000E+02  1.40000000E+02  0.00000000E+00
  4.60000000E+02  1.20000000E+02  0.00000000E+00
  4.60000000E+02  1.00000000E+02  0.00000000E+00
  4.60000000E+02  8.00000000E+01  0.00000000E+00
  4.60000000E+02  6.00000000E+01  0.00000000E+00
  4.60000000E+02  4.00000000E+01  0.00000000E+00
  4.60000000E+02  2.00000000E+01  0.00000000E+00
  4.60000000E+02  4.99600361E-14  0.00000000E+00
  4.80000000E+02  3.00000000E+02  0.00000000E+00
  4.80000000E+02  2.80000000E+02  0.00000000E+00
  4.80000000E+02  2.60000000E+02  0.00000000E+00
  4.80000000E+02  2.40000000E+02  0.00000000E+00
  4.80000000E+02  2.20000000E+02  0.00000000E+00
  4.80000000E+02  2.00000000E+02  0.00000000E+00
  4.80000000E+02  1.80000000E+02  0.00000000E+00
  4.80000000E+02  1.60000000E+02  0.00000000E+00
  4.80000000E+02  1.40000000E+02  0.00000000E+00
  4.80000000E+02  1.20000000E+02  0.00000000E+00
  4.80000000E+02  1.00000000E+02  0.00000000E+00
  4.80000000E+02  8.00000000E+01  0.00000000E+00
  4.80000000E+02  6.00000000E+01  0.00000000E+00
  4.80000000E+02  4.00000000E+01  0.00000000E+00
  4.80000000E+02  2.00000000E+01  0.00000000E+00
  4.80000000E+02  4.99600361E-14  0.00000000E+00
  5.00000000E+02  3.00000000E+02  0.00000000E+00
  5.00000000E+02  2.80000000E+02  0.00000000E+00
  5.00000000E+02  2.60000000E+02  0.00000000E+00
  5.00000000E+02  2.40000000E+02  0.00000000E+00
  5.00000000E+02  2.20000000E+02  0.00000000E+00
  5.00000000E+02  2.00000000E+02  0.00000000E+00
  5.00000000E+02  1.80000000E+02  0.00000000E+00
  5.00000000E+02  1.60000000E+02  0.00000000E+00
  5.00000000E+02  1.40000000E+02  0.00000000E+00
  5.00000000E+02  1.20000000E+02  0.00000000E+00
  5.00000000E+02  1.00000000E+02  0.00000000E+00
  5.00000000E+02  8.00000000E+01  0.00000000E+00
  5.00000000E+02  6.00000000E+01  0.00000000E+00
  5.00000000E+02  4.00000000E+01  0.00000000E+00
  5.00000000E+02  2.00000000E+01  0.00000000E+00
  5.00000000E+02  4.99600361E-14  0.00000000E+00
  5.20000000E+02  3.00000000E+02  0.00000000E+00
  5.20000000E+02  2.80000000E+02  0.00000000E+00
  5.20000000E+02  2.60000000E+02  0.00000000E+00
  5.20000000E+02  2.40000000E+02  0.00000000E+00
  5.20000000E+02  2.20000000E+02  0.00000000E+00
  5.20000000E+02  2.00000000E+02  0.00000000E+00
  5.20000000E+02  1.80000000E+02  0.00000000E+00
  5.20000000E+02  1.60000000E+02  0.00000000E+00
  5.20000000E+02  1.40000000E+02  0.00000000E+00
  5.20000000E+02  1.20000000E+02  0.00000000E+00
  5.20000000E+02  1.00000000E+02  0.00000000E+00
  5.20000000E+02  8.00000000E+01  0.00000000E+00
  5.20000000E+02  6.00000000E+01  0.00000000E+00
  5.20000000E+02  4.00000000E+01  0.00000000E+00
  5.20000000E+02  2.00000000E+01  0.00000000E+00
  5.20000000E+02  4.99600361E-14  0.00000000E+00
  5.40000000E+02  3.00000000E+02  0.00000000E+00
  5.40000000E+02  2.80000000E+02  0.00000000E+00
  5.40000000E+02  2.60000000E+02  0.00000000E+00
  5.40000000E+02  2.40000000E+02  0.00000000E+00
  5.40000000E+02  2.20000000E+02  0.00000000E+00
  5.40000000E+02  2.00000000E+02  0.00000000E+00
  5.40000000E+02  1.80000000E+02  0.00000000E+00
  5.40000000E+02  1.60000000E+02  0.00000000E+00
  5.40000000E+02  1.40000000E+02  0.00000000E+00
  5.40000000E+02  1.20000000E+02  0.00000000E+00
  5.40000000E+02  1.00000000E+02  0.00000000E+00
  5.40000000E+02  8.00000000E+01  0.00000000E+00
  5.40000000E+02  6.00000000E+01  0.00000000E+00
  5.40000000E+02  4.00000000E+01  0.00000000E+00
  5.40000000E+02  2.00000000E+01  0.00000000E+00
  5.40000000E+02  4.99600361E-14  0.00000000E+00
  5.60000000E+02  3.00000000E+02  0.00000000E+00
  5.60000000E+02  2.80000000E+02  0.00000000E+00
  5.60000000E+02  2.60000000E+02  0.00000000E+00
  5.60000000E+02  2.40000000E+02  0.00000000E+00
  5.60000000E+02  2.20000000E+02  0.00000000E+00
  5.60000000E+02  2.00000000E+02  0.00000000E+00
  5.60000000E+02  1.80000000E+02  0.00000000E+00
  5.60000000E+02  1.60000000E+02  0.00000000E+00
  5.60000000E+02  1.40000000E+02  0.00000000E+00
  5.60000000E+02  1.20000000E+02  0.00000000E+00
  5.60000000E+02  1.00000000E+02  0.00000000E+00
  5.60000000E+02  8.00000000E+01  0.00000000E+00
  5.60000000E+02  6.00000000E+01  0.00000000E+00
  5.60000000E+02  4.00000000E+01  0.00000000E+00
  5.60000000E+02  2.00000000E+01  0.00000000E+00
  5.60000000E+02  4.99600361E-14  0.00000000E+00
  5.80000000E+02  3.00000000E+02  0.00000000E+00
  5.80000000E+02  2.80000000E+02  0.00000000E+00
  5.80000000E+02  2.60000000E+02  0.00000000E+00
  5.80000000E+02  2.40000000E+02  0.00000000E+00
  5.80000000E+02  2.20000000E+02  0.00000000E+00
  5.80000000E+02  2.00000000E+02  0.00000000E+00
  5.80000000E+02  1.80000000E+02  0.00000000E+00
  5.80000000E+02  1.60000000E+02  0.00000000E+00
  5.80000000E+02  1.40000000E+02  0.00000000E+00
  5.80000000E+02  1.20000000E+02  0.00000000E+00
  5.80000000E+02  1.00000000E+02  0.00000000E+00
  5.80000000E+02  8.00000000E+01  0.00000000E+00
  5.80000000E+02  6.00000000E+01  0.00000000E+00
  5.80000000E+02  4.00000000E+01  0.00000000E+00
  5.80000000E+02  2.00000000E+01  0.00000000E+00
  5.80000000E+02  4.99600361E-14  0.00000000E+00
  6.00000000E+02  3.00000000E+02  0.00000000E+00
  6.00000000E+02  2.80000000E+02  0.00000000E+00
  6.00000000E+02  2.60000000E+02  0.00000000E+00
  6.00000000E+02  2.40000000E+02  0.00000000E+00
  6.00000000E+02  2.20000000E+02  0.00000000E+00
  6.00000000E+02  2.00000000E+02  0.00000000E+00
  6.00000000E+02  1.80000000E+02  0.00000000E+00
  6.00000000E+02  1.60000000E+02  0.00000000E+00
  6.00000000E+02  1.40000000E+02  0.00000000E+00
  6.00000000E+02  1.20000000E+02  0.00000000E+00
  6.00000000E+02  1.00000000E+02  0.00000000E+00
  6.00000000E+02  8.00000000E+01  0.00000000E+00
  6.00000000E+02  6.00000000E+01  0.00000000E+00
  6.00000000E+02  4.00000000E+01  0.00000000E+00
  6.00000000E+02  2.00000000E+01  0.00000000E+00
  6.00000000E+02  4.99600361E-14  0.00000000E+00
CELLS       450      2250
         4           0           1          17          16
         4           1           2          18          17
         4           2           3          19          18
         4           3           4          20          19
         4           4           5          21          20
         4           5           6          22          21
         4           6           7          23          22
         4           7           8          24          23
         4           8           9          25          24
         4           9          10          26          25
         4          10          11          27          26
         4          11          12          28          27
         4          12          13          29          28
         4          13          14          30          29
         4          14          15          31          30
         4          16          17          33          32
         4          17          18          34          33
         4          18          19          35          34
         4          19          20          36          35
         4          20          21          37          36
         4          21          22          38          37
         4          22          23          39          38
         4          23          24          40          39
         4          24          25          41          40
         4          25          26          42          41
         4          26          27          43          42
         4          27          28          44          43
         4          28          29          45          44
         4          29          30          46          45
         4          30          31          47          46
         4          32          33          49          48
         4          33          34          50          49
         4          34          35          51          50
         4          35          36          52          51
         4          36          37          53          52
         4          37          38          54          53
         4          38          39          55          54
         4          39          40          56          55
         4          40          41          57          56
         4          41          42          58          57
         4          42          43          59          58
         4          43          44          60          59
         4          44          45          61          60
         4          45          46          62          61
         4          46          47          63          62
         4          48          49          65          64
         4          49          50          66          65
         4          50          51          67          66
         4          51          52          68          67
         4          52          53          69          68
         4          53          54          70          69
         4          54          55          71          70
         4          55          56          72          71
         4          56          57          73          72
         4          57          58          74          73
         4          58          59          75          74
         4          59          60          76          75
         4          60          61          77          76
         4          61          62          78          77
         4          62          63          79          78
         4          64          65          81          80
         4          65          66          82          81
         4          66          67          83          82
         4          67          68          84          83
         4          68          69          85          84
         4          69          70          86          85
         4          70          71          87          86
         4          71          72          88          87
         4          72          73          89          88
         4          73          74          90          89
         4          74          75          91          90
         4          75          76          92          91
         4          76          77          93          92
         4          77          78          94          93
         4          78          79          95          94
         4          80          81          97          96
         4          81          82          98          97
         4          82          83          99          98
         4          83          84         100          99
         4          84          85         101         100
         4          85          86         102         101
         4          86          87         103         102
         4          87          88         104         103
         4          88          89         105         104
         4          89          90         106         105
         4          90          91         107         106
         4          91          92         108         107
         4          92          93         109         108
         4          93          94         110         109
         4          94          95         111         110
         4          96          97         113         112
         4          97          98         114         113
         4          98          99         115         114
         4          99         100         116         115
         4         100         101         117         116
         4         101         102         118         117
         4         102         103         119         118
         4         103         104         120         119
         4         104         105         121         120
         4         105         106         122         121
         4         106         107         123         122
         4         107         108         124         123
         4         108         109         125         124
         4         109         110         126         125
         4         110         111         127         126
         4         112         113         129         128
         4         113         114         130         129
         4         114         115         131         130
         4         115         116         132         131
         4         116         117         133         132
         4         117         118         134         133
         4         118         119         135         134
         4         119         120         136         135
         4         120         121         137         136
         4         121         122         138         137
         4         122         123         139         138
         4         123         124         140         139
         4         124         125         141         140
         4         125         126         142         141
         4         126         127         143         142
         4         128         129         145         144
         4         129         130         146         145
         4         130         131         147         146
         4         131         132         148         147
         4         132         133         149         148
         4         133         134         150         149
         4         134         135         151         150
         4         135         136         152         151
         4         136         137         153         152
         4         137         138         154         153
         4         138         139         155         154
         4         139         140         156         155
         4         140         141         157         156
         4         141         142         158         157
         4         142         143         159         158
         4         144         145         161         160
         4         145         146         162         161
         4         146         147         163         162
         4         147         148         164         163
         4         148         149         165         164
         4         149         150         166         165
         4         150         151         167         166
         4         151         152         168         167
         4         152         153         169         168
         4         153         154         170         169
         4         154         155         171         170
         4         155         156         172         171
         4         156         157         173         172
         4         157         158         174         173
         4         158         159         175         174
         4         160         161         177         176
         4         161         162         178         177
         4         162         163         179         178
         4         163         164         180         179
         4         164         165         181         180
         4         165         166         182         181
         4         166         167         183         182
         4         167         168         184         183
         4         168         169         185         184
         4         169         170         186         185
         4         170         171         187         186
         4         171         172         188         187
         4         172         173         189         188
         4         173         174         190         189
         4         174         175         191         190
         4         176         177         193         192
         4         177         178         194         193
         4         178         179         195         194
         4         179         180         196         195
         4         180         181         197         196
         4         181         182         198         197
         4         182         183         199         198
         4         183         184         200         199
         4         184         185         201         200
         4         185         186         202         201
         4         186         187         203         202
         4         187         188         204         203
         4         188         189         205         204
         4         189         190         206         205
         4         190         191         207         206
         4         192         193         209         208
         4         193         194         210         209
         4         194         195         211         210
         4         195         196         212         211
         4         196         197         213         212
         4         197         198         214         213
         4         198         199         215         214
         4         199         200         216         215
         4         200         201         217         216
         4         201         202         218         217
         4         202         203         219         218
         4         203         204         220         219
         4         204         205         221         220
         4         205         206         222         221
         4         206         207         223         222
         4         208         209         225         224
         4         209         210         226         225
         4         210         211         227         226
         4         211         212         228         227
         4         212         213         229         228
         4         213         214         230         229
         4         214         215         231         230
         4         215         216         232         231
         4         216         217         233         232
         4         217         218         234         233
         4         218         219         235         234
         4         219         220         236         235
         4         220         221         237         236
         4         221         222         238         237
         4         222         223         239         238
         4         224         225         241         240
         4         225         226         242         241
         4         226         227         243         242
         4         227         228         244         243
         4         228         229         245         244
         4         229         230         246         245
         4         230         231         247         246
         4         231         232         248         247
         4         232         233         249         248
         4         233         234         250         249
         4         234         235         251         250
         4         235         236         252         251
         4         236         237         253         252
         4         237         238         254         253
         4         238         239         255         254
         4         240         241         257         256
         4         241         242         258         257
         4         242         243         259         258
         4         243         244         260         259
         4         244         245         261         260
         4         245         246         262         261
         4         246         247         263         262
         4         247         248         264         263
         4         248         249         265         264
         4         249         250         266         265
         4         250         251         267         266
         4         251         252         268         267
         4         252         253         269         268
         4         253         254         270         269
         4         254         255         271         270
         4         256         257         273         272
         4         257         258         274         273
         4         258         259         275         274
         4         259         260         276         275
         4         260         261         277         276
         4         261         262         278         277
         4         262         263         279         278
         4         263         264         280         279
         4         264         265         281         280
         4         265         266         282         281
         4         266         267         283         282
         4         267         268         284         283
         4         268         269         285         284
         4         269         270         286         285
         4         270         271         287         286
         4         272         273         289         288
         4         273         274         290         289
         4         274         275         291         290
         4         275         276         292         291
         4         276         277         293         292
         4         277         278         294         293
         4         278         279         295         294
         4         279         280         296         295
         4         280         281         297         296
         4         281         282         298         297
         4         282         283         299         298
         4         283         284         300         299
         4         284         285         301         300
         4         285         286         302         301
         4         286         287         303         302
         4         288         289         305         304
         4         289         290         306         305
         4         290         291         307         306
         4         291         292         308         307
         4         292         293         309         308
         4         293         294         310         309
         4         294         295         311         310
         4         295         296         312         311
         4         296         297         313         312
         4         297         298         314         313
         4         298         299         315         314
         4         299         300         316         315
         4         300         301         317         316
         4         301         302         318         317
         4         302         303         319         318
         4         304         305         321         320
         4         305         306         322         321
         4         306         307         323         322
         4         307         308         324         323
         4         308         309         325         324
         4         309         310         326         325
         4         310         311         327         326
         4         311         312         328         327
         4         312         313         329         328
         4         313         314         330         329
         4         314         315         331         330
         4         315         316         332         331
         4         316         317         333         332
         4         317         318         334         333
         4         318         319         335         334
         4         320         321         337         336
         4         321         322         338         337
         4         322         323         339         338
         4         323         324         340         339
         4         324         325         341         340
         4         325         326         342         341
         4         326         327         343         342
         4         327         328         344         343
         4         328         329         345         344
         4         329         330         346         345
         4         330         331         347         346
         4         331         332         348         347
         4         332         333         349         348
         4         333         334         350         349
         4         334         335         351         350
         4         336         337         353         352
         4         337         338         354         353
         4         338         339         355         354
         4         339         340         356         355
         4         340         341         357         356
         4         341         342         358         357
         4         342         343         359         358
         4         343         344         360         359
         4         344         345         361         360
         4         345         346         362         361
         4         346         347         363         362
         4         347         348         364         363
         4         348         349         365         364
         4         349         350         366         365
         4         350         351         367         366
         4         352         353         369         368
         4         353         354         370         369
         4         354         355         371         370
         4         355         356         372         371
         4         356         357         373         372
         4         357         358         374         373
         4         358         359         375         374
         4         359         360         376         375
         4         360         361         377         376
         4         361         362         378         377
         4         362         363         379         378
         4         363         364         380         379
         4         364         365         381         380
         4         365         366         382         381
         4         366         367         383         382
         4         368         369         385         384
         4         369         370         386         385
         4         370         371         387         386
         4         371         372         388         387
         4         372         373         389         388
         4         373         374         390         389
         4         374         375         391         390
         4         375         376         392         391
         4         376         377         393         392
         4         377         378         394         393
         4         378         379         395         394
         4         379         380         396         395
         4         380         381         397         396
         4         381         382         398         397
         4         382         383         399         398
         4         384         385         401         400
         4         385         386         402         401
         4         386         387         403         402
         4         387         388         404         403
         4         388         389         405         404
         4         389         390         406         405
         4         390         391         407         406
         4         391         392         408         407
         4         392         393         409         408
         4         393         394         410         409
         4         394         395         411         410
         4         395         396         412         411
         4         396         397         413         412
         4         397         398         414         413
         4         398         399         415         414
         4         400         401         417         416
         4         401         402         418         417
         4         402         403         419         418
         4         403         404         420         419
         4         404         405         421         420
         4         405         406         422         421
         4         406         407         423         422
         4         407         408         424         423
         4         408         409         425         424
         4         409         410         426         425
         4         410         411         427         426
         4         411         412         428         427
         4         412         413         429         428
         4         413         414         430         429
         4         414         415         431         430
         4         416         417         433         432
         4         417         418         434         433
         4         418         419         435         434
         4         419         420         436         435
         4         420         421         437         436
         4         421         422         438         437
         4         422         423         439         438
         4         423         424         440         439
         4         424         425         441         440
         4         425         426         442         441
         4         426         427         443         442
         4         427         428         444         443
         4         428         429         445         444
         4         429         430         446         445
         4         430         431         447         446
         4         432         433         449         448
         4         433         434         450         449
         4         434         435         451         450
         4         435         436         452         451
         4         436         437         453         452
         4         437         438         454         453
         4         438         439         455         454
         4         439         440         456         455
         4         440         441         457         456
         4         441         442         458         457
         4         442         443         459         458
         4         443         444         460         459
         4         444         445         461         460
         4         445         446         462         461
         4         446         447         463         462
         4         448         449         465         464
         4         449         450         466         465
         4         450         451         467         466
         4         451         452         468         467
         4         452         453         469         468
         4         453         454         470         469
         4         454         455         471         470
         4         455         456         472         471
         4         456         457         473         472
         4         457         458         474         473
         4         458         459         475         474
         4         459         460         476         475
         4         460         461         477         476
         4         461         462         478         477
         4         462         463         479         478
         4         464         465         481         480
         4         465         466         482         481
         4         466         467         483         482
         4         467         468         484         483
         4         468         469         485         484
         4         469         470         486         485
         4         470         471         487         486
         4         471         472         488         487
         4         472         473         489         488
         4         473         474         490         489
         4         474         475         491         490
         4         475         476         492         491
         4         476         477         493         492
         4         477         478         494         493
         4         478         479         495         494
CELL_TYPES        450
9
9
9
9
9
9
9
9
9
9
9
9
9
9
9
9
9
9
9
9
9
9
9
9
9
9
9
9
9
9
9
9
9
9
9
9
9
9
9
9
9
9
9
9
9
9
9
9
9
9
9
9
9
9
9
9
9
9
9
9
9
9
9
9
9
9
9
9
9
9
9
9
9
9
9
9
9
9
9
9
9
9
9
9
9
9
9
9
9
9
9
9
9
9
9
9
9
9
9
9
9
9
9
9
9
9
9
9
9
9
9
9
9
9
9
9
9
9
9
9
9
9
9
9
9
9
9
9
9
9
9
9
9
9
9
9
9
9
9
9
9
9
9
9
9
9
9
9
9
9
9
9
9
9
9
9
9
9
9
9
9
9
9
9
9
9
9
9
9
9
9
9
9
9
9
9
9
9
9
9
9
9
9
9
9
9
9
9
9
9
9
9
9
9
9
9
9
9
9
9
9
9
9
9
9
9
9
9
9
9
9
9
9
9
9
9
9
9
9
9
9
9
9
9
9
9
9
9
9
9
9
9
9
9
9
9
9
9
9
9
9
9
9
9
9
9
9
9
9
9
9
9
9
9
9
9
9
9
9
9
9
9
9
9
9
9
9
9
9
9
9
9
9
9
9
9
9
9
9
9
9
9
9
9
9
9
9
9
9
9
9
9
9
9
9
9
9
9
9
9
9
9
9
9
9
9
9
9
9
9
9
9
9
9
9
9
9
9
9
9
9
9
9
9
9
9
9
9
9
9
9
9
9
9
9
9
9
9
9
9
9
9
9
9
9
9
9
9
9
9
9
9
9
9
9
9
9
9
9
9
9
9
9
9
9
9
9
9
9
9
9
9
9
9
9
9
9
9
9
9
9
9
9
9
9
9
9
9
9
9
9
9
9
9
9
9
9
9
9
9
9
9
9
9
9
9
9
9
9
9
9
9
9
9
9
9
9
9
9
9
9
9
9
9
9
9
9
9
9
9
9
9
9
9
9
9
9
9
9
9
9
9
9
9
9
9
9
9
9
9
POINT_DATA       496
SCALARS p double 
LOOKUP_TABLE default
   10664465.9209295     
   10664463.9515189     
   10664458.7980509     
   10664451.1792002     
   10664441.7640853     
   10664431.1710331     
   10664419.9659984     
   10664408.6607043     
   10664397.7105661     
   10664387.5124562     
   10664378.4023636     
   10664370.6529940     
   10664364.4713454     
   10664359.9962842     
   10664357.2961316     
   10664356.3662551     
   10664276.0160577     
   10664274.0479819     
   10664268.8979333     
   10664261.2840637     
   10664251.8750375     
   10664241.2887865     
   10664230.0909199     
   10664218.7928542     
   10664207.8497288     
   10664197.6581656     
   10664188.5539281     
   10664180.8095258     
   10664174.6318024     
   10664170.1595305     
   10664167.4610258     
   10664166.5317757     
   10663706.3950728     
   10663704.4311496     
   10663699.2917502     
   10663691.6934063     
   10663682.3033706     
   10663671.7383446     
   10663660.5628575     
   10663649.2873674     
   10663638.3661509     
   10663628.1950480     
   10663619.1091186     
   10663611.3802620     
   10663605.2148392     
   10663600.7513250     
   10663598.0580042     
   10663597.1307095     
   10662757.3388925     
   10662755.3823848     
   10662750.2620392     
   10662742.6915147     
   10662733.3355471     
   10662722.8086334     
   10662711.6733611     
   10662700.4384605     
   10662689.5566545     
   10662679.4223777     
   10662670.3694299     
   10662662.6686189     
   10662656.5254385     
   10662652.0778133     
   10662649.3939288     
   10662648.4701465     
   10661429.3157994     
   10661427.3707156     
   10661422.2797932     
   10661414.7523030     
   10661405.4491101     
   10661394.9813002     
   10661383.9084420     
   10661372.7365739     
   10661361.9160000     
   10661351.8389750     
   10661342.8373526     
   10661335.1802589     
   10661329.0718449     
   10661324.6491555     
   10661321.9801383     
   10661321.0618004     
   10659722.9815782     
   10659721.0529759     
   10659716.0046072     
   10659708.5394642     
   10659699.3128347     
   10659688.9308559     
   10659677.9486970     
   10659666.8684666     
   10659656.1369427     
   10659646.1432170     
   10659637.2163341     
   10659629.6230019     
   10659623.5654317     
   10659619.1793560     
   10659616.5322549     
   10659615.6218075     
   10657639.1797211     
   10657637.2740144     
   10657632.2848900     
   10657624.9066809     
   10657615.7869269     
   10657605.5248495     
   10657594.6694440     
   10657583.7172986     
   10657573.1102508     
   10657563.2329821     
   10657554.4106467     
   10657546.9066186     
   10657540.9204263     
   10657536.5859357     
   10657533.9698213     
   10657533.0703527     
   10655178.9417155     
   10655177.0669816     
   10655172.1581461     
   10655164.8978884     
   10655155.9232536     
   10655145.8240464     
   10655135.1408298     
   10655124.3626525     
   10655113.9246251     
   10655104.2054609     
   10655095.5250873     
   10655088.1424235     
   10655082.2534097     
   10655077.9893572     
   10655075.4156777     
   10655074.5310311     
   10652343.4874345     
   10652341.6537137     
   10652336.8513338     
   10652329.7475867     
   10652320.9655842     
   10652311.0825759     
   10652300.6278613     
   10652290.0804274     
   10652279.8664442     
   10652270.3567453     
   10652261.8644109     
   10652254.6425641     
   10652248.8824790     
   10652244.7120876     
   10652242.1949619     
   10652241.3298269     
   10649134.2256543     
   10649132.4452315     
   10649127.7813090     
   10649120.8811939     
   10649112.3498189     
   10649102.7480034     
   10649092.5902947     
   10649082.3425274     
   10649072.4192403     
   10649063.1810889     
   10649054.9323838     
   10649047.9188813     
   10649042.3259420     
   10649038.2771643     
   10649035.8335912     
   10649034.9935690     
   10645552.7547316     
   10645551.0423809     
   10645546.5553650     
   10645539.9154293     
   10645531.7041697     
   10645522.4612716     
   10645512.6823106     
   10645502.8162529     
   10645493.2627995     
   10645484.3697199     
   10645476.4303218     
   10645469.6811984     
   10645464.3003917     
   10645460.4061017     
   10645458.0560630     
   10645457.2476967     
   10641600.8634785     
   10641599.2366452     
   10641594.9718799     
   10641588.6587154     
   10641580.8492569     
   10641572.0564504     
   10641562.7518900     
   10641553.3632905     
   10641544.2717659     
   10641535.8090709     
   10641528.2549671     
   10641521.8348769     
   10641516.7179871     
   10641513.0159577     
   10641510.7823836     
   10641510.0131454     
   10637280.5322822     
   10637279.0111652     
   10637275.0210848     
   10637269.1115848     
   10637261.7980793     
   10637253.5602249     
   10637244.8398005     
   10637236.0381933     
   10637227.5136248     
   10637219.5782832     
   10637212.4955439     
   10637206.4774657     
   10637201.6827524     
   10637198.2153595     
   10637196.1239183     
   10637195.4021408     
   10632593.9345212     
   10632592.5420116     
   10632588.8859755     
   10632583.4670821     
   10632576.7558176     
   10632569.1910569     
   10632561.1781021     
   10632553.0862386     
   10632545.2459322     
   10632537.9458373     
   10632531.4298267     
   10632525.8942575     
   10632521.4856917     
   10632518.2992709     
   10632516.3779366     
   10632515.7126753     
   10627543.4383392     
   10627542.1997586     
   10627538.9433944     
   10627534.1111627     
   10627528.1194429     
   10627521.3579603     
   10627514.1880883     
   10627506.9405573     
   10627499.9126640     
   10627493.3651591     
   10627487.5190495     
   10627482.5525623     
   10627478.5985119     
   10627475.7422837     
   10627474.0206258     
   10627473.4214370     
   10622131.6088401     
   10622130.5514223     
   10622127.7653358     
   10622123.6231189     
   10622118.4771320     
   10622112.6588596     
   10622106.4775998     
   10622100.2184392     
   10622094.1395601     
   10622088.4690525     
   10622083.4014841     
   10622079.0945068     
   10622075.6657516     
   10622073.1902226     
   10622071.6983640     
   10622071.1749820     
   10616361.2107756     
   10616360.3628426     
   10616358.1205575     
   10616354.7761105     
   10616350.6075431     
   10616345.8785499     
   10616340.8376805     
   10616335.7167388     
   10616330.7283467     
   10616326.0628079     
   10616321.8845146     
   10616318.3281797     
   10616315.4951376     
   10616313.4498979     
   10616312.2170944     
   10616311.7789968     
   10610235.2118028     
   10610234.6016085     
   10610232.9766360     
   10610230.5379528     
   10610227.4790901     
   10610223.9863466     
   10610220.2386007     
   10610216.4063344     
   10610212.6497258     
   10610209.1158345     
   10610205.9350416     
   10610203.2169656     
   10610201.0460436     
   10610199.4769179     
   10610198.5297451     
   10610198.1856023     
   10603756.7864045     
   10603756.4406594     
   10603755.5026610     
   10603754.0724086     
   10603752.2494639     
   10603750.1336231     
   10603747.8253464     
   10603745.4256293     
   10603743.0350304     
   10603740.7516610     
   10603738.6680587     
   10603736.8669565     
   10603735.4160133     
   10603734.3615989     
   10603733.7217881     
   10603733.4788101     
   10596929.3205936     
   10596929.2627315     
   10596929.0728312     
   10596928.7413263     
   10596928.2657716     
   10596927.6515520     
   10596926.9127712     
   10596926.0731371     
   10596925.1664537     
   10596924.2361544     
   10596923.3332761     
   10596922.5124101     
   10596921.8254426     
   10596921.3131851     
   10596920.9952221     
   10596920.8584383     
   10589756.4175756     
   10589756.6658595     
   10589757.2712457     
   10589758.1080181     
   10589759.0657461     
   10589760.0494833     
   10589760.9807145     
   10589761.7992670     
   10589762.4658077     
   10589762.9638493     
   10589763.2997499     
   10589763.4993612     
   10589763.6006926     
   10589763.6427772     
   10589763.6514614     
   10589763.6229909     
   10582241.9046300     
   10582242.4701970     
   10582243.8981833     
   10582245.9422300     
   10582248.3804544     
   10582251.0144081     
   10582253.6694653     
   10582256.1975358     
   10582258.4818936     
   10582260.4424366     
   10582262.0386558     
   10582263.2676910     
   10582264.1560967     
   10582264.7455442     
   10582265.0737498     
   10582265.1521402     
   10574389.8416076     
   10574390.7264964     
   10574392.9781117     
   10574396.2268805     
   10574400.1386768     
   10574404.4117480     
   10574408.7758953     
   10574412.9955951     
   10574416.8769019     
   10574420.2758542     
   10574423.1047095     
   10574425.3322308     
   10574426.9754944     
   10574428.0828661     
   10574428.7097505     
   10574428.8894679     
   10566204.5316292     
   10566205.7267314     
   10566208.7696255     
   10566213.1664097     
   10566218.4725497     
   10566224.2870669     
   10566230.2502277     
   10566236.0466465     
   10566241.4129441     
   10566246.1472580     
   10566250.1173622     
   10566253.2637840     
   10566255.5939916     
   10566257.1650007     
   10566258.0548443     
   10566258.3259963     
   10557690.5350281     
   10557692.0176583     
   10557695.7774991     
   10557701.1960996     
   10557707.7230576     
   10557714.8670980     
   10557722.1926054     
   10557729.3219724     
   10557735.9409086     
   10557741.8045527     
   10557746.7439118     
   10557750.6713290     
   10557753.5805916     
   10557755.5346497     
   10557756.6364261     
   10557756.9847914     
   10548852.6882565     
   10548854.4187048     
   10548858.7670775     
   10548864.9909118     
   10548872.4424378     
   10548880.5568310     
   10548888.8476367     
   10548896.9053384     
   10548904.3948522     
   10548911.0528847     
   10548916.6882540     
   10548921.1873858     
   10548924.5222919     
   10548926.7514813     
   10548927.9991617     
   10548928.4066451     
   10539696.1306630     
   10539698.0464456     
   10539702.7810488     
   10539709.4707040     
   10539717.3883588     
   10539725.9281842     
   10539734.5949263     
   10539742.9898049     
   10539750.7948807     
   10539757.7592238     
   10539763.6912616     
   10539768.4605665     
   10539772.0108314     
   10539774.3773389     
   10539775.6908135     
   10539776.1365150     
   10530226.3452900     
   10530228.3500702     
   10530233.1567954     
   10530239.7946045     
   10530247.5022181     
   10530255.6971137     
   10530263.9351657     
   10530271.8769430     
   10530279.2587532     
   10530285.8718554     
   10530291.5497665     
   10530296.1645894     
   10530299.6364175     
   10530301.9622768     
   10530303.2473780     
   10530303.7103776     
   10520449.2299545     
   10520451.1643120     
   10520455.5369322     
   10520461.3272029     
   10520467.8661337     
   10520474.6905266     
   10520481.4740109     
   10520487.9773973     
   10520494.0181501     
   10520499.4513051     
   10520504.1574222     
   10520508.0361744     
   10520511.0078505     
   10520513.0326921     
   10520514.1774201     
   10520514.6373976     
   10510371.2243306     
   10510372.8114261     
   10510375.8193346     
   10510379.5621714     
   10510383.6406761     
   10510387.8102613     
   10510391.9062969     
   10510395.8104687     
   10510399.4331330     
   10510402.7027663     
   10510405.5590985     
   10510407.9485511     
   10510409.8222740     
   10510411.1409603     
   10510411.9065036     
   10510412.4074079     
   10500000.0000000     
   10500000.0000000     
   10500000.0000000     
   10500000.0000000     
   10500000.0000000     
   10500000.0000000     
   10500000.0000000     
   10500000.0000000     
   10500000.0000000     
   10500000.0000000     
   10500000.0000000     
   10500000.0000000     
   10500000.0000000     
   10500000.0000000     
   10500000.0000000     
   10500000.0000000     
VECTORS u double 
    0.00000E+00        -0.63134E-01         0.00000E+00
    0.00000E+00        -0.58921E-01         0.00000E+00
    0.00000E+00        -0.54708E-01         0.00000E+00
    0.00000E+00        -0.50496E-01         0.00000E+00
    0.00000E+00        -0.46284E-01         0.00000E+00
    0.00000E+00        -0.42073E-01         0.00000E+00
    0.00000E+00        -0.37862E-01         0.00000E+00
    0.00000E+00        -0.33652E-01         0.00000E+00
    0.00000E+00        -0.29442E-01         0.00000E+00
    0.00000E+00        -0.25233E-01         0.00000E+00
    0.00000E+00        -0.21025E-01         0.00000E+00
    0.00000E+00        -0.16818E-01         0.00000E+00
    0.00000E+00        -0.12612E-01         0.00000E+00
    0.00000E+00        -0.84070E-02         0.00000E+00
    0.00000E+00        -0.42029E-02         0.00000E+00
    0.00000E+00         0.00000E+00         0.00000E+00
    0.12392E-04        -0.63134E-01         0.00000E+00
    0.12137E-04        -0.58921E-01         0.00000E+00
    0.11793E-04        -0.54708E-01         0.00000E+00
    0.11363E-04        -0.50496E-01         0.00000E+00
    0.10846E-04        -0.46284E-01         0.00000E+00
    0.10244E-04        -0.42073E-01         0.00000E+00
    0.95577E-05        -0.37862E-01         0.00000E+00
    0.87883E-05        -0.33652E-01         0.00000E+00
    0.79379E-05        -0.29442E-01         0.00000E+00
    0.70090E-05        -0.25233E-01         0.00000E+00
    0.60047E-05        -0.21025E-01         0.00000E+00
    0.49284E-05        -0.16818E-01         0.00000E+00
    0.37846E-05        -0.12612E-01         0.00000E+00
    0.25780E-05        -0.84070E-02         0.00000E+00
    0.13143E-05        -0.42029E-02         0.00000E+00
    0.00000E+00         0.00000E+00         0.00000E+00
    0.24740E-04        -0.63134E-01         0.00000E+00
    0.24228E-04        -0.58921E-01         0.00000E+00
    0.23542E-04        -0.54709E-01         0.00000E+00
    0.22682E-04        -0.50496E-01         0.00000E+00
    0.21650E-04        -0.46284E-01         0.00000E+00
    0.20448E-04        -0.42073E-01         0.00000E+00
    0.19077E-04        -0.37862E-01         0.00000E+00
    0.17540E-04        -0.33652E-01         0.00000E+00
    0.15842E-04        -0.29442E-01         0.00000E+00
    0.13988E-04        -0.25234E-01         0.00000E+00
    0.11983E-04        -0.21026E-01         0.00000E+00
    0.98350E-05        -0.16818E-01         0.00000E+00
    0.75521E-05        -0.12612E-01         0.00000E+00
    0.51442E-05        -0.84071E-02         0.00000E+00
    0.26226E-05        -0.42030E-02         0.00000E+00
    0.00000E+00         0.00000E+00         0.00000E+00
    0.36997E-04        -0.63134E-01         0.00000E+00
    0.36230E-04        -0.58922E-01         0.00000E+00
    0.35202E-04        -0.54709E-01         0.00000E+00
    0.33914E-04        -0.50497E-01         0.00000E+00
    0.32369E-04        -0.46285E-01         0.00000E+00
    0.30569E-04        -0.42073E-01         0.00000E+00
    0.28518E-04        -0.37863E-01         0.00000E+00
    0.26219E-04        -0.33652E-01         0.00000E+00
    0.23680E-04        -0.29443E-01         0.00000E+00
    0.20907E-04        -0.25234E-01         0.00000E+00
    0.17909E-04        -0.21026E-01         0.00000E+00
    0.14698E-04        -0.16819E-01         0.00000E+00
    0.11286E-04        -0.12612E-01         0.00000E+00
    0.76872E-05        -0.84072E-02         0.00000E+00
    0.39189E-05        -0.42031E-02         0.00000E+00
    0.00000E+00         0.00000E+00         0.00000E+00
    0.49116E-04        -0.63135E-01         0.00000E+00
    0.48094E-04        -0.58922E-01         0.00000E+00
    0.46726E-04        -0.54710E-01         0.00000E+00
    0.45014E-04        -0.50497E-01         0.00000E+00
    0.42959E-04        -0.46286E-01         0.00000E+00
    0.40567E-04        -0.42074E-01         0.00000E+00
    0.37841E-04        -0.37863E-01         0.00000E+00
    0.34788E-04        -0.33653E-01         0.00000E+00
    0.31416E-04        -0.29443E-01         0.00000E+00
    0.27735E-04        -0.25234E-01         0.00000E+00
    0.23757E-04        -0.21026E-01         0.00000E+00
    0.19496E-04        -0.16819E-01         0.00000E+00
    0.14969E-04        -0.12613E-01         0.00000E+00
    0.10196E-04        -0.84075E-02         0.00000E+00
    0.51974E-05        -0.42032E-02         0.00000E+00
    0.00000E+00         0.00000E+00         0.00000E+00
    0.61045E-04        -0.63136E-01         0.00000E+00
    0.59771E-04        -0.58923E-01         0.00000E+00
    0.58065E-04        -0.54711E-01         0.00000E+00
    0.55932E-04        -0.50498E-01         0.00000E+00
    0.53374E-04        -0.46286E-01         0.00000E+00
    0.50397E-04        -0.42075E-01         0.00000E+00
    0.47006E-04        -0.37864E-01         0.00000E+00
    0.43209E-04        -0.33654E-01         0.00000E+00
    0.39017E-04        -0.29444E-01         0.00000E+00
    0.34443E-04        -0.25235E-01         0.00000E+00
    0.29500E-04        -0.21027E-01         0.00000E+00
    0.24208E-04        -0.16820E-01         0.00000E+00
    0.18586E-04        -0.12613E-01         0.00000E+00
    0.12658E-04        -0.84078E-02         0.00000E+00
    0.64526E-05        -0.42034E-02         0.00000E+00
    0.00000E+00         0.00000E+00         0.00000E+00
    0.72730E-04        -0.63137E-01         0.00000E+00
    0.71205E-04        -0.58924E-01         0.00000E+00
    0.69167E-04        -0.54712E-01         0.00000E+00
    0.66619E-04        -0.50499E-01         0.00000E+00
    0.63566E-04        -0.46287E-01         0.00000E+00
    0.60013E-04        -0.42076E-01         0.00000E+00
    0.55970E-04        -0.37865E-01         0.00000E+00
    0.51444E-04        -0.33655E-01         0.00000E+00
    0.46449E-04        -0.29445E-01         0.00000E+00
    0.41000E-04        -0.25236E-01         0.00000E+00
    0.35114E-04        -0.21028E-01         0.00000E+00
    0.28813E-04        -0.16820E-01         0.00000E+00
    0.22120E-04        -0.12614E-01         0.00000E+00
    0.15065E-04        -0.84081E-02         0.00000E+00
    0.76789E-05        -0.42035E-02         0.00000E+00
    0.00000E+00         0.00000E+00         0.00000E+00
    0.84108E-04        -0.63139E-01         0.00000E+00
    0.82337E-04        -0.58926E-01         0.00000E+00
    0.79972E-04        -0.54713E-01         0.00000E+00
    0.77019E-04        -0.50501E-01         0.00000E+00
    0.73482E-04        -0.46289E-01         0.00000E+00
    0.69369E-04        -0.42077E-01         0.00000E+00
    0.64689E-04        -0.37866E-01         0.00000E+00
    0.59453E-04        -0.33656E-01         0.00000E+00
    0.53676E-04        -0.29446E-01         0.00000E+00
    0.47376E-04        -0.25237E-01         0.00000E+00
    0.40573E-04        -0.21028E-01         0.00000E+00
    0.33290E-04        -0.16821E-01         0.00000E+00
    0.25556E-04        -0.12614E-01         0.00000E+00
    0.17405E-04        -0.84086E-02         0.00000E+00
    0.88715E-05        -0.42038E-02         0.00000E+00
    0.00000E+00         0.00000E+00         0.00000E+00
    0.95113E-04        -0.63140E-01         0.00000E+00
    0.93101E-04        -0.58927E-01         0.00000E+00
    0.90420E-04        -0.54715E-01         0.00000E+00
    0.87074E-04        -0.50502E-01         0.00000E+00
    0.83068E-04        -0.46290E-01         0.00000E+00
    0.78413E-04        -0.42079E-01         0.00000E+00
    0.73117E-04        -0.37867E-01         0.00000E+00
    0.67195E-04        -0.33657E-01         0.00000E+00
    0.60663E-04        -0.29447E-01         0.00000E+00
    0.53541E-04        -0.25238E-01         0.00000E+00
    0.45851E-04        -0.21029E-01         0.00000E+00
    0.37620E-04        -0.16822E-01         0.00000E+00
    0.28881E-04        -0.12615E-01         0.00000E+00
    0.19668E-04        -0.84091E-02         0.00000E+00
    0.10025E-04        -0.42041E-02         0.00000E+00
    0.00000E+00         0.00000E+00         0.00000E+00
    0.10567E-03        -0.63142E-01         0.00000E+00
    0.10342E-03        -0.58929E-01         0.00000E+00
    0.10044E-03        -0.54716E-01         0.00000E+00
    0.96717E-04        -0.50504E-01         0.00000E+00
    0.92264E-04        -0.46292E-01         0.00000E+00
    0.87089E-04        -0.42080E-01         0.00000E+00
    0.81205E-04        -0.37869E-01         0.00000E+00
    0.74627E-04        -0.33659E-01         0.00000E+00
    0.67373E-04        -0.29449E-01         0.00000E+00
    0.59463E-04        -0.25239E-01         0.00000E+00
    0.50924E-04        -0.21031E-01         0.00000E+00
    0.41784E-04        -0.16823E-01         0.00000E+00
    0.32078E-04        -0.12616E-01         0.00000E+00
    0.21847E-04        -0.84097E-02         0.00000E+00
    0.11136E-04        -0.42044E-02         0.00000E+00
    0.00000E+00         0.00000E+00         0.00000E+00
    0.11568E-03        -0.63144E-01         0.00000E+00
    0.11322E-03        -0.58931E-01         0.00000E+00
    0.10995E-03        -0.54718E-01         0.00000E+00
    0.10588E-03        -0.50506E-01         0.00000E+00
    0.10100E-03        -0.46294E-01         0.00000E+00
    0.95340E-04        -0.42082E-01         0.00000E+00
    0.88902E-04        -0.37871E-01         0.00000E+00
    0.81704E-04        -0.33660E-01         0.00000E+00
    0.73767E-04        -0.29450E-01         0.00000E+00
    0.65112E-04        -0.25241E-01         0.00000E+00
    0.55766E-04        -0.21032E-01         0.00000E+00
    0.45761E-04        -0.16824E-01         0.00000E+00
    0.35134E-04        -0.12617E-01         0.00000E+00
    0.23930E-04        -0.84104E-02         0.00000E+00
    0.12199E-04        -0.42048E-02         0.00000E+00
    0.00000E+00         0.00000E+00         0.00000E+00
    0.12506E-03        -0.63146E-01         0.00000E+00
    0.12240E-03        -0.58933E-01         0.00000E+00
    0.11887E-03        -0.54721E-01         0.00000E+00
    0.11447E-03        -0.50508E-01         0.00000E+00
    0.10921E-03        -0.46296E-01         0.00000E+00
    0.10310E-03        -0.42084E-01         0.00000E+00
    0.96151E-04        -0.37873E-01         0.00000E+00
    0.88379E-04        -0.33662E-01         0.00000E+00
    0.79806E-04        -0.29452E-01         0.00000E+00
    0.70453E-04        -0.25243E-01         0.00000E+00
    0.60351E-04        -0.21034E-01         0.00000E+00
    0.49531E-04        -0.16826E-01         0.00000E+00
    0.38035E-04        -0.12618E-01         0.00000E+00
    0.25909E-04        -0.84112E-02         0.00000E+00
    0.13210E-04        -0.42052E-02         0.00000E+00
    0.00000E+00         0.00000E+00         0.00000E+00
    0.13369E-03        -0.63148E-01         0.00000E+00
    0.13086E-03        -0.58936E-01         0.00000E+00
    0.12710E-03        -0.54723E-01         0.00000E+00
    0.12242E-03        -0.50511E-01         0.00000E+00
    0.11682E-03        -0.46299E-01         0.00000E+00
    0.11030E-03        -0.42087E-01         0.00000E+00
    0.10289E-03        -0.37876E-01         0.00000E+00
    0.94600E-04        -0.33665E-01         0.00000E+00
    0.85446E-04        -0.29455E-01         0.00000E+00
    0.75453E-04        -0.25245E-01         0.00000E+00
    0.64650E-04        -0.21036E-01         0.00000E+00
    0.53074E-04        -0.16827E-01         0.00000E+00
    0.40765E-04        -0.12619E-01         0.00000E+00
    0.27775E-04        -0.84122E-02         0.00000E+00
    0.14164E-04        -0.42057E-02         0.00000E+00
    0.00000E+00         0.00000E+00         0.00000E+00
    0.14145E-03        -0.63151E-01         0.00000E+00
    0.13848E-03        -0.58938E-01         0.00000E+00
    0.13454E-03        -0.54726E-01         0.00000E+00
    0.12962E-03        -0.50514E-01         0.00000E+00
    0.12373E-03        -0.46301E-01         0.00000E+00
    0.11687E-03        -0.42090E-01         0.00000E+00
    0.10906E-03        -0.37878E-01         0.00000E+00
    0.10031E-03        -0.33668E-01         0.00000E+00
    0.90641E-04        -0.29457E-01         0.00000E+00
    0.80072E-04        -0.25247E-01         0.00000E+00
    0.68635E-04        -0.21038E-01         0.00000E+00
    0.56365E-04        -0.16829E-01         0.00000E+00
    0.43308E-04        -0.12621E-01         0.00000E+00
    0.29517E-04        -0.84132E-02         0.00000E+00
    0.15056E-04        -0.42063E-02         0.00000E+00
    0.00000E+00         0.00000E+00         0.00000E+00
    0.14820E-03        -0.63154E-01         0.00000E+00
    0.14513E-03        -0.58941E-01         0.00000E+00
    0.14105E-03        -0.54729E-01         0.00000E+00
    0.13596E-03        -0.50517E-01         0.00000E+00
    0.12985E-03        -0.46305E-01         0.00000E+00
    0.12272E-03        -0.42093E-01         0.00000E+00
    0.11458E-03        -0.37882E-01         0.00000E+00
    0.10545E-03        -0.33671E-01         0.00000E+00
    0.95338E-04        -0.29460E-01         0.00000E+00
    0.84267E-04        -0.25250E-01         0.00000E+00
    0.72269E-04        -0.21040E-01         0.00000E+00
    0.59379E-04        -0.16831E-01         0.00000E+00
    0.45645E-04        -0.12622E-01         0.00000E+00
    0.31123E-04        -0.84144E-02         0.00000E+00
    0.15882E-04        -0.42069E-02         0.00000E+00
    0.00000E+00         0.00000E+00         0.00000E+00
    0.15377E-03        -0.63156E-01         0.00000E+00
    0.15066E-03        -0.58944E-01         0.00000E+00
    0.14651E-03        -0.54732E-01         0.00000E+00
    0.14132E-03        -0.50520E-01         0.00000E+00
    0.13507E-03        -0.46308E-01         0.00000E+00
    0.12775E-03        -0.42096E-01         0.00000E+00
    0.11937E-03        -0.37885E-01         0.00000E+00
    0.10995E-03        -0.33674E-01         0.00000E+00
    0.99477E-04        -0.29463E-01         0.00000E+00
    0.87989E-04        -0.25253E-01         0.00000E+00
    0.75513E-04        -0.21043E-01         0.00000E+00
    0.62085E-04        -0.16833E-01         0.00000E+00
    0.47755E-04        -0.12624E-01         0.00000E+00
    0.32581E-04        -0.84157E-02         0.00000E+00
    0.16634E-04        -0.42076E-02         0.00000E+00
    0.00000E+00         0.00000E+00         0.00000E+00
    0.15801E-03        -0.63159E-01         0.00000E+00
    0.15492E-03        -0.58947E-01         0.00000E+00
    0.15078E-03        -0.54735E-01         0.00000E+00
    0.14557E-03        -0.50523E-01         0.00000E+00
    0.13927E-03        -0.46312E-01         0.00000E+00
    0.13186E-03        -0.42100E-01         0.00000E+00
    0.12334E-03        -0.37889E-01         0.00000E+00
    0.11371E-03        -0.33678E-01         0.00000E+00
    0.10299E-03        -0.29467E-01         0.00000E+00
    0.91179E-04        -0.25256E-01         0.00000E+00
    0.78319E-04        -0.21046E-01         0.00000E+00
    0.64446E-04        -0.16836E-01         0.00000E+00
    0.49610E-04        -0.12626E-01         0.00000E+00
    0.33873E-04        -0.84172E-02         0.00000E+00
    0.17307E-04        -0.42084E-02         0.00000E+00
    0.00000E+00         0.00000E+00         0.00000E+00
    0.16074E-03        -0.63161E-01         0.00000E+00
    0.15775E-03        -0.58950E-01         0.00000E+00
    0.15371E-03        -0.54738E-01         0.00000E+00
    0.14858E-03        -0.50527E-01         0.00000E+00
    0.14233E-03        -0.46315E-01         0.00000E+00
    0.13493E-03        -0.42104E-01         0.00000E+00
    0.12638E-03        -0.37893E-01         0.00000E+00
    0.11666E-03        -0.33682E-01         0.00000E+00
    0.10578E-03        -0.29471E-01         0.00000E+00
    0.93764E-04        -0.25260E-01         0.00000E+00
    0.80629E-04        -0.21049E-01         0.00000E+00
    0.66418E-04        -0.16839E-01         0.00000E+00
    0.51181E-04        -0.12629E-01         0.00000E+00
    0.34980E-04        -0.84188E-02         0.00000E+00
    0.17890E-04        -0.42093E-02         0.00000E+00
    0.00000E+00         0.00000E+00         0.00000E+00
    0.16178E-03        -0.63164E-01         0.00000E+00
    0.15897E-03        -0.58953E-01         0.00000E+00
    0.15512E-03        -0.54742E-01         0.00000E+00
    0.15017E-03        -0.50531E-01         0.00000E+00
    0.14409E-03        -0.46319E-01         0.00000E+00
    0.13683E-03        -0.42108E-01         0.00000E+00
    0.12836E-03        -0.37897E-01         0.00000E+00
    0.11867E-03        -0.33686E-01         0.00000E+00
    0.10777E-03        -0.29475E-01         0.00000E+00
    0.95660E-04        -0.25264E-01         0.00000E+00
    0.82373E-04        -0.21053E-01         0.00000E+00
    0.67946E-04        -0.16842E-01         0.00000E+00
    0.52428E-04        -0.12631E-01         0.00000E+00
    0.35880E-04        -0.84206E-02         0.00000E+00
    0.18375E-04        -0.42102E-02         0.00000E+00
    0.00000E+00         0.00000E+00         0.00000E+00
    0.16095E-03        -0.63166E-01         0.00000E+00
    0.15841E-03        -0.58956E-01         0.00000E+00
    0.15485E-03        -0.54745E-01         0.00000E+00
    0.15020E-03        -0.50534E-01         0.00000E+00
    0.14439E-03        -0.46324E-01         0.00000E+00
    0.13738E-03        -0.42113E-01         0.00000E+00
    0.12913E-03        -0.37901E-01         0.00000E+00
    0.11961E-03        -0.33690E-01         0.00000E+00
    0.10882E-03        -0.29479E-01         0.00000E+00
    0.96762E-04        -0.25268E-01         0.00000E+00
    0.83465E-04        -0.21057E-01         0.00000E+00
    0.68963E-04        -0.16845E-01         0.00000E+00
    0.53304E-04        -0.12634E-01         0.00000E+00
    0.36542E-04        -0.84226E-02         0.00000E+00
    0.18746E-04        -0.42113E-02         0.00000E+00
    0.00000E+00         0.00000E+00         0.00000E+00
    0.15810E-03        -0.63168E-01         0.00000E+00
    0.15592E-03        -0.58958E-01         0.00000E+00
    0.15273E-03        -0.54748E-01         0.00000E+00
    0.14847E-03        -0.50538E-01         0.00000E+00
    0.14306E-03        -0.46328E-01         0.00000E+00
    0.13643E-03        -0.42117E-01         0.00000E+00
    0.12853E-03        -0.37906E-01         0.00000E+00
    0.11932E-03        -0.33695E-01         0.00000E+00
    0.10879E-03        -0.29484E-01         0.00000E+00
    0.96942E-04        -0.25272E-01         0.00000E+00
    0.83799E-04        -0.21061E-01         0.00000E+00
    0.69389E-04        -0.16849E-01         0.00000E+00
    0.53750E-04        -0.12637E-01         0.00000E+00
    0.36930E-04        -0.84247E-02         0.00000E+00
    0.18988E-04        -0.42124E-02         0.00000E+00
    0.00000E+00         0.00000E+00         0.00000E+00
    0.15309E-03        -0.63169E-01         0.00000E+00
    0.15133E-03        -0.58960E-01         0.00000E+00
    0.14860E-03        -0.54751E-01         0.00000E+00
    0.14482E-03        -0.50542E-01         0.00000E+00
    0.13990E-03        -0.46332E-01         0.00000E+00
    0.13376E-03        -0.42121E-01         0.00000E+00
    0.12634E-03        -0.37911E-01         0.00000E+00
    0.11760E-03        -0.33700E-01         0.00000E+00
    0.10750E-03        -0.29489E-01         0.00000E+00
    0.96049E-04        -0.25277E-01         0.00000E+00
    0.83250E-04        -0.21065E-01         0.00000E+00
    0.69122E-04        -0.16853E-01         0.00000E+00
    0.53692E-04        -0.12640E-01         0.00000E+00
    0.36996E-04        -0.84270E-02         0.00000E+00
    0.19078E-04        -0.42136E-02         0.00000E+00
    0.00000E+00         0.00000E+00         0.00000E+00
    0.14578E-03        -0.63171E-01         0.00000E+00
    0.14451E-03        -0.58962E-01         0.00000E+00
    0.14230E-03        -0.54754E-01         0.00000E+00
    0.13907E-03        -0.50545E-01         0.00000E+00
    0.13472E-03        -0.46335E-01         0.00000E+00
    0.12918E-03        -0.42126E-01         0.00000E+00
    0.12236E-03        -0.37916E-01         0.00000E+00
    0.11424E-03        -0.33705E-01         0.00000E+00
    0.10475E-03        -0.29494E-01         0.00000E+00
    0.93900E-04        -0.25282E-01         0.00000E+00
    0.81661E-04        -0.21070E-01         0.00000E+00
    0.68037E-04        -0.16857E-01         0.00000E+00
    0.53038E-04        -0.12644E-01         0.00000E+00
    0.36678E-04        -0.84295E-02         0.00000E+00
    0.18985E-04        -0.42150E-02         0.00000E+00
    0.00000E+00         0.00000E+00         0.00000E+00
    0.13611E-03        -0.63171E-01         0.00000E+00
    0.13536E-03        -0.58964E-01         0.00000E+00
    0.13370E-03        -0.54756E-01         0.00000E+00
    0.13105E-03        -0.50548E-01         0.00000E+00
    0.12732E-03        -0.46339E-01         0.00000E+00
    0.12244E-03        -0.42130E-01         0.00000E+00
    0.11635E-03        -0.37920E-01         0.00000E+00
    0.10899E-03        -0.33710E-01         0.00000E+00
    0.10031E-03        -0.29499E-01         0.00000E+00
    0.90276E-04        -0.25287E-01         0.00000E+00
    0.78842E-04        -0.21075E-01         0.00000E+00
    0.65978E-04        -0.16861E-01         0.00000E+00
    0.51666E-04        -0.12647E-01         0.00000E+00
    0.35896E-04        -0.84321E-02         0.00000E+00
    0.18669E-04        -0.42163E-02         0.00000E+00
    0.00000E+00         0.00000E+00         0.00000E+00
    0.12402E-03        -0.63171E-01         0.00000E+00
    0.12378E-03        -0.58965E-01         0.00000E+00
    0.12267E-03        -0.54757E-01         0.00000E+00
    0.12060E-03        -0.50550E-01         0.00000E+00
    0.11751E-03        -0.46342E-01         0.00000E+00
    0.11334E-03        -0.42134E-01         0.00000E+00
    0.10805E-03        -0.37925E-01         0.00000E+00
    0.10159E-03        -0.33715E-01         0.00000E+00
    0.93905E-04        -0.29504E-01         0.00000E+00
    0.84920E-04        -0.25292E-01         0.00000E+00
    0.74558E-04        -0.21080E-01         0.00000E+00
    0.62744E-04        -0.16866E-01         0.00000E+00
    0.49420E-04        -0.12651E-01         0.00000E+00
    0.34541E-04        -0.84347E-02         0.00000E+00
    0.18076E-04        -0.42178E-02         0.00000E+00
    0.00000E+00         0.00000E+00         0.00000E+00
    0.10946E-03        -0.63171E-01         0.00000E+00
    0.10971E-03        -0.58965E-01         0.00000E+00
    0.10910E-03        -0.54759E-01         0.00000E+00
    0.10758E-03        -0.50552E-01         0.00000E+00
    0.10510E-03        -0.46345E-01         0.00000E+00
    0.10166E-03        -0.42137E-01         0.00000E+00
    0.97234E-04        -0.37929E-01         0.00000E+00
    0.91789E-04        -0.33720E-01         0.00000E+00
    0.85255E-04        -0.29509E-01         0.00000E+00
    0.77537E-04        -0.25297E-01         0.00000E+00
    0.68519E-04        -0.21084E-01         0.00000E+00
    0.58076E-04        -0.16870E-01         0.00000E+00
    0.46092E-04        -0.12654E-01         0.00000E+00
    0.32470E-04        -0.84375E-02         0.00000E+00
    0.17129E-04        -0.42193E-02         0.00000E+00
    0.00000E+00         0.00000E+00         0.00000E+00
    0.92452E-04        -0.63170E-01         0.00000E+00
    0.93097E-04        -0.58965E-01         0.00000E+00
    0.92903E-04        -0.54759E-01         0.00000E+00
    0.91848E-04        -0.50554E-01         0.00000E+00
    0.89947E-04        -0.46347E-01         0.00000E+00
    0.87235E-04        -0.42140E-01         0.00000E+00
    0.83713E-04        -0.37932E-01         0.00000E+00
    0.79351E-04        -0.33723E-01         0.00000E+00
    0.74082E-04        -0.29513E-01         0.00000E+00
    0.67804E-04        -0.25302E-01         0.00000E+00
    0.60380E-04        -0.21089E-01         0.00000E+00
    0.51642E-04        -0.16874E-01         0.00000E+00
    0.41402E-04        -0.12658E-01         0.00000E+00
    0.29481E-04        -0.84402E-02         0.00000E+00
    0.15725E-04        -0.42208E-02         0.00000E+00
    0.00000E+00         0.00000E+00         0.00000E+00
    0.72994E-04        -0.63169E-01         0.00000E+00
    0.73876E-04        -0.58964E-01         0.00000E+00
    0.73960E-04        -0.54760E-01         0.00000E+00
    0.73288E-04        -0.50555E-01         0.00000E+00
    0.71931E-04        -0.46349E-01         0.00000E+00
    0.69941E-04        -0.42143E-01         0.00000E+00
    0.67333E-04        -0.37935E-01         0.00000E+00
    0.64082E-04        -0.33727E-01         0.00000E+00
    0.60136E-04        -0.29517E-01         0.00000E+00
    0.55407E-04        -0.25305E-01         0.00000E+00
    0.49764E-04        -0.21093E-01         0.00000E+00
    0.43028E-04        -0.16878E-01         0.00000E+00
    0.34965E-04        -0.12661E-01         0.00000E+00
    0.25287E-04        -0.84429E-02         0.00000E+00
    0.13710E-04        -0.42224E-02         0.00000E+00
    0.00000E+00         0.00000E+00         0.00000E+00
    0.51116E-04        -0.63168E-01         0.00000E+00
    0.51980E-04        -0.58964E-01         0.00000E+00
    0.52176E-04        -0.54760E-01         0.00000E+00
    0.51821E-04        -0.50556E-01         0.00000E+00
    0.50977E-04        -0.46350E-01         0.00000E+00
    0.49689E-04        -0.42144E-01         0.00000E+00
    0.47977E-04        -0.37937E-01         0.00000E+00
    0.45833E-04        -0.33729E-01         0.00000E+00
    0.43222E-04        -0.29519E-01         0.00000E+00
    0.40082E-04        -0.25308E-01         0.00000E+00
    0.36317E-04        -0.21095E-01         0.00000E+00
    0.31782E-04        -0.16881E-01         0.00000E+00
    0.26264E-04        -0.12664E-01         0.00000E+00
    0.19444E-04        -0.84454E-02         0.00000E+00
    0.10844E-04        -0.42239E-02         0.00000E+00
    0.00000E+00         0.00000E+00         0.00000E+00
    0.26795E-04        -0.63166E-01         0.00000E+00
    0.27308E-04        -0.58963E-01         0.00000E+00
    0.27527E-04        -0.54760E-01         0.00000E+00
    0.27410E-04        -0.50556E-01         0.00000E+00
    0.27023E-04        -0.46351E-01         0.00000E+00
    0.26399E-04        -0.42145E-01         0.00000E+00
    0.25556E-04        -0.37938E-01         0.00000E+00
    0.24496E-04        -0.33730E-01         0.00000E+00
    0.23204E-04        -0.29521E-01         0.00000E+00
    0.21648E-04        -0.25310E-01         0.00000E+00
    0.19777E-04        -0.21097E-01         0.00000E+00
    0.17516E-04        -0.16883E-01         0.00000E+00
    0.14742E-04        -0.12666E-01         0.00000E+00
    0.11245E-04        -0.84473E-02         0.00000E+00
    0.66490E-05        -0.42254E-02         0.00000E+00
    0.00000E+00         0.00000E+00         0.00000E+00
    0.00000E+00        -0.63167E-01         0.00000E+00
    0.00000E+00        -0.58964E-01         0.00000E+00
    0.00000E+00        -0.54760E-01         0.00000E+00
    0.00000E+00        -0.50556E-01         0.00000E+00
    0.00000E+00        -0.46351E-01         0.00000E+00
    0.00000E+00        -0.42146E-01         0.00000E+00
    0.00000E+00        -0.37939E-01         0.00000E+00
    0.00000E+00        -0.33731E-01         0.00000E+00
    0.00000E+00        -0.29521E-01         0.00000E+00
    0.00000E+00        -0.25310E-01         0.00000E+00
    0.00000E+00        -0.21098E-01         0.00000E+00
    0.00000E+00        -0.16883E-01         0.00000E+00
    0.00000E+00        -0.12667E-01         0.00000E+00
    0.00000E+00        -0.84480E-02         0.00000E+00
    0.00000E+00        -0.42261E-02         0.00000E+00
    0.00000E+00         0.00000E+00         0.00000E+00
CELL_DATA        450
VECTORS vDarcy double 
    0.10814E-09        -0.11211E-11         0.00000E+00
    0.10814E-09        -0.29337E-11         0.00000E+00
    0.10814E-09        -0.43371E-11         0.00000E+00
    0.10813E-09        -0.53597E-11         0.00000E+00
    0.10813E-09        -0.60303E-11         0.00000E+00
    0.10813E-09        -0.63787E-11         0.00000E+00
    0.10812E-09        -0.64357E-11         0.00000E+00
    0.10812E-09        -0.62336E-11         0.00000E+00
    0.10811E-09        -0.58054E-11         0.00000E+00
    0.10811E-09        -0.51861E-11         0.00000E+00
    0.10811E-09        -0.44115E-11         0.00000E+00
    0.10811E-09        -0.35190E-11         0.00000E+00
    0.10810E-09        -0.25475E-11         0.00000E+00
    0.10810E-09        -0.15371E-11         0.00000E+00
    0.10810E-09        -0.52934E-12         0.00000E+00
    0.32437E-09        -0.11195E-11         0.00000E+00
    0.32437E-09        -0.29297E-11         0.00000E+00
    0.32436E-09        -0.43313E-11         0.00000E+00
    0.32435E-09        -0.53526E-11         0.00000E+00
    0.32434E-09        -0.60223E-11         0.00000E+00
    0.32432E-09        -0.63703E-11         0.00000E+00
    0.32431E-09        -0.64273E-11         0.00000E+00
    0.32430E-09        -0.62253E-11         0.00000E+00
    0.32429E-09        -0.57978E-11         0.00000E+00
    0.32428E-09        -0.51792E-11         0.00000E+00
    0.32427E-09        -0.44056E-11         0.00000E+00
    0.32426E-09        -0.35144E-11         0.00000E+00
    0.32425E-09        -0.25442E-11         0.00000E+00
    0.32425E-09        -0.15352E-11         0.00000E+00
    0.32425E-09        -0.52860E-12         0.00000E+00
    0.54044E-09        -0.11162E-11         0.00000E+00
    0.54043E-09        -0.29212E-11         0.00000E+00
    0.54042E-09        -0.43190E-11         0.00000E+00
    0.54040E-09        -0.53375E-11         0.00000E+00
    0.54038E-09        -0.60054E-11         0.00000E+00
    0.54036E-09        -0.63524E-11         0.00000E+00
    0.54033E-09        -0.64093E-11         0.00000E+00
    0.54031E-09        -0.62079E-11         0.00000E+00
    0.54029E-09        -0.57814E-11         0.00000E+00
    0.54027E-09        -0.51646E-11         0.00000E+00
    0.54025E-09        -0.43932E-11         0.00000E+00
    0.54024E-09        -0.35046E-11         0.00000E+00
    0.54023E-09        -0.25372E-11         0.00000E+00
    0.54022E-09        -0.15310E-11         0.00000E+00
    0.54022E-09        -0.52705E-12         0.00000E+00
    0.75624E-09        -0.11109E-11         0.00000E+00
    0.75623E-09        -0.29074E-11         0.00000E+00
    0.75621E-09        -0.42988E-11         0.00000E+00
    0.75618E-09        -0.53127E-11         0.00000E+00
    0.75615E-09        -0.59777E-11         0.00000E+00
    0.75611E-09        -0.63232E-11         0.00000E+00
    0.75608E-09        -0.63798E-11         0.00000E+00
    0.75604E-09        -0.61792E-11         0.00000E+00
    0.75601E-09        -0.57547E-11         0.00000E+00
    0.75598E-09        -0.51406E-11         0.00000E+00
    0.75595E-09        -0.43728E-11         0.00000E+00
    0.75593E-09        -0.34883E-11         0.00000E+00
    0.75591E-09        -0.25256E-11         0.00000E+00
    0.75590E-09        -0.15241E-11         0.00000E+00
    0.75589E-09        -0.52450E-12         0.00000E+00
    0.97167E-09        -0.11029E-11         0.00000E+00
    0.97165E-09        -0.28869E-11         0.00000E+00
    0.97162E-09        -0.42688E-11         0.00000E+00
    0.97158E-09        -0.52759E-11         0.00000E+00
    0.97153E-09        -0.59365E-11         0.00000E+00
    0.97148E-09        -0.62796E-11         0.00000E+00
    0.97143E-09        -0.63357E-11         0.00000E+00
    0.97138E-09        -0.61364E-11         0.00000E+00
    0.97133E-09        -0.57146E-11         0.00000E+00
    0.97129E-09        -0.51047E-11         0.00000E+00
    0.97125E-09        -0.43422E-11         0.00000E+00
    0.97121E-09        -0.34640E-11         0.00000E+00
    0.97119E-09        -0.25081E-11         0.00000E+00
    0.97117E-09        -0.15136E-11         0.00000E+00
    0.97116E-09        -0.52070E-12         0.00000E+00
    0.11866E-08        -0.10917E-11         0.00000E+00
    0.11866E-08        -0.28579E-11         0.00000E+00
    0.11865E-08        -0.42263E-11         0.00000E+00
    0.11865E-08        -0.52237E-11         0.00000E+00
    0.11864E-08        -0.58779E-11         0.00000E+00
    0.11864E-08        -0.62177E-11         0.00000E+00
    0.11863E-08        -0.62732E-11         0.00000E+00
    0.11862E-08        -0.60756E-11         0.00000E+00
    0.11861E-08        -0.56578E-11         0.00000E+00
    0.11861E-08        -0.50536E-11         0.00000E+00
    0.11860E-08        -0.42986E-11         0.00000E+00
    0.11860E-08        -0.34292E-11         0.00000E+00
    0.11859E-08        -0.24830E-11         0.00000E+00
    0.11859E-08        -0.14986E-11         0.00000E+00
    0.11859E-08        -0.51533E-12         0.00000E+00
    0.14010E-08        -0.10764E-11         0.00000E+00
    0.14009E-08        -0.28182E-11         0.00000E+00
    0.14009E-08        -0.41679E-11         0.00000E+00
    0.14008E-08        -0.51519E-11         0.00000E+00
    0.14007E-08        -0.57974E-11         0.00000E+00
    0.14006E-08        -0.61326E-11         0.00000E+00
    0.14005E-08        -0.61872E-11         0.00000E+00
    0.14004E-08        -0.59921E-11         0.00000E+00
    0.14003E-08        -0.55796E-11         0.00000E+00
    0.14003E-08        -0.49835E-11         0.00000E+00
    0.14002E-08        -0.42386E-11         0.00000E+00
    0.14001E-08        -0.33812E-11         0.00000E+00
    0.14001E-08        -0.24482E-11         0.00000E+00
    0.14000E-08        -0.14777E-11         0.00000E+00
    0.14000E-08        -0.50798E-12         0.00000E+00
    0.16146E-08        -0.10559E-11         0.00000E+00
    0.16146E-08        -0.27650E-11         0.00000E+00
    0.16145E-08        -0.40898E-11         0.00000E+00
    0.16144E-08        -0.50558E-11         0.00000E+00
    0.16143E-08        -0.56894E-11         0.00000E+00
    0.16142E-08        -0.60185E-11         0.00000E+00
    0.16140E-08        -0.60719E-11         0.00000E+00
    0.16139E-08        -0.58801E-11         0.00000E+00
    0.16138E-08        -0.54749E-11         0.00000E+00
    0.16137E-08        -0.48895E-11         0.00000E+00
    0.16136E-08        -0.41583E-11         0.00000E+00
    0.16135E-08        -0.33168E-11         0.00000E+00
    0.16134E-08        -0.24015E-11         0.00000E+00
    0.16134E-08        -0.14495E-11         0.00000E+00
    0.16134E-08        -0.49821E-12         0.00000E+00
    0.18275E-08        -0.10290E-11         0.00000E+00
    0.18274E-08        -0.26953E-11         0.00000E+00
    0.18273E-08        -0.39872E-11         0.00000E+00
    0.18272E-08        -0.49295E-11         0.00000E+00
    0.18271E-08        -0.55478E-11         0.00000E+00
    0.18269E-08        -0.58689E-11         0.00000E+00
    0.18267E-08        -0.59209E-11         0.00000E+00
    0.18266E-08        -0.57336E-11         0.00000E+00
    0.18264E-08        -0.53380E-11         0.00000E+00
    0.18263E-08        -0.47666E-11         0.00000E+00
    0.18261E-08        -0.40532E-11         0.00000E+00
    0.18260E-08        -0.32325E-11         0.00000E+00
    0.18259E-08        -0.23402E-11         0.00000E+00
    0.18259E-08        -0.14124E-11         0.00000E+00
    0.18259E-08        -0.48550E-12         0.00000E+00
    0.20394E-08        -0.99448E-12         0.00000E+00
    0.20394E-08        -0.26055E-11         0.00000E+00
    0.20393E-08        -0.38552E-11         0.00000E+00
    0.20391E-08        -0.47670E-11         0.00000E+00
    0.20389E-08        -0.53656E-11         0.00000E+00
    0.20387E-08        -0.56765E-11         0.00000E+00
    0.20385E-08        -0.57269E-11         0.00000E+00
    0.20383E-08        -0.55455E-11         0.00000E+00
    0.20380E-08        -0.51624E-11         0.00000E+00
    0.20379E-08        -0.46091E-11         0.00000E+00
    0.20377E-08        -0.39186E-11         0.00000E+00
    0.20376E-08        -0.31245E-11         0.00000E+00
    0.20375E-08        -0.22616E-11         0.00000E+00
    0.20374E-08        -0.13649E-11         0.00000E+00
    0.20374E-08        -0.46934E-12         0.00000E+00
    0.22504E-08        -0.95075E-12         0.00000E+00
    0.22503E-08        -0.24918E-11         0.00000E+00
    0.22501E-08        -0.36881E-11         0.00000E+00
    0.22499E-08        -0.45615E-11         0.00000E+00
    0.22497E-08        -0.51352E-11         0.00000E+00
    0.22494E-08        -0.54335E-11         0.00000E+00
    0.22491E-08        -0.54823E-11         0.00000E+00
    0.22489E-08        -0.53087E-11         0.00000E+00
    0.22486E-08        -0.49416E-11         0.00000E+00
    0.22484E-08        -0.44114E-11         0.00000E+00
    0.22482E-08        -0.37496E-11         0.00000E+00
    0.22480E-08        -0.29889E-11         0.00000E+00
    0.22479E-08        -0.21629E-11         0.00000E+00
    0.22478E-08        -0.13051E-11         0.00000E+00
    0.22478E-08        -0.44918E-12         0.00000E+00
    0.24602E-08        -0.89630E-12         0.00000E+00
    0.24601E-08        -0.23504E-11         0.00000E+00
    0.24599E-08        -0.34801E-11         0.00000E+00
    0.24596E-08        -0.43059E-11         0.00000E+00
    0.24593E-08        -0.48490E-11         0.00000E+00
    0.24590E-08        -0.51321E-11         0.00000E+00
    0.24587E-08        -0.51792E-11         0.00000E+00
    0.24583E-08        -0.50157E-11         0.00000E+00
    0.24580E-08        -0.46689E-11         0.00000E+00
    0.24577E-08        -0.41675E-11         0.00000E+00
    0.24575E-08        -0.35414E-11         0.00000E+00
    0.24573E-08        -0.28221E-11         0.00000E+00
    0.24571E-08        -0.20413E-11         0.00000E+00
    0.24570E-08        -0.12314E-11         0.00000E+00
    0.24570E-08        -0.42453E-12         0.00000E+00
    0.26687E-08        -0.82958E-12         0.00000E+00
    0.26686E-08        -0.21770E-11         0.00000E+00
    0.26684E-08        -0.32255E-11         0.00000E+00
    0.26681E-08        -0.39932E-11         0.00000E+00
    0.26677E-08        -0.44994E-11         0.00000E+00
    0.26673E-08        -0.47644E-11         0.00000E+00
    0.26669E-08        -0.48100E-11         0.00000E+00
    0.26665E-08        -0.46595E-11         0.00000E+00
    0.26661E-08        -0.43379E-11         0.00000E+00
    0.26658E-08        -0.38719E-11         0.00000E+00
    0.26655E-08        -0.32896E-11         0.00000E+00
    0.26652E-08        -0.26204E-11         0.00000E+00
    0.26650E-08        -0.18945E-11         0.00000E+00
    0.26649E-08        -0.11425E-11         0.00000E+00
    0.26649E-08        -0.39492E-12         0.00000E+00
    0.28759E-08        -0.74913E-12         0.00000E+00
    0.28758E-08        -0.19681E-11         0.00000E+00
    0.28755E-08        -0.29187E-11         0.00000E+00
    0.28751E-08        -0.36168E-11         0.00000E+00
    0.28747E-08        -0.40790E-11         0.00000E+00
    0.28742E-08        -0.43229E-11         0.00000E+00
    0.28738E-08        -0.43675E-11         0.00000E+00
    0.28733E-08        -0.42333E-11         0.00000E+00
    0.28728E-08        -0.39427E-11         0.00000E+00
    0.28724E-08        -0.35198E-11         0.00000E+00
    0.28721E-08        -0.29902E-11         0.00000E+00
    0.28718E-08        -0.23810E-11         0.00000E+00
    0.28716E-08        -0.17205E-11         0.00000E+00
    0.28714E-08        -0.10372E-11         0.00000E+00
    0.28713E-08        -0.36002E-12         0.00000E+00
    0.30817E-08        -0.65372E-12         0.00000E+00
    0.30815E-08        -0.17204E-11         0.00000E+00
    0.30812E-08        -0.25552E-11         0.00000E+00
    0.30807E-08        -0.31712E-11         0.00000E+00
    0.30802E-08        -0.35818E-11         0.00000E+00
    0.30797E-08        -0.38014E-11         0.00000E+00
    0.30791E-08        -0.38457E-11         0.00000E+00
    0.30786E-08        -0.37318E-11         0.00000E+00
    0.30781E-08        -0.34788E-11         0.00000E+00
    0.30776E-08        -0.31074E-11         0.00000E+00
    0.30772E-08        -0.26404E-11         0.00000E+00
    0.30768E-08        -0.21021E-11         0.00000E+00
    0.30766E-08        -0.15181E-11         0.00000E+00
    0.30764E-08        -0.91496E-12         0.00000E+00
    0.30763E-08        -0.31962E-12         0.00000E+00
    0.32859E-08        -0.54250E-12         0.00000E+00
    0.32857E-08        -0.14317E-11         0.00000E+00
    0.32853E-08        -0.21316E-11         0.00000E+00
    0.32848E-08        -0.26521E-11         0.00000E+00
    0.32842E-08        -0.30031E-11         0.00000E+00
    0.32836E-08        -0.31952E-11         0.00000E+00
    0.32829E-08        -0.32402E-11         0.00000E+00
    0.32823E-08        -0.31511E-11         0.00000E+00
    0.32817E-08        -0.29429E-11         0.00000E+00
    0.32811E-08        -0.26325E-11         0.00000E+00
    0.32807E-08        -0.22389E-11         0.00000E+00
    0.32803E-08        -0.17829E-11         0.00000E+00
    0.32800E-08        -0.12872E-11         0.00000E+00
    0.32798E-08        -0.77578E-12         0.00000E+00
    0.32797E-08        -0.27376E-12         0.00000E+00
    0.34884E-08        -0.41516E-12         0.00000E+00
    0.34881E-08        -0.11011E-11         0.00000E+00
    0.34877E-08        -0.16466E-11         0.00000E+00
    0.34871E-08        -0.20578E-11         0.00000E+00
    0.34864E-08        -0.23409E-11         0.00000E+00
    0.34857E-08        -0.25023E-11         0.00000E+00
    0.34850E-08        -0.25492E-11         0.00000E+00
    0.34843E-08        -0.24899E-11         0.00000E+00
    0.34836E-08        -0.23346E-11         0.00000E+00
    0.34830E-08        -0.20953E-11         0.00000E+00
    0.34825E-08        -0.17865E-11         0.00000E+00
    0.34820E-08        -0.14247E-11         0.00000E+00
    0.34817E-08        -0.10291E-11         0.00000E+00
    0.34815E-08        -0.62069E-12         0.00000E+00
    0.34814E-08        -0.22272E-12         0.00000E+00
    0.36890E-08        -0.27218E-12         0.00000E+00
    0.36888E-08        -0.72974E-12         0.00000E+00
    0.36883E-08        -0.11016E-11         0.00000E+00
    0.36876E-08        -0.13900E-11         0.00000E+00
    0.36869E-08        -0.15969E-11         0.00000E+00
    0.36861E-08        -0.17243E-11         0.00000E+00
    0.36853E-08        -0.17744E-11         0.00000E+00
    0.36845E-08        -0.17503E-11         0.00000E+00
    0.36837E-08        -0.16563E-11         0.00000E+00
    0.36831E-08        -0.14989E-11         0.00000E+00
    0.36825E-08        -0.12867E-11         0.00000E+00
    0.36820E-08        -0.10312E-11         0.00000E+00
    0.36817E-08        -0.74698E-12         0.00000E+00
    0.36814E-08        -0.45185E-12         0.00000E+00
    0.36813E-08        -0.16717E-12         0.00000E+00
    0.38878E-08        -0.11492E-12         0.00000E+00
    0.38875E-08        -0.32114E-12         0.00000E+00
    0.38870E-08        -0.50161E-12         0.00000E+00
    0.38863E-08        -0.65443E-12         0.00000E+00
    0.38855E-08        -0.77731E-12         0.00000E+00
    0.38846E-08        -0.86757E-12         0.00000E+00
    0.38837E-08        -0.92232E-12         0.00000E+00
    0.38828E-08        -0.93881E-12         0.00000E+00
    0.38820E-08        -0.91500E-12         0.00000E+00
    0.38813E-08        -0.85032E-12         0.00000E+00
    0.38807E-08        -0.74653E-12         0.00000E+00
    0.38802E-08        -0.60871E-12         0.00000E+00
    0.38798E-08        -0.44607E-12         0.00000E+00
    0.38796E-08        -0.27270E-12         0.00000E+00
    0.38794E-08        -0.10813E-12         0.00000E+00
    0.40845E-08         0.54217E-13         0.00000E+00
    0.40842E-08         0.11830E-12         0.00000E+00
    0.40836E-08         0.14386E-12         0.00000E+00
    0.40829E-08         0.13729E-12         0.00000E+00
    0.40820E-08         0.10521E-12         0.00000E+00
    0.40811E-08         0.54795E-13         0.00000E+00
    0.40801E-08        -0.60024E-14         0.00000E+00
    0.40792E-08        -0.68374E-13         0.00000E+00
    0.40784E-08        -0.12307E-12         0.00000E+00
    0.40776E-08        -0.16143E-12         0.00000E+00
    0.40770E-08        -0.17689E-12         0.00000E+00
    0.40764E-08        -0.16674E-12         0.00000E+00
    0.40761E-08        -0.13387E-12         0.00000E+00
    0.40758E-08        -0.88059E-13         0.00000E+00
    0.40757E-08        -0.47052E-13         0.00000E+00
    0.42790E-08         0.23172E-12         0.00000E+00
    0.42787E-08         0.57895E-12         0.00000E+00
    0.42781E-08         0.82023E-12         0.00000E+00
    0.42773E-08         0.96690E-12         0.00000E+00
    0.42764E-08         0.10300E-11         0.00000E+00
    0.42755E-08         0.10211E-11         0.00000E+00
    0.42745E-08         0.95286E-12         0.00000E+00
    0.42736E-08         0.84019E-12         0.00000E+00
    0.42727E-08         0.70001E-12         0.00000E+00
    0.42719E-08         0.55012E-12         0.00000E+00
    0.42713E-08         0.40677E-12         0.00000E+00
    0.42707E-08         0.28180E-12         0.00000E+00
    0.42704E-08         0.17981E-12         0.00000E+00
    0.42701E-08         0.95920E-13         0.00000E+00
    0.42700E-08         0.14213E-13         0.00000E+00
    0.44712E-08         0.41298E-12         0.00000E+00
    0.44709E-08         0.10477E-11         0.00000E+00
    0.44703E-08         0.15070E-11         0.00000E+00
    0.44695E-08         0.18080E-11         0.00000E+00
    0.44687E-08         0.19666E-11         0.00000E+00
    0.44677E-08         0.19985E-11         0.00000E+00
    0.44667E-08         0.19212E-11         0.00000E+00
    0.44658E-08         0.17555E-11         0.00000E+00
    0.44649E-08         0.15260E-11         0.00000E+00
    0.44642E-08         0.12599E-11         0.00000E+00
    0.44635E-08         0.98416E-12         0.00000E+00
    0.44630E-08         0.72082E-12         0.00000E+00
    0.44627E-08         0.48312E-12         0.00000E+00
    0.44625E-08         0.27193E-12         0.00000E+00
    0.44623E-08         0.73489E-13         0.00000E+00
    0.46610E-08         0.59222E-12         0.00000E+00
    0.46607E-08         0.15075E-11         0.00000E+00
    0.46601E-08         0.21769E-11         0.00000E+00
    0.46594E-08         0.26245E-11         0.00000E+00
    0.46586E-08         0.28722E-11         0.00000E+00
    0.46577E-08         0.29404E-11         0.00000E+00
    0.46568E-08         0.28518E-11         0.00000E+00
    0.46559E-08         0.26330E-11         0.00000E+00
    0.46551E-08         0.23157E-11         0.00000E+00
    0.46544E-08         0.19358E-11         0.00000E+00
    0.46538E-08         0.15301E-11         0.00000E+00
    0.46533E-08         0.11313E-11         0.00000E+00
    0.46530E-08         0.76259E-12         0.00000E+00
    0.46528E-08         0.43185E-12         0.00000E+00
    0.46527E-08         0.12837E-12         0.00000E+00
    0.48481E-08         0.76241E-12         0.00000E+00
    0.48479E-08         0.19369E-11         0.00000E+00
    0.48474E-08         0.27946E-11         0.00000E+00
    0.48467E-08         0.33691E-11         0.00000E+00
    0.48460E-08         0.36896E-11         0.00000E+00
    0.48452E-08         0.37836E-11         0.00000E+00
    0.48445E-08         0.36802E-11         0.00000E+00
    0.48437E-08         0.34124E-11         0.00000E+00
    0.48431E-08         0.30175E-11         0.00000E+00
    0.48425E-08         0.25367E-11         0.00000E+00
    0.48420E-08         0.20141E-11         0.00000E+00
    0.48416E-08         0.14918E-11         0.00000E+00
    0.48413E-08         0.10037E-11         0.00000E+00
    0.48411E-08         0.56706E-12         0.00000E+00
    0.48410E-08         0.17639E-12         0.00000E+00
    0.50326E-08         0.91483E-12         0.00000E+00
    0.50323E-08         0.23086E-11         0.00000E+00
    0.50319E-08         0.33148E-11         0.00000E+00
    0.50314E-08         0.39800E-11         0.00000E+00
    0.50309E-08         0.43444E-11         0.00000E+00
    0.50303E-08         0.44463E-11         0.00000E+00
    0.50298E-08         0.43241E-11         0.00000E+00
    0.50293E-08         0.40170E-11         0.00000E+00
    0.50288E-08         0.35652E-11         0.00000E+00
    0.50284E-08         0.30108E-11         0.00000E+00
    0.50280E-08         0.23992E-11         0.00000E+00
    0.50278E-08         0.17778E-11         0.00000E+00
    0.50276E-08         0.11911E-11         0.00000E+00
    0.50274E-08         0.66894E-12         0.00000E+00
    0.50274E-08         0.21521E-12         0.00000E+00
    0.52141E-08         0.10382E-11         0.00000E+00
    0.52139E-08         0.25861E-11         0.00000E+00
    0.52137E-08         0.36767E-11         0.00000E+00
    0.52134E-08         0.43759E-11         0.00000E+00
    0.52131E-08         0.47418E-11         0.00000E+00
    0.52129E-08         0.48282E-11         0.00000E+00
    0.52127E-08         0.46844E-11         0.00000E+00
    0.52125E-08         0.43547E-11         0.00000E+00
    0.52123E-08         0.38786E-11         0.00000E+00
    0.52122E-08         0.32935E-11         0.00000E+00
    0.52120E-08         0.26389E-11         0.00000E+00
    0.52119E-08         0.19603E-11         0.00000E+00
    0.52118E-08         0.13085E-11         0.00000E+00
    0.52117E-08         0.72921E-12         0.00000E+00
    0.52117E-08         0.24292E-12         0.00000E+00
    0.53924E-08         0.11163E-11         0.00000E+00
    0.53924E-08         0.27166E-11         0.00000E+00
    0.53924E-08         0.37946E-11         0.00000E+00
    0.53925E-08         0.44488E-11         0.00000E+00
    0.53926E-08         0.47647E-11         0.00000E+00
    0.53928E-08         0.48131E-11         0.00000E+00
    0.53931E-08         0.46514E-11         0.00000E+00
    0.53933E-08         0.43240E-11         0.00000E+00
    0.53936E-08         0.38658E-11         0.00000E+00
    0.53937E-08         0.33056E-11         0.00000E+00
    0.53939E-08         0.26718E-11         0.00000E+00
    0.53939E-08         0.19993E-11         0.00000E+00
    0.53940E-08         0.13360E-11         0.00000E+00
    0.53940E-08         0.73987E-12         0.00000E+00
    0.53940E-08         0.25873E-12         0.00000E+00
    0.55675E-08         0.11215E-11         0.00000E+00
    0.55676E-08         0.26135E-11         0.00000E+00
    0.55680E-08         0.35385E-11         0.00000E+00
    0.55686E-08         0.40563E-11         0.00000E+00
    0.55693E-08         0.42763E-11         0.00000E+00
    0.55701E-08         0.42769E-11         0.00000E+00
    0.55709E-08         0.41128E-11         0.00000E+00
    0.55717E-08         0.38217E-11         0.00000E+00
    0.55724E-08         0.34298E-11         0.00000E+00
    0.55730E-08         0.29565E-11         0.00000E+00
    0.55735E-08         0.24183E-11         0.00000E+00
    0.55739E-08         0.18346E-11         0.00000E+00
    0.55741E-08         0.12387E-11         0.00000E+00
    0.55742E-08         0.69182E-12         0.00000E+00
    0.55743E-08         0.26279E-12         0.00000E+00
    0.57389E-08         0.10026E-11         0.00000E+00
    0.57394E-08         0.21014E-11         0.00000E+00
    0.57403E-08         0.27143E-11         0.00000E+00
    0.57416E-08         0.30230E-11         0.00000E+00
    0.57431E-08         0.31302E-11         0.00000E+00
    0.57446E-08         0.30976E-11         0.00000E+00
    0.57461E-08         0.29632E-11         0.00000E+00
    0.57475E-08         0.27513E-11         0.00000E+00
    0.57488E-08         0.24778E-11         0.00000E+00
    0.57500E-08         0.21532E-11         0.00000E+00
    0.57509E-08         0.17847E-11         0.00000E+00
    0.57517E-08         0.13796E-11         0.00000E+00
    0.57522E-08         0.95196E-12         0.00000E+00
    0.57525E-08         0.54389E-12         0.00000E+00
    0.57526E-08         0.27358E-12         0.00000E+00
    0.59062E-08         0.45187E-12         0.00000E+00
    0.59075E-08         0.85641E-12         0.00000E+00
    0.59094E-08         0.10657E-11         0.00000E+00
    0.59117E-08         0.11612E-11         0.00000E+00
    0.59140E-08         0.11872E-11         0.00000E+00
    0.59163E-08         0.11662E-11         0.00000E+00
    0.59186E-08         0.11116E-11         0.00000E+00
    0.59208E-08         0.10314E-11         0.00000E+00
    0.59227E-08         0.93092E-12         0.00000E+00
    0.59245E-08         0.81325E-12         0.00000E+00
    0.59260E-08         0.68032E-12         0.00000E+00
    0.59272E-08         0.53348E-12         0.00000E+00
    0.59281E-08         0.37545E-12         0.00000E+00
    0.59287E-08         0.21796E-12         0.00000E+00
    0.59291E-08         0.14262E-12         0.00000E+00
POINT_DATA        496
VECTORS vDarcyNodal double 
    0.10814E-09        -0.11215E-11         0.00000E+00
    0.10814E-09        -0.20281E-11         0.00000E+00
    0.10814E-09        -0.36366E-11         0.00000E+00
    0.10814E-09        -0.48500E-11         0.00000E+00
    0.10813E-09        -0.56968E-11         0.00000E+00
    0.10813E-09        -0.62065E-11         0.00000E+00
    0.10812E-09        -0.64093E-11         0.00000E+00
    0.10812E-09        -0.63367E-11         0.00000E+00
    0.10812E-09        -0.60214E-11         0.00000E+00
    0.10811E-09        -0.54975E-11         0.00000E+00
    0.10811E-09        -0.48003E-11         0.00000E+00
    0.10811E-09        -0.39665E-11         0.00000E+00
    0.10810E-09        -0.30342E-11         0.00000E+00
    0.10810E-09        -0.20430E-11         0.00000E+00
    0.10810E-09        -0.10336E-11         0.00000E+00
    0.10810E-09        -0.52952E-12         0.00000E+00
    0.21626E-09        -0.11207E-11         0.00000E+00
    0.21625E-09        -0.20267E-11         0.00000E+00
    0.21625E-09        -0.36342E-11         0.00000E+00
    0.21624E-09        -0.48468E-11         0.00000E+00
    0.21624E-09        -0.56932E-11         0.00000E+00
    0.21623E-09        -0.62025E-11         0.00000E+00
    0.21622E-09        -0.64052E-11         0.00000E+00
    0.21621E-09        -0.63326E-11         0.00000E+00
    0.21620E-09        -0.60176E-11         0.00000E+00
    0.21620E-09        -0.54940E-11         0.00000E+00
    0.21619E-09        -0.47972E-11         0.00000E+00
    0.21618E-09        -0.39640E-11         0.00000E+00
    0.21618E-09        -0.30323E-11         0.00000E+00
    0.21618E-09        -0.20417E-11         0.00000E+00
    0.21617E-09        -0.10329E-11         0.00000E+00
    0.21617E-09        -0.52916E-12         0.00000E+00
    0.43241E-09        -0.11184E-11         0.00000E+00
    0.43240E-09        -0.20225E-11         0.00000E+00
    0.43239E-09        -0.36268E-11         0.00000E+00
    0.43238E-09        -0.48370E-11         0.00000E+00
    0.43237E-09        -0.56817E-11         0.00000E+00
    0.43235E-09        -0.61901E-11         0.00000E+00
    0.43233E-09        -0.63924E-11         0.00000E+00
    0.43231E-09        -0.63200E-11         0.00000E+00
    0.43230E-09        -0.60055E-11         0.00000E+00
    0.43228E-09        -0.54830E-11         0.00000E+00
    0.43226E-09        -0.47876E-11         0.00000E+00
    0.43225E-09        -0.39560E-11         0.00000E+00
    0.43224E-09        -0.30263E-11         0.00000E+00
    0.43224E-09        -0.20377E-11         0.00000E+00
    0.43223E-09        -0.10309E-11         0.00000E+00
    0.43223E-09        -0.52805E-12         0.00000E+00
    0.64834E-09        -0.11141E-11         0.00000E+00
    0.64834E-09        -0.20150E-11         0.00000E+00
    0.64832E-09        -0.36134E-11         0.00000E+00
    0.64830E-09        -0.48194E-11         0.00000E+00
    0.64828E-09        -0.56612E-11         0.00000E+00
    0.64825E-09        -0.61678E-11         0.00000E+00
    0.64822E-09        -0.63693E-11         0.00000E+00
    0.64819E-09        -0.62972E-11         0.00000E+00
    0.64816E-09        -0.59838E-11         0.00000E+00
    0.64814E-09        -0.54631E-11         0.00000E+00
    0.64811E-09        -0.47702E-11         0.00000E+00
    0.64809E-09        -0.39417E-11         0.00000E+00
    0.64807E-09        -0.30155E-11         0.00000E+00
    0.64806E-09        -0.20305E-11         0.00000E+00
    0.64806E-09        -0.10272E-11         0.00000E+00
    0.64805E-09        -0.52605E-12         0.00000E+00
    0.86396E-09        -0.11076E-11         0.00000E+00
    0.86395E-09        -0.20033E-11         0.00000E+00
    0.86393E-09        -0.35928E-11         0.00000E+00
    0.86390E-09        -0.47921E-11         0.00000E+00
    0.86386E-09        -0.56293E-11         0.00000E+00
    0.86382E-09        -0.61332E-11         0.00000E+00
    0.86378E-09        -0.63336E-11         0.00000E+00
    0.86373E-09        -0.62618E-11         0.00000E+00
    0.86369E-09        -0.59501E-11         0.00000E+00
    0.86365E-09        -0.54322E-11         0.00000E+00
    0.86361E-09        -0.47431E-11         0.00000E+00
    0.86358E-09        -0.39194E-11         0.00000E+00
    0.86356E-09        -0.29985E-11         0.00000E+00
    0.86354E-09        -0.20192E-11         0.00000E+00
    0.86353E-09        -0.10214E-11         0.00000E+00
    0.86353E-09        -0.52295E-12         0.00000E+00
    0.10791E-08        -0.10982E-11         0.00000E+00
    0.10791E-08        -0.19865E-11         0.00000E+00
    0.10791E-08        -0.35629E-11         0.00000E+00
    0.10791E-08        -0.47526E-11         0.00000E+00
    0.10790E-08        -0.55831E-11         0.00000E+00
    0.10790E-08        -0.60829E-11         0.00000E+00
    0.10789E-08        -0.62817E-11         0.00000E+00
    0.10788E-08        -0.62103E-11         0.00000E+00
    0.10788E-08        -0.59010E-11         0.00000E+00
    0.10787E-08        -0.53872E-11         0.00000E+00
    0.10787E-08        -0.47037E-11         0.00000E+00
    0.10786E-08        -0.38867E-11         0.00000E+00
    0.10786E-08        -0.29736E-11         0.00000E+00
    0.10786E-08        -0.20025E-11         0.00000E+00
    0.10785E-08        -0.10129E-11         0.00000E+00
    0.10785E-08        -0.51845E-12         0.00000E+00
    0.12938E-08        -0.10852E-11         0.00000E+00
    0.12938E-08        -0.19631E-11         0.00000E+00
    0.12937E-08        -0.35213E-11         0.00000E+00
    0.12937E-08        -0.46974E-11         0.00000E+00
    0.12936E-08        -0.55185E-11         0.00000E+00
    0.12935E-08        -0.60127E-11         0.00000E+00
    0.12934E-08        -0.62091E-11         0.00000E+00
    0.12934E-08        -0.61384E-11         0.00000E+00
    0.12933E-08        -0.58324E-11         0.00000E+00
    0.12932E-08        -0.53242E-11         0.00000E+00
    0.12931E-08        -0.46485E-11         0.00000E+00
    0.12931E-08        -0.38410E-11         0.00000E+00
    0.12930E-08        -0.29386E-11         0.00000E+00
    0.12930E-08        -0.19790E-11         0.00000E+00
    0.12930E-08        -0.10010E-11         0.00000E+00
    0.12930E-08        -0.51220E-12         0.00000E+00
    0.15078E-08        -0.10676E-11         0.00000E+00
    0.15078E-08        -0.19315E-11         0.00000E+00
    0.15077E-08        -0.34648E-11         0.00000E+00
    0.15077E-08        -0.46225E-11         0.00000E+00
    0.15076E-08        -0.54308E-11         0.00000E+00
    0.15075E-08        -0.59173E-11         0.00000E+00
    0.15073E-08        -0.61106E-11         0.00000E+00
    0.15072E-08        -0.60408E-11         0.00000E+00
    0.15071E-08        -0.57392E-11         0.00000E+00
    0.15070E-08        -0.52388E-11         0.00000E+00
    0.15069E-08        -0.45735E-11         0.00000E+00
    0.15068E-08        -0.37788E-11         0.00000E+00
    0.15068E-08        -0.28908E-11         0.00000E+00
    0.15067E-08        -0.19469E-11         0.00000E+00
    0.15067E-08        -0.98467E-12         0.00000E+00
    0.15067E-08        -0.50376E-12         0.00000E+00
    0.17211E-08        -0.10442E-11         0.00000E+00
    0.17211E-08        -0.18895E-11         0.00000E+00
    0.17210E-08        -0.33900E-11         0.00000E+00
    0.17209E-08        -0.45231E-11         0.00000E+00
    0.17208E-08        -0.53144E-11         0.00000E+00
    0.17206E-08        -0.57907E-11         0.00000E+00
    0.17205E-08        -0.59798E-11         0.00000E+00
    0.17203E-08        -0.59113E-11         0.00000E+00
    0.17202E-08        -0.56158E-11         0.00000E+00
    0.17200E-08        -0.51256E-11         0.00000E+00
    0.17199E-08        -0.44742E-11         0.00000E+00
    0.17198E-08        -0.36963E-11         0.00000E+00
    0.17197E-08        -0.28274E-11         0.00000E+00
    0.17197E-08        -0.19041E-11         0.00000E+00
    0.17196E-08        -0.96301E-12         0.00000E+00
    0.17196E-08        -0.49265E-12         0.00000E+00
    0.19335E-08        -0.10139E-11         0.00000E+00
    0.19335E-08        -0.18349E-11         0.00000E+00
    0.19334E-08        -0.32926E-11         0.00000E+00
    0.19332E-08        -0.43937E-11         0.00000E+00
    0.19331E-08        -0.51630E-11         0.00000E+00
    0.19329E-08        -0.56260E-11         0.00000E+00
    0.19327E-08        -0.58099E-11         0.00000E+00
    0.19325E-08        -0.57432E-11         0.00000E+00
    0.19323E-08        -0.54557E-11         0.00000E+00
    0.19321E-08        -0.49789E-11         0.00000E+00
    0.19320E-08        -0.43455E-11         0.00000E+00
    0.19318E-08        -0.35894E-11         0.00000E+00
    0.19317E-08        -0.27452E-11         0.00000E+00
    0.19317E-08        -0.18485E-11         0.00000E+00
    0.19316E-08        -0.93492E-12         0.00000E+00
    0.19316E-08        -0.47835E-12         0.00000E+00
    0.21449E-08        -0.97510E-12         0.00000E+00
    0.21449E-08        -0.17651E-11         0.00000E+00
    0.21448E-08        -0.31681E-11         0.00000E+00
    0.21446E-08        -0.42285E-11         0.00000E+00
    0.21444E-08        -0.49696E-11         0.00000E+00
    0.21442E-08        -0.54160E-11         0.00000E+00
    0.21439E-08        -0.55934E-11         0.00000E+00
    0.21437E-08        -0.55292E-11         0.00000E+00
    0.21434E-08        -0.52522E-11         0.00000E+00
    0.21432E-08        -0.47926E-11         0.00000E+00
    0.21430E-08        -0.41822E-11         0.00000E+00
    0.21429E-08        -0.34537E-11         0.00000E+00
    0.21427E-08        -0.26408E-11         0.00000E+00
    0.21426E-08        -0.17779E-11         0.00000E+00
    0.21426E-08        -0.89927E-12         0.00000E+00
    0.21425E-08        -0.46032E-12         0.00000E+00
    0.23553E-08        -0.92640E-12         0.00000E+00
    0.23552E-08        -0.16775E-11         0.00000E+00
    0.23551E-08        -0.30118E-11         0.00000E+00
    0.23549E-08        -0.40211E-11         0.00000E+00
    0.23546E-08        -0.47271E-11         0.00000E+00
    0.23544E-08        -0.51528E-11         0.00000E+00
    0.23541E-08        -0.53224E-11         0.00000E+00
    0.23538E-08        -0.52617E-11         0.00000E+00
    0.23535E-08        -0.49981E-11         0.00000E+00
    0.23532E-08        -0.45604E-11         0.00000E+00
    0.23529E-08        -0.39788E-11         0.00000E+00
    0.23527E-08        -0.32849E-11         0.00000E+00
    0.23526E-08        -0.25110E-11         0.00000E+00
    0.23524E-08        -0.16900E-11         0.00000E+00
    0.23524E-08        -0.85497E-12         0.00000E+00
    0.23523E-08        -0.43804E-12         0.00000E+00
    0.25645E-08        -0.86620E-12         0.00000E+00
    0.25644E-08        -0.15692E-11         0.00000E+00
    0.25642E-08        -0.28186E-11         0.00000E+00
    0.25640E-08        -0.37649E-11         0.00000E+00
    0.25637E-08        -0.44278E-11         0.00000E+00
    0.25633E-08        -0.48284E-11         0.00000E+00
    0.25630E-08        -0.49889E-11         0.00000E+00
    0.25626E-08        -0.49332E-11         0.00000E+00
    0.25622E-08        -0.46865E-11         0.00000E+00
    0.25619E-08        -0.42760E-11         0.00000E+00
    0.25616E-08        -0.37301E-11         0.00000E+00
    0.25614E-08        -0.30787E-11         0.00000E+00
    0.25612E-08        -0.23524E-11         0.00000E+00
    0.25610E-08        -0.15827E-11         0.00000E+00
    0.25609E-08        -0.80099E-12         0.00000E+00
    0.25609E-08        -0.41101E-12         0.00000E+00
    0.27724E-08        -0.79296E-12         0.00000E+00
    0.27723E-08        -0.14374E-11         0.00000E+00
    0.27721E-08        -0.25838E-11         0.00000E+00
    0.27718E-08        -0.34537E-11         0.00000E+00
    0.27714E-08        -0.40647E-11         0.00000E+00
    0.27710E-08        -0.44353E-11         0.00000E+00
    0.27705E-08        -0.45854E-11         0.00000E+00
    0.27701E-08        -0.45363E-11         0.00000E+00
    0.27697E-08        -0.43108E-11         0.00000E+00
    0.27693E-08        -0.39338E-11         0.00000E+00
    0.27689E-08        -0.34314E-11         0.00000E+00
    0.27686E-08        -0.28313E-11         0.00000E+00
    0.27684E-08        -0.21625E-11         0.00000E+00
    0.27682E-08        -0.14543E-11         0.00000E+00
    0.27681E-08        -0.73647E-12         0.00000E+00
    0.27681E-08        -0.37883E-12         0.00000E+00
    0.29789E-08        -0.70531E-12         0.00000E+00
    0.29788E-08        -0.12798E-11         0.00000E+00
    0.29785E-08        -0.23030E-11         0.00000E+00
    0.29782E-08        -0.30818E-11         0.00000E+00
    0.29777E-08        -0.36311E-11         0.00000E+00
    0.29772E-08        -0.39666E-11         0.00000E+00
    0.29767E-08        -0.41050E-11         0.00000E+00
    0.29762E-08        -0.40646E-11         0.00000E+00
    0.29757E-08        -0.38652E-11         0.00000E+00
    0.29752E-08        -0.35288E-11         0.00000E+00
    0.29748E-08        -0.30786E-11         0.00000E+00
    0.29745E-08        -0.25399E-11         0.00000E+00
    0.29742E-08        -0.19390E-11         0.00000E+00
    0.29740E-08        -0.13034E-11         0.00000E+00
    0.29738E-08        -0.66080E-12         0.00000E+00
    0.29738E-08        -0.34121E-12         0.00000E+00
    0.31838E-08        -0.60214E-12         0.00000E+00
    0.31837E-08        -0.10943E-11         0.00000E+00
    0.31834E-08        -0.19727E-11         0.00000E+00
    0.31830E-08        -0.26446E-11         0.00000E+00
    0.31825E-08        -0.31218E-11         0.00000E+00
    0.31819E-08        -0.34165E-11         0.00000E+00
    0.31813E-08        -0.35421E-11         0.00000E+00
    0.31807E-08        -0.35129E-11         0.00000E+00
    0.31801E-08        -0.33453E-11         0.00000E+00
    0.31796E-08        -0.30574E-11         0.00000E+00
    0.31791E-08        -0.26692E-11         0.00000E+00
    0.31787E-08        -0.22025E-11         0.00000E+00
    0.31784E-08        -0.16811E-11         0.00000E+00
    0.31782E-08        -0.11296E-11         0.00000E+00
    0.31780E-08        -0.57379E-12         0.00000E+00
    0.31780E-08        -0.29804E-12         0.00000E+00
    0.33872E-08        -0.48285E-12         0.00000E+00
    0.33871E-08        -0.87986E-12         0.00000E+00
    0.33867E-08        -0.15907E-11         0.00000E+00
    0.33862E-08        -0.21391E-11         0.00000E+00
    0.33856E-08        -0.25333E-11         0.00000E+00
    0.33850E-08        -0.27817E-11         0.00000E+00
    0.33843E-08        -0.28933E-11         0.00000E+00
    0.33836E-08        -0.28784E-11         0.00000E+00
    0.33829E-08        -0.27487E-11         0.00000E+00
    0.33823E-08        -0.25180E-11         0.00000E+00
    0.33818E-08        -0.22022E-11         0.00000E+00
    0.33813E-08        -0.18192E-11         0.00000E+00
    0.33810E-08        -0.13890E-11         0.00000E+00
    0.33807E-08        -0.93334E-12         0.00000E+00
    0.33806E-08        -0.47574E-12         0.00000E+00
    0.33805E-08        -0.24947E-12         0.00000E+00
    0.35888E-08        -0.34747E-12         0.00000E+00
    0.35886E-08        -0.63640E-12         0.00000E+00
    0.35883E-08        -0.11570E-11         0.00000E+00
    0.35877E-08        -0.15653E-11         0.00000E+00
    0.35870E-08        -0.18654E-11         0.00000E+00
    0.35863E-08        -0.20615E-11         0.00000E+00
    0.35855E-08        -0.21582E-11         0.00000E+00
    0.35847E-08        -0.21607E-11         0.00000E+00
    0.35840E-08        -0.20758E-11         0.00000E+00
    0.35833E-08        -0.19118E-11         0.00000E+00
    0.35827E-08        -0.16795E-11         0.00000E+00
    0.35822E-08        -0.13920E-11         0.00000E+00
    0.35818E-08        -0.10649E-11         0.00000E+00
    0.35816E-08        -0.71645E-12         0.00000E+00
    0.35814E-08        -0.36767E-12         0.00000E+00
    0.35813E-08        -0.19597E-12         0.00000E+00
    0.37885E-08        -0.19688E-12         0.00000E+00
    0.37883E-08        -0.36551E-12         0.00000E+00
    0.37879E-08        -0.67429E-12         0.00000E+00
    0.37873E-08        -0.92626E-12         0.00000E+00
    0.37866E-08        -0.11215E-11         0.00000E+00
    0.37858E-08        -0.12596E-11         0.00000E+00
    0.37849E-08        -0.13405E-11         0.00000E+00
    0.37841E-08        -0.13639E-11         0.00000E+00
    0.37833E-08        -0.13308E-11         0.00000E+00
    0.37825E-08        -0.12434E-11         0.00000E+00
    0.37819E-08        -0.11061E-11         0.00000E+00
    0.37813E-08        -0.92593E-12         0.00000E+00
    0.37809E-08        -0.71333E-12         0.00000E+00
    0.37806E-08        -0.48238E-12         0.00000E+00
    0.37804E-08        -0.25135E-12         0.00000E+00
    0.37804E-08        -0.13836E-12         0.00000E+00
    0.39862E-08        -0.32949E-13         0.00000E+00
    0.39860E-08        -0.70543E-13         0.00000E+00
    0.39856E-08        -0.14846E-12         0.00000E+00
    0.39850E-08        -0.22979E-12         0.00000E+00
    0.39842E-08        -0.31028E-12         0.00000E+00
    0.39833E-08        -0.38523E-12         0.00000E+00
    0.39824E-08        -0.44941E-12         0.00000E+00
    0.39815E-08        -0.49722E-12         0.00000E+00
    0.39806E-08        -0.52303E-12         0.00000E+00
    0.39798E-08        -0.52195E-12         0.00000E+00
    0.39791E-08        -0.49079E-12         0.00000E+00
    0.39785E-08        -0.42931E-12         0.00000E+00
    0.39781E-08        -0.34145E-12         0.00000E+00
    0.39778E-08        -0.23638E-12         0.00000E+00
    0.39776E-08        -0.12948E-12         0.00000E+00
    0.39775E-08        -0.77891E-13         0.00000E+00
    0.41818E-08         0.14138E-12         0.00000E+00
    0.41817E-08         0.24306E-12         0.00000E+00
    0.41812E-08         0.41061E-12         0.00000E+00
    0.41805E-08         0.51093E-12         0.00000E+00
    0.41797E-08         0.55278E-12         0.00000E+00
    0.41788E-08         0.54523E-12         0.00000E+00
    0.41778E-08         0.49820E-12         0.00000E+00
    0.41768E-08         0.42284E-12         0.00000E+00
    0.41759E-08         0.33158E-12         0.00000E+00
    0.41751E-08         0.23744E-12         0.00000E+00
    0.41744E-08         0.15247E-12         0.00000E+00
    0.41738E-08         0.85685E-13         0.00000E+00
    0.41734E-08         0.40834E-13         0.00000E+00
    0.41731E-08         0.14455E-13         0.00000E+00
    0.41729E-08        -0.56336E-14         0.00000E+00
    0.41728E-08        -0.16212E-13         0.00000E+00
    0.43752E-08         0.32206E-12         0.00000E+00
    0.43750E-08         0.56761E-12         0.00000E+00
    0.43745E-08         0.98856E-12         0.00000E+00
    0.43739E-08         0.12762E-11         0.00000E+00
    0.43730E-08         0.14442E-11         0.00000E+00
    0.43721E-08         0.15059E-11         0.00000E+00
    0.43711E-08         0.14758E-11         0.00000E+00
    0.43701E-08         0.13702E-11         0.00000E+00
    0.43692E-08         0.12086E-11         0.00000E+00
    0.43684E-08         0.10127E-11         0.00000E+00
    0.43677E-08         0.80441E-12         0.00000E+00
    0.43671E-08         0.60288E-12         0.00000E+00
    0.43667E-08         0.42078E-12         0.00000E+00
    0.43664E-08         0.26128E-12         0.00000E+00
    0.43662E-08         0.11577E-12         0.00000E+00
    0.43661E-08         0.44639E-13         0.00000E+00
    0.45662E-08         0.50389E-12         0.00000E+00
    0.45660E-08         0.89303E-12         0.00000E+00
    0.45655E-08         0.15661E-11         0.00000E+00
    0.45649E-08         0.20388E-11         0.00000E+00
    0.45641E-08         0.23304E-11         0.00000E+00
    0.45632E-08         0.24592E-11         0.00000E+00
    0.45622E-08         0.24440E-11         0.00000E+00
    0.45613E-08         0.23065E-11         0.00000E+00
    0.45604E-08         0.20728E-11         0.00000E+00
    0.45596E-08         0.17732E-11         0.00000E+00
    0.45589E-08         0.14397E-11         0.00000E+00
    0.45584E-08         0.11021E-11         0.00000E+00
    0.45580E-08         0.78317E-12         0.00000E+00
    0.45577E-08         0.49378E-12         0.00000E+00
    0.45575E-08         0.22966E-12         0.00000E+00
    0.45575E-08         0.10234E-12         0.00000E+00
    0.47546E-08         0.68054E-12         0.00000E+00
    0.47545E-08         0.12066E-11         0.00000E+00
    0.47540E-08         0.21182E-11         0.00000E+00
    0.47534E-08         0.27626E-11         0.00000E+00
    0.47527E-08         0.31663E-11         0.00000E+00
    0.47519E-08         0.33534E-11         0.00000E+00
    0.47510E-08         0.33482E-11         0.00000E+00
    0.47502E-08         0.31783E-11         0.00000E+00
    0.47494E-08         0.28759E-11         0.00000E+00
    0.47487E-08         0.24783E-11         0.00000E+00
    0.47481E-08         0.20262E-11         0.00000E+00
    0.47476E-08         0.15593E-11         0.00000E+00
    0.47473E-08         0.11108E-11         0.00000E+00
    0.47470E-08         0.70066E-12         0.00000E+00
    0.47469E-08         0.33056E-12         0.00000E+00
    0.47468E-08         0.15441E-12         0.00000E+00
    0.49404E-08         0.84427E-12         0.00000E+00
    0.49403E-08         0.14926E-11         0.00000E+00
    0.49399E-08         0.26133E-11         0.00000E+00
    0.49394E-08         0.34011E-11         0.00000E+00
    0.49388E-08         0.38924E-11         0.00000E+00
    0.49381E-08         0.41198E-11         0.00000E+00
    0.49375E-08         0.41156E-11         0.00000E+00
    0.49368E-08         0.39144E-11         0.00000E+00
    0.49362E-08         0.35541E-11         0.00000E+00
    0.49357E-08         0.30758E-11         0.00000E+00
    0.49352E-08         0.25246E-11         0.00000E+00
    0.49348E-08         0.19465E-11         0.00000E+00
    0.49345E-08         0.13847E-11         0.00000E+00
    0.49343E-08         0.87006E-12         0.00000E+00
    0.49342E-08         0.41289E-12         0.00000E+00
    0.49342E-08         0.19837E-12         0.00000E+00
    0.51234E-08         0.98539E-12         0.00000E+00
    0.51232E-08         0.17308E-11         0.00000E+00
    0.51230E-08         0.30101E-11         0.00000E+00
    0.51226E-08         0.38937E-11         0.00000E+00
    0.51222E-08         0.44319E-11         0.00000E+00
    0.51218E-08         0.46709E-11         0.00000E+00
    0.51214E-08         0.46548E-11         0.00000E+00
    0.51211E-08         0.44266E-11         0.00000E+00
    0.51207E-08         0.40281E-11         0.00000E+00
    0.51204E-08         0.35002E-11         0.00000E+00
    0.51201E-08         0.28855E-11         0.00000E+00
    0.51199E-08         0.22305E-11         0.00000E+00
    0.51197E-08         0.15842E-11         0.00000E+00
    0.51196E-08         0.98994E-12         0.00000E+00
    0.51195E-08         0.47126E-12         0.00000E+00
    0.51195E-08         0.23204E-12         0.00000E+00
    0.53033E-08         0.10909E-11         0.00000E+00
    0.53032E-08         0.18935E-11         0.00000E+00
    0.53031E-08         0.32527E-11         0.00000E+00
    0.53030E-08         0.41590E-11         0.00000E+00
    0.53029E-08         0.46858E-11         0.00000E+00
    0.53029E-08         0.48990E-11         0.00000E+00
    0.53029E-08         0.48578E-11         0.00000E+00
    0.53029E-08         0.46124E-11         0.00000E+00
    0.53029E-08         0.42051E-11         0.00000E+00
    0.53030E-08         0.36719E-11         0.00000E+00
    0.53029E-08         0.30469E-11         0.00000E+00
    0.53029E-08         0.23687E-11         0.00000E+00
    0.53029E-08         0.16846E-11         0.00000E+00
    0.53028E-08         0.10478E-11         0.00000E+00
    0.53028E-08         0.50087E-12         0.00000E+00
    0.53028E-08         0.25380E-12         0.00000E+00
    0.54800E-08         0.11416E-11         0.00000E+00
    0.54800E-08         0.19394E-11         0.00000E+00
    0.54801E-08         0.32585E-11         0.00000E+00
    0.54803E-08         0.40844E-11         0.00000E+00
    0.54807E-08         0.45277E-11         0.00000E+00
    0.54812E-08         0.46788E-11         0.00000E+00
    0.54817E-08         0.46067E-11         0.00000E+00
    0.54823E-08         0.43629E-11         0.00000E+00
    0.54828E-08         0.39846E-11         0.00000E+00
    0.54832E-08         0.34995E-11         0.00000E+00
    0.54836E-08         0.29305E-11         0.00000E+00
    0.54838E-08         0.23024E-11         0.00000E+00
    0.54840E-08         0.16507E-11         0.00000E+00
    0.54841E-08         0.10281E-11         0.00000E+00
    0.54841E-08         0.49772E-12         0.00000E+00
    0.54841E-08         0.26365E-12         0.00000E+00
    0.56531E-08         0.11015E-11         0.00000E+00
    0.56532E-08         0.17957E-11         0.00000E+00
    0.56538E-08         0.28936E-11         0.00000E+00
    0.56546E-08         0.35104E-11         0.00000E+00
    0.56556E-08         0.38048E-11         0.00000E+00
    0.56568E-08         0.38744E-11         0.00000E+00
    0.56579E-08         0.37830E-11         0.00000E+00
    0.56591E-08         0.35715E-11         0.00000E+00
    0.56602E-08         0.32668E-11         0.00000E+00
    0.56611E-08         0.28868E-11         0.00000E+00
    0.56619E-08         0.24443E-11         0.00000E+00
    0.56625E-08         0.19504E-11         0.00000E+00
    0.56630E-08         0.14226E-11         0.00000E+00
    0.56633E-08         0.90244E-12         0.00000E+00
    0.56634E-08         0.45689E-12         0.00000E+00
    0.56634E-08         0.26193E-12         0.00000E+00
    0.58223E-08         0.90375E-12         0.00000E+00
    0.58228E-08         0.13083E-11         0.00000E+00
    0.58241E-08         0.19221E-11         0.00000E+00
    0.58257E-08         0.22269E-11         0.00000E+00
    0.58276E-08         0.23484E-11         0.00000E+00
    0.58295E-08         0.23534E-11         0.00000E+00
    0.58314E-08         0.22778E-11         0.00000E+00
    0.58333E-08         0.21430E-11         0.00000E+00
    0.58350E-08         0.19624E-11         0.00000E+00
    0.58366E-08         0.17442E-11         0.00000E+00
    0.58379E-08         0.14936E-11         0.00000E+00
    0.58390E-08         0.12138E-11         0.00000E+00
    0.58399E-08         0.90894E-12         0.00000E+00
    0.58404E-08         0.59342E-12         0.00000E+00
    0.58408E-08         0.36058E-12         0.00000E+00
    0.58409E-08         0.28523E-12         0.00000E+00
    0.59058E-08         0.00000E+00         0.00000E+00
    0.59067E-08         0.00000E+00         0.00000E+00
    0.59084E-08        -0.66291E-21         0.00000E+00
    0.59105E-08         0.66291E-21         0.00000E+00
    0.59128E-08         0.00000E+00         0.00000E+00
    0.59152E-08         0.00000E+00         0.00000E+00
    0.59175E-08         0.00000E+00         0.00000E+00
    0.59197E-08        -0.66291E-21         0.00000E+00
    0.59218E-08         0.00000E+00         0.00000E+00
    0.59237E-08         0.66291E-21         0.00000E+00
    0.59253E-08         0.00000E+00         0.00000E+00
    0.59266E-08        -0.66291E-21         0.00000E+00
    0.59277E-08         0.00000E+00         0.00000E+00
    0.59285E-08         0.66291E-21         0.00000E+00
    0.59289E-08         0.66291E-21         0.00000E+00
    0.59292E-08         0.00000E+00         0.00000E+00
CELL_DATA        450
TENSORS stressef double 
   -0.19716E+08         0.67674E+02         0.00000E+00
    0.67674E+02        -0.49336E+08         0.00000E+00
    0.00000E+00         0.00000E+00        -0.19645E+08
 
   -0.19709E+08         0.19754E+03         0.00000E+00
    0.19754E+03        -0.49335E+08         0.00000E+00
    0.00000E+00         0.00000E+00        -0.19652E+08
 
   -0.19702E+08         0.32067E+03         0.00000E+00
    0.32067E+03        -0.49335E+08         0.00000E+00
    0.00000E+00         0.00000E+00        -0.19658E+08
 
   -0.19695E+08         0.43739E+03         0.00000E+00
    0.43739E+03        -0.49334E+08         0.00000E+00
    0.00000E+00         0.00000E+00        -0.19664E+08
 
   -0.19689E+08         0.54794E+03         0.00000E+00
    0.54794E+03        -0.49333E+08         0.00000E+00
    0.00000E+00         0.00000E+00        -0.19668E+08
 
   -0.19684E+08         0.65258E+03         0.00000E+00
    0.65258E+03        -0.49332E+08         0.00000E+00
    0.00000E+00         0.00000E+00        -0.19672E+08
 
   -0.19679E+08         0.75152E+03         0.00000E+00
    0.75152E+03        -0.49330E+08         0.00000E+00
    0.00000E+00         0.00000E+00        -0.19675E+08
 
   -0.19675E+08         0.84504E+03         0.00000E+00
    0.84504E+03        -0.49329E+08         0.00000E+00
    0.00000E+00         0.00000E+00        -0.19677E+08
 
   -0.19672E+08         0.93343E+03         0.00000E+00
    0.93343E+03        -0.49327E+08         0.00000E+00
    0.00000E+00         0.00000E+00        -0.19678E+08
 
   -0.19669E+08         0.10171E+04         0.00000E+00
    0.10171E+04        -0.49325E+08         0.00000E+00
    0.00000E+00         0.00000E+00        -0.19678E+08
 
   -0.19667E+08         0.10964E+04         0.00000E+00
    0.10964E+04        -0.49323E+08         0.00000E+00
    0.00000E+00         0.00000E+00        -0.19678E+08
 
   -0.19665E+08         0.11721E+04         0.00000E+00
    0.11721E+04        -0.49321E+08         0.00000E+00
    0.00000E+00         0.00000E+00        -0.19676E+08
 
   -0.19665E+08         0.12449E+04         0.00000E+00
    0.12449E+04        -0.49318E+08         0.00000E+00
    0.00000E+00         0.00000E+00        -0.19674E+08
 
   -0.19664E+08         0.13156E+04         0.00000E+00
    0.13156E+04        -0.49316E+08         0.00000E+00
    0.00000E+00         0.00000E+00        -0.19671E+08
 
   -0.19665E+08         0.13853E+04         0.00000E+00
    0.13853E+04        -0.49313E+08         0.00000E+00
    0.00000E+00         0.00000E+00        -0.19667E+08
 
   -0.19716E+08         0.20407E+03         0.00000E+00
    0.20407E+03        -0.49336E+08         0.00000E+00
    0.00000E+00         0.00000E+00        -0.19645E+08
 
   -0.19709E+08         0.59532E+03         0.00000E+00
    0.59532E+03        -0.49336E+08         0.00000E+00
    0.00000E+00         0.00000E+00        -0.19653E+08
 
   -0.19702E+08         0.96589E+03         0.00000E+00
    0.96589E+03        -0.49335E+08         0.00000E+00
    0.00000E+00         0.00000E+00        -0.19659E+08
 
   -0.19695E+08         0.13167E+04         0.00000E+00
    0.13167E+04        -0.49334E+08         0.00000E+00
    0.00000E+00         0.00000E+00        -0.19664E+08
 
   -0.19690E+08         0.16485E+04         0.00000E+00
    0.16485E+04        -0.49333E+08         0.00000E+00
    0.00000E+00         0.00000E+00        -0.19669E+08
 
   -0.19684E+08         0.19622E+04         0.00000E+00
    0.19622E+04        -0.49332E+08         0.00000E+00
    0.00000E+00         0.00000E+00        -0.19672E+08
 
   -0.19680E+08         0.22584E+04         0.00000E+00
    0.22584E+04        -0.49331E+08         0.00000E+00
    0.00000E+00         0.00000E+00        -0.19675E+08
 
   -0.19676E+08         0.25381E+04         0.00000E+00
    0.25381E+04        -0.49329E+08         0.00000E+00
    0.00000E+00         0.00000E+00        -0.19677E+08
 
   -0.19672E+08         0.28021E+04         0.00000E+00
    0.28021E+04        -0.49327E+08         0.00000E+00
    0.00000E+00         0.00000E+00        -0.19678E+08
 
   -0.19669E+08         0.30516E+04         0.00000E+00
    0.30516E+04        -0.49325E+08         0.00000E+00
    0.00000E+00         0.00000E+00        -0.19679E+08
 
   -0.19667E+08         0.32882E+04         0.00000E+00
    0.32882E+04        -0.49323E+08         0.00000E+00
    0.00000E+00         0.00000E+00        -0.19678E+08
 
   -0.19666E+08         0.35136E+04         0.00000E+00
    0.35136E+04        -0.49321E+08         0.00000E+00
    0.00000E+00         0.00000E+00        -0.19677E+08
 
   -0.19665E+08         0.37302E+04         0.00000E+00
    0.37302E+04        -0.49319E+08         0.00000E+00
    0.00000E+00         0.00000E+00        -0.19674E+08
 
   -0.19664E+08         0.39406E+04         0.00000E+00
    0.39406E+04        -0.49316E+08         0.00000E+00
    0.00000E+00         0.00000E+00        -0.19671E+08
 
   -0.19665E+08         0.41481E+04         0.00000E+00
    0.41481E+04        -0.49313E+08         0.00000E+00
    0.00000E+00         0.00000E+00        -0.19667E+08
 
   -0.19717E+08         0.34357E+03         0.00000E+00
    0.34357E+03        -0.49337E+08         0.00000E+00
    0.00000E+00         0.00000E+00        -0.19646E+08
 
   -0.19709E+08         0.10012E+04         0.00000E+00
    0.10012E+04        -0.49336E+08         0.00000E+00
    0.00000E+00         0.00000E+00        -0.19653E+08
 
   -0.19702E+08         0.16226E+04         0.00000E+00
    0.16226E+04        -0.49336E+08         0.00000E+00
    0.00000E+00         0.00000E+00        -0.19660E+08
 
   -0.19696E+08         0.22094E+04         0.00000E+00
    0.22094E+04        -0.49335E+08         0.00000E+00
    0.00000E+00         0.00000E+00        -0.19665E+08
 
   -0.19690E+08         0.27631E+04         0.00000E+00
    0.27631E+04        -0.49334E+08         0.00000E+00
    0.00000E+00         0.00000E+00        -0.19669E+08
 
   -0.19685E+08         0.32851E+04         0.00000E+00
    0.32851E+04        -0.49333E+08         0.00000E+00
    0.00000E+00         0.00000E+00        -0.19673E+08
 
   -0.19680E+08         0.37768E+04         0.00000E+00
    0.37768E+04        -0.49331E+08         0.00000E+00
    0.00000E+00         0.00000E+00        -0.19676E+08
 
   -0.19676E+08         0.42397E+04         0.00000E+00
    0.42397E+04        -0.49330E+08         0.00000E+00
    0.00000E+00         0.00000E+00        -0.19678E+08
 
   -0.19673E+08         0.46758E+04         0.00000E+00
    0.46758E+04        -0.49328E+08         0.00000E+00
    0.00000E+00         0.00000E+00        -0.19679E+08
 
   -0.19670E+08         0.50871E+04         0.00000E+00
    0.50871E+04        -0.49326E+08         0.00000E+00
    0.00000E+00         0.00000E+00        -0.19679E+08
 
   -0.19668E+08         0.54763E+04         0.00000E+00
    0.54763E+04        -0.49324E+08         0.00000E+00
    0.00000E+00         0.00000E+00        -0.19678E+08
 
   -0.19666E+08         0.58467E+04         0.00000E+00
    0.58467E+04        -0.49322E+08         0.00000E+00
    0.00000E+00         0.00000E+00        -0.19677E+08
 
   -0.19665E+08         0.62021E+04         0.00000E+00
    0.62021E+04        -0.49319E+08         0.00000E+00
    0.00000E+00         0.00000E+00        -0.19675E+08
 
   -0.19665E+08         0.65471E+04         0.00000E+00
    0.65471E+04        -0.49317E+08         0.00000E+00
    0.00000E+00         0.00000E+00        -0.19672E+08
 
   -0.19665E+08         0.68875E+04         0.00000E+00
    0.68875E+04        -0.49314E+08         0.00000E+00
    0.00000E+00         0.00000E+00        -0.19668E+08
 
   -0.19717E+08         0.48818E+03         0.00000E+00
    0.48818E+03        -0.49338E+08         0.00000E+00
    0.00000E+00         0.00000E+00        -0.19647E+08
 
   -0.19709E+08         0.14204E+04         0.00000E+00
    0.14204E+04        -0.49337E+08         0.00000E+00
    0.00000E+00         0.00000E+00        -0.19654E+08
 
   -0.19702E+08         0.22982E+04         0.00000E+00
    0.22982E+04        -0.49337E+08         0.00000E+00
    0.00000E+00         0.00000E+00        -0.19661E+08
 
   -0.19696E+08         0.31242E+04         0.00000E+00
    0.31242E+04        -0.49336E+08         0.00000E+00
    0.00000E+00         0.00000E+00        -0.19666E+08
 
   -0.19690E+08         0.39005E+04         0.00000E+00
    0.39005E+04        -0.49335E+08         0.00000E+00
    0.00000E+00         0.00000E+00        -0.19670E+08
 
   -0.19685E+08         0.46295E+04         0.00000E+00
    0.46295E+04        -0.49334E+08         0.00000E+00
    0.00000E+00         0.00000E+00        -0.19674E+08
 
   -0.19681E+08         0.53135E+04         0.00000E+00
    0.53135E+04        -0.49332E+08         0.00000E+00
    0.00000E+00         0.00000E+00        -0.19677E+08
 
   -0.19677E+08         0.59551E+04         0.00000E+00
    0.59551E+04        -0.49331E+08         0.00000E+00
    0.00000E+00         0.00000E+00        -0.19678E+08
 
   -0.19673E+08         0.65573E+04         0.00000E+00
    0.65573E+04        -0.49329E+08         0.00000E+00
    0.00000E+00         0.00000E+00        -0.19679E+08
 
   -0.19670E+08         0.71235E+04         0.00000E+00
    0.71235E+04        -0.49327E+08         0.00000E+00
    0.00000E+00         0.00000E+00        -0.19680E+08
 
   -0.19668E+08         0.76578E+04         0.00000E+00
    0.76578E+04        -0.49325E+08         0.00000E+00
    0.00000E+00         0.00000E+00        -0.19679E+08
 
   -0.19667E+08         0.81650E+04         0.00000E+00
    0.81650E+04        -0.49323E+08         0.00000E+00
    0.00000E+00         0.00000E+00        -0.19677E+08
 
   -0.19666E+08         0.86509E+04         0.00000E+00
    0.86509E+04        -0.49320E+08         0.00000E+00
    0.00000E+00         0.00000E+00        -0.19675E+08
 
   -0.19666E+08         0.91223E+04         0.00000E+00
    0.91223E+04        -0.49318E+08         0.00000E+00
    0.00000E+00         0.00000E+00        -0.19672E+08
 
   -0.19666E+08         0.95873E+04         0.00000E+00
    0.95873E+04        -0.49315E+08         0.00000E+00
    0.00000E+00         0.00000E+00        -0.19668E+08
 
   -0.19717E+08         0.63977E+03         0.00000E+00
    0.63977E+03        -0.49339E+08         0.00000E+00
    0.00000E+00         0.00000E+00        -0.19649E+08
 
   -0.19710E+08         0.18577E+04         0.00000E+00
    0.18577E+04        -0.49339E+08         0.00000E+00
    0.00000E+00         0.00000E+00        -0.19656E+08
 
   -0.19703E+08         0.29995E+04         0.00000E+00
    0.29995E+04        -0.49338E+08         0.00000E+00
    0.00000E+00         0.00000E+00        -0.19662E+08
 
   -0.19697E+08         0.40687E+04         0.00000E+00
    0.40687E+04        -0.49338E+08         0.00000E+00
    0.00000E+00         0.00000E+00        -0.19667E+08
 
   -0.19691E+08         0.50686E+04         0.00000E+00
    0.50686E+04        -0.49337E+08         0.00000E+00
    0.00000E+00         0.00000E+00        -0.19671E+08
 
   -0.19686E+08         0.60027E+04         0.00000E+00
    0.60027E+04        -0.49335E+08         0.00000E+00
    0.00000E+00         0.00000E+00        -0.19675E+08
 
   -0.19681E+08         0.68746E+04         0.00000E+00
    0.68746E+04        -0.49334E+08         0.00000E+00
    0.00000E+00         0.00000E+00        -0.19678E+08
 
   -0.19677E+08         0.76883E+04         0.00000E+00
    0.76883E+04        -0.49332E+08         0.00000E+00
    0.00000E+00         0.00000E+00        -0.19679E+08
 
   -0.19674E+08         0.84484E+04         0.00000E+00
    0.84484E+04        -0.49330E+08         0.00000E+00
    0.00000E+00         0.00000E+00        -0.19680E+08
 
   -0.19671E+08         0.91598E+04         0.00000E+00
    0.91598E+04        -0.49328E+08         0.00000E+00
    0.00000E+00         0.00000E+00        -0.19680E+08
 
   -0.19669E+08         0.98286E+04         0.00000E+00
    0.98286E+04        -0.49326E+08         0.00000E+00
    0.00000E+00         0.00000E+00        -0.19680E+08
 
   -0.19668E+08         0.10461E+05         0.00000E+00
    0.10461E+05        -0.49324E+08         0.00000E+00
    0.00000E+00         0.00000E+00        -0.19678E+08
 
   -0.19667E+08         0.11066E+05         0.00000E+00
    0.11066E+05        -0.49322E+08         0.00000E+00
    0.00000E+00         0.00000E+00        -0.19676E+08
 
   -0.19667E+08         0.11652E+05         0.00000E+00
    0.11652E+05        -0.49319E+08         0.00000E+00
    0.00000E+00         0.00000E+00        -0.19673E+08
 
   -0.19667E+08         0.12230E+05         0.00000E+00
    0.12230E+05        -0.49317E+08         0.00000E+00
    0.00000E+00         0.00000E+00        -0.19669E+08
 
   -0.19718E+08         0.80004E+03         0.00000E+00
    0.80004E+03        -0.49341E+08         0.00000E+00
    0.00000E+00         0.00000E+00        -0.19651E+08
 
   -0.19710E+08         0.23174E+04         0.00000E+00
    0.23174E+04        -0.49341E+08         0.00000E+00
    0.00000E+00         0.00000E+00        -0.19658E+08
 
   -0.19704E+08         0.37325E+04         0.00000E+00
    0.37325E+04        -0.49340E+08         0.00000E+00
    0.00000E+00         0.00000E+00        -0.19664E+08
 
   -0.19697E+08         0.50498E+04         0.00000E+00
    0.50498E+04        -0.49339E+08         0.00000E+00
    0.00000E+00         0.00000E+00        -0.19669E+08
 
   -0.19692E+08         0.62742E+04         0.00000E+00
    0.62742E+04        -0.49338E+08         0.00000E+00
    0.00000E+00         0.00000E+00        -0.19673E+08
 
   -0.19687E+08         0.74107E+04         0.00000E+00
    0.74107E+04        -0.49337E+08         0.00000E+00
    0.00000E+00         0.00000E+00        -0.19676E+08
 
   -0.19682E+08         0.84647E+04         0.00000E+00
    0.84647E+04        -0.49335E+08         0.00000E+00
    0.00000E+00         0.00000E+00        -0.19679E+08
 
   -0.19678E+08         0.94420E+04         0.00000E+00
    0.94420E+04        -0.49334E+08         0.00000E+00
    0.00000E+00         0.00000E+00        -0.19680E+08
 
   -0.19675E+08         0.10349E+05         0.00000E+00
    0.10349E+05        -0.49332E+08         0.00000E+00
    0.00000E+00         0.00000E+00        -0.19681E+08
 
   -0.19672E+08         0.11194E+05         0.00000E+00
    0.11194E+05        -0.49330E+08         0.00000E+00
    0.00000E+00         0.00000E+00        -0.19681E+08
 
   -0.19670E+08         0.11983E+05         0.00000E+00
    0.11983E+05        -0.49328E+08         0.00000E+00
    0.00000E+00         0.00000E+00        -0.19681E+08
 
   -0.19669E+08         0.12727E+05         0.00000E+00
    0.12727E+05        -0.49326E+08         0.00000E+00
    0.00000E+00         0.00000E+00        -0.19679E+08
 
   -0.19668E+08         0.13436E+05         0.00000E+00
    0.13436E+05        -0.49323E+08         0.00000E+00
    0.00000E+00         0.00000E+00        -0.19677E+08
 
   -0.19668E+08         0.14122E+05         0.00000E+00
    0.14122E+05        -0.49321E+08         0.00000E+00
    0.00000E+00         0.00000E+00        -0.19674E+08
 
   -0.19668E+08         0.14799E+05         0.00000E+00
    0.14799E+05        -0.49319E+08         0.00000E+00
    0.00000E+00         0.00000E+00        -0.19671E+08
 
   -0.19718E+08         0.97041E+03         0.00000E+00
    0.97041E+03        -0.49343E+08         0.00000E+00
    0.00000E+00         0.00000E+00        -0.19653E+08
 
   -0.19711E+08         0.28033E+04         0.00000E+00
    0.28033E+04        -0.49343E+08         0.00000E+00
    0.00000E+00         0.00000E+00        -0.19660E+08
 
   -0.19704E+08         0.45021E+04         0.00000E+00
    0.45021E+04        -0.49342E+08         0.00000E+00
    0.00000E+00         0.00000E+00        -0.19666E+08
 
   -0.19698E+08         0.60730E+04         0.00000E+00
    0.60730E+04        -0.49342E+08         0.00000E+00
    0.00000E+00         0.00000E+00        -0.19671E+08
 
   -0.19693E+08         0.75226E+04         0.00000E+00
    0.75226E+04        -0.49340E+08         0.00000E+00
    0.00000E+00         0.00000E+00        -0.19675E+08
 
   -0.19688E+08         0.88580E+04         0.00000E+00
    0.88580E+04        -0.49339E+08         0.00000E+00
    0.00000E+00         0.00000E+00        -0.19678E+08
 
   -0.19683E+08         0.10087E+05         0.00000E+00
    0.10087E+05        -0.49338E+08         0.00000E+00
    0.00000E+00         0.00000E+00        -0.19680E+08
 
   -0.19680E+08         0.11217E+05         0.00000E+00
    0.11217E+05        -0.49336E+08         0.00000E+00
    0.00000E+00         0.00000E+00        -0.19682E+08
 
   -0.19676E+08         0.12259E+05         0.00000E+00
    0.12259E+05        -0.49334E+08         0.00000E+00
    0.00000E+00         0.00000E+00        -0.19683E+08
 
   -0.19674E+08         0.13221E+05         0.00000E+00
    0.13221E+05        -0.49332E+08         0.00000E+00
    0.00000E+00         0.00000E+00        -0.19683E+08
 
   -0.19672E+08         0.14115E+05         0.00000E+00
    0.14115E+05        -0.49330E+08         0.00000E+00
    0.00000E+00         0.00000E+00        -0.19682E+08
 
   -0.19670E+08         0.14953E+05         0.00000E+00
    0.14953E+05        -0.49328E+08         0.00000E+00
    0.00000E+00         0.00000E+00        -0.19681E+08
 
   -0.19670E+08         0.15748E+05         0.00000E+00
    0.15748E+05        -0.49326E+08         0.00000E+00
    0.00000E+00         0.00000E+00        -0.19678E+08
 
   -0.19669E+08         0.16515E+05         0.00000E+00
    0.16515E+05        -0.49323E+08         0.00000E+00
    0.00000E+00         0.00000E+00        -0.19676E+08
 
   -0.19670E+08         0.17272E+05         0.00000E+00
    0.17272E+05        -0.49321E+08         0.00000E+00
    0.00000E+00         0.00000E+00        -0.19672E+08
 
   -0.19719E+08         0.11520E+04         0.00000E+00
    0.11520E+04        -0.49346E+08         0.00000E+00
    0.00000E+00         0.00000E+00        -0.19656E+08
 
   -0.19712E+08         0.33180E+04         0.00000E+00
    0.33180E+04        -0.49346E+08         0.00000E+00
    0.00000E+00         0.00000E+00        -0.19663E+08
 
   -0.19705E+08         0.53120E+04         0.00000E+00
    0.53120E+04        -0.49345E+08         0.00000E+00
    0.00000E+00         0.00000E+00        -0.19668E+08
 
   -0.19699E+08         0.71422E+04         0.00000E+00
    0.71422E+04        -0.49344E+08         0.00000E+00
    0.00000E+00         0.00000E+00        -0.19673E+08
 
   -0.19694E+08         0.88172E+04         0.00000E+00
    0.88172E+04        -0.49343E+08         0.00000E+00
    0.00000E+00         0.00000E+00        -0.19677E+08
 
   -0.19689E+08         0.10347E+05         0.00000E+00
    0.10347E+05        -0.49341E+08         0.00000E+00
    0.00000E+00         0.00000E+00        -0.19680E+08
 
   -0.19685E+08         0.11742E+05         0.00000E+00
    0.11742E+05        -0.49340E+08         0.00000E+00
    0.00000E+00         0.00000E+00        -0.19682E+08
 
   -0.19681E+08         0.13013E+05         0.00000E+00
    0.13013E+05        -0.49338E+08         0.00000E+00
    0.00000E+00         0.00000E+00        -0.19684E+08
 
   -0.19678E+08         0.14174E+05         0.00000E+00
    0.14174E+05        -0.49336E+08         0.00000E+00
    0.00000E+00         0.00000E+00        -0.19684E+08
 
   -0.19676E+08         0.15236E+05         0.00000E+00
    0.15236E+05        -0.49334E+08         0.00000E+00
    0.00000E+00         0.00000E+00        -0.19684E+08
 
   -0.19674E+08         0.16215E+05         0.00000E+00
    0.16215E+05        -0.49332E+08         0.00000E+00
    0.00000E+00         0.00000E+00        -0.19683E+08
 
   -0.19672E+08         0.17126E+05         0.00000E+00
    0.17126E+05        -0.49330E+08         0.00000E+00
    0.00000E+00         0.00000E+00        -0.19682E+08
 
   -0.19672E+08         0.17986E+05         0.00000E+00
    0.17986E+05        -0.49328E+08         0.00000E+00
    0.00000E+00         0.00000E+00        -0.19680E+08
 
   -0.19671E+08         0.18812E+05         0.00000E+00
    0.18812E+05        -0.49326E+08         0.00000E+00
    0.00000E+00         0.00000E+00        -0.19677E+08
 
   -0.19672E+08         0.19628E+05         0.00000E+00
    0.19628E+05        -0.49324E+08         0.00000E+00
    0.00000E+00         0.00000E+00        -0.19674E+08
 
   -0.19720E+08         0.13453E+04         0.00000E+00
    0.13453E+04        -0.49349E+08         0.00000E+00
    0.00000E+00         0.00000E+00        -0.19660E+08
 
   -0.19713E+08         0.38629E+04         0.00000E+00
    0.38629E+04        -0.49349E+08         0.00000E+00
    0.00000E+00         0.00000E+00        -0.19666E+08
 
   -0.19706E+08         0.61640E+04         0.00000E+00
    0.61640E+04        -0.49348E+08         0.00000E+00
    0.00000E+00         0.00000E+00        -0.19671E+08
 
   -0.19701E+08         0.82589E+04         0.00000E+00
    0.82589E+04        -0.49347E+08         0.00000E+00
    0.00000E+00         0.00000E+00        -0.19676E+08
 
   -0.19695E+08         0.10159E+05         0.00000E+00
    0.10159E+05        -0.49346E+08         0.00000E+00
    0.00000E+00         0.00000E+00        -0.19679E+08
 
   -0.19691E+08         0.11877E+05         0.00000E+00
    0.11877E+05        -0.49344E+08         0.00000E+00
    0.00000E+00         0.00000E+00        -0.19682E+08
 
   -0.19686E+08         0.13428E+05         0.00000E+00
    0.13428E+05        -0.49343E+08         0.00000E+00
    0.00000E+00         0.00000E+00        -0.19684E+08
 
   -0.19683E+08         0.14826E+05         0.00000E+00
    0.14826E+05        -0.49341E+08         0.00000E+00
    0.00000E+00         0.00000E+00        -0.19685E+08
 
   -0.19680E+08         0.16088E+05         0.00000E+00
    0.16088E+05        -0.49339E+08         0.00000E+00
    0.00000E+00         0.00000E+00        -0.19686E+08
 
   -0.19678E+08         0.17231E+05         0.00000E+00
    0.17231E+05        -0.49337E+08         0.00000E+00
    0.00000E+00         0.00000E+00        -0.19686E+08
 
   -0.19676E+08         0.18273E+05         0.00000E+00
    0.18273E+05        -0.49335E+08         0.00000E+00
    0.00000E+00         0.00000E+00        -0.19685E+08
 
   -0.19674E+08         0.19233E+05         0.00000E+00
    0.19233E+05        -0.49333E+08         0.00000E+00
    0.00000E+00         0.00000E+00        -0.19684E+08
 
   -0.19674E+08         0.20132E+05         0.00000E+00
    0.20132E+05        -0.49331E+08         0.00000E+00
    0.00000E+00         0.00000E+00        -0.19682E+08
 
   -0.19674E+08         0.20993E+05         0.00000E+00
    0.20993E+05        -0.49329E+08         0.00000E+00
    0.00000E+00         0.00000E+00        -0.19679E+08
 
   -0.19674E+08         0.21843E+05         0.00000E+00
    0.21843E+05        -0.49327E+08         0.00000E+00
    0.00000E+00         0.00000E+00        -0.19676E+08
 
   -0.19720E+08         0.15504E+04         0.00000E+00
    0.15504E+04        -0.49352E+08         0.00000E+00
    0.00000E+00         0.00000E+00        -0.19663E+08
 
   -0.19713E+08         0.44381E+04         0.00000E+00
    0.44381E+04        -0.49352E+08         0.00000E+00
    0.00000E+00         0.00000E+00        -0.19670E+08
 
   -0.19707E+08         0.70578E+04         0.00000E+00
    0.70578E+04        -0.49351E+08         0.00000E+00
    0.00000E+00         0.00000E+00        -0.19675E+08
 
   -0.19702E+08         0.94223E+04         0.00000E+00
    0.94223E+04        -0.49350E+08         0.00000E+00
    0.00000E+00         0.00000E+00        -0.19679E+08
 
   -0.19697E+08         0.11546E+05         0.00000E+00
    0.11546E+05        -0.49349E+08         0.00000E+00
    0.00000E+00         0.00000E+00        -0.19682E+08
 
   -0.19692E+08         0.13447E+05         0.00000E+00
    0.13447E+05        -0.49348E+08         0.00000E+00
    0.00000E+00         0.00000E+00        -0.19685E+08
 
   -0.19688E+08         0.15142E+05         0.00000E+00
    0.15142E+05        -0.49346E+08         0.00000E+00
    0.00000E+00         0.00000E+00        -0.19686E+08
 
   -0.19685E+08         0.16651E+05         0.00000E+00
    0.16651E+05        -0.49344E+08         0.00000E+00
    0.00000E+00         0.00000E+00        -0.19688E+08
 
   -0.19682E+08         0.17995E+05         0.00000E+00
    0.17995E+05        -0.49342E+08         0.00000E+00
    0.00000E+00         0.00000E+00        -0.19688E+08
 
   -0.19680E+08         0.19195E+05         0.00000E+00
    0.19195E+05        -0.49340E+08         0.00000E+00
    0.00000E+00         0.00000E+00        -0.19688E+08
 
   -0.19678E+08         0.20274E+05         0.00000E+00
    0.20274E+05        -0.49338E+08         0.00000E+00
    0.00000E+00         0.00000E+00        -0.19687E+08
 
   -0.19677E+08         0.21256E+05         0.00000E+00
    0.21256E+05        -0.49336E+08         0.00000E+00
    0.00000E+00         0.00000E+00        -0.19686E+08
 
   -0.19676E+08         0.22167E+05         0.00000E+00
    0.22167E+05        -0.49334E+08         0.00000E+00
    0.00000E+00         0.00000E+00        -0.19684E+08
 
   -0.19676E+08         0.23034E+05         0.00000E+00
    0.23034E+05        -0.49333E+08         0.00000E+00
    0.00000E+00         0.00000E+00        -0.19681E+08
 
   -0.19676E+08         0.23890E+05         0.00000E+00
    0.23890E+05        -0.49331E+08         0.00000E+00
    0.00000E+00         0.00000E+00        -0.19678E+08
 
   -0.19721E+08         0.17666E+04         0.00000E+00
    0.17666E+04        -0.49356E+08         0.00000E+00
    0.00000E+00         0.00000E+00        -0.19668E+08
 
   -0.19714E+08         0.50416E+04         0.00000E+00
    0.50416E+04        -0.49356E+08         0.00000E+00
    0.00000E+00         0.00000E+00        -0.19674E+08
 
   -0.19708E+08         0.79905E+04         0.00000E+00
    0.79905E+04        -0.49355E+08         0.00000E+00
    0.00000E+00         0.00000E+00        -0.19678E+08
 
   -0.19703E+08         0.10629E+05         0.00000E+00
    0.10629E+05        -0.49354E+08         0.00000E+00
    0.00000E+00         0.00000E+00        -0.19682E+08
 
   -0.19698E+08         0.12975E+05         0.00000E+00
    0.12975E+05        -0.49353E+08         0.00000E+00
    0.00000E+00         0.00000E+00        -0.19685E+08
 
   -0.19694E+08         0.15050E+05         0.00000E+00
    0.15050E+05        -0.49351E+08         0.00000E+00
    0.00000E+00         0.00000E+00        -0.19688E+08
 
   -0.19690E+08         0.16876E+05         0.00000E+00
    0.16876E+05        -0.49349E+08         0.00000E+00
    0.00000E+00         0.00000E+00        -0.19689E+08
 
   -0.19687E+08         0.18479E+05         0.00000E+00
    0.18479E+05        -0.49348E+08         0.00000E+00
    0.00000E+00         0.00000E+00        -0.19690E+08
 
   -0.19685E+08         0.19883E+05         0.00000E+00
    0.19883E+05        -0.49346E+08         0.00000E+00
    0.00000E+00         0.00000E+00        -0.19690E+08
 
   -0.19682E+08         0.21115E+05         0.00000E+00
    0.21115E+05        -0.49344E+08         0.00000E+00
    0.00000E+00         0.00000E+00        -0.19690E+08
 
   -0.19681E+08         0.22203E+05         0.00000E+00
    0.22203E+05        -0.49342E+08         0.00000E+00
    0.00000E+00         0.00000E+00        -0.19689E+08
 
   -0.19680E+08         0.23176E+05         0.00000E+00
    0.23176E+05        -0.49340E+08         0.00000E+00
    0.00000E+00         0.00000E+00        -0.19688E+08
 
   -0.19679E+08         0.24066E+05         0.00000E+00
    0.24066E+05        -0.49338E+08         0.00000E+00
    0.00000E+00         0.00000E+00        -0.19686E+08
 
   -0.19679E+08         0.24907E+05         0.00000E+00
    0.24907E+05        -0.49337E+08         0.00000E+00
    0.00000E+00         0.00000E+00        -0.19684E+08
 
   -0.19679E+08         0.25738E+05         0.00000E+00
    0.25738E+05        -0.49335E+08         0.00000E+00
    0.00000E+00         0.00000E+00        -0.19681E+08
 
   -0.19721E+08         0.19922E+04         0.00000E+00
    0.19922E+04        -0.49360E+08         0.00000E+00
    0.00000E+00         0.00000E+00        -0.19673E+08
 
   -0.19715E+08         0.56694E+04         0.00000E+00
    0.56694E+04        -0.49360E+08         0.00000E+00
    0.00000E+00         0.00000E+00        -0.19678E+08
 
   -0.19710E+08         0.89563E+04         0.00000E+00
    0.89563E+04        -0.49359E+08         0.00000E+00
    0.00000E+00         0.00000E+00        -0.19683E+08
 
   -0.19705E+08         0.11871E+05         0.00000E+00
    0.11871E+05        -0.49358E+08         0.00000E+00
    0.00000E+00         0.00000E+00        -0.19686E+08
 
   -0.19700E+08         0.14437E+05         0.00000E+00
    0.14437E+05        -0.49357E+08         0.00000E+00
    0.00000E+00         0.00000E+00        -0.19689E+08
 
   -0.19696E+08         0.16678E+05         0.00000E+00
    0.16678E+05        -0.49355E+08         0.00000E+00
    0.00000E+00         0.00000E+00        -0.19691E+08
 
   -0.19693E+08         0.18622E+05         0.00000E+00
    0.18622E+05        -0.49353E+08         0.00000E+00
    0.00000E+00         0.00000E+00        -0.19692E+08
 
   -0.19690E+08         0.20299E+05         0.00000E+00
    0.20299E+05        -0.49352E+08         0.00000E+00
    0.00000E+00         0.00000E+00        -0.19693E+08
 
   -0.19687E+08         0.21739E+05         0.00000E+00
    0.21739E+05        -0.49350E+08         0.00000E+00
    0.00000E+00         0.00000E+00        -0.19693E+08
 
   -0.19685E+08         0.22975E+05         0.00000E+00
    0.22975E+05        -0.49348E+08         0.00000E+00
    0.00000E+00         0.00000E+00        -0.19692E+08
 
   -0.19684E+08         0.24040E+05         0.00000E+00
    0.24040E+05        -0.49346E+08         0.00000E+00
    0.00000E+00         0.00000E+00        -0.19691E+08
 
   -0.19683E+08         0.24970E+05         0.00000E+00
    0.24970E+05        -0.49345E+08         0.00000E+00
    0.00000E+00         0.00000E+00        -0.19690E+08
 
   -0.19682E+08         0.25803E+05         0.00000E+00
    0.25803E+05        -0.49343E+08         0.00000E+00
    0.00000E+00         0.00000E+00        -0.19688E+08
 
   -0.19682E+08         0.26582E+05         0.00000E+00
    0.26582E+05        -0.49341E+08         0.00000E+00
    0.00000E+00         0.00000E+00        -0.19686E+08
 
   -0.19683E+08         0.27353E+05         0.00000E+00
    0.27353E+05        -0.49340E+08         0.00000E+00
    0.00000E+00         0.00000E+00        -0.19684E+08
 
   -0.19722E+08         0.22247E+04         0.00000E+00
    0.22247E+04        -0.49365E+08         0.00000E+00
    0.00000E+00         0.00000E+00        -0.19678E+08
 
   -0.19716E+08         0.63151E+04         0.00000E+00
    0.63151E+04        -0.49364E+08         0.00000E+00
    0.00000E+00         0.00000E+00        -0.19683E+08
 
   -0.19711E+08         0.99465E+04         0.00000E+00
    0.99465E+04        -0.49364E+08         0.00000E+00
    0.00000E+00         0.00000E+00        -0.19687E+08
 
   -0.19706E+08         0.13140E+05         0.00000E+00
    0.13140E+05        -0.49362E+08         0.00000E+00
    0.00000E+00         0.00000E+00        -0.19690E+08
 
   -0.19702E+08         0.15921E+05         0.00000E+00
    0.15921E+05        -0.49361E+08         0.00000E+00
    0.00000E+00         0.00000E+00        -0.19693E+08
 
   -0.19699E+08         0.18319E+05         0.00000E+00
    0.18319E+05        -0.49360E+08         0.00000E+00
    0.00000E+00         0.00000E+00        -0.19694E+08
 
   -0.19695E+08         0.20365E+05         0.00000E+00
    0.20365E+05        -0.49358E+08         0.00000E+00
    0.00000E+00         0.00000E+00        -0.19695E+08
 
   -0.19693E+08         0.22095E+05         0.00000E+00
    0.22095E+05        -0.49356E+08         0.00000E+00
    0.00000E+00         0.00000E+00        -0.19696E+08
 
   -0.19691E+08         0.23545E+05         0.00000E+00
    0.23545E+05        -0.49354E+08         0.00000E+00
    0.00000E+00         0.00000E+00        -0.19695E+08
 
   -0.19689E+08         0.24753E+05         0.00000E+00
    0.24753E+05        -0.49353E+08         0.00000E+00
    0.00000E+00         0.00000E+00        -0.19695E+08
 
   -0.19687E+08         0.25760E+05         0.00000E+00
    0.25760E+05        -0.49351E+08         0.00000E+00
    0.00000E+00         0.00000E+00        -0.19694E+08
 
   -0.19687E+08         0.26608E+05         0.00000E+00
    0.26608E+05        -0.49349E+08         0.00000E+00
    0.00000E+00         0.00000E+00        -0.19693E+08
 
   -0.19686E+08         0.27346E+05         0.00000E+00
    0.27346E+05        -0.49348E+08         0.00000E+00
    0.00000E+00         0.00000E+00        -0.19691E+08
 
   -0.19686E+08         0.28025E+05         0.00000E+00
    0.28025E+05        -0.49346E+08         0.00000E+00
    0.00000E+00         0.00000E+00        -0.19690E+08
 
   -0.19686E+08         0.28698E+05         0.00000E+00
    0.28698E+05        -0.49345E+08         0.00000E+00
    0.00000E+00         0.00000E+00        -0.19688E+08
 
   -0.19722E+08         0.24608E+04         0.00000E+00
    0.24608E+04        -0.49370E+08         0.00000E+00
    0.00000E+00         0.00000E+00        -0.19684E+08
 
   -0.19717E+08         0.69700E+04         0.00000E+00
    0.69700E+04        -0.49369E+08         0.00000E+00
    0.00000E+00         0.00000E+00        -0.19689E+08
 
   -0.19712E+08         0.10949E+05         0.00000E+00
    0.10949E+05        -0.49368E+08         0.00000E+00
    0.00000E+00         0.00000E+00        -0.19692E+08
 
   -0.19708E+08         0.14421E+05         0.00000E+00
    0.14421E+05        -0.49367E+08         0.00000E+00
    0.00000E+00         0.00000E+00        -0.19695E+08
 
   -0.19704E+08         0.17413E+05         0.00000E+00
    0.17413E+05        -0.49366E+08         0.00000E+00
    0.00000E+00         0.00000E+00        -0.19697E+08
 
   -0.19701E+08         0.19957E+05         0.00000E+00
    0.19957E+05        -0.49364E+08         0.00000E+00
    0.00000E+00         0.00000E+00        -0.19698E+08
 
   -0.19698E+08         0.22090E+05         0.00000E+00
    0.22090E+05        -0.49363E+08         0.00000E+00
    0.00000E+00         0.00000E+00        -0.19699E+08
 
   -0.19696E+08         0.23850E+05         0.00000E+00
    0.23850E+05        -0.49361E+08         0.00000E+00
    0.00000E+00         0.00000E+00        -0.19699E+08
 
   -0.19694E+08         0.25280E+05         0.00000E+00
    0.25280E+05        -0.49359E+08         0.00000E+00
    0.00000E+00         0.00000E+00        -0.19698E+08
 
   -0.19693E+08         0.26425E+05         0.00000E+00
    0.26425E+05        -0.49358E+08         0.00000E+00
    0.00000E+00         0.00000E+00        -0.19698E+08
 
   -0.19691E+08         0.27334E+05         0.00000E+00
    0.27334E+05        -0.49356E+08         0.00000E+00
    0.00000E+00         0.00000E+00        -0.19697E+08
 
   -0.19691E+08         0.28060E+05         0.00000E+00
    0.28060E+05        -0.49355E+08         0.00000E+00
    0.00000E+00         0.00000E+00        -0.19696E+08
 
   -0.19690E+08         0.28661E+05         0.00000E+00
    0.28661E+05        -0.49353E+08         0.00000E+00
    0.00000E+00         0.00000E+00        -0.19695E+08
 
   -0.19690E+08         0.29198E+05         0.00000E+00
    0.29198E+05        -0.49352E+08         0.00000E+00
    0.00000E+00         0.00000E+00        -0.19693E+08
 
   -0.19691E+08         0.29734E+05         0.00000E+00
    0.29734E+05        -0.49351E+08         0.00000E+00
    0.00000E+00         0.00000E+00        -0.19692E+08
 
   -0.19722E+08         0.26963E+04         0.00000E+00
    0.26963E+04        -0.49375E+08         0.00000E+00
    0.00000E+00         0.00000E+00        -0.19691E+08
 
   -0.19718E+08         0.76236E+04         0.00000E+00
    0.76236E+04        -0.49375E+08         0.00000E+00
    0.00000E+00         0.00000E+00        -0.19695E+08
 
   -0.19714E+08         0.11949E+05         0.00000E+00
    0.11949E+05        -0.49374E+08         0.00000E+00
    0.00000E+00         0.00000E+00        -0.19698E+08
 
   -0.19710E+08         0.15697E+05         0.00000E+00
    0.15697E+05        -0.49373E+08         0.00000E+00
    0.00000E+00         0.00000E+00        -0.19700E+08
 
   -0.19707E+08         0.18894E+05         0.00000E+00
    0.18894E+05        -0.49371E+08         0.00000E+00
    0.00000E+00         0.00000E+00        -0.19701E+08
 
   -0.19704E+08         0.21574E+05         0.00000E+00
    0.21574E+05        -0.49370E+08         0.00000E+00
    0.00000E+00         0.00000E+00        -0.19702E+08
 
   -0.19702E+08         0.23775E+05         0.00000E+00
    0.23775E+05        -0.49368E+08         0.00000E+00
    0.00000E+00         0.00000E+00        -0.19702E+08
 
   -0.19700E+08         0.25539E+05         0.00000E+00
    0.25539E+05        -0.49366E+08         0.00000E+00
    0.00000E+00         0.00000E+00        -0.19702E+08
 
   -0.19698E+08         0.26916E+05         0.00000E+00
    0.26916E+05        -0.49365E+08         0.00000E+00
    0.00000E+00         0.00000E+00        -0.19702E+08
 
   -0.19697E+08         0.27959E+05         0.00000E+00
    0.27959E+05        -0.49363E+08         0.00000E+00
    0.00000E+00         0.00000E+00        -0.19701E+08
 
   -0.19696E+08         0.28727E+05         0.00000E+00
    0.28727E+05        -0.49362E+08         0.00000E+00
    0.00000E+00         0.00000E+00        -0.19700E+08
 
   -0.19695E+08         0.29286E+05         0.00000E+00
    0.29286E+05        -0.49361E+08         0.00000E+00
    0.00000E+00         0.00000E+00        -0.19699E+08
 
   -0.19695E+08         0.29707E+05         0.00000E+00
    0.29707E+05        -0.49360E+08         0.00000E+00
    0.00000E+00         0.00000E+00        -0.19698E+08
 
   -0.19695E+08         0.30061E+05         0.00000E+00
    0.30061E+05        -0.49359E+08         0.00000E+00
    0.00000E+00         0.00000E+00        -0.19697E+08
 
   -0.19695E+08         0.30421E+05         0.00000E+00
    0.30421E+05        -0.49358E+08         0.00000E+00
    0.00000E+00         0.00000E+00        -0.19696E+08
 
   -0.19722E+08         0.29268E+04         0.00000E+00
    0.29268E+04        -0.49381E+08         0.00000E+00
    0.00000E+00         0.00000E+00        -0.19698E+08
 
   -0.19718E+08         0.82641E+04         0.00000E+00
    0.82641E+04        -0.49380E+08         0.00000E+00
    0.00000E+00         0.00000E+00        -0.19701E+08
 
   -0.19715E+08         0.12931E+05         0.00000E+00
    0.12931E+05        -0.49379E+08         0.00000E+00
    0.00000E+00         0.00000E+00        -0.19704E+08
 
   -0.19712E+08         0.16948E+05         0.00000E+00
    0.16948E+05        -0.49378E+08         0.00000E+00
    0.00000E+00         0.00000E+00        -0.19705E+08
 
   -0.19709E+08         0.20343E+05         0.00000E+00
    0.20343E+05        -0.49377E+08         0.00000E+00
    0.00000E+00         0.00000E+00        -0.19706E+08
 
   -0.19707E+08         0.23145E+05         0.00000E+00
    0.23145E+05        -0.49375E+08         0.00000E+00
    0.00000E+00         0.00000E+00        -0.19707E+08
 
   -0.19705E+08         0.25393E+05         0.00000E+00
    0.25393E+05        -0.49374E+08         0.00000E+00
    0.00000E+00         0.00000E+00        -0.19706E+08
 
   -0.19704E+08         0.27132E+05         0.00000E+00
    0.27132E+05        -0.49372E+08         0.00000E+00
    0.00000E+00         0.00000E+00        -0.19706E+08
 
   -0.19702E+08         0.28419E+05         0.00000E+00
    0.28419E+05        -0.49371E+08         0.00000E+00
    0.00000E+00         0.00000E+00        -0.19705E+08
 
   -0.19702E+08         0.29316E+05         0.00000E+00
    0.29316E+05        -0.49370E+08         0.00000E+00
    0.00000E+00         0.00000E+00        -0.19704E+08
 
   -0.19701E+08         0.29898E+05         0.00000E+00
    0.29898E+05        -0.49368E+08         0.00000E+00
    0.00000E+00         0.00000E+00        -0.19704E+08
 
   -0.19701E+08         0.30245E+05         0.00000E+00
    0.30245E+05        -0.49368E+08         0.00000E+00
    0.00000E+00         0.00000E+00        -0.19703E+08
 
   -0.19700E+08         0.30441E+05         0.00000E+00
    0.30441E+05        -0.49367E+08         0.00000E+00
    0.00000E+00         0.00000E+00        -0.19702E+08
 
   -0.19700E+08         0.30572E+05         0.00000E+00
    0.30572E+05        -0.49366E+08         0.00000E+00
    0.00000E+00         0.00000E+00        -0.19701E+08
 
   -0.19701E+08         0.30719E+05         0.00000E+00
    0.30719E+05        -0.49366E+08         0.00000E+00
    0.00000E+00         0.00000E+00        -0.19701E+08
 
   -0.19722E+08         0.31486E+04         0.00000E+00
    0.31486E+04        -0.49386E+08         0.00000E+00
    0.00000E+00         0.00000E+00        -0.19706E+08
 
   -0.19719E+08         0.88802E+04         0.00000E+00
    0.88802E+04        -0.49386E+08         0.00000E+00
    0.00000E+00         0.00000E+00        -0.19709E+08
 
   -0.19716E+08         0.13875E+05         0.00000E+00
    0.13875E+05        -0.49385E+08         0.00000E+00
    0.00000E+00         0.00000E+00        -0.19710E+08
 
   -0.19714E+08         0.18152E+05         0.00000E+00
    0.18152E+05        -0.49384E+08         0.00000E+00
    0.00000E+00         0.00000E+00        -0.19711E+08
 
   -0.19712E+08         0.21731E+05         0.00000E+00
    0.21731E+05        -0.49383E+08         0.00000E+00
    0.00000E+00         0.00000E+00        -0.19712E+08
 
   -0.19711E+08         0.24639E+05         0.00000E+00
    0.24639E+05        -0.49382E+08         0.00000E+00
    0.00000E+00         0.00000E+00        -0.19711E+08
 
   -0.19709E+08         0.26909E+05         0.00000E+00
    0.26909E+05        -0.49380E+08         0.00000E+00
    0.00000E+00         0.00000E+00        -0.19711E+08
 
   -0.19708E+08         0.28590E+05         0.00000E+00
    0.28590E+05        -0.49379E+08         0.00000E+00
    0.00000E+00         0.00000E+00        -0.19710E+08
 
   -0.19707E+08         0.29745E+05         0.00000E+00
    0.29745E+05        -0.49378E+08         0.00000E+00
    0.00000E+00         0.00000E+00        -0.19709E+08
 
   -0.19707E+08         0.30450E+05         0.00000E+00
    0.30450E+05        -0.49376E+08         0.00000E+00
    0.00000E+00         0.00000E+00        -0.19708E+08
 
   -0.19707E+08         0.30798E+05         0.00000E+00
    0.30798E+05        -0.49376E+08         0.00000E+00
    0.00000E+00         0.00000E+00        -0.19707E+08
 
   -0.19706E+08         0.30887E+05         0.00000E+00
    0.30887E+05        -0.49375E+08         0.00000E+00
    0.00000E+00         0.00000E+00        -0.19707E+08
 
   -0.19706E+08         0.30819E+05         0.00000E+00
    0.30819E+05        -0.49375E+08         0.00000E+00
    0.00000E+00         0.00000E+00        -0.19706E+08
 
   -0.19706E+08         0.30693E+05         0.00000E+00
    0.30693E+05        -0.49375E+08         0.00000E+00
    0.00000E+00         0.00000E+00        -0.19706E+08
 
   -0.19706E+08         0.30596E+05         0.00000E+00
    0.30596E+05        -0.49375E+08         0.00000E+00
    0.00000E+00         0.00000E+00        -0.19706E+08
 
   -0.19722E+08         0.33591E+04         0.00000E+00
    0.33591E+04        -0.49393E+08         0.00000E+00
    0.00000E+00         0.00000E+00        -0.19714E+08
 
   -0.19720E+08         0.94623E+04         0.00000E+00
    0.94623E+04        -0.49392E+08         0.00000E+00
    0.00000E+00         0.00000E+00        -0.19716E+08
 
   -0.19718E+08         0.14766E+05         0.00000E+00
    0.14766E+05        -0.49392E+08         0.00000E+00
    0.00000E+00         0.00000E+00        -0.19717E+08
 
   -0.19716E+08         0.19284E+05         0.00000E+00
    0.19284E+05        -0.49391E+08         0.00000E+00
    0.00000E+00         0.00000E+00        -0.19717E+08
 
   -0.19715E+08         0.23029E+05         0.00000E+00
    0.23029E+05        -0.49390E+08         0.00000E+00
    0.00000E+00         0.00000E+00        -0.19717E+08
 
   -0.19714E+08         0.26017E+05         0.00000E+00
    0.26017E+05        -0.49388E+08         0.00000E+00
    0.00000E+00         0.00000E+00        -0.19716E+08
 
   -0.19714E+08         0.28278E+05         0.00000E+00
    0.28278E+05        -0.49387E+08         0.00000E+00
    0.00000E+00         0.00000E+00        -0.19715E+08
 
   -0.19713E+08         0.29861E+05         0.00000E+00
    0.29861E+05        -0.49386E+08         0.00000E+00
    0.00000E+00         0.00000E+00        -0.19714E+08
 
   -0.19713E+08         0.30838E+05         0.00000E+00
    0.30838E+05        -0.49385E+08         0.00000E+00
    0.00000E+00         0.00000E+00        -0.19713E+08
 
   -0.19713E+08         0.31304E+05         0.00000E+00
    0.31304E+05        -0.49384E+08         0.00000E+00
    0.00000E+00         0.00000E+00        -0.19712E+08
 
   -0.19713E+08         0.31371E+05         0.00000E+00
    0.31371E+05        -0.49383E+08         0.00000E+00
    0.00000E+00         0.00000E+00        -0.19712E+08
 
   -0.19713E+08         0.31162E+05         0.00000E+00
    0.31162E+05        -0.49383E+08         0.00000E+00
    0.00000E+00         0.00000E+00        -0.19711E+08
 
   -0.19713E+08         0.30799E+05         0.00000E+00
    0.30799E+05        -0.49383E+08         0.00000E+00
    0.00000E+00         0.00000E+00        -0.19711E+08
 
   -0.19713E+08         0.30389E+05         0.00000E+00
    0.30389E+05        -0.49384E+08         0.00000E+00
    0.00000E+00         0.00000E+00        -0.19712E+08
 
   -0.19713E+08         0.30024E+05         0.00000E+00
    0.30024E+05        -0.49384E+08         0.00000E+00
    0.00000E+00         0.00000E+00        -0.19713E+08
 
   -0.19722E+08         0.35577E+04         0.00000E+00
    0.35577E+04        -0.49399E+08         0.00000E+00
    0.00000E+00         0.00000E+00        -0.19723E+08
 
   -0.19721E+08         0.10004E+05         0.00000E+00
    0.10004E+05        -0.49399E+08         0.00000E+00
    0.00000E+00         0.00000E+00        -0.19724E+08
 
   -0.19720E+08         0.15589E+05         0.00000E+00
    0.15589E+05        -0.49398E+08         0.00000E+00
    0.00000E+00         0.00000E+00        -0.19724E+08
 
   -0.19719E+08         0.20319E+05         0.00000E+00
    0.20319E+05        -0.49398E+08         0.00000E+00
    0.00000E+00         0.00000E+00        -0.19724E+08
 
   -0.19718E+08         0.24196E+05         0.00000E+00
    0.24196E+05        -0.49397E+08         0.00000E+00
    0.00000E+00         0.00000E+00        -0.19723E+08
 
   -0.19718E+08         0.27229E+05         0.00000E+00
    0.27229E+05        -0.49395E+08         0.00000E+00
    0.00000E+00         0.00000E+00        -0.19722E+08
 
   -0.19718E+08         0.29440E+05         0.00000E+00
    0.29440E+05        -0.49394E+08         0.00000E+00
    0.00000E+00         0.00000E+00        -0.19720E+08
 
   -0.19719E+08         0.30879E+05         0.00000E+00
    0.30879E+05        -0.49393E+08         0.00000E+00
    0.00000E+00         0.00000E+00        -0.19719E+08
 
   -0.19719E+08         0.31630E+05         0.00000E+00
    0.31630E+05        -0.49393E+08         0.00000E+00
    0.00000E+00         0.00000E+00        -0.19718E+08
 
   -0.19719E+08         0.31810E+05         0.00000E+00
    0.31810E+05        -0.49392E+08         0.00000E+00
    0.00000E+00         0.00000E+00        -0.19717E+08
 
   -0.19720E+08         0.31559E+05         0.00000E+00
    0.31559E+05        -0.49392E+08         0.00000E+00
    0.00000E+00         0.00000E+00        -0.19716E+08
 
   -0.19720E+08         0.31025E+05         0.00000E+00
    0.31025E+05        -0.49392E+08         0.00000E+00
    0.00000E+00         0.00000E+00        -0.19716E+08
 
   -0.19720E+08         0.30345E+05         0.00000E+00
    0.30345E+05        -0.49393E+08         0.00000E+00
    0.00000E+00         0.00000E+00        -0.19717E+08
 
   -0.19720E+08         0.29638E+05         0.00000E+00
    0.29638E+05        -0.49394E+08         0.00000E+00
    0.00000E+00         0.00000E+00        -0.19718E+08
 
   -0.19720E+08         0.28993E+05         0.00000E+00
    0.28993E+05        -0.49395E+08         0.00000E+00
    0.00000E+00         0.00000E+00        -0.19719E+08
 
   -0.19722E+08         0.37458E+04         0.00000E+00
    0.37458E+04        -0.49406E+08         0.00000E+00
    0.00000E+00         0.00000E+00        -0.19732E+08
 
   -0.19722E+08         0.10505E+05         0.00000E+00
    0.10505E+05        -0.49406E+08         0.00000E+00
    0.00000E+00         0.00000E+00        -0.19733E+08
 
   -0.19721E+08         0.16333E+05         0.00000E+00
    0.16333E+05        -0.49406E+08         0.00000E+00
    0.00000E+00         0.00000E+00        -0.19732E+08
 
   -0.19721E+08         0.21229E+05         0.00000E+00
    0.21229E+05        -0.49405E+08         0.00000E+00
    0.00000E+00         0.00000E+00        -0.19731E+08
 
   -0.19722E+08         0.25189E+05         0.00000E+00
    0.25189E+05        -0.49404E+08         0.00000E+00
    0.00000E+00         0.00000E+00        -0.19729E+08
 
   -0.19723E+08         0.28211E+05         0.00000E+00
    0.28211E+05        -0.49403E+08         0.00000E+00
    0.00000E+00         0.00000E+00        -0.19727E+08
 
   -0.19724E+08         0.30316E+05         0.00000E+00
    0.30316E+05        -0.49402E+08         0.00000E+00
    0.00000E+00         0.00000E+00        -0.19725E+08
 
   -0.19725E+08         0.31558E+05         0.00000E+00
    0.31558E+05        -0.49402E+08         0.00000E+00
    0.00000E+00         0.00000E+00        -0.19724E+08
 
   -0.19726E+08         0.32037E+05         0.00000E+00
    0.32037E+05        -0.49401E+08         0.00000E+00
    0.00000E+00         0.00000E+00        -0.19722E+08
 
   -0.19726E+08         0.31896E+05         0.00000E+00
    0.31896E+05        -0.49401E+08         0.00000E+00
    0.00000E+00         0.00000E+00        -0.19721E+08
 
   -0.19727E+08         0.31304E+05         0.00000E+00
    0.31304E+05        -0.49402E+08         0.00000E+00
    0.00000E+00         0.00000E+00        -0.19721E+08
 
   -0.19728E+08         0.30433E+05         0.00000E+00
    0.30433E+05        -0.49402E+08         0.00000E+00
    0.00000E+00         0.00000E+00        -0.19722E+08
 
   -0.19728E+08         0.29435E+05         0.00000E+00
    0.29435E+05        -0.49403E+08         0.00000E+00
    0.00000E+00         0.00000E+00        -0.19723E+08
 
   -0.19728E+08         0.28431E+05         0.00000E+00
    0.28431E+05        -0.49405E+08         0.00000E+00
    0.00000E+00         0.00000E+00        -0.19724E+08
 
   -0.19728E+08         0.27504E+05         0.00000E+00
    0.27504E+05        -0.49406E+08         0.00000E+00
    0.00000E+00         0.00000E+00        -0.19726E+08
 
   -0.19722E+08         0.39263E+04         0.00000E+00
    0.39263E+04        -0.49414E+08         0.00000E+00
    0.00000E+00         0.00000E+00        -0.19742E+08
 
   -0.19722E+08         0.10966E+05         0.00000E+00
    0.10966E+05        -0.49414E+08         0.00000E+00
    0.00000E+00         0.00000E+00        -0.19741E+08
 
   -0.19723E+08         0.16989E+05         0.00000E+00
    0.16989E+05        -0.49413E+08         0.00000E+00
    0.00000E+00         0.00000E+00        -0.19740E+08
 
   -0.19724E+08         0.21987E+05         0.00000E+00
    0.21987E+05        -0.49412E+08         0.00000E+00
    0.00000E+00         0.00000E+00        -0.19738E+08
 
   -0.19726E+08         0.25952E+05         0.00000E+00
    0.25952E+05        -0.49412E+08         0.00000E+00
    0.00000E+00         0.00000E+00        -0.19736E+08
 
   -0.19727E+08         0.28881E+05         0.00000E+00
    0.28881E+05        -0.49411E+08         0.00000E+00
    0.00000E+00         0.00000E+00        -0.19733E+08
 
   -0.19729E+08         0.30803E+05         0.00000E+00
    0.30803E+05        -0.49411E+08         0.00000E+00
    0.00000E+00         0.00000E+00        -0.19731E+08
 
   -0.19731E+08         0.31787E+05         0.00000E+00
    0.31787E+05        -0.49411E+08         0.00000E+00
    0.00000E+00         0.00000E+00        -0.19729E+08
 
   -0.19733E+08         0.31958E+05         0.00000E+00
    0.31958E+05        -0.49411E+08         0.00000E+00
    0.00000E+00         0.00000E+00        -0.19727E+08
 
   -0.19734E+08         0.31484E+05         0.00000E+00
    0.31484E+05        -0.49411E+08         0.00000E+00
    0.00000E+00         0.00000E+00        -0.19727E+08
 
   -0.19735E+08         0.30556E+05         0.00000E+00
    0.30556E+05        -0.49412E+08         0.00000E+00
    0.00000E+00         0.00000E+00        -0.19727E+08
 
   -0.19736E+08         0.29363E+05         0.00000E+00
    0.29363E+05        -0.49413E+08         0.00000E+00
    0.00000E+00         0.00000E+00        -0.19728E+08
 
   -0.19736E+08         0.28063E+05         0.00000E+00
    0.28063E+05        -0.49415E+08         0.00000E+00
    0.00000E+00         0.00000E+00        -0.19729E+08
 
   -0.19736E+08         0.26777E+05         0.00000E+00
    0.26777E+05        -0.49417E+08         0.00000E+00
    0.00000E+00         0.00000E+00        -0.19732E+08
 
   -0.19736E+08         0.25579E+05         0.00000E+00
    0.25579E+05        -0.49419E+08         0.00000E+00
    0.00000E+00         0.00000E+00        -0.19734E+08
 
   -0.19722E+08         0.41022E+04         0.00000E+00
    0.41022E+04        -0.49422E+08         0.00000E+00
    0.00000E+00         0.00000E+00        -0.19752E+08
 
   -0.19723E+08         0.11391E+05         0.00000E+00
    0.11391E+05        -0.49421E+08         0.00000E+00
    0.00000E+00         0.00000E+00        -0.19750E+08
 
   -0.19725E+08         0.17548E+05         0.00000E+00
    0.17548E+05        -0.49421E+08         0.00000E+00
    0.00000E+00         0.00000E+00        -0.19748E+08
 
   -0.19727E+08         0.22560E+05         0.00000E+00
    0.22560E+05        -0.49420E+08         0.00000E+00
    0.00000E+00         0.00000E+00        -0.19745E+08
 
   -0.19730E+08         0.26418E+05         0.00000E+00
    0.26418E+05        -0.49420E+08         0.00000E+00
    0.00000E+00         0.00000E+00        -0.19742E+08
 
   -0.19733E+08         0.29136E+05         0.00000E+00
    0.29136E+05        -0.49420E+08         0.00000E+00
    0.00000E+00         0.00000E+00        -0.19739E+08
 
   -0.19736E+08         0.30773E+05         0.00000E+00
    0.30773E+05        -0.49420E+08         0.00000E+00
    0.00000E+00         0.00000E+00        -0.19736E+08
 
   -0.19738E+08         0.31438E+05         0.00000E+00
    0.31438E+05        -0.49420E+08         0.00000E+00
    0.00000E+00         0.00000E+00        -0.19734E+08
 
   -0.19741E+08         0.31287E+05         0.00000E+00
    0.31287E+05        -0.49421E+08         0.00000E+00
    0.00000E+00         0.00000E+00        -0.19733E+08
 
   -0.19743E+08         0.30503E+05         0.00000E+00
    0.30503E+05        -0.49422E+08         0.00000E+00
    0.00000E+00         0.00000E+00        -0.19733E+08
 
   -0.19744E+08         0.29282E+05         0.00000E+00
    0.29282E+05        -0.49424E+08         0.00000E+00
    0.00000E+00         0.00000E+00        -0.19733E+08
 
   -0.19745E+08         0.27811E+05         0.00000E+00
    0.27811E+05        -0.49426E+08         0.00000E+00
    0.00000E+00         0.00000E+00        -0.19734E+08
 
   -0.19745E+08         0.26246E+05         0.00000E+00
    0.26246E+05        -0.49427E+08         0.00000E+00
    0.00000E+00         0.00000E+00        -0.19737E+08
 
   -0.19745E+08         0.24706E+05         0.00000E+00
    0.24706E+05        -0.49430E+08         0.00000E+00
    0.00000E+00         0.00000E+00        -0.19740E+08
 
   -0.19745E+08         0.23256E+05         0.00000E+00
    0.23256E+05        -0.49432E+08         0.00000E+00
    0.00000E+00         0.00000E+00        -0.19743E+08
 
   -0.19722E+08         0.42786E+04         0.00000E+00
    0.42786E+04        -0.49430E+08         0.00000E+00
    0.00000E+00         0.00000E+00        -0.19763E+08
 
   -0.19725E+08         0.11779E+05         0.00000E+00
    0.11779E+05        -0.49429E+08         0.00000E+00
    0.00000E+00         0.00000E+00        -0.19760E+08
 
   -0.19728E+08         0.17992E+05         0.00000E+00
    0.17992E+05        -0.49429E+08         0.00000E+00
    0.00000E+00         0.00000E+00        -0.19756E+08
 
   -0.19731E+08         0.22897E+05         0.00000E+00
    0.22897E+05        -0.49429E+08         0.00000E+00
    0.00000E+00         0.00000E+00        -0.19752E+08
 
   -0.19735E+08         0.26495E+05         0.00000E+00
    0.26495E+05        -0.49429E+08         0.00000E+00
    0.00000E+00         0.00000E+00        -0.19749E+08
 
   -0.19739E+08         0.28848E+05         0.00000E+00
    0.28848E+05        -0.49429E+08         0.00000E+00
    0.00000E+00         0.00000E+00        -0.19745E+08
 
   -0.19743E+08         0.30082E+05         0.00000E+00
    0.30082E+05        -0.49430E+08         0.00000E+00
    0.00000E+00         0.00000E+00        -0.19742E+08
 
   -0.19746E+08         0.30377E+05         0.00000E+00
    0.30377E+05        -0.49431E+08         0.00000E+00
    0.00000E+00         0.00000E+00        -0.19740E+08
 
   -0.19750E+08         0.29925E+05         0.00000E+00
    0.29925E+05        -0.49433E+08         0.00000E+00
    0.00000E+00         0.00000E+00        -0.19739E+08
 
   -0.19752E+08         0.28902E+05         0.00000E+00
    0.28902E+05        -0.49434E+08         0.00000E+00
    0.00000E+00         0.00000E+00        -0.19739E+08
 
   -0.19754E+08         0.27472E+05         0.00000E+00
    0.27472E+05        -0.49436E+08         0.00000E+00
    0.00000E+00         0.00000E+00        -0.19740E+08
 
   -0.19755E+08         0.25796E+05         0.00000E+00
    0.25796E+05        -0.49439E+08         0.00000E+00
    0.00000E+00         0.00000E+00        -0.19742E+08
 
   -0.19755E+08         0.24021E+05         0.00000E+00
    0.24021E+05        -0.49441E+08         0.00000E+00
    0.00000E+00         0.00000E+00        -0.19745E+08
 
   -0.19755E+08         0.22263E+05         0.00000E+00
    0.22263E+05        -0.49444E+08         0.00000E+00
    0.00000E+00         0.00000E+00        -0.19748E+08
 
   -0.19755E+08         0.20587E+05         0.00000E+00
    0.20587E+05        -0.49446E+08         0.00000E+00
    0.00000E+00         0.00000E+00        -0.19752E+08
 
   -0.19722E+08         0.44610E+04         0.00000E+00
    0.44610E+04        -0.49438E+08         0.00000E+00
    0.00000E+00         0.00000E+00        -0.19774E+08
 
   -0.19726E+08         0.12117E+05         0.00000E+00
    0.12117E+05        -0.49438E+08         0.00000E+00
    0.00000E+00         0.00000E+00        -0.19769E+08
 
   -0.19731E+08         0.18279E+05         0.00000E+00
    0.18279E+05        -0.49437E+08         0.00000E+00
    0.00000E+00         0.00000E+00        -0.19765E+08
 
   -0.19735E+08         0.22909E+05         0.00000E+00
    0.22909E+05        -0.49437E+08         0.00000E+00
    0.00000E+00         0.00000E+00        -0.19760E+08
 
   -0.19740E+08         0.26053E+05         0.00000E+00
    0.26053E+05        -0.49438E+08         0.00000E+00
    0.00000E+00         0.00000E+00        -0.19755E+08
 
   -0.19746E+08         0.27862E+05         0.00000E+00
    0.27862E+05        -0.49439E+08         0.00000E+00
    0.00000E+00         0.00000E+00        -0.19752E+08
 
   -0.19751E+08         0.28586E+05         0.00000E+00
    0.28586E+05        -0.49441E+08         0.00000E+00
    0.00000E+00         0.00000E+00        -0.19749E+08
 
   -0.19755E+08         0.28494E+05         0.00000E+00
    0.28494E+05        -0.49443E+08         0.00000E+00
    0.00000E+00         0.00000E+00        -0.19747E+08
 
   -0.19759E+08         0.27802E+05         0.00000E+00
    0.27802E+05        -0.49445E+08         0.00000E+00
    0.00000E+00         0.00000E+00        -0.19747E+08
 
   -0.19762E+08         0.26650E+05         0.00000E+00
    0.26650E+05        -0.49448E+08         0.00000E+00
    0.00000E+00         0.00000E+00        -0.19747E+08
 
   -0.19764E+08         0.25134E+05         0.00000E+00
    0.25134E+05        -0.49450E+08         0.00000E+00
    0.00000E+00         0.00000E+00        -0.19748E+08
 
   -0.19765E+08         0.23358E+05         0.00000E+00
    0.23358E+05        -0.49453E+08         0.00000E+00
    0.00000E+00         0.00000E+00        -0.19751E+08
 
   -0.19765E+08         0.21444E+05         0.00000E+00
    0.21444E+05        -0.49456E+08         0.00000E+00
    0.00000E+00         0.00000E+00        -0.19754E+08
 
   -0.19765E+08         0.19513E+05         0.00000E+00
    0.19513E+05        -0.49458E+08         0.00000E+00
    0.00000E+00         0.00000E+00        -0.19758E+08
 
   -0.19765E+08         0.17642E+05         0.00000E+00
    0.17642E+05        -0.49461E+08         0.00000E+00
    0.00000E+00         0.00000E+00        -0.19762E+08
 
   -0.19722E+08         0.46391E+04         0.00000E+00
    0.46391E+04        -0.49447E+08         0.00000E+00
    0.00000E+00         0.00000E+00        -0.19785E+08
 
   -0.19728E+08         0.12380E+05         0.00000E+00
    0.12380E+05        -0.49446E+08         0.00000E+00
    0.00000E+00         0.00000E+00        -0.19779E+08
 
   -0.19734E+08         0.18316E+05         0.00000E+00
    0.18316E+05        -0.49446E+08         0.00000E+00
    0.00000E+00         0.00000E+00        -0.19773E+08
 
   -0.19740E+08         0.22439E+05         0.00000E+00
    0.22439E+05        -0.49447E+08         0.00000E+00
    0.00000E+00         0.00000E+00        -0.19767E+08
 
   -0.19747E+08         0.24893E+05         0.00000E+00
    0.24893E+05        -0.49448E+08         0.00000E+00
    0.00000E+00         0.00000E+00        -0.19762E+08
 
   -0.19753E+08         0.26010E+05         0.00000E+00
    0.26010E+05        -0.49450E+08         0.00000E+00
    0.00000E+00         0.00000E+00        -0.19758E+08
 
   -0.19759E+08         0.26185E+05         0.00000E+00
    0.26185E+05        -0.49453E+08         0.00000E+00
    0.00000E+00         0.00000E+00        -0.19756E+08
 
   -0.19764E+08         0.25749E+05         0.00000E+00
    0.25749E+05        -0.49456E+08         0.00000E+00
    0.00000E+00         0.00000E+00        -0.19755E+08
 
   -0.19768E+08         0.24906E+05         0.00000E+00
    0.24906E+05        -0.49459E+08         0.00000E+00
    0.00000E+00         0.00000E+00        -0.19755E+08
 
   -0.19772E+08         0.23747E+05         0.00000E+00
    0.23747E+05        -0.49462E+08         0.00000E+00
    0.00000E+00         0.00000E+00        -0.19756E+08
 
   -0.19774E+08         0.22291E+05         0.00000E+00
    0.22291E+05        -0.49465E+08         0.00000E+00
    0.00000E+00         0.00000E+00        -0.19758E+08
 
   -0.19775E+08         0.20547E+05         0.00000E+00
    0.20547E+05        -0.49468E+08         0.00000E+00
    0.00000E+00         0.00000E+00        -0.19760E+08
 
   -0.19776E+08         0.18587E+05         0.00000E+00
    0.18587E+05        -0.49471E+08         0.00000E+00
    0.00000E+00         0.00000E+00        -0.19764E+08
 
   -0.19776E+08         0.16535E+05         0.00000E+00
    0.16535E+05        -0.49474E+08         0.00000E+00
    0.00000E+00         0.00000E+00        -0.19768E+08
 
   -0.19775E+08         0.14500E+05         0.00000E+00
    0.14500E+05        -0.49477E+08         0.00000E+00
    0.00000E+00         0.00000E+00        -0.19772E+08
 
   -0.19723E+08         0.48068E+04         0.00000E+00
    0.48068E+04        -0.49456E+08         0.00000E+00
    0.00000E+00         0.00000E+00        -0.19797E+08
 
   -0.19730E+08         0.12484E+05         0.00000E+00
    0.12484E+05        -0.49455E+08         0.00000E+00
    0.00000E+00         0.00000E+00        -0.19789E+08
 
   -0.19738E+08         0.17927E+05         0.00000E+00
    0.17927E+05        -0.49456E+08         0.00000E+00
    0.00000E+00         0.00000E+00        -0.19781E+08
 
   -0.19747E+08         0.21213E+05         0.00000E+00
    0.21213E+05        -0.49457E+08         0.00000E+00
    0.00000E+00         0.00000E+00        -0.19775E+08
 
   -0.19755E+08         0.22762E+05         0.00000E+00
    0.22762E+05        -0.49459E+08         0.00000E+00
    0.00000E+00         0.00000E+00        -0.19769E+08
 
   -0.19762E+08         0.23155E+05         0.00000E+00
    0.23155E+05        -0.49462E+08         0.00000E+00
    0.00000E+00         0.00000E+00        -0.19766E+08
 
   -0.19768E+08         0.22869E+05         0.00000E+00
    0.22869E+05        -0.49466E+08         0.00000E+00
    0.00000E+00         0.00000E+00        -0.19764E+08
 
   -0.19774E+08         0.22199E+05         0.00000E+00
    0.22199E+05        -0.49470E+08         0.00000E+00
    0.00000E+00         0.00000E+00        -0.19764E+08
 
   -0.19778E+08         0.21303E+05         0.00000E+00
    0.21303E+05        -0.49474E+08         0.00000E+00
    0.00000E+00         0.00000E+00        -0.19764E+08
 
   -0.19782E+08         0.20233E+05         0.00000E+00
    0.20233E+05        -0.49477E+08         0.00000E+00
    0.00000E+00         0.00000E+00        -0.19766E+08
 
   -0.19785E+08         0.18961E+05         0.00000E+00
    0.18961E+05        -0.49481E+08         0.00000E+00
    0.00000E+00         0.00000E+00        -0.19768E+08
 
   -0.19786E+08         0.17403E+05         0.00000E+00
    0.17403E+05        -0.49484E+08         0.00000E+00
    0.00000E+00         0.00000E+00        -0.19771E+08
 
   -0.19787E+08         0.15525E+05         0.00000E+00
    0.15525E+05        -0.49488E+08         0.00000E+00
    0.00000E+00         0.00000E+00        -0.19774E+08
 
   -0.19787E+08         0.13425E+05         0.00000E+00
    0.13425E+05        -0.49491E+08         0.00000E+00
    0.00000E+00         0.00000E+00        -0.19779E+08
 
   -0.19786E+08         0.11258E+05         0.00000E+00
    0.11258E+05        -0.49494E+08         0.00000E+00
    0.00000E+00         0.00000E+00        -0.19783E+08
 
   -0.19723E+08         0.49483E+04         0.00000E+00
    0.49483E+04        -0.49465E+08         0.00000E+00
    0.00000E+00         0.00000E+00        -0.19808E+08
 
   -0.19733E+08         0.12266E+05         0.00000E+00
    0.12266E+05        -0.49465E+08         0.00000E+00
    0.00000E+00         0.00000E+00        -0.19798E+08
 
   -0.19744E+08         0.16734E+05         0.00000E+00
    0.16734E+05        -0.49466E+08         0.00000E+00
    0.00000E+00         0.00000E+00        -0.19789E+08
 
   -0.19754E+08         0.18830E+05         0.00000E+00
    0.18830E+05        -0.49469E+08         0.00000E+00
    0.00000E+00         0.00000E+00        -0.19782E+08
 
   -0.19763E+08         0.19438E+05         0.00000E+00
    0.19438E+05        -0.49472E+08         0.00000E+00
    0.00000E+00         0.00000E+00        -0.19778E+08
 
   -0.19772E+08         0.19274E+05         0.00000E+00
    0.19274E+05        -0.49476E+08         0.00000E+00
    0.00000E+00         0.00000E+00        -0.19775E+08
 
   -0.19778E+08         0.18726E+05         0.00000E+00
    0.18726E+05        -0.49481E+08         0.00000E+00
    0.00000E+00         0.00000E+00        -0.19774E+08
 
   -0.19784E+08         0.17981E+05         0.00000E+00
    0.17981E+05        -0.49485E+08         0.00000E+00
    0.00000E+00         0.00000E+00        -0.19774E+08
 
   -0.19789E+08         0.17130E+05         0.00000E+00
    0.17130E+05        -0.49490E+08         0.00000E+00
    0.00000E+00         0.00000E+00        -0.19775E+08
 
   -0.19792E+08         0.16206E+05         0.00000E+00
    0.16206E+05        -0.49494E+08         0.00000E+00
    0.00000E+00         0.00000E+00        -0.19777E+08
 
   -0.19795E+08         0.15176E+05         0.00000E+00
    0.15176E+05        -0.49498E+08         0.00000E+00
    0.00000E+00         0.00000E+00        -0.19780E+08
 
   -0.19797E+08         0.13933E+05         0.00000E+00
    0.13933E+05        -0.49502E+08         0.00000E+00
    0.00000E+00         0.00000E+00        -0.19783E+08
 
   -0.19798E+08         0.12316E+05         0.00000E+00
    0.12316E+05        -0.49505E+08         0.00000E+00
    0.00000E+00         0.00000E+00        -0.19786E+08
 
   -0.19798E+08         0.10289E+05         0.00000E+00
    0.10289E+05        -0.49509E+08         0.00000E+00
    0.00000E+00         0.00000E+00        -0.19790E+08
 
   -0.19798E+08         0.80373E+04         0.00000E+00
    0.80373E+04        -0.49512E+08         0.00000E+00
    0.00000E+00         0.00000E+00        -0.19795E+08
 
   -0.19724E+08         0.50074E+04         0.00000E+00
    0.50074E+04        -0.49475E+08         0.00000E+00
    0.00000E+00         0.00000E+00        -0.19820E+08
 
   -0.19737E+08         0.11296E+05         0.00000E+00
    0.11296E+05        -0.49475E+08         0.00000E+00
    0.00000E+00         0.00000E+00        -0.19808E+08
 
   -0.19751E+08         0.14104E+05         0.00000E+00
    0.14104E+05        -0.49478E+08         0.00000E+00
    0.00000E+00         0.00000E+00        -0.19798E+08
 
   -0.19763E+08         0.14928E+05         0.00000E+00
    0.14928E+05        -0.49482E+08         0.00000E+00
    0.00000E+00         0.00000E+00        -0.19792E+08
 
   -0.19773E+08         0.14901E+05         0.00000E+00
    0.14901E+05        -0.49487E+08         0.00000E+00
    0.00000E+00         0.00000E+00        -0.19788E+08
 
   -0.19782E+08         0.14493E+05         0.00000E+00
    0.14493E+05        -0.49492E+08         0.00000E+00
    0.00000E+00         0.00000E+00        -0.19786E+08
 
   -0.19789E+08         0.13911E+05         0.00000E+00
    0.13911E+05        -0.49497E+08         0.00000E+00
    0.00000E+00         0.00000E+00        -0.19786E+08
 
   -0.19794E+08         0.13249E+05         0.00000E+00
    0.13249E+05        -0.49502E+08         0.00000E+00
    0.00000E+00         0.00000E+00        -0.19786E+08
 
   -0.19799E+08         0.12549E+05         0.00000E+00
    0.12549E+05        -0.49507E+08         0.00000E+00
    0.00000E+00         0.00000E+00        -0.19788E+08
 
   -0.19803E+08         0.11818E+05         0.00000E+00
    0.11818E+05        -0.49512E+08         0.00000E+00
    0.00000E+00         0.00000E+00        -0.19790E+08
 
   -0.19806E+08         0.11035E+05         0.00000E+00
    0.11035E+05        -0.49516E+08         0.00000E+00
    0.00000E+00         0.00000E+00        -0.19793E+08
 
   -0.19808E+08         0.10138E+05         0.00000E+00
    0.10138E+05        -0.49520E+08         0.00000E+00
    0.00000E+00         0.00000E+00        -0.19796E+08
 
   -0.19809E+08         0.89560E+04         0.00000E+00
    0.89560E+04        -0.49524E+08         0.00000E+00
    0.00000E+00         0.00000E+00        -0.19799E+08
 
   -0.19810E+08         0.72274E+04         0.00000E+00
    0.72274E+04        -0.49527E+08         0.00000E+00
    0.00000E+00         0.00000E+00        -0.19803E+08
 
   -0.19810E+08         0.49904E+04         0.00000E+00
    0.49904E+04        -0.49530E+08         0.00000E+00
    0.00000E+00         0.00000E+00        -0.19807E+08
 
   -0.19726E+08         0.46578E+04         0.00000E+00
    0.46578E+04        -0.49485E+08         0.00000E+00
    0.00000E+00         0.00000E+00        -0.19832E+08
 
   -0.19744E+08         0.85194E+04         0.00000E+00
    0.85194E+04        -0.49488E+08         0.00000E+00
    0.00000E+00         0.00000E+00        -0.19818E+08
 
   -0.19760E+08         0.94781E+04         0.00000E+00
    0.94781E+04        -0.49493E+08         0.00000E+00
    0.00000E+00         0.00000E+00        -0.19808E+08
 
   -0.19773E+08         0.95941E+04         0.00000E+00
    0.95941E+04        -0.49498E+08         0.00000E+00
    0.00000E+00         0.00000E+00        -0.19803E+08
 
   -0.19783E+08         0.93822E+04         0.00000E+00
    0.93822E+04        -0.49504E+08         0.00000E+00
    0.00000E+00         0.00000E+00        -0.19800E+08
 
   -0.19792E+08         0.90186E+04         0.00000E+00
    0.90186E+04        -0.49510E+08         0.00000E+00
    0.00000E+00         0.00000E+00        -0.19799E+08
 
   -0.19799E+08         0.85870E+04         0.00000E+00
    0.85870E+04        -0.49516E+08         0.00000E+00
    0.00000E+00         0.00000E+00        -0.19799E+08
 
   -0.19805E+08         0.81362E+04         0.00000E+00
    0.81362E+04        -0.49521E+08         0.00000E+00
    0.00000E+00         0.00000E+00        -0.19800E+08
 
   -0.19810E+08         0.76825E+04         0.00000E+00
    0.76825E+04        -0.49526E+08         0.00000E+00
    0.00000E+00         0.00000E+00        -0.19802E+08
 
   -0.19813E+08         0.72082E+04         0.00000E+00
    0.72082E+04        -0.49531E+08         0.00000E+00
    0.00000E+00         0.00000E+00        -0.19805E+08
 
   -0.19816E+08         0.66962E+04         0.00000E+00
    0.66962E+04        -0.49535E+08         0.00000E+00
    0.00000E+00         0.00000E+00        -0.19808E+08
 
   -0.19819E+08         0.61187E+04         0.00000E+00
    0.61187E+04        -0.49540E+08         0.00000E+00
    0.00000E+00         0.00000E+00        -0.19811E+08
 
   -0.19820E+08         0.53977E+04         0.00000E+00
    0.53977E+04        -0.49543E+08         0.00000E+00
    0.00000E+00         0.00000E+00        -0.19814E+08
 
   -0.19822E+08         0.42691E+04         0.00000E+00
    0.42691E+04        -0.49546E+08         0.00000E+00
    0.00000E+00         0.00000E+00        -0.19817E+08
 
   -0.19822E+08         0.22613E+04         0.00000E+00
    0.22613E+04        -0.49549E+08         0.00000E+00
    0.00000E+00         0.00000E+00        -0.19820E+08
 
   -0.19731E+08         0.19960E+04         0.00000E+00
    0.19960E+04        -0.49499E+08         0.00000E+00
    0.00000E+00         0.00000E+00        -0.19845E+08
 
   -0.19753E+08         0.29817E+04         0.00000E+00
    0.29817E+04        -0.49504E+08         0.00000E+00
    0.00000E+00         0.00000E+00        -0.19830E+08
 
   -0.19770E+08         0.32978E+04         0.00000E+00
    0.32978E+04        -0.49510E+08         0.00000E+00
    0.00000E+00         0.00000E+00        -0.19821E+08
 
   -0.19783E+08         0.33099E+04         0.00000E+00
    0.33099E+04        -0.49517E+08         0.00000E+00
    0.00000E+00         0.00000E+00        -0.19817E+08
 
   -0.19794E+08         0.32091E+04         0.00000E+00
    0.32091E+04        -0.49523E+08         0.00000E+00
    0.00000E+00         0.00000E+00        -0.19814E+08
 
   -0.19803E+08         0.30686E+04         0.00000E+00
    0.30686E+04        -0.49529E+08         0.00000E+00
    0.00000E+00         0.00000E+00        -0.19814E+08
 
   -0.19810E+08         0.29084E+04         0.00000E+00
    0.29084E+04        -0.49535E+08         0.00000E+00
    0.00000E+00         0.00000E+00        -0.19814E+08
 
   -0.19815E+08         0.27491E+04         0.00000E+00
    0.27491E+04        -0.49541E+08         0.00000E+00
    0.00000E+00         0.00000E+00        -0.19816E+08
 
   -0.19820E+08         0.25945E+04         0.00000E+00
    0.25945E+04        -0.49546E+08         0.00000E+00
    0.00000E+00         0.00000E+00        -0.19818E+08
 
   -0.19824E+08         0.24303E+04         0.00000E+00
    0.24303E+04        -0.49551E+08         0.00000E+00
    0.00000E+00         0.00000E+00        -0.19821E+08
 
   -0.19827E+08         0.22491E+04         0.00000E+00
    0.22491E+04        -0.49556E+08         0.00000E+00
    0.00000E+00         0.00000E+00        -0.19824E+08
 
   -0.19829E+08         0.20382E+04         0.00000E+00
    0.20382E+04        -0.49560E+08         0.00000E+00
    0.00000E+00         0.00000E+00        -0.19828E+08
 
   -0.19831E+08         0.17805E+04         0.00000E+00
    0.17805E+04        -0.49564E+08         0.00000E+00
    0.00000E+00         0.00000E+00        -0.19831E+08
 
   -0.19833E+08         0.14040E+04         0.00000E+00
    0.14040E+04        -0.49567E+08         0.00000E+00
    0.00000E+00         0.00000E+00        -0.19833E+08
 
   -0.19833E+08         0.50928E+03         0.00000E+00
    0.50928E+03        -0.49568E+08         0.00000E+00
    0.00000E+00         0.00000E+00        -0.19834E+08
 
TENSORS stresstot double 
   -0.30381E+08         0.67674E+02         0.00000E+00
    0.67674E+02        -0.60000E+08         0.00000E+00
    0.00000E+00         0.00000E+00        -0.30309E+08
 
   -0.30373E+08         0.19754E+03         0.00000E+00
    0.19754E+03        -0.60000E+08         0.00000E+00
    0.00000E+00         0.00000E+00        -0.30317E+08
 
   -0.30366E+08         0.32067E+03         0.00000E+00
    0.32067E+03        -0.59999E+08         0.00000E+00
    0.00000E+00         0.00000E+00        -0.30323E+08
 
   -0.30360E+08         0.43739E+03         0.00000E+00
    0.43739E+03        -0.59998E+08         0.00000E+00
    0.00000E+00         0.00000E+00        -0.30328E+08
 
   -0.30354E+08         0.54794E+03         0.00000E+00
    0.54794E+03        -0.59997E+08         0.00000E+00
    0.00000E+00         0.00000E+00        -0.30333E+08
 
   -0.30348E+08         0.65258E+03         0.00000E+00
    0.65258E+03        -0.59996E+08         0.00000E+00
    0.00000E+00         0.00000E+00        -0.30337E+08
 
   -0.30344E+08         0.75152E+03         0.00000E+00
    0.75152E+03        -0.59995E+08         0.00000E+00
    0.00000E+00         0.00000E+00        -0.30339E+08
 
   -0.30340E+08         0.84504E+03         0.00000E+00
    0.84504E+03        -0.59993E+08         0.00000E+00
    0.00000E+00         0.00000E+00        -0.30341E+08
 
   -0.30336E+08         0.93343E+03         0.00000E+00
    0.93343E+03        -0.59991E+08         0.00000E+00
    0.00000E+00         0.00000E+00        -0.30342E+08
 
   -0.30333E+08         0.10171E+04         0.00000E+00
    0.10171E+04        -0.59989E+08         0.00000E+00
    0.00000E+00         0.00000E+00        -0.30343E+08
 
   -0.30331E+08         0.10964E+04         0.00000E+00
    0.10964E+04        -0.59987E+08         0.00000E+00
    0.00000E+00         0.00000E+00        -0.30342E+08
 
   -0.30330E+08         0.11721E+04         0.00000E+00
    0.11721E+04        -0.59985E+08         0.00000E+00
    0.00000E+00         0.00000E+00        -0.30341E+08
 
   -0.30329E+08         0.12449E+04         0.00000E+00
    0.12449E+04        -0.59983E+08         0.00000E+00
    0.00000E+00         0.00000E+00        -0.30338E+08
 
   -0.30328E+08         0.13156E+04         0.00000E+00
    0.13156E+04        -0.59980E+08         0.00000E+00
    0.00000E+00         0.00000E+00        -0.30335E+08
 
   -0.30329E+08         0.13853E+04         0.00000E+00
    0.13853E+04        -0.59977E+08         0.00000E+00
    0.00000E+00         0.00000E+00        -0.30331E+08
 
   -0.30380E+08         0.20407E+03         0.00000E+00
    0.20407E+03        -0.60000E+08         0.00000E+00
    0.00000E+00         0.00000E+00        -0.30309E+08
 
   -0.30373E+08         0.59532E+03         0.00000E+00
    0.59532E+03        -0.60000E+08         0.00000E+00
    0.00000E+00         0.00000E+00        -0.30317E+08
 
   -0.30366E+08         0.96589E+03         0.00000E+00
    0.96589E+03        -0.59999E+08         0.00000E+00
    0.00000E+00         0.00000E+00        -0.30323E+08
 
   -0.30359E+08         0.13167E+04         0.00000E+00
    0.13167E+04        -0.59998E+08         0.00000E+00
    0.00000E+00         0.00000E+00        -0.30328E+08
 
   -0.30353E+08         0.16485E+04         0.00000E+00
    0.16485E+04        -0.59997E+08         0.00000E+00
    0.00000E+00         0.00000E+00        -0.30333E+08
 
   -0.30348E+08         0.19622E+04         0.00000E+00
    0.19622E+04        -0.59996E+08         0.00000E+00
    0.00000E+00         0.00000E+00        -0.30336E+08
 
   -0.30344E+08         0.22584E+04         0.00000E+00
    0.22584E+04        -0.59995E+08         0.00000E+00
    0.00000E+00         0.00000E+00        -0.30339E+08
 
   -0.30339E+08         0.25381E+04         0.00000E+00
    0.25381E+04        -0.59993E+08         0.00000E+00
    0.00000E+00         0.00000E+00        -0.30341E+08
 
   -0.30336E+08         0.28021E+04         0.00000E+00
    0.28021E+04        -0.59991E+08         0.00000E+00
    0.00000E+00         0.00000E+00        -0.30342E+08
 
   -0.30333E+08         0.30516E+04         0.00000E+00
    0.30516E+04        -0.59989E+08         0.00000E+00
    0.00000E+00         0.00000E+00        -0.30342E+08
 
   -0.30331E+08         0.32882E+04         0.00000E+00
    0.32882E+04        -0.59987E+08         0.00000E+00
    0.00000E+00         0.00000E+00        -0.30342E+08
 
   -0.30330E+08         0.35136E+04         0.00000E+00
    0.35136E+04        -0.59985E+08         0.00000E+00
    0.00000E+00         0.00000E+00        -0.30340E+08
 
   -0.30329E+08         0.37302E+04         0.00000E+00
    0.37302E+04        -0.59983E+08         0.00000E+00
    0.00000E+00         0.00000E+00        -0.30338E+08
 
   -0.30328E+08         0.39406E+04         0.00000E+00
    0.39406E+04        -0.59980E+08         0.00000E+00
    0.00000E+00         0.00000E+00        -0.30335E+08
 
   -0.30329E+08         0.41481E+04         0.00000E+00
    0.41481E+04        -0.59977E+08         0.00000E+00
    0.00000E+00         0.00000E+00        -0.30331E+08
 
   -0.30380E+08         0.34357E+03         0.00000E+00
    0.34357E+03        -0.60000E+08         0.00000E+00
    0.00000E+00         0.00000E+00        -0.30309E+08
 
   -0.30372E+08         0.10012E+04         0.00000E+00
    0.10012E+04        -0.60000E+08         0.00000E+00
    0.00000E+00         0.00000E+00        -0.30316E+08
 
   -0.30365E+08         0.16226E+04         0.00000E+00
    0.16226E+04        -0.59999E+08         0.00000E+00
    0.00000E+00         0.00000E+00        -0.30323E+08
 
   -0.30359E+08         0.22094E+04         0.00000E+00
    0.22094E+04        -0.59998E+08         0.00000E+00
    0.00000E+00         0.00000E+00        -0.30328E+08
 
   -0.30353E+08         0.27631E+04         0.00000E+00
    0.27631E+04        -0.59997E+08         0.00000E+00
    0.00000E+00         0.00000E+00        -0.30333E+08
 
   -0.30348E+08         0.32851E+04         0.00000E+00
    0.32851E+04        -0.59996E+08         0.00000E+00
    0.00000E+00         0.00000E+00        -0.30336E+08
 
   -0.30343E+08         0.37768E+04         0.00000E+00
    0.37768E+04        -0.59995E+08         0.00000E+00
    0.00000E+00         0.00000E+00        -0.30339E+08
 
   -0.30339E+08         0.42397E+04         0.00000E+00
    0.42397E+04        -0.59993E+08         0.00000E+00
    0.00000E+00         0.00000E+00        -0.30341E+08
 
   -0.30336E+08         0.46758E+04         0.00000E+00
    0.46758E+04        -0.59991E+08         0.00000E+00
    0.00000E+00         0.00000E+00        -0.30342E+08
 
   -0.30333E+08         0.50871E+04         0.00000E+00
    0.50871E+04        -0.59989E+08         0.00000E+00
    0.00000E+00         0.00000E+00        -0.30342E+08
 
   -0.30331E+08         0.54763E+04         0.00000E+00
    0.54763E+04        -0.59987E+08         0.00000E+00
    0.00000E+00         0.00000E+00        -0.30341E+08
 
   -0.30329E+08         0.58467E+04         0.00000E+00
    0.58467E+04        -0.59985E+08         0.00000E+00
    0.00000E+00         0.00000E+00        -0.30340E+08
 
   -0.30328E+08         0.62021E+04         0.00000E+00
    0.62021E+04        -0.59982E+08         0.00000E+00
    0.00000E+00         0.00000E+00        -0.30338E+08
 
   -0.30328E+08         0.65471E+04         0.00000E+00
    0.65471E+04        -0.59980E+08         0.00000E+00
    0.00000E+00         0.00000E+00        -0.30335E+08
 
   -0.30328E+08         0.68875E+04         0.00000E+00
    0.68875E+04        -0.59977E+08         0.00000E+00
    0.00000E+00         0.00000E+00        -0.30331E+08
 
   -0.30379E+08         0.48818E+03         0.00000E+00
    0.48818E+03        -0.60000E+08         0.00000E+00
    0.00000E+00         0.00000E+00        -0.30309E+08
 
   -0.30372E+08         0.14204E+04         0.00000E+00
    0.14204E+04        -0.60000E+08         0.00000E+00
    0.00000E+00         0.00000E+00        -0.30316E+08
 
   -0.30365E+08         0.22982E+04         0.00000E+00
    0.22982E+04        -0.59999E+08         0.00000E+00
    0.00000E+00         0.00000E+00        -0.30323E+08
 
   -0.30358E+08         0.31242E+04         0.00000E+00
    0.31242E+04        -0.59998E+08         0.00000E+00
    0.00000E+00         0.00000E+00        -0.30328E+08
 
   -0.30352E+08         0.39005E+04         0.00000E+00
    0.39005E+04        -0.59997E+08         0.00000E+00
    0.00000E+00         0.00000E+00        -0.30332E+08
 
   -0.30347E+08         0.46295E+04         0.00000E+00
    0.46295E+04        -0.59996E+08         0.00000E+00
    0.00000E+00         0.00000E+00        -0.30336E+08
 
   -0.30343E+08         0.53135E+04         0.00000E+00
    0.53135E+04        -0.59994E+08         0.00000E+00
    0.00000E+00         0.00000E+00        -0.30339E+08
 
   -0.30339E+08         0.59551E+04         0.00000E+00
    0.59551E+04        -0.59993E+08         0.00000E+00
    0.00000E+00         0.00000E+00        -0.30340E+08
 
   -0.30335E+08         0.65573E+04         0.00000E+00
    0.65573E+04        -0.59991E+08         0.00000E+00
    0.00000E+00         0.00000E+00        -0.30341E+08
 
   -0.30332E+08         0.71235E+04         0.00000E+00
    0.71235E+04        -0.59989E+08         0.00000E+00
    0.00000E+00         0.00000E+00        -0.30342E+08
 
   -0.30330E+08         0.76578E+04         0.00000E+00
    0.76578E+04        -0.59987E+08         0.00000E+00
    0.00000E+00         0.00000E+00        -0.30341E+08
 
   -0.30329E+08         0.81650E+04         0.00000E+00
    0.81650E+04        -0.59985E+08         0.00000E+00
    0.00000E+00         0.00000E+00        -0.30339E+08
 
   -0.30328E+08         0.86509E+04         0.00000E+00
    0.86509E+04        -0.59982E+08         0.00000E+00
    0.00000E+00         0.00000E+00        -0.30337E+08
 
   -0.30328E+08         0.91223E+04         0.00000E+00
    0.91223E+04        -0.59980E+08         0.00000E+00
    0.00000E+00         0.00000E+00        -0.30334E+08
 
   -0.30328E+08         0.95873E+04         0.00000E+00
    0.95873E+04        -0.59977E+08         0.00000E+00
    0.00000E+00         0.00000E+00        -0.30330E+08
 
   -0.30378E+08         0.63977E+03         0.00000E+00
    0.63977E+03        -0.60000E+08         0.00000E+00
    0.00000E+00         0.00000E+00        -0.30309E+08
 
   -0.30370E+08         0.18577E+04         0.00000E+00
    0.18577E+04        -0.60000E+08         0.00000E+00
    0.00000E+00         0.00000E+00        -0.30316E+08
 
   -0.30364E+08         0.29995E+04         0.00000E+00
    0.29995E+04        -0.59999E+08         0.00000E+00
    0.00000E+00         0.00000E+00        -0.30323E+08
 
   -0.30357E+08         0.40687E+04         0.00000E+00
    0.40687E+04        -0.59998E+08         0.00000E+00
    0.00000E+00         0.00000E+00        -0.30328E+08
 
   -0.30352E+08         0.50686E+04         0.00000E+00
    0.50686E+04        -0.59997E+08         0.00000E+00
    0.00000E+00         0.00000E+00        -0.30332E+08
 
   -0.30346E+08         0.60027E+04         0.00000E+00
    0.60027E+04        -0.59996E+08         0.00000E+00
    0.00000E+00         0.00000E+00        -0.30335E+08
 
   -0.30342E+08         0.68746E+04         0.00000E+00
    0.68746E+04        -0.59994E+08         0.00000E+00
    0.00000E+00         0.00000E+00        -0.30338E+08
 
   -0.30338E+08         0.76883E+04         0.00000E+00
    0.76883E+04        -0.59993E+08         0.00000E+00
    0.00000E+00         0.00000E+00        -0.30340E+08
 
   -0.30335E+08         0.84484E+04         0.00000E+00
    0.84484E+04        -0.59991E+08         0.00000E+00
    0.00000E+00         0.00000E+00        -0.30341E+08
 
   -0.30332E+08         0.91598E+04         0.00000E+00
    0.91598E+04        -0.59989E+08         0.00000E+00
    0.00000E+00         0.00000E+00        -0.30341E+08
 
   -0.30330E+08         0.98286E+04         0.00000E+00
    0.98286E+04        -0.59987E+08         0.00000E+00
    0.00000E+00         0.00000E+00        -0.30340E+08
 
   -0.30328E+08         0.10461E+05         0.00000E+00
    0.10461E+05        -0.59985E+08         0.00000E+00
    0.00000E+00         0.00000E+00        -0.30339E+08
 
   -0.30327E+08         0.11066E+05         0.00000E+00
    0.11066E+05        -0.59982E+08         0.00000E+00
    0.00000E+00         0.00000E+00        -0.30337E+08
 
   -0.30327E+08         0.11652E+05         0.00000E+00
    0.11652E+05        -0.59980E+08         0.00000E+00
    0.00000E+00         0.00000E+00        -0.30334E+08
 
   -0.30328E+08         0.12230E+05         0.00000E+00
    0.12230E+05        -0.59977E+08         0.00000E+00
    0.00000E+00         0.00000E+00        -0.30330E+08
 
   -0.30377E+08         0.80004E+03         0.00000E+00
    0.80004E+03        -0.60000E+08         0.00000E+00
    0.00000E+00         0.00000E+00        -0.30310E+08
 
   -0.30369E+08         0.23174E+04         0.00000E+00
    0.23174E+04        -0.60000E+08         0.00000E+00
    0.00000E+00         0.00000E+00        -0.30316E+08
 
   -0.30362E+08         0.37325E+04         0.00000E+00
    0.37325E+04        -0.59999E+08         0.00000E+00
    0.00000E+00         0.00000E+00        -0.30322E+08
 
   -0.30356E+08         0.50498E+04         0.00000E+00
    0.50498E+04        -0.59998E+08         0.00000E+00
    0.00000E+00         0.00000E+00        -0.30327E+08
 
   -0.30350E+08         0.62742E+04         0.00000E+00
    0.62742E+04        -0.59997E+08         0.00000E+00
    0.00000E+00         0.00000E+00        -0.30332E+08
 
   -0.30345E+08         0.74107E+04         0.00000E+00
    0.74107E+04        -0.59996E+08         0.00000E+00
    0.00000E+00         0.00000E+00        -0.30335E+08
 
   -0.30341E+08         0.84647E+04         0.00000E+00
    0.84647E+04        -0.59994E+08         0.00000E+00
    0.00000E+00         0.00000E+00        -0.30337E+08
 
   -0.30337E+08         0.94420E+04         0.00000E+00
    0.94420E+04        -0.59992E+08         0.00000E+00
    0.00000E+00         0.00000E+00        -0.30339E+08
 
   -0.30334E+08         0.10349E+05         0.00000E+00
    0.10349E+05        -0.59991E+08         0.00000E+00
    0.00000E+00         0.00000E+00        -0.30340E+08
 
   -0.30331E+08         0.11194E+05         0.00000E+00
    0.11194E+05        -0.59989E+08         0.00000E+00
    0.00000E+00         0.00000E+00        -0.30340E+08
 
   -0.30329E+08         0.11983E+05         0.00000E+00
    0.11983E+05        -0.59987E+08         0.00000E+00
    0.00000E+00         0.00000E+00        -0.30339E+08
 
   -0.30328E+08         0.12727E+05         0.00000E+00
    0.12727E+05        -0.59984E+08         0.00000E+00
    0.00000E+00         0.00000E+00        -0.30338E+08
 
   -0.30327E+08         0.13436E+05         0.00000E+00
    0.13436E+05        -0.59982E+08         0.00000E+00
    0.00000E+00         0.00000E+00        -0.30336E+08
 
   -0.30327E+08         0.14122E+05         0.00000E+00
    0.14122E+05        -0.59980E+08         0.00000E+00
    0.00000E+00         0.00000E+00        -0.30333E+08
 
   -0.30327E+08         0.14799E+05         0.00000E+00
    0.14799E+05        -0.59977E+08         0.00000E+00
    0.00000E+00         0.00000E+00        -0.30329E+08
 
   -0.30375E+08         0.97041E+03         0.00000E+00
    0.97041E+03        -0.60000E+08         0.00000E+00
    0.00000E+00         0.00000E+00        -0.30310E+08
 
   -0.30368E+08         0.28033E+04         0.00000E+00
    0.28033E+04        -0.60000E+08         0.00000E+00
    0.00000E+00         0.00000E+00        -0.30316E+08
 
   -0.30361E+08         0.45021E+04         0.00000E+00
    0.45021E+04        -0.59999E+08         0.00000E+00
    0.00000E+00         0.00000E+00        -0.30322E+08
 
   -0.30355E+08         0.60730E+04         0.00000E+00
    0.60730E+04        -0.59998E+08         0.00000E+00
    0.00000E+00         0.00000E+00        -0.30327E+08
 
   -0.30349E+08         0.75226E+04         0.00000E+00
    0.75226E+04        -0.59997E+08         0.00000E+00
    0.00000E+00         0.00000E+00        -0.30331E+08
 
   -0.30344E+08         0.88580E+04         0.00000E+00
    0.88580E+04        -0.59995E+08         0.00000E+00
    0.00000E+00         0.00000E+00        -0.30334E+08
 
   -0.30340E+08         0.10087E+05         0.00000E+00
    0.10087E+05        -0.59994E+08         0.00000E+00
    0.00000E+00         0.00000E+00        -0.30337E+08
 
   -0.30336E+08         0.11217E+05         0.00000E+00
    0.11217E+05        -0.59992E+08         0.00000E+00
    0.00000E+00         0.00000E+00        -0.30338E+08
 
   -0.30333E+08         0.12259E+05         0.00000E+00
    0.12259E+05        -0.59990E+08         0.00000E+00
    0.00000E+00         0.00000E+00        -0.30339E+08
 
   -0.30330E+08         0.13221E+05         0.00000E+00
    0.13221E+05        -0.59988E+08         0.00000E+00
    0.00000E+00         0.00000E+00        -0.30339E+08
 
   -0.30328E+08         0.14115E+05         0.00000E+00
    0.14115E+05        -0.59986E+08         0.00000E+00
    0.00000E+00         0.00000E+00        -0.30338E+08
 
   -0.30327E+08         0.14953E+05         0.00000E+00
    0.14953E+05        -0.59984E+08         0.00000E+00
    0.00000E+00         0.00000E+00        -0.30337E+08
 
   -0.30326E+08         0.15748E+05         0.00000E+00
    0.15748E+05        -0.59982E+08         0.00000E+00
    0.00000E+00         0.00000E+00        -0.30335E+08
 
   -0.30326E+08         0.16515E+05         0.00000E+00
    0.16515E+05        -0.59980E+08         0.00000E+00
    0.00000E+00         0.00000E+00        -0.30332E+08
 
   -0.30326E+08         0.17272E+05         0.00000E+00
    0.17272E+05        -0.59977E+08         0.00000E+00
    0.00000E+00         0.00000E+00        -0.30328E+08
 
   -0.30373E+08         0.11520E+04         0.00000E+00
    0.11520E+04        -0.60000E+08         0.00000E+00
    0.00000E+00         0.00000E+00        -0.30310E+08
 
   -0.30366E+08         0.33180E+04         0.00000E+00
    0.33180E+04        -0.59999E+08         0.00000E+00
    0.00000E+00         0.00000E+00        -0.30317E+08
 
   -0.30359E+08         0.53120E+04         0.00000E+00
    0.53120E+04        -0.59999E+08         0.00000E+00
    0.00000E+00         0.00000E+00        -0.30322E+08
 
   -0.30353E+08         0.71422E+04         0.00000E+00
    0.71422E+04        -0.59998E+08         0.00000E+00
    0.00000E+00         0.00000E+00        -0.30327E+08
 
   -0.30348E+08         0.88172E+04         0.00000E+00
    0.88172E+04        -0.59997E+08         0.00000E+00
    0.00000E+00         0.00000E+00        -0.30331E+08
 
   -0.30343E+08         0.10347E+05         0.00000E+00
    0.10347E+05        -0.59995E+08         0.00000E+00
    0.00000E+00         0.00000E+00        -0.30334E+08
 
   -0.30339E+08         0.11742E+05         0.00000E+00
    0.11742E+05        -0.59994E+08         0.00000E+00
    0.00000E+00         0.00000E+00        -0.30336E+08
 
   -0.30335E+08         0.13013E+05         0.00000E+00
    0.13013E+05        -0.59992E+08         0.00000E+00
    0.00000E+00         0.00000E+00        -0.30337E+08
 
   -0.30332E+08         0.14174E+05         0.00000E+00
    0.14174E+05        -0.59990E+08         0.00000E+00
    0.00000E+00         0.00000E+00        -0.30338E+08
 
   -0.30329E+08         0.15236E+05         0.00000E+00
    0.15236E+05        -0.59988E+08         0.00000E+00
    0.00000E+00         0.00000E+00        -0.30338E+08
 
   -0.30327E+08         0.16215E+05         0.00000E+00
    0.16215E+05        -0.59986E+08         0.00000E+00
    0.00000E+00         0.00000E+00        -0.30337E+08
 
   -0.30326E+08         0.17126E+05         0.00000E+00
    0.17126E+05        -0.59984E+08         0.00000E+00
    0.00000E+00         0.00000E+00        -0.30336E+08
 
   -0.30325E+08         0.17986E+05         0.00000E+00
    0.17986E+05        -0.59982E+08         0.00000E+00
    0.00000E+00         0.00000E+00        -0.30334E+08
 
   -0.30325E+08         0.18812E+05         0.00000E+00
    0.18812E+05        -0.59980E+08         0.00000E+00
    0.00000E+00         0.00000E+00        -0.30331E+08
 
   -0.30325E+08         0.19628E+05         0.00000E+00
    0.19628E+05        -0.59977E+08         0.00000E+00
    0.00000E+00         0.00000E+00        -0.30327E+08
 
   -0.30370E+08         0.13453E+04         0.00000E+00
    0.13453E+04        -0.60000E+08         0.00000E+00
    0.00000E+00         0.00000E+00        -0.30310E+08
 
   -0.30363E+08         0.38629E+04         0.00000E+00
    0.38629E+04        -0.59999E+08         0.00000E+00
    0.00000E+00         0.00000E+00        -0.30317E+08
 
   -0.30357E+08         0.61640E+04         0.00000E+00
    0.61640E+04        -0.59999E+08         0.00000E+00
    0.00000E+00         0.00000E+00        -0.30322E+08
 
   -0.30351E+08         0.82589E+04         0.00000E+00
    0.82589E+04        -0.59998E+08         0.00000E+00
    0.00000E+00         0.00000E+00        -0.30326E+08
 
   -0.30346E+08         0.10159E+05         0.00000E+00
    0.10159E+05        -0.59996E+08         0.00000E+00
    0.00000E+00         0.00000E+00        -0.30330E+08
 
   -0.30341E+08         0.11877E+05         0.00000E+00
    0.11877E+05        -0.59995E+08         0.00000E+00
    0.00000E+00         0.00000E+00        -0.30333E+08
 
   -0.30337E+08         0.13428E+05         0.00000E+00
    0.13428E+05        -0.59993E+08         0.00000E+00
    0.00000E+00         0.00000E+00        -0.30335E+08
 
   -0.30334E+08         0.14826E+05         0.00000E+00
    0.14826E+05        -0.59992E+08         0.00000E+00
    0.00000E+00         0.00000E+00        -0.30336E+08
 
   -0.30331E+08         0.16088E+05         0.00000E+00
    0.16088E+05        -0.59990E+08         0.00000E+00
    0.00000E+00         0.00000E+00        -0.30337E+08
 
   -0.30328E+08         0.17231E+05         0.00000E+00
    0.17231E+05        -0.59988E+08         0.00000E+00
    0.00000E+00         0.00000E+00        -0.30336E+08
 
   -0.30326E+08         0.18273E+05         0.00000E+00
    0.18273E+05        -0.59986E+08         0.00000E+00
    0.00000E+00         0.00000E+00        -0.30336E+08
 
   -0.30325E+08         0.19233E+05         0.00000E+00
    0.19233E+05        -0.59984E+08         0.00000E+00
    0.00000E+00         0.00000E+00        -0.30334E+08
 
   -0.30324E+08         0.20132E+05         0.00000E+00
    0.20132E+05        -0.59982E+08         0.00000E+00
    0.00000E+00         0.00000E+00        -0.30332E+08
 
   -0.30324E+08         0.20993E+05         0.00000E+00
    0.20993E+05        -0.59980E+08         0.00000E+00
    0.00000E+00         0.00000E+00        -0.30330E+08
 
   -0.30325E+08         0.21843E+05         0.00000E+00
    0.21843E+05        -0.59977E+08         0.00000E+00
    0.00000E+00         0.00000E+00        -0.30327E+08
 
   -0.30367E+08         0.15504E+04         0.00000E+00
    0.15504E+04        -0.60000E+08         0.00000E+00
    0.00000E+00         0.00000E+00        -0.30311E+08
 
   -0.30361E+08         0.44381E+04         0.00000E+00
    0.44381E+04        -0.59999E+08         0.00000E+00
    0.00000E+00         0.00000E+00        -0.30317E+08
 
   -0.30355E+08         0.70578E+04         0.00000E+00
    0.70578E+04        -0.59999E+08         0.00000E+00
    0.00000E+00         0.00000E+00        -0.30322E+08
 
   -0.30349E+08         0.94223E+04         0.00000E+00
    0.94223E+04        -0.59998E+08         0.00000E+00
    0.00000E+00         0.00000E+00        -0.30326E+08
 
   -0.30344E+08         0.11546E+05         0.00000E+00
    0.11546E+05        -0.59996E+08         0.00000E+00
    0.00000E+00         0.00000E+00        -0.30329E+08
 
   -0.30340E+08         0.13447E+05         0.00000E+00
    0.13447E+05        -0.59995E+08         0.00000E+00
    0.00000E+00         0.00000E+00        -0.30332E+08
 
   -0.30336E+08         0.15142E+05         0.00000E+00
    0.15142E+05        -0.59993E+08         0.00000E+00
    0.00000E+00         0.00000E+00        -0.30334E+08
 
   -0.30332E+08         0.16651E+05         0.00000E+00
    0.16651E+05        -0.59991E+08         0.00000E+00
    0.00000E+00         0.00000E+00        -0.30335E+08
 
   -0.30329E+08         0.17995E+05         0.00000E+00
    0.17995E+05        -0.59990E+08         0.00000E+00
    0.00000E+00         0.00000E+00        -0.30335E+08
 
   -0.30327E+08         0.19195E+05         0.00000E+00
    0.19195E+05        -0.59988E+08         0.00000E+00
    0.00000E+00         0.00000E+00        -0.30335E+08
 
   -0.30325E+08         0.20274E+05         0.00000E+00
    0.20274E+05        -0.59986E+08         0.00000E+00
    0.00000E+00         0.00000E+00        -0.30334E+08
 
   -0.30324E+08         0.21256E+05         0.00000E+00
    0.21256E+05        -0.59984E+08         0.00000E+00
    0.00000E+00         0.00000E+00        -0.30333E+08
 
   -0.30323E+08         0.22167E+05         0.00000E+00
    0.22167E+05        -0.59982E+08         0.00000E+00
    0.00000E+00         0.00000E+00        -0.30331E+08
 
   -0.30323E+08         0.23034E+05         0.00000E+00
    0.23034E+05        -0.59980E+08         0.00000E+00
    0.00000E+00         0.00000E+00        -0.30328E+08
 
   -0.30324E+08         0.23890E+05         0.00000E+00
    0.23890E+05        -0.59978E+08         0.00000E+00
    0.00000E+00         0.00000E+00        -0.30326E+08
 
   -0.30364E+08         0.17666E+04         0.00000E+00
    0.17666E+04        -0.60000E+08         0.00000E+00
    0.00000E+00         0.00000E+00        -0.30311E+08
 
   -0.30358E+08         0.50416E+04         0.00000E+00
    0.50416E+04        -0.59999E+08         0.00000E+00
    0.00000E+00         0.00000E+00        -0.30317E+08
 
   -0.30352E+08         0.79905E+04         0.00000E+00
    0.79905E+04        -0.59999E+08         0.00000E+00
    0.00000E+00         0.00000E+00        -0.30322E+08
 
   -0.30347E+08         0.10629E+05         0.00000E+00
    0.10629E+05        -0.59998E+08         0.00000E+00
    0.00000E+00         0.00000E+00        -0.30326E+08
 
   -0.30342E+08         0.12975E+05         0.00000E+00
    0.12975E+05        -0.59996E+08         0.00000E+00
    0.00000E+00         0.00000E+00        -0.30329E+08
 
   -0.30338E+08         0.15050E+05         0.00000E+00
    0.15050E+05        -0.59995E+08         0.00000E+00
    0.00000E+00         0.00000E+00        -0.30331E+08
 
   -0.30334E+08         0.16876E+05         0.00000E+00
    0.16876E+05        -0.59993E+08         0.00000E+00
    0.00000E+00         0.00000E+00        -0.30333E+08
 
   -0.30331E+08         0.18479E+05         0.00000E+00
    0.18479E+05        -0.59991E+08         0.00000E+00
    0.00000E+00         0.00000E+00        -0.30333E+08
 
   -0.30328E+08         0.19883E+05         0.00000E+00
    0.19883E+05        -0.59989E+08         0.00000E+00
    0.00000E+00         0.00000E+00        -0.30334E+08
 
   -0.30326E+08         0.21115E+05         0.00000E+00
    0.21115E+05        -0.59987E+08         0.00000E+00
    0.00000E+00         0.00000E+00        -0.30333E+08
 
   -0.30324E+08         0.22203E+05         0.00000E+00
    0.22203E+05        -0.59986E+08         0.00000E+00
    0.00000E+00         0.00000E+00        -0.30333E+08
 
   -0.30323E+08         0.23176E+05         0.00000E+00
    0.23176E+05        -0.59984E+08         0.00000E+00
    0.00000E+00         0.00000E+00        -0.30331E+08
 
   -0.30323E+08         0.24066E+05         0.00000E+00
    0.24066E+05        -0.59982E+08         0.00000E+00
    0.00000E+00         0.00000E+00        -0.30329E+08
 
   -0.30322E+08         0.24907E+05         0.00000E+00
    0.24907E+05        -0.59980E+08         0.00000E+00
    0.00000E+00         0.00000E+00        -0.30327E+08
 
   -0.30323E+08         0.25738E+05         0.00000E+00
    0.25738E+05        -0.59978E+08         0.00000E+00
    0.00000E+00         0.00000E+00        -0.30324E+08
 
   -0.30361E+08         0.19922E+04         0.00000E+00
    0.19922E+04        -0.60000E+08         0.00000E+00
    0.00000E+00         0.00000E+00        -0.30312E+08
 
   -0.30355E+08         0.56694E+04         0.00000E+00
    0.56694E+04        -0.59999E+08         0.00000E+00
    0.00000E+00         0.00000E+00        -0.30318E+08
 
   -0.30349E+08         0.89563E+04         0.00000E+00
    0.89563E+04        -0.59999E+08         0.00000E+00
    0.00000E+00         0.00000E+00        -0.30322E+08
 
   -0.30344E+08         0.11871E+05         0.00000E+00
    0.11871E+05        -0.59997E+08         0.00000E+00
    0.00000E+00         0.00000E+00        -0.30325E+08
 
   -0.30340E+08         0.14437E+05         0.00000E+00
    0.14437E+05        -0.59996E+08         0.00000E+00
    0.00000E+00         0.00000E+00        -0.30328E+08
 
   -0.30336E+08         0.16678E+05         0.00000E+00
    0.16678E+05        -0.59995E+08         0.00000E+00
    0.00000E+00         0.00000E+00        -0.30330E+08
 
   -0.30332E+08         0.18622E+05         0.00000E+00
    0.18622E+05        -0.59993E+08         0.00000E+00
    0.00000E+00         0.00000E+00        -0.30331E+08
 
   -0.30329E+08         0.20299E+05         0.00000E+00
    0.20299E+05        -0.59991E+08         0.00000E+00
    0.00000E+00         0.00000E+00        -0.30332E+08
 
   -0.30327E+08         0.21739E+05         0.00000E+00
    0.21739E+05        -0.59989E+08         0.00000E+00
    0.00000E+00         0.00000E+00        -0.30332E+08
 
   -0.30325E+08         0.22975E+05         0.00000E+00
    0.22975E+05        -0.59987E+08         0.00000E+00
    0.00000E+00         0.00000E+00        -0.30332E+08
 
   -0.30323E+08         0.24040E+05         0.00000E+00
    0.24040E+05        -0.59986E+08         0.00000E+00
    0.00000E+00         0.00000E+00        -0.30331E+08
 
   -0.30322E+08         0.24970E+05         0.00000E+00
    0.24970E+05        -0.59984E+08         0.00000E+00
    0.00000E+00         0.00000E+00        -0.30329E+08
 
   -0.30322E+08         0.25803E+05         0.00000E+00
    0.25803E+05        -0.59982E+08         0.00000E+00
    0.00000E+00         0.00000E+00        -0.30328E+08
 
   -0.30322E+08         0.26582E+05         0.00000E+00
    0.26582E+05        -0.59981E+08         0.00000E+00
    0.00000E+00         0.00000E+00        -0.30326E+08
 
   -0.30322E+08         0.27353E+05         0.00000E+00
    0.27353E+05        -0.59979E+08         0.00000E+00
    0.00000E+00         0.00000E+00        -0.30323E+08
 
   -0.30356E+08         0.22247E+04         0.00000E+00
    0.22247E+04        -0.60000E+08         0.00000E+00
    0.00000E+00         0.00000E+00        -0.30313E+08
 
   -0.30351E+08         0.63151E+04         0.00000E+00
    0.63151E+04        -0.59999E+08         0.00000E+00
    0.00000E+00         0.00000E+00        -0.30318E+08
 
   -0.30346E+08         0.99465E+04         0.00000E+00
    0.99465E+04        -0.59999E+08         0.00000E+00
    0.00000E+00         0.00000E+00        -0.30322E+08
 
   -0.30341E+08         0.13140E+05         0.00000E+00
    0.13140E+05        -0.59997E+08         0.00000E+00
    0.00000E+00         0.00000E+00        -0.30325E+08
 
   -0.30337E+08         0.15921E+05         0.00000E+00
    0.15921E+05        -0.59996E+08         0.00000E+00
    0.00000E+00         0.00000E+00        -0.30327E+08
 
   -0.30334E+08         0.18319E+05         0.00000E+00
    0.18319E+05        -0.59994E+08         0.00000E+00
    0.00000E+00         0.00000E+00        -0.30329E+08
 
   -0.30330E+08         0.20365E+05         0.00000E+00
    0.20365E+05        -0.59993E+08         0.00000E+00
    0.00000E+00         0.00000E+00        -0.30330E+08
 
   -0.30328E+08         0.22095E+05         0.00000E+00
    0.22095E+05        -0.59991E+08         0.00000E+00
    0.00000E+00         0.00000E+00        -0.30330E+08
 
   -0.30325E+08         0.23545E+05         0.00000E+00
    0.23545E+05        -0.59989E+08         0.00000E+00
    0.00000E+00         0.00000E+00        -0.30330E+08
 
   -0.30324E+08         0.24753E+05         0.00000E+00
    0.24753E+05        -0.59987E+08         0.00000E+00
    0.00000E+00         0.00000E+00        -0.30330E+08
 
   -0.30322E+08         0.25760E+05         0.00000E+00
    0.25760E+05        -0.59986E+08         0.00000E+00
    0.00000E+00         0.00000E+00        -0.30329E+08
 
   -0.30321E+08         0.26608E+05         0.00000E+00
    0.26608E+05        -0.59984E+08         0.00000E+00
    0.00000E+00         0.00000E+00        -0.30328E+08
 
   -0.30321E+08         0.27346E+05         0.00000E+00
    0.27346E+05        -0.59983E+08         0.00000E+00
    0.00000E+00         0.00000E+00        -0.30326E+08
 
   -0.30321E+08         0.28025E+05         0.00000E+00
    0.28025E+05        -0.59981E+08         0.00000E+00
    0.00000E+00         0.00000E+00        -0.30324E+08
 
   -0.30321E+08         0.28698E+05         0.00000E+00
    0.28698E+05        -0.59980E+08         0.00000E+00
    0.00000E+00         0.00000E+00        -0.30322E+08
 
   -0.30352E+08         0.24608E+04         0.00000E+00
    0.24608E+04        -0.60000E+08         0.00000E+00
    0.00000E+00         0.00000E+00        -0.30314E+08
 
   -0.30347E+08         0.69700E+04         0.00000E+00
    0.69700E+04        -0.59999E+08         0.00000E+00
    0.00000E+00         0.00000E+00        -0.30319E+08
 
   -0.30342E+08         0.10949E+05         0.00000E+00
    0.10949E+05        -0.59999E+08         0.00000E+00
    0.00000E+00         0.00000E+00        -0.30322E+08
 
   -0.30338E+08         0.14421E+05         0.00000E+00
    0.14421E+05        -0.59997E+08         0.00000E+00
    0.00000E+00         0.00000E+00        -0.30325E+08
 
   -0.30334E+08         0.17413E+05         0.00000E+00
    0.17413E+05        -0.59996E+08         0.00000E+00
    0.00000E+00         0.00000E+00        -0.30327E+08
 
   -0.30331E+08         0.19957E+05         0.00000E+00
    0.19957E+05        -0.59994E+08         0.00000E+00
    0.00000E+00         0.00000E+00        -0.30328E+08
 
   -0.30328E+08         0.22090E+05         0.00000E+00
    0.22090E+05        -0.59993E+08         0.00000E+00
    0.00000E+00         0.00000E+00        -0.30329E+08
 
   -0.30326E+08         0.23850E+05         0.00000E+00
    0.23850E+05        -0.59991E+08         0.00000E+00
    0.00000E+00         0.00000E+00        -0.30329E+08
 
   -0.30324E+08         0.25280E+05         0.00000E+00
    0.25280E+05        -0.59989E+08         0.00000E+00
    0.00000E+00         0.00000E+00        -0.30328E+08
 
   -0.30323E+08         0.26425E+05         0.00000E+00
    0.26425E+05        -0.59988E+08         0.00000E+00
    0.00000E+00         0.00000E+00        -0.30328E+08
 
   -0.30321E+08         0.27334E+05         0.00000E+00
    0.27334E+05        -0.59986E+08         0.00000E+00
    0.00000E+00         0.00000E+00        -0.30327E+08
 
   -0.30321E+08         0.28060E+05         0.00000E+00
    0.28060E+05        -0.59985E+08         0.00000E+00
    0.00000E+00         0.00000E+00        -0.30326E+08
 
   -0.30320E+08         0.28661E+05         0.00000E+00
    0.28661E+05        -0.59983E+08         0.00000E+00
    0.00000E+00         0.00000E+00        -0.30325E+08
 
   -0.30320E+08         0.29198E+05         0.00000E+00
    0.29198E+05        -0.59982E+08         0.00000E+00
    0.00000E+00         0.00000E+00        -0.30323E+08
 
   -0.30321E+08         0.29734E+05         0.00000E+00
    0.29734E+05        -0.59981E+08         0.00000E+00
    0.00000E+00         0.00000E+00        -0.30322E+08
 
   -0.30347E+08         0.26963E+04         0.00000E+00
    0.26963E+04        -0.60000E+08         0.00000E+00
    0.00000E+00         0.00000E+00        -0.30316E+08
 
   -0.30342E+08         0.76236E+04         0.00000E+00
    0.76236E+04        -0.59999E+08         0.00000E+00
    0.00000E+00         0.00000E+00        -0.30320E+08
 
   -0.30338E+08         0.11949E+05         0.00000E+00
    0.11949E+05        -0.59999E+08         0.00000E+00
    0.00000E+00         0.00000E+00        -0.30323E+08
 
   -0.30335E+08         0.15697E+05         0.00000E+00
    0.15697E+05        -0.59997E+08         0.00000E+00
    0.00000E+00         0.00000E+00        -0.30325E+08
 
   -0.30332E+08         0.18894E+05         0.00000E+00
    0.18894E+05        -0.59996E+08         0.00000E+00
    0.00000E+00         0.00000E+00        -0.30326E+08
 
   -0.30329E+08         0.21574E+05         0.00000E+00
    0.21574E+05        -0.59995E+08         0.00000E+00
    0.00000E+00         0.00000E+00        -0.30327E+08
 
   -0.30326E+08         0.23775E+05         0.00000E+00
    0.23775E+05        -0.59993E+08         0.00000E+00
    0.00000E+00         0.00000E+00        -0.30327E+08
 
   -0.30324E+08         0.25539E+05         0.00000E+00
    0.25539E+05        -0.59991E+08         0.00000E+00
    0.00000E+00         0.00000E+00        -0.30327E+08
 
   -0.30323E+08         0.26916E+05         0.00000E+00
    0.26916E+05        -0.59990E+08         0.00000E+00
    0.00000E+00         0.00000E+00        -0.30327E+08
 
   -0.30322E+08         0.27959E+05         0.00000E+00
    0.27959E+05        -0.59988E+08         0.00000E+00
    0.00000E+00         0.00000E+00        -0.30326E+08
 
   -0.30321E+08         0.28727E+05         0.00000E+00
    0.28727E+05        -0.59987E+08         0.00000E+00
    0.00000E+00         0.00000E+00        -0.30325E+08
 
   -0.30320E+08         0.29286E+05         0.00000E+00
    0.29286E+05        -0.59986E+08         0.00000E+00
    0.00000E+00         0.00000E+00        -0.30324E+08
 
   -0.30320E+08         0.29707E+05         0.00000E+00
    0.29707E+05        -0.59985E+08         0.00000E+00
    0.00000E+00         0.00000E+00        -0.30323E+08
 
   -0.30320E+08         0.30061E+05         0.00000E+00
    0.30061E+05        -0.59984E+08         0.00000E+00
    0.00000E+00         0.00000E+00        -0.30322E+08
 
   -0.30320E+08         0.30421E+05         0.00000E+00
    0.30421E+05        -0.59983E+08         0.00000E+00
    0.00000E+00         0.00000E+00        -0.30321E+08
 
   -0.30341E+08         0.29268E+04         0.00000E+00
    0.29268E+04        -0.60000E+08         0.00000E+00
    0.00000E+00         0.00000E+00        -0.30317E+08
 
   -0.30338E+08         0.82641E+04         0.00000E+00
    0.82641E+04        -0.59999E+08         0.00000E+00
    0.00000E+00         0.00000E+00        -0.30321E+08
 
   -0.30334E+08         0.12931E+05         0.00000E+00
    0.12931E+05        -0.59999E+08         0.00000E+00
    0.00000E+00         0.00000E+00        -0.30323E+08
 
   -0.30331E+08         0.16948E+05         0.00000E+00
    0.16948E+05        -0.59997E+08         0.00000E+00
    0.00000E+00         0.00000E+00        -0.30325E+08
 
   -0.30329E+08         0.20343E+05         0.00000E+00
    0.20343E+05        -0.59996E+08         0.00000E+00
    0.00000E+00         0.00000E+00        -0.30325E+08
 
   -0.30326E+08         0.23145E+05         0.00000E+00
    0.23145E+05        -0.59995E+08         0.00000E+00
    0.00000E+00         0.00000E+00        -0.30326E+08
 
   -0.30324E+08         0.25393E+05         0.00000E+00
    0.25393E+05        -0.59993E+08         0.00000E+00
    0.00000E+00         0.00000E+00        -0.30326E+08
 
   -0.30323E+08         0.27132E+05         0.00000E+00
    0.27132E+05        -0.59992E+08         0.00000E+00
    0.00000E+00         0.00000E+00        -0.30325E+08
 
   -0.30322E+08         0.28419E+05         0.00000E+00
    0.28419E+05        -0.59990E+08         0.00000E+00
    0.00000E+00         0.00000E+00        -0.30324E+08
 
   -0.30321E+08         0.29316E+05         0.00000E+00
    0.29316E+05        -0.59989E+08         0.00000E+00
    0.00000E+00         0.00000E+00        -0.30324E+08
 
   -0.30320E+08         0.29898E+05         0.00000E+00
    0.29898E+05        -0.59988E+08         0.00000E+00
    0.00000E+00         0.00000E+00        -0.30323E+08
 
   -0.30320E+08         0.30245E+05         0.00000E+00
    0.30245E+05        -0.59987E+08         0.00000E+00
    0.00000E+00         0.00000E+00        -0.30322E+08
 
   -0.30320E+08         0.30441E+05         0.00000E+00
    0.30441E+05        -0.59986E+08         0.00000E+00
    0.00000E+00         0.00000E+00        -0.30321E+08
 
   -0.30320E+08         0.30572E+05         0.00000E+00
    0.30572E+05        -0.59986E+08         0.00000E+00
    0.00000E+00         0.00000E+00        -0.30321E+08
 
   -0.30320E+08         0.30719E+05         0.00000E+00
    0.30719E+05        -0.59985E+08         0.00000E+00
    0.00000E+00         0.00000E+00        -0.30320E+08
 
   -0.30336E+08         0.31486E+04         0.00000E+00
    0.31486E+04        -0.60000E+08         0.00000E+00
    0.00000E+00         0.00000E+00        -0.30319E+08
 
   -0.30332E+08         0.88802E+04         0.00000E+00
    0.88802E+04        -0.59999E+08         0.00000E+00
    0.00000E+00         0.00000E+00        -0.30322E+08
 
   -0.30330E+08         0.13875E+05         0.00000E+00
    0.13875E+05        -0.59999E+08         0.00000E+00
    0.00000E+00         0.00000E+00        -0.30324E+08
 
   -0.30327E+08         0.18152E+05         0.00000E+00
    0.18152E+05        -0.59998E+08         0.00000E+00
    0.00000E+00         0.00000E+00        -0.30325E+08
 
   -0.30325E+08         0.21731E+05         0.00000E+00
    0.21731E+05        -0.59996E+08         0.00000E+00
    0.00000E+00         0.00000E+00        -0.30325E+08
 
   -0.30324E+08         0.24639E+05         0.00000E+00
    0.24639E+05        -0.59995E+08         0.00000E+00
    0.00000E+00         0.00000E+00        -0.30325E+08
 
   -0.30322E+08         0.26909E+05         0.00000E+00
    0.26909E+05        -0.59993E+08         0.00000E+00
    0.00000E+00         0.00000E+00        -0.30324E+08
 
   -0.30321E+08         0.28590E+05         0.00000E+00
    0.28590E+05        -0.59992E+08         0.00000E+00
    0.00000E+00         0.00000E+00        -0.30323E+08
 
   -0.30321E+08         0.29745E+05         0.00000E+00
    0.29745E+05        -0.59991E+08         0.00000E+00
    0.00000E+00         0.00000E+00        -0.30322E+08
 
   -0.30320E+08         0.30450E+05         0.00000E+00
    0.30450E+05        -0.59990E+08         0.00000E+00
    0.00000E+00         0.00000E+00        -0.30321E+08
 
   -0.30320E+08         0.30798E+05         0.00000E+00
    0.30798E+05        -0.59989E+08         0.00000E+00
    0.00000E+00         0.00000E+00        -0.30321E+08
 
   -0.30320E+08         0.30887E+05         0.00000E+00
    0.30887E+05        -0.59988E+08         0.00000E+00
    0.00000E+00         0.00000E+00        -0.30320E+08
 
   -0.30320E+08         0.30819E+05         0.00000E+00
    0.30819E+05        -0.59988E+08         0.00000E+00
    0.00000E+00         0.00000E+00        -0.30320E+08
 
   -0.30320E+08         0.30693E+05         0.00000E+00
    0.30693E+05        -0.59988E+08         0.00000E+00
    0.00000E+00         0.00000E+00        -0.30320E+08
 
   -0.30320E+08         0.30596E+05         0.00000E+00
    0.30596E+05        -0.59988E+08         0.00000E+00
    0.00000E+00         0.00000E+00        -0.30320E+08
 
   -0.30329E+08         0.33591E+04         0.00000E+00
    0.33591E+04        -0.60000E+08         0.00000E+00
    0.00000E+00         0.00000E+00        -0.30321E+08
 
   -0.30327E+08         0.94623E+04         0.00000E+00
    0.94623E+04        -0.59999E+08         0.00000E+00
    0.00000E+00         0.00000E+00        -0.30323E+08
 
   -0.30325E+08         0.14766E+05         0.00000E+00
    0.14766E+05        -0.59999E+08         0.00000E+00
    0.00000E+00         0.00000E+00        -0.30324E+08
 
   -0.30323E+08         0.19284E+05         0.00000E+00
    0.19284E+05        -0.59998E+08         0.00000E+00
    0.00000E+00         0.00000E+00        -0.30324E+08
 
   -0.30322E+08         0.23029E+05         0.00000E+00
    0.23029E+05        -0.59997E+08         0.00000E+00
    0.00000E+00         0.00000E+00        -0.30324E+08
 
   -0.30321E+08         0.26017E+05         0.00000E+00
    0.26017E+05        -0.59995E+08         0.00000E+00
    0.00000E+00         0.00000E+00        -0.30323E+08
 
   -0.30321E+08         0.28278E+05         0.00000E+00
    0.28278E+05        -0.59994E+08         0.00000E+00
    0.00000E+00         0.00000E+00        -0.30322E+08
 
   -0.30320E+08         0.29861E+05         0.00000E+00
    0.29861E+05        -0.59993E+08         0.00000E+00
    0.00000E+00         0.00000E+00        -0.30321E+08
 
   -0.30320E+08         0.30838E+05         0.00000E+00
    0.30838E+05        -0.59992E+08         0.00000E+00
    0.00000E+00         0.00000E+00        -0.30320E+08
 
   -0.30320E+08         0.31304E+05         0.00000E+00
    0.31304E+05        -0.59991E+08         0.00000E+00
    0.00000E+00         0.00000E+00        -0.30319E+08
 
   -0.30320E+08         0.31371E+05         0.00000E+00
    0.31371E+05        -0.59990E+08         0.00000E+00
    0.00000E+00         0.00000E+00        -0.30318E+08
 
   -0.30320E+08         0.31162E+05         0.00000E+00
    0.31162E+05        -0.59990E+08         0.00000E+00
    0.00000E+00         0.00000E+00        -0.30318E+08
 
   -0.30320E+08         0.30799E+05         0.00000E+00
    0.30799E+05        -0.59990E+08         0.00000E+00
    0.00000E+00         0.00000E+00        -0.30318E+08
 
   -0.30320E+08         0.30389E+05         0.00000E+00
    0.30389E+05        -0.59991E+08         0.00000E+00
    0.00000E+00         0.00000E+00        -0.30319E+08
 
   -0.30320E+08         0.30024E+05         0.00000E+00
    0.30024E+05        -0.59991E+08         0.00000E+00
    0.00000E+00         0.00000E+00        -0.30319E+08
 
   -0.30322E+08         0.35577E+04         0.00000E+00
    0.35577E+04        -0.60000E+08         0.00000E+00
    0.00000E+00         0.00000E+00        -0.30323E+08
 
   -0.30321E+08         0.10004E+05         0.00000E+00
    0.10004E+05        -0.59999E+08         0.00000E+00
    0.00000E+00         0.00000E+00        -0.30324E+08
 
   -0.30320E+08         0.15589E+05         0.00000E+00
    0.15589E+05        -0.59999E+08         0.00000E+00
    0.00000E+00         0.00000E+00        -0.30325E+08
 
   -0.30319E+08         0.20319E+05         0.00000E+00
    0.20319E+05        -0.59998E+08         0.00000E+00
    0.00000E+00         0.00000E+00        -0.30324E+08
 
   -0.30319E+08         0.24196E+05         0.00000E+00
    0.24196E+05        -0.59997E+08         0.00000E+00
    0.00000E+00         0.00000E+00        -0.30323E+08
 
   -0.30319E+08         0.27229E+05         0.00000E+00
    0.27229E+05        -0.59996E+08         0.00000E+00
    0.00000E+00         0.00000E+00        -0.30322E+08
 
   -0.30319E+08         0.29440E+05         0.00000E+00
    0.29440E+05        -0.59995E+08         0.00000E+00
    0.00000E+00         0.00000E+00        -0.30321E+08
 
   -0.30319E+08         0.30879E+05         0.00000E+00
    0.30879E+05        -0.59994E+08         0.00000E+00
    0.00000E+00         0.00000E+00        -0.30319E+08
 
   -0.30319E+08         0.31630E+05         0.00000E+00
    0.31630E+05        -0.59993E+08         0.00000E+00
    0.00000E+00         0.00000E+00        -0.30318E+08
 
   -0.30320E+08         0.31810E+05         0.00000E+00
    0.31810E+05        -0.59993E+08         0.00000E+00
    0.00000E+00         0.00000E+00        -0.30317E+08
 
   -0.30320E+08         0.31559E+05         0.00000E+00
    0.31559E+05        -0.59992E+08         0.00000E+00
    0.00000E+00         0.00000E+00        -0.30316E+08
 
   -0.30320E+08         0.31025E+05         0.00000E+00
    0.31025E+05        -0.59993E+08         0.00000E+00
    0.00000E+00         0.00000E+00        -0.30316E+08
 
   -0.30320E+08         0.30345E+05         0.00000E+00
    0.30345E+05        -0.59993E+08         0.00000E+00
    0.00000E+00         0.00000E+00        -0.30317E+08
 
   -0.30320E+08         0.29638E+05         0.00000E+00
    0.29638E+05        -0.59994E+08         0.00000E+00
    0.00000E+00         0.00000E+00        -0.30318E+08
 
   -0.30320E+08         0.28993E+05         0.00000E+00
    0.28993E+05        -0.59995E+08         0.00000E+00
    0.00000E+00         0.00000E+00        -0.30320E+08
 
   -0.30315E+08         0.37458E+04         0.00000E+00
    0.37458E+04        -0.60000E+08         0.00000E+00
    0.00000E+00         0.00000E+00        -0.30326E+08
 
   -0.30315E+08         0.10505E+05         0.00000E+00
    0.10505E+05        -0.59999E+08         0.00000E+00
    0.00000E+00         0.00000E+00        -0.30326E+08
 
   -0.30315E+08         0.16333E+05         0.00000E+00
    0.16333E+05        -0.59999E+08         0.00000E+00
    0.00000E+00         0.00000E+00        -0.30325E+08
 
   -0.30315E+08         0.21229E+05         0.00000E+00
    0.21229E+05        -0.59998E+08         0.00000E+00
    0.00000E+00         0.00000E+00        -0.30324E+08
 
   -0.30315E+08         0.25189E+05         0.00000E+00
    0.25189E+05        -0.59997E+08         0.00000E+00
    0.00000E+00         0.00000E+00        -0.30323E+08
 
   -0.30316E+08         0.28211E+05         0.00000E+00
    0.28211E+05        -0.59996E+08         0.00000E+00
    0.00000E+00         0.00000E+00        -0.30321E+08
 
   -0.30317E+08         0.30316E+05         0.00000E+00
    0.30316E+05        -0.59996E+08         0.00000E+00
    0.00000E+00         0.00000E+00        -0.30319E+08
 
   -0.30318E+08         0.31558E+05         0.00000E+00
    0.31558E+05        -0.59995E+08         0.00000E+00
    0.00000E+00         0.00000E+00        -0.30317E+08
 
   -0.30319E+08         0.32037E+05         0.00000E+00
    0.32037E+05        -0.59995E+08         0.00000E+00
    0.00000E+00         0.00000E+00        -0.30316E+08
 
   -0.30320E+08         0.31896E+05         0.00000E+00
    0.31896E+05        -0.59995E+08         0.00000E+00
    0.00000E+00         0.00000E+00        -0.30315E+08
 
   -0.30321E+08         0.31304E+05         0.00000E+00
    0.31304E+05        -0.59995E+08         0.00000E+00
    0.00000E+00         0.00000E+00        -0.30314E+08
 
   -0.30321E+08         0.30433E+05         0.00000E+00
    0.30433E+05        -0.59996E+08         0.00000E+00
    0.00000E+00         0.00000E+00        -0.30315E+08
 
   -0.30321E+08         0.29435E+05         0.00000E+00
    0.29435E+05        -0.59997E+08         0.00000E+00
    0.00000E+00         0.00000E+00        -0.30316E+08
 
   -0.30321E+08         0.28431E+05         0.00000E+00
    0.28431E+05        -0.59998E+08         0.00000E+00
    0.00000E+00         0.00000E+00        -0.30318E+08
 
   -0.30321E+08         0.27504E+05         0.00000E+00
    0.27504E+05        -0.60000E+08         0.00000E+00
    0.00000E+00         0.00000E+00        -0.30320E+08
 
   -0.30308E+08         0.39263E+04         0.00000E+00
    0.39263E+04        -0.60000E+08         0.00000E+00
    0.00000E+00         0.00000E+00        -0.30328E+08
 
   -0.30308E+08         0.10966E+05         0.00000E+00
    0.10966E+05        -0.60000E+08         0.00000E+00
    0.00000E+00         0.00000E+00        -0.30327E+08
 
   -0.30309E+08         0.16989E+05         0.00000E+00
    0.16989E+05        -0.59999E+08         0.00000E+00
    0.00000E+00         0.00000E+00        -0.30326E+08
 
   -0.30310E+08         0.21987E+05         0.00000E+00
    0.21987E+05        -0.59998E+08         0.00000E+00
    0.00000E+00         0.00000E+00        -0.30324E+08
 
   -0.30312E+08         0.25952E+05         0.00000E+00
    0.25952E+05        -0.59998E+08         0.00000E+00
    0.00000E+00         0.00000E+00        -0.30322E+08
 
   -0.30313E+08         0.28881E+05         0.00000E+00
    0.28881E+05        -0.59997E+08         0.00000E+00
    0.00000E+00         0.00000E+00        -0.30319E+08
 
   -0.30315E+08         0.30803E+05         0.00000E+00
    0.30803E+05        -0.59997E+08         0.00000E+00
    0.00000E+00         0.00000E+00        -0.30317E+08
 
   -0.30317E+08         0.31787E+05         0.00000E+00
    0.31787E+05        -0.59997E+08         0.00000E+00
    0.00000E+00         0.00000E+00        -0.30315E+08
 
   -0.30319E+08         0.31958E+05         0.00000E+00
    0.31958E+05        -0.59997E+08         0.00000E+00
    0.00000E+00         0.00000E+00        -0.30313E+08
 
   -0.30320E+08         0.31484E+05         0.00000E+00
    0.31484E+05        -0.59997E+08         0.00000E+00
    0.00000E+00         0.00000E+00        -0.30313E+08
 
   -0.30321E+08         0.30556E+05         0.00000E+00
    0.30556E+05        -0.59998E+08         0.00000E+00
    0.00000E+00         0.00000E+00        -0.30313E+08
 
   -0.30322E+08         0.29363E+05         0.00000E+00
    0.29363E+05        -0.59999E+08         0.00000E+00
    0.00000E+00         0.00000E+00        -0.30314E+08
 
   -0.30322E+08         0.28063E+05         0.00000E+00
    0.28063E+05        -0.60001E+08         0.00000E+00
    0.00000E+00         0.00000E+00        -0.30315E+08
 
   -0.30322E+08         0.26777E+05         0.00000E+00
    0.26777E+05        -0.60003E+08         0.00000E+00
    0.00000E+00         0.00000E+00        -0.30318E+08
 
   -0.30322E+08         0.25579E+05         0.00000E+00
    0.25579E+05        -0.60005E+08         0.00000E+00
    0.00000E+00         0.00000E+00        -0.30320E+08
 
   -0.30300E+08         0.41022E+04         0.00000E+00
    0.41022E+04        -0.60000E+08         0.00000E+00
    0.00000E+00         0.00000E+00        -0.30331E+08
 
   -0.30302E+08         0.11391E+05         0.00000E+00
    0.11391E+05        -0.60000E+08         0.00000E+00
    0.00000E+00         0.00000E+00        -0.30329E+08
 
   -0.30304E+08         0.17548E+05         0.00000E+00
    0.17548E+05        -0.59999E+08         0.00000E+00
    0.00000E+00         0.00000E+00        -0.30326E+08
 
   -0.30306E+08         0.22560E+05         0.00000E+00
    0.22560E+05        -0.59999E+08         0.00000E+00
    0.00000E+00         0.00000E+00        -0.30323E+08
 
   -0.30308E+08         0.26418E+05         0.00000E+00
    0.26418E+05        -0.59998E+08         0.00000E+00
    0.00000E+00         0.00000E+00        -0.30320E+08
 
   -0.30311E+08         0.29136E+05         0.00000E+00
    0.29136E+05        -0.59998E+08         0.00000E+00
    0.00000E+00         0.00000E+00        -0.30317E+08
 
   -0.30314E+08         0.30773E+05         0.00000E+00
    0.30773E+05        -0.59998E+08         0.00000E+00
    0.00000E+00         0.00000E+00        -0.30315E+08
 
   -0.30317E+08         0.31438E+05         0.00000E+00
    0.31438E+05        -0.59999E+08         0.00000E+00
    0.00000E+00         0.00000E+00        -0.30313E+08
 
   -0.30319E+08         0.31287E+05         0.00000E+00
    0.31287E+05        -0.60000E+08         0.00000E+00
    0.00000E+00         0.00000E+00        -0.30311E+08
 
   -0.30321E+08         0.30503E+05         0.00000E+00
    0.30503E+05        -0.60001E+08         0.00000E+00
    0.00000E+00         0.00000E+00        -0.30311E+08
 
   -0.30323E+08         0.29282E+05         0.00000E+00
    0.29282E+05        -0.60002E+08         0.00000E+00
    0.00000E+00         0.00000E+00        -0.30311E+08
 
   -0.30323E+08         0.27811E+05         0.00000E+00
    0.27811E+05        -0.60004E+08         0.00000E+00
    0.00000E+00         0.00000E+00        -0.30313E+08
 
   -0.30324E+08         0.26246E+05         0.00000E+00
    0.26246E+05        -0.60006E+08         0.00000E+00
    0.00000E+00         0.00000E+00        -0.30315E+08
 
   -0.30324E+08         0.24706E+05         0.00000E+00
    0.24706E+05        -0.60008E+08         0.00000E+00
    0.00000E+00         0.00000E+00        -0.30318E+08
 
   -0.30323E+08         0.23256E+05         0.00000E+00
    0.23256E+05        -0.60010E+08         0.00000E+00
    0.00000E+00         0.00000E+00        -0.30321E+08
 
   -0.30292E+08         0.42786E+04         0.00000E+00
    0.42786E+04        -0.60000E+08         0.00000E+00
    0.00000E+00         0.00000E+00        -0.30333E+08
 
   -0.30295E+08         0.11779E+05         0.00000E+00
    0.11779E+05        -0.60000E+08         0.00000E+00
    0.00000E+00         0.00000E+00        -0.30330E+08
 
   -0.30298E+08         0.17992E+05         0.00000E+00
    0.17992E+05        -0.59999E+08         0.00000E+00
    0.00000E+00         0.00000E+00        -0.30327E+08
 
   -0.30301E+08         0.22897E+05         0.00000E+00
    0.22897E+05        -0.59999E+08         0.00000E+00
    0.00000E+00         0.00000E+00        -0.30323E+08
 
   -0.30305E+08         0.26495E+05         0.00000E+00
    0.26495E+05        -0.59999E+08         0.00000E+00
    0.00000E+00         0.00000E+00        -0.30319E+08
 
   -0.30309E+08         0.28848E+05         0.00000E+00
    0.28848E+05        -0.59999E+08         0.00000E+00
    0.00000E+00         0.00000E+00        -0.30316E+08
 
   -0.30313E+08         0.30082E+05         0.00000E+00
    0.30082E+05        -0.60000E+08         0.00000E+00
    0.00000E+00         0.00000E+00        -0.30313E+08
 
   -0.30317E+08         0.30377E+05         0.00000E+00
    0.30377E+05        -0.60001E+08         0.00000E+00
    0.00000E+00         0.00000E+00        -0.30311E+08
 
   -0.30320E+08         0.29925E+05         0.00000E+00
    0.29925E+05        -0.60003E+08         0.00000E+00
    0.00000E+00         0.00000E+00        -0.30310E+08
 
   -0.30322E+08         0.28902E+05         0.00000E+00
    0.28902E+05        -0.60005E+08         0.00000E+00
    0.00000E+00         0.00000E+00        -0.30310E+08
 
   -0.30324E+08         0.27472E+05         0.00000E+00
    0.27472E+05        -0.60007E+08         0.00000E+00
    0.00000E+00         0.00000E+00        -0.30311E+08
 
   -0.30325E+08         0.25796E+05         0.00000E+00
    0.25796E+05        -0.60009E+08         0.00000E+00
    0.00000E+00         0.00000E+00        -0.30312E+08
 
   -0.30325E+08         0.24021E+05         0.00000E+00
    0.24021E+05        -0.60011E+08         0.00000E+00
    0.00000E+00         0.00000E+00        -0.30315E+08
 
   -0.30325E+08         0.22263E+05         0.00000E+00
    0.22263E+05        -0.60014E+08         0.00000E+00
    0.00000E+00         0.00000E+00        -0.30319E+08
 
   -0.30325E+08         0.20587E+05         0.00000E+00
    0.20587E+05        -0.60017E+08         0.00000E+00
    0.00000E+00         0.00000E+00        -0.30323E+08
 
   -0.30284E+08         0.44610E+04         0.00000E+00
    0.44610E+04        -0.60000E+08         0.00000E+00
    0.00000E+00         0.00000E+00        -0.30336E+08
 
   -0.30288E+08         0.12117E+05         0.00000E+00
    0.12117E+05        -0.60000E+08         0.00000E+00
    0.00000E+00         0.00000E+00        -0.30331E+08
 
   -0.30293E+08         0.18279E+05         0.00000E+00
    0.18279E+05        -0.59999E+08         0.00000E+00
    0.00000E+00         0.00000E+00        -0.30327E+08
 
   -0.30297E+08         0.22909E+05         0.00000E+00
    0.22909E+05        -0.59999E+08         0.00000E+00
    0.00000E+00         0.00000E+00        -0.30322E+08
 
   -0.30302E+08         0.26053E+05         0.00000E+00
    0.26053E+05        -0.60000E+08         0.00000E+00
    0.00000E+00         0.00000E+00        -0.30317E+08
 
   -0.30308E+08         0.27862E+05         0.00000E+00
    0.27862E+05        -0.60001E+08         0.00000E+00
    0.00000E+00         0.00000E+00        -0.30314E+08
 
   -0.30313E+08         0.28586E+05         0.00000E+00
    0.28586E+05        -0.60003E+08         0.00000E+00
    0.00000E+00         0.00000E+00        -0.30311E+08
 
   -0.30317E+08         0.28494E+05         0.00000E+00
    0.28494E+05        -0.60005E+08         0.00000E+00
    0.00000E+00         0.00000E+00        -0.30309E+08
 
   -0.30321E+08         0.27802E+05         0.00000E+00
    0.27802E+05        -0.60007E+08         0.00000E+00
    0.00000E+00         0.00000E+00        -0.30309E+08
 
   -0.30324E+08         0.26650E+05         0.00000E+00
    0.26650E+05        -0.60010E+08         0.00000E+00
    0.00000E+00         0.00000E+00        -0.30309E+08
 
   -0.30326E+08         0.25134E+05         0.00000E+00
    0.25134E+05        -0.60012E+08         0.00000E+00
    0.00000E+00         0.00000E+00        -0.30310E+08
 
   -0.30327E+08         0.23358E+05         0.00000E+00
    0.23358E+05        -0.60015E+08         0.00000E+00
    0.00000E+00         0.00000E+00        -0.30313E+08
 
   -0.30327E+08         0.21444E+05         0.00000E+00
    0.21444E+05        -0.60018E+08         0.00000E+00
    0.00000E+00         0.00000E+00        -0.30316E+08
 
   -0.30327E+08         0.19513E+05         0.00000E+00
    0.19513E+05        -0.60020E+08         0.00000E+00
    0.00000E+00         0.00000E+00        -0.30320E+08
 
   -0.30327E+08         0.17642E+05         0.00000E+00
    0.17642E+05        -0.60023E+08         0.00000E+00
    0.00000E+00         0.00000E+00        -0.30324E+08
 
   -0.30276E+08         0.46391E+04         0.00000E+00
    0.46391E+04        -0.60000E+08         0.00000E+00
    0.00000E+00         0.00000E+00        -0.30338E+08
 
   -0.30281E+08         0.12380E+05         0.00000E+00
    0.12380E+05        -0.60000E+08         0.00000E+00
    0.00000E+00         0.00000E+00        -0.30332E+08
 
   -0.30287E+08         0.18316E+05         0.00000E+00
    0.18316E+05        -0.60000E+08         0.00000E+00
    0.00000E+00         0.00000E+00        -0.30326E+08
 
   -0.30294E+08         0.22439E+05         0.00000E+00
    0.22439E+05        -0.60000E+08         0.00000E+00
    0.00000E+00         0.00000E+00        -0.30320E+08
 
   -0.30300E+08         0.24893E+05         0.00000E+00
    0.24893E+05        -0.60001E+08         0.00000E+00
    0.00000E+00         0.00000E+00        -0.30315E+08
 
   -0.30307E+08         0.26010E+05         0.00000E+00
    0.26010E+05        -0.60003E+08         0.00000E+00
    0.00000E+00         0.00000E+00        -0.30312E+08
 
   -0.30312E+08         0.26185E+05         0.00000E+00
    0.26185E+05        -0.60006E+08         0.00000E+00
    0.00000E+00         0.00000E+00        -0.30309E+08
 
   -0.30317E+08         0.25749E+05         0.00000E+00
    0.25749E+05        -0.60009E+08         0.00000E+00
    0.00000E+00         0.00000E+00        -0.30308E+08
 
   -0.30322E+08         0.24906E+05         0.00000E+00
    0.24906E+05        -0.60012E+08         0.00000E+00
    0.00000E+00         0.00000E+00        -0.30308E+08
 
   -0.30325E+08         0.23747E+05         0.00000E+00
    0.23747E+05        -0.60015E+08         0.00000E+00
    0.00000E+00         0.00000E+00        -0.30309E+08
 
   -0.30327E+08         0.22291E+05         0.00000E+00
    0.22291E+05        -0.60018E+08         0.00000E+00
    0.00000E+00         0.00000E+00        -0.30311E+08
 
   -0.30329E+08         0.20547E+05         0.00000E+00
    0.20547E+05        -0.60022E+08         0.00000E+00
    0.00000E+00         0.00000E+00        -0.30314E+08
 
   -0.30329E+08         0.18587E+05         0.00000E+00
    0.18587E+05        -0.60024E+08         0.00000E+00
    0.00000E+00         0.00000E+00        -0.30317E+08
 
   -0.30329E+08         0.16535E+05         0.00000E+00
    0.16535E+05        -0.60028E+08         0.00000E+00
    0.00000E+00         0.00000E+00        -0.30321E+08
 
   -0.30329E+08         0.14500E+05         0.00000E+00
    0.14500E+05        -0.60031E+08         0.00000E+00
    0.00000E+00         0.00000E+00        -0.30326E+08
 
   -0.30267E+08         0.48068E+04         0.00000E+00
    0.48068E+04        -0.60000E+08         0.00000E+00
    0.00000E+00         0.00000E+00        -0.30341E+08
 
   -0.30274E+08         0.12484E+05         0.00000E+00
    0.12484E+05        -0.60000E+08         0.00000E+00
    0.00000E+00         0.00000E+00        -0.30333E+08
 
   -0.30283E+08         0.17927E+05         0.00000E+00
    0.17927E+05        -0.60000E+08         0.00000E+00
    0.00000E+00         0.00000E+00        -0.30326E+08
 
   -0.30291E+08         0.21213E+05         0.00000E+00
    0.21213E+05        -0.60001E+08         0.00000E+00
    0.00000E+00         0.00000E+00        -0.30319E+08
 
   -0.30299E+08         0.22762E+05         0.00000E+00
    0.22762E+05        -0.60004E+08         0.00000E+00
    0.00000E+00         0.00000E+00        -0.30314E+08
 
   -0.30306E+08         0.23155E+05         0.00000E+00
    0.23155E+05        -0.60007E+08         0.00000E+00
    0.00000E+00         0.00000E+00        -0.30310E+08
 
   -0.30313E+08         0.22869E+05         0.00000E+00
    0.22869E+05        -0.60010E+08         0.00000E+00
    0.00000E+00         0.00000E+00        -0.30309E+08
 
   -0.30318E+08         0.22199E+05         0.00000E+00
    0.22199E+05        -0.60014E+08         0.00000E+00
    0.00000E+00         0.00000E+00        -0.30308E+08
 
   -0.30323E+08         0.21303E+05         0.00000E+00
    0.21303E+05        -0.60018E+08         0.00000E+00
    0.00000E+00         0.00000E+00        -0.30309E+08
 
   -0.30326E+08         0.20233E+05         0.00000E+00
    0.20233E+05        -0.60022E+08         0.00000E+00
    0.00000E+00         0.00000E+00        -0.30310E+08
 
   -0.30329E+08         0.18961E+05         0.00000E+00
    0.18961E+05        -0.60025E+08         0.00000E+00
    0.00000E+00         0.00000E+00        -0.30312E+08
 
   -0.30331E+08         0.17403E+05         0.00000E+00
    0.17403E+05        -0.60029E+08         0.00000E+00
    0.00000E+00         0.00000E+00        -0.30315E+08
 
   -0.30331E+08         0.15525E+05         0.00000E+00
    0.15525E+05        -0.60032E+08         0.00000E+00
    0.00000E+00         0.00000E+00        -0.30319E+08
 
   -0.30331E+08         0.13425E+05         0.00000E+00
    0.13425E+05        -0.60035E+08         0.00000E+00
    0.00000E+00         0.00000E+00        -0.30323E+08
 
   -0.30331E+08         0.11258E+05         0.00000E+00
    0.11258E+05        -0.60038E+08         0.00000E+00
    0.00000E+00         0.00000E+00        -0.30328E+08
 
   -0.30258E+08         0.49483E+04         0.00000E+00
    0.49483E+04        -0.60000E+08         0.00000E+00
    0.00000E+00         0.00000E+00        -0.30343E+08
 
   -0.30268E+08         0.12266E+05         0.00000E+00
    0.12266E+05        -0.60000E+08         0.00000E+00
    0.00000E+00         0.00000E+00        -0.30333E+08
 
   -0.30279E+08         0.16734E+05         0.00000E+00
    0.16734E+05        -0.60001E+08         0.00000E+00
    0.00000E+00         0.00000E+00        -0.30324E+08
 
   -0.30289E+08         0.18830E+05         0.00000E+00
    0.18830E+05        -0.60004E+08         0.00000E+00
    0.00000E+00         0.00000E+00        -0.30317E+08
 
   -0.30298E+08         0.19438E+05         0.00000E+00
    0.19438E+05        -0.60007E+08         0.00000E+00
    0.00000E+00         0.00000E+00        -0.30313E+08
 
   -0.30307E+08         0.19274E+05         0.00000E+00
    0.19274E+05        -0.60011E+08         0.00000E+00
    0.00000E+00         0.00000E+00        -0.30310E+08
 
   -0.30313E+08         0.18726E+05         0.00000E+00
    0.18726E+05        -0.60016E+08         0.00000E+00
    0.00000E+00         0.00000E+00        -0.30309E+08
 
   -0.30319E+08         0.17981E+05         0.00000E+00
    0.17981E+05        -0.60020E+08         0.00000E+00
    0.00000E+00         0.00000E+00        -0.30309E+08
 
   -0.30324E+08         0.17130E+05         0.00000E+00
    0.17130E+05        -0.60025E+08         0.00000E+00
    0.00000E+00         0.00000E+00        -0.30310E+08
 
   -0.30327E+08         0.16206E+05         0.00000E+00
    0.16206E+05        -0.60029E+08         0.00000E+00
    0.00000E+00         0.00000E+00        -0.30312E+08
 
   -0.30330E+08         0.15176E+05         0.00000E+00
    0.15176E+05        -0.60033E+08         0.00000E+00
    0.00000E+00         0.00000E+00        -0.30315E+08
 
   -0.30332E+08         0.13933E+05         0.00000E+00
    0.13933E+05        -0.60037E+08         0.00000E+00
    0.00000E+00         0.00000E+00        -0.30318E+08
 
   -0.30333E+08         0.12316E+05         0.00000E+00
    0.12316E+05        -0.60040E+08         0.00000E+00
    0.00000E+00         0.00000E+00        -0.30321E+08
 
   -0.30333E+08         0.10289E+05         0.00000E+00
    0.10289E+05        -0.60044E+08         0.00000E+00
    0.00000E+00         0.00000E+00        -0.30325E+08
 
   -0.30333E+08         0.80373E+04         0.00000E+00
    0.80373E+04        -0.60047E+08         0.00000E+00
    0.00000E+00         0.00000E+00        -0.30330E+08
 
   -0.30250E+08         0.50074E+04         0.00000E+00
    0.50074E+04        -0.60000E+08         0.00000E+00
    0.00000E+00         0.00000E+00        -0.30346E+08
 
   -0.30263E+08         0.11296E+05         0.00000E+00
    0.11296E+05        -0.60001E+08         0.00000E+00
    0.00000E+00         0.00000E+00        -0.30333E+08
 
   -0.30276E+08         0.14104E+05         0.00000E+00
    0.14104E+05        -0.60004E+08         0.00000E+00
    0.00000E+00         0.00000E+00        -0.30323E+08
 
   -0.30288E+08         0.14928E+05         0.00000E+00
    0.14928E+05        -0.60008E+08         0.00000E+00
    0.00000E+00         0.00000E+00        -0.30317E+08
 
   -0.30298E+08         0.14901E+05         0.00000E+00
    0.14901E+05        -0.60013E+08         0.00000E+00
    0.00000E+00         0.00000E+00        -0.30313E+08
 
   -0.30307E+08         0.14493E+05         0.00000E+00
    0.14493E+05        -0.60018E+08         0.00000E+00
    0.00000E+00         0.00000E+00        -0.30311E+08
 
   -0.30314E+08         0.13911E+05         0.00000E+00
    0.13911E+05        -0.60023E+08         0.00000E+00
    0.00000E+00         0.00000E+00        -0.30311E+08
 
   -0.30320E+08         0.13249E+05         0.00000E+00
    0.13249E+05        -0.60028E+08         0.00000E+00
    0.00000E+00         0.00000E+00        -0.30312E+08
 
   -0.30324E+08         0.12549E+05         0.00000E+00
    0.12549E+05        -0.60033E+08         0.00000E+00
    0.00000E+00         0.00000E+00        -0.30313E+08
 
   -0.30328E+08         0.11818E+05         0.00000E+00
    0.11818E+05        -0.60037E+08         0.00000E+00
    0.00000E+00         0.00000E+00        -0.30316E+08
 
   -0.30331E+08         0.11035E+05         0.00000E+00
    0.11035E+05        -0.60041E+08         0.00000E+00
    0.00000E+00         0.00000E+00        -0.30318E+08
 
   -0.30333E+08         0.10138E+05         0.00000E+00
    0.10138E+05        -0.60046E+08         0.00000E+00
    0.00000E+00         0.00000E+00        -0.30322E+08
 
   -0.30335E+08         0.89560E+04         0.00000E+00
    0.89560E+04        -0.60049E+08         0.00000E+00
    0.00000E+00         0.00000E+00        -0.30325E+08
 
   -0.30335E+08         0.72274E+04         0.00000E+00
    0.72274E+04        -0.60052E+08         0.00000E+00
    0.00000E+00         0.00000E+00        -0.30329E+08
 
   -0.30335E+08         0.49904E+04         0.00000E+00
    0.49904E+04        -0.60056E+08         0.00000E+00
    0.00000E+00         0.00000E+00        -0.30333E+08
 
   -0.30242E+08         0.46578E+04         0.00000E+00
    0.46578E+04        -0.60000E+08         0.00000E+00
    0.00000E+00         0.00000E+00        -0.30347E+08
 
   -0.30259E+08         0.85194E+04         0.00000E+00
    0.85194E+04        -0.60003E+08         0.00000E+00
    0.00000E+00         0.00000E+00        -0.30333E+08
 
   -0.30275E+08         0.94781E+04         0.00000E+00
    0.94781E+04        -0.60008E+08         0.00000E+00
    0.00000E+00         0.00000E+00        -0.30324E+08
 
   -0.30288E+08         0.95941E+04         0.00000E+00
    0.95941E+04        -0.60014E+08         0.00000E+00
    0.00000E+00         0.00000E+00        -0.30318E+08
 
   -0.30299E+08         0.93822E+04         0.00000E+00
    0.93822E+04        -0.60020E+08         0.00000E+00
    0.00000E+00         0.00000E+00        -0.30315E+08
 
   -0.30307E+08         0.90186E+04         0.00000E+00
    0.90186E+04        -0.60025E+08         0.00000E+00
    0.00000E+00         0.00000E+00        -0.30314E+08
 
   -0.30315E+08         0.85870E+04         0.00000E+00
    0.85870E+04        -0.60031E+08         0.00000E+00
    0.00000E+00         0.00000E+00        -0.30314E+08
 
   -0.30320E+08         0.81362E+04         0.00000E+00
    0.81362E+04        -0.60036E+08         0.00000E+00
    0.00000E+00         0.00000E+00        -0.30316E+08
 
   -0.30325E+08         0.76825E+04         0.00000E+00
    0.76825E+04        -0.60042E+08         0.00000E+00
    0.00000E+00         0.00000E+00        -0.30318E+08
 
   -0.30329E+08         0.72082E+04         0.00000E+00
    0.72082E+04        -0.60046E+08         0.00000E+00
    0.00000E+00         0.00000E+00        -0.30320E+08
 
   -0.30332E+08         0.66962E+04         0.00000E+00
    0.66962E+04        -0.60051E+08         0.00000E+00
    0.00000E+00         0.00000E+00        -0.30323E+08
 
   -0.30334E+08         0.61187E+04         0.00000E+00
    0.61187E+04        -0.60055E+08         0.00000E+00
    0.00000E+00         0.00000E+00        -0.30326E+08
 
   -0.30336E+08         0.53977E+04         0.00000E+00
    0.53977E+04        -0.60059E+08         0.00000E+00
    0.00000E+00         0.00000E+00        -0.30329E+08
 
   -0.30337E+08         0.42691E+04         0.00000E+00
    0.42691E+04        -0.60062E+08         0.00000E+00
    0.00000E+00         0.00000E+00        -0.30332E+08
 
   -0.30338E+08         0.22613E+04         0.00000E+00
    0.22613E+04        -0.60065E+08         0.00000E+00
    0.00000E+00         0.00000E+00        -0.30336E+08
 
   -0.30237E+08         0.19960E+04         0.00000E+00
    0.19960E+04        -0.60004E+08         0.00000E+00
    0.00000E+00         0.00000E+00        -0.30350E+08
 
   -0.30258E+08         0.29817E+04         0.00000E+00
    0.29817E+04        -0.60009E+08         0.00000E+00
    0.00000E+00         0.00000E+00        -0.30335E+08
 
   -0.30275E+08         0.32978E+04         0.00000E+00
    0.32978E+04        -0.60015E+08         0.00000E+00
    0.00000E+00         0.00000E+00        -0.30327E+08
 
   -0.30288E+08         0.33099E+04         0.00000E+00
    0.33099E+04        -0.60022E+08         0.00000E+00
    0.00000E+00         0.00000E+00        -0.30322E+08
 
   -0.30299E+08         0.32091E+04         0.00000E+00
    0.32091E+04        -0.60028E+08         0.00000E+00
    0.00000E+00         0.00000E+00        -0.30319E+08
 
   -0.30308E+08         0.30686E+04         0.00000E+00
    0.30686E+04        -0.60035E+08         0.00000E+00
    0.00000E+00         0.00000E+00        -0.30319E+08
 
   -0.30315E+08         0.29084E+04         0.00000E+00
    0.29084E+04        -0.60041E+08         0.00000E+00
    0.00000E+00         0.00000E+00        -0.30320E+08
 
   -0.30321E+08         0.27491E+04         0.00000E+00
    0.27491E+04        -0.60046E+08         0.00000E+00
    0.00000E+00         0.00000E+00        -0.30321E+08
 
   -0.30325E+08         0.25945E+04         0.00000E+00
    0.25945E+04        -0.60052E+08         0.00000E+00
    0.00000E+00         0.00000E+00        -0.30324E+08
 
   -0.30329E+08         0.24303E+04         0.00000E+00
    0.24303E+04        -0.60057E+08         0.00000E+00
    0.00000E+00         0.00000E+00        -0.30326E+08
 
   -0.30332E+08         0.22491E+04         0.00000E+00
    0.22491E+04        -0.60061E+08         0.00000E+00
    0.00000E+00         0.00000E+00        -0.30330E+08
 
   -0.30334E+08         0.20382E+04         0.00000E+00
    0.20382E+04        -0.60066E+08         0.00000E+00
    0.00000E+00         0.00000E+00        -0.30333E+08
 
   -0.30336E+08         0.17805E+04         0.00000E+00
    0.17805E+04        -0.60069E+08         0.00000E+00
    0.00000E+00         0.00000E+00        -0.30336E+08
 
   -0.30338E+08         0.14040E+04         0.00000E+00
    0.14040E+04        -0.60072E+08         0.00000E+00
    0.00000E+00         0.00000E+00        -0.30338E+08
 
   -0.30339E+08         0.50928E+03         0.00000E+00
    0.50928E+03        -0.60073E+08         0.00000E+00
    0.00000E+00         0.00000E+00        -0.30339E+08
 
SCALARS stressS double 
LOOKUP_TABLE default
  -40229949.2437743     
  -40229730.5308152     
  -40229319.2432345     
  -40228725.0692804     
  -40227957.3436331     
  -40227025.0810251     
  -40225936.9884664     
  -40224701.4465012     
  -40223326.4541736     
  -40221819.5358378     
  -40220187.6102117     
  -40218436.8235564     
  -40216572.3474755     
  -40214598.1566724     
  -40212516.7306964     
  -40229861.2657774     
  -40229639.7337569     
  -40229223.4520183     
  -40228622.8953140     
  -40227848.1414045     
  -40226908.8902917     
  -40225814.4626124     
  -40224573.7699937     
  -40223195.2529313     
  -40221686.7854617     
  -40220055.5470702     
  -40218307.8638872     
  -40216449.0192687     
  -40214483.0303494     
  -40212412.3740414     
  -40229685.3521075     
  -40229458.2526876     
  -40229032.1145792     
  -40228418.9777820     
  -40227630.3985604     
  -40226677.4380748     
  -40225570.6338106     
  -40224319.9484451     
  -40222934.6954656     
  -40221423.4408849     
  -40219793.8831304     
  -40218052.7040385     
  -40216205.4092984     
  -40214256.1065720     
  -40212207.2430241     
  -40229421.5860830     
  -40229186.3221160     
  -40228745.7372214     
  -40228114.2026145     
  -40227305.4701235     
  -40226332.6182704     
  -40225207.9826275     
  -40223943.0753572     
  -40222548.4948004     
  -40221033.8273176     
  -40219407.5363304     
  -40217676.8483808     
  -40215847.5840963     
  -40213923.9890832     
  -40211908.4937545     
  -40229070.1043380     
  -40228824.3152682     
  -40228365.1208541     
  -40227709.9595449     
  -40226875.4658375     
  -40225877.3566557     
  -40224730.3120806     
  -40223447.8601008     
  -40222042.2706364     
  -40220524.4590201     
  -40218903.8985850     
  -40217188.5067611     
  -40215384.5906026     
  -40213496.5853911     
  -40211526.8558781     
  -40228631.1035594     
  -40228372.7680077     
  -40227891.4064651     
  -40227208.2119240     
  -40226343.3354653     
  -40225315.7015906     
  -40224142.8322166     
  -40222840.6954406     
  -40221423.5893320     
  -40219904.0567735     
  -40218292.8129320     
  -40216598.6871789     
  -40214828.5314977     
  -40212987.0352926     
  -40211076.5640117     
  -40228104.8531886     
  -40227832.4111981     
  -40227326.1370483     
  -40226611.5815715     
  -40225712.9680750     
  -40224652.9246941     
  -40223452.2475041     
  -40222129.7213759     
  -40220702.0000892     
  -40219183.5354485     
  -40217586.5470768     
  -40215920.9581429     
  -40214194.3181344     
  -40212411.6697917     
  -40210575.3461597     
  -40227491.7119709     
  -40227204.2042646     
  -40226671.3190068     
  -40225923.4360771     
  -40224989.2911841     
  -40223895.6109648     
  -40222666.8248474     
  -40221324.8625972     
  -40219889.0424209     
  -40218376.0193472     
  -40216799.7510136     
  -40215171.5370607     
  -40213499.8061748     
  -40211790.0139357     
  -40210044.4467135     
  -40226792.1508540     
  -40226489.3793687     
  -40225929.4875792     
  -40225147.9674224     
  -40224178.3420083     
  -40223051.7120327     
  -40221796.4161007     
  -40220437.8201246     
  -40218998.2138002     
  -40217496.7834071     
  -40215949.5608707     
  -40214369.4142337     
  -40212765.8376239     
  -40211144.8500721     
  -40209508.6881370     
  -40226006.7745839     
  -40225689.4699623     
  -40225103.7465350     
  -40224290.2264683     
  -40223287.2842601     
  -40222130.5261763     
  -40220852.4040543     
  -40219481.9961466     
  -40218044.9009902     
  -40216563.1808721     
  -40215055.3222811     
  -40213536.0759003     
  -40212016.2132760     
  -40210502.3408281     
  -40208996.5587630     
  -40225136.3443720     
  -40224806.3224156     
  -40224197.7580006     
  -40223356.0771175     
  -40222324.3179550     
  -40221142.5672583     
  -40219847.5438605     
  -40218472.3354670     
  -40217046.2458712     
  -40215594.6644458     
  -40214138.9127848     
  -40212695.9120864     
  -40211277.8937946     
  -40209892.0131005     
  -40208540.1492640     
  -40224181.7955124     
  -40223842.0623737     
  -40223215.6392653     
  -40222352.0244291     
  -40221298.4427718     
  -40220099.2924569     
  -40218795.6859936     
  -40217425.0854047     
  -40216020.9964109     
  -40214612.6410717     
  -40213224.5956604     
  -40211876.2131055     
  -40210581.1878764     
  -40209347.1038605     
  -40208175.3309656     
  -40223144.2398586     
  -40222798.9898476     
  -40222161.7187913     
  -40221284.8444757     
  -40220219.0199585     
  -40219012.6569169     
  -40217711.3958958     
  -40216357.5297594     
  -40214989.3787302     
  -40213640.5686697     
  -40212339.3272350     
  -40211107.5268441     
  -40209960.0841089     
  -40208904.6042388     
  -40207941.5739869     
  -40222024.9484947     
  -40221679.3734113     
  -40221040.1063134     
  -40220160.9866100     
  -40219095.1067816     
  -40217894.5001269     
  -40216609.4967927     
  -40215287.7673956     
  -40213973.1381327     
  -40212704.2523469     
  -40211513.1520501     
  -40210423.9873080     
  -40209452.3678884     
  -40208605.1719719     
  -40207881.3944526     
  -40220825.2815068     
  -40220485.1447347     
  -40219854.0723045     
  -40218985.7405849     
  -40217934.5882393     
  -40216755.8135899     
  -40215504.6034971     
  -40214234.5952677     
  -40212995.7977993     
  -40211832.2436272     
  -40210779.5989073     
  -40209863.7264480     
  -40209099.7598046     
  -40208492.7122901     
  -40208039.3239475     
  -40219546.6016229     
  -40219217.5058188     
  -40218605.3203552     
  -40217762.2675460     
  -40216743.1985125     
  -40215606.0077553     
  -40214410.7986230     
  -40213217.6375092     
  -40212083.0749272     
  -40211056.4881147     
  -40210176.5353167     
  -40209469.2472117     
  -40208947.6362489     
  -40208613.3690145     
  -40208460.1853289     
  -40218190.1815657     
  -40217876.6247698     
  -40217293.3283975     
  -40216490.7249939     
  -40215523.6535923     
  -40214452.3587522     
  -40213341.6798255     
  -40212258.0260282     
  -40211264.2160363     
  -40210413.8627980     
  -40209746.9940423     
  -40209287.5440694     
  -40209044.1845826     
  -40209013.7698033     
  -40209186.5855539     
  -40216757.0157286     
  -40216461.5333323     
  -40215915.2076985     
  -40215167.9486074     
  -40214275.2940400     
  -40213299.9235153     
  -40212310.9443890     
  -40211379.7171947     
  -40210573.4190811     
  -40209947.4824901     
  -40209539.9561749     
  -40209369.6499147     
  -40209438.7527449     
  -40209738.4485893     
  -40210255.8638998     
  -40215247.8747345     
  -40214970.4189896     
  -40214466.2836729     
  -40213788.1700003     
  -40212994.9862738     
  -40212152.8872046     
  -40211334.0607074     
  -40210611.6746911     
  -40210052.4673921     
  -40209708.3444335     
  -40209610.4296489     
  -40209769.1997623     
  -40210179.2365552     
  -40210826.7076954     
  -40211697.0202058     
  -40213663.0544688     
  -40213401.5382718     
  -40212941.7477295     
  -40212345.3549172     
  -40211679.9386105     
  -40211017.7481624     
  -40210431.9776450     
  -40209991.4222552     
  -40209753.2366384     
  -40209756.1266578     
  -40210018.1932112     
  -40210539.5834309     
  -40211308.6491230     
  -40212309.3734114     
  -40213528.1406528     
  -40212003.2300161     
  -40211753.8272863     
  -40211338.9506960     
  -40210837.8384897     
  -40210334.1854430     
  -40209910.0476120     
  -40209637.2585784     
  -40209569.6417513     
  -40209739.0739236     
  -40210157.6595463     
  -40210824.2583005     
  -40211729.8006836     
  -40212861.4126977     
  -40214206.2452548     
  -40215755.2031195     
  -40210267.5001011     
  -40210027.5068086     
  -40209660.6572787     
  -40209275.1040064     
  -40208978.5706211     
  -40208866.8955977     
  -40209004.7728509     
  -40209414.9596704     
  -40210083.5658492     
  -40210981.7517274     
  -40212084.9788607     
  -40213379.8241682     
  -40214860.6338925     
  -40216524.8474080     
  -40218372.6264749     
  -40208452.0430674     
  -40208222.6894432     
  -40207919.2704401     
  -40207685.9468833     
  -40207666.0763414     
  -40207965.2776217     
  -40208625.4966580     
  -40209616.7555256     
  -40210864.0157434     
  -40212289.5127138     
  -40213844.5453418     
  -40215516.7680436     
  -40217317.0161347     
  -40219261.8895718     
  -40221364.8637697     
  -40206561.6211609     
  -40206345.4586875     
  -40206137.9471733     
  -40206131.8450481     
  -40206501.5463327     
  -40207342.1515914     
  -40208636.6369951     
  -40210283.5704715     
  -40212151.1904317     
  -40214122.8782399     
  -40216127.7189687     
  -40218153.3028484     
  -40220231.1649563     
  -40222405.4560728     
  -40224708.5277541     
  -40204603.9297486     
  -40204419.1520028     
  -40204368.7768569     
  -40204727.7675462     
  -40205667.2721545     
  -40207203.7451398     
  -40209214.9016977     
  -40211533.0900095     
  -40214002.3686025     
  -40216497.6522930     
  -40218934.5262990     
  -40221287.0151021     
  -40223597.1958369     
  -40225939.3828726     
  -40228377.8772200     
  -40202570.6956671     
  -40202464.9341752     
  -40202727.5540337     
  -40203691.3304145     
  -40205439.0884348     
  -40207798.3281628     
  -40210541.1389545     
  -40213476.3765753     
  -40216467.9892334     
  -40219415.4093243     
  -40222240.6830315     
  -40224899.0262451     
  -40227404.4621779     
  -40229853.5535114     
  -40232348.3408886     
  -40200464.8291890     
  -40200549.8603464     
  -40201443.6629395     
  -40203393.2343913     
  -40206142.4438344     
  -40209345.3246871     
  -40212749.2106742     
  -40216200.2701035     
  -40219603.1446423     
  -40222895.8262691     
  -40226027.7417941     
  -40228947.1771857     
  -40231638.6603235     
  -40234139.5199479     
  -40236614.8063144     
  -40198325.2408917     
  -40198928.1301604     
  -40201073.0185357     
  -40204284.4540747     
  -40208027.4113828     
  -40211960.9688816     
  -40215901.9687553     
  -40219754.4452610     
  -40223464.2290553     
  -40226999.0188269     
  -40230334.5430969     
  -40233434.1755411     
  -40236238.5645082     
  -40238816.2113465     
  -40241158.2282029     
  -40196306.4331456     
  -40198617.2445760     
  -40202327.4456627     
  -40206681.7353833     
  -40211194.0345156     
  -40215664.5486982     
  -40220001.3299258     
  -40224150.7538664     
  -40228088.4512874     
  -40231801.9364342     
  -40235274.5368707     
  -40238473.2050971     
  -40241331.3452146     
  -40243695.9436677     
  -40246134.7648792     
  -40197032.8148877     
  -40200759.2015206     
  -40205611.8309935     
  -40210660.1576168     
  -40215641.0021217     
  -40220444.1642656     
  -40225024.3115853     
  -40229372.0849658     
  -40233484.8811343     
  -40237354.8226964     
  -40240962.3390970     
  -40244269.3372110     
  -40247191.2726061     
  -40249521.2124723     
  -40250404.1043613     
SCALARS 2waySource double 
LOOKUP_TABLE default
 -3.246408375936321E-005
 -3.246385836294628E-005
 -3.245810244379297E-005
 -3.244658433392815E-005
 -3.242911567539304E-005
 -3.240553406543826E-005
 -3.237568624433354E-005
 -3.233941309023812E-005
 -3.229653756519881E-005
 -3.224685656039910E-005
 -3.219013735028733E-005
 -3.212611909779728E-005
 -3.205451960713378E-005
 -3.197504739885580E-005
 -3.188741880211682E-005
 -3.244508366189785E-005
 -3.244532928033181E-005
 -3.244032371197667E-005
 -3.242978342317916E-005
 -3.241346974397168E-005
 -3.239117188303091E-005
 -3.236269070035534E-005
 -3.232782444089929E-005
 -3.228635748782680E-005
 -3.223805298947340E-005
 -3.218264997635735E-005
 -3.211986534185027E-005
 -3.204940084006216E-005
 -3.197095508687697E-005
 -3.188424041067803E-005
 -3.241204625823119E-005
 -3.241306675809709E-005
 -3.240934145742008E-005
 -3.240049105666578E-005
 -3.238618372783148E-005
 -3.236611909400494E-005
 -3.234001335209437E-005
 -3.230758657286203E-005
 -3.226855307886311E-005
 -3.222261556933330E-005
 -3.216946344039428E-005
 -3.210877553754668E-005
 -3.204022750798038E-005
 -3.196350361572483E-005
 -3.187831281881436E-005
 -3.236494330024663E-005
 -3.236705900510208E-005
 -3.236516369219933E-005
 -3.235873570446582E-005
 -3.234730452729450E-005
 -3.233043656459713E-005
 -3.230772251569802E-005
 -3.227876719138969E-005
 -3.224318236801684E-005
 -3.220058308284412E-005
 -3.215058759728804E-005
 -3.209282112448664E-005
 -3.202692341778538E-005
 -3.195256001313534E-005
 -3.186943750245953E-005
 -3.230376124209152E-005
 -3.230731072469873E-005
 -3.230781729994829E-005
 -3.230456673445339E-005
 -3.229690080063804E-005
 -3.228420589676760E-005
 -3.226590383705980E-005
 -3.224144524166823E-005
 -3.221030572003254E-005
 -3.217198491165491E-005
 -3.212600836559179E-005
 -3.207193223197279E-005
 -3.200935080982956E-005
 -3.193790696099516E-005
 -3.185730563821490E-005
 -3.222850099806625E-005
 -3.223384145221947E-005
 -3.223734383714254E-005
 -3.223804695459340E-005
 -3.223505181290140E-005
 -3.222751454080267E-005
 -3.221464199499117E-005
 -3.219568982813674E-005
 -3.216996279818527E-005
 -3.213681696599450E-005
 -3.209566351725147E-005
 -3.204597418572800E-005
 -3.198728844485996E-005
 -3.191922228054238E-005
 -3.184147974118597E-005
 -3.213917789759370E-005
 -3.214668330264277E-005
 -3.215379356438797E-005
 -3.215924194417097E-005
 -3.216183167238338E-005
 -3.216043510130862E-005
 -3.215399567075887E-005
 -3.214153181316481E-005
 -3.212214196668571E-005
 -3.209501006302043E-005
 -3.205941112857687E-005
 -3.201471704450940E-005
 -3.196040262745457E-005
 -3.189605268356532E-005
 -3.182137052721783E-005
 -3.203582181241590E-005
 -3.204587779522795E-005
 -3.205721703420496E-005
 -3.206820535443928E-005
 -3.207728814655241E-005
 -3.208299809946100E-005
 -3.208396528108020E-005
 -3.207892786585065E-005
 -3.206674213984364E-005
 -3.204639107664352E-005
 -3.201699127900896E-005
 -3.197779867126933E-005
 -3.192821296235903E-005
 -3.186778251784318E-005
 -3.179620928376896E-005
 -3.191847737316253E-005
 -3.193147142777426E-005
 -3.194765362508623E-005
 -3.196495938260858E-005
 -3.198141517806349E-005
 -3.199515757160238E-005
 -3.200445320776456E-005
 -3.200771706757384E-005
 -3.200352745318173E-005
 -3.199063716940780E-005
 -3.196798124350728E-005
 -3.193468208191150E-005
 -3.189005238594435E-005
 -3.183359756715858E-005
 -3.176501659316702E-005
 -3.178720415230616E-005
 -3.180350952653177E-005
 -3.182511625663782E-005
 -3.184946956972536E-005
 -3.187411853342541E-005
 -3.189674929617831E-005
 -3.191521669719359E-005
 -3.192757058453816E-005
 -3.193207548545008E-005
 -3.192722387867677E-005
 -3.191174439899781E-005
 -3.188460634389654E-005
 -3.184502164226940E-005
 -3.179244459557587E-005
 -3.172656828964743E-005
 -3.164207665944875E-005
 -3.166202805713470E-005
 -3.168957195201629E-005
 -3.172161373977368E-005
 -3.175517468440245E-005
 -3.178744213875299E-005
 -3.181581435573182E-005
 -3.183793549604912E-005
 -3.185172000899361E-005
 -3.185536800067399E-005
 -3.184737424896087E-005
 -3.182653287653778E-005
 -3.179193915178184E-005
 -3.174298687419464E-005
 -3.167936002291825E-005
 -3.148318394028519E-005
 -3.150704347048715E-005
 -3.154091876567460E-005
 -3.158114613346877E-005
 -3.162418445186441E-005
 -3.166668436637277E-005
 -3.170554804523119E-005
 -3.173797437728977E-005
 -3.176148945868762E-005
 -3.177396555666049E-005
 -3.177363275328818E-005
 -3.175908555633729E-005
 -3.172928561930719E-005
 -3.168355773111031E-005
 -3.162157378854549E-005
 -3.131062860656209E-005
 -3.133854158236214E-005
 -3.137896145753306E-005
 -3.142766011101986E-005
 -3.148052512653099E-005
 -3.153364836996357E-005
 -3.158340297465116E-005
 -3.162650250681049E-005
 -3.166004207714028E-005
 -3.168152541980046E-005
 -3.168888338806250E-005
 -3.168048548817625E-005
 -3.165514544474665E-005
 -3.161211375727229E-005
 -3.155104978620825E-005
 -3.112452526067391E-005
 -3.115646806198607E-005
 -3.120339123065092E-005
 -3.126055638296440E-005
 -3.132330813794404E-005
 -3.138717960157689E-005
 -3.144798977851087E-005
 -3.150192440603852E-005
 -3.154559763265138E-005
 -3.157609728780806E-005
 -3.159101748739924E-005
 -3.158848073727698E-005
 -3.156714591714380E-005
 -3.152619242511917E-005
 -3.146527118078455E-005
 -3.092499850672690E-005
 -3.096072518550660E-005
 -3.101377861349745E-005
 -3.107902820019211E-005
 -3.115135327866790E-005
 -3.122575809891110E-005
 -3.129749313561043E-005
 -3.136217045498163E-005
 -3.141586398652364E-005
 -3.145519099712324E-005
 -3.147737230133808E-005
 -3.148027118109935E-005
 -3.146239953759264E-005
 -3.142288234628561E-005
 -3.136137164573774E-005
 -3.071218109130357E-005
 -3.075118116785597E-005
 -3.080959187424971E-005
 -3.088207924943254E-005
 -3.096319464861155E-005
 -3.104748378579380E-005
 -3.112963238154568E-005
 -3.120463337590079E-005
 -3.126795402016876E-005
 -3.131568268090211E-005
 -3.134463870050815E-005
 -3.135243203026176E-005
 -3.133745754842201E-005
 -3.129881784024640E-005
 -3.123617777395827E-005
 -3.048621291116364E-005
 -3.052769813995533E-005
 -3.059025335453447E-005
 -3.066859153677969E-005
 -3.075713639334953E-005
 -3.085009940453157E-005
 -3.094164049715010E-005
 -3.102610338446924E-005
 -3.109828743909611E-005
 -3.115370253400230E-005
 -3.118875783635027E-005
 -3.120084295661513E-005
 -3.118828805697191E-005
 -3.115021307444237E-005
 -3.108629780078336E-005
 -3.024724121073244E-005
 -3.029018024012387E-005
 -3.035523939383785E-005
 -3.043745530055082E-005
 -3.053137499633553E-005
 -3.063106658246231E-005
 -3.073026924223156E-005
 -3.082270035725568E-005
 -3.090247053366052E-005
 -3.096449930905920E-005
 -3.100481197750207E-005
 -3.102063677438878E-005
 -3.101029658257027E-005
 -3.097294998731022E-005
 -3.090826186374247E-005
 -2.999542267086872E-005
 -3.003863403625282E-005
 -3.010421275915994E-005
 -3.018775584100410E-005
 -3.028419396017447E-005
 -3.038770786091880E-005
 -3.049183077477270E-005
 -3.058980587321025E-005
 -3.067515578404407E-005
 -3.074229047553500E-005
 -3.078692739243287E-005
 -3.080619057298841E-005
 -3.079840648425991E-005
 -3.076272532343859E-005
 -3.069870529605247E-005
 -2.973092598888604E-005
 -2.977322353426232E-005
 -2.983715343174209E-005
 -2.991898083870175E-005
 -3.001420680055032E-005
 -3.011740891269448E-005
 -3.022228511673047E-005
 -3.032201373536262E-005
 -3.040990601316803E-005
 -3.048013269772744E-005
 -3.052822739147149E-005
 -3.055118589286093E-005
 -3.054720478556643E-005
 -3.051524161854840E-005
 -3.045456738349369E-005
 -2.945393852470200E-005
 -2.949429629732295E-005
 -2.955443535343022E-005
 -2.963116972125616E-005
 -2.972056672554612E-005
 -2.981782804639749E-005
 -2.991737107822718E-005
 -3.001315091354869E-005
 -3.009915067731191E-005
 -3.016990224483008E-005
 -3.022089507008558E-005
 -3.024875205858370E-005
 -3.025112823305340E-005
 -3.022639769201355E-005
 -3.017326224144416E-005
 -2.916467061279926E-005
 -2.920237348397289E-005
 -2.925679897564238E-005
 -2.932488841459997E-005
 -2.940297193979903E-005
 -2.948696041962090E-005
 -2.957274634244255E-005
 -2.965648741688563E-005
 -2.973444037198044E-005
 -2.980255649702045E-005
 -2.985641090544061E-005
 -2.989166378108563E-005
 -2.990461851022901E-005
 -2.989240818612897E-005
 -2.985277405118762E-005
 -2.886338404942531E-005
 -2.889810934178445E-005
 -2.894519021589864E-005
 -2.900089606837682E-005
 -2.906120764018607E-005
 -2.912277232024925E-005
 -2.918403982458645E-005
 -2.924534077801816E-005
 -2.930735588947827E-005
 -2.936893067084882E-005
 -2.942601101106498E-005
 -2.947250230446223E-005
 -2.950212980429999E-005
 -2.950977144172611E-005
 -2.949164181828151E-005
 -2.855046581209003E-005
 -2.858226365121715E-005
 -2.862043291652583E-005
 -2.865934662673799E-005
 -2.869391067407430E-005
 -2.872210700573169E-005
 -2.874673231830630E-005
 -2.877428135496344E-005
 -2.881143690379313E-005
 -2.886136165913752E-005
 -2.892143835193074E-005
 -2.898367943490935E-005
 -2.903785424066730E-005
 -2.907499799554785E-005
 -2.908882325149611E-005
 -2.822649693011208E-005
 -2.825567845476288E-005
 -2.828264007973594E-005
 -2.829817924239980E-005
 -2.829632536375504E-005
 -2.827900756548220E-005
 -2.825610611373138E-005
 -2.824080060174309E-005
 -2.824493364677649E-005
 -2.827634541872361E-005
 -2.833634302102893E-005
 -2.841741365395129E-005
 -2.850504368069973E-005
 -2.858399644165120E-005
 -2.864343211175547E-005
 -2.789247938425792E-005
 -2.791909997340201E-005
 -2.792968222078311E-005
 -2.790998737980317E-005
 -2.785734547802387E-005
 -2.778385756220713E-005
 -2.770806849882928E-005
 -2.764653151408284E-005
 -2.761279686639294E-005
 -2.761791260788651E-005
 -2.766932597848461E-005
 -2.776650701839284E-005
 -2.789492725655112E-005
 -2.803088766926036E-005
 -2.815427906890873E-005
 -2.755024508276703E-005
 -2.757232170983482E-005
 -2.755271198902299E-005
 -2.747657167242266E-005
 -2.735824856320121E-005
 -2.722615221736355E-005
 -2.710089171959554E-005
 -2.699680934185145E-005
 -2.692567997580702E-005
 -2.689916794909851E-005
 -2.692973120187747E-005
 -2.702853530006817E-005
 -2.719620217191941E-005
 -2.740549086213008E-005
 -2.761904689442909E-005
 -2.720334203521833E-005
 -2.720868392035938E-005
 -2.712496136261176E-005
 -2.696415472222575E-005
 -2.678036727667214E-005
 -2.659984009022047E-005
 -2.643610774738981E-005
 -2.629853097328456E-005
 -2.619593863976374E-005
 -2.613864803241171E-005
 -2.614028423566054E-005
 -2.621954167270655E-005
 -2.639922788214114E-005
 -2.668957271997854E-005
 -2.703123970640666E-005
 -2.685262160426278E-005
 -2.679462647112112E-005
 -2.657965412132922E-005
 -2.634405652012209E-005
 -2.611617854839588E-005
 -2.590526797832636E-005
 -2.571723596343213E-005
 -2.555778494653959E-005
 -2.543355336242435E-005
 -2.535313770128761E-005
 -2.532866400044279E-005
 -2.537876220845303E-005
 -2.553431019539356E-005
 -2.584730454792101E-005
 -2.637584680018005E-005
 -2.648954472810941E-005
 -2.616521792156994E-005
 -2.587735950324039E-005
 -2.561319237796187E-005
 -2.536878738570683E-005
 -2.514582473995803E-005
 -2.494761066000340E-005
 -2.477856971596385E-005
 -2.464445844168801E-005
 -2.455290138126559E-005
 -2.451465966304988E-005
 -2.454614591672149E-005
 -2.467522232379485E-005
 -2.495728008391205E-005
 -2.553864004542740E-005
SCALARS poroP double 
LOOKUP_TABLE default
  1.740255092918463E-005
  1.739679340992134E-005
  1.738936255742805E-005
  1.738027412136697E-005
  1.736954567741726E-005
  1.735719902723176E-005
  1.734326197376385E-005
  1.732776960246050E-005
  1.731076520151842E-005
  1.729230094343645E-005
  1.727243843280273E-005
  1.725124919852403E-005
  1.722881523673263E-005
  1.720522945397869E-005
  1.718059601473932E-005
  1.740213240765934E-005
  1.739637919641219E-005
  1.738895511186184E-005
  1.737987716366932E-005
  1.736916441569953E-005
  1.735684021848702E-005
  1.734293383106699E-005
  1.732748157700446E-005
  1.731052767776488E-005
  1.729212489095388E-005
  1.727233505544657E-005
  1.725122963149731E-005
  1.722889030169529E-005
  1.720540943930458E-005
  1.718089042027284E-005
  1.740127835443450E-005
  1.739553535344704E-005
  1.738812676061891E-005
  1.737907203817062E-005
  1.736839314528279E-005
  1.735611643306814E-005
  1.734227395957648E-005
  1.732690440112980E-005
  1.731005372312399E-005
  1.729177574520774E-005
  1.727213268821695E-005
  1.725119578615411E-005
  1.722904608082969E-005
  1.720577490468536E-005
  1.718148399693912E-005
  1.739995426815823E-005
  1.739423066658598E-005
  1.738685032032934E-005
  1.737783617481989E-005
  1.736721431748692E-005
  1.735501534927856E-005
  1.734127523926923E-005
  1.732603588279506E-005
  1.730934555401326E-005
  1.729125939015199E-005
  1.727183998592458E-005
  1.725115815638489E-005
  1.722929387658806E-005
  1.720633668022162E-005
  1.718238614149260E-005
  1.739810717356002E-005
  1.739241740497457E-005
  1.738508438953668E-005
  1.737613536115954E-005
  1.736560147618644E-005
  1.735351850842425E-005
  1.733992708899483E-005
  1.732487282874761E-005
  1.730840652386567E-005
  1.729058458461625E-005
  1.727146972970051E-005
  1.725113213278351E-005
  1.722965000971658E-005
  1.720711052179841E-005
  1.718361088667933E-005
  1.739566429150086E-005
  1.739003031793998E-005
  1.738277268227056E-005
  1.737392336013022E-005
  1.736351910606596E-005
  1.735160130526014E-005
  1.733821550077313E-005
  1.732341102462407E-005
  1.730724097827472E-005
  1.728976266035305E-005
  1.727103843161973E-005
  1.725113711602510E-005
  1.723013510956856E-005
  1.720811697307640E-005
  1.718517674260472E-005
  1.739253150736392E-005
  1.738698546266049E-005
  1.737984325743164E-005
  1.737114147780310E-005
  1.736092242803901E-005
  1.734923289564565E-005
  1.733612293586830E-005
  1.732164501275364E-005
  1.730585381761524E-005
  1.728880681409097E-005
  1.727056539837374E-005
  1.725119655426382E-005
  1.723077431963157E-005
  1.720938058739597E-005
  1.718710629390272E-005
  1.738859183465296E-005
  1.738317909346732E-005
  1.737620777523983E-005
  1.736771812479004E-005
  1.735775711640697E-005
  1.734637592579379E-005
  1.733362793085369E-005
  1.731956749007381E-005
  1.730424970682053E-005
  1.728773116695745E-005
  1.727007174704505E-005
  1.725133620906568E-005
  1.723159559853593E-005
  1.721092941341478E-005
  1.718942614279908E-005
  1.738370416376670E-005
  1.737848679525585E-005
  1.737176089997776E-005
  1.736356838193474E-005
  1.735395887585315E-005
  1.734298593174287E-005
  1.733070421041164E-005
  1.731716807727079E-005
  1.730243151378266E-005
  1.728654914926533E-005
  1.726957851136757E-005
  1.725158204156885E-005
  1.723262826414433E-005
  1.721279435162610E-005
  1.719216682491422E-005
  1.737770274181692E-005
  1.737276316598100E-005
  1.736638004438702E-005
  1.735859358561748E-005
  1.734945272653299E-005
  1.733901018879522E-005
  1.732731903754462E-005
  1.731443122578340E-005
  1.730039785276501E-005
  1.728527073198782E-005
  1.726910460840699E-005
  1.725195937052054E-005
  1.723390199060544E-005
  1.721500811932958E-005
  1.719536249883226E-005
  1.737039793922833E-005
  1.736584239310107E-005
  1.735992555223736E-005
  1.735268090406919E-005
  1.734415180926875E-005
  1.733438571855855E-005
  1.732343047835686E-005
  1.731133294792597E-005
  1.729813966200811E-005
  1.728389888578906E-005
  1.726866290573426E-005
  1.725248979649902E-005
  1.723544556383765E-005
  1.721760474600484E-005
  1.719905067898157E-005
  1.736157902680354E-005
  1.735754016514210E-005
  1.735224143946899E-005
  1.734570276020955E-005
  1.733795544543402E-005
  1.732903614042570E-005
  1.731898330823410E-005
  1.730783613346019E-005
  1.729563535684918E-005
  1.728242566695687E-005
  1.726825777575319E-005
  1.725318906653033E-005
  1.723728459175793E-005
  1.722061797085499E-005
  1.720327172284238E-005
  1.735101985623758E-005
  1.734765740745982E-005
  1.734315682240494E-005
  1.733751595389222E-005
  1.733074621263878E-005
  1.732286711740478E-005
  1.731390342945790E-005
  1.730388450824033E-005
  1.729284505533331E-005
  1.728082708471688E-005
  1.726788080724852E-005
  1.725406331194145E-005
  1.723943913975010E-005
  1.722408082744865E-005
  1.720806879361573E-005
  1.733848845948339E-005
  1.733598638919421E-005
  1.733248821140336E-005
  1.732796039392116E-005
  1.732238581854782E-005
  1.731576026030154E-005
  1.730809077587803E-005
  1.729939542532891E-005
  1.728970372926881E-005
  1.727905687797633E-005
  1.726750528891594E-005
  1.725510614319598E-005
  1.724192305119879E-005
  1.722802499634423E-005
  1.721348696343012E-005
  1.732376152204332E-005
  1.732231983011874E-005
  1.732004300501121E-005
  1.731685765711132E-005
  1.731270992477240E-005
  1.730756560919268E-005
  1.730141074536148E-005
  1.729425152476632E-005
  1.728611395811050E-005
  1.727704055215563E-005
  1.726708247769207E-005
  1.725629635342372E-005
  1.724474183032624E-005
  1.723247905559347E-005
  1.721957153574087E-005
  1.730664393418530E-005
  1.730646354853400E-005
  1.730562493781221E-005
  1.730401012956256E-005
  1.730152267521235E-005
  1.729809345677925E-005
  1.729368499062549E-005
  1.728829203129872E-005
  1.728193917337963E-005
  1.727467055248101E-005
  1.726653795081467E-005
  1.725759487636657E-005
  1.724789004878138E-005
  1.723746597789375E-005
  1.722636548078570E-005
  1.728699331790635E-005
  1.728825278438864E-005
  1.728904257869270E-005
  1.728920238418957E-005
  1.728859249151698E-005
  1.728710685272959E-005
  1.728468293150018E-005
  1.728130489851572E-005
  1.727699628519267E-005
  1.727180102251241E-005
  1.726576849937006E-005
  1.725894183288068E-005
  1.725134785462248E-005
  1.724299900963846E-005
  1.723390547173691E-005
  1.726474762640838E-005
  1.726757269789337E-005
  1.727012240463243E-005
  1.727220718330306E-005
  1.727365179624874E-005
  1.727431677726259E-005
  1.727411552590252E-005
  1.727302123668090E-005
  1.727105183299821E-005
  1.726824493598149E-005
  1.726463883635044E-005
  1.726025226187554E-005
  1.725507506847645E-005
  1.724907503526106E-005
  1.724221656271211E-005
  1.723995136543586E-005
  1.724438139742583E-005
  1.724872848306982E-005
  1.725279957923738E-005
  1.725640450263209E-005
  1.725938390125483E-005
  1.726163385187393E-005
  1.726311236628066E-005
  1.726381937068795E-005
  1.726377176982647E-005
  1.726297702199311E-005
  1.726140849689962E-005
  1.725900146597942E-005
  1.725566509846401E-005
  1.725130591563584E-005
  1.721277359932170E-005
  1.721873201058591E-005
  1.722478733171113E-005
  1.723078136819235E-005
  1.723654661953018E-005
  1.724193408286036E-005
  1.724683770865615E-005
  1.725119298158547E-005
  1.725495985239342E-005
  1.725810342282151E-005
  1.726056511767107E-005
  1.726224666800557E-005
  1.726301229250554E-005
  1.726270257294116E-005
  1.726115655398609E-005
  1.718350859997149E-005
  1.719078476302158E-005
  1.719831230247559E-005
  1.720601559066136E-005
  1.721380494397005E-005
  1.722159386189125E-005
  1.722930216624355E-005
  1.723683765453051E-005
  1.724408565921720E-005
  1.725090432475937E-005
  1.725712016594031E-005
  1.726253437428417E-005
  1.726692844607365E-005
  1.727006956368623E-005
  1.727172179016128E-005
  1.715255558233270E-005
  1.716080178831689E-005
  1.716941660830321E-005
  1.717846325271182E-005
  1.718799431443370E-005
  1.719805484949620E-005
  1.720863496243378E-005
  1.721961645969157E-005
  1.723076440437494E-005
  1.724176040284388E-005
  1.725226112085197E-005
  1.726193810428864E-005
  1.727048114980826E-005
  1.727758200936562E-005
  1.728292168564959E-005
  1.712038002681878E-005
  1.712911821232637E-005
  1.713831296330068E-005
  1.714821216644052E-005
  1.715908394934473E-005
  1.717117140840328E-005
  1.718457613932150E-005
  1.719915641649877E-005
  1.721452557347499E-005
  1.723014643202012E-005
  1.724546237926939E-005
  1.725998114462852E-005
  1.727328270138626E-005
  1.728497401161329E-005
  1.729463806252437E-005
  1.708744580053931E-005
  1.709609277521292E-005
  1.710527954021495E-005
  1.711548964057580E-005
  1.712727057666875E-005
  1.714108720056950E-005
  1.715713164195934E-005
  1.717522953266388E-005
  1.719488536647234E-005
  1.721539801228547E-005
  1.723600162819218E-005
  1.725599389544813E-005
  1.727478945550723E-005
  1.729187376773096E-005
  1.730670768866605E-005
  1.705411849115876E-005
  1.706201426338181E-005
  1.707060195934730E-005
  1.708066506047922E-005
  1.709304843883160E-005
  1.710834054028697E-005
  1.712668131233196E-005
  1.714786408690284E-005
  1.717143959159955E-005
  1.719674601292714E-005
  1.722292996273373E-005
  1.724904971271474E-005
  1.727423768646163E-005
  1.729775870936966E-005
  1.731891040122419E-005
  1.702072339474908E-005
  1.702704920324463E-005
  1.703452761919421E-005
  1.704428537307813E-005
  1.705726732143084E-005
  1.707384150982248E-005
  1.709395394598570E-005
  1.711743391102763E-005
  1.714407024380477E-005
  1.717351455991876E-005
  1.720512482330097E-005
  1.723788082354788E-005
  1.727052576573480E-005
  1.730188221420620E-005
  1.733094141451588E-005
  1.698745492074543E-005
  1.699128752052816E-005
  1.699743825168418E-005
  1.700724847495146E-005
  1.702104074728062E-005
  1.703862241174149E-005
  1.705983508735480E-005
  1.708465867654222E-005
  1.711319183106302E-005
  1.714553868178465E-005
  1.718161400037801E-005
  1.722086976515006E-005
  1.726199828563126E-005
  1.730306504012750E-005
  1.734236884165617E-005
  1.695427316682586E-005
  1.695488341577014E-005
  1.696041014996091E-005
  1.697083586014260E-005
  1.698534280162420E-005
  1.700346993461176E-005
  1.702512988351912E-005
  1.705047199124639E-005
  1.707980085267472E-005
  1.711357457564990E-005
  1.715235651536939E-005
  1.719659563362879E-005
  1.724615622860970E-005
  1.729927417470965E-005
  1.735241980307616E-005
  1.692066980466462E-005
  1.691946825451033E-005
  1.692532346222258E-005
  1.693594522482945E-005
  1.695057223510006E-005
  1.696877412645089E-005
  1.699045936377241E-005
  1.701580263670243E-005
  1.704518236893278E-005
  1.707921871799554E-005
  1.711886540278149E-005
  1.716545385194188E-005
  1.722062620705448E-005
  1.728604597144151E-005
  1.735927201708890E-005
  1.689180333519977E-005
  1.688859004719328E-005
  1.689270765048072E-005
  1.690252519054997E-005
  1.691675257394180E-005
  1.693475347960539E-005
  1.695627530417548E-005
  1.698138976581903E-005
  1.701047420662652E-005
  1.704421369290617E-005
  1.708364972913402E-005
  1.713042903416215E-005
  1.718729816800675E-005
  1.725903281179834E-005
  1.735612347373390E-005
SCALARS elementIsPlast double 
LOOKUP_TABLE default
   1.00000000000000     
   1.00000000000000     
   1.00000000000000     
   1.00000000000000     
   1.00000000000000     
   1.00000000000000     
   1.00000000000000     
   1.00000000000000     
   1.00000000000000     
   1.00000000000000     
   1.00000000000000     
   1.00000000000000     
   1.00000000000000     
   1.00000000000000     
   1.00000000000000     
   1.00000000000000     
   1.00000000000000     
   1.00000000000000     
   1.00000000000000     
   1.00000000000000     
   1.00000000000000     
   1.00000000000000     
   1.00000000000000     
   1.00000000000000     
   1.00000000000000     
   1.00000000000000     
   1.00000000000000     
   1.00000000000000     
   1.00000000000000     
   1.00000000000000     
   1.00000000000000     
   1.00000000000000     
   1.00000000000000     
   1.00000000000000     
   1.00000000000000     
   1.00000000000000     
   1.00000000000000     
   1.00000000000000     
   1.00000000000000     
   1.00000000000000     
   1.00000000000000     
   1.00000000000000     
   1.00000000000000     
   1.00000000000000     
   1.00000000000000     
   1.00000000000000     
   1.00000000000000     
   1.00000000000000     
   1.00000000000000     
   1.00000000000000     
   1.00000000000000     
   1.00000000000000     
   1.00000000000000     
   1.00000000000000     
   1.00000000000000     
   1.00000000000000     
   1.00000000000000     
   1.00000000000000     
   1.00000000000000     
   1.00000000000000     
   1.00000000000000     
   1.00000000000000     
   1.00000000000000     
   1.00000000000000     
   1.00000000000000     
   1.00000000000000     
   1.00000000000000     
   1.00000000000000     
   1.00000000000000     
   1.00000000000000     
   1.00000000000000     
   1.00000000000000     
   1.00000000000000     
   1.00000000000000     
   1.00000000000000     
   1.00000000000000     
   1.00000000000000     
   1.00000000000000     
   1.00000000000000     
   1.00000000000000     
   1.00000000000000     
   1.00000000000000     
   1.00000000000000     
   1.00000000000000     
   1.00000000000000     
   1.00000000000000     
   1.00000000000000     
   1.00000000000000     
   1.00000000000000     
   1.00000000000000     
   1.00000000000000     
   1.00000000000000     
   1.00000000000000     
   1.00000000000000     
   1.00000000000000     
   1.00000000000000     
   1.00000000000000     
   1.00000000000000     
   1.00000000000000     
   1.00000000000000     
   1.00000000000000     
   1.00000000000000     
   1.00000000000000     
   1.00000000000000     
   1.00000000000000     
   1.00000000000000     
   1.00000000000000     
   1.00000000000000     
   1.00000000000000     
   1.00000000000000     
   1.00000000000000     
   1.00000000000000     
   1.00000000000000     
   1.00000000000000     
   1.00000000000000     
   1.00000000000000     
   1.00000000000000     
   1.00000000000000     
   1.00000000000000     
   1.00000000000000     
   1.00000000000000     
   1.00000000000000     
   1.00000000000000     
   1.00000000000000     
   1.00000000000000     
   1.00000000000000     
   1.00000000000000     
   1.00000000000000     
   1.00000000000000     
   1.00000000000000     
   1.00000000000000     
   1.00000000000000     
   1.00000000000000     
   1.00000000000000     
   1.00000000000000     
   1.00000000000000     
   1.00000000000000     
   1.00000000000000     
   1.00000000000000     
   1.00000000000000     
   1.00000000000000     
   1.00000000000000     
   1.00000000000000     
   1.00000000000000     
   1.00000000000000     
   1.00000000000000     
   1.00000000000000     
   1.00000000000000     
   1.00000000000000     
   1.00000000000000     
   1.00000000000000     
   1.00000000000000     
   1.00000000000000     
   1.00000000000000     
   1.00000000000000     
   1.00000000000000     
   1.00000000000000     
   1.00000000000000     
   1.00000000000000     
   1.00000000000000     
   1.00000000000000     
   1.00000000000000     
   1.00000000000000     
   1.00000000000000     
   1.00000000000000     
   1.00000000000000     
   1.00000000000000     
   1.00000000000000     
   1.00000000000000     
   1.00000000000000     
   1.00000000000000     
   1.00000000000000     
   1.00000000000000     
   1.00000000000000     
   1.00000000000000     
   1.00000000000000     
   1.00000000000000     
   1.00000000000000     
   1.00000000000000     
   1.00000000000000     
   1.00000000000000     
   1.00000000000000     
   1.00000000000000     
   1.00000000000000     
   1.00000000000000     
   1.00000000000000     
   1.00000000000000     
   1.00000000000000     
   1.00000000000000     
   1.00000000000000     
   1.00000000000000     
   1.00000000000000     
   1.00000000000000     
   1.00000000000000     
   1.00000000000000     
   1.00000000000000     
   1.00000000000000     
   1.00000000000000     
   1.00000000000000     
   1.00000000000000     
   1.00000000000000     
   1.00000000000000     
   1.00000000000000     
   1.00000000000000     
   1.00000000000000     
   1.00000000000000     
   1.00000000000000     
   1.00000000000000     
   1.00000000000000     
   1.00000000000000     
   1.00000000000000     
   1.00000000000000     
   1.00000000000000     
   1.00000000000000     
   1.00000000000000     
   1.00000000000000     
   1.00000000000000     
   1.00000000000000     
   1.00000000000000     
   1.00000000000000     
   1.00000000000000     
   1.00000000000000     
   1.00000000000000     
   1.00000000000000     
   1.00000000000000     
   1.00000000000000     
   1.00000000000000     
   1.00000000000000     
   1.00000000000000     
   1.00000000000000     
   1.00000000000000     
   1.00000000000000     
   1.00000000000000     
   1.00000000000000     
   1.00000000000000     
   1.00000000000000     
   1.00000000000000     
   1.00000000000000     
   1.00000000000000     
   1.00000000000000     
   1.00000000000000     
   1.00000000000000     
   1.00000000000000     
   1.00000000000000     
   1.00000000000000     
   1.00000000000000     
   1.00000000000000     
   1.00000000000000     
   1.00000000000000     
   1.00000000000000     
   1.00000000000000     
   1.00000000000000     
   1.00000000000000     
   1.00000000000000     
   1.00000000000000     
   1.00000000000000     
   1.00000000000000     
   1.00000000000000     
   1.00000000000000     
   1.00000000000000     
   1.00000000000000     
   1.00000000000000     
   1.00000000000000     
   1.00000000000000     
   1.00000000000000     
   1.00000000000000     
   1.00000000000000     
   1.00000000000000     
   1.00000000000000     
   1.00000000000000     
   1.00000000000000     
   1.00000000000000     
   1.00000000000000     
   1.00000000000000     
   1.00000000000000     
   1.00000000000000     
   1.00000000000000     
   1.00000000000000     
   1.00000000000000     
   1.00000000000000     
   1.00000000000000     
   1.00000000000000     
   1.00000000000000     
   1.00000000000000     
   1.00000000000000     
   1.00000000000000     
   1.00000000000000     
   1.00000000000000     
   1.00000000000000     
   1.00000000000000     
   1.00000000000000     
   1.00000000000000     
   1.00000000000000     
   1.00000000000000     
   1.00000000000000     
   1.00000000000000     
   1.00000000000000     
   1.00000000000000     
   1.00000000000000     
   1.00000000000000     
   1.00000000000000     
   1.00000000000000     
   1.00000000000000     
   1.00000000000000     
   1.00000000000000     
   1.00000000000000     
   1.00000000000000     
   1.00000000000000     
   1.00000000000000     
   1.00000000000000     
   1.00000000000000     
   1.00000000000000     
   1.00000000000000     
   1.00000000000000     
   1.00000000000000     
   1.00000000000000     
   1.00000000000000     
   1.00000000000000     
   1.00000000000000     
   1.00000000000000     
   1.00000000000000     
   1.00000000000000     
   1.00000000000000     
   1.00000000000000     
   1.00000000000000     
   1.00000000000000     
   1.00000000000000     
   1.00000000000000     
   1.00000000000000     
   1.00000000000000     
   1.00000000000000     
   1.00000000000000     
   1.00000000000000     
   1.00000000000000     
   1.00000000000000     
   1.00000000000000     
   1.00000000000000     
   1.00000000000000     
   1.00000000000000     
   1.00000000000000     
   1.00000000000000     
   1.00000000000000     
   1.00000000000000     
   1.00000000000000     
   1.00000000000000     
   1.00000000000000     
   1.00000000000000     
   1.00000000000000     
   1.00000000000000     
   1.00000000000000     
   1.00000000000000     
   1.00000000000000     
   1.00000000000000     
   1.00000000000000     
   1.00000000000000     
   1.00000000000000     
   1.00000000000000     
   1.00000000000000     
   1.00000000000000     
   1.00000000000000     
   1.00000000000000     
   1.00000000000000     
   1.00000000000000     
   1.00000000000000     
   1.00000000000000     
   1.00000000000000     
   1.00000000000000     
   1.00000000000000     
   1.00000000000000     
   1.00000000000000     
   1.00000000000000     
   1.00000000000000     
   1.00000000000000     
   1.00000000000000     
   1.00000000000000     
   1.00000000000000     
   1.00000000000000     
   1.00000000000000     
   1.00000000000000     
   1.00000000000000     
   1.00000000000000     
   1.00000000000000     
   1.00000000000000     
   1.00000000000000     
   1.00000000000000     
   1.00000000000000     
   1.00000000000000     
   1.00000000000000     
   1.00000000000000     
   1.00000000000000     
   1.00000000000000     
   1.00000000000000     
   1.00000000000000     
   1.00000000000000     
   1.00000000000000     
   1.00000000000000     
   1.00000000000000     
   1.00000000000000     
   1.00000000000000     
   1.00000000000000     
   1.00000000000000     
   1.00000000000000     
   1.00000000000000     
   1.00000000000000     
   1.00000000000000     
   1.00000000000000     
   1.00000000000000     
   1.00000000000000     
   1.00000000000000     
   1.00000000000000     
   1.00000000000000     
   1.00000000000000     
   1.00000000000000     
   1.00000000000000     
   1.00000000000000     
   1.00000000000000     
   1.00000000000000     
   1.00000000000000     
   1.00000000000000     
   1.00000000000000     
   1.00000000000000     
   1.00000000000000     
   1.00000000000000     
   1.00000000000000     
   1.00000000000000     
   1.00000000000000     
   1.00000000000000     
   1.00000000000000     
   1.00000000000000     
   1.00000000000000     
   1.00000000000000     
   1.00000000000000     
   1.00000000000000     
   1.00000000000000     
   1.00000000000000     
   1.00000000000000     
   1.00000000000000     
   1.00000000000000     
   1.00000000000000     
   1.00000000000000     
   1.00000000000000     
   1.00000000000000     
   1.00000000000000     
   1.00000000000000     
   1.00000000000000     
   1.00000000000000     
   1.00000000000000     
   1.00000000000000     
   1.00000000000000     
   1.00000000000000     
SCALARS poroL double 
LOOKUP_TABLE default
  0.155789975018163     
  0.155789970915664     
  0.155789966599454     
  0.155789962016093     
  0.155789957116301     
  0.155789951857090     
  0.155789946203429     
  0.155789940129656     
  0.155789933620806     
  0.155789926673989     
  0.155789919299929     
  0.155789911524721     
  0.155789903391908     
  0.155789894964620     
  0.155789886328192     
  0.155789972355152     
  0.155789968278684     
  0.155789964007725     
  0.155789959484038     
  0.155789954654108     
  0.155789949471218     
  0.155789943897069     
  0.155789937903146     
  0.155789931472019     
  0.155789924598688     
  0.155789917292103     
  0.155789909576902     
  0.155789901495456     
  0.155789893110033     
  0.155789884505200     
  0.155789967013237     
  0.155789962989885     
  0.155789958810377     
  0.155789954406870     
  0.155789949717360     
  0.155789944687646     
  0.155789939272857     
  0.155789933438737     
  0.155789927162874     
  0.155789920436000     
  0.155789913263448     
  0.155789905666888     
  0.155789897686335     
  0.155789889382318     
  0.155789880837998     
  0.155789958960159     
  0.155789955019141     
  0.155789950979237     
  0.155789946758133     
  0.155789942281037     
  0.155789937482462     
  0.155789932307598     
  0.155789926713472     
  0.155789920670082     
  0.155789914161619     
  0.155789907187890     
  0.155789899765950     
  0.155789891932315     
  0.155789883744651     
  0.155789875284086     
  0.155789948146219     
  0.155789944320188     
  0.155789940471106     
  0.155789936497314     
  0.155789932306881     
  0.155789927819167     
  0.155789922965962     
  0.155789917692478     
  0.155789911958356     
  0.155789905738815     
  0.155789899026004     
  0.155789891831005     
  0.155789884184824     
  0.155789876141290     
  0.155789867779680     
  0.155789934502895     
  0.155789930829442     
  0.155789927226740     
  0.155789923568934     
  0.155789919742594     
  0.155789915647973     
  0.155789911199876     
  0.155789906328431     
  0.155789900979951     
  0.155789895117999     
  0.155789888724787     
  0.155789881803014     
  0.155789874377658     
  0.155789866497985     
  0.155789858240085     
  0.155789917941218     
  0.155789914464577     
  0.155789911169602     
  0.155789907901456     
  0.155789904520864     
  0.155789900904935     
  0.155789896947744     
  0.155789892560838     
  0.155789887673958     
  0.155789882236107     
  0.155789876216930     
  0.155789869608843     
  0.155789862429082     
  0.155789854721514     
  0.155789846559375     
  0.155789898350108     
  0.155789895123157     
  0.155789892204658     
  0.155789889406182     
  0.155789886558329     
  0.155789883510986     
  0.155789880133532     
  0.155789876315151     
  0.155789871965444     
  0.155789867015541     
  0.155789861420152     
  0.155789855158849     
  0.155789848239084     
  0.155789840699137     
  0.155789832610152     
  0.155789875594950     
  0.155789872681438     
  0.155789870217267     
  0.155789867976218     
  0.155789865754603     
  0.155789863370933     
  0.155789860665704     
  0.155789857501593     
  0.155789853764145     
  0.155789849362997     
  0.155789844234501     
  0.155789838343797     
  0.155789831687586     
  0.155789824297462     
  0.155789816242978     
  0.155789849516914     
  0.155789846993828     
  0.155789845072635     
  0.155789843485787     
  0.155789841991431     
  0.155789840372453     
  0.155789838435990     
  0.155789836013642     
  0.155789832962524     
  0.155789829167251     
  0.155789824542442     
  0.155789819036145     
  0.155789812633638     
  0.155789805360445     
  0.155789797285376     
  0.155789819933554     
  0.155789817893387     
  0.155789816616070     
  0.155789815790172     
  0.155789815132193     
  0.155789814385109     
  0.155789813317860     
  0.155789811725971     
  0.155789809433373     
  0.155789806295436     
  0.155789802202425     
  0.155789797083808     
  0.155789790912612     
  0.155789783708992     
  0.155789775542029     
  0.155789786641453     
  0.155789785193995     
  0.155789784674528     
  0.155789784726452     
  0.155789785021778     
  0.155789785259291     
  0.155789785164557     
  0.155789784491605     
  0.155789783026101     
  0.155789780590232     
  0.155789777047545     
  0.155789772308029     
  0.155789766332439     
  0.155789759136667     
  0.155789750792872     
  0.155789749421896     
  0.155789748694909     
  0.155789749059920     
  0.155789750115482     
  0.155789751487031     
  0.155789752825082     
  0.155789753806427     
  0.155789754137902     
  0.155789753561918     
  0.155789751863959     
  0.155789748878861     
  0.155789744496837     
  0.155789738668653     
  0.155789731408903     
  0.155789722794410     
  0.155789708050615     
  0.155789708188461     
  0.155789709574716     
  0.155789711765215     
  0.155789714337736     
  0.155789716890865     
  0.155789719047326     
  0.155789720461033     
  0.155789720826647     
  0.155789719890052     
  0.155789717456803     
  0.155789713399570     
  0.155789707662771     
  0.155789700262981     
  0.155789691283030     
  0.155789662312815     
  0.155789663471524     
  0.155789666020224     
  0.155789669475673     
  0.155789673368118     
  0.155789677241433     
  0.155789680659612     
  0.155789683218506     
  0.155789684561449     
  0.155789684393976     
  0.155789682494347     
  0.155789678721364     
  0.155789673019056     
  0.155789665409445     
  0.155789655981189     
  0.155789612023410     
  0.155789614361196     
  0.155789618207637     
  0.155789623045541     
  0.155789628358883     
  0.155789633635422     
  0.155789638377406     
  0.155789642119441     
  0.155789644452827     
  0.155789645043371     
  0.155789643646734     
  0.155789640117174     
  0.155789634404003     
  0.155789626537285     
  0.155789616608035     
  0.155789557052281     
  0.155789560713482     
  0.155789565971613     
  0.155789572280270     
  0.155789579079678     
  0.155789585802057     
  0.155789591887701     
  0.155789596811431     
  0.155789600114925     
  0.155789601430921     
  0.155789600501939     
  0.155789597187814     
  0.155789591449258     
  0.155789583323230     
  0.155789572894643     
  0.155789497353353     
  0.155789502444598     
  0.155789509184441     
  0.155789517000538     
  0.155789525291551     
  0.155789533436950     
  0.155789540819600     
  0.155789546864790     
  0.155789551074671     
  0.155789553061360     
  0.155789552571264     
  0.155789549479082     
  0.155789543758318     
  0.155789535444835     
  0.155789524602063     
  0.155789432990426     
  0.155789439551788     
  0.155789447771280     
  0.155789457050827     
  0.155789466747494     
  0.155789476193468     
  0.155789484729994     
  0.155789491752754     
  0.155789496748832     
  0.155789499336407     
  0.155789499284064     
  0.155789496485077     
  0.155789490916793     
  0.155789482595023     
  0.155789471538557     
  0.155789364157155     
  0.155789372128394     
  0.155789381722337     
  0.155789392305909     
  0.155789403191385     
  0.155789413673702     
  0.155789423083584     
  0.155789430827242     
  0.155789436425017     
  0.155789439544435     
  0.155789439987948     
  0.155789437656484     
  0.155789432504188     
  0.155789424495090     
  0.155789413573026     
  0.155789291171173     
  0.155789300371294     
  0.155789311099643     
  0.155789322669711     
  0.155789334346806     
  0.155789345412177     
  0.155789355232191     
  0.155789363299919     
  0.155789369255002     
  0.155789372862222     
  0.155789373956843     
  0.155789372409992     
  0.155789368102474     
  0.155789360900588     
  0.155789350638498     
  0.155789214468933     
  0.155789224571107     
  0.155789236025101     
  0.155789248059930     
  0.155789259897512     
  0.155789270843867     
  0.155789280389861     
  0.155789288240908     
  0.155789294267892     
  0.155789298373585     
  0.155789300403097     
  0.155789300131248     
  0.155789297291581     
  0.155789291595898     
  0.155789282724223     
  0.155789134577439     
  0.155789145094065     
  0.155789156647693     
  0.155789168374122     
  0.155789179435881     
  0.155789189261052     
  0.155789197626297     
  0.155789204618551     
  0.155789210426823     
  0.155789215111036     
  0.155789218488604     
  0.155789220162093     
  0.155789219628380     
  0.155789216367193     
  0.155789209858303     
  0.155789051957967     
  0.155789062285961     
  0.155789073100927     
  0.155789083399598     
  0.155789092384354     
  0.155789099785259     
  0.155789105922533     
  0.155789111399611     
  0.155789116732566     
  0.155789122115897     
  0.155789127328398     
  0.155789131762931     
  0.155789134591791     
  0.155789134961396     
  0.155789132084402     
  0.155788966952992     
  0.155788976291904     
  0.155788985305083     
  0.155788992655988     
  0.155788997868633     
  0.155789001401086     
  0.155789004330660     
  0.155789007737554     
  0.155789012369820     
  0.155789018526168     
  0.155789026001474     
  0.155789034053369     
  0.155789041490774     
  0.155789047007537     
  0.155789049407552     
  0.155788879989744     
  0.155788887153581     
  0.155788892654145     
  0.155788895052625     
  0.155788894651864     
  0.155788893142692     
  0.155788892220834     
  0.155788893183101     
  0.155788896862638     
  0.155788903682934     
  0.155788913600391     
  0.155788925938662     
  0.155788939333099     
  0.155788951864146     
  0.155788961739241     
  0.155788791280989     
  0.155788794485392     
  0.155788793804697     
  0.155788788673895     
  0.155788781380633     
  0.155788774389444     
  0.155788769482307     
  0.155788767819907     
  0.155788770232420     
  0.155788777299388     
  0.155788789323422     
  0.155788806153541     
  0.155788826600873     
  0.155788848444267     
  0.155788868714149     
  0.155788700531102     
  0.155788696528969     
  0.155788685598114     
  0.155788671371771     
  0.155788657143014     
  0.155788645069783     
  0.155788636471015     
  0.155788632232280     
  0.155788633073322     
  0.155788639699489     
  0.155788652859853     
  0.155788673284370     
  0.155788701293500     
  0.155788734596433     
  0.155788769732995     
  0.155788606090377     
  0.155788587134319     
  0.155788564482045     
  0.155788541648022     
  0.155788521606600     
  0.155788505461985     
  0.155788493828303     
  0.155788487291528     
  0.155788486416600     
  0.155788491918958     
  0.155788504879929     
  0.155788526884611     
  0.155788560087020     
  0.155788607327669     
  0.155788661799073     
  0.155788492981751     
  0.155788461112787     
  0.155788427915453     
  0.155788398914753     
  0.155788374843809     
  0.155788355913209     
  0.155788342218517     
  0.155788333903042     
  0.155788331363844     
  0.155788335346330     
  0.155788347042328     
  0.155788368391384     
  0.155788402790231     
  0.155788456606269     
  0.155788546907890     
