# vtk DataFile Version 3.0
vtk output
ASCII
DATASET UNSTRUCTURED_GRID
POINTS       496 double 
  0.00000000E+00  3.00000000E+02  0.00000000E+00
  0.00000000E+00  2.80000000E+02  0.00000000E+00
  0.00000000E+00  2.60000000E+02  0.00000000E+00
  0.00000000E+00  2.40000000E+02  0.00000000E+00
  0.00000000E+00  2.20000000E+02  0.00000000E+00
  0.00000000E+00  2.00000000E+02  0.00000000E+00
  0.00000000E+00  1.80000000E+02  0.00000000E+00
  0.00000000E+00  1.60000000E+02  0.00000000E+00
  0.00000000E+00  1.40000000E+02  0.00000000E+00
  0.00000000E+00  1.20000000E+02  0.00000000E+00
  0.00000000E+00  1.00000000E+02  0.00000000E+00
  0.00000000E+00  8.00000000E+01  0.00000000E+00
  0.00000000E+00  6.00000000E+01  0.00000000E+00
  0.00000000E+00  4.00000000E+01  0.00000000E+00
  0.00000000E+00  2.00000000E+01  0.00000000E+00
  0.00000000E+00  4.99600361E-14  0.00000000E+00
  2.00000000E+01  3.00000000E+02  0.00000000E+00
  2.00000000E+01  2.80000000E+02  0.00000000E+00
  2.00000000E+01  2.60000000E+02  0.00000000E+00
  2.00000000E+01  2.40000000E+02  0.00000000E+00
  2.00000000E+01  2.20000000E+02  0.00000000E+00
  2.00000000E+01  2.00000000E+02  0.00000000E+00
  2.00000000E+01  1.80000000E+02  0.00000000E+00
  2.00000000E+01  1.60000000E+02  0.00000000E+00
  2.00000000E+01  1.40000000E+02  0.00000000E+00
  2.00000000E+01  1.20000000E+02  0.00000000E+00
  2.00000000E+01  1.00000000E+02  0.00000000E+00
  2.00000000E+01  8.00000000E+01  0.00000000E+00
  2.00000000E+01  6.00000000E+01  0.00000000E+00
  2.00000000E+01  4.00000000E+01  0.00000000E+00
  2.00000000E+01  2.00000000E+01  0.00000000E+00
  2.00000000E+01  4.99600361E-14  0.00000000E+00
  4.00000000E+01  3.00000000E+02  0.00000000E+00
  4.00000000E+01  2.80000000E+02  0.00000000E+00
  4.00000000E+01  2.60000000E+02  0.00000000E+00
  4.00000000E+01  2.40000000E+02  0.00000000E+00
  4.00000000E+01  2.20000000E+02  0.00000000E+00
  4.00000000E+01  2.00000000E+02  0.00000000E+00
  4.00000000E+01  1.80000000E+02  0.00000000E+00
  4.00000000E+01  1.60000000E+02  0.00000000E+00
  4.00000000E+01  1.40000000E+02  0.00000000E+00
  4.00000000E+01  1.20000000E+02  0.00000000E+00
  4.00000000E+01  1.00000000E+02  0.00000000E+00
  4.00000000E+01  8.00000000E+01  0.00000000E+00
  4.00000000E+01  6.00000000E+01  0.00000000E+00
  4.00000000E+01  4.00000000E+01  0.00000000E+00
  4.00000000E+01  2.00000000E+01  0.00000000E+00
  4.00000000E+01  4.99600361E-14  0.00000000E+00
  6.00000000E+01  3.00000000E+02  0.00000000E+00
  6.00000000E+01  2.80000000E+02  0.00000000E+00
  6.00000000E+01  2.60000000E+02  0.00000000E+00
  6.00000000E+01  2.40000000E+02  0.00000000E+00
  6.00000000E+01  2.20000000E+02  0.00000000E+00
  6.00000000E+01  2.00000000E+02  0.00000000E+00
  6.00000000E+01  1.80000000E+02  0.00000000E+00
  6.00000000E+01  1.60000000E+02  0.00000000E+00
  6.00000000E+01  1.40000000E+02  0.00000000E+00
  6.00000000E+01  1.20000000E+02  0.00000000E+00
  6.00000000E+01  1.00000000E+02  0.00000000E+00
  6.00000000E+01  8.00000000E+01  0.00000000E+00
  6.00000000E+01  6.00000000E+01  0.00000000E+00
  6.00000000E+01  4.00000000E+01  0.00000000E+00
  6.00000000E+01  2.00000000E+01  0.00000000E+00
  6.00000000E+01  4.99600361E-14  0.00000000E+00
  8.00000000E+01  3.00000000E+02  0.00000000E+00
  8.00000000E+01  2.80000000E+02  0.00000000E+00
  8.00000000E+01  2.60000000E+02  0.00000000E+00
  8.00000000E+01  2.40000000E+02  0.00000000E+00
  8.00000000E+01  2.20000000E+02  0.00000000E+00
  8.00000000E+01  2.00000000E+02  0.00000000E+00
  8.00000000E+01  1.80000000E+02  0.00000000E+00
  8.00000000E+01  1.60000000E+02  0.00000000E+00
  8.00000000E+01  1.40000000E+02  0.00000000E+00
  8.00000000E+01  1.20000000E+02  0.00000000E+00
  8.00000000E+01  1.00000000E+02  0.00000000E+00
  8.00000000E+01  8.00000000E+01  0.00000000E+00
  8.00000000E+01  6.00000000E+01  0.00000000E+00
  8.00000000E+01  4.00000000E+01  0.00000000E+00
  8.00000000E+01  2.00000000E+01  0.00000000E+00
  8.00000000E+01  4.99600361E-14  0.00000000E+00
  1.00000000E+02  3.00000000E+02  0.00000000E+00
  1.00000000E+02  2.80000000E+02  0.00000000E+00
  1.00000000E+02  2.60000000E+02  0.00000000E+00
  1.00000000E+02  2.40000000E+02  0.00000000E+00
  1.00000000E+02  2.20000000E+02  0.00000000E+00
  1.00000000E+02  2.00000000E+02  0.00000000E+00
  1.00000000E+02  1.80000000E+02  0.00000000E+00
  1.00000000E+02  1.60000000E+02  0.00000000E+00
  1.00000000E+02  1.40000000E+02  0.00000000E+00
  1.00000000E+02  1.20000000E+02  0.00000000E+00
  1.00000000E+02  1.00000000E+02  0.00000000E+00
  1.00000000E+02  8.00000000E+01  0.00000000E+00
  1.00000000E+02  6.00000000E+01  0.00000000E+00
  1.00000000E+02  4.00000000E+01  0.00000000E+00
  1.00000000E+02  2.00000000E+01  0.00000000E+00
  1.00000000E+02  4.99600361E-14  0.00000000E+00
  1.20000000E+02  3.00000000E+02  0.00000000E+00
  1.20000000E+02  2.80000000E+02  0.00000000E+00
  1.20000000E+02  2.60000000E+02  0.00000000E+00
  1.20000000E+02  2.40000000E+02  0.00000000E+00
  1.20000000E+02  2.20000000E+02  0.00000000E+00
  1.20000000E+02  2.00000000E+02  0.00000000E+00
  1.20000000E+02  1.80000000E+02  0.00000000E+00
  1.20000000E+02  1.60000000E+02  0.00000000E+00
  1.20000000E+02  1.40000000E+02  0.00000000E+00
  1.20000000E+02  1.20000000E+02  0.00000000E+00
  1.20000000E+02  1.00000000E+02  0.00000000E+00
  1.20000000E+02  8.00000000E+01  0.00000000E+00
  1.20000000E+02  6.00000000E+01  0.00000000E+00
  1.20000000E+02  4.00000000E+01  0.00000000E+00
  1.20000000E+02  2.00000000E+01  0.00000000E+00
  1.20000000E+02  4.99600361E-14  0.00000000E+00
  1.40000000E+02  3.00000000E+02  0.00000000E+00
  1.40000000E+02  2.80000000E+02  0.00000000E+00
  1.40000000E+02  2.60000000E+02  0.00000000E+00
  1.40000000E+02  2.40000000E+02  0.00000000E+00
  1.40000000E+02  2.20000000E+02  0.00000000E+00
  1.40000000E+02  2.00000000E+02  0.00000000E+00
  1.40000000E+02  1.80000000E+02  0.00000000E+00
  1.40000000E+02  1.60000000E+02  0.00000000E+00
  1.40000000E+02  1.40000000E+02  0.00000000E+00
  1.40000000E+02  1.20000000E+02  0.00000000E+00
  1.40000000E+02  1.00000000E+02  0.00000000E+00
  1.40000000E+02  8.00000000E+01  0.00000000E+00
  1.40000000E+02  6.00000000E+01  0.00000000E+00
  1.40000000E+02  4.00000000E+01  0.00000000E+00
  1.40000000E+02  2.00000000E+01  0.00000000E+00
  1.40000000E+02  4.99600361E-14  0.00000000E+00
  1.60000000E+02  3.00000000E+02  0.00000000E+00
  1.60000000E+02  2.80000000E+02  0.00000000E+00
  1.60000000E+02  2.60000000E+02  0.00000000E+00
  1.60000000E+02  2.40000000E+02  0.00000000E+00
  1.60000000E+02  2.20000000E+02  0.00000000E+00
  1.60000000E+02  2.00000000E+02  0.00000000E+00
  1.60000000E+02  1.80000000E+02  0.00000000E+00
  1.60000000E+02  1.60000000E+02  0.00000000E+00
  1.60000000E+02  1.40000000E+02  0.00000000E+00
  1.60000000E+02  1.20000000E+02  0.00000000E+00
  1.60000000E+02  1.00000000E+02  0.00000000E+00
  1.60000000E+02  8.00000000E+01  0.00000000E+00
  1.60000000E+02  6.00000000E+01  0.00000000E+00
  1.60000000E+02  4.00000000E+01  0.00000000E+00
  1.60000000E+02  2.00000000E+01  0.00000000E+00
  1.60000000E+02  4.99600361E-14  0.00000000E+00
  1.80000000E+02  3.00000000E+02  0.00000000E+00
  1.80000000E+02  2.80000000E+02  0.00000000E+00
  1.80000000E+02  2.60000000E+02  0.00000000E+00
  1.80000000E+02  2.40000000E+02  0.00000000E+00
  1.80000000E+02  2.20000000E+02  0.00000000E+00
  1.80000000E+02  2.00000000E+02  0.00000000E+00
  1.80000000E+02  1.80000000E+02  0.00000000E+00
  1.80000000E+02  1.60000000E+02  0.00000000E+00
  1.80000000E+02  1.40000000E+02  0.00000000E+00
  1.80000000E+02  1.20000000E+02  0.00000000E+00
  1.80000000E+02  1.00000000E+02  0.00000000E+00
  1.80000000E+02  8.00000000E+01  0.00000000E+00
  1.80000000E+02  6.00000000E+01  0.00000000E+00
  1.80000000E+02  4.00000000E+01  0.00000000E+00
  1.80000000E+02  2.00000000E+01  0.00000000E+00
  1.80000000E+02  4.99600361E-14  0.00000000E+00
  2.00000000E+02  3.00000000E+02  0.00000000E+00
  2.00000000E+02  2.80000000E+02  0.00000000E+00
  2.00000000E+02  2.60000000E+02  0.00000000E+00
  2.00000000E+02  2.40000000E+02  0.00000000E+00
  2.00000000E+02  2.20000000E+02  0.00000000E+00
  2.00000000E+02  2.00000000E+02  0.00000000E+00
  2.00000000E+02  1.80000000E+02  0.00000000E+00
  2.00000000E+02  1.60000000E+02  0.00000000E+00
  2.00000000E+02  1.40000000E+02  0.00000000E+00
  2.00000000E+02  1.20000000E+02  0.00000000E+00
  2.00000000E+02  1.00000000E+02  0.00000000E+00
  2.00000000E+02  8.00000000E+01  0.00000000E+00
  2.00000000E+02  6.00000000E+01  0.00000000E+00
  2.00000000E+02  4.00000000E+01  0.00000000E+00
  2.00000000E+02  2.00000000E+01  0.00000000E+00
  2.00000000E+02  4.99600361E-14  0.00000000E+00
  2.20000000E+02  3.00000000E+02  0.00000000E+00
  2.20000000E+02  2.80000000E+02  0.00000000E+00
  2.20000000E+02  2.60000000E+02  0.00000000E+00
  2.20000000E+02  2.40000000E+02  0.00000000E+00
  2.20000000E+02  2.20000000E+02  0.00000000E+00
  2.20000000E+02  2.00000000E+02  0.00000000E+00
  2.20000000E+02  1.80000000E+02  0.00000000E+00
  2.20000000E+02  1.60000000E+02  0.00000000E+00
  2.20000000E+02  1.40000000E+02  0.00000000E+00
  2.20000000E+02  1.20000000E+02  0.00000000E+00
  2.20000000E+02  1.00000000E+02  0.00000000E+00
  2.20000000E+02  8.00000000E+01  0.00000000E+00
  2.20000000E+02  6.00000000E+01  0.00000000E+00
  2.20000000E+02  4.00000000E+01  0.00000000E+00
  2.20000000E+02  2.00000000E+01  0.00000000E+00
  2.20000000E+02  4.99600361E-14  0.00000000E+00
  2.40000000E+02  3.00000000E+02  0.00000000E+00
  2.40000000E+02  2.80000000E+02  0.00000000E+00
  2.40000000E+02  2.60000000E+02  0.00000000E+00
  2.40000000E+02  2.40000000E+02  0.00000000E+00
  2.40000000E+02  2.20000000E+02  0.00000000E+00
  2.40000000E+02  2.00000000E+02  0.00000000E+00
  2.40000000E+02  1.80000000E+02  0.00000000E+00
  2.40000000E+02  1.60000000E+02  0.00000000E+00
  2.40000000E+02  1.40000000E+02  0.00000000E+00
  2.40000000E+02  1.20000000E+02  0.00000000E+00
  2.40000000E+02  1.00000000E+02  0.00000000E+00
  2.40000000E+02  8.00000000E+01  0.00000000E+00
  2.40000000E+02  6.00000000E+01  0.00000000E+00
  2.40000000E+02  4.00000000E+01  0.00000000E+00
  2.40000000E+02  2.00000000E+01  0.00000000E+00
  2.40000000E+02  4.99600361E-14  0.00000000E+00
  2.60000000E+02  3.00000000E+02  0.00000000E+00
  2.60000000E+02  2.80000000E+02  0.00000000E+00
  2.60000000E+02  2.60000000E+02  0.00000000E+00
  2.60000000E+02  2.40000000E+02  0.00000000E+00
  2.60000000E+02  2.20000000E+02  0.00000000E+00
  2.60000000E+02  2.00000000E+02  0.00000000E+00
  2.60000000E+02  1.80000000E+02  0.00000000E+00
  2.60000000E+02  1.60000000E+02  0.00000000E+00
  2.60000000E+02  1.40000000E+02  0.00000000E+00
  2.60000000E+02  1.20000000E+02  0.00000000E+00
  2.60000000E+02  1.00000000E+02  0.00000000E+00
  2.60000000E+02  8.00000000E+01  0.00000000E+00
  2.60000000E+02  6.00000000E+01  0.00000000E+00
  2.60000000E+02  4.00000000E+01  0.00000000E+00
  2.60000000E+02  2.00000000E+01  0.00000000E+00
  2.60000000E+02  4.99600361E-14  0.00000000E+00
  2.80000000E+02  3.00000000E+02  0.00000000E+00
  2.80000000E+02  2.80000000E+02  0.00000000E+00
  2.80000000E+02  2.60000000E+02  0.00000000E+00
  2.80000000E+02  2.40000000E+02  0.00000000E+00
  2.80000000E+02  2.20000000E+02  0.00000000E+00
  2.80000000E+02  2.00000000E+02  0.00000000E+00
  2.80000000E+02  1.80000000E+02  0.00000000E+00
  2.80000000E+02  1.60000000E+02  0.00000000E+00
  2.80000000E+02  1.40000000E+02  0.00000000E+00
  2.80000000E+02  1.20000000E+02  0.00000000E+00
  2.80000000E+02  1.00000000E+02  0.00000000E+00
  2.80000000E+02  8.00000000E+01  0.00000000E+00
  2.80000000E+02  6.00000000E+01  0.00000000E+00
  2.80000000E+02  4.00000000E+01  0.00000000E+00
  2.80000000E+02  2.00000000E+01  0.00000000E+00
  2.80000000E+02  4.99600361E-14  0.00000000E+00
  3.00000000E+02  3.00000000E+02  0.00000000E+00
  3.00000000E+02  2.80000000E+02  0.00000000E+00
  3.00000000E+02  2.60000000E+02  0.00000000E+00
  3.00000000E+02  2.40000000E+02  0.00000000E+00
  3.00000000E+02  2.20000000E+02  0.00000000E+00
  3.00000000E+02  2.00000000E+02  0.00000000E+00
  3.00000000E+02  1.80000000E+02  0.00000000E+00
  3.00000000E+02  1.60000000E+02  0.00000000E+00
  3.00000000E+02  1.40000000E+02  0.00000000E+00
  3.00000000E+02  1.20000000E+02  0.00000000E+00
  3.00000000E+02  1.00000000E+02  0.00000000E+00
  3.00000000E+02  8.00000000E+01  0.00000000E+00
  3.00000000E+02  6.00000000E+01  0.00000000E+00
  3.00000000E+02  4.00000000E+01  0.00000000E+00
  3.00000000E+02  2.00000000E+01  0.00000000E+00
  3.00000000E+02  4.99600361E-14  0.00000000E+00
  3.20000000E+02  3.00000000E+02  0.00000000E+00
  3.20000000E+02  2.80000000E+02  0.00000000E+00
  3.20000000E+02  2.60000000E+02  0.00000000E+00
  3.20000000E+02  2.40000000E+02  0.00000000E+00
  3.20000000E+02  2.20000000E+02  0.00000000E+00
  3.20000000E+02  2.00000000E+02  0.00000000E+00
  3.20000000E+02  1.80000000E+02  0.00000000E+00
  3.20000000E+02  1.60000000E+02  0.00000000E+00
  3.20000000E+02  1.40000000E+02  0.00000000E+00
  3.20000000E+02  1.20000000E+02  0.00000000E+00
  3.20000000E+02  1.00000000E+02  0.00000000E+00
  3.20000000E+02  8.00000000E+01  0.00000000E+00
  3.20000000E+02  6.00000000E+01  0.00000000E+00
  3.20000000E+02  4.00000000E+01  0.00000000E+00
  3.20000000E+02  2.00000000E+01  0.00000000E+00
  3.20000000E+02  4.99600361E-14  0.00000000E+00
  3.40000000E+02  3.00000000E+02  0.00000000E+00
  3.40000000E+02  2.80000000E+02  0.00000000E+00
  3.40000000E+02  2.60000000E+02  0.00000000E+00
  3.40000000E+02  2.40000000E+02  0.00000000E+00
  3.40000000E+02  2.20000000E+02  0.00000000E+00
  3.40000000E+02  2.00000000E+02  0.00000000E+00
  3.40000000E+02  1.80000000E+02  0.00000000E+00
  3.40000000E+02  1.60000000E+02  0.00000000E+00
  3.40000000E+02  1.40000000E+02  0.00000000E+00
  3.40000000E+02  1.20000000E+02  0.00000000E+00
  3.40000000E+02  1.00000000E+02  0.00000000E+00
  3.40000000E+02  8.00000000E+01  0.00000000E+00
  3.40000000E+02  6.00000000E+01  0.00000000E+00
  3.40000000E+02  4.00000000E+01  0.00000000E+00
  3.40000000E+02  2.00000000E+01  0.00000000E+00
  3.40000000E+02  4.99600361E-14  0.00000000E+00
  3.60000000E+02  3.00000000E+02  0.00000000E+00
  3.60000000E+02  2.80000000E+02  0.00000000E+00
  3.60000000E+02  2.60000000E+02  0.00000000E+00
  3.60000000E+02  2.40000000E+02  0.00000000E+00
  3.60000000E+02  2.20000000E+02  0.00000000E+00
  3.60000000E+02  2.00000000E+02  0.00000000E+00
  3.60000000E+02  1.80000000E+02  0.00000000E+00
  3.60000000E+02  1.60000000E+02  0.00000000E+00
  3.60000000E+02  1.40000000E+02  0.00000000E+00
  3.60000000E+02  1.20000000E+02  0.00000000E+00
  3.60000000E+02  1.00000000E+02  0.00000000E+00
  3.60000000E+02  8.00000000E+01  0.00000000E+00
  3.60000000E+02  6.00000000E+01  0.00000000E+00
  3.60000000E+02  4.00000000E+01  0.00000000E+00
  3.60000000E+02  2.00000000E+01  0.00000000E+00
  3.60000000E+02  4.99600361E-14  0.00000000E+00
  3.80000000E+02  3.00000000E+02  0.00000000E+00
  3.80000000E+02  2.80000000E+02  0.00000000E+00
  3.80000000E+02  2.60000000E+02  0.00000000E+00
  3.80000000E+02  2.40000000E+02  0.00000000E+00
  3.80000000E+02  2.20000000E+02  0.00000000E+00
  3.80000000E+02  2.00000000E+02  0.00000000E+00
  3.80000000E+02  1.80000000E+02  0.00000000E+00
  3.80000000E+02  1.60000000E+02  0.00000000E+00
  3.80000000E+02  1.40000000E+02  0.00000000E+00
  3.80000000E+02  1.20000000E+02  0.00000000E+00
  3.80000000E+02  1.00000000E+02  0.00000000E+00
  3.80000000E+02  8.00000000E+01  0.00000000E+00
  3.80000000E+02  6.00000000E+01  0.00000000E+00
  3.80000000E+02  4.00000000E+01  0.00000000E+00
  3.80000000E+02  2.00000000E+01  0.00000000E+00
  3.80000000E+02  4.99600361E-14  0.00000000E+00
  4.00000000E+02  3.00000000E+02  0.00000000E+00
  4.00000000E+02  2.80000000E+02  0.00000000E+00
  4.00000000E+02  2.60000000E+02  0.00000000E+00
  4.00000000E+02  2.40000000E+02  0.00000000E+00
  4.00000000E+02  2.20000000E+02  0.00000000E+00
  4.00000000E+02  2.00000000E+02  0.00000000E+00
  4.00000000E+02  1.80000000E+02  0.00000000E+00
  4.00000000E+02  1.60000000E+02  0.00000000E+00
  4.00000000E+02  1.40000000E+02  0.00000000E+00
  4.00000000E+02  1.20000000E+02  0.00000000E+00
  4.00000000E+02  1.00000000E+02  0.00000000E+00
  4.00000000E+02  8.00000000E+01  0.00000000E+00
  4.00000000E+02  6.00000000E+01  0.00000000E+00
  4.00000000E+02  4.00000000E+01  0.00000000E+00
  4.00000000E+02  2.00000000E+01  0.00000000E+00
  4.00000000E+02  4.99600361E-14  0.00000000E+00
  4.20000000E+02  3.00000000E+02  0.00000000E+00
  4.20000000E+02  2.80000000E+02  0.00000000E+00
  4.20000000E+02  2.60000000E+02  0.00000000E+00
  4.20000000E+02  2.40000000E+02  0.00000000E+00
  4.20000000E+02  2.20000000E+02  0.00000000E+00
  4.20000000E+02  2.00000000E+02  0.00000000E+00
  4.20000000E+02  1.80000000E+02  0.00000000E+00
  4.20000000E+02  1.60000000E+02  0.00000000E+00
  4.20000000E+02  1.40000000E+02  0.00000000E+00
  4.20000000E+02  1.20000000E+02  0.00000000E+00
  4.20000000E+02  1.00000000E+02  0.00000000E+00
  4.20000000E+02  8.00000000E+01  0.00000000E+00
  4.20000000E+02  6.00000000E+01  0.00000000E+00
  4.20000000E+02  4.00000000E+01  0.00000000E+00
  4.20000000E+02  2.00000000E+01  0.00000000E+00
  4.20000000E+02  4.99600361E-14  0.00000000E+00
  4.40000000E+02  3.00000000E+02  0.00000000E+00
  4.40000000E+02  2.80000000E+02  0.00000000E+00
  4.40000000E+02  2.60000000E+02  0.00000000E+00
  4.40000000E+02  2.40000000E+02  0.00000000E+00
  4.40000000E+02  2.20000000E+02  0.00000000E+00
  4.40000000E+02  2.00000000E+02  0.00000000E+00
  4.40000000E+02  1.80000000E+02  0.00000000E+00
  4.40000000E+02  1.60000000E+02  0.00000000E+00
  4.40000000E+02  1.40000000E+02  0.00000000E+00
  4.40000000E+02  1.20000000E+02  0.00000000E+00
  4.40000000E+02  1.00000000E+02  0.00000000E+00
  4.40000000E+02  8.00000000E+01  0.00000000E+00
  4.40000000E+02  6.00000000E+01  0.00000000E+00
  4.40000000E+02  4.00000000E+01  0.00000000E+00
  4.40000000E+02  2.00000000E+01  0.00000000E+00
  4.40000000E+02  4.99600361E-14  0.00000000E+00
  4.60000000E+02  3.00000000E+02  0.00000000E+00
  4.60000000E+02  2.80000000E+02  0.00000000E+00
  4.60000000E+02  2.60000000E+02  0.00000000E+00
  4.60000000E+02  2.40000000E+02  0.00000000E+00
  4.60000000E+02  2.20000000E+02  0.00000000E+00
  4.60000000E+02  2.00000000E+02  0.00000000E+00
  4.60000000E+02  1.80000000E+02  0.00000000E+00
  4.60000000E+02  1.60000000E+02  0.00000000E+00
  4.60000000E+02  1.40000000E+02  0.00000000E+00
  4.60000000E+02  1.20000000E+02  0.00000000E+00
  4.60000000E+02  1.00000000E+02  0.00000000E+00
  4.60000000E+02  8.00000000E+01  0.00000000E+00
  4.60000000E+02  6.00000000E+01  0.00000000E+00
  4.60000000E+02  4.00000000E+01  0.00000000E+00
  4.60000000E+02  2.00000000E+01  0.00000000E+00
  4.60000000E+02  4.99600361E-14  0.00000000E+00
  4.80000000E+02  3.00000000E+02  0.00000000E+00
  4.80000000E+02  2.80000000E+02  0.00000000E+00
  4.80000000E+02  2.60000000E+02  0.00000000E+00
  4.80000000E+02  2.40000000E+02  0.00000000E+00
  4.80000000E+02  2.20000000E+02  0.00000000E+00
  4.80000000E+02  2.00000000E+02  0.00000000E+00
  4.80000000E+02  1.80000000E+02  0.00000000E+00
  4.80000000E+02  1.60000000E+02  0.00000000E+00
  4.80000000E+02  1.40000000E+02  0.00000000E+00
  4.80000000E+02  1.20000000E+02  0.00000000E+00
  4.80000000E+02  1.00000000E+02  0.00000000E+00
  4.80000000E+02  8.00000000E+01  0.00000000E+00
  4.80000000E+02  6.00000000E+01  0.00000000E+00
  4.80000000E+02  4.00000000E+01  0.00000000E+00
  4.80000000E+02  2.00000000E+01  0.00000000E+00
  4.80000000E+02  4.99600361E-14  0.00000000E+00
  5.00000000E+02  3.00000000E+02  0.00000000E+00
  5.00000000E+02  2.80000000E+02  0.00000000E+00
  5.00000000E+02  2.60000000E+02  0.00000000E+00
  5.00000000E+02  2.40000000E+02  0.00000000E+00
  5.00000000E+02  2.20000000E+02  0.00000000E+00
  5.00000000E+02  2.00000000E+02  0.00000000E+00
  5.00000000E+02  1.80000000E+02  0.00000000E+00
  5.00000000E+02  1.60000000E+02  0.00000000E+00
  5.00000000E+02  1.40000000E+02  0.00000000E+00
  5.00000000E+02  1.20000000E+02  0.00000000E+00
  5.00000000E+02  1.00000000E+02  0.00000000E+00
  5.00000000E+02  8.00000000E+01  0.00000000E+00
  5.00000000E+02  6.00000000E+01  0.00000000E+00
  5.00000000E+02  4.00000000E+01  0.00000000E+00
  5.00000000E+02  2.00000000E+01  0.00000000E+00
  5.00000000E+02  4.99600361E-14  0.00000000E+00
  5.20000000E+02  3.00000000E+02  0.00000000E+00
  5.20000000E+02  2.80000000E+02  0.00000000E+00
  5.20000000E+02  2.60000000E+02  0.00000000E+00
  5.20000000E+02  2.40000000E+02  0.00000000E+00
  5.20000000E+02  2.20000000E+02  0.00000000E+00
  5.20000000E+02  2.00000000E+02  0.00000000E+00
  5.20000000E+02  1.80000000E+02  0.00000000E+00
  5.20000000E+02  1.60000000E+02  0.00000000E+00
  5.20000000E+02  1.40000000E+02  0.00000000E+00
  5.20000000E+02  1.20000000E+02  0.00000000E+00
  5.20000000E+02  1.00000000E+02  0.00000000E+00
  5.20000000E+02  8.00000000E+01  0.00000000E+00
  5.20000000E+02  6.00000000E+01  0.00000000E+00
  5.20000000E+02  4.00000000E+01  0.00000000E+00
  5.20000000E+02  2.00000000E+01  0.00000000E+00
  5.20000000E+02  4.99600361E-14  0.00000000E+00
  5.40000000E+02  3.00000000E+02  0.00000000E+00
  5.40000000E+02  2.80000000E+02  0.00000000E+00
  5.40000000E+02  2.60000000E+02  0.00000000E+00
  5.40000000E+02  2.40000000E+02  0.00000000E+00
  5.40000000E+02  2.20000000E+02  0.00000000E+00
  5.40000000E+02  2.00000000E+02  0.00000000E+00
  5.40000000E+02  1.80000000E+02  0.00000000E+00
  5.40000000E+02  1.60000000E+02  0.00000000E+00
  5.40000000E+02  1.40000000E+02  0.00000000E+00
  5.40000000E+02  1.20000000E+02  0.00000000E+00
  5.40000000E+02  1.00000000E+02  0.00000000E+00
  5.40000000E+02  8.00000000E+01  0.00000000E+00
  5.40000000E+02  6.00000000E+01  0.00000000E+00
  5.40000000E+02  4.00000000E+01  0.00000000E+00
  5.40000000E+02  2.00000000E+01  0.00000000E+00
  5.40000000E+02  4.99600361E-14  0.00000000E+00
  5.60000000E+02  3.00000000E+02  0.00000000E+00
  5.60000000E+02  2.80000000E+02  0.00000000E+00
  5.60000000E+02  2.60000000E+02  0.00000000E+00
  5.60000000E+02  2.40000000E+02  0.00000000E+00
  5.60000000E+02  2.20000000E+02  0.00000000E+00
  5.60000000E+02  2.00000000E+02  0.00000000E+00
  5.60000000E+02  1.80000000E+02  0.00000000E+00
  5.60000000E+02  1.60000000E+02  0.00000000E+00
  5.60000000E+02  1.40000000E+02  0.00000000E+00
  5.60000000E+02  1.20000000E+02  0.00000000E+00
  5.60000000E+02  1.00000000E+02  0.00000000E+00
  5.60000000E+02  8.00000000E+01  0.00000000E+00
  5.60000000E+02  6.00000000E+01  0.00000000E+00
  5.60000000E+02  4.00000000E+01  0.00000000E+00
  5.60000000E+02  2.00000000E+01  0.00000000E+00
  5.60000000E+02  4.99600361E-14  0.00000000E+00
  5.80000000E+02  3.00000000E+02  0.00000000E+00
  5.80000000E+02  2.80000000E+02  0.00000000E+00
  5.80000000E+02  2.60000000E+02  0.00000000E+00
  5.80000000E+02  2.40000000E+02  0.00000000E+00
  5.80000000E+02  2.20000000E+02  0.00000000E+00
  5.80000000E+02  2.00000000E+02  0.00000000E+00
  5.80000000E+02  1.80000000E+02  0.00000000E+00
  5.80000000E+02  1.60000000E+02  0.00000000E+00
  5.80000000E+02  1.40000000E+02  0.00000000E+00
  5.80000000E+02  1.20000000E+02  0.00000000E+00
  5.80000000E+02  1.00000000E+02  0.00000000E+00
  5.80000000E+02  8.00000000E+01  0.00000000E+00
  5.80000000E+02  6.00000000E+01  0.00000000E+00
  5.80000000E+02  4.00000000E+01  0.00000000E+00
  5.80000000E+02  2.00000000E+01  0.00000000E+00
  5.80000000E+02  4.99600361E-14  0.00000000E+00
  6.00000000E+02  3.00000000E+02  0.00000000E+00
  6.00000000E+02  2.80000000E+02  0.00000000E+00
  6.00000000E+02  2.60000000E+02  0.00000000E+00
  6.00000000E+02  2.40000000E+02  0.00000000E+00
  6.00000000E+02  2.20000000E+02  0.00000000E+00
  6.00000000E+02  2.00000000E+02  0.00000000E+00
  6.00000000E+02  1.80000000E+02  0.00000000E+00
  6.00000000E+02  1.60000000E+02  0.00000000E+00
  6.00000000E+02  1.40000000E+02  0.00000000E+00
  6.00000000E+02  1.20000000E+02  0.00000000E+00
  6.00000000E+02  1.00000000E+02  0.00000000E+00
  6.00000000E+02  8.00000000E+01  0.00000000E+00
  6.00000000E+02  6.00000000E+01  0.00000000E+00
  6.00000000E+02  4.00000000E+01  0.00000000E+00
  6.00000000E+02  2.00000000E+01  0.00000000E+00
  6.00000000E+02  4.99600361E-14  0.00000000E+00
CELLS       450      2250
         4           0           1          17          16
         4           1           2          18          17
         4           2           3          19          18
         4           3           4          20          19
         4           4           5          21          20
         4           5           6          22          21
         4           6           7          23          22
         4           7           8          24          23
         4           8           9          25          24
         4           9          10          26          25
         4          10          11          27          26
         4          11          12          28          27
         4          12          13          29          28
         4          13          14          30          29
         4          14          15          31          30
         4          16          17          33          32
         4          17          18          34          33
         4          18          19          35          34
         4          19          20          36          35
         4          20          21          37          36
         4          21          22          38          37
         4          22          23          39          38
         4          23          24          40          39
         4          24          25          41          40
         4          25          26          42          41
         4          26          27          43          42
         4          27          28          44          43
         4          28          29          45          44
         4          29          30          46          45
         4          30          31          47          46
         4          32          33          49          48
         4          33          34          50          49
         4          34          35          51          50
         4          35          36          52          51
         4          36          37          53          52
         4          37          38          54          53
         4          38          39          55          54
         4          39          40          56          55
         4          40          41          57          56
         4          41          42          58          57
         4          42          43          59          58
         4          43          44          60          59
         4          44          45          61          60
         4          45          46          62          61
         4          46          47          63          62
         4          48          49          65          64
         4          49          50          66          65
         4          50          51          67          66
         4          51          52          68          67
         4          52          53          69          68
         4          53          54          70          69
         4          54          55          71          70
         4          55          56          72          71
         4          56          57          73          72
         4          57          58          74          73
         4          58          59          75          74
         4          59          60          76          75
         4          60          61          77          76
         4          61          62          78          77
         4          62          63          79          78
         4          64          65          81          80
         4          65          66          82          81
         4          66          67          83          82
         4          67          68          84          83
         4          68          69          85          84
         4          69          70          86          85
         4          70          71          87          86
         4          71          72          88          87
         4          72          73          89          88
         4          73          74          90          89
         4          74          75          91          90
         4          75          76          92          91
         4          76          77          93          92
         4          77          78          94          93
         4          78          79          95          94
         4          80          81          97          96
         4          81          82          98          97
         4          82          83          99          98
         4          83          84         100          99
         4          84          85         101         100
         4          85          86         102         101
         4          86          87         103         102
         4          87          88         104         103
         4          88          89         105         104
         4          89          90         106         105
         4          90          91         107         106
         4          91          92         108         107
         4          92          93         109         108
         4          93          94         110         109
         4          94          95         111         110
         4          96          97         113         112
         4          97          98         114         113
         4          98          99         115         114
         4          99         100         116         115
         4         100         101         117         116
         4         101         102         118         117
         4         102         103         119         118
         4         103         104         120         119
         4         104         105         121         120
         4         105         106         122         121
         4         106         107         123         122
         4         107         108         124         123
         4         108         109         125         124
         4         109         110         126         125
         4         110         111         127         126
         4         112         113         129         128
         4         113         114         130         129
         4         114         115         131         130
         4         115         116         132         131
         4         116         117         133         132
         4         117         118         134         133
         4         118         119         135         134
         4         119         120         136         135
         4         120         121         137         136
         4         121         122         138         137
         4         122         123         139         138
         4         123         124         140         139
         4         124         125         141         140
         4         125         126         142         141
         4         126         127         143         142
         4         128         129         145         144
         4         129         130         146         145
         4         130         131         147         146
         4         131         132         148         147
         4         132         133         149         148
         4         133         134         150         149
         4         134         135         151         150
         4         135         136         152         151
         4         136         137         153         152
         4         137         138         154         153
         4         138         139         155         154
         4         139         140         156         155
         4         140         141         157         156
         4         141         142         158         157
         4         142         143         159         158
         4         144         145         161         160
         4         145         146         162         161
         4         146         147         163         162
         4         147         148         164         163
         4         148         149         165         164
         4         149         150         166         165
         4         150         151         167         166
         4         151         152         168         167
         4         152         153         169         168
         4         153         154         170         169
         4         154         155         171         170
         4         155         156         172         171
         4         156         157         173         172
         4         157         158         174         173
         4         158         159         175         174
         4         160         161         177         176
         4         161         162         178         177
         4         162         163         179         178
         4         163         164         180         179
         4         164         165         181         180
         4         165         166         182         181
         4         166         167         183         182
         4         167         168         184         183
         4         168         169         185         184
         4         169         170         186         185
         4         170         171         187         186
         4         171         172         188         187
         4         172         173         189         188
         4         173         174         190         189
         4         174         175         191         190
         4         176         177         193         192
         4         177         178         194         193
         4         178         179         195         194
         4         179         180         196         195
         4         180         181         197         196
         4         181         182         198         197
         4         182         183         199         198
         4         183         184         200         199
         4         184         185         201         200
         4         185         186         202         201
         4         186         187         203         202
         4         187         188         204         203
         4         188         189         205         204
         4         189         190         206         205
         4         190         191         207         206
         4         192         193         209         208
         4         193         194         210         209
         4         194         195         211         210
         4         195         196         212         211
         4         196         197         213         212
         4         197         198         214         213
         4         198         199         215         214
         4         199         200         216         215
         4         200         201         217         216
         4         201         202         218         217
         4         202         203         219         218
         4         203         204         220         219
         4         204         205         221         220
         4         205         206         222         221
         4         206         207         223         222
         4         208         209         225         224
         4         209         210         226         225
         4         210         211         227         226
         4         211         212         228         227
         4         212         213         229         228
         4         213         214         230         229
         4         214         215         231         230
         4         215         216         232         231
         4         216         217         233         232
         4         217         218         234         233
         4         218         219         235         234
         4         219         220         236         235
         4         220         221         237         236
         4         221         222         238         237
         4         222         223         239         238
         4         224         225         241         240
         4         225         226         242         241
         4         226         227         243         242
         4         227         228         244         243
         4         228         229         245         244
         4         229         230         246         245
         4         230         231         247         246
         4         231         232         248         247
         4         232         233         249         248
         4         233         234         250         249
         4         234         235         251         250
         4         235         236         252         251
         4         236         237         253         252
         4         237         238         254         253
         4         238         239         255         254
         4         240         241         257         256
         4         241         242         258         257
         4         242         243         259         258
         4         243         244         260         259
         4         244         245         261         260
         4         245         246         262         261
         4         246         247         263         262
         4         247         248         264         263
         4         248         249         265         264
         4         249         250         266         265
         4         250         251         267         266
         4         251         252         268         267
         4         252         253         269         268
         4         253         254         270         269
         4         254         255         271         270
         4         256         257         273         272
         4         257         258         274         273
         4         258         259         275         274
         4         259         260         276         275
         4         260         261         277         276
         4         261         262         278         277
         4         262         263         279         278
         4         263         264         280         279
         4         264         265         281         280
         4         265         266         282         281
         4         266         267         283         282
         4         267         268         284         283
         4         268         269         285         284
         4         269         270         286         285
         4         270         271         287         286
         4         272         273         289         288
         4         273         274         290         289
         4         274         275         291         290
         4         275         276         292         291
         4         276         277         293         292
         4         277         278         294         293
         4         278         279         295         294
         4         279         280         296         295
         4         280         281         297         296
         4         281         282         298         297
         4         282         283         299         298
         4         283         284         300         299
         4         284         285         301         300
         4         285         286         302         301
         4         286         287         303         302
         4         288         289         305         304
         4         289         290         306         305
         4         290         291         307         306
         4         291         292         308         307
         4         292         293         309         308
         4         293         294         310         309
         4         294         295         311         310
         4         295         296         312         311
         4         296         297         313         312
         4         297         298         314         313
         4         298         299         315         314
         4         299         300         316         315
         4         300         301         317         316
         4         301         302         318         317
         4         302         303         319         318
         4         304         305         321         320
         4         305         306         322         321
         4         306         307         323         322
         4         307         308         324         323
         4         308         309         325         324
         4         309         310         326         325
         4         310         311         327         326
         4         311         312         328         327
         4         312         313         329         328
         4         313         314         330         329
         4         314         315         331         330
         4         315         316         332         331
         4         316         317         333         332
         4         317         318         334         333
         4         318         319         335         334
         4         320         321         337         336
         4         321         322         338         337
         4         322         323         339         338
         4         323         324         340         339
         4         324         325         341         340
         4         325         326         342         341
         4         326         327         343         342
         4         327         328         344         343
         4         328         329         345         344
         4         329         330         346         345
         4         330         331         347         346
         4         331         332         348         347
         4         332         333         349         348
         4         333         334         350         349
         4         334         335         351         350
         4         336         337         353         352
         4         337         338         354         353
         4         338         339         355         354
         4         339         340         356         355
         4         340         341         357         356
         4         341         342         358         357
         4         342         343         359         358
         4         343         344         360         359
         4         344         345         361         360
         4         345         346         362         361
         4         346         347         363         362
         4         347         348         364         363
         4         348         349         365         364
         4         349         350         366         365
         4         350         351         367         366
         4         352         353         369         368
         4         353         354         370         369
         4         354         355         371         370
         4         355         356         372         371
         4         356         357         373         372
         4         357         358         374         373
         4         358         359         375         374
         4         359         360         376         375
         4         360         361         377         376
         4         361         362         378         377
         4         362         363         379         378
         4         363         364         380         379
         4         364         365         381         380
         4         365         366         382         381
         4         366         367         383         382
         4         368         369         385         384
         4         369         370         386         385
         4         370         371         387         386
         4         371         372         388         387
         4         372         373         389         388
         4         373         374         390         389
         4         374         375         391         390
         4         375         376         392         391
         4         376         377         393         392
         4         377         378         394         393
         4         378         379         395         394
         4         379         380         396         395
         4         380         381         397         396
         4         381         382         398         397
         4         382         383         399         398
         4         384         385         401         400
         4         385         386         402         401
         4         386         387         403         402
         4         387         388         404         403
         4         388         389         405         404
         4         389         390         406         405
         4         390         391         407         406
         4         391         392         408         407
         4         392         393         409         408
         4         393         394         410         409
         4         394         395         411         410
         4         395         396         412         411
         4         396         397         413         412
         4         397         398         414         413
         4         398         399         415         414
         4         400         401         417         416
         4         401         402         418         417
         4         402         403         419         418
         4         403         404         420         419
         4         404         405         421         420
         4         405         406         422         421
         4         406         407         423         422
         4         407         408         424         423
         4         408         409         425         424
         4         409         410         426         425
         4         410         411         427         426
         4         411         412         428         427
         4         412         413         429         428
         4         413         414         430         429
         4         414         415         431         430
         4         416         417         433         432
         4         417         418         434         433
         4         418         419         435         434
         4         419         420         436         435
         4         420         421         437         436
         4         421         422         438         437
         4         422         423         439         438
         4         423         424         440         439
         4         424         425         441         440
         4         425         426         442         441
         4         426         427         443         442
         4         427         428         444         443
         4         428         429         445         444
         4         429         430         446         445
         4         430         431         447         446
         4         432         433         449         448
         4         433         434         450         449
         4         434         435         451         450
         4         435         436         452         451
         4         436         437         453         452
         4         437         438         454         453
         4         438         439         455         454
         4         439         440         456         455
         4         440         441         457         456
         4         441         442         458         457
         4         442         443         459         458
         4         443         444         460         459
         4         444         445         461         460
         4         445         446         462         461
         4         446         447         463         462
         4         448         449         465         464
         4         449         450         466         465
         4         450         451         467         466
         4         451         452         468         467
         4         452         453         469         468
         4         453         454         470         469
         4         454         455         471         470
         4         455         456         472         471
         4         456         457         473         472
         4         457         458         474         473
         4         458         459         475         474
         4         459         460         476         475
         4         460         461         477         476
         4         461         462         478         477
         4         462         463         479         478
         4         464         465         481         480
         4         465         466         482         481
         4         466         467         483         482
         4         467         468         484         483
         4         468         469         485         484
         4         469         470         486         485
         4         470         471         487         486
         4         471         472         488         487
         4         472         473         489         488
         4         473         474         490         489
         4         474         475         491         490
         4         475         476         492         491
         4         476         477         493         492
         4         477         478         494         493
         4         478         479         495         494
CELL_TYPES        450
9
9
9
9
9
9
9
9
9
9
9
9
9
9
9
9
9
9
9
9
9
9
9
9
9
9
9
9
9
9
9
9
9
9
9
9
9
9
9
9
9
9
9
9
9
9
9
9
9
9
9
9
9
9
9
9
9
9
9
9
9
9
9
9
9
9
9
9
9
9
9
9
9
9
9
9
9
9
9
9
9
9
9
9
9
9
9
9
9
9
9
9
9
9
9
9
9
9
9
9
9
9
9
9
9
9
9
9
9
9
9
9
9
9
9
9
9
9
9
9
9
9
9
9
9
9
9
9
9
9
9
9
9
9
9
9
9
9
9
9
9
9
9
9
9
9
9
9
9
9
9
9
9
9
9
9
9
9
9
9
9
9
9
9
9
9
9
9
9
9
9
9
9
9
9
9
9
9
9
9
9
9
9
9
9
9
9
9
9
9
9
9
9
9
9
9
9
9
9
9
9
9
9
9
9
9
9
9
9
9
9
9
9
9
9
9
9
9
9
9
9
9
9
9
9
9
9
9
9
9
9
9
9
9
9
9
9
9
9
9
9
9
9
9
9
9
9
9
9
9
9
9
9
9
9
9
9
9
9
9
9
9
9
9
9
9
9
9
9
9
9
9
9
9
9
9
9
9
9
9
9
9
9
9
9
9
9
9
9
9
9
9
9
9
9
9
9
9
9
9
9
9
9
9
9
9
9
9
9
9
9
9
9
9
9
9
9
9
9
9
9
9
9
9
9
9
9
9
9
9
9
9
9
9
9
9
9
9
9
9
9
9
9
9
9
9
9
9
9
9
9
9
9
9
9
9
9
9
9
9
9
9
9
9
9
9
9
9
9
9
9
9
9
9
9
9
9
9
9
9
9
9
9
9
9
9
9
9
9
9
9
9
9
9
9
9
9
9
9
9
9
9
9
9
9
9
9
9
9
9
9
9
9
9
9
9
9
9
9
9
9
9
9
9
9
9
9
9
9
9
9
9
9
9
9
9
9
9
9
9
9
9
9
9
9
9
9
9
9
9
POINT_DATA       496
SCALARS p double 
LOOKUP_TABLE default
   70958379.1454936     
   70958721.6011019     
   70959687.9124251     
   70961128.8815204     
   70962888.8983212     
   70964860.0424029     
   70966965.8642973     
   70969107.5832379     
   70971029.6186624     
   70972723.0762434     
   70974219.5598978     
   70975519.1321702     
   70976612.6125059     
   70977481.8368667     
   70978100.4638818     
   70978344.4820753     
   68934541.9184889     
   68934822.6361171     
   68935525.2631446     
   68936481.5485252     
   68937652.0720805     
   68939033.5397523     
   68940577.9289756     
   68942178.3401423     
   68943733.9163682     
   68945165.4887251     
   68946444.0921123     
   68947552.2524480     
   68948469.5640380     
   68949170.3277646     
   68949610.9179099     
   68949759.9521578     
   66910745.4719285     
   66910908.7459133     
   66911376.0191976     
   66912069.6027010     
   66912938.2923375     
   66913961.3495469     
   66915128.9979596     
   66916336.2873980     
   66917545.9436660     
   66918697.9559090     
   66919747.7152240     
   66920661.5738094     
   66921411.3999281     
   66921968.7668674     
   66922309.7641980     
   66922425.0237607     
   64887145.1421195     
   64887242.7995599     
   64887528.4209014     
   64888050.3655074     
   64888767.8346155     
   64889587.7656607     
   64890464.0042832     
   64891388.2877947     
   64892322.5725067     
   64893228.7896014     
   64894066.1565772     
   64894800.2926252     
   64895401.7183930     
   64895846.3551153     
   64896117.5923431     
   64896209.5669347     
   62863965.2703400     
   62864065.8900968     
   62864321.6054698     
   62864724.4960956     
   62865247.0084082     
   62865866.3632796     
   62866541.8546832     
   62867251.0611524     
   62867971.8139471     
   62868675.2847366     
   62869330.9606888     
   62869909.3494646     
   62870384.9982742     
   62870737.7433798     
   62870954.2010835     
   62871028.4768046     
   60841436.3253493     
   60841493.3764363     
   60841678.4280393     
   60841974.9770049     
   60842365.1481454     
   60842827.3874444     
   60843339.5701996     
   60843880.7121591     
   60844431.7726924     
   60844971.5573297     
   60845476.9765517     
   60845925.2601553     
   60846295.9910127     
   60846572.8033270     
   60846744.2911758     
   60846803.9906548     
   58819438.6069043     
   58819481.9166893     
   58819612.8819526     
   58819827.5872966     
   58820112.8900625     
   58820454.0536645     
   58820835.1323723     
   58821240.5386485     
   58821654.7823532     
   58822061.6811800     
   58822444.0999653     
   58822784.9690176     
   58823068.6909655     
   58823282.3096006     
   58823416.1269609     
   58823463.4931177     
   56797999.8467963     
   56798031.4673719     
   56798124.5461062     
   56798276.4744444     
   56798479.9067788     
   56798724.7703078     
   56799000.1369990     
   56799294.6937108     
   56799596.9122594     
   56799894.8000094     
   56800175.9152319     
   56800427.8631630     
   56800639.1029526     
   56800799.6702451     
   56800901.5131446     
   56800938.2608115     
   54777119.7609412     
   54777142.1171660     
   54777205.9842700     
   54777309.2600561     
   54777447.4660304     
   54777614.4288097     
   54777803.0592517     
   54778005.8272837     
   54778214.8488015     
   54778421.8749632     
   54778618.3536965     
   54778795.7110761     
   54778945.7794905     
   54779061.1828058     
   54779135.4800200     
   54779162.9427721     
   52756788.1308022     
   52756802.9365221     
   52756843.1910320     
   52756906.9705926     
   52756991.6373454     
   52757093.8171875     
   52757209.6072363     
   52757334.7342874     
   52757464.6027365     
   52757594.2847726     
   52757718.5619175     
   52757832.0622269     
   52757929.4628807     
   52758005.6571043     
   52758055.7729816     
   52758074.9704363     
   50736986.4379758     
   50736994.6950769     
   50737014.7182666     
   50737044.7488166     
   50737083.5251159     
   50737129.8778929     
   50737182.5569557     
   50737240.1441271     
   50737300.9762132     
   50737363.0803337     
   50737424.1489915     
   50737481.5695122     
   50737532.4827192     
   50737573.8153008     
   50737602.2238249     
   50737613.9122599     
   48717688.7918065     
   48717690.9602216     
   48717692.5095699     
   48717692.0335294     
   48717689.5205796     
   48717685.7093011     
   48717681.6713476     
   48717678.5309921     
   48717677.2627035     
   48717678.5426855     
   48717682.6498926     
   48717689.4089766     
   48717698.1534673     
   48717707.6746930     
   48717716.1224644     
   48717720.8403355     
   46698862.7417731     
   46698858.8787368     
   46698842.5221449     
   46698812.9439861     
   46698771.4574031     
   46698720.6182600     
   46698663.6440382     
   46698603.9912354     
   46698545.0447142     
   46698489.8886639     
   46698441.1392984     
   46698400.8213293     
   46698370.2665358     
   46698350.0103979     
   46698339.6672209     
   46698337.7777295     
   44680469.9103062     
   44680459.7857810     
   44680425.2367424     
   44680366.6311060     
   44680286.8125031     
   44680190.2011403     
   44680082.1018099     
   44679968.1799795     
   44679854.0688744     
   44679745.0761558     
   44679645.9639252     
   44679560.7783431     
   44679492.7064085     
   44679443.9401995     
   44679415.5358451     
   44679407.2665634     
   42662466.5149586     
   42662449.7007512     
   42662396.0820510     
   42662307.5996738     
   42662188.9198947     
   42662046.4671693     
   42661887.6580750     
   42661720.3099974     
   42661552.1937885     
   42661390.6991583     
   42661242.5829137     
   42661113.7723475     
   42661009.1993816     
   42660932.6466137     
   42660886.5950003     
   42660872.0746903     
   40644803.7988195     
   40644779.7400561     
   40644705.7978334     
   40644586.0024564     
   40644427.1914225     
   40644237.9934531     
   40644028.0151097     
   40643807.2112182     
   40643585.4115842     
   40643371.9717480     
   40643175.5141004     
   40643003.7272047     
   40642863.1955657     
   40642759.2392401     
   40642695.7528256     
   40642675.0459405     
   38627428.3888313     
   38627396.4638148     
   38627300.7493440     
   38627147.9102653     
   38626947.3397816     
   38626710.1057213     
   38626448.1104768     
   38626173.4499261     
   38625897.9438353     
   38625632.8018652     
   38625388.3857387     
   38625174.0291469     
   38624997.8821586     
   38624866.7556558     
   38624785.9532960     
   38624759.0928204     
   36610282.5947125     
   36610242.1679805     
   36610123.2006417     
   36609935.5603471     
   36609691.6019047     
   36609405.0809481     
   36609090.3047517     
   36608761.5065606     
   36608432.4121329     
   36608115.9551810     
   36607824.0931109     
   36607567.6756343     
   36607356.3249990     
   36607198.2972810     
   36607100.3087192     
   36607067.3280382     
   34593304.6571094     
   34593255.1293082     
   34593111.5514941     
   34592887.5847453     
   34592598.9620389     
   34592262.3703091     
   34591894.6093667     
   34591512.0118111     
   34591130.0835842     
   34590763.3091135     
   34590425.0589357     
   34590127.5397333     
   34589881.7347493     
   34589697.2958020     
   34589582.3656491     
   34589543.3300799     
   32576428.9497355     
   32576369.8072811     
   32576200.5405605     
   32575939.2200657     
   32575605.3753348     
   32575218.8432800     
   32574798.9556410     
   32574364.0420661     
   32573931.1915546     
   32573516.1960652     
   32573133.5953246     
   32572796.7464292     
   32572517.8530066     
   32572307.9047422     
   32572176.4984385     
   32572131.5369550     
   30559586.1369798     
   30559517.0041564     
   30559321.4159047     
   30559022.5005696     
   30558643.9953579     
   30558209.0575288     
   30557739.5096962     
   30557255.4775358     
   30556775.3326631     
   30556315.8341925     
   30555892.3631397     
   30555519.1550501     
   30555209.4515719     
   30554975.5089211     
   30554828.4229447     
   30554777.7605422     
   28542703.2842466     
   28542623.9810634     
   28542402.0730145     
   28542066.4386266     
   28541645.4138566     
   28541165.5656870     
   28540651.0440508     
   28540123.4302615     
   28539601.9417674     
   28539103.8419232     
   28538644.9208107     
   28538239.9376494     
   28537902.9341568     
   28537647.3412834     
   28537485.8200541     
   28537429.8112195     
   26525703.9148261     
   26525614.5249780     
   26525367.1602938     
   26524997.2018066     
   26524537.9314678     
   26524019.2823318     
   26523467.3868216     
   26522904.7548440     
   26522350.8467372     
   26521822.8276116     
   26521336.3470012     
   26520906.2350218     
   26520547.0228551     
   26520273.1914628     
   26520099.0548585     
   26520038.2189337     
   24508507.9996224     
   24508408.9566696     
   24508138.1544949     
   24507738.3083424     
   24507247.8982979     
   24506699.9563787     
   24506121.9868237     
   24505536.6631148     
   24504962.9033692     
   24504417.0361122     
   24503913.9071757     
   24503467.8573726     
   24503093.5002448     
   24502806.1829920     
   24502621.9726596     
   24502557.0331280     
   22491031.8504502     
   22490924.0597785     
   22490633.4161591     
   22490210.8902310     
   22489700.2029798     
   22489136.8331612     
   22488548.6594744     
   22487957.4737894     
   22487380.7047107     
   22486833.0154882     
   22486327.7085932     
   22485877.9708675     
   22485497.9583499     
   22485203.5855189     
   22485012.7487527     
   22484944.6817335     
   20473187.8736390     
   20473072.9040904     
   20472768.2560946     
   20472334.1337997     
   20471819.0661677     
   20471259.6521594     
   20470682.6114523     
   20470107.5347346     
   20469549.3452702     
   20469020.2383270     
   20468531.2466951     
   20468093.6672137     
   20467720.4711763     
   20467427.6113156     
   20467234.7667137     
   20467164.8689939     
   18454884.1065639     
   18454764.5322172     
   18454455.1205461     
   18454026.1540423     
   18453529.4387393     
   18453000.2112184     
   18452461.8614058     
   18451930.3406510     
   18451417.1994957     
   18450931.5750097     
   18450481.6900607     
   18450076.2335036     
   18449726.0396550     
   18449446.1147566     
   18449257.4971915     
   18449187.5148814     
   16436023.3209623     
   16435903.4558402     
   16435604.2426997     
   16435205.9204940     
   16434759.5606889     
   16434294.7721935     
   16433829.1061590     
   16433373.8169553     
   16432936.6505596     
   16432523.5209861     
   16432139.6804325     
   16431790.8247280     
   16431484.4946864     
   16431233.0200762     
   16431057.3904953     
   16430989.7196188     
   14416501.3903908     
   14416389.1149960     
   14416125.8657631     
   14415797.7915487     
   14415445.4232177     
   14415087.2784793     
   14414733.8941637     
   14414391.6382353     
   14414064.6987532     
   14413756.1355597     
   14413468.5932740     
   14413204.9420193     
   14412969.2217736     
   14412768.0621115     
   14412618.5858904     
   14412557.2589482     
   12396203.7179431     
   12396116.3825888     
   12395939.4441602     
   12395741.2258231     
   12395536.3795557     
   12395332.8138297     
   12395134.6602098     
   12394944.3481871     
   12394763.3853370     
   12394592.8007896     
   12394433.4314923     
   12394286.1741442     
   12394152.2573862     
   12394034.0690250     
   12393934.6629359     
   12393884.6365947     
   10375000.0000000     
   10375000.0000000     
   10375000.0000000     
   10375000.0000000     
   10375000.0000000     
   10375000.0000000     
   10375000.0000000     
   10375000.0000000     
   10375000.0000000     
   10375000.0000000     
   10375000.0000000     
   10375000.0000000     
   10375000.0000000     
   10375000.0000000     
   10375000.0000000     
   10375000.0000000     
VECTORS u double 
    0.00000E+00        -0.38999E-02         0.00000E+00
    0.00000E+00        -0.26062E-02         0.00000E+00
    0.00000E+00        -0.15699E-02         0.00000E+00
    0.00000E+00        -0.91915E-03         0.00000E+00
    0.00000E+00        -0.61168E-03         0.00000E+00
    0.00000E+00        -0.48213E-03         0.00000E+00
    0.00000E+00        -0.40303E-03         0.00000E+00
    0.00000E+00        -0.29443E-03         0.00000E+00
    0.00000E+00        -0.16265E-03         0.00000E+00
    0.00000E+00        -0.18003E-04         0.00000E+00
    0.00000E+00         0.12294E-03         0.00000E+00
    0.00000E+00         0.24256E-03         0.00000E+00
    0.00000E+00         0.32130E-03         0.00000E+00
    0.00000E+00         0.33527E-03         0.00000E+00
    0.00000E+00         0.25154E-03         0.00000E+00
    0.00000E+00         0.00000E+00         0.00000E+00
    0.46429E-02        -0.38678E-02         0.00000E+00
    0.44043E-02        -0.27220E-02         0.00000E+00
    0.38450E-02        -0.18734E-02         0.00000E+00
    0.31804E-02        -0.13260E-02         0.00000E+00
    0.25785E-02        -0.10033E-02         0.00000E+00
    0.21109E-02        -0.80531E-03         0.00000E+00
    0.17397E-02        -0.64008E-03         0.00000E+00
    0.14868E-02        -0.46778E-03         0.00000E+00
    0.13293E-02        -0.29367E-03         0.00000E+00
    0.11927E-02        -0.12175E-03         0.00000E+00
    0.10591E-02         0.39229E-04         0.00000E+00
    0.91887E-03         0.17485E-03         0.00000E+00
    0.76346E-03         0.26719E-03         0.00000E+00
    0.58104E-03         0.29342E-03         0.00000E+00
    0.35036E-03         0.22115E-03         0.00000E+00
    0.00000E+00         0.00000E+00         0.00000E+00
    0.83903E-02        -0.40231E-02         0.00000E+00
    0.76256E-02        -0.32566E-02         0.00000E+00
    0.65877E-02        -0.26968E-02         0.00000E+00
    0.55302E-02        -0.22525E-02         0.00000E+00
    0.45856E-02        -0.18716E-02         0.00000E+00
    0.38155E-02        -0.15324E-02         0.00000E+00
    0.32516E-02        -0.12188E-02         0.00000E+00
    0.28477E-02        -0.92920E-03         0.00000E+00
    0.25317E-02        -0.66238E-03         0.00000E+00
    0.22549E-02        -0.42009E-03         0.00000E+00
    0.19856E-02        -0.20381E-03         0.00000E+00
    0.17051E-02        -0.22081E-04         0.00000E+00
    0.13964E-02         0.11095E-03         0.00000E+00
    0.10382E-02         0.17575E-03         0.00000E+00
    0.59401E-03         0.14646E-03         0.00000E+00
    0.00000E+00         0.00000E+00         0.00000E+00
    0.11109E-01        -0.49427E-02         0.00000E+00
    0.98057E-02        -0.43654E-02         0.00000E+00
    0.84636E-02        -0.38714E-02         0.00000E+00
    0.72410E-02        -0.33877E-02         0.00000E+00
    0.61923E-02        -0.29078E-02         0.00000E+00
    0.53290E-02        -0.24411E-02         0.00000E+00
    0.46378E-02        -0.19979E-02         0.00000E+00
    0.40856E-02        -0.15888E-02         0.00000E+00
    0.36227E-02        -0.12171E-02         0.00000E+00
    0.32051E-02        -0.88215E-03         0.00000E+00
    0.27996E-02        -0.58547E-03         0.00000E+00
    0.23803E-02        -0.33223E-03         0.00000E+00
    0.19237E-02        -0.13259E-03         0.00000E+00
    0.14021E-02        -0.90854E-06         0.00000E+00
    0.77785E-03         0.47039E-04         0.00000E+00
    0.00000E+00         0.00000E+00         0.00000E+00
    0.13018E-01        -0.64113E-02         0.00000E+00
    0.11455E-01        -0.58045E-02         0.00000E+00
    0.10042E-01        -0.52177E-02         0.00000E+00
    0.87662E-02        -0.46281E-02         0.00000E+00
    0.76488E-02        -0.40401E-02         0.00000E+00
    0.66940E-02        -0.34640E-02         0.00000E+00
    0.58885E-02        -0.29112E-02         0.00000E+00
    0.52048E-02        -0.23915E-02         0.00000E+00
    0.46058E-02        -0.19114E-02         0.00000E+00
    0.40538E-02        -0.14735E-02         0.00000E+00
    0.35157E-02        -0.10801E-02         0.00000E+00
    0.29626E-02        -0.73527E-03         0.00000E+00
    0.23669E-02        -0.44617E-03         0.00000E+00
    0.16989E-02        -0.22198E-03         0.00000E+00
    0.92341E-03        -0.71680E-04         0.00000E+00
    0.00000E+00         0.00000E+00         0.00000E+00
    0.14626E-01        -0.81008E-02         0.00000E+00
    0.12972E-01        -0.73771E-02         0.00000E+00
    0.11480E-01        -0.66674E-02         0.00000E+00
    0.10142E-01        -0.59667E-02         0.00000E+00
    0.89540E-02        -0.52721E-02         0.00000E+00
    0.79131E-02        -0.45904E-02         0.00000E+00
    0.70048E-02        -0.39309E-02         0.00000E+00
    0.62051E-02        -0.33027E-02         0.00000E+00
    0.54835E-02        -0.27126E-02         0.00000E+00
    0.48071E-02        -0.21651E-02         0.00000E+00
    0.41445E-02        -0.16635E-02         0.00000E+00
    0.34661E-02        -0.12116E-02         0.00000E+00
    0.27430E-02        -0.81440E-03         0.00000E+00
    0.19457E-02        -0.47755E-03         0.00000E+00
    0.10424E-02        -0.20565E-03         0.00000E+00
    0.00000E+00         0.00000E+00         0.00000E+00
    0.16087E-01        -0.98878E-02         0.00000E+00
    0.14347E-01        -0.90454E-02         0.00000E+00
    0.12780E-01        -0.82186E-02         0.00000E+00
    0.11373E-01        -0.74030E-02         0.00000E+00
    0.10114E-01        -0.65984E-02         0.00000E+00
    0.89925E-02        -0.58087E-02         0.00000E+00
    0.79918E-02        -0.50406E-02         0.00000E+00
    0.70896E-02        -0.43016E-02         0.00000E+00
    0.62588E-02        -0.35980E-02         0.00000E+00
    0.54702E-02        -0.29348E-02         0.00000E+00
    0.46940E-02        -0.23159E-02         0.00000E+00
    0.39015E-02        -0.17447E-02         0.00000E+00
    0.30642E-02        -0.12249E-02         0.00000E+00
    0.21538E-02        -0.75994E-03         0.00000E+00
    0.11416E-02        -0.35176E-03         0.00000E+00
    0.00000E+00         0.00000E+00         0.00000E+00
    0.17393E-01        -0.11761E-01         0.00000E+00
    0.15576E-01        -0.10802E-01         0.00000E+00
    0.13938E-01        -0.98584E-02         0.00000E+00
    0.12463E-01        -0.89274E-02         0.00000E+00
    0.11135E-01        -0.80095E-02         0.00000E+00
    0.99388E-02        -0.71077E-02         0.00000E+00
    0.88553E-02        -0.62269E-02         0.00000E+00
    0.78627E-02        -0.53729E-02         0.00000E+00
    0.69359E-02        -0.45511E-02         0.00000E+00
    0.60478E-02        -0.37662E-02         0.00000E+00
    0.51706E-02        -0.30220E-02         0.00000E+00
    0.42766E-02        -0.23218E-02         0.00000E+00
    0.33388E-02        -0.16682E-02         0.00000E+00
    0.23303E-02        -0.10632E-02         0.00000E+00
    0.12254E-02        -0.50752E-03         0.00000E+00
    0.00000E+00         0.00000E+00         0.00000E+00
    0.18541E-01        -0.13712E-01         0.00000E+00
    0.16655E-01        -0.12637E-01         0.00000E+00
    0.14953E-01        -0.11576E-01         0.00000E+00
    0.13415E-01        -0.10528E-01         0.00000E+00
    0.12023E-01        -0.94944E-02         0.00000E+00
    0.10758E-01        -0.84765E-02         0.00000E+00
    0.96010E-02        -0.74784E-02         0.00000E+00
    0.85295E-02        -0.65045E-02         0.00000E+00
    0.75193E-02        -0.55592E-02         0.00000E+00
    0.65447E-02        -0.46468E-02         0.00000E+00
    0.55794E-02        -0.37705E-02         0.00000E+00
    0.45972E-02        -0.29331E-02         0.00000E+00
    0.35723E-02        -0.21368E-02         0.00000E+00
    0.24798E-02        -0.13827E-02         0.00000E+00
    0.12962E-02        -0.67091E-03         0.00000E+00
    0.00000E+00         0.00000E+00         0.00000E+00
    0.19528E-01        -0.15729E-01         0.00000E+00
    0.17582E-01        -0.14538E-01         0.00000E+00
    0.15823E-01        -0.13360E-01         0.00000E+00
    0.14229E-01        -0.12194E-01         0.00000E+00
    0.12779E-01        -0.11042E-01         0.00000E+00
    0.11455E-01        -0.99042E-02         0.00000E+00
    0.10234E-01        -0.87845E-02         0.00000E+00
    0.90949E-02        -0.76860E-02         0.00000E+00
    0.80135E-02        -0.66123E-02         0.00000E+00
    0.69652E-02        -0.55668E-02         0.00000E+00
    0.59249E-02        -0.45523E-02         0.00000E+00
    0.48676E-02        -0.35712E-02         0.00000E+00
    0.37689E-02        -0.26251E-02         0.00000E+00
    0.26056E-02        -0.17149E-02         0.00000E+00
    0.13558E-02        -0.84030E-03         0.00000E+00
    0.00000E+00         0.00000E+00         0.00000E+00
    0.20353E-01        -0.17801E-01         0.00000E+00
    0.18357E-01        -0.16494E-01         0.00000E+00
    0.16549E-01        -0.15198E-01         0.00000E+00
    0.14907E-01        -0.13914E-01         0.00000E+00
    0.13408E-01        -0.12641E-01         0.00000E+00
    0.12033E-01        -0.11381E-01         0.00000E+00
    0.10759E-01        -0.10136E-01         0.00000E+00
    0.95630E-02        -0.89085E-02         0.00000E+00
    0.84226E-02        -0.77017E-02         0.00000E+00
    0.73133E-02        -0.65182E-02         0.00000E+00
    0.62108E-02        -0.53603E-02         0.00000E+00
    0.50913E-02        -0.42301E-02         0.00000E+00
    0.39316E-02        -0.31288E-02         0.00000E+00
    0.27096E-02        -0.20569E-02         0.00000E+00
    0.14051E-02        -0.10144E-02         0.00000E+00
    0.00000E+00         0.00000E+00         0.00000E+00
    0.21014E-01        -0.19918E-01         0.00000E+00
    0.18980E-01        -0.18496E-01         0.00000E+00
    0.17132E-01        -0.17082E-01         0.00000E+00
    0.15450E-01        -0.15677E-01         0.00000E+00
    0.13911E-01        -0.14282E-01         0.00000E+00
    0.12495E-01        -0.12897E-01         0.00000E+00
    0.11178E-01        -0.11523E-01         0.00000E+00
    0.99375E-02        -0.10164E-01         0.00000E+00
    0.87501E-02        -0.88199E-02         0.00000E+00
    0.75922E-02        -0.74943E-02         0.00000E+00
    0.64401E-02        -0.61889E-02         0.00000E+00
    0.52709E-02        -0.49051E-02         0.00000E+00
    0.40623E-02        -0.36441E-02         0.00000E+00
    0.27934E-02        -0.24065E-02         0.00000E+00
    0.14450E-02        -0.11921E-02         0.00000E+00
    0.00000E+00         0.00000E+00         0.00000E+00
    0.21513E-01        -0.22070E-01         0.00000E+00
    0.19448E-01        -0.20532E-01         0.00000E+00
    0.17571E-01        -0.19000E-01         0.00000E+00
    0.15859E-01        -0.17475E-01         0.00000E+00
    0.14291E-01        -0.15955E-01         0.00000E+00
    0.12844E-01        -0.14443E-01         0.00000E+00
    0.11495E-01        -0.12939E-01         0.00000E+00
    0.10221E-01        -0.11444E-01         0.00000E+00
    0.89989E-02        -0.99602E-02         0.00000E+00
    0.78047E-02        -0.84893E-02         0.00000E+00
    0.66154E-02        -0.70328E-02         0.00000E+00
    0.54086E-02        -0.55921E-02         0.00000E+00
    0.41630E-02        -0.41683E-02         0.00000E+00
    0.28582E-02        -0.27617E-02         0.00000E+00
    0.14760E-02        -0.13724E-02         0.00000E+00
    0.00000E+00         0.00000E+00         0.00000E+00
    0.21849E-01        -0.24247E-01         0.00000E+00
    0.19764E-01        -0.22594E-01         0.00000E+00
    0.17866E-01        -0.20944E-01         0.00000E+00
    0.16135E-01        -0.19297E-01         0.00000E+00
    0.14548E-01        -0.17653E-01         0.00000E+00
    0.13081E-01        -0.16012E-01         0.00000E+00
    0.11712E-01        -0.14375E-01         0.00000E+00
    0.10417E-01        -0.12743E-01         0.00000E+00
    0.91713E-02        -0.11116E-01         0.00000E+00
    0.79529E-02        -0.94977E-02         0.00000E+00
    0.67385E-02        -0.78877E-02         0.00000E+00
    0.55061E-02        -0.62876E-02         0.00000E+00
    0.42347E-02        -0.46984E-02         0.00000E+00
    0.29047E-02        -0.31207E-02         0.00000E+00
    0.14984E-02        -0.15546E-02         0.00000E+00
    0.00000E+00         0.00000E+00         0.00000E+00
    0.22022E-01        -0.26441E-01         0.00000E+00
    0.19925E-01        -0.24672E-01         0.00000E+00
    0.18018E-01        -0.22904E-01         0.00000E+00
    0.16278E-01        -0.21135E-01         0.00000E+00
    0.14683E-01        -0.19366E-01         0.00000E+00
    0.13208E-01        -0.17596E-01         0.00000E+00
    0.11830E-01        -0.15824E-01         0.00000E+00
    0.10525E-01        -0.14053E-01         0.00000E+00
    0.92690E-02        -0.12283E-01         0.00000E+00
    0.80386E-02        -0.10514E-01         0.00000E+00
    0.68111E-02        -0.87492E-02         0.00000E+00
    0.55646E-02        -0.69882E-02         0.00000E+00
    0.42785E-02        -0.52322E-02         0.00000E+00
    0.29336E-02        -0.34819E-02         0.00000E+00
    0.15125E-02        -0.17378E-02         0.00000E+00
    0.00000E+00         0.00000E+00         0.00000E+00
    0.22031E-01        -0.28642E-01         0.00000E+00
    0.19932E-01        -0.26758E-01         0.00000E+00
    0.18026E-01        -0.24872E-01         0.00000E+00
    0.16288E-01        -0.22982E-01         0.00000E+00
    0.14696E-01        -0.21087E-01         0.00000E+00
    0.13225E-01        -0.19186E-01         0.00000E+00
    0.11851E-01        -0.17280E-01         0.00000E+00
    0.10548E-01        -0.15369E-01         0.00000E+00
    0.92934E-02        -0.13453E-01         0.00000E+00
    0.80630E-02        -0.11534E-01         0.00000E+00
    0.68341E-02        -0.96132E-02         0.00000E+00
    0.55849E-02        -0.76905E-02         0.00000E+00
    0.42950E-02        -0.57671E-02         0.00000E+00
    0.29453E-02        -0.38438E-02         0.00000E+00
    0.15187E-02        -0.19212E-02         0.00000E+00
    0.00000E+00         0.00000E+00         0.00000E+00
    0.21874E-01        -0.30842E-01         0.00000E+00
    0.19784E-01        -0.28843E-01         0.00000E+00
    0.17889E-01        -0.26839E-01         0.00000E+00
    0.16165E-01        -0.24828E-01         0.00000E+00
    0.14588E-01        -0.22806E-01         0.00000E+00
    0.13133E-01        -0.20775E-01         0.00000E+00
    0.11774E-01        -0.18734E-01         0.00000E+00
    0.10486E-01        -0.16683E-01         0.00000E+00
    0.92451E-02        -0.14622E-01         0.00000E+00
    0.80267E-02        -0.12553E-01         0.00000E+00
    0.68083E-02        -0.10476E-01         0.00000E+00
    0.55678E-02        -0.83913E-02         0.00000E+00
    0.42848E-02        -0.63007E-02         0.00000E+00
    0.29402E-02        -0.42047E-02         0.00000E+00
    0.15170E-02        -0.21042E-02         0.00000E+00
    0.00000E+00         0.00000E+00         0.00000E+00
    0.21550E-01        -0.33031E-01         0.00000E+00
    0.19478E-01        -0.30918E-01         0.00000E+00
    0.17605E-01        -0.28797E-01         0.00000E+00
    0.15907E-01        -0.26664E-01         0.00000E+00
    0.14358E-01        -0.24517E-01         0.00000E+00
    0.12931E-01        -0.22356E-01         0.00000E+00
    0.11601E-01        -0.20180E-01         0.00000E+00
    0.10340E-01        -0.17989E-01         0.00000E+00
    0.91246E-02        -0.15783E-01         0.00000E+00
    0.79303E-02        -0.13564E-01         0.00000E+00
    0.67339E-02        -0.11332E-01         0.00000E+00
    0.55133E-02        -0.90870E-02         0.00000E+00
    0.42478E-02        -0.68305E-02         0.00000E+00
    0.29184E-02        -0.45631E-02         0.00000E+00
    0.15075E-02        -0.22859E-02         0.00000E+00
    0.00000E+00         0.00000E+00         0.00000E+00
    0.21056E-01        -0.35199E-01         0.00000E+00
    0.19012E-01        -0.32974E-01         0.00000E+00
    0.17174E-01        -0.30736E-01         0.00000E+00
    0.15515E-01        -0.28482E-01         0.00000E+00
    0.14006E-01        -0.26210E-01         0.00000E+00
    0.12620E-01        -0.23920E-01         0.00000E+00
    0.11330E-01        -0.21609E-01         0.00000E+00
    0.10109E-01        -0.19279E-01         0.00000E+00
    0.89319E-02        -0.16930E-01         0.00000E+00
    0.77735E-02        -0.14563E-01         0.00000E+00
    0.66108E-02        -0.12177E-01         0.00000E+00
    0.54213E-02        -0.97739E-02         0.00000E+00
    0.41840E-02        -0.73536E-02         0.00000E+00
    0.28796E-02        -0.49170E-02         0.00000E+00
    0.14901E-02        -0.24654E-02         0.00000E+00
    0.00000E+00         0.00000E+00         0.00000E+00
    0.20387E-01        -0.37337E-01         0.00000E+00
    0.18384E-01        -0.35000E-01         0.00000E+00
    0.16594E-01        -0.32646E-01         0.00000E+00
    0.14986E-01        -0.30272E-01         0.00000E+00
    0.13531E-01        -0.27876E-01         0.00000E+00
    0.12199E-01        -0.25456E-01         0.00000E+00
    0.10962E-01        -0.23013E-01         0.00000E+00
    0.97936E-02        -0.20546E-01         0.00000E+00
    0.86664E-02        -0.18056E-01         0.00000E+00
    0.75558E-02        -0.15542E-01         0.00000E+00
    0.64382E-02        -0.13006E-01         0.00000E+00
    0.52910E-02        -0.10448E-01         0.00000E+00
    0.40927E-02        -0.78670E-02         0.00000E+00
    0.28234E-02        -0.52647E-02         0.00000E+00
    0.14646E-02        -0.26418E-02         0.00000E+00
    0.00000E+00         0.00000E+00         0.00000E+00
    0.19541E-01        -0.39433E-01         0.00000E+00
    0.17591E-01        -0.36984E-01         0.00000E+00
    0.15862E-01        -0.34515E-01         0.00000E+00
    0.14319E-01        -0.32022E-01         0.00000E+00
    0.12931E-01        -0.29502E-01         0.00000E+00
    0.11667E-01        -0.26955E-01         0.00000E+00
    0.10497E-01        -0.24381E-01         0.00000E+00
    0.93924E-02        -0.21779E-01         0.00000E+00
    0.83271E-02        -0.19151E-01         0.00000E+00
    0.72758E-02        -0.16495E-01         0.00000E+00
    0.62148E-02        -0.13813E-01         0.00000E+00
    0.51210E-02        -0.11104E-01         0.00000E+00
    0.39727E-02        -0.83673E-02         0.00000E+00
    0.27490E-02        -0.56038E-02         0.00000E+00
    0.14306E-02        -0.28141E-02         0.00000E+00
    0.00000E+00         0.00000E+00         0.00000E+00
    0.18511E-01        -0.41473E-01         0.00000E+00
    0.16630E-01        -0.38914E-01         0.00000E+00
    0.14976E-01        -0.36331E-01         0.00000E+00
    0.13513E-01        -0.33720E-01         0.00000E+00
    0.12207E-01        -0.31078E-01         0.00000E+00
    0.11024E-01        -0.28405E-01         0.00000E+00
    0.99324E-02        -0.25702E-01         0.00000E+00
    0.89042E-02        -0.22969E-01         0.00000E+00
    0.79123E-02        -0.20206E-01         0.00000E+00
    0.69317E-02        -0.17414E-01         0.00000E+00
    0.59384E-02        -0.14591E-01         0.00000E+00
    0.49093E-02        -0.11737E-01         0.00000E+00
    0.38221E-02        -0.88508E-02         0.00000E+00
    0.26550E-02        -0.59320E-02         0.00000E+00
    0.13874E-02        -0.29812E-02         0.00000E+00
    0.00000E+00         0.00000E+00         0.00000E+00
    0.17293E-01        -0.43443E-01         0.00000E+00
    0.15495E-01        -0.40776E-01         0.00000E+00
    0.13934E-01        -0.38079E-01         0.00000E+00
    0.12567E-01        -0.35350E-01         0.00000E+00
    0.11357E-01        -0.32588E-01         0.00000E+00
    0.10268E-01        -0.29792E-01         0.00000E+00
    0.92679E-02        -0.26963E-01         0.00000E+00
    0.83273E-02        -0.24103E-01         0.00000E+00
    0.74197E-02        -0.21212E-01         0.00000E+00
    0.65204E-02        -0.18288E-01         0.00000E+00
    0.56057E-02        -0.15332E-01         0.00000E+00
    0.46526E-02        -0.12341E-01         0.00000E+00
    0.36381E-02        -0.93130E-02         0.00000E+00
    0.25393E-02        -0.62468E-02         0.00000E+00
    0.13338E-02        -0.31419E-02         0.00000E+00
    0.00000E+00         0.00000E+00         0.00000E+00
    0.15880E-01        -0.45326E-01         0.00000E+00
    0.14185E-01        -0.42551E-01         0.00000E+00
    0.12734E-01        -0.39742E-01         0.00000E+00
    0.11480E-01        -0.36897E-01         0.00000E+00
    0.10381E-01        -0.34015E-01         0.00000E+00
    0.93995E-02        -0.31099E-01         0.00000E+00
    0.85018E-02        -0.28149E-01         0.00000E+00
    0.76593E-02        -0.25167E-01         0.00000E+00
    0.68460E-02        -0.22154E-01         0.00000E+00
    0.60380E-02        -0.19108E-01         0.00000E+00
    0.52124E-02        -0.16028E-01         0.00000E+00
    0.43464E-02        -0.12909E-01         0.00000E+00
    0.34165E-02        -0.97491E-02         0.00000E+00
    0.23987E-02        -0.65449E-02         0.00000E+00
    0.12681E-02        -0.32950E-02         0.00000E+00
    0.00000E+00         0.00000E+00         0.00000E+00
    0.14266E-01        -0.47102E-01         0.00000E+00
    0.12695E-01        -0.44221E-01         0.00000E+00
    0.11375E-01        -0.41301E-01         0.00000E+00
    0.10252E-01        -0.38340E-01         0.00000E+00
    0.92791E-02        -0.35341E-01         0.00000E+00
    0.84169E-02        -0.32308E-01         0.00000E+00
    0.76322E-02        -0.29242E-01         0.00000E+00
    0.68970E-02        -0.26146E-01         0.00000E+00
    0.61868E-02        -0.23020E-01         0.00000E+00
    0.54791E-02        -0.19861E-01         0.00000E+00
    0.47523E-02        -0.16668E-01         0.00000E+00
    0.39843E-02        -0.13433E-01         0.00000E+00
    0.31517E-02        -0.10154E-01         0.00000E+00
    0.22289E-02        -0.68233E-02         0.00000E+00
    0.11880E-02        -0.34389E-02         0.00000E+00
    0.00000E+00         0.00000E+00         0.00000E+00
    0.12444E-01        -0.48747E-01         0.00000E+00
    0.11023E-01        -0.45761E-01         0.00000E+00
    0.98569E-02        -0.42730E-01         0.00000E+00
    0.88832E-02        -0.39656E-01         0.00000E+00
    0.80510E-02        -0.36543E-01         0.00000E+00
    0.73195E-02        -0.33397E-01         0.00000E+00
    0.66565E-02        -0.30223E-01         0.00000E+00
    0.60362E-02        -0.27022E-01         0.00000E+00
    0.54362E-02        -0.23793E-01         0.00000E+00
    0.48364E-02        -0.20535E-01         0.00000E+00
    0.42173E-02        -0.17241E-01         0.00000E+00
    0.35582E-02        -0.13906E-01         0.00000E+00
    0.28359E-02        -0.10521E-01         0.00000E+00
    0.20236E-02        -0.70782E-02         0.00000E+00
    0.10900E-02        -0.35722E-02         0.00000E+00
    0.00000E+00         0.00000E+00         0.00000E+00
    0.10408E-01        -0.50234E-01         0.00000E+00
    0.91673E-02        -0.47144E-01         0.00000E+00
    0.81807E-02        -0.44003E-01         0.00000E+00
    0.73759E-02        -0.40817E-01         0.00000E+00
    0.66977E-02        -0.37594E-01         0.00000E+00
    0.61059E-02        -0.34344E-01         0.00000E+00
    0.55713E-02        -0.31071E-01         0.00000E+00
    0.50713E-02        -0.27776E-01         0.00000E+00
    0.45869E-02        -0.24459E-01         0.00000E+00
    0.41013E-02        -0.21114E-01         0.00000E+00
    0.35974E-02        -0.17736E-01         0.00000E+00
    0.30570E-02        -0.14316E-01         0.00000E+00
    0.24584E-02        -0.10843E-01         0.00000E+00
    0.17741E-02        -0.73054E-02         0.00000E+00
    0.96894E-03        -0.36931E-02         0.00000E+00
    0.00000E+00         0.00000E+00         0.00000E+00
    0.81498E-02        -0.51527E-01         0.00000E+00
    0.71277E-02        -0.48333E-01         0.00000E+00
    0.63504E-02        -0.45083E-01         0.00000E+00
    0.57331E-02        -0.41788E-01         0.00000E+00
    0.52195E-02        -0.38464E-01         0.00000E+00
    0.47737E-02        -0.35121E-01         0.00000E+00
    0.43716E-02        -0.31762E-01         0.00000E+00
    0.39953E-02        -0.28389E-01         0.00000E+00
    0.36301E-02        -0.24998E-01         0.00000E+00
    0.32629E-02        -0.21584E-01         0.00000E+00
    0.28803E-02        -0.18140E-01         0.00000E+00
    0.24673E-02        -0.14653E-01         0.00000E+00
    0.20053E-02        -0.11112E-01         0.00000E+00
    0.14681E-02        -0.74997E-02         0.00000E+00
    0.81750E-03        -0.37998E-02         0.00000E+00
    0.00000E+00         0.00000E+00         0.00000E+00
    0.56635E-02        -0.52580E-01         0.00000E+00
    0.49096E-02        -0.49284E-01         0.00000E+00
    0.43732E-02        -0.45926E-01         0.00000E+00
    0.39580E-02        -0.42532E-01         0.00000E+00
    0.36150E-02        -0.39121E-01         0.00000E+00
    0.33180E-02        -0.35702E-01         0.00000E+00
    0.30501E-02        -0.32276E-01         0.00000E+00
    0.27990E-02        -0.28843E-01         0.00000E+00
    0.25550E-02        -0.25397E-01         0.00000E+00
    0.23090E-02        -0.21932E-01         0.00000E+00
    0.20519E-02        -0.18439E-01         0.00000E+00
    0.17730E-02        -0.14906E-01         0.00000E+00
    0.14586E-02        -0.11318E-01         0.00000E+00
    0.10880E-02        -0.76543E-02         0.00000E+00
    0.62382E-03        -0.38895E-02         0.00000E+00
    0.00000E+00         0.00000E+00         0.00000E+00
    0.29432E-02        -0.53327E-01         0.00000E+00
    0.25267E-02        -0.49928E-01         0.00000E+00
    0.22572E-02        -0.46473E-01         0.00000E+00
    0.20498E-02        -0.43003E-01         0.00000E+00
    0.18789E-02        -0.39531E-01         0.00000E+00
    0.17307E-02        -0.36062E-01         0.00000E+00
    0.15970E-02        -0.32593E-01         0.00000E+00
    0.14715E-02        -0.29122E-01         0.00000E+00
    0.13494E-02        -0.25642E-01         0.00000E+00
    0.12261E-02        -0.22146E-01         0.00000E+00
    0.10970E-02        -0.18624E-01         0.00000E+00
    0.95657E-03        -0.15064E-01         0.00000E+00
    0.79754E-03        -0.11449E-01         0.00000E+00
    0.60826E-03        -0.77574E-02         0.00000E+00
    0.36676E-03        -0.39581E-02         0.00000E+00
    0.00000E+00         0.00000E+00         0.00000E+00
    0.00000E+00        -0.53645E-01         0.00000E+00
    0.00000E+00        -0.50165E-01         0.00000E+00
    0.00000E+00        -0.46664E-01         0.00000E+00
    0.00000E+00        -0.43165E-01         0.00000E+00
    0.00000E+00        -0.39671E-01         0.00000E+00
    0.00000E+00        -0.36184E-01         0.00000E+00
    0.00000E+00        -0.32700E-01         0.00000E+00
    0.00000E+00        -0.29216E-01         0.00000E+00
    0.00000E+00        -0.25725E-01         0.00000E+00
    0.00000E+00        -0.22219E-01         0.00000E+00
    0.00000E+00        -0.18687E-01         0.00000E+00
    0.00000E+00        -0.15118E-01         0.00000E+00
    0.00000E+00        -0.11494E-01         0.00000E+00
    0.00000E+00        -0.77942E-02         0.00000E+00
    0.00000E+00        -0.39865E-02         0.00000E+00
    0.00000E+00         0.00000E+00         0.00000E+00
CELL_DATA        450
VECTORS vDarcy double 
    0.11597E-05         0.17854E-09         0.00000E+00
    0.11596E-05         0.47809E-09         0.00000E+00
    0.11596E-05         0.68658E-09         0.00000E+00
    0.11596E-05         0.83907E-09         0.00000E+00
    0.11595E-05         0.95961E-09         0.00000E+00
    0.11595E-05         0.10445E-08         0.00000E+00
    0.11595E-05         0.10705E-08         0.00000E+00
    0.11595E-05         0.99463E-09         0.00000E+00
    0.11596E-05         0.89368E-09         0.00000E+00
    0.11596E-05         0.79352E-09         0.00000E+00
    0.11596E-05         0.68841E-09         0.00000E+00
    0.11596E-05         0.57487E-09         0.00000E+00
    0.11596E-05         0.44881E-09         0.00000E+00
    0.11596E-05         0.30277E-09         0.00000E+00
    0.11596E-05         0.11234E-09         0.00000E+00
    0.11589E-05         0.12712E-09         0.00000E+00
    0.11588E-05         0.33489E-09         0.00000E+00
    0.11587E-05         0.47219E-09         0.00000E+00
    0.11586E-05         0.58351E-09         0.00000E+00
    0.11586E-05         0.68791E-09         0.00000E+00
    0.11586E-05         0.77574E-09         0.00000E+00
    0.11587E-05         0.80300E-09         0.00000E+00
    0.11587E-05         0.79076E-09         0.00000E+00
    0.11588E-05         0.73873E-09         0.00000E+00
    0.11588E-05         0.66569E-09         0.00000E+00
    0.11588E-05         0.57805E-09         0.00000E+00
    0.11588E-05         0.47656E-09         0.00000E+00
    0.11588E-05         0.35961E-09         0.00000E+00
    0.11588E-05         0.22338E-09         0.00000E+00
    0.11588E-05         0.75532E-10         0.00000E+00
    0.11581E-05         0.74661E-10         0.00000E+00
    0.11579E-05         0.21538E-09         0.00000E+00
    0.11578E-05         0.34767E-09         0.00000E+00
    0.11578E-05         0.45365E-09         0.00000E+00
    0.11578E-05         0.52707E-09         0.00000E+00
    0.11579E-05         0.58448E-09         0.00000E+00
    0.11580E-05         0.60950E-09         0.00000E+00
    0.11580E-05         0.61298E-09         0.00000E+00
    0.11580E-05         0.58842E-09         0.00000E+00
    0.11581E-05         0.53946E-09         0.00000E+00
    0.11581E-05         0.47106E-09         0.00000E+00
    0.11581E-05         0.38621E-09         0.00000E+00
    0.11581E-05         0.28637E-09         0.00000E+00
    0.11581E-05         0.17496E-09         0.00000E+00
    0.11580E-05         0.59219E-10         0.00000E+00
    0.11572E-05         0.56706E-10         0.00000E+00
    0.11571E-05         0.15480E-09         0.00000E+00
    0.11571E-05         0.26446E-09         0.00000E+00
    0.11572E-05         0.35456E-09         0.00000E+00
    0.11572E-05         0.41153E-09         0.00000E+00
    0.11572E-05         0.44365E-09         0.00000E+00
    0.11573E-05         0.46699E-09         0.00000E+00
    0.11573E-05         0.47311E-09         0.00000E+00
    0.11573E-05         0.46011E-09         0.00000E+00
    0.11574E-05         0.42674E-09         0.00000E+00
    0.11574E-05         0.37512E-09         0.00000E+00
    0.11574E-05         0.30780E-09         0.00000E+00
    0.11574E-05         0.22786E-09         0.00000E+00
    0.11573E-05         0.13936E-09         0.00000E+00
    0.11573E-05         0.47502E-10         0.00000E+00
    0.11566E-05         0.45082E-10         0.00000E+00
    0.11566E-05         0.12602E-09         0.00000E+00
    0.11566E-05         0.19997E-09         0.00000E+00
    0.11566E-05         0.26092E-09         0.00000E+00
    0.11566E-05         0.30919E-09         0.00000E+00
    0.11566E-05         0.33949E-09         0.00000E+00
    0.11566E-05         0.35739E-09         0.00000E+00
    0.11566E-05         0.36350E-09         0.00000E+00
    0.11567E-05         0.35531E-09         0.00000E+00
    0.11567E-05         0.33181E-09         0.00000E+00
    0.11567E-05         0.29338E-09         0.00000E+00
    0.11567E-05         0.24184E-09         0.00000E+00
    0.11567E-05         0.17988E-09         0.00000E+00
    0.11567E-05         0.11084E-09         0.00000E+00
    0.11566E-05         0.38276E-10         0.00000E+00
    0.11560E-05         0.28690E-10         0.00000E+00
    0.11560E-05         0.90333E-10         0.00000E+00
    0.11560E-05         0.14613E-09         0.00000E+00
    0.11560E-05         0.19306E-09         0.00000E+00
    0.11560E-05         0.22962E-09         0.00000E+00
    0.11560E-05         0.25528E-09         0.00000E+00
    0.11560E-05         0.27050E-09         0.00000E+00
    0.11560E-05         0.27584E-09         0.00000E+00
    0.11560E-05         0.27051E-09         0.00000E+00
    0.11560E-05         0.25368E-09         0.00000E+00
    0.11560E-05         0.22547E-09         0.00000E+00
    0.11560E-05         0.18697E-09         0.00000E+00
    0.11560E-05         0.14011E-09         0.00000E+00
    0.11560E-05         0.87217E-10         0.00000E+00
    0.11560E-05         0.30584E-10         0.00000E+00
    0.11555E-05         0.21415E-10         0.00000E+00
    0.11554E-05         0.64029E-10         0.00000E+00
    0.11554E-05         0.10477E-09         0.00000E+00
    0.11554E-05         0.13966E-09         0.00000E+00
    0.11554E-05         0.16746E-09         0.00000E+00
    0.11554E-05         0.18757E-09         0.00000E+00
    0.11554E-05         0.19999E-09         0.00000E+00
    0.11554E-05         0.20470E-09         0.00000E+00
    0.11554E-05         0.20135E-09         0.00000E+00
    0.11554E-05         0.18956E-09         0.00000E+00
    0.11554E-05         0.16935E-09         0.00000E+00
    0.11554E-05         0.14139E-09         0.00000E+00
    0.11554E-05         0.10688E-09         0.00000E+00
    0.11554E-05         0.67312E-10         0.00000E+00
    0.11554E-05         0.24025E-10         0.00000E+00
    0.11549E-05         0.15423E-10         0.00000E+00
    0.11548E-05         0.44843E-10         0.00000E+00
    0.11548E-05         0.72915E-10         0.00000E+00
    0.11548E-05         0.97606E-10         0.00000E+00
    0.11548E-05         0.11765E-09         0.00000E+00
    0.11548E-05         0.13255E-09         0.00000E+00
    0.11548E-05         0.14207E-09         0.00000E+00
    0.11548E-05         0.14604E-09         0.00000E+00
    0.11548E-05         0.14422E-09         0.00000E+00
    0.11548E-05         0.13642E-09         0.00000E+00
    0.11548E-05         0.12262E-09         0.00000E+00
    0.11548E-05         0.10319E-09         0.00000E+00
    0.11548E-05         0.78817E-10         0.00000E+00
    0.11548E-05         0.50304E-10         0.00000E+00
    0.11548E-05         0.18337E-10         0.00000E+00
    0.11543E-05         0.10616E-10         0.00000E+00
    0.11543E-05         0.29744E-10         0.00000E+00
    0.11543E-05         0.47720E-10         0.00000E+00
    0.11542E-05         0.63662E-10         0.00000E+00
    0.11542E-05         0.76876E-10         0.00000E+00
    0.11542E-05         0.86949E-10         0.00000E+00
    0.11542E-05         0.93651E-10         0.00000E+00
    0.11542E-05         0.96787E-10         0.00000E+00
    0.11542E-05         0.96161E-10         0.00000E+00
    0.11542E-05         0.91602E-10         0.00000E+00
    0.11542E-05         0.83061E-10         0.00000E+00
    0.11542E-05         0.70668E-10         0.00000E+00
    0.11542E-05         0.54712E-10         0.00000E+00
    0.11542E-05         0.35526E-10         0.00000E+00
    0.11542E-05         0.13324E-10         0.00000E+00
    0.11537E-05         0.65869E-11         0.00000E+00
    0.11537E-05         0.17215E-10         0.00000E+00
    0.11537E-05         0.26791E-10         0.00000E+00
    0.11537E-05         0.35253E-10         0.00000E+00
    0.11537E-05         0.42417E-10         0.00000E+00
    0.11537E-05         0.48109E-10         0.00000E+00
    0.11537E-05         0.52175E-10         0.00000E+00
    0.11537E-05         0.54454E-10         0.00000E+00
    0.11537E-05         0.54763E-10         0.00000E+00
    0.11537E-05         0.52922E-10         0.00000E+00
    0.11537E-05         0.48802E-10         0.00000E+00
    0.11537E-05         0.42346E-10         0.00000E+00
    0.11537E-05         0.33555E-10         0.00000E+00
    0.11537E-05         0.22419E-10         0.00000E+00
    0.11537E-05         0.88180E-11         0.00000E+00
    0.11532E-05         0.29769E-11         0.00000E+00
    0.11532E-05         0.61598E-11         0.00000E+00
    0.11532E-05         0.84387E-11         0.00000E+00
    0.11532E-05         0.10354E-10         0.00000E+00
    0.11532E-05         0.12146E-10         0.00000E+00
    0.11532E-05         0.13888E-10         0.00000E+00
    0.11532E-05         0.15545E-10         0.00000E+00
    0.11532E-05         0.17005E-10         0.00000E+00
    0.11532E-05         0.18096E-10         0.00000E+00
    0.11532E-05         0.18607E-10         0.00000E+00
    0.11532E-05         0.18322E-10         0.00000E+00
    0.11532E-05         0.17031E-10         0.00000E+00
    0.11532E-05         0.14517E-10         0.00000E+00
    0.11532E-05         0.10521E-10         0.00000E+00
    0.11532E-05         0.46833E-11         0.00000E+00
    0.11527E-05        -0.48378E-12         0.00000E+00
    0.11527E-05        -0.42271E-11         0.00000E+00
    0.11526E-05        -0.85795E-11         0.00000E+00
    0.11526E-05        -0.12560E-10         0.00000E+00
    0.11526E-05        -0.15600E-10         0.00000E+00
    0.11527E-05        -0.17416E-10         0.00000E+00
    0.11527E-05        -0.17924E-10         0.00000E+00
    0.11527E-05        -0.17188E-10         0.00000E+00
    0.11527E-05        -0.15378E-10         0.00000E+00
    0.11527E-05        -0.12742E-10         0.00000E+00
    0.11527E-05        -0.95787E-11         0.00000E+00
    0.11527E-05        -0.62252E-11         0.00000E+00
    0.11527E-05        -0.30640E-11         0.00000E+00
    0.11527E-05        -0.54098E-12         0.00000E+00
    0.11527E-05         0.80726E-12         0.00000E+00
    0.11522E-05        -0.39923E-11         0.00000E+00
    0.11522E-05        -0.14529E-10         0.00000E+00
    0.11522E-05        -0.25168E-10         0.00000E+00
    0.11522E-05        -0.34621E-10         0.00000E+00
    0.11522E-05        -0.42083E-10         0.00000E+00
    0.11522E-05        -0.47112E-10         0.00000E+00
    0.11522E-05        -0.49537E-10         0.00000E+00
    0.11522E-05        -0.49389E-10         0.00000E+00
    0.11522E-05        -0.46846E-10         0.00000E+00
    0.11523E-05        -0.42197E-10         0.00000E+00
    0.11523E-05        -0.35816E-10         0.00000E+00
    0.11523E-05        -0.28146E-10         0.00000E+00
    0.11523E-05        -0.19697E-10         0.00000E+00
    0.11523E-05        -0.11058E-10         0.00000E+00
    0.11523E-05        -0.28990E-11         0.00000E+00
    0.11517E-05        -0.76870E-11         0.00000E+00
    0.11517E-05        -0.25159E-10         0.00000E+00
    0.11517E-05        -0.41971E-10         0.00000E+00
    0.11517E-05        -0.56640E-10         0.00000E+00
    0.11517E-05        -0.68215E-10         0.00000E+00
    0.11517E-05        -0.76160E-10         0.00000E+00
    0.11518E-05        -0.80258E-10         0.00000E+00
    0.11518E-05        -0.80530E-10         0.00000E+00
    0.11518E-05        -0.77180E-10         0.00000E+00
    0.11518E-05        -0.70543E-10         0.00000E+00
    0.11518E-05        -0.61060E-10         0.00000E+00
    0.11519E-05        -0.49261E-10         0.00000E+00
    0.11519E-05        -0.35757E-10         0.00000E+00
    0.11519E-05        -0.21244E-10         0.00000E+00
    0.11519E-05        -0.65025E-11         0.00000E+00
    0.11512E-05        -0.11660E-10         0.00000E+00
    0.11512E-05        -0.36391E-10         0.00000E+00
    0.11512E-05        -0.59419E-10         0.00000E+00
    0.11513E-05        -0.79164E-10         0.00000E+00
    0.11513E-05        -0.94615E-10         0.00000E+00
    0.11513E-05        -0.10521E-09         0.00000E+00
    0.11513E-05        -0.11073E-09         0.00000E+00
    0.11514E-05        -0.11124E-09         0.00000E+00
    0.11514E-05        -0.10696E-09         0.00000E+00
    0.11514E-05        -0.98302E-10         0.00000E+00
    0.11515E-05        -0.85756E-10         0.00000E+00
    0.11515E-05        -0.69925E-10         0.00000E+00
    0.11515E-05        -0.51497E-10         0.00000E+00
    0.11515E-05        -0.31249E-10         0.00000E+00
    0.11515E-05        -0.10050E-10         0.00000E+00
    0.11508E-05        -0.15968E-10         0.00000E+00
    0.11508E-05        -0.48390E-10         0.00000E+00
    0.11508E-05        -0.77762E-10         0.00000E+00
    0.11509E-05        -0.10250E-09         0.00000E+00
    0.11509E-05        -0.12163E-09         0.00000E+00
    0.11509E-05        -0.13462E-09         0.00000E+00
    0.11510E-05        -0.14132E-09         0.00000E+00
    0.11510E-05        -0.14185E-09         0.00000E+00
    0.11510E-05        -0.13651E-09         0.00000E+00
    0.11511E-05        -0.12575E-09         0.00000E+00
    0.11511E-05        -0.11014E-09         0.00000E+00
    0.11511E-05        -0.90329E-10         0.00000E+00
    0.11512E-05        -0.67055E-10         0.00000E+00
    0.11512E-05        -0.41157E-10         0.00000E+00
    0.11512E-05        -0.13568E-10         0.00000E+00
    0.11504E-05        -0.20632E-10         0.00000E+00
    0.11504E-05        -0.61218E-10         0.00000E+00
    0.11505E-05        -0.97092E-10         0.00000E+00
    0.11505E-05        -0.12676E-09         0.00000E+00
    0.11505E-05        -0.14936E-09         0.00000E+00
    0.11506E-05        -0.16448E-09         0.00000E+00
    0.11506E-05        -0.17209E-09         0.00000E+00
    0.11507E-05        -0.17242E-09         0.00000E+00
    0.11507E-05        -0.16586E-09         0.00000E+00
    0.11508E-05        -0.15294E-09         0.00000E+00
    0.11508E-05        -0.13426E-09         0.00000E+00
    0.11508E-05        -0.11051E-09         0.00000E+00
    0.11508E-05        -0.82465E-10         0.00000E+00
    0.11509E-05        -0.50990E-10         0.00000E+00
    0.11509E-05        -0.17066E-10         0.00000E+00
    0.11500E-05        -0.25645E-10         0.00000E+00
    0.11501E-05        -0.74850E-10         0.00000E+00
    0.11501E-05        -0.11735E-09         0.00000E+00
    0.11502E-05        -0.15184E-09         0.00000E+00
    0.11502E-05        -0.17766E-09         0.00000E+00
    0.11503E-05        -0.19460E-09         0.00000E+00
    0.11503E-05        -0.20284E-09         0.00000E+00
    0.11504E-05        -0.20273E-09         0.00000E+00
    0.11504E-05        -0.19481E-09         0.00000E+00
    0.11505E-05        -0.17967E-09         0.00000E+00
    0.11505E-05        -0.15795E-09         0.00000E+00
    0.11505E-05        -0.13036E-09         0.00000E+00
    0.11506E-05        -0.97654E-10         0.00000E+00
    0.11506E-05        -0.60714E-10         0.00000E+00
    0.11506E-05        -0.20536E-10         0.00000E+00
    0.11497E-05        -0.30974E-10         0.00000E+00
    0.11498E-05        -0.89170E-10         0.00000E+00
    0.11498E-05        -0.13833E-09         0.00000E+00
    0.11499E-05        -0.17743E-09         0.00000E+00
    0.11499E-05        -0.20613E-09         0.00000E+00
    0.11500E-05        -0.22453E-09         0.00000E+00
    0.11500E-05        -0.23305E-09         0.00000E+00
    0.11501E-05        -0.23227E-09         0.00000E+00
    0.11501E-05        -0.22287E-09         0.00000E+00
    0.11502E-05        -0.20551E-09         0.00000E+00
    0.11502E-05        -0.18085E-09         0.00000E+00
    0.11503E-05        -0.14959E-09         0.00000E+00
    0.11503E-05        -0.11244E-09         0.00000E+00
    0.11503E-05        -0.70232E-10         0.00000E+00
    0.11504E-05        -0.23948E-10         0.00000E+00
    0.11494E-05        -0.36553E-10         0.00000E+00
    0.11495E-05        -0.10397E-09         0.00000E+00
    0.11495E-05        -0.15965E-09         0.00000E+00
    0.11496E-05        -0.20301E-09         0.00000E+00
    0.11497E-05        -0.23412E-09         0.00000E+00
    0.11497E-05        -0.25349E-09         0.00000E+00
    0.11498E-05        -0.26191E-09         0.00000E+00
    0.11499E-05        -0.26023E-09         0.00000E+00
    0.11499E-05        -0.24926E-09         0.00000E+00
    0.11500E-05        -0.22976E-09         0.00000E+00
    0.11500E-05        -0.20240E-09         0.00000E+00
    0.11501E-05        -0.16778E-09         0.00000E+00
    0.11501E-05        -0.12654E-09         0.00000E+00
    0.11501E-05        -0.79388E-10         0.00000E+00
    0.11502E-05        -0.27259E-10         0.00000E+00
    0.11492E-05        -0.42288E-10         0.00000E+00
    0.11492E-05        -0.11895E-09         0.00000E+00
    0.11493E-05        -0.18079E-09         0.00000E+00
    0.11494E-05        -0.22781E-09         0.00000E+00
    0.11495E-05        -0.26066E-09         0.00000E+00
    0.11495E-05        -0.28041E-09         0.00000E+00
    0.11496E-05        -0.28828E-09         0.00000E+00
    0.11497E-05        -0.28544E-09         0.00000E+00
    0.11497E-05        -0.27290E-09         0.00000E+00
    0.11498E-05        -0.25148E-09         0.00000E+00
    0.11498E-05        -0.22179E-09         0.00000E+00
    0.11499E-05        -0.18432E-09         0.00000E+00
    0.11499E-05        -0.13953E-09         0.00000E+00
    0.11500E-05        -0.87960E-10         0.00000E+00
    0.11500E-05        -0.30404E-10         0.00000E+00
    0.11490E-05        -0.48047E-10         0.00000E+00
    0.11490E-05        -0.13367E-09         0.00000E+00
    0.11491E-05        -0.20099E-09         0.00000E+00
    0.11492E-05        -0.25077E-09         0.00000E+00
    0.11493E-05        -0.28445E-09         0.00000E+00
    0.11494E-05        -0.30382E-09         0.00000E+00
    0.11494E-05        -0.31062E-09         0.00000E+00
    0.11495E-05        -0.30640E-09         0.00000E+00
    0.11496E-05        -0.29238E-09         0.00000E+00
    0.11496E-05        -0.26939E-09         0.00000E+00
    0.11497E-05        -0.23797E-09         0.00000E+00
    0.11497E-05        -0.19840E-09         0.00000E+00
    0.11498E-05        -0.15087E-09         0.00000E+00
    0.11498E-05        -0.95656E-10         0.00000E+00
    0.11499E-05        -0.33299E-10         0.00000E+00
    0.11488E-05        -0.53657E-10         0.00000E+00
    0.11489E-05        -0.14756E-09         0.00000E+00
    0.11490E-05        -0.21923E-09         0.00000E+00
    0.11491E-05        -0.27048E-09         0.00000E+00
    0.11492E-05        -0.30379E-09         0.00000E+00
    0.11492E-05        -0.32183E-09         0.00000E+00
    0.11493E-05        -0.32700E-09         0.00000E+00
    0.11494E-05        -0.32124E-09         0.00000E+00
    0.11495E-05        -0.30594E-09         0.00000E+00
    0.11495E-05        -0.28194E-09         0.00000E+00
    0.11496E-05        -0.24963E-09         0.00000E+00
    0.11496E-05        -0.20901E-09         0.00000E+00
    0.11497E-05        -0.15989E-09         0.00000E+00
    0.11497E-05        -0.10211E-09         0.00000E+00
    0.11498E-05        -0.35840E-10         0.00000E+00
    0.11487E-05        -0.58882E-10         0.00000E+00
    0.11488E-05        -0.15985E-09         0.00000E+00
    0.11489E-05        -0.23415E-09         0.00000E+00
    0.11490E-05        -0.28506E-09         0.00000E+00
    0.11491E-05        -0.31647E-09         0.00000E+00
    0.11492E-05        -0.33210E-09         0.00000E+00
    0.11492E-05        -0.33508E-09         0.00000E+00
    0.11493E-05        -0.32770E-09         0.00000E+00
    0.11494E-05        -0.31149E-09         0.00000E+00
    0.11494E-05        -0.28726E-09         0.00000E+00
    0.11495E-05        -0.25518E-09         0.00000E+00
    0.11496E-05        -0.21491E-09         0.00000E+00
    0.11496E-05        -0.16572E-09         0.00000E+00
    0.11496E-05        -0.10685E-09         0.00000E+00
    0.11497E-05        -0.37895E-10         0.00000E+00
    0.11486E-05        -0.63400E-10         0.00000E+00
    0.11487E-05        -0.16944E-09         0.00000E+00
    0.11488E-05        -0.24386E-09         0.00000E+00
    0.11489E-05        -0.29202E-09         0.00000E+00
    0.11490E-05        -0.31967E-09         0.00000E+00
    0.11491E-05        -0.33178E-09         0.00000E+00
    0.11492E-05        -0.33210E-09         0.00000E+00
    0.11493E-05        -0.32321E-09         0.00000E+00
    0.11493E-05        -0.30667E-09         0.00000E+00
    0.11494E-05        -0.28319E-09         0.00000E+00
    0.11494E-05        -0.25273E-09         0.00000E+00
    0.11495E-05        -0.21455E-09         0.00000E+00
    0.11495E-05        -0.16728E-09         0.00000E+00
    0.11496E-05        -0.10930E-09         0.00000E+00
    0.11496E-05        -0.39303E-10         0.00000E+00
    0.11486E-05        -0.66737E-10         0.00000E+00
    0.11487E-05        -0.17474E-09         0.00000E+00
    0.11488E-05        -0.24564E-09         0.00000E+00
    0.11489E-05        -0.28799E-09         0.00000E+00
    0.11490E-05        -0.30989E-09         0.00000E+00
    0.11491E-05        -0.31753E-09         0.00000E+00
    0.11492E-05        -0.31506E-09         0.00000E+00
    0.11493E-05        -0.30504E-09         0.00000E+00
    0.11493E-05        -0.28894E-09         0.00000E+00
    0.11494E-05        -0.26736E-09         0.00000E+00
    0.11494E-05        -0.24009E-09         0.00000E+00
    0.11495E-05        -0.20602E-09         0.00000E+00
    0.11495E-05        -0.16314E-09         0.00000E+00
    0.11496E-05        -0.10865E-09         0.00000E+00
    0.11496E-05        -0.39844E-10         0.00000E+00
    0.11486E-05        -0.68113E-10         0.00000E+00
    0.11488E-05        -0.17316E-09         0.00000E+00
    0.11489E-05        -0.23540E-09         0.00000E+00
    0.11490E-05        -0.26838E-09         0.00000E+00
    0.11491E-05        -0.28290E-09         0.00000E+00
    0.11492E-05        -0.28578E-09         0.00000E+00
    0.11492E-05        -0.28091E-09         0.00000E+00
    0.11493E-05        -0.27054E-09         0.00000E+00
    0.11493E-05        -0.25588E-09         0.00000E+00
    0.11494E-05        -0.23738E-09         0.00000E+00
    0.11494E-05        -0.21479E-09         0.00000E+00
    0.11495E-05        -0.18696E-09         0.00000E+00
    0.11495E-05        -0.15133E-09         0.00000E+00
    0.11496E-05        -0.10374E-09         0.00000E+00
    0.11496E-05        -0.39206E-10         0.00000E+00
    0.11487E-05        -0.66020E-10         0.00000E+00
    0.11489E-05        -0.15999E-09         0.00000E+00
    0.11490E-05        -0.20665E-09         0.00000E+00
    0.11491E-05        -0.22726E-09         0.00000E+00
    0.11492E-05        -0.23417E-09         0.00000E+00
    0.11493E-05        -0.23309E-09         0.00000E+00
    0.11493E-05        -0.22699E-09         0.00000E+00
    0.11493E-05        -0.21750E-09         0.00000E+00
    0.11494E-05        -0.20544E-09         0.00000E+00
    0.11494E-05        -0.19113E-09         0.00000E+00
    0.11494E-05        -0.17439E-09         0.00000E+00
    0.11495E-05        -0.15434E-09         0.00000E+00
    0.11495E-05        -0.12889E-09         0.00000E+00
    0.11496E-05        -0.92580E-10         0.00000E+00
    0.11496E-05        -0.36737E-10         0.00000E+00
    0.11488E-05        -0.56754E-10         0.00000E+00
    0.11490E-05        -0.12518E-09         0.00000E+00
    0.11492E-05        -0.14969E-09         0.00000E+00
    0.11493E-05        -0.15851E-09         0.00000E+00
    0.11493E-05        -0.15981E-09         0.00000E+00
    0.11494E-05        -0.15694E-09         0.00000E+00
    0.11494E-05        -0.15156E-09         0.00000E+00
    0.11494E-05        -0.14455E-09         0.00000E+00
    0.11494E-05        -0.13638E-09         0.00000E+00
    0.11495E-05        -0.12721E-09         0.00000E+00
    0.11495E-05        -0.11697E-09         0.00000E+00
    0.11495E-05        -0.10523E-09         0.00000E+00
    0.11495E-05        -0.90923E-10         0.00000E+00
    0.11496E-05        -0.70866E-10         0.00000E+00
    0.11497E-05        -0.31709E-10         0.00000E+00
    0.11491E-05        -0.24826E-10         0.00000E+00
    0.11493E-05        -0.50309E-10         0.00000E+00
    0.11494E-05        -0.56371E-10         0.00000E+00
    0.11495E-05        -0.58265E-10         0.00000E+00
    0.11495E-05        -0.57908E-10         0.00000E+00
    0.11495E-05        -0.56376E-10         0.00000E+00
    0.11495E-05        -0.54150E-10         0.00000E+00
    0.11495E-05        -0.51495E-10         0.00000E+00
    0.11495E-05        -0.48546E-10         0.00000E+00
    0.11495E-05        -0.45358E-10         0.00000E+00
    0.11496E-05        -0.41914E-10         0.00000E+00
    0.11496E-05        -0.38120E-10         0.00000E+00
    0.11496E-05        -0.33646E-10         0.00000E+00
    0.11496E-05        -0.28301E-10         0.00000E+00
    0.11497E-05        -0.14244E-10         0.00000E+00
POINT_DATA        496
VECTORS vDarcyNodal double 
    0.11596E-05         0.19622E-09         0.00000E+00
    0.11596E-05         0.37493E-09         0.00000E+00
    0.11596E-05         0.68951E-09         0.00000E+00
    0.11596E-05         0.91662E-09         0.00000E+00
    0.11595E-05         0.10681E-08         0.00000E+00
    0.11595E-05         0.11668E-08         0.00000E+00
    0.11595E-05         0.12152E-08         0.00000E+00
    0.11595E-05         0.11624E-08         0.00000E+00
    0.11596E-05         0.10340E-08         0.00000E+00
    0.11596E-05         0.91220E-09         0.00000E+00
    0.11596E-05         0.79948E-09         0.00000E+00
    0.11596E-05         0.68419E-09         0.00000E+00
    0.11596E-05         0.56110E-09         0.00000E+00
    0.11596E-05         0.42531E-09         0.00000E+00
    0.11596E-05         0.24657E-09         0.00000E+00
    0.11596E-05         0.13949E-09         0.00000E+00
    0.11593E-05         0.16080E-09         0.00000E+00
    0.11592E-05         0.28160E-09         0.00000E+00
    0.11591E-05         0.47499E-09         0.00000E+00
    0.11591E-05         0.60883E-09         0.00000E+00
    0.11591E-05         0.73036E-09         0.00000E+00
    0.11591E-05         0.83715E-09         0.00000E+00
    0.11591E-05         0.89960E-09         0.00000E+00
    0.11591E-05         0.90264E-09         0.00000E+00
    0.11592E-05         0.85424E-09         0.00000E+00
    0.11592E-05         0.77495E-09         0.00000E+00
    0.11592E-05         0.68240E-09         0.00000E+00
    0.11592E-05         0.57906E-09         0.00000E+00
    0.11592E-05         0.46255E-09         0.00000E+00
    0.11592E-05         0.32625E-09         0.00000E+00
    0.11592E-05         0.16853E-09         0.00000E+00
    0.11592E-05         0.85188E-10         0.00000E+00
    0.11585E-05         0.93465E-10         0.00000E+00
    0.11584E-05         0.18045E-09         0.00000E+00
    0.11583E-05         0.33216E-09         0.00000E+00
    0.11582E-05         0.44695E-09         0.00000E+00
    0.11582E-05         0.54114E-09         0.00000E+00
    0.11582E-05         0.62658E-09         0.00000E+00
    0.11583E-05         0.67920E-09         0.00000E+00
    0.11583E-05         0.69114E-09         0.00000E+00
    0.11584E-05         0.67526E-09         0.00000E+00
    0.11584E-05         0.62948E-09         0.00000E+00
    0.11585E-05         0.56134E-09         0.00000E+00
    0.11585E-05         0.47556E-09         0.00000E+00
    0.11585E-05         0.37363E-09         0.00000E+00
    0.11585E-05         0.25676E-09         0.00000E+00
    0.11584E-05         0.13039E-09         0.00000E+00
    0.11584E-05         0.65876E-10         0.00000E+00
    0.11576E-05         0.55873E-10         0.00000E+00
    0.11576E-05         0.10963E-09         0.00000E+00
    0.11575E-05         0.23096E-09         0.00000E+00
    0.11575E-05         0.35445E-09         0.00000E+00
    0.11575E-05         0.43964E-09         0.00000E+00
    0.11575E-05         0.48501E-09         0.00000E+00
    0.11576E-05         0.51481E-09         0.00000E+00
    0.11576E-05         0.53136E-09         0.00000E+00
    0.11577E-05         0.52615E-09         0.00000E+00
    0.11577E-05         0.49841E-09         0.00000E+00
    0.11577E-05         0.44918E-09         0.00000E+00
    0.11577E-05         0.38171E-09         0.00000E+00
    0.11577E-05         0.29895E-09         0.00000E+00
    0.11577E-05         0.20458E-09         0.00000E+00
    0.11577E-05         0.10379E-09         0.00000E+00
    0.11577E-05         0.52562E-10         0.00000E+00
    0.11569E-05         0.57546E-10         0.00000E+00
    0.11569E-05         0.10189E-09         0.00000E+00
    0.11568E-05         0.18831E-09         0.00000E+00
    0.11568E-05         0.26459E-09         0.00000E+00
    0.11569E-05         0.32646E-09         0.00000E+00
    0.11569E-05         0.37018E-09         0.00000E+00
    0.11569E-05         0.39584E-09         0.00000E+00
    0.11570E-05         0.40875E-09         0.00000E+00
    0.11570E-05         0.40708E-09         0.00000E+00
    0.11570E-05         0.38845E-09         0.00000E+00
    0.11570E-05         0.35268E-09         0.00000E+00
    0.11570E-05         0.30121E-09         0.00000E+00
    0.11570E-05         0.23671E-09         0.00000E+00
    0.11570E-05         0.16264E-09         0.00000E+00
    0.11570E-05         0.83069E-10         0.00000E+00
    0.11570E-05         0.42443E-10         0.00000E+00
    0.11563E-05         0.32621E-10         0.00000E+00
    0.11563E-05         0.69213E-10         0.00000E+00
    0.11563E-05         0.13768E-09         0.00000E+00
    0.11563E-05         0.19630E-09         0.00000E+00
    0.11563E-05         0.24365E-09         0.00000E+00
    0.11563E-05         0.27851E-09         0.00000E+00
    0.11563E-05         0.30105E-09         0.00000E+00
    0.11563E-05         0.31214E-09         0.00000E+00
    0.11563E-05         0.31174E-09         0.00000E+00
    0.11563E-05         0.29867E-09         0.00000E+00
    0.11564E-05         0.27251E-09         0.00000E+00
    0.11564E-05         0.23401E-09         0.00000E+00
    0.11564E-05         0.18501E-09         0.00000E+00
    0.11563E-05         0.12808E-09         0.00000E+00
    0.11563E-05         0.66047E-10         0.00000E+00
    0.11563E-05         0.34110E-10         0.00000E+00
    0.11557E-05         0.24759E-10         0.00000E+00
    0.11557E-05         0.49812E-10         0.00000E+00
    0.11557E-05         0.98796E-10         0.00000E+00
    0.11557E-05         0.14290E-09         0.00000E+00
    0.11557E-05         0.17903E-09         0.00000E+00
    0.11557E-05         0.20639E-09         0.00000E+00
    0.11557E-05         0.22474E-09         0.00000E+00
    0.11557E-05         0.23421E-09         0.00000E+00
    0.11557E-05         0.23462E-09         0.00000E+00
    0.11557E-05         0.22552E-09         0.00000E+00
    0.11557E-05         0.20664E-09         0.00000E+00
    0.11557E-05         0.17843E-09         0.00000E+00
    0.11557E-05         0.14207E-09         0.00000E+00
    0.11557E-05         0.99248E-10         0.00000E+00
    0.11557E-05         0.51755E-10         0.00000E+00
    0.11557E-05         0.27059E-10         0.00000E+00
    0.11552E-05         0.18072E-10         0.00000E+00
    0.11551E-05         0.35634E-10         0.00000E+00
    0.11551E-05         0.70010E-10         0.00000E+00
    0.11551E-05         0.10154E-09         0.00000E+00
    0.11551E-05         0.12809E-09         0.00000E+00
    0.11551E-05         0.14864E-09         0.00000E+00
    0.11551E-05         0.16283E-09         0.00000E+00
    0.11551E-05         0.17049E-09         0.00000E+00
    0.11551E-05         0.17143E-09         0.00000E+00
    0.11551E-05         0.16540E-09         0.00000E+00
    0.11551E-05         0.15227E-09         0.00000E+00
    0.11551E-05         0.13230E-09         0.00000E+00
    0.11551E-05         0.10620E-09         0.00000E+00
    0.11551E-05         0.74949E-10         0.00000E+00
    0.11551E-05         0.39583E-10         0.00000E+00
    0.11551E-05         0.20991E-10         0.00000E+00
    0.11546E-05         0.12775E-10         0.00000E+00
    0.11546E-05         0.24634E-10         0.00000E+00
    0.11545E-05         0.47750E-10         0.00000E+00
    0.11545E-05         0.68986E-10         0.00000E+00
    0.11545E-05         0.87176E-10         0.00000E+00
    0.11545E-05         0.10158E-09         0.00000E+00
    0.11545E-05         0.11180E-09         0.00000E+00
    0.11545E-05         0.11762E-09         0.00000E+00
    0.11545E-05         0.11883E-09         0.00000E+00
    0.11545E-05         0.11525E-09         0.00000E+00
    0.11545E-05         0.10677E-09         0.00000E+00
    0.11545E-05         0.93510E-10         0.00000E+00
    0.11545E-05         0.75814E-10         0.00000E+00
    0.11545E-05         0.54174E-10         0.00000E+00
    0.11545E-05         0.29059E-10         0.00000E+00
    0.11545E-05         0.15685E-10         0.00000E+00
    0.11540E-05         0.84582E-11         0.00000E+00
    0.11540E-05         0.15727E-10         0.00000E+00
    0.11540E-05         0.29715E-10         0.00000E+00
    0.11540E-05         0.42399E-10         0.00000E+00
    0.11540E-05         0.53365E-10         0.00000E+00
    0.11540E-05         0.62252E-10         0.00000E+00
    0.11540E-05         0.68803E-10         0.00000E+00
    0.11540E-05         0.72822E-10         0.00000E+00
    0.11540E-05         0.74120E-10         0.00000E+00
    0.11540E-05         0.72521E-10         0.00000E+00
    0.11540E-05         0.67898E-10         0.00000E+00
    0.11540E-05         0.60222E-10         0.00000E+00
    0.11540E-05         0.49568E-10         0.00000E+00
    0.11540E-05         0.36066E-10         0.00000E+00
    0.11540E-05         0.19791E-10         0.00000E+00
    0.11540E-05         0.10963E-10         0.00000E+00
    0.11535E-05         0.47161E-11         0.00000E+00
    0.11535E-05         0.80760E-11         0.00000E+00
    0.11534E-05         0.14294E-10         0.00000E+00
    0.11534E-05         0.19648E-10         0.00000E+00
    0.11534E-05         0.24308E-10         0.00000E+00
    0.11534E-05         0.28278E-10         0.00000E+00
    0.11534E-05         0.31485E-10         0.00000E+00
    0.11534E-05         0.33812E-10         0.00000E+00
    0.11534E-05         0.35101E-10         0.00000E+00
    0.11534E-05         0.35167E-10         0.00000E+00
    0.11535E-05         0.33829E-10         0.00000E+00
    0.11535E-05         0.30929E-10         0.00000E+00
    0.11535E-05         0.26336E-10         0.00000E+00
    0.11535E-05         0.19910E-10         0.00000E+00
    0.11534E-05         0.11447E-10         0.00000E+00
    0.11534E-05         0.66736E-11         0.00000E+00
    0.11529E-05         0.12382E-11         0.00000E+00
    0.11529E-05         0.10615E-11         0.00000E+00
    0.11529E-05         0.30644E-12         0.00000E+00
    0.11529E-05        -0.85334E-12         0.00000E+00
    0.11529E-05        -0.18055E-11         0.00000E+00
    0.11529E-05        -0.22408E-11         0.00000E+00
    0.11529E-05        -0.20493E-11         0.00000E+00
    0.11529E-05        -0.12586E-11         0.00000E+00
    0.11529E-05         0.33310E-14         0.00000E+00
    0.11529E-05         0.15378E-11         0.00000E+00
    0.11530E-05         0.31018E-11         0.00000E+00
    0.11530E-05         0.44255E-11         0.00000E+00
    0.11530E-05         0.52139E-11         0.00000E+00
    0.11530E-05         0.51291E-11         0.00000E+00
    0.11530E-05         0.37580E-11         0.00000E+00
    0.11530E-05         0.26933E-11         0.00000E+00
    0.11524E-05        -0.22054E-11         0.00000E+00
    0.11524E-05        -0.57716E-11         0.00000E+00
    0.11524E-05        -0.13112E-10         0.00000E+00
    0.11524E-05        -0.20284E-10         0.00000E+00
    0.11524E-05        -0.26353E-10         0.00000E+00
    0.11524E-05        -0.30773E-10         0.00000E+00
    0.11524E-05        -0.33288E-10         0.00000E+00
    0.11524E-05        -0.33851E-10         0.00000E+00
    0.11525E-05        -0.32567E-10         0.00000E+00
    0.11525E-05        -0.29656E-10         0.00000E+00
    0.11525E-05        -0.25421E-10         0.00000E+00
    0.11525E-05        -0.20227E-10         0.00000E+00
    0.11525E-05        -0.14502E-10         0.00000E+00
    0.11525E-05        -0.87330E-11         0.00000E+00
    0.11525E-05        -0.34912E-11         0.00000E+00
    0.11525E-05        -0.10785E-11         0.00000E+00
    0.11519E-05        -0.57787E-11         0.00000E+00
    0.11519E-05        -0.12749E-10         0.00000E+00
    0.11519E-05        -0.26584E-10         0.00000E+00
    0.11519E-05        -0.39503E-10         0.00000E+00
    0.11519E-05        -0.50348E-10         0.00000E+00
    0.11519E-05        -0.58418E-10         0.00000E+00
    0.11520E-05        -0.63358E-10         0.00000E+00
    0.11520E-05        -0.65073E-10         0.00000E+00
    0.11520E-05        -0.63666E-10         0.00000E+00
    0.11520E-05        -0.59385E-10         0.00000E+00
    0.11521E-05        -0.52591E-10         0.00000E+00
    0.11521E-05        -0.43733E-10         0.00000E+00
    0.11521E-05        -0.33340E-10         0.00000E+00
    0.11521E-05        -0.22021E-10         0.00000E+00
    0.11521E-05        -0.10465E-10         0.00000E+00
    0.11521E-05        -0.47193E-11         0.00000E+00
    0.11514E-05        -0.95948E-11         0.00000E+00
    0.11515E-05        -0.20096E-10         0.00000E+00
    0.11515E-05        -0.40544E-10         0.00000E+00
    0.11515E-05        -0.59107E-10         0.00000E+00
    0.11515E-05        -0.74505E-10         0.00000E+00
    0.11515E-05        -0.85954E-10         0.00000E+00
    0.11515E-05        -0.93057E-10         0.00000E+00
    0.11516E-05        -0.95712E-10         0.00000E+00
    0.11516E-05        -0.94042E-10         0.00000E+00
    0.11516E-05        -0.88335E-10         0.00000E+00
    0.11516E-05        -0.79010E-10         0.00000E+00
    0.11517E-05        -0.66586E-10         0.00000E+00
    0.11517E-05        -0.51677E-10         0.00000E+00
    0.11517E-05        -0.34980E-10         0.00000E+00
    0.11517E-05        -0.17282E-10         0.00000E+00
    0.11517E-05        -0.82855E-11         0.00000E+00
    0.11510E-05        -0.13726E-10         0.00000E+00
    0.11510E-05        -0.27955E-10         0.00000E+00
    0.11510E-05        -0.55264E-10         0.00000E+00
    0.11510E-05        -0.79474E-10         0.00000E+00
    0.11511E-05        -0.99272E-10         0.00000E+00
    0.11511E-05        -0.11387E-09         0.00000E+00
    0.11511E-05        -0.12288E-09         0.00000E+00
    0.11512E-05        -0.12626E-09         0.00000E+00
    0.11512E-05        -0.12416E-09         0.00000E+00
    0.11512E-05        -0.11693E-09         0.00000E+00
    0.11513E-05        -0.10505E-09         0.00000E+00
    0.11513E-05        -0.89092E-10         0.00000E+00
    0.11513E-05        -0.69743E-10         0.00000E+00
    0.11513E-05        -0.47765E-10         0.00000E+00
    0.11513E-05        -0.24017E-10         0.00000E+00
    0.11513E-05        -0.11814E-10         0.00000E+00
    0.11506E-05        -0.18209E-10         0.00000E+00
    0.11506E-05        -0.36402E-10         0.00000E+00
    0.11506E-05        -0.70886E-10         0.00000E+00
    0.11507E-05        -0.10079E-09         0.00000E+00
    0.11507E-05        -0.12486E-09         0.00000E+00
    0.11507E-05        -0.14238E-09         0.00000E+00
    0.11508E-05        -0.15306E-09         0.00000E+00
    0.11508E-05        -0.15691E-09         0.00000E+00
    0.11509E-05        -0.15420E-09         0.00000E+00
    0.11509E-05        -0.14533E-09         0.00000E+00
    0.11509E-05        -0.13085E-09         0.00000E+00
    0.11510E-05        -0.11138E-09         0.00000E+00
    0.11510E-05        -0.87639E-10         0.00000E+00
    0.11510E-05        -0.60446E-10         0.00000E+00
    0.11510E-05        -0.30707E-10         0.00000E+00
    0.11510E-05        -0.15322E-10         0.00000E+00
    0.11502E-05        -0.23053E-10         0.00000E+00
    0.11502E-05        -0.45447E-10         0.00000E+00
    0.11503E-05        -0.87423E-10         0.00000E+00
    0.11503E-05        -0.12306E-09         0.00000E+00
    0.11503E-05        -0.15126E-09         0.00000E+00
    0.11504E-05        -0.17146E-09         0.00000E+00
    0.11504E-05        -0.18351E-09         0.00000E+00
    0.11505E-05        -0.18760E-09         0.00000E+00
    0.11505E-05        -0.18408E-09         0.00000E+00
    0.11506E-05        -0.17347E-09         0.00000E+00
    0.11506E-05        -0.15635E-09         0.00000E+00
    0.11507E-05        -0.13339E-09         0.00000E+00
    0.11507E-05        -0.10534E-09         0.00000E+00
    0.11507E-05        -0.73009E-10         0.00000E+00
    0.11507E-05        -0.37349E-10         0.00000E+00
    0.11507E-05        -0.18810E-10         0.00000E+00
    0.11499E-05        -0.28237E-10         0.00000E+00
    0.11499E-05        -0.55047E-10         0.00000E+00
    0.11499E-05        -0.10477E-09         0.00000E+00
    0.11500E-05        -0.14613E-09         0.00000E+00
    0.11500E-05        -0.17824E-09         0.00000E+00
    0.11501E-05        -0.20080E-09         0.00000E+00
    0.11501E-05        -0.21392E-09         0.00000E+00
    0.11502E-05        -0.21797E-09         0.00000E+00
    0.11503E-05        -0.21346E-09         0.00000E+00
    0.11503E-05        -0.20101E-09         0.00000E+00
    0.11504E-05        -0.18127E-09         0.00000E+00
    0.11504E-05        -0.15491E-09         0.00000E+00
    0.11504E-05        -0.12267E-09         0.00000E+00
    0.11505E-05        -0.85358E-10         0.00000E+00
    0.11505E-05        -0.43900E-10         0.00000E+00
    0.11505E-05        -0.22261E-10         0.00000E+00
    0.11496E-05        -0.33710E-10         0.00000E+00
    0.11496E-05        -0.65096E-10         0.00000E+00
    0.11496E-05        -0.12272E-09         0.00000E+00
    0.11497E-05        -0.16963E-09         0.00000E+00
    0.11498E-05        -0.20532E-09         0.00000E+00
    0.11498E-05        -0.22985E-09         0.00000E+00
    0.11499E-05        -0.24365E-09         0.00000E+00
    0.11499E-05        -0.24735E-09         0.00000E+00
    0.11500E-05        -0.24168E-09         0.00000E+00
    0.11501E-05        -0.22736E-09         0.00000E+00
    0.11501E-05        -0.20509E-09         0.00000E+00
    0.11502E-05        -0.17553E-09         0.00000E+00
    0.11502E-05        -0.13936E-09         0.00000E+00
    0.11502E-05        -0.97314E-10         0.00000E+00
    0.11503E-05        -0.50280E-10         0.00000E+00
    0.11503E-05        -0.25636E-10         0.00000E+00
    0.11493E-05        -0.39395E-10         0.00000E+00
    0.11493E-05        -0.75427E-10         0.00000E+00
    0.11494E-05        -0.14090E-09         0.00000E+00
    0.11495E-05        -0.19303E-09         0.00000E+00
    0.11495E-05        -0.23180E-09         0.00000E+00
    0.11496E-05        -0.25775E-09         0.00000E+00
    0.11497E-05        -0.27175E-09         0.00000E+00
    0.11497E-05        -0.27478E-09         0.00000E+00
    0.11498E-05        -0.26780E-09         0.00000E+00
    0.11499E-05        -0.25166E-09         0.00000E+00
    0.11499E-05        -0.22707E-09         0.00000E+00
    0.11500E-05        -0.19465E-09         0.00000E+00
    0.11500E-05        -0.15496E-09         0.00000E+00
    0.11500E-05        -0.10861E-09         0.00000E+00
    0.11501E-05        -0.56367E-10         0.00000E+00
    0.11501E-05        -0.28882E-10         0.00000E+00
    0.11491E-05        -0.45180E-10         0.00000E+00
    0.11491E-05        -0.85805E-10         0.00000E+00
    0.11492E-05        -0.15883E-09         0.00000E+00
    0.11493E-05        -0.21556E-09         0.00000E+00
    0.11493E-05        -0.25666E-09         0.00000E+00
    0.11494E-05        -0.28331E-09         0.00000E+00
    0.11495E-05        -0.29694E-09         0.00000E+00
    0.11496E-05        -0.29893E-09         0.00000E+00
    0.11496E-05        -0.29053E-09         0.00000E+00
    0.11497E-05        -0.27272E-09         0.00000E+00
    0.11497E-05        -0.24619E-09         0.00000E+00
    0.11498E-05        -0.21145E-09         0.00000E+00
    0.11498E-05        -0.16888E-09         0.00000E+00
    0.11499E-05        -0.11888E-09         0.00000E+00
    0.11499E-05        -0.61997E-10         0.00000E+00
    0.11499E-05        -0.31926E-10         0.00000E+00
    0.11489E-05        -0.50914E-10         0.00000E+00
    0.11489E-05        -0.95907E-10         0.00000E+00
    0.11490E-05        -0.17582E-09         0.00000E+00
    0.11491E-05        -0.23619E-09         0.00000E+00
    0.11492E-05        -0.27856E-09         0.00000E+00
    0.11493E-05        -0.30496E-09         0.00000E+00
    0.11493E-05        -0.31750E-09         0.00000E+00
    0.11494E-05        -0.31809E-09         0.00000E+00
    0.11495E-05        -0.30825E-09         0.00000E+00
    0.11496E-05        -0.28905E-09         0.00000E+00
    0.11496E-05        -0.26116E-09         0.00000E+00
    0.11497E-05        -0.22491E-09         0.00000E+00
    0.11497E-05        -0.18038E-09         0.00000E+00
    0.11498E-05        -0.12765E-09         0.00000E+00
    0.11498E-05        -0.66958E-10         0.00000E+00
    0.11498E-05        -0.34673E-10         0.00000E+00
    0.11487E-05        -0.56399E-10         0.00000E+00
    0.11488E-05        -0.10531E-09         0.00000E+00
    0.11489E-05        -0.19097E-09         0.00000E+00
    0.11490E-05        -0.25352E-09         0.00000E+00
    0.11491E-05        -0.29571E-09         0.00000E+00
    0.11492E-05        -0.32067E-09         0.00000E+00
    0.11492E-05        -0.33133E-09         0.00000E+00
    0.11493E-05        -0.33015E-09         0.00000E+00
    0.11494E-05        -0.31893E-09         0.00000E+00
    0.11495E-05        -0.29883E-09         0.00000E+00
    0.11495E-05        -0.27041E-09         0.00000E+00
    0.11496E-05        -0.23373E-09         0.00000E+00
    0.11496E-05        -0.18852E-09         0.00000E+00
    0.11497E-05        -0.13435E-09         0.00000E+00
    0.11497E-05        -0.70989E-10         0.00000E+00
    0.11497E-05        -0.37006E-10         0.00000E+00
    0.11486E-05        -0.61365E-10         0.00000E+00
    0.11487E-05        -0.11342E-09         0.00000E+00
    0.11488E-05        -0.20303E-09         0.00000E+00
    0.11489E-05        -0.26569E-09         0.00000E+00
    0.11490E-05        -0.30582E-09         0.00000E+00
    0.11491E-05        -0.32790E-09         0.00000E+00
    0.11492E-05        -0.33585E-09         0.00000E+00
    0.11493E-05        -0.33262E-09         0.00000E+00
    0.11493E-05        -0.32026E-09         0.00000E+00
    0.11494E-05        -0.29992E-09         0.00000E+00
    0.11494E-05        -0.27204E-09         0.00000E+00
    0.11495E-05        -0.23636E-09         0.00000E+00
    0.11495E-05        -0.19211E-09         0.00000E+00
    0.11496E-05        -0.13823E-09         0.00000E+00
    0.11496E-05        -0.73759E-10         0.00000E+00
    0.11497E-05        -0.38784E-10         0.00000E+00
    0.11486E-05        -0.65435E-10         0.00000E+00
    0.11487E-05        -0.11942E-09         0.00000E+00
    0.11488E-05        -0.21027E-09         0.00000E+00
    0.11489E-05        -0.27018E-09         0.00000E+00
    0.11490E-05        -0.30588E-09         0.00000E+00
    0.11491E-05        -0.32355E-09         0.00000E+00
    0.11492E-05        -0.32803E-09         0.00000E+00
    0.11492E-05        -0.32269E-09         0.00000E+00
    0.11493E-05        -0.30962E-09         0.00000E+00
    0.11493E-05        -0.28994E-09         0.00000E+00
    0.11494E-05        -0.26389E-09         0.00000E+00
    0.11495E-05        -0.23092E-09         0.00000E+00
    0.11495E-05        -0.18971E-09         0.00000E+00
    0.11496E-05        -0.13835E-09         0.00000E+00
    0.11496E-05        -0.74843E-10         0.00000E+00
    0.11496E-05        -0.39822E-10         0.00000E+00
    0.11486E-05        -0.68039E-10         0.00000E+00
    0.11487E-05        -0.12206E-09         0.00000E+00
    0.11488E-05        -0.21011E-09         0.00000E+00
    0.11489E-05        -0.26344E-09         0.00000E+00
    0.11490E-05        -0.29200E-09         0.00000E+00
    0.11491E-05        -0.30388E-09         0.00000E+00
    0.11492E-05        -0.30456E-09         0.00000E+00
    0.11492E-05        -0.29741E-09         0.00000E+00
    0.11493E-05        -0.28437E-09         0.00000E+00
    0.11493E-05        -0.26638E-09         0.00000E+00
    0.11494E-05        -0.24356E-09         0.00000E+00
    0.11494E-05        -0.21519E-09         0.00000E+00
    0.11495E-05        -0.17945E-09         0.00000E+00
    0.11495E-05        -0.13344E-09         0.00000E+00
    0.11496E-05        -0.73654E-10         0.00000E+00
    0.11496E-05        -0.39866E-10         0.00000E+00
    0.11486E-05        -0.68187E-10         0.00000E+00
    0.11487E-05        -0.11921E-09         0.00000E+00
    0.11489E-05        -0.19845E-09         0.00000E+00
    0.11490E-05        -0.24034E-09         0.00000E+00
    0.11491E-05        -0.25928E-09         0.00000E+00
    0.11492E-05        -0.26480E-09         0.00000E+00
    0.11492E-05        -0.26213E-09         0.00000E+00
    0.11493E-05        -0.25404E-09         0.00000E+00
    0.11493E-05        -0.24206E-09         0.00000E+00
    0.11494E-05        -0.22689E-09         0.00000E+00
    0.11494E-05        -0.20861E-09         0.00000E+00
    0.11494E-05        -0.18656E-09         0.00000E+00
    0.11495E-05        -0.15884E-09         0.00000E+00
    0.11495E-05        -0.12163E-09         0.00000E+00
    0.11496E-05        -0.69289E-10         0.00000E+00
    0.11496E-05        -0.38545E-10         0.00000E+00
    0.11488E-05        -0.63854E-10         0.00000E+00
    0.11489E-05        -0.10680E-09         0.00000E+00
    0.11490E-05        -0.16820E-09         0.00000E+00
    0.11491E-05        -0.19357E-09         0.00000E+00
    0.11492E-05        -0.20215E-09         0.00000E+00
    0.11493E-05        -0.20247E-09         0.00000E+00
    0.11493E-05        -0.19797E-09         0.00000E+00
    0.11494E-05        -0.19046E-09         0.00000E+00
    0.11494E-05        -0.18089E-09         0.00000E+00
    0.11494E-05        -0.16969E-09         0.00000E+00
    0.11494E-05        -0.15691E-09         0.00000E+00
    0.11495E-05        -0.14217E-09         0.00000E+00
    0.11495E-05        -0.12439E-09         0.00000E+00
    0.11496E-05        -0.99840E-10         0.00000E+00
    0.11496E-05        -0.60028E-10         0.00000E+00
    0.11497E-05        -0.34929E-10         0.00000E+00
    0.11490E-05        -0.49658E-10         0.00000E+00
    0.11491E-05        -0.75143E-10         0.00000E+00
    0.11492E-05        -0.10669E-09         0.00000E+00
    0.11493E-05        -0.11464E-09         0.00000E+00
    0.11494E-05        -0.11618E-09         0.00000E+00
    0.11494E-05        -0.11429E-09         0.00000E+00
    0.11495E-05        -0.11053E-09         0.00000E+00
    0.11495E-05        -0.10565E-09         0.00000E+00
    0.11495E-05        -0.10005E-09         0.00000E+00
    0.11495E-05        -0.93911E-10         0.00000E+00
    0.11495E-05        -0.87278E-10         0.00000E+00
    0.11495E-05        -0.80040E-10         0.00000E+00
    0.11495E-05        -0.71770E-10         0.00000E+00
    0.11496E-05        -0.61951E-10         0.00000E+00
    0.11496E-05        -0.42548E-10         0.00000E+00
    0.11497E-05        -0.28490E-10         0.00000E+00
    0.11491E-05         0.00000E+00         0.00000E+00
    0.11492E-05         0.00000E+00         0.00000E+00
    0.11493E-05        -0.33107E-20         0.00000E+00
    0.11494E-05         0.52372E-24         0.00000E+00
    0.11495E-05         0.33112E-20         0.00000E+00
    0.11495E-05         0.00000E+00         0.00000E+00
    0.11495E-05         0.00000E+00         0.00000E+00
    0.11495E-05        -0.33127E-20         0.00000E+00
    0.11495E-05        -0.33127E-20         0.00000E+00
    0.11495E-05         0.33133E-20         0.00000E+00
    0.11495E-05         0.33133E-20         0.00000E+00
    0.11496E-05        -0.36452E-20         0.00000E+00
    0.11496E-05        -0.33114E-21         0.00000E+00
    0.11496E-05         0.33142E-20         0.00000E+00
    0.11497E-05         0.66288E-21         0.00000E+00
    0.11497E-05         0.00000E+00         0.00000E+00
CELL_DATA        450
TENSORS stressef double 
    0.19367E+08         0.16748E+06         0.00000E+00
    0.16748E+06         0.10700E+08         0.00000E+00
    0.00000E+00         0.00000E+00         0.68817E+07
 
    0.19514E+08         0.16354E+06         0.00000E+00
    0.16354E+06         0.11107E+08         0.00000E+00
    0.00000E+00         0.00000E+00         0.71206E+07
 
    0.19298E+08         0.81106E+04         0.00000E+00
    0.81106E+04         0.11161E+08         0.00000E+00
    0.00000E+00         0.00000E+00         0.67355E+07
 
    0.18633E+08        -0.19888E+06         0.00000E+00
   -0.19888E+06         0.10779E+08         0.00000E+00
    0.00000E+00         0.00000E+00         0.56242E+07
 
    0.17359E+08        -0.35742E+06         0.00000E+00
   -0.35742E+06         0.10102E+08         0.00000E+00
    0.00000E+00         0.00000E+00         0.36014E+07
 
    0.15746E+08        -0.34594E+06         0.00000E+00
   -0.34594E+06         0.93227E+07         0.00000E+00
    0.00000E+00         0.00000E+00         0.12031E+07
 
    0.13991E+08        -0.36357E+06         0.00000E+00
   -0.36357E+06         0.86356E+07         0.00000E+00
    0.00000E+00         0.00000E+00        -0.10029E+07
 
    0.11704E+08        -0.35886E+06         0.00000E+00
   -0.35886E+06         0.79561E+07         0.00000E+00
    0.00000E+00         0.00000E+00        -0.19441E+07
 
    0.97877E+07        -0.24027E+06         0.00000E+00
   -0.24027E+06         0.74035E+07         0.00000E+00
    0.00000E+00         0.00000E+00        -0.24400E+07
 
    0.80678E+07        -0.13237E+06         0.00000E+00
   -0.13237E+06         0.70539E+07         0.00000E+00
    0.00000E+00         0.00000E+00        -0.28551E+07
 
    0.63768E+07        -0.28619E+05         0.00000E+00
   -0.28619E+05         0.69063E+07         0.00000E+00
    0.00000E+00         0.00000E+00        -0.32231E+07
 
    0.46050E+07         0.80531E+05         0.00000E+00
    0.80531E+05         0.69665E+07         0.00000E+00
    0.00000E+00         0.00000E+00        -0.35648E+07
 
    0.26346E+07         0.20923E+06         0.00000E+00
    0.20923E+06         0.72612E+07         0.00000E+00
    0.00000E+00         0.00000E+00        -0.38983E+07
 
    0.28124E+06         0.38453E+06         0.00000E+00
    0.38453E+06         0.78580E+07         0.00000E+00
    0.00000E+00         0.00000E+00        -0.42471E+07
 
   -0.29681E+07         0.77816E+06         0.00000E+00
    0.77816E+06         0.89647E+07         0.00000E+00
    0.00000E+00         0.00000E+00        -0.46722E+07
 
    0.17646E+08         0.38506E+06         0.00000E+00
    0.38506E+06         0.78449E+07         0.00000E+00
    0.00000E+00         0.00000E+00         0.40658E+07
 
    0.17368E+08         0.33194E+06         0.00000E+00
    0.33194E+06         0.76357E+07         0.00000E+00
    0.00000E+00         0.00000E+00         0.35571E+07
 
    0.17007E+08        -0.11260E+05         0.00000E+00
   -0.11260E+05         0.75194E+07         0.00000E+00
    0.00000E+00         0.00000E+00         0.28642E+07
 
    0.16281E+08        -0.40067E+06         0.00000E+00
   -0.40067E+06         0.75111E+07         0.00000E+00
    0.00000E+00         0.00000E+00         0.16509E+07
 
    0.15161E+08        -0.71661E+06         0.00000E+00
   -0.71661E+06         0.75234E+07         0.00000E+00
    0.00000E+00         0.00000E+00         0.25734E+05
 
    0.13765E+08        -0.87818E+06         0.00000E+00
   -0.87818E+06         0.74141E+07         0.00000E+00
    0.00000E+00         0.00000E+00        -0.14445E+07
 
    0.11808E+08        -0.93672E+06         0.00000E+00
   -0.93672E+06         0.70389E+07         0.00000E+00
    0.00000E+00         0.00000E+00        -0.21039E+07
 
    0.98426E+07        -0.87195E+06         0.00000E+00
   -0.87195E+06         0.66676E+07         0.00000E+00
    0.00000E+00         0.00000E+00        -0.25742E+07
 
    0.79574E+07        -0.62120E+06         0.00000E+00
   -0.62120E+06         0.63508E+07         0.00000E+00
    0.00000E+00         0.00000E+00        -0.30168E+07
 
    0.62368E+07        -0.34086E+06         0.00000E+00
   -0.34086E+06         0.61370E+07         0.00000E+00
    0.00000E+00         0.00000E+00        -0.34048E+07
 
    0.45529E+07        -0.50755E+05         0.00000E+00
   -0.50755E+05         0.60718E+07         0.00000E+00
    0.00000E+00         0.00000E+00        -0.37549E+07
 
    0.28069E+07         0.26625E+06         0.00000E+00
    0.26625E+06         0.61861E+07         0.00000E+00
    0.00000E+00         0.00000E+00        -0.40806E+07
 
    0.89884E+06         0.64567E+06         0.00000E+00
    0.64567E+06         0.65176E+07         0.00000E+00
    0.00000E+00         0.00000E+00        -0.43943E+07
 
   -0.13062E+07         0.11712E+07         0.00000E+00
    0.11712E+07         0.71295E+07         0.00000E+00
    0.00000E+00         0.00000E+00        -0.47104E+07
 
   -0.38326E+07         0.21145E+07         0.00000E+00
    0.21145E+07         0.81083E+07         0.00000E+00
    0.00000E+00         0.00000E+00        -0.50165E+07
 
    0.15942E+08         0.97478E+05         0.00000E+00
    0.97478E+05         0.54595E+07         0.00000E+00
    0.00000E+00         0.00000E+00         0.11533E+07
 
    0.15247E+08         0.20266E+06         0.00000E+00
    0.20266E+06         0.50727E+07         0.00000E+00
    0.00000E+00         0.00000E+00        -0.12403E+06
 
    0.14590E+08        -0.64348E+05         0.00000E+00
   -0.64348E+05         0.50498E+07         0.00000E+00
    0.00000E+00         0.00000E+00        -0.12628E+07
 
    0.13910E+08        -0.43028E+06         0.00000E+00
   -0.43028E+06         0.51597E+07         0.00000E+00
    0.00000E+00         0.00000E+00        -0.19727E+07
 
    0.12833E+08        -0.76171E+06         0.00000E+00
   -0.76171E+06         0.52119E+07         0.00000E+00
    0.00000E+00         0.00000E+00        -0.22556E+07
 
    0.11492E+08        -0.10575E+07         0.00000E+00
   -0.10575E+07         0.51704E+07         0.00000E+00
    0.00000E+00         0.00000E+00        -0.25369E+07
 
    0.98070E+07        -0.11800E+07         0.00000E+00
   -0.11800E+07         0.50949E+07         0.00000E+00
    0.00000E+00         0.00000E+00        -0.28931E+07
 
    0.79981E+07        -0.10657E+07         0.00000E+00
   -0.10657E+07         0.50022E+07         0.00000E+00
    0.00000E+00         0.00000E+00        -0.32765E+07
 
    0.62401E+07        -0.79068E+06         0.00000E+00
   -0.79068E+06         0.49278E+07         0.00000E+00
    0.00000E+00         0.00000E+00        -0.36450E+07
 
    0.45562E+07        -0.41716E+06         0.00000E+00
   -0.41716E+06         0.48897E+07         0.00000E+00
    0.00000E+00         0.00000E+00        -0.39906E+07
 
    0.29079E+07         0.13276E+05         0.00000E+00
    0.13276E+05         0.49437E+07         0.00000E+00
    0.00000E+00         0.00000E+00        -0.43097E+07
 
    0.12232E+07         0.50894E+06         0.00000E+00
    0.50894E+06         0.51363E+07         0.00000E+00
    0.00000E+00         0.00000E+00        -0.46074E+07
 
   -0.56594E+06         0.11129E+07         0.00000E+00
    0.11129E+07         0.55089E+07         0.00000E+00
    0.00000E+00         0.00000E+00        -0.48892E+07
 
   -0.24965E+07         0.19232E+07         0.00000E+00
    0.19232E+07         0.60994E+07         0.00000E+00
    0.00000E+00         0.00000E+00        -0.51547E+07
 
   -0.45045E+07         0.30927E+07         0.00000E+00
    0.30927E+07         0.68796E+07         0.00000E+00
    0.00000E+00         0.00000E+00        -0.53968E+07
 
    0.14142E+08        -0.82416E+05         0.00000E+00
   -0.82416E+05         0.35963E+07         0.00000E+00
    0.00000E+00         0.00000E+00        -0.20172E+07
 
    0.13050E+08        -0.73632E+05         0.00000E+00
   -0.73632E+05         0.36071E+07         0.00000E+00
    0.00000E+00         0.00000E+00        -0.25136E+07
 
    0.12266E+08        -0.21798E+06         0.00000E+00
   -0.21798E+06         0.34521E+07         0.00000E+00
    0.00000E+00         0.00000E+00        -0.27091E+07
 
    0.11497E+08        -0.50593E+06         0.00000E+00
   -0.50593E+06         0.32877E+07         0.00000E+00
    0.00000E+00         0.00000E+00        -0.29024E+07
 
    0.10508E+08        -0.82520E+06         0.00000E+00
   -0.82520E+06         0.31864E+07         0.00000E+00
    0.00000E+00         0.00000E+00        -0.31263E+07
 
    0.92581E+07        -0.10753E+07         0.00000E+00
   -0.10753E+07         0.31533E+07         0.00000E+00
    0.00000E+00         0.00000E+00        -0.33877E+07
 
    0.77817E+07        -0.11749E+07         0.00000E+00
   -0.11749E+07         0.31861E+07         0.00000E+00
    0.00000E+00         0.00000E+00        -0.36804E+07
 
    0.61789E+07        -0.10666E+07         0.00000E+00
   -0.10666E+07         0.32471E+07         0.00000E+00
    0.00000E+00         0.00000E+00        -0.39917E+07
 
    0.45613E+07        -0.77718E+06         0.00000E+00
   -0.77718E+06         0.33160E+07         0.00000E+00
    0.00000E+00         0.00000E+00        -0.43035E+07
 
    0.29729E+07        -0.35449E+06         0.00000E+00
   -0.35449E+06         0.34140E+07         0.00000E+00
    0.00000E+00         0.00000E+00        -0.46027E+07
 
    0.14032E+07         0.17370E+06         0.00000E+00
    0.17370E+06         0.35736E+07         0.00000E+00
    0.00000E+00         0.00000E+00        -0.48849E+07
 
   -0.18057E+06         0.80864E+06         0.00000E+00
    0.80864E+06         0.38342E+07         0.00000E+00
    0.00000E+00         0.00000E+00        -0.51489E+07
 
   -0.18078E+07         0.15860E+07         0.00000E+00
    0.15860E+07         0.42272E+07         0.00000E+00
    0.00000E+00         0.00000E+00        -0.53941E+07
 
   -0.34737E+07         0.25721E+07         0.00000E+00
    0.25721E+07         0.47609E+07         0.00000E+00
    0.00000E+00         0.00000E+00        -0.56181E+07
 
   -0.51081E+07         0.38451E+07         0.00000E+00
    0.38451E+07         0.53998E+07         0.00000E+00
    0.00000E+00         0.00000E+00        -0.58139E+07
 
    0.11973E+08        -0.10982E+06         0.00000E+00
   -0.10982E+06         0.18198E+07         0.00000E+00
    0.00000E+00         0.00000E+00        -0.30789E+07
 
    0.10936E+08        -0.28664E+06         0.00000E+00
   -0.28664E+06         0.17639E+07         0.00000E+00
    0.00000E+00         0.00000E+00        -0.33060E+07
 
    0.10038E+08        -0.42755E+06         0.00000E+00
   -0.42755E+06         0.15712E+07         0.00000E+00
    0.00000E+00         0.00000E+00        -0.35318E+07
 
    0.91945E+07        -0.64994E+06         0.00000E+00
   -0.64994E+06         0.14030E+07         0.00000E+00
    0.00000E+00         0.00000E+00        -0.37408E+07
 
    0.82288E+07        -0.88796E+06         0.00000E+00
   -0.88796E+06         0.13056E+07         0.00000E+00
    0.00000E+00         0.00000E+00        -0.39591E+07
 
    0.70866E+07        -0.10591E+07         0.00000E+00
   -0.10591E+07         0.12913E+07         0.00000E+00
    0.00000E+00         0.00000E+00        -0.41951E+07
 
    0.57812E+07        -0.10971E+07         0.00000E+00
   -0.10971E+07         0.13507E+07         0.00000E+00
    0.00000E+00         0.00000E+00        -0.44481E+07
 
    0.43683E+07        -0.96245E+06         0.00000E+00
   -0.96245E+06         0.14628E+07         0.00000E+00
    0.00000E+00         0.00000E+00        -0.47112E+07
 
    0.29122E+07        -0.65329E+06         0.00000E+00
   -0.65329E+06         0.16076E+07         0.00000E+00
    0.00000E+00         0.00000E+00        -0.49754E+07
 
    0.14536E+07        -0.19063E+06         0.00000E+00
   -0.19063E+06         0.17849E+07         0.00000E+00
    0.00000E+00         0.00000E+00        -0.52328E+07
 
    0.22232E+04         0.40811E+06         0.00000E+00
    0.40811E+06         0.20126E+07         0.00000E+00
    0.00000E+00         0.00000E+00        -0.54777E+07
 
   -0.14485E+07         0.11437E+07         0.00000E+00
    0.11437E+07         0.23134E+07         0.00000E+00
    0.00000E+00         0.00000E+00        -0.57069E+07
 
   -0.29012E+07         0.20380E+07         0.00000E+00
    0.20380E+07         0.27037E+07         0.00000E+00
    0.00000E+00         0.00000E+00        -0.59179E+07
 
   -0.43351E+07         0.31279E+07         0.00000E+00
    0.31279E+07         0.31811E+07         0.00000E+00
    0.00000E+00         0.00000E+00        -0.61067E+07
 
   -0.56920E+07         0.44493E+07         0.00000E+00
    0.44493E+07         0.37145E+07         0.00000E+00
    0.00000E+00         0.00000E+00        -0.62682E+07
 
    0.97092E+07        -0.15073E+06         0.00000E+00
   -0.15073E+06        -0.18295E+06         0.00000E+00
    0.00000E+00         0.00000E+00        -0.39338E+07
 
    0.87278E+07        -0.39386E+06         0.00000E+00
   -0.39386E+06        -0.25240E+06         0.00000E+00
    0.00000E+00         0.00000E+00        -0.41524E+07
 
    0.78353E+07        -0.59120E+06         0.00000E+00
   -0.59120E+06        -0.35812E+06         0.00000E+00
    0.00000E+00         0.00000E+00        -0.43595E+07
 
    0.69633E+07        -0.77378E+06         0.00000E+00
   -0.77378E+06        -0.47609E+06         0.00000E+00
    0.00000E+00         0.00000E+00        -0.45640E+07
 
    0.60327E+07        -0.93582E+06         0.00000E+00
   -0.93582E+06        -0.54639E+06         0.00000E+00
    0.00000E+00         0.00000E+00        -0.47697E+07
 
    0.49898E+07        -0.10271E+07         0.00000E+00
   -0.10271E+07        -0.54563E+06         0.00000E+00
    0.00000E+00         0.00000E+00        -0.49827E+07
 
    0.38321E+07        -0.99828E+06         0.00000E+00
   -0.99828E+06        -0.47414E+06         0.00000E+00
    0.00000E+00         0.00000E+00        -0.52037E+07
 
    0.25877E+07        -0.81726E+06         0.00000E+00
   -0.81726E+06        -0.34466E+06         0.00000E+00
    0.00000E+00         0.00000E+00        -0.54294E+07
 
    0.12951E+07        -0.47338E+06         0.00000E+00
   -0.47338E+06        -0.17055E+06         0.00000E+00
    0.00000E+00         0.00000E+00        -0.56550E+07
 
   -0.14362E+05         0.28947E+05         0.00000E+00
    0.28947E+05         0.43160E+05         0.00000E+00
    0.00000E+00         0.00000E+00        -0.58752E+07
 
   -0.13233E+07         0.68275E+06         0.00000E+00
    0.68275E+06         0.30156E+06         0.00000E+00
    0.00000E+00         0.00000E+00        -0.60854E+07
 
   -0.26229E+07         0.14886E+07         0.00000E+00
    0.14886E+07         0.61419E+06         0.00000E+00
    0.00000E+00         0.00000E+00        -0.62821E+07
 
   -0.39017E+07         0.24577E+07         0.00000E+00
    0.24577E+07         0.98615E+06         0.00000E+00
    0.00000E+00         0.00000E+00        -0.64619E+07
 
   -0.51344E+07         0.36068E+07         0.00000E+00
    0.36068E+07         0.14102E+07         0.00000E+00
    0.00000E+00         0.00000E+00        -0.66213E+07
 
   -0.62756E+07         0.49482E+07         0.00000E+00
    0.49482E+07         0.18624E+07         0.00000E+00
    0.00000E+00         0.00000E+00        -0.67559E+07
 
    0.73778E+07        -0.18096E+06         0.00000E+00
   -0.18096E+06        -0.22025E+07         0.00000E+00
    0.00000E+00         0.00000E+00        -0.48058E+07
 
    0.64730E+07        -0.47065E+06         0.00000E+00
   -0.47065E+06        -0.22453E+07         0.00000E+00
    0.00000E+00         0.00000E+00        -0.50037E+07
 
    0.56234E+07        -0.68896E+06         0.00000E+00
   -0.68896E+06        -0.23155E+07         0.00000E+00
    0.00000E+00         0.00000E+00        -0.51949E+07
 
    0.47850E+07        -0.85398E+06         0.00000E+00
   -0.85398E+06        -0.23831E+07         0.00000E+00
    0.00000E+00         0.00000E+00        -0.53824E+07
 
    0.39099E+07        -0.96071E+06         0.00000E+00
   -0.96071E+06        -0.24196E+07         0.00000E+00
    0.00000E+00         0.00000E+00        -0.55701E+07
 
    0.29649E+07        -0.98432E+06         0.00000E+00
   -0.98432E+06        -0.24021E+07         0.00000E+00
    0.00000E+00         0.00000E+00        -0.57600E+07
 
    0.19408E+07        -0.89248E+06         0.00000E+00
   -0.89248E+06        -0.23245E+07         0.00000E+00
    0.00000E+00         0.00000E+00        -0.59529E+07
 
    0.85049E+06        -0.66003E+06         0.00000E+00
   -0.66003E+06        -0.21918E+07         0.00000E+00
    0.00000E+00         0.00000E+00        -0.61470E+07
 
   -0.28321E+06        -0.27391E+06         0.00000E+00
   -0.27391E+06        -0.20121E+07         0.00000E+00
    0.00000E+00         0.00000E+00        -0.63396E+07
 
   -0.14371E+07         0.26895E+06         0.00000E+00
    0.26895E+06        -0.17910E+07         0.00000E+00
    0.00000E+00         0.00000E+00        -0.65271E+07
 
   -0.25927E+07         0.96769E+06         0.00000E+00
    0.96769E+06        -0.15295E+07         0.00000E+00
    0.00000E+00         0.00000E+00        -0.67060E+07
 
   -0.37348E+07         0.18230E+07         0.00000E+00
    0.18230E+07        -0.12265E+07         0.00000E+00
    0.00000E+00         0.00000E+00        -0.68731E+07
 
   -0.48461E+07         0.28391E+07         0.00000E+00
    0.28391E+07        -0.88384E+06         0.00000E+00
    0.00000E+00         0.00000E+00        -0.70253E+07
 
   -0.59019E+07         0.40208E+07         0.00000E+00
    0.40208E+07        -0.51039E+06         0.00000E+00
    0.00000E+00         0.00000E+00        -0.71595E+07
 
   -0.68676E+07         0.53675E+07         0.00000E+00
    0.53675E+07        -0.12444E+06         0.00000E+00
    0.00000E+00         0.00000E+00        -0.72723E+07
 
    0.50015E+07        -0.20024E+06         0.00000E+00
   -0.20024E+06        -0.42187E+07         0.00000E+00
    0.00000E+00         0.00000E+00        -0.56866E+07
 
    0.41906E+07        -0.51868E+06         0.00000E+00
   -0.51868E+06        -0.42445E+07         0.00000E+00
    0.00000E+00         0.00000E+00        -0.58620E+07
 
    0.34129E+07        -0.74638E+06         0.00000E+00
   -0.74638E+06        -0.42838E+07         0.00000E+00
    0.00000E+00         0.00000E+00        -0.60325E+07
 
    0.26404E+07        -0.89507E+06         0.00000E+00
   -0.89507E+06        -0.43184E+07         0.00000E+00
    0.00000E+00         0.00000E+00        -0.62000E+07
 
    0.18439E+07        -0.96213E+06         0.00000E+00
   -0.96213E+06        -0.43278E+07         0.00000E+00
    0.00000E+00         0.00000E+00        -0.63663E+07
 
    0.10016E+07        -0.93265E+06         0.00000E+00
   -0.93265E+06        -0.42963E+07         0.00000E+00
    0.00000E+00         0.00000E+00        -0.65327E+07
 
    0.10531E+06        -0.78634E+06         0.00000E+00
   -0.78634E+06        -0.42163E+07         0.00000E+00
    0.00000E+00         0.00000E+00        -0.66994E+07
 
   -0.83991E+06        -0.50482E+06         0.00000E+00
   -0.50482E+06        -0.40882E+07         0.00000E+00
    0.00000E+00         0.00000E+00        -0.68653E+07
 
   -0.18203E+07        -0.76025E+05         0.00000E+00
   -0.76025E+05        -0.39163E+07         0.00000E+00
    0.00000E+00         0.00000E+00        -0.70286E+07
 
   -0.28190E+07         0.50565E+06         0.00000E+00
    0.50565E+06        -0.37052E+07         0.00000E+00
    0.00000E+00         0.00000E+00        -0.71870E+07
 
   -0.38192E+07         0.12418E+07         0.00000E+00
    0.12418E+07        -0.34586E+07         0.00000E+00
    0.00000E+00         0.00000E+00        -0.73377E+07
 
   -0.48046E+07         0.21329E+07         0.00000E+00
    0.21329E+07        -0.31795E+07         0.00000E+00
    0.00000E+00         0.00000E+00        -0.74783E+07
 
   -0.57571E+07         0.31788E+07         0.00000E+00
    0.31788E+07        -0.28729E+07         0.00000E+00
    0.00000E+00         0.00000E+00        -0.76060E+07
 
   -0.66546E+07         0.43776E+07         0.00000E+00
    0.43776E+07        -0.25482E+07         0.00000E+00
    0.00000E+00         0.00000E+00        -0.77183E+07
 
   -0.74709E+07         0.57224E+07         0.00000E+00
    0.57224E+07        -0.22192E+07         0.00000E+00
    0.00000E+00         0.00000E+00        -0.78128E+07
 
    0.25983E+07        -0.21061E+06         0.00000E+00
   -0.21061E+06        -0.62360E+07         0.00000E+00
    0.00000E+00         0.00000E+00        -0.65734E+07
 
    0.18941E+07        -0.54479E+06         0.00000E+00
   -0.54479E+06        -0.62486E+07         0.00000E+00
    0.00000E+00         0.00000E+00        -0.67245E+07
 
    0.12074E+07        -0.77523E+06         0.00000E+00
   -0.77523E+06        -0.62671E+07         0.00000E+00
    0.00000E+00         0.00000E+00        -0.68724E+07
 
    0.52217E+06        -0.90966E+06         0.00000E+00
   -0.90966E+06        -0.62793E+07         0.00000E+00
    0.00000E+00         0.00000E+00        -0.70177E+07
 
   -0.17946E+06        -0.94629E+06         0.00000E+00
   -0.94629E+06        -0.62715E+07         0.00000E+00
    0.00000E+00         0.00000E+00        -0.71614E+07
 
   -0.91173E+06        -0.87571E+06         0.00000E+00
   -0.87571E+06        -0.62320E+07         0.00000E+00
    0.00000E+00         0.00000E+00        -0.73039E+07
 
   -0.16812E+07        -0.68459E+06         0.00000E+00
   -0.68459E+06        -0.61542E+07         0.00000E+00
    0.00000E+00         0.00000E+00        -0.74454E+07
 
   -0.24861E+07        -0.35994E+06         0.00000E+00
   -0.35994E+06        -0.60363E+07         0.00000E+00
    0.00000E+00         0.00000E+00        -0.75851E+07
 
   -0.33180E+07         0.10794E+06         0.00000E+00
    0.10794E+06        -0.58803E+07         0.00000E+00
    0.00000E+00         0.00000E+00        -0.77218E+07
 
   -0.41646E+07         0.72457E+06         0.00000E+00
    0.72457E+06        -0.56897E+07         0.00000E+00
    0.00000E+00         0.00000E+00        -0.78538E+07
 
   -0.50121E+07         0.14919E+07         0.00000E+00
    0.14919E+07        -0.54686E+07         0.00000E+00
    0.00000E+00         0.00000E+00        -0.79790E+07
 
   -0.58455E+07         0.24096E+07         0.00000E+00
    0.24096E+07        -0.52218E+07         0.00000E+00
    0.00000E+00         0.00000E+00        -0.80956E+07
 
   -0.66481E+07         0.34749E+07         0.00000E+00
    0.34749E+07        -0.49553E+07         0.00000E+00
    0.00000E+00         0.00000E+00        -0.82014E+07
 
   -0.74016E+07         0.46825E+07         0.00000E+00
    0.46825E+07        -0.46777E+07         0.00000E+00
    0.00000E+00         0.00000E+00        -0.82944E+07
 
   -0.80859E+07         0.60224E+07         0.00000E+00
    0.60224E+07        -0.43997E+07         0.00000E+00
    0.00000E+00         0.00000E+00        -0.83729E+07
 
    0.18184E+06        -0.21487E+06         0.00000E+00
   -0.21487E+06        -0.82540E+07         0.00000E+00
    0.00000E+00         0.00000E+00        -0.74633E+07
 
   -0.40876E+06        -0.55606E+06         0.00000E+00
   -0.55606E+06        -0.82583E+07         0.00000E+00
    0.00000E+00         0.00000E+00        -0.75898E+07
 
   -0.99172E+06        -0.78580E+06         0.00000E+00
   -0.78580E+06        -0.82641E+07         0.00000E+00
    0.00000E+00         0.00000E+00        -0.77140E+07
 
   -0.15752E+07        -0.90814E+06         0.00000E+00
   -0.90814E+06        -0.82636E+07         0.00000E+00
    0.00000E+00         0.00000E+00        -0.78362E+07
 
   -0.21699E+07        -0.92133E+06         0.00000E+00
   -0.92133E+06        -0.82474E+07         0.00000E+00
    0.00000E+00         0.00000E+00        -0.79565E+07
 
   -0.27854E+07        -0.81891E+06         0.00000E+00
   -0.81891E+06        -0.82069E+07         0.00000E+00
    0.00000E+00         0.00000E+00        -0.80752E+07
 
   -0.34267E+07        -0.59186E+06         0.00000E+00
   -0.59186E+06        -0.81364E+07         0.00000E+00
    0.00000E+00         0.00000E+00        -0.81923E+07
 
   -0.40934E+07        -0.23111E+06         0.00000E+00
   -0.23111E+06        -0.80335E+07         0.00000E+00
    0.00000E+00         0.00000E+00        -0.83071E+07
 
   -0.47805E+07         0.27049E+06         0.00000E+00
    0.27049E+06        -0.78988E+07         0.00000E+00
    0.00000E+00         0.00000E+00        -0.84190E+07
 
   -0.54791E+07         0.91720E+06         0.00000E+00
    0.91720E+06        -0.77348E+07         0.00000E+00
    0.00000E+00         0.00000E+00        -0.85265E+07
 
   -0.61783E+07         0.17103E+07         0.00000E+00
    0.17103E+07        -0.75454E+07         0.00000E+00
    0.00000E+00         0.00000E+00        -0.86284E+07
 
   -0.68655E+07         0.26482E+07         0.00000E+00
    0.26482E+07        -0.73354E+07         0.00000E+00
    0.00000E+00         0.00000E+00        -0.87230E+07
 
   -0.75267E+07         0.37269E+07         0.00000E+00
    0.37269E+07        -0.71107E+07         0.00000E+00
    0.00000E+00         0.00000E+00        -0.88090E+07
 
   -0.81471E+07         0.49390E+07         0.00000E+00
    0.49390E+07        -0.68788E+07         0.00000E+00
    0.00000E+00         0.00000E+00        -0.88847E+07
 
   -0.87115E+07         0.62734E+07         0.00000E+00
    0.62734E+07        -0.66479E+07         0.00000E+00
    0.00000E+00         0.00000E+00        -0.89488E+07
 
   -0.22391E+07        -0.21568E+06         0.00000E+00
   -0.21568E+06        -0.10273E+08         0.00000E+00
    0.00000E+00         0.00000E+00        -0.83548E+07
 
   -0.27133E+07        -0.55908E+06         0.00000E+00
   -0.55908E+06        -0.10273E+08         0.00000E+00
    0.00000E+00         0.00000E+00        -0.84568E+07
 
   -0.31844E+07        -0.78677E+06         0.00000E+00
   -0.78677E+06        -0.10273E+08         0.00000E+00
    0.00000E+00         0.00000E+00        -0.85572E+07
 
   -0.36561E+07        -0.89947E+06         0.00000E+00
   -0.89947E+06        -0.10268E+08         0.00000E+00
    0.00000E+00         0.00000E+00        -0.86557E+07
 
   -0.41351E+07        -0.89485E+06         0.00000E+00
   -0.89485E+06        -0.10251E+08         0.00000E+00
    0.00000E+00         0.00000E+00        -0.87524E+07
 
   -0.46280E+07        -0.76802E+06         0.00000E+00
   -0.76802E+06        -0.10216E+08         0.00000E+00
    0.00000E+00         0.00000E+00        -0.88473E+07
 
   -0.51389E+07        -0.51271E+06         0.00000E+00
   -0.51271E+06        -0.10158E+08         0.00000E+00
    0.00000E+00         0.00000E+00        -0.89405E+07
 
   -0.56682E+07        -0.12268E+06         0.00000E+00
   -0.12268E+06        -0.10074E+08         0.00000E+00
    0.00000E+00         0.00000E+00        -0.90314E+07
 
   -0.62131E+07         0.40690E+06         0.00000E+00
    0.40690E+06        -0.99645E+07         0.00000E+00
    0.00000E+00         0.00000E+00        -0.91197E+07
 
   -0.67675E+07         0.10787E+07         0.00000E+00
    0.10787E+07        -0.98309E+07         0.00000E+00
    0.00000E+00         0.00000E+00        -0.92043E+07
 
   -0.73230E+07         0.18928E+07         0.00000E+00
    0.18928E+07        -0.96764E+07         0.00000E+00
    0.00000E+00         0.00000E+00        -0.92844E+07
 
   -0.78699E+07         0.28467E+07         0.00000E+00
    0.28467E+07        -0.95054E+07         0.00000E+00
    0.00000E+00         0.00000E+00        -0.93588E+07
 
   -0.83971E+07         0.39350E+07         0.00000E+00
    0.39350E+07        -0.93229E+07         0.00000E+00
    0.00000E+00         0.00000E+00        -0.94264E+07
 
   -0.88929E+07         0.51496E+07         0.00000E+00
    0.51496E+07        -0.91352E+07         0.00000E+00
    0.00000E+00         0.00000E+00        -0.94862E+07
 
   -0.93459E+07         0.64791E+07         0.00000E+00
    0.64791E+07        -0.89487E+07         0.00000E+00
    0.00000E+00         0.00000E+00        -0.95371E+07
 
   -0.46605E+07        -0.21534E+06         0.00000E+00
   -0.21534E+06        -0.12292E+08         0.00000E+00
    0.00000E+00         0.00000E+00        -0.92469E+07
 
   -0.50177E+07        -0.55939E+06         0.00000E+00
   -0.55939E+06        -0.12292E+08         0.00000E+00
    0.00000E+00         0.00000E+00        -0.93250E+07
 
   -0.53717E+07        -0.78542E+06         0.00000E+00
   -0.78542E+06        -0.12292E+08         0.00000E+00
    0.00000E+00         0.00000E+00        -0.94016E+07
 
   -0.57246E+07        -0.89118E+06         0.00000E+00
   -0.89118E+06        -0.12289E+08         0.00000E+00
    0.00000E+00         0.00000E+00        -0.94763E+07
 
   -0.60812E+07        -0.87353E+06         0.00000E+00
   -0.87353E+06        -0.12278E+08         0.00000E+00
    0.00000E+00         0.00000E+00        -0.95493E+07
 
   -0.64467E+07        -0.72839E+06         0.00000E+00
   -0.72839E+06        -0.12254E+08         0.00000E+00
    0.00000E+00         0.00000E+00        -0.96206E+07
 
   -0.68247E+07        -0.45128E+06         0.00000E+00
   -0.45128E+06        -0.12212E+08         0.00000E+00
    0.00000E+00         0.00000E+00        -0.96901E+07
 
   -0.72166E+07        -0.38087E+05         0.00000E+00
   -0.38087E+05        -0.12151E+08         0.00000E+00
    0.00000E+00         0.00000E+00        -0.97578E+07
 
   -0.76210E+07         0.51409E+06         0.00000E+00
    0.51409E+06        -0.12069E+08         0.00000E+00
    0.00000E+00         0.00000E+00        -0.98233E+07
 
   -0.80342E+07         0.12063E+07         0.00000E+00
    0.12063E+07        -0.11968E+08         0.00000E+00
    0.00000E+00         0.00000E+00        -0.98861E+07
 
   -0.84504E+07         0.20375E+07         0.00000E+00
    0.20375E+07        -0.11850E+08         0.00000E+00
    0.00000E+00         0.00000E+00        -0.99455E+07
 
   -0.88623E+07         0.30041E+07         0.00000E+00
    0.30041E+07        -0.11719E+08         0.00000E+00
    0.00000E+00         0.00000E+00        -0.10001E+08
 
   -0.92616E+07         0.41001E+07         0.00000E+00
    0.41001E+07        -0.11578E+08         0.00000E+00
    0.00000E+00         0.00000E+00        -0.10051E+08
 
   -0.96394E+07         0.53166E+07         0.00000E+00
    0.53166E+07        -0.11433E+08         0.00000E+00
    0.00000E+00         0.00000E+00        -0.10096E+08
 
   -0.99872E+07         0.66422E+07         0.00000E+00
    0.66422E+07        -0.11289E+08         0.00000E+00
    0.00000E+00         0.00000E+00        -0.10135E+08
 
   -0.70820E+07        -0.21565E+06         0.00000E+00
   -0.21565E+06        -0.14311E+08         0.00000E+00
    0.00000E+00         0.00000E+00        -0.10140E+08
 
   -0.73222E+07        -0.56147E+06         0.00000E+00
   -0.56147E+06        -0.14313E+08         0.00000E+00
    0.00000E+00         0.00000E+00        -0.10194E+08
 
   -0.75556E+07        -0.78760E+06         0.00000E+00
   -0.78760E+06        -0.14319E+08         0.00000E+00
    0.00000E+00         0.00000E+00        -0.10247E+08
 
   -0.77845E+07        -0.88939E+06         0.00000E+00
   -0.88939E+06        -0.14323E+08         0.00000E+00
    0.00000E+00         0.00000E+00        -0.10298E+08
 
   -0.80134E+07        -0.86290E+06         0.00000E+00
   -0.86290E+06        -0.14323E+08         0.00000E+00
    0.00000E+00         0.00000E+00        -0.10347E+08
 
   -0.82472E+07        -0.70453E+06         0.00000E+00
   -0.70453E+06        -0.14314E+08         0.00000E+00
    0.00000E+00         0.00000E+00        -0.10395E+08
 
   -0.84900E+07        -0.41102E+06         0.00000E+00
   -0.41102E+06        -0.14293E+08         0.00000E+00
    0.00000E+00         0.00000E+00        -0.10441E+08
 
   -0.87438E+07         0.20105E+05         0.00000E+00
    0.20105E+05        -0.14257E+08         0.00000E+00
    0.00000E+00         0.00000E+00        -0.10486E+08
 
   -0.90090E+07         0.59014E+06         0.00000E+00
    0.59014E+06        -0.14205E+08         0.00000E+00
    0.00000E+00         0.00000E+00        -0.10529E+08
 
   -0.92835E+07         0.12988E+07         0.00000E+00
    0.12988E+07        -0.14137E+08         0.00000E+00
    0.00000E+00         0.00000E+00        -0.10571E+08
 
   -0.95638E+07         0.21438E+07         0.00000E+00
    0.21438E+07        -0.14056E+08         0.00000E+00
    0.00000E+00         0.00000E+00        -0.10610E+08
 
   -0.98449E+07         0.31208E+07         0.00000E+00
    0.31208E+07        -0.13965E+08         0.00000E+00
    0.00000E+00         0.00000E+00        -0.10648E+08
 
   -0.10121E+08         0.42230E+07         0.00000E+00
    0.42230E+07        -0.13865E+08         0.00000E+00
    0.00000E+00         0.00000E+00        -0.10682E+08
 
   -0.10386E+08         0.54415E+07         0.00000E+00
    0.54415E+07        -0.13762E+08         0.00000E+00
    0.00000E+00         0.00000E+00        -0.10713E+08
 
   -0.10633E+08         0.67648E+07         0.00000E+00
    0.67648E+07        -0.13658E+08         0.00000E+00
    0.00000E+00         0.00000E+00        -0.10740E+08
 
   -0.95060E+07        -0.21798E+06         0.00000E+00
   -0.21798E+06        -0.16330E+08         0.00000E+00
    0.00000E+00         0.00000E+00        -0.11033E+08
 
   -0.96291E+07        -0.56872E+06         0.00000E+00
   -0.56872E+06        -0.16337E+08         0.00000E+00
    0.00000E+00         0.00000E+00        -0.11065E+08
 
   -0.97389E+07        -0.79780E+06         0.00000E+00
   -0.79780E+06        -0.16351E+08         0.00000E+00
    0.00000E+00         0.00000E+00        -0.11094E+08
 
   -0.98394E+07        -0.89882E+06         0.00000E+00
   -0.89882E+06        -0.16367E+08         0.00000E+00
    0.00000E+00         0.00000E+00        -0.11121E+08
 
   -0.99361E+07        -0.86727E+06         0.00000E+00
   -0.86727E+06        -0.16382E+08         0.00000E+00
    0.00000E+00         0.00000E+00        -0.11146E+08
 
   -0.10035E+08        -0.69990E+06         0.00000E+00
   -0.69990E+06        -0.16392E+08         0.00000E+00
    0.00000E+00         0.00000E+00        -0.11170E+08
 
   -0.10140E+08        -0.39448E+06         0.00000E+00
   -0.39448E+06        -0.16393E+08         0.00000E+00
    0.00000E+00         0.00000E+00        -0.11193E+08
 
   -0.10255E+08         0.50178E+05         0.00000E+00
    0.50178E+05        -0.16383E+08         0.00000E+00
    0.00000E+00         0.00000E+00        -0.11215E+08
 
   -0.10381E+08         0.63403E+06         0.00000E+00
    0.63403E+06        -0.16362E+08         0.00000E+00
    0.00000E+00         0.00000E+00        -0.11236E+08
 
   -0.10519E+08         0.13556E+07         0.00000E+00
    0.13556E+07        -0.16328E+08         0.00000E+00
    0.00000E+00         0.00000E+00        -0.11257E+08
 
   -0.10666E+08         0.22117E+07         0.00000E+00
    0.22117E+07        -0.16284E+08         0.00000E+00
    0.00000E+00         0.00000E+00        -0.11277E+08
 
   -0.10819E+08         0.31972E+07         0.00000E+00
    0.31972E+07        -0.16232E+08         0.00000E+00
    0.00000E+00         0.00000E+00        -0.11297E+08
 
   -0.10976E+08         0.43050E+07         0.00000E+00
    0.43050E+07        -0.16172E+08         0.00000E+00
    0.00000E+00         0.00000E+00        -0.11315E+08
 
   -0.11132E+08         0.55259E+07         0.00000E+00
    0.55259E+07        -0.16109E+08         0.00000E+00
    0.00000E+00         0.00000E+00        -0.11333E+08
 
   -0.11283E+08         0.68484E+07         0.00000E+00
    0.68484E+07        -0.16044E+08         0.00000E+00
    0.00000E+00         0.00000E+00        -0.11349E+08
 
   -0.11937E+08        -0.22331E+06         0.00000E+00
   -0.22331E+06        -0.18349E+08         0.00000E+00
    0.00000E+00         0.00000E+00        -0.11929E+08
 
   -0.11942E+08        -0.58361E+06         0.00000E+00
   -0.58361E+06        -0.18363E+08         0.00000E+00
    0.00000E+00         0.00000E+00        -0.11937E+08
 
   -0.11925E+08        -0.81927E+06         0.00000E+00
   -0.81927E+06        -0.18387E+08         0.00000E+00
    0.00000E+00         0.00000E+00        -0.11943E+08
 
   -0.11893E+08        -0.92285E+06         0.00000E+00
   -0.92285E+06        -0.18417E+08         0.00000E+00
    0.00000E+00         0.00000E+00        -0.11945E+08
 
   -0.11853E+08        -0.88962E+06         0.00000E+00
   -0.88962E+06        -0.18449E+08         0.00000E+00
    0.00000E+00         0.00000E+00        -0.11946E+08
 
   -0.11813E+08        -0.71682E+06         0.00000E+00
   -0.71682E+06        -0.18480E+08         0.00000E+00
    0.00000E+00         0.00000E+00        -0.11946E+08
 
   -0.11778E+08        -0.40319E+06         0.00000E+00
   -0.40319E+06        -0.18505E+08         0.00000E+00
    0.00000E+00         0.00000E+00        -0.11945E+08
 
   -0.11753E+08         0.51325E+05         0.00000E+00
    0.51325E+05        -0.18523E+08         0.00000E+00
    0.00000E+00         0.00000E+00        -0.11944E+08
 
   -0.11741E+08         0.64554E+06         0.00000E+00
    0.64554E+06        -0.18532E+08         0.00000E+00
    0.00000E+00         0.00000E+00        -0.11944E+08
 
   -0.11743E+08         0.13770E+07         0.00000E+00
    0.13770E+07        -0.18532E+08         0.00000E+00
    0.00000E+00         0.00000E+00        -0.11944E+08
 
   -0.11758E+08         0.22418E+07         0.00000E+00
    0.22418E+07        -0.18524E+08         0.00000E+00
    0.00000E+00         0.00000E+00        -0.11945E+08
 
   -0.11787E+08         0.32343E+07         0.00000E+00
    0.32343E+07        -0.18510E+08         0.00000E+00
    0.00000E+00         0.00000E+00        -0.11947E+08
 
   -0.11827E+08         0.43472E+07         0.00000E+00
    0.43472E+07        -0.18490E+08         0.00000E+00
    0.00000E+00         0.00000E+00        -0.11950E+08
 
   -0.11876E+08         0.55710E+07         0.00000E+00
    0.55710E+07        -0.18466E+08         0.00000E+00
    0.00000E+00         0.00000E+00        -0.11955E+08
 
   -0.11933E+08         0.68943E+07         0.00000E+00
    0.68943E+07        -0.18439E+08         0.00000E+00
    0.00000E+00         0.00000E+00        -0.11960E+08
 
   -0.14382E+08        -0.23228E+06         0.00000E+00
   -0.23228E+06        -0.20369E+08         0.00000E+00
    0.00000E+00         0.00000E+00        -0.12828E+08
 
   -0.14265E+08        -0.60776E+06         0.00000E+00
   -0.60776E+06        -0.20389E+08         0.00000E+00
    0.00000E+00         0.00000E+00        -0.12813E+08
 
   -0.14117E+08        -0.85411E+06         0.00000E+00
   -0.85411E+06        -0.20425E+08         0.00000E+00
    0.00000E+00         0.00000E+00        -0.12793E+08
 
   -0.13948E+08        -0.96353E+06         0.00000E+00
   -0.96353E+06        -0.20471E+08         0.00000E+00
    0.00000E+00         0.00000E+00        -0.12771E+08
 
   -0.13767E+08        -0.93161E+06         0.00000E+00
   -0.93161E+06        -0.20522E+08         0.00000E+00
    0.00000E+00         0.00000E+00        -0.12747E+08
 
   -0.13585E+08        -0.75636E+06         0.00000E+00
   -0.75636E+06        -0.20573E+08         0.00000E+00
    0.00000E+00         0.00000E+00        -0.12722E+08
 
   -0.13409E+08        -0.43755E+06         0.00000E+00
   -0.43755E+06        -0.20623E+08         0.00000E+00
    0.00000E+00         0.00000E+00        -0.12697E+08
 
   -0.13243E+08         0.23729E+05         0.00000E+00
    0.23729E+05        -0.20667E+08         0.00000E+00
    0.00000E+00         0.00000E+00        -0.12673E+08
 
   -0.13092E+08         0.62529E+06         0.00000E+00
    0.62529E+06        -0.20706E+08         0.00000E+00
    0.00000E+00         0.00000E+00        -0.12650E+08
 
   -0.12958E+08         0.13639E+07         0.00000E+00
    0.13639E+07        -0.20739E+08         0.00000E+00
    0.00000E+00         0.00000E+00        -0.12630E+08
 
   -0.12844E+08         0.22351E+07         0.00000E+00
    0.22351E+07        -0.20766E+08         0.00000E+00
    0.00000E+00         0.00000E+00        -0.12612E+08
 
   -0.12749E+08         0.32331E+07         0.00000E+00
    0.32331E+07        -0.20789E+08         0.00000E+00
    0.00000E+00         0.00000E+00        -0.12597E+08
 
   -0.12673E+08         0.43505E+07         0.00000E+00
    0.43505E+07        -0.20807E+08         0.00000E+00
    0.00000E+00         0.00000E+00        -0.12585E+08
 
   -0.12618E+08         0.55777E+07         0.00000E+00
    0.55777E+07        -0.20821E+08         0.00000E+00
    0.00000E+00         0.00000E+00        -0.12576E+08
 
   -0.12581E+08         0.69034E+07         0.00000E+00
    0.69034E+07        -0.20831E+08         0.00000E+00
    0.00000E+00         0.00000E+00        -0.12570E+08
 
   -0.16847E+08        -0.24529E+06         0.00000E+00
   -0.24529E+06        -0.22388E+08         0.00000E+00
    0.00000E+00         0.00000E+00        -0.13731E+08
 
   -0.16603E+08        -0.64205E+06         0.00000E+00
   -0.64205E+06        -0.22415E+08         0.00000E+00
    0.00000E+00         0.00000E+00        -0.13691E+08
 
   -0.16318E+08        -0.90329E+06         0.00000E+00
   -0.90329E+06        -0.22464E+08         0.00000E+00
    0.00000E+00         0.00000E+00        -0.13646E+08
 
   -0.16007E+08        -0.10216E+07         0.00000E+00
   -0.10216E+07        -0.22526E+08         0.00000E+00
    0.00000E+00         0.00000E+00        -0.13598E+08
 
   -0.15682E+08        -0.99353E+06         0.00000E+00
   -0.99353E+06        -0.22595E+08         0.00000E+00
    0.00000E+00         0.00000E+00        -0.13548E+08
 
   -0.15355E+08        -0.81820E+06         0.00000E+00
   -0.81820E+06        -0.22667E+08         0.00000E+00
    0.00000E+00         0.00000E+00        -0.13497E+08
 
   -0.15034E+08        -0.49670E+06         0.00000E+00
   -0.49670E+06        -0.22739E+08         0.00000E+00
    0.00000E+00         0.00000E+00        -0.13448E+08
 
   -0.14726E+08        -0.31320E+05         0.00000E+00
   -0.31320E+05        -0.22809E+08         0.00000E+00
    0.00000E+00         0.00000E+00        -0.13400E+08
 
   -0.14437E+08         0.57482E+06         0.00000E+00
    0.57482E+06        -0.22876E+08         0.00000E+00
    0.00000E+00         0.00000E+00        -0.13355E+08
 
   -0.14168E+08         0.13179E+07         0.00000E+00
    0.13179E+07        -0.22939E+08         0.00000E+00
    0.00000E+00         0.00000E+00        -0.13313E+08
 
   -0.13924E+08         0.21932E+07         0.00000E+00
    0.21932E+07        -0.23000E+08         0.00000E+00
    0.00000E+00         0.00000E+00        -0.13276E+08
 
   -0.13706E+08         0.31949E+07         0.00000E+00
    0.31949E+07        -0.23058E+08         0.00000E+00
    0.00000E+00         0.00000E+00        -0.13243E+08
 
   -0.13515E+08         0.43158E+07         0.00000E+00
    0.43158E+07        -0.23113E+08         0.00000E+00
    0.00000E+00         0.00000E+00        -0.13216E+08
 
   -0.13355E+08         0.55467E+07         0.00000E+00
    0.55467E+07        -0.23164E+08         0.00000E+00
    0.00000E+00         0.00000E+00        -0.13194E+08
 
   -0.13227E+08         0.68762E+07         0.00000E+00
    0.68762E+07        -0.23212E+08         0.00000E+00
    0.00000E+00         0.00000E+00        -0.13178E+08
 
   -0.19340E+08        -0.26246E+06         0.00000E+00
   -0.26246E+06        -0.24407E+08         0.00000E+00
    0.00000E+00         0.00000E+00        -0.14641E+08
 
   -0.18962E+08        -0.68669E+06         0.00000E+00
   -0.68669E+06        -0.24442E+08         0.00000E+00
    0.00000E+00         0.00000E+00        -0.14574E+08
 
   -0.18533E+08        -0.96680E+06         0.00000E+00
   -0.96680E+06        -0.24502E+08         0.00000E+00
    0.00000E+00         0.00000E+00        -0.14502E+08
 
   -0.18074E+08        -0.10966E+07         0.00000E+00
   -0.10966E+07        -0.24579E+08         0.00000E+00
    0.00000E+00         0.00000E+00        -0.14427E+08
 
   -0.17599E+08        -0.10742E+07         0.00000E+00
   -0.10742E+07        -0.24665E+08         0.00000E+00
    0.00000E+00         0.00000E+00        -0.14349E+08
 
   -0.17124E+08        -0.90057E+06         0.00000E+00
   -0.90057E+06        -0.24756E+08         0.00000E+00
    0.00000E+00         0.00000E+00        -0.14272E+08
 
   -0.16657E+08        -0.57838E+06         0.00000E+00
   -0.57838E+06        -0.24848E+08         0.00000E+00
    0.00000E+00         0.00000E+00        -0.14196E+08
 
   -0.16206E+08        -0.11129E+06         0.00000E+00
   -0.11129E+06        -0.24940E+08         0.00000E+00
    0.00000E+00         0.00000E+00        -0.14124E+08
 
   -0.15778E+08         0.49665E+06         0.00000E+00
    0.49665E+06        -0.25031E+08         0.00000E+00
    0.00000E+00         0.00000E+00        -0.14055E+08
 
   -0.15375E+08         0.12412E+07         0.00000E+00
    0.12412E+07        -0.25122E+08         0.00000E+00
    0.00000E+00         0.00000E+00        -0.13992E+08
 
   -0.15001E+08         0.21177E+07         0.00000E+00
    0.21177E+07        -0.25214E+08         0.00000E+00
    0.00000E+00         0.00000E+00        -0.13935E+08
 
   -0.14660E+08         0.31209E+07         0.00000E+00
    0.31209E+07        -0.25305E+08         0.00000E+00
    0.00000E+00         0.00000E+00        -0.13885E+08
 
   -0.14354E+08         0.42440E+07         0.00000E+00
    0.42440E+07        -0.25396E+08         0.00000E+00
    0.00000E+00         0.00000E+00        -0.13842E+08
 
   -0.14089E+08         0.54784E+07         0.00000E+00
    0.54784E+07        -0.25485E+08         0.00000E+00
    0.00000E+00         0.00000E+00        -0.13807E+08
 
   -0.13868E+08         0.68130E+07         0.00000E+00
    0.68130E+07        -0.25570E+08         0.00000E+00
    0.00000E+00         0.00000E+00        -0.13781E+08
 
   -0.21869E+08        -0.28373E+06         0.00000E+00
   -0.28373E+06        -0.26425E+08         0.00000E+00
    0.00000E+00         0.00000E+00        -0.15558E+08
 
   -0.21346E+08        -0.74125E+06         0.00000E+00
   -0.74125E+06        -0.26467E+08         0.00000E+00
    0.00000E+00         0.00000E+00        -0.15463E+08
 
   -0.20764E+08        -0.10436E+07         0.00000E+00
   -0.10436E+07        -0.26539E+08         0.00000E+00
    0.00000E+00         0.00000E+00        -0.15361E+08
 
   -0.20149E+08        -0.11866E+07         0.00000E+00
   -0.11866E+07        -0.26629E+08         0.00000E+00
    0.00000E+00         0.00000E+00        -0.15256E+08
 
   -0.19520E+08        -0.11710E+07         0.00000E+00
   -0.11710E+07        -0.26729E+08         0.00000E+00
    0.00000E+00         0.00000E+00        -0.15150E+08
 
   -0.18893E+08        -0.10001E+07         0.00000E+00
   -0.10001E+07        -0.26834E+08         0.00000E+00
    0.00000E+00         0.00000E+00        -0.15044E+08
 
   -0.18279E+08        -0.67873E+06         0.00000E+00
   -0.67873E+06        -0.26942E+08         0.00000E+00
    0.00000E+00         0.00000E+00        -0.14942E+08
 
   -0.17686E+08        -0.21222E+06         0.00000E+00
   -0.21222E+06        -0.27051E+08         0.00000E+00
    0.00000E+00         0.00000E+00        -0.14844E+08
 
   -0.17119E+08         0.39451E+06         0.00000E+00
    0.39451E+06        -0.27162E+08         0.00000E+00
    0.00000E+00         0.00000E+00        -0.14751E+08
 
   -0.16582E+08         0.11370E+07         0.00000E+00
    0.11370E+07        -0.27277E+08         0.00000E+00
    0.00000E+00         0.00000E+00        -0.14666E+08
 
   -0.16079E+08         0.20112E+07         0.00000E+00
    0.20112E+07        -0.27396E+08         0.00000E+00
    0.00000E+00         0.00000E+00        -0.14589E+08
 
   -0.15614E+08         0.30125E+07         0.00000E+00
    0.30125E+07        -0.27519E+08         0.00000E+00
    0.00000E+00         0.00000E+00        -0.14520E+08
 
   -0.15191E+08         0.41355E+07         0.00000E+00
    0.41355E+07        -0.27645E+08         0.00000E+00
    0.00000E+00         0.00000E+00        -0.14461E+08
 
   -0.14818E+08         0.53725E+07         0.00000E+00
    0.53725E+07        -0.27771E+08         0.00000E+00
    0.00000E+00         0.00000E+00        -0.14413E+08
 
   -0.14502E+08         0.67131E+07         0.00000E+00
    0.67131E+07        -0.27893E+08         0.00000E+00
    0.00000E+00         0.00000E+00        -0.14375E+08
 
   -0.24440E+08        -0.30884E+06         0.00000E+00
   -0.30884E+06        -0.28444E+08         0.00000E+00
    0.00000E+00         0.00000E+00        -0.16484E+08
 
   -0.23759E+08        -0.80466E+06         0.00000E+00
   -0.80466E+06        -0.28492E+08         0.00000E+00
    0.00000E+00         0.00000E+00        -0.16357E+08
 
   -0.23014E+08        -0.11314E+07         0.00000E+00
   -0.11314E+07        -0.28572E+08         0.00000E+00
    0.00000E+00         0.00000E+00        -0.16224E+08
 
   -0.22235E+08        -0.12883E+07         0.00000E+00
   -0.12883E+07        -0.28672E+08         0.00000E+00
    0.00000E+00         0.00000E+00        -0.16087E+08
 
   -0.21446E+08        -0.12794E+07         0.00000E+00
   -0.12794E+07        -0.28781E+08         0.00000E+00
    0.00000E+00         0.00000E+00        -0.15949E+08
 
   -0.20664E+08        -0.11115E+07         0.00000E+00
   -0.11115E+07        -0.28895E+08         0.00000E+00
    0.00000E+00         0.00000E+00        -0.15814E+08
 
   -0.19903E+08        -0.79213E+06         0.00000E+00
   -0.79213E+06        -0.29011E+08         0.00000E+00
    0.00000E+00         0.00000E+00        -0.15683E+08
 
   -0.19168E+08        -0.32855E+06         0.00000E+00
   -0.32855E+06        -0.29131E+08         0.00000E+00
    0.00000E+00         0.00000E+00        -0.15558E+08
 
   -0.18464E+08         0.27342E+06         0.00000E+00
    0.27342E+06        -0.29256E+08         0.00000E+00
    0.00000E+00         0.00000E+00        -0.15441E+08
 
   -0.17794E+08         0.10094E+07         0.00000E+00
    0.10094E+07        -0.29389E+08         0.00000E+00
    0.00000E+00         0.00000E+00        -0.15332E+08
 
   -0.17161E+08         0.18763E+07         0.00000E+00
    0.18763E+07        -0.29532E+08         0.00000E+00
    0.00000E+00         0.00000E+00        -0.15234E+08
 
   -0.16571E+08         0.28712E+07         0.00000E+00
    0.28712E+07        -0.29685E+08         0.00000E+00
    0.00000E+00         0.00000E+00        -0.15147E+08
 
   -0.16028E+08         0.39905E+07         0.00000E+00
    0.39905E+07        -0.29846E+08         0.00000E+00
    0.00000E+00         0.00000E+00        -0.15071E+08
 
   -0.15543E+08         0.52283E+07         0.00000E+00
    0.52283E+07        -0.30010E+08         0.00000E+00
    0.00000E+00         0.00000E+00        -0.15008E+08
 
   -0.15128E+08         0.65754E+07         0.00000E+00
    0.65754E+07        -0.30171E+08         0.00000E+00
    0.00000E+00         0.00000E+00        -0.14959E+08
 
   -0.27061E+08        -0.33733E+06         0.00000E+00
   -0.33733E+06        -0.30462E+08         0.00000E+00
    0.00000E+00         0.00000E+00        -0.17420E+08
 
   -0.26204E+08        -0.87522E+06         0.00000E+00
   -0.87522E+06        -0.30515E+08         0.00000E+00
    0.00000E+00         0.00000E+00        -0.17258E+08
 
   -0.25281E+08        -0.12271E+07         0.00000E+00
   -0.12271E+07        -0.30601E+08         0.00000E+00
    0.00000E+00         0.00000E+00        -0.17089E+08
 
   -0.24329E+08        -0.13967E+07         0.00000E+00
   -0.13967E+07        -0.30705E+08         0.00000E+00
    0.00000E+00         0.00000E+00        -0.16917E+08
 
   -0.23375E+08        -0.13931E+07         0.00000E+00
   -0.13931E+07        -0.30817E+08         0.00000E+00
    0.00000E+00         0.00000E+00        -0.16747E+08
 
   -0.22438E+08        -0.12274E+07         0.00000E+00
   -0.12274E+07        -0.30931E+08         0.00000E+00
    0.00000E+00         0.00000E+00        -0.16579E+08
 
   -0.21529E+08        -0.91087E+06         0.00000E+00
   -0.91087E+06        -0.31048E+08         0.00000E+00
    0.00000E+00         0.00000E+00        -0.16418E+08
 
   -0.20655E+08        -0.45288E+06         0.00000E+00
   -0.45288E+06        -0.31170E+08         0.00000E+00
    0.00000E+00         0.00000E+00        -0.16265E+08
 
   -0.19817E+08         0.13990E+06         0.00000E+00
    0.13990E+06        -0.31301E+08         0.00000E+00
    0.00000E+00         0.00000E+00        -0.16122E+08
 
   -0.19016E+08         0.86361E+06         0.00000E+00
    0.86361E+06        -0.31446E+08         0.00000E+00
    0.00000E+00         0.00000E+00        -0.15990E+08
 
   -0.18254E+08         0.17166E+07         0.00000E+00
    0.17166E+07        -0.31608E+08         0.00000E+00
    0.00000E+00         0.00000E+00        -0.15870E+08
 
   -0.17536E+08         0.26986E+07         0.00000E+00
    0.26986E+07        -0.31788E+08         0.00000E+00
    0.00000E+00         0.00000E+00        -0.15762E+08
 
   -0.16869E+08         0.38087E+07         0.00000E+00
    0.38087E+07        -0.31983E+08         0.00000E+00
    0.00000E+00         0.00000E+00        -0.15669E+08
 
   -0.16266E+08         0.50440E+07         0.00000E+00
    0.50440E+07        -0.32186E+08         0.00000E+00
    0.00000E+00         0.00000E+00        -0.15591E+08
 
   -0.15743E+08         0.63973E+07         0.00000E+00
    0.63973E+07        -0.32389E+08         0.00000E+00
    0.00000E+00         0.00000E+00        -0.15530E+08
 
   -0.29736E+08        -0.36860E+06         0.00000E+00
   -0.36860E+06        -0.32480E+08         0.00000E+00
    0.00000E+00         0.00000E+00        -0.18367E+08
 
   -0.28682E+08        -0.95055E+06         0.00000E+00
   -0.95055E+06        -0.32536E+08         0.00000E+00
    0.00000E+00         0.00000E+00        -0.18165E+08
 
   -0.27566E+08        -0.13259E+07         0.00000E+00
   -0.13259E+07        -0.32624E+08         0.00000E+00
    0.00000E+00         0.00000E+00        -0.17957E+08
 
   -0.26430E+08        -0.15049E+07         0.00000E+00
   -0.15049E+07        -0.32726E+08         0.00000E+00
    0.00000E+00         0.00000E+00        -0.17747E+08
 
   -0.25306E+08        -0.15032E+07         0.00000E+00
   -0.15032E+07        -0.32831E+08         0.00000E+00
    0.00000E+00         0.00000E+00        -0.17540E+08
 
   -0.24213E+08        -0.13381E+07         0.00000E+00
   -0.13381E+07        -0.32935E+08         0.00000E+00
    0.00000E+00         0.00000E+00        -0.17338E+08
 
   -0.23161E+08        -0.10250E+07         0.00000E+00
   -0.10250E+07        -0.33041E+08         0.00000E+00
    0.00000E+00         0.00000E+00        -0.17146E+08
 
   -0.22152E+08        -0.57583E+06         0.00000E+00
   -0.57583E+06        -0.33154E+08         0.00000E+00
    0.00000E+00         0.00000E+00        -0.16964E+08
 
   -0.21184E+08         0.21087E+04         0.00000E+00
    0.21087E+04        -0.33282E+08         0.00000E+00
    0.00000E+00         0.00000E+00        -0.16794E+08
 
   -0.20255E+08         0.70585E+06         0.00000E+00
    0.70585E+06        -0.33431E+08         0.00000E+00
    0.00000E+00         0.00000E+00        -0.16637E+08
 
   -0.19365E+08         0.15361E+07         0.00000E+00
    0.15361E+07        -0.33606E+08         0.00000E+00
    0.00000E+00         0.00000E+00        -0.16494E+08
 
   -0.18516E+08         0.24960E+07         0.00000E+00
    0.24960E+07        -0.33810E+08         0.00000E+00
    0.00000E+00         0.00000E+00        -0.16366E+08
 
   -0.17719E+08         0.35891E+07         0.00000E+00
    0.35891E+07        -0.34039E+08         0.00000E+00
    0.00000E+00         0.00000E+00        -0.16254E+08
 
   -0.16988E+08         0.48166E+07         0.00000E+00
    0.48166E+07        -0.34284E+08         0.00000E+00
    0.00000E+00         0.00000E+00        -0.16159E+08
 
   -0.16347E+08         0.61747E+07         0.00000E+00
    0.61747E+07        -0.34534E+08         0.00000E+00
    0.00000E+00         0.00000E+00        -0.16084E+08
 
   -0.32469E+08        -0.40188E+06         0.00000E+00
   -0.40188E+06        -0.34498E+08         0.00000E+00
    0.00000E+00         0.00000E+00        -0.19326E+08
 
   -0.31193E+08        -0.10274E+07         0.00000E+00
   -0.10274E+07        -0.34554E+08         0.00000E+00
    0.00000E+00         0.00000E+00        -0.19078E+08
 
   -0.29864E+08        -0.14215E+07         0.00000E+00
   -0.14215E+07        -0.34639E+08         0.00000E+00
    0.00000E+00         0.00000E+00        -0.18825E+08
 
   -0.28534E+08        -0.16034E+07         0.00000E+00
   -0.16034E+07        -0.34729E+08         0.00000E+00
    0.00000E+00         0.00000E+00        -0.18573E+08
 
   -0.27236E+08        -0.15983E+07         0.00000E+00
   -0.15983E+07        -0.34816E+08         0.00000E+00
    0.00000E+00         0.00000E+00        -0.18326E+08
 
   -0.25990E+08        -0.14310E+07         0.00000E+00
   -0.14310E+07        -0.34896E+08         0.00000E+00
    0.00000E+00         0.00000E+00        -0.18089E+08
 
   -0.24800E+08        -0.11221E+07         0.00000E+00
   -0.11221E+07        -0.34977E+08         0.00000E+00
    0.00000E+00         0.00000E+00        -0.17863E+08
 
   -0.23663E+08        -0.68595E+06         0.00000E+00
   -0.68595E+06        -0.35069E+08         0.00000E+00
    0.00000E+00         0.00000E+00        -0.17651E+08
 
   -0.22573E+08        -0.13018E+06         0.00000E+00
   -0.13018E+06        -0.35181E+08         0.00000E+00
    0.00000E+00         0.00000E+00        -0.17454E+08
 
   -0.21522E+08         0.54368E+06         0.00000E+00
    0.54368E+06        -0.35325E+08         0.00000E+00
    0.00000E+00         0.00000E+00        -0.17271E+08
 
   -0.20505E+08         0.13395E+07         0.00000E+00
    0.13395E+07        -0.35507E+08         0.00000E+00
    0.00000E+00         0.00000E+00        -0.17105E+08
 
   -0.19523E+08         0.22651E+07         0.00000E+00
    0.22651E+07        -0.35731E+08         0.00000E+00
    0.00000E+00         0.00000E+00        -0.16954E+08
 
   -0.18587E+08         0.33298E+07         0.00000E+00
    0.33298E+07        -0.35995E+08         0.00000E+00
    0.00000E+00         0.00000E+00        -0.16822E+08
 
   -0.17716E+08         0.45413E+07         0.00000E+00
    0.45413E+07        -0.36286E+08         0.00000E+00
    0.00000E+00         0.00000E+00        -0.16709E+08
 
   -0.16938E+08         0.59013E+07         0.00000E+00
    0.59013E+07        -0.36589E+08         0.00000E+00
    0.00000E+00         0.00000E+00        -0.16618E+08
 
   -0.35260E+08        -0.43623E+06         0.00000E+00
   -0.43623E+06        -0.36516E+08         0.00000E+00
    0.00000E+00         0.00000E+00        -0.20297E+08
 
   -0.33730E+08        -0.11014E+07         0.00000E+00
   -0.11014E+07        -0.36570E+08         0.00000E+00
    0.00000E+00         0.00000E+00        -0.19997E+08
 
   -0.32166E+08        -0.15049E+07         0.00000E+00
   -0.15049E+07        -0.36642E+08         0.00000E+00
    0.00000E+00         0.00000E+00        -0.19693E+08
 
   -0.30631E+08        -0.16796E+07         0.00000E+00
   -0.16796E+07        -0.36709E+08         0.00000E+00
    0.00000E+00         0.00000E+00        -0.19393E+08
 
   -0.29160E+08        -0.16634E+07         0.00000E+00
   -0.16634E+07        -0.36760E+08         0.00000E+00
    0.00000E+00         0.00000E+00        -0.19104E+08
 
   -0.27767E+08        -0.14907E+07         0.00000E+00
   -0.14907E+07        -0.36800E+08         0.00000E+00
    0.00000E+00         0.00000E+00        -0.18828E+08
 
   -0.26449E+08        -0.11874E+07         0.00000E+00
   -0.11874E+07        -0.36840E+08         0.00000E+00
    0.00000E+00         0.00000E+00        -0.18569E+08
 
   -0.25197E+08        -0.76996E+06         0.00000E+00
   -0.76996E+06        -0.36895E+08         0.00000E+00
    0.00000E+00         0.00000E+00        -0.18326E+08
 
   -0.23994E+08        -0.24576E+06         0.00000E+00
   -0.24576E+06        -0.36979E+08         0.00000E+00
    0.00000E+00         0.00000E+00        -0.18101E+08
 
   -0.22828E+08         0.38573E+06         0.00000E+00
    0.38573E+06        -0.37107E+08         0.00000E+00
    0.00000E+00         0.00000E+00        -0.17892E+08
 
   -0.21688E+08         0.11321E+07         0.00000E+00
    0.11321E+07        -0.37289E+08         0.00000E+00
    0.00000E+00         0.00000E+00        -0.17701E+08
 
   -0.20571E+08         0.20069E+07         0.00000E+00
    0.20069E+07        -0.37530E+08         0.00000E+00
    0.00000E+00         0.00000E+00        -0.17527E+08
 
   -0.19485E+08         0.30276E+07         0.00000E+00
    0.30276E+07        -0.37829E+08         0.00000E+00
    0.00000E+00         0.00000E+00        -0.17372E+08
 
   -0.18455E+08         0.42111E+07         0.00000E+00
    0.42111E+07        -0.38173E+08         0.00000E+00
    0.00000E+00         0.00000E+00        -0.17239E+08
 
   -0.17519E+08         0.55676E+07         0.00000E+00
    0.55676E+07        -0.38539E+08         0.00000E+00
    0.00000E+00         0.00000E+00        -0.17128E+08
 
   -0.38110E+08        -0.47048E+06         0.00000E+00
   -0.47048E+06        -0.38533E+08         0.00000E+00
    0.00000E+00         0.00000E+00        -0.21280E+08
 
   -0.36284E+08        -0.11662E+07         0.00000E+00
   -0.11662E+07        -0.38580E+08         0.00000E+00
    0.00000E+00         0.00000E+00        -0.20917E+08
 
   -0.34461E+08        -0.15635E+07         0.00000E+00
   -0.15635E+07        -0.38630E+08         0.00000E+00
    0.00000E+00         0.00000E+00        -0.20555E+08
 
   -0.32712E+08        -0.17161E+07         0.00000E+00
   -0.17161E+07        -0.38654E+08         0.00000E+00
    0.00000E+00         0.00000E+00        -0.20203E+08
 
   -0.31072E+08        -0.16794E+07         0.00000E+00
   -0.16794E+07        -0.38650E+08         0.00000E+00
    0.00000E+00         0.00000E+00        -0.19868E+08
 
   -0.29544E+08        -0.14987E+07         0.00000E+00
   -0.14987E+07        -0.38629E+08         0.00000E+00
    0.00000E+00         0.00000E+00        -0.19552E+08
 
   -0.28114E+08        -0.12043E+07         0.00000E+00
   -0.12043E+07        -0.38610E+08         0.00000E+00
    0.00000E+00         0.00000E+00        -0.19258E+08
 
   -0.26760E+08        -0.81353E+06         0.00000E+00
   -0.81353E+06        -0.38612E+08         0.00000E+00
    0.00000E+00         0.00000E+00        -0.18985E+08
 
   -0.25460E+08        -0.33255E+06         0.00000E+00
   -0.33255E+06        -0.38655E+08         0.00000E+00
    0.00000E+00         0.00000E+00        -0.18732E+08
 
   -0.24189E+08         0.24152E+06         0.00000E+00
    0.24152E+06        -0.38756E+08         0.00000E+00
    0.00000E+00         0.00000E+00        -0.18498E+08
 
   -0.22931E+08         0.92015E+06         0.00000E+00
    0.92015E+06        -0.38928E+08         0.00000E+00
    0.00000E+00         0.00000E+00        -0.18282E+08
 
   -0.21677E+08         0.17234E+07         0.00000E+00
    0.17234E+07        -0.39182E+08         0.00000E+00
    0.00000E+00         0.00000E+00        -0.18083E+08
 
   -0.20431E+08         0.26785E+07         0.00000E+00
    0.26785E+07        -0.39518E+08         0.00000E+00
    0.00000E+00         0.00000E+00        -0.17904E+08
 
   -0.19218E+08         0.38160E+07         0.00000E+00
    0.38160E+07        -0.39923E+08         0.00000E+00
    0.00000E+00         0.00000E+00        -0.17746E+08
 
   -0.18089E+08         0.51600E+07         0.00000E+00
    0.51600E+07        -0.40366E+08         0.00000E+00
    0.00000E+00         0.00000E+00        -0.17613E+08
 
   -0.41011E+08        -0.50303E+06         0.00000E+00
   -0.50303E+06        -0.40550E+08         0.00000E+00
    0.00000E+00         0.00000E+00        -0.22273E+08
 
   -0.38837E+08        -0.12119E+07         0.00000E+00
   -0.12119E+07        -0.40583E+08         0.00000E+00
    0.00000E+00         0.00000E+00        -0.21836E+08
 
   -0.36727E+08        -0.15783E+07         0.00000E+00
   -0.15783E+07        -0.40591E+08         0.00000E+00
    0.00000E+00         0.00000E+00        -0.21406E+08
 
   -0.34763E+08        -0.16891E+07         0.00000E+00
   -0.16891E+07        -0.40547E+08         0.00000E+00
    0.00000E+00         0.00000E+00        -0.20996E+08
 
   -0.32967E+08        -0.16230E+07         0.00000E+00
   -0.16230E+07        -0.40461E+08         0.00000E+00
    0.00000E+00         0.00000E+00        -0.20612E+08
 
   -0.31323E+08        -0.14347E+07         0.00000E+00
   -0.14347E+07        -0.40356E+08         0.00000E+00
    0.00000E+00         0.00000E+00        -0.20257E+08
 
   -0.29801E+08        -0.11562E+07         0.00000E+00
   -0.11562E+07        -0.40259E+08         0.00000E+00
    0.00000E+00         0.00000E+00        -0.19929E+08
 
   -0.28366E+08        -0.80289E+06         0.00000E+00
   -0.80289E+06        -0.40194E+08         0.00000E+00
    0.00000E+00         0.00000E+00        -0.19627E+08
 
   -0.26983E+08        -0.37893E+06         0.00000E+00
   -0.37893E+06        -0.40184E+08         0.00000E+00
    0.00000E+00         0.00000E+00        -0.19348E+08
 
   -0.25623E+08         0.12087E+06         0.00000E+00
    0.12087E+06        -0.40248E+08         0.00000E+00
    0.00000E+00         0.00000E+00        -0.19088E+08
 
   -0.24258E+08         0.71096E+06         0.00000E+00
    0.71096E+06        -0.40403E+08         0.00000E+00
    0.00000E+00         0.00000E+00        -0.18847E+08
 
   -0.22867E+08         0.14170E+07         0.00000E+00
    0.14170E+07        -0.40664E+08         0.00000E+00
    0.00000E+00         0.00000E+00        -0.18623E+08
 
   -0.21448E+08         0.22778E+07         0.00000E+00
    0.22778E+07        -0.41036E+08         0.00000E+00
    0.00000E+00         0.00000E+00        -0.18416E+08
 
   -0.20023E+08         0.33426E+07         0.00000E+00
    0.33426E+07        -0.41511E+08         0.00000E+00
    0.00000E+00         0.00000E+00        -0.18230E+08
 
   -0.18655E+08         0.46587E+07         0.00000E+00
    0.46587E+07        -0.42052E+08         0.00000E+00
    0.00000E+00         0.00000E+00        -0.18069E+08
 
   -0.43950E+08        -0.53118E+06         0.00000E+00
   -0.53118E+06        -0.42566E+08         0.00000E+00
    0.00000E+00         0.00000E+00        -0.23274E+08
 
   -0.41359E+08        -0.12210E+07         0.00000E+00
   -0.12210E+07        -0.42571E+08         0.00000E+00
    0.00000E+00         0.00000E+00        -0.22745E+08
 
   -0.38939E+08        -0.15188E+07         0.00000E+00
   -0.15188E+07        -0.42505E+08         0.00000E+00
    0.00000E+00         0.00000E+00        -0.22236E+08
 
   -0.36771E+08        -0.15665E+07         0.00000E+00
   -0.15665E+07        -0.42354E+08         0.00000E+00
    0.00000E+00         0.00000E+00        -0.21763E+08
 
   -0.34845E+08        -0.14677E+07         0.00000E+00
   -0.14677E+07        -0.42154E+08         0.00000E+00
    0.00000E+00         0.00000E+00        -0.21330E+08
 
   -0.33112E+08        -0.12796E+07         0.00000E+00
   -0.12796E+07        -0.41943E+08         0.00000E+00
    0.00000E+00         0.00000E+00        -0.20937E+08
 
   -0.31522E+08        -0.10292E+07         0.00000E+00
   -0.10292E+07        -0.41755E+08         0.00000E+00
    0.00000E+00         0.00000E+00        -0.20578E+08
 
   -0.30026E+08        -0.72759E+06         0.00000E+00
   -0.72759E+06        -0.41615E+08         0.00000E+00
    0.00000E+00         0.00000E+00        -0.20249E+08
 
   -0.28582E+08        -0.37582E+06         0.00000E+00
   -0.37582E+06        -0.41546E+08         0.00000E+00
    0.00000E+00         0.00000E+00        -0.19945E+08
 
   -0.27149E+08         0.32720E+05         0.00000E+00
    0.32720E+05        -0.41565E+08         0.00000E+00
    0.00000E+00         0.00000E+00        -0.19663E+08
 
   -0.25690E+08         0.51325E+06         0.00000E+00
    0.51325E+06        -0.41694E+08         0.00000E+00
    0.00000E+00         0.00000E+00        -0.19398E+08
 
   -0.24172E+08         0.10936E+07         0.00000E+00
    0.10936E+07        -0.41952E+08         0.00000E+00
    0.00000E+00         0.00000E+00        -0.19148E+08
 
   -0.22572E+08         0.18222E+07         0.00000E+00
    0.18222E+07        -0.42357E+08         0.00000E+00
    0.00000E+00         0.00000E+00        -0.18911E+08
 
   -0.20899E+08         0.27735E+07         0.00000E+00
    0.27735E+07        -0.42912E+08         0.00000E+00
    0.00000E+00         0.00000E+00        -0.18691E+08
 
   -0.19225E+08         0.40345E+07         0.00000E+00
    0.40345E+07        -0.43577E+08         0.00000E+00
    0.00000E+00         0.00000E+00        -0.18494E+08
 
   -0.46901E+08        -0.54864E+06         0.00000E+00
   -0.54864E+06        -0.44578E+08         0.00000E+00
    0.00000E+00         0.00000E+00        -0.24276E+08
 
   -0.43799E+08        -0.11566E+07         0.00000E+00
   -0.11566E+07        -0.44522E+08         0.00000E+00
    0.00000E+00         0.00000E+00        -0.23629E+08
 
   -0.41064E+08        -0.13346E+07         0.00000E+00
   -0.13346E+07        -0.44320E+08         0.00000E+00
    0.00000E+00         0.00000E+00        -0.23029E+08
 
   -0.38731E+08        -0.13085E+07         0.00000E+00
   -0.13085E+07        -0.44011E+08         0.00000E+00
    0.00000E+00         0.00000E+00        -0.22491E+08
 
   -0.36715E+08        -0.11900E+07         0.00000E+00
   -0.11900E+07        -0.43669E+08         0.00000E+00
    0.00000E+00         0.00000E+00        -0.22012E+08
 
   -0.34926E+08        -0.10211E+07         0.00000E+00
   -0.10211E+07        -0.43342E+08         0.00000E+00
    0.00000E+00         0.00000E+00        -0.21585E+08
 
   -0.33293E+08        -0.81751E+06         0.00000E+00
   -0.81751E+06        -0.43060E+08         0.00000E+00
    0.00000E+00         0.00000E+00        -0.21199E+08
 
   -0.31757E+08        -0.58417E+06         0.00000E+00
   -0.58417E+06        -0.42846E+08         0.00000E+00
    0.00000E+00         0.00000E+00        -0.20848E+08
 
   -0.30269E+08        -0.31957E+06         0.00000E+00
   -0.31957E+06        -0.42717E+08         0.00000E+00
    0.00000E+00         0.00000E+00        -0.20524E+08
 
   -0.28783E+08        -0.17144E+05         0.00000E+00
   -0.17144E+05        -0.42691E+08         0.00000E+00
    0.00000E+00         0.00000E+00        -0.20222E+08
 
   -0.27252E+08         0.33620E+06         0.00000E+00
    0.33620E+06        -0.42788E+08         0.00000E+00
    0.00000E+00         0.00000E+00        -0.19937E+08
 
   -0.25626E+08         0.76480E+06         0.00000E+00
    0.76480E+06        -0.43032E+08         0.00000E+00
    0.00000E+00         0.00000E+00        -0.19662E+08
 
   -0.23851E+08         0.13159E+07         0.00000E+00
    0.13159E+07        -0.43455E+08         0.00000E+00
    0.00000E+00         0.00000E+00        -0.19394E+08
 
   -0.21895E+08         0.20896E+07         0.00000E+00
    0.20896E+07        -0.44093E+08         0.00000E+00
    0.00000E+00         0.00000E+00        -0.19133E+08
 
   -0.19820E+08         0.32434E+07         0.00000E+00
    0.32434E+07        -0.44920E+08         0.00000E+00
    0.00000E+00         0.00000E+00        -0.18887E+08
 
   -0.49797E+08        -0.53292E+06         0.00000E+00
   -0.53292E+06        -0.46573E+08         0.00000E+00
    0.00000E+00         0.00000E+00        -0.25263E+08
 
   -0.46076E+08        -0.93022E+06         0.00000E+00
   -0.93022E+06        -0.46357E+08         0.00000E+00
    0.00000E+00         0.00000E+00        -0.24458E+08
 
   -0.43088E+08        -0.95414E+06         0.00000E+00
   -0.95414E+06        -0.45914E+08         0.00000E+00
    0.00000E+00         0.00000E+00        -0.23758E+08
 
   -0.40664E+08        -0.88587E+06         0.00000E+00
   -0.88587E+06        -0.45412E+08         0.00000E+00
    0.00000E+00         0.00000E+00        -0.23164E+08
 
   -0.38604E+08        -0.78347E+06         0.00000E+00
   -0.78347E+06        -0.44928E+08         0.00000E+00
    0.00000E+00         0.00000E+00        -0.22649E+08
 
   -0.36787E+08        -0.66262E+06         0.00000E+00
   -0.66262E+06        -0.44496E+08         0.00000E+00
    0.00000E+00         0.00000E+00        -0.22195E+08
 
   -0.35131E+08        -0.52788E+06         0.00000E+00
   -0.52788E+06        -0.44135E+08         0.00000E+00
    0.00000E+00         0.00000E+00        -0.21789E+08
 
   -0.33573E+08        -0.37939E+06         0.00000E+00
   -0.37939E+06        -0.43859E+08         0.00000E+00
    0.00000E+00         0.00000E+00        -0.21422E+08
 
   -0.32060E+08        -0.21480E+06         0.00000E+00
   -0.21480E+06        -0.43682E+08         0.00000E+00
    0.00000E+00         0.00000E+00        -0.21084E+08
 
   -0.30540E+08        -0.29294E+05         0.00000E+00
   -0.29294E+05        -0.43618E+08         0.00000E+00
    0.00000E+00         0.00000E+00        -0.20768E+08
 
   -0.28960E+08         0.18570E+06         0.00000E+00
    0.18570E+06        -0.43684E+08         0.00000E+00
    0.00000E+00         0.00000E+00        -0.20466E+08
 
   -0.27257E+08         0.44602E+06         0.00000E+00
    0.44602E+06        -0.43907E+08         0.00000E+00
    0.00000E+00         0.00000E+00        -0.20172E+08
 
   -0.25348E+08         0.78406E+06         0.00000E+00
    0.78406E+06        -0.44325E+08         0.00000E+00
    0.00000E+00         0.00000E+00        -0.19876E+08
 
   -0.23101E+08         0.12818E+07         0.00000E+00
    0.12818E+07        -0.45008E+08         0.00000E+00
    0.00000E+00         0.00000E+00        -0.19565E+08
 
   -0.20488E+08         0.22105E+07         0.00000E+00
    0.22105E+07        -0.46049E+08         0.00000E+00
    0.00000E+00         0.00000E+00        -0.19254E+08
 
   -0.52453E+08        -0.33589E+06         0.00000E+00
   -0.33589E+06        -0.48374E+08         0.00000E+00
    0.00000E+00         0.00000E+00        -0.26164E+08
 
   -0.48135E+08        -0.38461E+06         0.00000E+00
   -0.38461E+06        -0.47759E+08         0.00000E+00
    0.00000E+00         0.00000E+00        -0.25157E+08
 
   -0.45071E+08        -0.35264E+06         0.00000E+00
   -0.35264E+06        -0.47070E+08         0.00000E+00
    0.00000E+00         0.00000E+00        -0.24394E+08
 
   -0.42619E+08        -0.31568E+06         0.00000E+00
   -0.31568E+06        -0.46424E+08         0.00000E+00
    0.00000E+00         0.00000E+00        -0.23765E+08
 
   -0.40545E+08        -0.27435E+06         0.00000E+00
   -0.27435E+06        -0.45847E+08         0.00000E+00
    0.00000E+00         0.00000E+00        -0.23229E+08
 
   -0.38720E+08        -0.23005E+06         0.00000E+00
   -0.23005E+06        -0.45351E+08         0.00000E+00
    0.00000E+00         0.00000E+00        -0.22761E+08
 
   -0.37056E+08        -0.18268E+06         0.00000E+00
   -0.18268E+06        -0.44944E+08         0.00000E+00
    0.00000E+00         0.00000E+00        -0.22345E+08
 
   -0.35488E+08        -0.13162E+06         0.00000E+00
   -0.13162E+06        -0.44634E+08         0.00000E+00
    0.00000E+00         0.00000E+00        -0.21969E+08
 
   -0.33962E+08        -0.75727E+05         0.00000E+00
   -0.75727E+05        -0.44430E+08         0.00000E+00
    0.00000E+00         0.00000E+00        -0.21624E+08
 
   -0.32426E+08        -0.13254E+05         0.00000E+00
   -0.13254E+05        -0.44343E+08         0.00000E+00
    0.00000E+00         0.00000E+00        -0.21300E+08
 
   -0.30822E+08         0.58739E+05         0.00000E+00
    0.58739E+05        -0.44391E+08         0.00000E+00
    0.00000E+00         0.00000E+00        -0.20990E+08
 
   -0.29081E+08         0.14552E+06         0.00000E+00
    0.14552E+06        -0.44597E+08         0.00000E+00
    0.00000E+00         0.00000E+00        -0.20685E+08
 
   -0.27099E+08         0.25847E+06         0.00000E+00
    0.25847E+06        -0.45001E+08         0.00000E+00
    0.00000E+00         0.00000E+00        -0.20372E+08
 
   -0.24694E+08         0.42346E+06         0.00000E+00
    0.42346E+06        -0.45683E+08         0.00000E+00
    0.00000E+00         0.00000E+00        -0.20029E+08
 
   -0.21351E+08         0.81077E+06         0.00000E+00
    0.81077E+06        -0.46859E+08         0.00000E+00
    0.00000E+00         0.00000E+00        -0.19595E+08
 
TENSORS stresstot double 
   -0.50580E+08         0.16748E+06         0.00000E+00
    0.16748E+06        -0.59247E+08         0.00000E+00
    0.00000E+00         0.00000E+00        -0.63065E+08
 
   -0.50433E+08         0.16354E+06         0.00000E+00
    0.16354E+06        -0.58840E+08         0.00000E+00
    0.00000E+00         0.00000E+00        -0.62827E+08
 
   -0.50650E+08         0.81106E+04         0.00000E+00
    0.81106E+04        -0.58788E+08         0.00000E+00
    0.00000E+00         0.00000E+00        -0.63213E+08
 
   -0.51316E+08        -0.19888E+06         0.00000E+00
   -0.19888E+06        -0.59170E+08         0.00000E+00
    0.00000E+00         0.00000E+00        -0.64325E+08
 
   -0.52592E+08        -0.35742E+06         0.00000E+00
   -0.35742E+06        -0.59849E+08         0.00000E+00
    0.00000E+00         0.00000E+00        -0.66350E+08
 
   -0.54207E+08        -0.34594E+06         0.00000E+00
   -0.34594E+06        -0.60630E+08         0.00000E+00
    0.00000E+00         0.00000E+00        -0.68750E+08
 
   -0.55964E+08        -0.36357E+06         0.00000E+00
   -0.36357E+06        -0.61319E+08         0.00000E+00
    0.00000E+00         0.00000E+00        -0.70958E+08
 
   -0.58252E+08        -0.35886E+06         0.00000E+00
   -0.35886E+06        -0.62000E+08         0.00000E+00
    0.00000E+00         0.00000E+00        -0.71901E+08
 
   -0.60170E+08        -0.24027E+06         0.00000E+00
   -0.24027E+06        -0.62555E+08         0.00000E+00
    0.00000E+00         0.00000E+00        -0.72398E+08
 
   -0.61892E+08        -0.13237E+06         0.00000E+00
   -0.13237E+06        -0.62906E+08         0.00000E+00
    0.00000E+00         0.00000E+00        -0.72815E+08
 
   -0.63584E+08        -0.28619E+05         0.00000E+00
   -0.28619E+05        -0.63055E+08         0.00000E+00
    0.00000E+00         0.00000E+00        -0.73184E+08
 
   -0.65357E+08         0.80531E+05         0.00000E+00
    0.80531E+05        -0.62996E+08         0.00000E+00
    0.00000E+00         0.00000E+00        -0.73527E+08
 
   -0.67328E+08         0.20923E+06         0.00000E+00
    0.20923E+06        -0.62702E+08         0.00000E+00
    0.00000E+00         0.00000E+00        -0.73861E+08
 
   -0.69682E+08         0.38453E+06         0.00000E+00
    0.38453E+06        -0.62106E+08         0.00000E+00
    0.00000E+00         0.00000E+00        -0.74211E+08
 
   -0.72932E+08         0.77816E+06         0.00000E+00
    0.77816E+06        -0.60999E+08         0.00000E+00
    0.00000E+00         0.00000E+00        -0.74636E+08
 
   -0.50277E+08         0.38506E+06         0.00000E+00
    0.38506E+06        -0.60078E+08         0.00000E+00
    0.00000E+00         0.00000E+00        -0.63857E+08
 
   -0.50555E+08         0.33194E+06         0.00000E+00
    0.33194E+06        -0.60287E+08         0.00000E+00
    0.00000E+00         0.00000E+00        -0.64366E+08
 
   -0.50917E+08        -0.11260E+05         0.00000E+00
   -0.11260E+05        -0.60405E+08         0.00000E+00
    0.00000E+00         0.00000E+00        -0.65060E+08
 
   -0.51644E+08        -0.40067E+06         0.00000E+00
   -0.40067E+06        -0.60414E+08         0.00000E+00
    0.00000E+00         0.00000E+00        -0.66274E+08
 
   -0.52765E+08        -0.71661E+06         0.00000E+00
   -0.71661E+06        -0.60402E+08         0.00000E+00
    0.00000E+00         0.00000E+00        -0.67900E+08
 
   -0.54162E+08        -0.87818E+06         0.00000E+00
   -0.87818E+06        -0.60513E+08         0.00000E+00
    0.00000E+00         0.00000E+00        -0.69372E+08
 
   -0.56121E+08        -0.93672E+06         0.00000E+00
   -0.93672E+06        -0.60890E+08         0.00000E+00
    0.00000E+00         0.00000E+00        -0.70032E+08
 
   -0.58087E+08        -0.87195E+06         0.00000E+00
   -0.87195E+06        -0.61262E+08         0.00000E+00
    0.00000E+00         0.00000E+00        -0.70504E+08
 
   -0.59974E+08        -0.62120E+06         0.00000E+00
   -0.62120E+06        -0.61580E+08         0.00000E+00
    0.00000E+00         0.00000E+00        -0.70948E+08
 
   -0.61696E+08        -0.34086E+06         0.00000E+00
   -0.34086E+06        -0.61796E+08         0.00000E+00
    0.00000E+00         0.00000E+00        -0.71337E+08
 
   -0.63381E+08        -0.50755E+05         0.00000E+00
   -0.50755E+05        -0.61862E+08         0.00000E+00
    0.00000E+00         0.00000E+00        -0.71688E+08
 
   -0.65128E+08         0.26625E+06         0.00000E+00
    0.26625E+06        -0.61748E+08         0.00000E+00
    0.00000E+00         0.00000E+00        -0.72015E+08
 
   -0.67036E+08         0.64567E+06         0.00000E+00
    0.64567E+06        -0.61418E+08         0.00000E+00
    0.00000E+00         0.00000E+00        -0.72330E+08
 
   -0.69242E+08         0.11712E+07         0.00000E+00
    0.11712E+07        -0.60806E+08         0.00000E+00
    0.00000E+00         0.00000E+00        -0.72646E+08
 
   -0.71769E+08         0.21145E+07         0.00000E+00
    0.21145E+07        -0.59828E+08         0.00000E+00
    0.00000E+00         0.00000E+00        -0.72953E+08
 
   -0.49957E+08         0.97478E+05         0.00000E+00
    0.97478E+05        -0.60440E+08         0.00000E+00
    0.00000E+00         0.00000E+00        -0.64746E+08
 
   -0.50652E+08         0.20266E+06         0.00000E+00
    0.20266E+06        -0.60827E+08         0.00000E+00
    0.00000E+00         0.00000E+00        -0.66023E+08
 
   -0.51309E+08        -0.64348E+05         0.00000E+00
   -0.64348E+05        -0.60850E+08         0.00000E+00
    0.00000E+00         0.00000E+00        -0.67163E+08
 
   -0.51990E+08        -0.43028E+06         0.00000E+00
   -0.43028E+06        -0.60741E+08         0.00000E+00
    0.00000E+00         0.00000E+00        -0.67873E+08
 
   -0.53068E+08        -0.76171E+06         0.00000E+00
   -0.76171E+06        -0.60689E+08         0.00000E+00
    0.00000E+00         0.00000E+00        -0.68157E+08
 
   -0.54410E+08        -0.10575E+07         0.00000E+00
   -0.10575E+07        -0.60732E+08         0.00000E+00
    0.00000E+00         0.00000E+00        -0.68439E+08
 
   -0.56096E+08        -0.11800E+07         0.00000E+00
   -0.11800E+07        -0.60808E+08         0.00000E+00
    0.00000E+00         0.00000E+00        -0.68796E+08
 
   -0.57906E+08        -0.10657E+07         0.00000E+00
   -0.10657E+07        -0.60902E+08         0.00000E+00
    0.00000E+00         0.00000E+00        -0.69181E+08
 
   -0.59665E+08        -0.79068E+06         0.00000E+00
   -0.79068E+06        -0.60978E+08         0.00000E+00
    0.00000E+00         0.00000E+00        -0.69550E+08
 
   -0.61350E+08        -0.41716E+06         0.00000E+00
   -0.41716E+06        -0.61017E+08         0.00000E+00
    0.00000E+00         0.00000E+00        -0.69897E+08
 
   -0.62999E+08         0.13276E+05         0.00000E+00
    0.13276E+05        -0.60964E+08         0.00000E+00
    0.00000E+00         0.00000E+00        -0.70217E+08
 
   -0.64685E+08         0.50894E+06         0.00000E+00
    0.50894E+06        -0.60772E+08         0.00000E+00
    0.00000E+00         0.00000E+00        -0.70515E+08
 
   -0.66475E+08         0.11129E+07         0.00000E+00
    0.11129E+07        -0.60400E+08         0.00000E+00
    0.00000E+00         0.00000E+00        -0.70798E+08
 
   -0.68406E+08         0.19232E+07         0.00000E+00
    0.19232E+07        -0.59810E+08         0.00000E+00
    0.00000E+00         0.00000E+00        -0.71064E+08
 
   -0.70414E+08         0.30927E+07         0.00000E+00
    0.30927E+07        -0.59030E+08         0.00000E+00
    0.00000E+00         0.00000E+00        -0.71306E+08
 
   -0.49734E+08        -0.82416E+05         0.00000E+00
   -0.82416E+05        -0.60279E+08         0.00000E+00
    0.00000E+00         0.00000E+00        -0.65893E+08
 
   -0.50826E+08        -0.73632E+05         0.00000E+00
   -0.73632E+05        -0.60269E+08         0.00000E+00
    0.00000E+00         0.00000E+00        -0.66389E+08
 
   -0.51610E+08        -0.21798E+06         0.00000E+00
   -0.21798E+06        -0.60424E+08         0.00000E+00
    0.00000E+00         0.00000E+00        -0.66585E+08
 
   -0.52379E+08        -0.50593E+06         0.00000E+00
   -0.50593E+06        -0.60589E+08         0.00000E+00
    0.00000E+00         0.00000E+00        -0.66779E+08
 
   -0.53369E+08        -0.82520E+06         0.00000E+00
   -0.82520E+06        -0.60691E+08         0.00000E+00
    0.00000E+00         0.00000E+00        -0.67004E+08
 
   -0.54620E+08        -0.10753E+07         0.00000E+00
   -0.10753E+07        -0.60725E+08         0.00000E+00
    0.00000E+00         0.00000E+00        -0.67266E+08
 
   -0.56097E+08        -0.11749E+07         0.00000E+00
   -0.11749E+07        -0.60693E+08         0.00000E+00
    0.00000E+00         0.00000E+00        -0.67559E+08
 
   -0.57701E+08        -0.10666E+07         0.00000E+00
   -0.10666E+07        -0.60633E+08         0.00000E+00
    0.00000E+00         0.00000E+00        -0.67871E+08
 
   -0.59319E+08        -0.77718E+06         0.00000E+00
   -0.77718E+06        -0.60565E+08         0.00000E+00
    0.00000E+00         0.00000E+00        -0.68184E+08
 
   -0.60908E+08        -0.35449E+06         0.00000E+00
   -0.35449E+06        -0.60467E+08         0.00000E+00
    0.00000E+00         0.00000E+00        -0.68484E+08
 
   -0.62479E+08         0.17370E+06         0.00000E+00
    0.17370E+06        -0.60308E+08         0.00000E+00
    0.00000E+00         0.00000E+00        -0.68767E+08
 
   -0.64063E+08         0.80864E+06         0.00000E+00
    0.80864E+06        -0.60048E+08         0.00000E+00
    0.00000E+00         0.00000E+00        -0.69031E+08
 
   -0.65691E+08         0.15860E+07         0.00000E+00
    0.15860E+07        -0.59656E+08         0.00000E+00
    0.00000E+00         0.00000E+00        -0.69277E+08
 
   -0.67357E+08         0.25721E+07         0.00000E+00
    0.25721E+07        -0.59122E+08         0.00000E+00
    0.00000E+00         0.00000E+00        -0.69502E+08
 
   -0.68992E+08         0.38451E+07         0.00000E+00
    0.38451E+07        -0.58484E+08         0.00000E+00
    0.00000E+00         0.00000E+00        -0.69697E+08
 
   -0.49879E+08        -0.10982E+06         0.00000E+00
   -0.10982E+06        -0.60033E+08         0.00000E+00
    0.00000E+00         0.00000E+00        -0.64932E+08
 
   -0.50916E+08        -0.28664E+06         0.00000E+00
   -0.28664E+06        -0.60089E+08         0.00000E+00
    0.00000E+00         0.00000E+00        -0.65159E+08
 
   -0.51815E+08        -0.42755E+06         0.00000E+00
   -0.42755E+06        -0.60282E+08         0.00000E+00
    0.00000E+00         0.00000E+00        -0.65385E+08
 
   -0.52659E+08        -0.64994E+06         0.00000E+00
   -0.64994E+06        -0.60451E+08         0.00000E+00
    0.00000E+00         0.00000E+00        -0.65594E+08
 
   -0.53625E+08        -0.88796E+06         0.00000E+00
   -0.88796E+06        -0.60549E+08         0.00000E+00
    0.00000E+00         0.00000E+00        -0.65813E+08
 
   -0.54768E+08        -0.10591E+07         0.00000E+00
   -0.10591E+07        -0.60563E+08         0.00000E+00
    0.00000E+00         0.00000E+00        -0.66050E+08
 
   -0.56074E+08        -0.10971E+07         0.00000E+00
   -0.10971E+07        -0.60505E+08         0.00000E+00
    0.00000E+00         0.00000E+00        -0.66303E+08
 
   -0.57488E+08        -0.96245E+06         0.00000E+00
   -0.96245E+06        -0.60393E+08         0.00000E+00
    0.00000E+00         0.00000E+00        -0.66567E+08
 
   -0.58944E+08        -0.65329E+06         0.00000E+00
   -0.65329E+06        -0.60249E+08         0.00000E+00
    0.00000E+00         0.00000E+00        -0.66832E+08
 
   -0.60404E+08        -0.19063E+06         0.00000E+00
   -0.19063E+06        -0.60072E+08         0.00000E+00
    0.00000E+00         0.00000E+00        -0.67090E+08
 
   -0.61855E+08         0.40811E+06         0.00000E+00
    0.40811E+06        -0.59845E+08         0.00000E+00
    0.00000E+00         0.00000E+00        -0.67335E+08
 
   -0.63307E+08         0.11437E+07         0.00000E+00
    0.11437E+07        -0.59545E+08         0.00000E+00
    0.00000E+00         0.00000E+00        -0.67565E+08
 
   -0.64760E+08         0.20380E+07         0.00000E+00
    0.20380E+07        -0.59155E+08         0.00000E+00
    0.00000E+00         0.00000E+00        -0.67776E+08
 
   -0.66194E+08         0.31279E+07         0.00000E+00
    0.31279E+07        -0.58678E+08         0.00000E+00
    0.00000E+00         0.00000E+00        -0.67965E+08
 
   -0.67551E+08         0.44493E+07         0.00000E+00
    0.44493E+07        -0.58144E+08         0.00000E+00
    0.00000E+00         0.00000E+00        -0.68127E+08
 
   -0.50121E+08        -0.15073E+06         0.00000E+00
   -0.15073E+06        -0.60013E+08         0.00000E+00
    0.00000E+00         0.00000E+00        -0.63764E+08
 
   -0.51103E+08        -0.39386E+06         0.00000E+00
   -0.39386E+06        -0.60083E+08         0.00000E+00
    0.00000E+00         0.00000E+00        -0.63983E+08
 
   -0.51995E+08        -0.59120E+06         0.00000E+00
   -0.59120E+06        -0.60189E+08         0.00000E+00
    0.00000E+00         0.00000E+00        -0.64190E+08
 
   -0.52868E+08        -0.77378E+06         0.00000E+00
   -0.77378E+06        -0.60307E+08         0.00000E+00
    0.00000E+00         0.00000E+00        -0.64395E+08
 
   -0.53799E+08        -0.93582E+06         0.00000E+00
   -0.93582E+06        -0.60378E+08         0.00000E+00
    0.00000E+00         0.00000E+00        -0.64601E+08
 
   -0.54842E+08        -0.10271E+07         0.00000E+00
   -0.10271E+07        -0.60377E+08         0.00000E+00
    0.00000E+00         0.00000E+00        -0.64815E+08
 
   -0.56000E+08        -0.99828E+06         0.00000E+00
   -0.99828E+06        -0.60306E+08         0.00000E+00
    0.00000E+00         0.00000E+00        -0.65036E+08
 
   -0.57245E+08        -0.81726E+06         0.00000E+00
   -0.81726E+06        -0.60177E+08         0.00000E+00
    0.00000E+00         0.00000E+00        -0.65262E+08
 
   -0.58538E+08        -0.47338E+06         0.00000E+00
   -0.47338E+06        -0.60004E+08         0.00000E+00
    0.00000E+00         0.00000E+00        -0.65488E+08
 
   -0.59848E+08         0.28947E+05         0.00000E+00
    0.28947E+05        -0.59791E+08         0.00000E+00
    0.00000E+00         0.00000E+00        -0.65709E+08
 
   -0.61157E+08         0.68275E+06         0.00000E+00
    0.68275E+06        -0.59533E+08         0.00000E+00
    0.00000E+00         0.00000E+00        -0.65920E+08
 
   -0.62457E+08         0.14886E+07         0.00000E+00
    0.14886E+07        -0.59220E+08         0.00000E+00
    0.00000E+00         0.00000E+00        -0.66117E+08
 
   -0.63737E+08         0.24577E+07         0.00000E+00
    0.24577E+07        -0.58849E+08         0.00000E+00
    0.00000E+00         0.00000E+00        -0.66297E+08
 
   -0.64969E+08         0.36068E+07         0.00000E+00
    0.36068E+07        -0.58425E+08         0.00000E+00
    0.00000E+00         0.00000E+00        -0.66456E+08
 
   -0.66111E+08         0.49482E+07         0.00000E+00
    0.49482E+07        -0.57973E+08         0.00000E+00
    0.00000E+00         0.00000E+00        -0.66591E+08
 
   -0.50431E+08        -0.18096E+06         0.00000E+00
   -0.18096E+06        -0.60011E+08         0.00000E+00
    0.00000E+00         0.00000E+00        -0.62615E+08
 
   -0.51336E+08        -0.47065E+06         0.00000E+00
   -0.47065E+06        -0.60054E+08         0.00000E+00
    0.00000E+00         0.00000E+00        -0.62812E+08
 
   -0.52186E+08        -0.68896E+06         0.00000E+00
   -0.68896E+06        -0.60124E+08         0.00000E+00
    0.00000E+00         0.00000E+00        -0.63004E+08
 
   -0.53024E+08        -0.85398E+06         0.00000E+00
   -0.85398E+06        -0.60192E+08         0.00000E+00
    0.00000E+00         0.00000E+00        -0.63192E+08
 
   -0.53900E+08        -0.96071E+06         0.00000E+00
   -0.96071E+06        -0.60229E+08         0.00000E+00
    0.00000E+00         0.00000E+00        -0.63380E+08
 
   -0.54845E+08        -0.98432E+06         0.00000E+00
   -0.98432E+06        -0.60212E+08         0.00000E+00
    0.00000E+00         0.00000E+00        -0.63570E+08
 
   -0.55869E+08        -0.89248E+06         0.00000E+00
   -0.89248E+06        -0.60135E+08         0.00000E+00
    0.00000E+00         0.00000E+00        -0.63763E+08
 
   -0.56960E+08        -0.66003E+06         0.00000E+00
   -0.66003E+06        -0.60002E+08         0.00000E+00
    0.00000E+00         0.00000E+00        -0.63957E+08
 
   -0.58094E+08        -0.27391E+06         0.00000E+00
   -0.27391E+06        -0.59823E+08         0.00000E+00
    0.00000E+00         0.00000E+00        -0.64150E+08
 
   -0.59248E+08         0.26895E+06         0.00000E+00
    0.26895E+06        -0.59602E+08         0.00000E+00
    0.00000E+00         0.00000E+00        -0.64338E+08
 
   -0.60404E+08         0.96769E+06         0.00000E+00
    0.96769E+06        -0.59341E+08         0.00000E+00
    0.00000E+00         0.00000E+00        -0.64517E+08
 
   -0.61547E+08         0.18230E+07         0.00000E+00
    0.18230E+07        -0.59038E+08         0.00000E+00
    0.00000E+00         0.00000E+00        -0.64685E+08
 
   -0.62658E+08         0.28391E+07         0.00000E+00
    0.28391E+07        -0.58696E+08         0.00000E+00
    0.00000E+00         0.00000E+00        -0.64837E+08
 
   -0.63714E+08         0.40208E+07         0.00000E+00
    0.40208E+07        -0.58322E+08         0.00000E+00
    0.00000E+00         0.00000E+00        -0.64972E+08
 
   -0.64680E+08         0.53675E+07         0.00000E+00
    0.53675E+07        -0.57937E+08         0.00000E+00
    0.00000E+00         0.00000E+00        -0.65085E+08
 
   -0.50786E+08        -0.20024E+06         0.00000E+00
   -0.20024E+06        -0.60006E+08         0.00000E+00
    0.00000E+00         0.00000E+00        -0.61474E+08
 
   -0.51597E+08        -0.51868E+06         0.00000E+00
   -0.51868E+06        -0.60032E+08         0.00000E+00
    0.00000E+00         0.00000E+00        -0.61650E+08
 
   -0.52375E+08        -0.74638E+06         0.00000E+00
   -0.74638E+06        -0.60072E+08         0.00000E+00
    0.00000E+00         0.00000E+00        -0.61820E+08
 
   -0.53147E+08        -0.89507E+06         0.00000E+00
   -0.89507E+06        -0.60106E+08         0.00000E+00
    0.00000E+00         0.00000E+00        -0.61988E+08
 
   -0.53944E+08        -0.96213E+06         0.00000E+00
   -0.96213E+06        -0.60116E+08         0.00000E+00
    0.00000E+00         0.00000E+00        -0.62154E+08
 
   -0.54787E+08        -0.93265E+06         0.00000E+00
   -0.93265E+06        -0.60085E+08         0.00000E+00
    0.00000E+00         0.00000E+00        -0.62321E+08
 
   -0.55683E+08        -0.78634E+06         0.00000E+00
   -0.78634E+06        -0.60005E+08         0.00000E+00
    0.00000E+00         0.00000E+00        -0.62488E+08
 
   -0.56629E+08        -0.50482E+06         0.00000E+00
   -0.50482E+06        -0.59877E+08         0.00000E+00
    0.00000E+00         0.00000E+00        -0.62654E+08
 
   -0.57609E+08        -0.76025E+05         0.00000E+00
   -0.76025E+05        -0.59705E+08         0.00000E+00
    0.00000E+00         0.00000E+00        -0.62818E+08
 
   -0.58608E+08         0.50565E+06         0.00000E+00
    0.50565E+06        -0.59494E+08         0.00000E+00
    0.00000E+00         0.00000E+00        -0.62976E+08
 
   -0.59609E+08         0.12418E+07         0.00000E+00
    0.12418E+07        -0.59248E+08         0.00000E+00
    0.00000E+00         0.00000E+00        -0.63127E+08
 
   -0.60594E+08         0.21329E+07         0.00000E+00
    0.21329E+07        -0.58969E+08         0.00000E+00
    0.00000E+00         0.00000E+00        -0.63268E+08
 
   -0.61547E+08         0.31788E+07         0.00000E+00
    0.31788E+07        -0.58663E+08         0.00000E+00
    0.00000E+00         0.00000E+00        -0.63396E+08
 
   -0.62445E+08         0.43776E+07         0.00000E+00
    0.43776E+07        -0.58338E+08         0.00000E+00
    0.00000E+00         0.00000E+00        -0.63508E+08
 
   -0.63261E+08         0.57224E+07         0.00000E+00
    0.57224E+07        -0.58009E+08         0.00000E+00
    0.00000E+00         0.00000E+00        -0.63603E+08
 
   -0.51169E+08        -0.21061E+06         0.00000E+00
   -0.21061E+06        -0.60003E+08         0.00000E+00
    0.00000E+00         0.00000E+00        -0.60340E+08
 
   -0.51873E+08        -0.54479E+06         0.00000E+00
   -0.54479E+06        -0.60016E+08         0.00000E+00
    0.00000E+00         0.00000E+00        -0.60492E+08
 
   -0.52560E+08        -0.77523E+06         0.00000E+00
   -0.77523E+06        -0.60034E+08         0.00000E+00
    0.00000E+00         0.00000E+00        -0.60639E+08
 
   -0.53245E+08        -0.90966E+06         0.00000E+00
   -0.90966E+06        -0.60046E+08         0.00000E+00
    0.00000E+00         0.00000E+00        -0.60785E+08
 
   -0.53947E+08        -0.94629E+06         0.00000E+00
   -0.94629E+06        -0.60039E+08         0.00000E+00
    0.00000E+00         0.00000E+00        -0.60929E+08
 
   -0.54679E+08        -0.87571E+06         0.00000E+00
   -0.87571E+06        -0.59999E+08         0.00000E+00
    0.00000E+00         0.00000E+00        -0.61071E+08
 
   -0.55449E+08        -0.68459E+06         0.00000E+00
   -0.68459E+06        -0.59922E+08         0.00000E+00
    0.00000E+00         0.00000E+00        -0.61213E+08
 
   -0.56254E+08        -0.35994E+06         0.00000E+00
   -0.35994E+06        -0.59804E+08         0.00000E+00
    0.00000E+00         0.00000E+00        -0.61353E+08
 
   -0.57086E+08         0.10794E+06         0.00000E+00
    0.10794E+06        -0.59648E+08         0.00000E+00
    0.00000E+00         0.00000E+00        -0.61490E+08
 
   -0.57933E+08         0.72457E+06         0.00000E+00
    0.72457E+06        -0.59458E+08         0.00000E+00
    0.00000E+00         0.00000E+00        -0.61622E+08
 
   -0.58780E+08         0.14919E+07         0.00000E+00
    0.14919E+07        -0.59237E+08         0.00000E+00
    0.00000E+00         0.00000E+00        -0.61747E+08
 
   -0.59614E+08         0.24096E+07         0.00000E+00
    0.24096E+07        -0.58990E+08         0.00000E+00
    0.00000E+00         0.00000E+00        -0.61864E+08
 
   -0.60417E+08         0.34749E+07         0.00000E+00
    0.34749E+07        -0.58724E+08         0.00000E+00
    0.00000E+00         0.00000E+00        -0.61970E+08
 
   -0.61170E+08         0.46825E+07         0.00000E+00
    0.46825E+07        -0.58446E+08         0.00000E+00
    0.00000E+00         0.00000E+00        -0.62063E+08
 
   -0.61855E+08         0.60224E+07         0.00000E+00
    0.60224E+07        -0.58168E+08         0.00000E+00
    0.00000E+00         0.00000E+00        -0.62141E+08
 
   -0.51565E+08        -0.21487E+06         0.00000E+00
   -0.21487E+06        -0.60001E+08         0.00000E+00
    0.00000E+00         0.00000E+00        -0.59210E+08
 
   -0.52156E+08        -0.55606E+06         0.00000E+00
   -0.55606E+06        -0.60005E+08         0.00000E+00
    0.00000E+00         0.00000E+00        -0.59337E+08
 
   -0.52739E+08        -0.78580E+06         0.00000E+00
   -0.78580E+06        -0.60011E+08         0.00000E+00
    0.00000E+00         0.00000E+00        -0.59461E+08
 
   -0.53322E+08        -0.90814E+06         0.00000E+00
   -0.90814E+06        -0.60011E+08         0.00000E+00
    0.00000E+00         0.00000E+00        -0.59583E+08
 
   -0.53917E+08        -0.92133E+06         0.00000E+00
   -0.92133E+06        -0.59995E+08         0.00000E+00
    0.00000E+00         0.00000E+00        -0.59704E+08
 
   -0.54533E+08        -0.81891E+06         0.00000E+00
   -0.81891E+06        -0.59954E+08         0.00000E+00
    0.00000E+00         0.00000E+00        -0.59822E+08
 
   -0.55174E+08        -0.59186E+06         0.00000E+00
   -0.59186E+06        -0.59884E+08         0.00000E+00
    0.00000E+00         0.00000E+00        -0.59940E+08
 
   -0.55841E+08        -0.23111E+06         0.00000E+00
   -0.23111E+06        -0.59781E+08         0.00000E+00
    0.00000E+00         0.00000E+00        -0.60054E+08
 
   -0.56528E+08         0.27049E+06         0.00000E+00
    0.27049E+06        -0.59646E+08         0.00000E+00
    0.00000E+00         0.00000E+00        -0.60166E+08
 
   -0.57227E+08         0.91720E+06         0.00000E+00
    0.91720E+06        -0.59482E+08         0.00000E+00
    0.00000E+00         0.00000E+00        -0.60274E+08
 
   -0.57926E+08         0.17103E+07         0.00000E+00
    0.17103E+07        -0.59293E+08         0.00000E+00
    0.00000E+00         0.00000E+00        -0.60376E+08
 
   -0.58613E+08         0.26482E+07         0.00000E+00
    0.26482E+07        -0.59083E+08         0.00000E+00
    0.00000E+00         0.00000E+00        -0.60471E+08
 
   -0.59274E+08         0.37269E+07         0.00000E+00
    0.37269E+07        -0.58858E+08         0.00000E+00
    0.00000E+00         0.00000E+00        -0.60557E+08
 
   -0.59895E+08         0.49390E+07         0.00000E+00
    0.49390E+07        -0.58627E+08         0.00000E+00
    0.00000E+00         0.00000E+00        -0.60632E+08
 
   -0.60459E+08         0.62734E+07         0.00000E+00
    0.62734E+07        -0.58396E+08         0.00000E+00
    0.00000E+00         0.00000E+00        -0.60697E+08
 
   -0.51966E+08        -0.21568E+06         0.00000E+00
   -0.21568E+06        -0.60000E+08         0.00000E+00
    0.00000E+00         0.00000E+00        -0.58082E+08
 
   -0.52441E+08        -0.55908E+06         0.00000E+00
   -0.55908E+06        -0.60000E+08         0.00000E+00
    0.00000E+00         0.00000E+00        -0.58184E+08
 
   -0.52912E+08        -0.78677E+06         0.00000E+00
   -0.78677E+06        -0.60001E+08         0.00000E+00
    0.00000E+00         0.00000E+00        -0.58285E+08
 
   -0.53383E+08        -0.89947E+06         0.00000E+00
   -0.89947E+06        -0.59996E+08         0.00000E+00
    0.00000E+00         0.00000E+00        -0.58383E+08
 
   -0.53863E+08        -0.89485E+06         0.00000E+00
   -0.89485E+06        -0.59979E+08         0.00000E+00
    0.00000E+00         0.00000E+00        -0.58480E+08
 
   -0.54355E+08        -0.76802E+06         0.00000E+00
   -0.76802E+06        -0.59944E+08         0.00000E+00
    0.00000E+00         0.00000E+00        -0.58575E+08
 
   -0.54866E+08        -0.51271E+06         0.00000E+00
   -0.51271E+06        -0.59885E+08         0.00000E+00
    0.00000E+00         0.00000E+00        -0.58668E+08
 
   -0.55396E+08        -0.12268E+06         0.00000E+00
   -0.12268E+06        -0.59802E+08         0.00000E+00
    0.00000E+00         0.00000E+00        -0.58759E+08
 
   -0.55941E+08         0.40690E+06         0.00000E+00
    0.40690E+06        -0.59692E+08         0.00000E+00
    0.00000E+00         0.00000E+00        -0.58847E+08
 
   -0.56495E+08         0.10787E+07         0.00000E+00
    0.10787E+07        -0.59558E+08         0.00000E+00
    0.00000E+00         0.00000E+00        -0.58932E+08
 
   -0.57051E+08         0.18928E+07         0.00000E+00
    0.18928E+07        -0.59404E+08         0.00000E+00
    0.00000E+00         0.00000E+00        -0.59012E+08
 
   -0.57598E+08         0.28467E+07         0.00000E+00
    0.28467E+07        -0.59233E+08         0.00000E+00
    0.00000E+00         0.00000E+00        -0.59086E+08
 
   -0.58125E+08         0.39350E+07         0.00000E+00
    0.39350E+07        -0.59051E+08         0.00000E+00
    0.00000E+00         0.00000E+00        -0.59154E+08
 
   -0.58621E+08         0.51496E+07         0.00000E+00
    0.51496E+07        -0.58863E+08         0.00000E+00
    0.00000E+00         0.00000E+00        -0.59214E+08
 
   -0.59074E+08         0.64791E+07         0.00000E+00
    0.64791E+07        -0.58676E+08         0.00000E+00
    0.00000E+00         0.00000E+00        -0.59265E+08
 
   -0.52369E+08        -0.21534E+06         0.00000E+00
   -0.21534E+06        -0.60000E+08         0.00000E+00
    0.00000E+00         0.00000E+00        -0.56955E+08
 
   -0.52726E+08        -0.55939E+06         0.00000E+00
   -0.55939E+06        -0.60000E+08         0.00000E+00
    0.00000E+00         0.00000E+00        -0.57033E+08
 
   -0.53080E+08        -0.78542E+06         0.00000E+00
   -0.78542E+06        -0.60000E+08         0.00000E+00
    0.00000E+00         0.00000E+00        -0.57110E+08
 
   -0.53433E+08        -0.89118E+06         0.00000E+00
   -0.89118E+06        -0.59998E+08         0.00000E+00
    0.00000E+00         0.00000E+00        -0.57185E+08
 
   -0.53789E+08        -0.87353E+06         0.00000E+00
   -0.87353E+06        -0.59987E+08         0.00000E+00
    0.00000E+00         0.00000E+00        -0.57258E+08
 
   -0.54155E+08        -0.72839E+06         0.00000E+00
   -0.72839E+06        -0.59962E+08         0.00000E+00
    0.00000E+00         0.00000E+00        -0.57329E+08
 
   -0.54533E+08        -0.45128E+06         0.00000E+00
   -0.45128E+06        -0.59921E+08         0.00000E+00
    0.00000E+00         0.00000E+00        -0.57398E+08
 
   -0.54925E+08        -0.38087E+05         0.00000E+00
   -0.38087E+05        -0.59859E+08         0.00000E+00
    0.00000E+00         0.00000E+00        -0.57466E+08
 
   -0.55329E+08         0.51409E+06         0.00000E+00
    0.51409E+06        -0.59777E+08         0.00000E+00
    0.00000E+00         0.00000E+00        -0.57531E+08
 
   -0.55742E+08         0.12063E+07         0.00000E+00
    0.12063E+07        -0.59676E+08         0.00000E+00
    0.00000E+00         0.00000E+00        -0.57594E+08
 
   -0.56158E+08         0.20375E+07         0.00000E+00
    0.20375E+07        -0.59558E+08         0.00000E+00
    0.00000E+00         0.00000E+00        -0.57654E+08
 
   -0.56570E+08         0.30041E+07         0.00000E+00
    0.30041E+07        -0.59427E+08         0.00000E+00
    0.00000E+00         0.00000E+00        -0.57709E+08
 
   -0.56970E+08         0.41001E+07         0.00000E+00
    0.41001E+07        -0.59286E+08         0.00000E+00
    0.00000E+00         0.00000E+00        -0.57759E+08
 
   -0.57347E+08         0.53166E+07         0.00000E+00
    0.53166E+07        -0.59141E+08         0.00000E+00
    0.00000E+00         0.00000E+00        -0.57804E+08
 
   -0.57695E+08         0.66422E+07         0.00000E+00
    0.66422E+07        -0.58997E+08         0.00000E+00
    0.00000E+00         0.00000E+00        -0.57843E+08
 
   -0.52772E+08        -0.21565E+06         0.00000E+00
   -0.21565E+06        -0.60000E+08         0.00000E+00
    0.00000E+00         0.00000E+00        -0.55829E+08
 
   -0.53012E+08        -0.56147E+06         0.00000E+00
   -0.56147E+06        -0.60003E+08         0.00000E+00
    0.00000E+00         0.00000E+00        -0.55884E+08
 
   -0.53245E+08        -0.78760E+06         0.00000E+00
   -0.78760E+06        -0.60008E+08         0.00000E+00
    0.00000E+00         0.00000E+00        -0.55937E+08
 
   -0.53474E+08        -0.88939E+06         0.00000E+00
   -0.88939E+06        -0.60013E+08         0.00000E+00
    0.00000E+00         0.00000E+00        -0.55988E+08
 
   -0.53703E+08        -0.86290E+06         0.00000E+00
   -0.86290E+06        -0.60013E+08         0.00000E+00
    0.00000E+00         0.00000E+00        -0.56037E+08
 
   -0.53937E+08        -0.70453E+06         0.00000E+00
   -0.70453E+06        -0.60004E+08         0.00000E+00
    0.00000E+00         0.00000E+00        -0.56084E+08
 
   -0.54179E+08        -0.41102E+06         0.00000E+00
   -0.41102E+06        -0.59982E+08         0.00000E+00
    0.00000E+00         0.00000E+00        -0.56130E+08
 
   -0.54433E+08         0.20105E+05         0.00000E+00
    0.20105E+05        -0.59946E+08         0.00000E+00
    0.00000E+00         0.00000E+00        -0.56175E+08
 
   -0.54698E+08         0.59014E+06         0.00000E+00
    0.59014E+06        -0.59894E+08         0.00000E+00
    0.00000E+00         0.00000E+00        -0.56218E+08
 
   -0.54973E+08         0.12988E+07         0.00000E+00
    0.12988E+07        -0.59826E+08         0.00000E+00
    0.00000E+00         0.00000E+00        -0.56260E+08
 
   -0.55253E+08         0.21438E+07         0.00000E+00
    0.21438E+07        -0.59745E+08         0.00000E+00
    0.00000E+00         0.00000E+00        -0.56299E+08
 
   -0.55534E+08         0.31208E+07         0.00000E+00
    0.31208E+07        -0.59654E+08         0.00000E+00
    0.00000E+00         0.00000E+00        -0.56337E+08
 
   -0.55810E+08         0.42230E+07         0.00000E+00
    0.42230E+07        -0.59554E+08         0.00000E+00
    0.00000E+00         0.00000E+00        -0.56371E+08
 
   -0.56075E+08         0.54415E+07         0.00000E+00
    0.54415E+07        -0.59451E+08         0.00000E+00
    0.00000E+00         0.00000E+00        -0.56401E+08
 
   -0.56322E+08         0.67648E+07         0.00000E+00
    0.67648E+07        -0.59347E+08         0.00000E+00
    0.00000E+00         0.00000E+00        -0.56428E+08
 
   -0.53177E+08        -0.21798E+06         0.00000E+00
   -0.21798E+06        -0.60002E+08         0.00000E+00
    0.00000E+00         0.00000E+00        -0.54705E+08
 
   -0.53301E+08        -0.56872E+06         0.00000E+00
   -0.56872E+06        -0.60009E+08         0.00000E+00
    0.00000E+00         0.00000E+00        -0.54736E+08
 
   -0.53410E+08        -0.79780E+06         0.00000E+00
   -0.79780E+06        -0.60022E+08         0.00000E+00
    0.00000E+00         0.00000E+00        -0.54765E+08
 
   -0.53511E+08        -0.89882E+06         0.00000E+00
   -0.89882E+06        -0.60038E+08         0.00000E+00
    0.00000E+00         0.00000E+00        -0.54792E+08
 
   -0.53607E+08        -0.86727E+06         0.00000E+00
   -0.86727E+06        -0.60053E+08         0.00000E+00
    0.00000E+00         0.00000E+00        -0.54817E+08
 
   -0.53706E+08        -0.69990E+06         0.00000E+00
   -0.69990E+06        -0.60063E+08         0.00000E+00
    0.00000E+00         0.00000E+00        -0.54841E+08
 
   -0.53811E+08        -0.39448E+06         0.00000E+00
   -0.39448E+06        -0.60064E+08         0.00000E+00
    0.00000E+00         0.00000E+00        -0.54864E+08
 
   -0.53926E+08         0.50178E+05         0.00000E+00
    0.50178E+05        -0.60054E+08         0.00000E+00
    0.00000E+00         0.00000E+00        -0.54886E+08
 
   -0.54052E+08         0.63403E+06         0.00000E+00
    0.63403E+06        -0.60032E+08         0.00000E+00
    0.00000E+00         0.00000E+00        -0.54907E+08
 
   -0.54189E+08         0.13556E+07         0.00000E+00
    0.13556E+07        -0.59999E+08         0.00000E+00
    0.00000E+00         0.00000E+00        -0.54928E+08
 
   -0.54336E+08         0.22117E+07         0.00000E+00
    0.22117E+07        -0.59955E+08         0.00000E+00
    0.00000E+00         0.00000E+00        -0.54948E+08
 
   -0.54490E+08         0.31972E+07         0.00000E+00
    0.31972E+07        -0.59902E+08         0.00000E+00
    0.00000E+00         0.00000E+00        -0.54967E+08
 
   -0.54646E+08         0.43050E+07         0.00000E+00
    0.43050E+07        -0.59843E+08         0.00000E+00
    0.00000E+00         0.00000E+00        -0.54986E+08
 
   -0.54802E+08         0.55259E+07         0.00000E+00
    0.55259E+07        -0.59779E+08         0.00000E+00
    0.00000E+00         0.00000E+00        -0.55003E+08
 
   -0.54953E+08         0.68484E+07         0.00000E+00
    0.68484E+07        -0.59715E+08         0.00000E+00
    0.00000E+00         0.00000E+00        -0.55019E+08
 
   -0.53591E+08        -0.22331E+06         0.00000E+00
   -0.22331E+06        -0.60003E+08         0.00000E+00
    0.00000E+00         0.00000E+00        -0.53583E+08
 
   -0.53595E+08        -0.58361E+06         0.00000E+00
   -0.58361E+06        -0.60016E+08         0.00000E+00
    0.00000E+00         0.00000E+00        -0.53591E+08
 
   -0.53578E+08        -0.81927E+06         0.00000E+00
   -0.81927E+06        -0.60040E+08         0.00000E+00
    0.00000E+00         0.00000E+00        -0.53596E+08
 
   -0.53546E+08        -0.92285E+06         0.00000E+00
   -0.92285E+06        -0.60070E+08         0.00000E+00
    0.00000E+00         0.00000E+00        -0.53599E+08
 
   -0.53506E+08        -0.88962E+06         0.00000E+00
   -0.88962E+06        -0.60103E+08         0.00000E+00
    0.00000E+00         0.00000E+00        -0.53599E+08
 
   -0.53466E+08        -0.71682E+06         0.00000E+00
   -0.71682E+06        -0.60133E+08         0.00000E+00
    0.00000E+00         0.00000E+00        -0.53599E+08
 
   -0.53431E+08        -0.40319E+06         0.00000E+00
   -0.40319E+06        -0.60158E+08         0.00000E+00
    0.00000E+00         0.00000E+00        -0.53598E+08
 
   -0.53406E+08         0.51325E+05         0.00000E+00
    0.51325E+05        -0.60175E+08         0.00000E+00
    0.00000E+00         0.00000E+00        -0.53597E+08
 
   -0.53394E+08         0.64554E+06         0.00000E+00
    0.64554E+06        -0.60184E+08         0.00000E+00
    0.00000E+00         0.00000E+00        -0.53596E+08
 
   -0.53395E+08         0.13770E+07         0.00000E+00
    0.13770E+07        -0.60184E+08         0.00000E+00
    0.00000E+00         0.00000E+00        -0.53596E+08
 
   -0.53410E+08         0.22418E+07         0.00000E+00
    0.22418E+07        -0.60177E+08         0.00000E+00
    0.00000E+00         0.00000E+00        -0.53597E+08
 
   -0.53439E+08         0.32343E+07         0.00000E+00
    0.32343E+07        -0.60162E+08         0.00000E+00
    0.00000E+00         0.00000E+00        -0.53599E+08
 
   -0.53479E+08         0.43472E+07         0.00000E+00
    0.43472E+07        -0.60142E+08         0.00000E+00
    0.00000E+00         0.00000E+00        -0.53602E+08
 
   -0.53528E+08         0.55710E+07         0.00000E+00
    0.55710E+07        -0.60117E+08         0.00000E+00
    0.00000E+00         0.00000E+00        -0.53606E+08
 
   -0.53584E+08         0.68943E+07         0.00000E+00
    0.68943E+07        -0.60091E+08         0.00000E+00
    0.00000E+00         0.00000E+00        -0.53611E+08
 
   -0.54018E+08        -0.23228E+06         0.00000E+00
   -0.23228E+06        -0.60005E+08         0.00000E+00
    0.00000E+00         0.00000E+00        -0.52464E+08
 
   -0.53901E+08        -0.60776E+06         0.00000E+00
   -0.60776E+06        -0.60025E+08         0.00000E+00
    0.00000E+00         0.00000E+00        -0.52449E+08
 
   -0.53753E+08        -0.85411E+06         0.00000E+00
   -0.85411E+06        -0.60061E+08         0.00000E+00
    0.00000E+00         0.00000E+00        -0.52429E+08
 
   -0.53583E+08        -0.96353E+06         0.00000E+00
   -0.96353E+06        -0.60106E+08         0.00000E+00
    0.00000E+00         0.00000E+00        -0.52407E+08
 
   -0.53403E+08        -0.93161E+06         0.00000E+00
   -0.93161E+06        -0.60157E+08         0.00000E+00
    0.00000E+00         0.00000E+00        -0.52382E+08
 
   -0.53221E+08        -0.75636E+06         0.00000E+00
   -0.75636E+06        -0.60209E+08         0.00000E+00
    0.00000E+00         0.00000E+00        -0.52357E+08
 
   -0.53044E+08        -0.43755E+06         0.00000E+00
   -0.43755E+06        -0.60258E+08         0.00000E+00
    0.00000E+00         0.00000E+00        -0.52332E+08
 
   -0.52878E+08         0.23729E+05         0.00000E+00
    0.23729E+05        -0.60302E+08         0.00000E+00
    0.00000E+00         0.00000E+00        -0.52308E+08
 
   -0.52727E+08         0.62529E+06         0.00000E+00
    0.62529E+06        -0.60341E+08         0.00000E+00
    0.00000E+00         0.00000E+00        -0.52285E+08
 
   -0.52593E+08         0.13639E+07         0.00000E+00
    0.13639E+07        -0.60373E+08         0.00000E+00
    0.00000E+00         0.00000E+00        -0.52264E+08
 
   -0.52478E+08         0.22351E+07         0.00000E+00
    0.22351E+07        -0.60401E+08         0.00000E+00
    0.00000E+00         0.00000E+00        -0.52246E+08
 
   -0.52383E+08         0.32331E+07         0.00000E+00
    0.32331E+07        -0.60423E+08         0.00000E+00
    0.00000E+00         0.00000E+00        -0.52231E+08
 
   -0.52307E+08         0.43505E+07         0.00000E+00
    0.43505E+07        -0.60441E+08         0.00000E+00
    0.00000E+00         0.00000E+00        -0.52218E+08
 
   -0.52251E+08         0.55777E+07         0.00000E+00
    0.55777E+07        -0.60455E+08         0.00000E+00
    0.00000E+00         0.00000E+00        -0.52209E+08
 
   -0.52215E+08         0.69034E+07         0.00000E+00
    0.69034E+07        -0.60465E+08         0.00000E+00
    0.00000E+00         0.00000E+00        -0.52204E+08
 
   -0.54466E+08        -0.24529E+06         0.00000E+00
   -0.24529E+06        -0.60007E+08         0.00000E+00
    0.00000E+00         0.00000E+00        -0.51350E+08
 
   -0.54222E+08        -0.64205E+06         0.00000E+00
   -0.64205E+06        -0.60034E+08         0.00000E+00
    0.00000E+00         0.00000E+00        -0.51310E+08
 
   -0.53937E+08        -0.90329E+06         0.00000E+00
   -0.90329E+06        -0.60082E+08         0.00000E+00
    0.00000E+00         0.00000E+00        -0.51265E+08
 
   -0.53625E+08        -0.10216E+07         0.00000E+00
   -0.10216E+07        -0.60144E+08         0.00000E+00
    0.00000E+00         0.00000E+00        -0.51216E+08
 
   -0.53300E+08        -0.99353E+06         0.00000E+00
   -0.99353E+06        -0.60213E+08         0.00000E+00
    0.00000E+00         0.00000E+00        -0.51166E+08
 
   -0.52973E+08        -0.81820E+06         0.00000E+00
   -0.81820E+06        -0.60285E+08         0.00000E+00
    0.00000E+00         0.00000E+00        -0.51115E+08
 
   -0.52652E+08        -0.49670E+06         0.00000E+00
   -0.49670E+06        -0.60357E+08         0.00000E+00
    0.00000E+00         0.00000E+00        -0.51065E+08
 
   -0.52344E+08        -0.31320E+05         0.00000E+00
   -0.31320E+05        -0.60426E+08         0.00000E+00
    0.00000E+00         0.00000E+00        -0.51017E+08
 
   -0.52054E+08         0.57482E+06         0.00000E+00
    0.57482E+06        -0.60493E+08         0.00000E+00
    0.00000E+00         0.00000E+00        -0.50972E+08
 
   -0.51785E+08         0.13179E+07         0.00000E+00
    0.13179E+07        -0.60556E+08         0.00000E+00
    0.00000E+00         0.00000E+00        -0.50930E+08
 
   -0.51540E+08         0.21932E+07         0.00000E+00
    0.21932E+07        -0.60616E+08         0.00000E+00
    0.00000E+00         0.00000E+00        -0.50892E+08
 
   -0.51322E+08         0.31949E+07         0.00000E+00
    0.31949E+07        -0.60674E+08         0.00000E+00
    0.00000E+00         0.00000E+00        -0.50859E+08
 
   -0.51132E+08         0.43158E+07         0.00000E+00
    0.43158E+07        -0.60729E+08         0.00000E+00
    0.00000E+00         0.00000E+00        -0.50832E+08
 
   -0.50971E+08         0.55467E+07         0.00000E+00
    0.55467E+07        -0.60780E+08         0.00000E+00
    0.00000E+00         0.00000E+00        -0.50810E+08
 
   -0.50843E+08         0.68762E+07         0.00000E+00
    0.68762E+07        -0.60828E+08         0.00000E+00
    0.00000E+00         0.00000E+00        -0.50794E+08
 
   -0.54942E+08        -0.26246E+06         0.00000E+00
   -0.26246E+06        -0.60008E+08         0.00000E+00
    0.00000E+00         0.00000E+00        -0.50242E+08
 
   -0.54564E+08        -0.68669E+06         0.00000E+00
   -0.68669E+06        -0.60043E+08         0.00000E+00
    0.00000E+00         0.00000E+00        -0.50176E+08
 
   -0.54135E+08        -0.96680E+06         0.00000E+00
   -0.96680E+06        -0.60103E+08         0.00000E+00
    0.00000E+00         0.00000E+00        -0.50104E+08
 
   -0.53675E+08        -0.10966E+07         0.00000E+00
   -0.10966E+07        -0.60180E+08         0.00000E+00
    0.00000E+00         0.00000E+00        -0.50028E+08
 
   -0.53200E+08        -0.10742E+07         0.00000E+00
   -0.10742E+07        -0.60266E+08         0.00000E+00
    0.00000E+00         0.00000E+00        -0.49950E+08
 
   -0.52724E+08        -0.90057E+06         0.00000E+00
   -0.90057E+06        -0.60357E+08         0.00000E+00
    0.00000E+00         0.00000E+00        -0.49873E+08
 
   -0.52257E+08        -0.57838E+06         0.00000E+00
   -0.57838E+06        -0.60448E+08         0.00000E+00
    0.00000E+00         0.00000E+00        -0.49797E+08
 
   -0.51806E+08        -0.11129E+06         0.00000E+00
   -0.11129E+06        -0.60540E+08         0.00000E+00
    0.00000E+00         0.00000E+00        -0.49724E+08
 
   -0.51378E+08         0.49665E+06         0.00000E+00
    0.49665E+06        -0.60631E+08         0.00000E+00
    0.00000E+00         0.00000E+00        -0.49655E+08
 
   -0.50974E+08         0.12412E+07         0.00000E+00
    0.12412E+07        -0.60722E+08         0.00000E+00
    0.00000E+00         0.00000E+00        -0.49592E+08
 
   -0.50600E+08         0.21177E+07         0.00000E+00
    0.21177E+07        -0.60813E+08         0.00000E+00
    0.00000E+00         0.00000E+00        -0.49534E+08
 
   -0.50259E+08         0.31209E+07         0.00000E+00
    0.31209E+07        -0.60904E+08         0.00000E+00
    0.00000E+00         0.00000E+00        -0.49484E+08
 
   -0.49953E+08         0.42440E+07         0.00000E+00
    0.42440E+07        -0.60995E+08         0.00000E+00
    0.00000E+00         0.00000E+00        -0.49441E+08
 
   -0.49687E+08         0.54784E+07         0.00000E+00
    0.54784E+07        -0.61084E+08         0.00000E+00
    0.00000E+00         0.00000E+00        -0.49406E+08
 
   -0.49466E+08         0.68130E+07         0.00000E+00
    0.68130E+07        -0.61168E+08         0.00000E+00
    0.00000E+00         0.00000E+00        -0.49379E+08
 
   -0.55454E+08        -0.28373E+06         0.00000E+00
   -0.28373E+06        -0.60010E+08         0.00000E+00
    0.00000E+00         0.00000E+00        -0.49142E+08
 
   -0.54930E+08        -0.74125E+06         0.00000E+00
   -0.74125E+06        -0.60052E+08         0.00000E+00
    0.00000E+00         0.00000E+00        -0.49047E+08
 
   -0.54349E+08        -0.10436E+07         0.00000E+00
   -0.10436E+07        -0.60123E+08         0.00000E+00
    0.00000E+00         0.00000E+00        -0.48946E+08
 
   -0.53734E+08        -0.11866E+07         0.00000E+00
   -0.11866E+07        -0.60213E+08         0.00000E+00
    0.00000E+00         0.00000E+00        -0.48841E+08
 
   -0.53104E+08        -0.11710E+07         0.00000E+00
   -0.11710E+07        -0.60313E+08         0.00000E+00
    0.00000E+00         0.00000E+00        -0.48734E+08
 
   -0.52477E+08        -0.10001E+07         0.00000E+00
   -0.10001E+07        -0.60418E+08         0.00000E+00
    0.00000E+00         0.00000E+00        -0.48628E+08
 
   -0.51862E+08        -0.67873E+06         0.00000E+00
   -0.67873E+06        -0.60525E+08         0.00000E+00
    0.00000E+00         0.00000E+00        -0.48525E+08
 
   -0.51269E+08        -0.21222E+06         0.00000E+00
   -0.21222E+06        -0.60633E+08         0.00000E+00
    0.00000E+00         0.00000E+00        -0.48426E+08
 
   -0.50701E+08         0.39451E+06         0.00000E+00
    0.39451E+06        -0.60744E+08         0.00000E+00
    0.00000E+00         0.00000E+00        -0.48334E+08
 
   -0.50164E+08         0.11370E+07         0.00000E+00
    0.11370E+07        -0.60859E+08         0.00000E+00
    0.00000E+00         0.00000E+00        -0.48248E+08
 
   -0.49661E+08         0.20112E+07         0.00000E+00
    0.20112E+07        -0.60977E+08         0.00000E+00
    0.00000E+00         0.00000E+00        -0.48170E+08
 
   -0.49195E+08         0.30125E+07         0.00000E+00
    0.30125E+07        -0.61100E+08         0.00000E+00
    0.00000E+00         0.00000E+00        -0.48102E+08
 
   -0.48772E+08         0.41355E+07         0.00000E+00
    0.41355E+07        -0.61226E+08         0.00000E+00
    0.00000E+00         0.00000E+00        -0.48042E+08
 
   -0.48399E+08         0.53725E+07         0.00000E+00
    0.53725E+07        -0.61352E+08         0.00000E+00
    0.00000E+00         0.00000E+00        -0.47994E+08
 
   -0.48083E+08         0.67131E+07         0.00000E+00
    0.67131E+07        -0.61474E+08         0.00000E+00
    0.00000E+00         0.00000E+00        -0.47956E+08
 
   -0.56008E+08        -0.30884E+06         0.00000E+00
   -0.30884E+06        -0.60012E+08         0.00000E+00
    0.00000E+00         0.00000E+00        -0.48051E+08
 
   -0.55327E+08        -0.80466E+06         0.00000E+00
   -0.80466E+06        -0.60059E+08         0.00000E+00
    0.00000E+00         0.00000E+00        -0.47925E+08
 
   -0.54581E+08        -0.11314E+07         0.00000E+00
   -0.11314E+07        -0.60140E+08         0.00000E+00
    0.00000E+00         0.00000E+00        -0.47791E+08
 
   -0.53802E+08        -0.12883E+07         0.00000E+00
   -0.12883E+07        -0.60239E+08         0.00000E+00
    0.00000E+00         0.00000E+00        -0.47654E+08
 
   -0.53013E+08        -0.12794E+07         0.00000E+00
   -0.12794E+07        -0.60348E+08         0.00000E+00
    0.00000E+00         0.00000E+00        -0.47516E+08
 
   -0.52231E+08        -0.11115E+07         0.00000E+00
   -0.11115E+07        -0.60461E+08         0.00000E+00
    0.00000E+00         0.00000E+00        -0.47381E+08
 
   -0.51469E+08        -0.79213E+06         0.00000E+00
   -0.79213E+06        -0.60577E+08         0.00000E+00
    0.00000E+00         0.00000E+00        -0.47249E+08
 
   -0.50733E+08        -0.32855E+06         0.00000E+00
   -0.32855E+06        -0.60697E+08         0.00000E+00
    0.00000E+00         0.00000E+00        -0.47124E+08
 
   -0.50029E+08         0.27342E+06         0.00000E+00
    0.27342E+06        -0.60821E+08         0.00000E+00
    0.00000E+00         0.00000E+00        -0.47006E+08
 
   -0.49359E+08         0.10094E+07         0.00000E+00
    0.10094E+07        -0.60954E+08         0.00000E+00
    0.00000E+00         0.00000E+00        -0.46897E+08
 
   -0.48726E+08         0.18763E+07         0.00000E+00
    0.18763E+07        -0.61097E+08         0.00000E+00
    0.00000E+00         0.00000E+00        -0.46798E+08
 
   -0.48135E+08         0.28712E+07         0.00000E+00
    0.28712E+07        -0.61249E+08         0.00000E+00
    0.00000E+00         0.00000E+00        -0.46711E+08
 
   -0.47592E+08         0.39905E+07         0.00000E+00
    0.39905E+07        -0.61410E+08         0.00000E+00
    0.00000E+00         0.00000E+00        -0.46635E+08
 
   -0.47107E+08         0.52283E+07         0.00000E+00
    0.52283E+07        -0.61573E+08         0.00000E+00
    0.00000E+00         0.00000E+00        -0.46572E+08
 
   -0.46691E+08         0.65754E+07         0.00000E+00
    0.65754E+07        -0.61734E+08         0.00000E+00
    0.00000E+00         0.00000E+00        -0.46523E+08
 
   -0.56612E+08        -0.33733E+06         0.00000E+00
   -0.33733E+06        -0.60013E+08         0.00000E+00
    0.00000E+00         0.00000E+00        -0.46971E+08
 
   -0.55755E+08        -0.87522E+06         0.00000E+00
   -0.87522E+06        -0.60065E+08         0.00000E+00
    0.00000E+00         0.00000E+00        -0.46809E+08
 
   -0.54832E+08        -0.12271E+07         0.00000E+00
   -0.12271E+07        -0.60152E+08         0.00000E+00
    0.00000E+00         0.00000E+00        -0.46640E+08
 
   -0.53879E+08        -0.13967E+07         0.00000E+00
   -0.13967E+07        -0.60256E+08         0.00000E+00
    0.00000E+00         0.00000E+00        -0.46468E+08
 
   -0.52925E+08        -0.13931E+07         0.00000E+00
   -0.13931E+07        -0.60367E+08         0.00000E+00
    0.00000E+00         0.00000E+00        -0.46296E+08
 
   -0.51987E+08        -0.12274E+07         0.00000E+00
   -0.12274E+07        -0.60481E+08         0.00000E+00
    0.00000E+00         0.00000E+00        -0.46129E+08
 
   -0.51078E+08        -0.91087E+06         0.00000E+00
   -0.91087E+06        -0.60597E+08         0.00000E+00
    0.00000E+00         0.00000E+00        -0.45967E+08
 
   -0.50203E+08        -0.45288E+06         0.00000E+00
   -0.45288E+06        -0.60718E+08         0.00000E+00
    0.00000E+00         0.00000E+00        -0.45814E+08
 
   -0.49365E+08         0.13990E+06         0.00000E+00
    0.13990E+06        -0.60849E+08         0.00000E+00
    0.00000E+00         0.00000E+00        -0.45670E+08
 
   -0.48563E+08         0.86361E+06         0.00000E+00
    0.86361E+06        -0.60994E+08         0.00000E+00
    0.00000E+00         0.00000E+00        -0.45537E+08
 
   -0.47801E+08         0.17166E+07         0.00000E+00
    0.17166E+07        -0.61155E+08         0.00000E+00
    0.00000E+00         0.00000E+00        -0.45417E+08
 
   -0.47082E+08         0.26986E+07         0.00000E+00
    0.26986E+07        -0.61335E+08         0.00000E+00
    0.00000E+00         0.00000E+00        -0.45309E+08
 
   -0.46415E+08         0.38087E+07         0.00000E+00
    0.38087E+07        -0.61529E+08         0.00000E+00
    0.00000E+00         0.00000E+00        -0.45216E+08
 
   -0.45812E+08         0.50440E+07         0.00000E+00
    0.50440E+07        -0.61732E+08         0.00000E+00
    0.00000E+00         0.00000E+00        -0.45138E+08
 
   -0.45289E+08         0.63973E+07         0.00000E+00
    0.63973E+07        -0.61935E+08         0.00000E+00
    0.00000E+00         0.00000E+00        -0.45076E+08
 
   -0.57270E+08        -0.36860E+06         0.00000E+00
   -0.36860E+06        -0.60014E+08         0.00000E+00
    0.00000E+00         0.00000E+00        -0.45901E+08
 
   -0.56216E+08        -0.95055E+06         0.00000E+00
   -0.95055E+06        -0.60070E+08         0.00000E+00
    0.00000E+00         0.00000E+00        -0.45699E+08
 
   -0.55100E+08        -0.13259E+07         0.00000E+00
   -0.13259E+07        -0.60158E+08         0.00000E+00
    0.00000E+00         0.00000E+00        -0.45490E+08
 
   -0.53964E+08        -0.15049E+07         0.00000E+00
   -0.15049E+07        -0.60259E+08         0.00000E+00
    0.00000E+00         0.00000E+00        -0.45280E+08
 
   -0.52839E+08        -0.15032E+07         0.00000E+00
   -0.15032E+07        -0.60364E+08         0.00000E+00
    0.00000E+00         0.00000E+00        -0.45072E+08
 
   -0.51746E+08        -0.13381E+07         0.00000E+00
   -0.13381E+07        -0.60468E+08         0.00000E+00
    0.00000E+00         0.00000E+00        -0.44871E+08
 
   -0.50693E+08        -0.10250E+07         0.00000E+00
   -0.10250E+07        -0.60573E+08         0.00000E+00
    0.00000E+00         0.00000E+00        -0.44678E+08
 
   -0.49683E+08        -0.57583E+06         0.00000E+00
   -0.57583E+06        -0.60686E+08         0.00000E+00
    0.00000E+00         0.00000E+00        -0.44495E+08
 
   -0.48715E+08         0.21087E+04         0.00000E+00
    0.21087E+04        -0.60813E+08         0.00000E+00
    0.00000E+00         0.00000E+00        -0.44325E+08
 
   -0.47785E+08         0.70585E+06         0.00000E+00
    0.70585E+06        -0.60961E+08         0.00000E+00
    0.00000E+00         0.00000E+00        -0.44167E+08
 
   -0.46895E+08         0.15361E+07         0.00000E+00
    0.15361E+07        -0.61136E+08         0.00000E+00
    0.00000E+00         0.00000E+00        -0.44023E+08
 
   -0.46046E+08         0.24960E+07         0.00000E+00
    0.24960E+07        -0.61339E+08         0.00000E+00
    0.00000E+00         0.00000E+00        -0.43895E+08
 
   -0.45248E+08         0.35891E+07         0.00000E+00
    0.35891E+07        -0.61568E+08         0.00000E+00
    0.00000E+00         0.00000E+00        -0.43783E+08
 
   -0.44517E+08         0.48166E+07         0.00000E+00
    0.48166E+07        -0.61813E+08         0.00000E+00
    0.00000E+00         0.00000E+00        -0.43688E+08
 
   -0.43875E+08         0.61747E+07         0.00000E+00
    0.61747E+07        -0.62062E+08         0.00000E+00
    0.00000E+00         0.00000E+00        -0.43612E+08
 
   -0.57986E+08        -0.40188E+06         0.00000E+00
   -0.40188E+06        -0.60015E+08         0.00000E+00
    0.00000E+00         0.00000E+00        -0.44843E+08
 
   -0.56710E+08        -0.10274E+07         0.00000E+00
   -0.10274E+07        -0.60071E+08         0.00000E+00
    0.00000E+00         0.00000E+00        -0.44595E+08
 
   -0.55380E+08        -0.14215E+07         0.00000E+00
   -0.14215E+07        -0.60155E+08         0.00000E+00
    0.00000E+00         0.00000E+00        -0.44342E+08
 
   -0.54050E+08        -0.16034E+07         0.00000E+00
   -0.16034E+07        -0.60245E+08         0.00000E+00
    0.00000E+00         0.00000E+00        -0.44089E+08
 
   -0.52752E+08        -0.15983E+07         0.00000E+00
   -0.15983E+07        -0.60331E+08         0.00000E+00
    0.00000E+00         0.00000E+00        -0.43842E+08
 
   -0.51505E+08        -0.14310E+07         0.00000E+00
   -0.14310E+07        -0.60411E+08         0.00000E+00
    0.00000E+00         0.00000E+00        -0.43604E+08
 
   -0.50315E+08        -0.11221E+07         0.00000E+00
   -0.11221E+07        -0.60492E+08         0.00000E+00
    0.00000E+00         0.00000E+00        -0.43378E+08
 
   -0.49177E+08        -0.68595E+06         0.00000E+00
   -0.68595E+06        -0.60583E+08         0.00000E+00
    0.00000E+00         0.00000E+00        -0.43165E+08
 
   -0.48087E+08        -0.13018E+06         0.00000E+00
   -0.13018E+06        -0.60695E+08         0.00000E+00
    0.00000E+00         0.00000E+00        -0.42967E+08
 
   -0.47035E+08         0.54368E+06         0.00000E+00
    0.54368E+06        -0.60838E+08         0.00000E+00
    0.00000E+00         0.00000E+00        -0.42784E+08
 
   -0.46017E+08         0.13395E+07         0.00000E+00
    0.13395E+07        -0.61020E+08         0.00000E+00
    0.00000E+00         0.00000E+00        -0.42617E+08
 
   -0.45035E+08         0.22651E+07         0.00000E+00
    0.22651E+07        -0.61243E+08         0.00000E+00
    0.00000E+00         0.00000E+00        -0.42466E+08
 
   -0.44099E+08         0.33298E+07         0.00000E+00
    0.33298E+07        -0.61506E+08         0.00000E+00
    0.00000E+00         0.00000E+00        -0.42334E+08
 
   -0.43227E+08         0.45413E+07         0.00000E+00
    0.45413E+07        -0.61798E+08         0.00000E+00
    0.00000E+00         0.00000E+00        -0.42220E+08
 
   -0.42450E+08         0.59013E+07         0.00000E+00
    0.59013E+07        -0.62100E+08         0.00000E+00
    0.00000E+00         0.00000E+00        -0.42129E+08
 
   -0.58760E+08        -0.43623E+06         0.00000E+00
   -0.43623E+06        -0.60015E+08         0.00000E+00
    0.00000E+00         0.00000E+00        -0.43797E+08
 
   -0.57229E+08        -0.11014E+07         0.00000E+00
   -0.11014E+07        -0.60069E+08         0.00000E+00
    0.00000E+00         0.00000E+00        -0.43496E+08
 
   -0.55665E+08        -0.15049E+07         0.00000E+00
   -0.15049E+07        -0.60141E+08         0.00000E+00
    0.00000E+00         0.00000E+00        -0.43192E+08
 
   -0.54130E+08        -0.16796E+07         0.00000E+00
   -0.16796E+07        -0.60208E+08         0.00000E+00
    0.00000E+00         0.00000E+00        -0.42892E+08
 
   -0.52658E+08        -0.16634E+07         0.00000E+00
   -0.16634E+07        -0.60259E+08         0.00000E+00
    0.00000E+00         0.00000E+00        -0.42602E+08
 
   -0.51265E+08        -0.14907E+07         0.00000E+00
   -0.14907E+07        -0.60298E+08         0.00000E+00
    0.00000E+00         0.00000E+00        -0.42326E+08
 
   -0.49947E+08        -0.11874E+07         0.00000E+00
   -0.11874E+07        -0.60337E+08         0.00000E+00
    0.00000E+00         0.00000E+00        -0.42066E+08
 
   -0.48693E+08        -0.76996E+06         0.00000E+00
   -0.76996E+06        -0.60391E+08         0.00000E+00
    0.00000E+00         0.00000E+00        -0.41823E+08
 
   -0.47490E+08        -0.24576E+06         0.00000E+00
   -0.24576E+06        -0.60475E+08         0.00000E+00
    0.00000E+00         0.00000E+00        -0.41596E+08
 
   -0.46323E+08         0.38573E+06         0.00000E+00
    0.38573E+06        -0.60602E+08         0.00000E+00
    0.00000E+00         0.00000E+00        -0.41388E+08
 
   -0.45183E+08         0.11321E+07         0.00000E+00
    0.11321E+07        -0.60784E+08         0.00000E+00
    0.00000E+00         0.00000E+00        -0.41196E+08
 
   -0.44065E+08         0.20069E+07         0.00000E+00
    0.20069E+07        -0.61025E+08         0.00000E+00
    0.00000E+00         0.00000E+00        -0.41022E+08
 
   -0.42979E+08         0.30276E+07         0.00000E+00
    0.30276E+07        -0.61323E+08         0.00000E+00
    0.00000E+00         0.00000E+00        -0.40867E+08
 
   -0.41949E+08         0.42111E+07         0.00000E+00
    0.42111E+07        -0.61667E+08         0.00000E+00
    0.00000E+00         0.00000E+00        -0.40732E+08
 
   -0.41012E+08         0.55676E+07         0.00000E+00
    0.55676E+07        -0.62033E+08         0.00000E+00
    0.00000E+00         0.00000E+00        -0.40622E+08
 
   -0.59592E+08        -0.47048E+06         0.00000E+00
   -0.47048E+06        -0.60015E+08         0.00000E+00
    0.00000E+00         0.00000E+00        -0.42762E+08
 
   -0.57766E+08        -0.11662E+07         0.00000E+00
   -0.11662E+07        -0.60062E+08         0.00000E+00
    0.00000E+00         0.00000E+00        -0.42399E+08
 
   -0.55942E+08        -0.15635E+07         0.00000E+00
   -0.15635E+07        -0.60111E+08         0.00000E+00
    0.00000E+00         0.00000E+00        -0.42036E+08
 
   -0.54193E+08        -0.17161E+07         0.00000E+00
   -0.17161E+07        -0.60135E+08         0.00000E+00
    0.00000E+00         0.00000E+00        -0.41684E+08
 
   -0.52552E+08        -0.16794E+07         0.00000E+00
   -0.16794E+07        -0.60131E+08         0.00000E+00
    0.00000E+00         0.00000E+00        -0.41348E+08
 
   -0.51024E+08        -0.14987E+07         0.00000E+00
   -0.14987E+07        -0.60109E+08         0.00000E+00
    0.00000E+00         0.00000E+00        -0.41032E+08
 
   -0.49593E+08        -0.12043E+07         0.00000E+00
   -0.12043E+07        -0.60089E+08         0.00000E+00
    0.00000E+00         0.00000E+00        -0.40738E+08
 
   -0.48239E+08        -0.81353E+06         0.00000E+00
   -0.81353E+06        -0.60090E+08         0.00000E+00
    0.00000E+00         0.00000E+00        -0.40464E+08
 
   -0.46938E+08        -0.33255E+06         0.00000E+00
   -0.33255E+06        -0.60133E+08         0.00000E+00
    0.00000E+00         0.00000E+00        -0.40211E+08
 
   -0.45667E+08         0.24152E+06         0.00000E+00
    0.24152E+06        -0.60233E+08         0.00000E+00
    0.00000E+00         0.00000E+00        -0.39976E+08
 
   -0.44409E+08         0.92015E+06         0.00000E+00
    0.92015E+06        -0.60406E+08         0.00000E+00
    0.00000E+00         0.00000E+00        -0.39759E+08
 
   -0.43154E+08         0.17234E+07         0.00000E+00
    0.17234E+07        -0.60659E+08         0.00000E+00
    0.00000E+00         0.00000E+00        -0.39560E+08
 
   -0.41907E+08         0.26785E+07         0.00000E+00
    0.26785E+07        -0.60994E+08         0.00000E+00
    0.00000E+00         0.00000E+00        -0.39380E+08
 
   -0.40694E+08         0.38160E+07         0.00000E+00
    0.38160E+07        -0.61399E+08         0.00000E+00
    0.00000E+00         0.00000E+00        -0.39222E+08
 
   -0.39565E+08         0.51600E+07         0.00000E+00
    0.51600E+07        -0.61842E+08         0.00000E+00
    0.00000E+00         0.00000E+00        -0.39089E+08
 
   -0.60475E+08        -0.50303E+06         0.00000E+00
   -0.50303E+06        -0.60014E+08         0.00000E+00
    0.00000E+00         0.00000E+00        -0.41737E+08
 
   -0.58301E+08        -0.12119E+07         0.00000E+00
   -0.12119E+07        -0.60047E+08         0.00000E+00
    0.00000E+00         0.00000E+00        -0.41300E+08
 
   -0.56190E+08        -0.15783E+07         0.00000E+00
   -0.15783E+07        -0.60054E+08         0.00000E+00
    0.00000E+00         0.00000E+00        -0.40869E+08
 
   -0.54226E+08        -0.16891E+07         0.00000E+00
   -0.16891E+07        -0.60010E+08         0.00000E+00
    0.00000E+00         0.00000E+00        -0.40459E+08
 
   -0.52429E+08        -0.16230E+07         0.00000E+00
   -0.16230E+07        -0.59923E+08         0.00000E+00
    0.00000E+00         0.00000E+00        -0.40075E+08
 
   -0.50785E+08        -0.14347E+07         0.00000E+00
   -0.14347E+07        -0.59817E+08         0.00000E+00
    0.00000E+00         0.00000E+00        -0.39719E+08
 
   -0.49262E+08        -0.11562E+07         0.00000E+00
   -0.11562E+07        -0.59720E+08         0.00000E+00
    0.00000E+00         0.00000E+00        -0.39391E+08
 
   -0.47826E+08        -0.80289E+06         0.00000E+00
   -0.80289E+06        -0.59655E+08         0.00000E+00
    0.00000E+00         0.00000E+00        -0.39088E+08
 
   -0.46444E+08        -0.37893E+06         0.00000E+00
   -0.37893E+06        -0.59645E+08         0.00000E+00
    0.00000E+00         0.00000E+00        -0.38808E+08
 
   -0.45083E+08         0.12087E+06         0.00000E+00
    0.12087E+06        -0.59708E+08         0.00000E+00
    0.00000E+00         0.00000E+00        -0.38548E+08
 
   -0.43717E+08         0.71096E+06         0.00000E+00
    0.71096E+06        -0.59863E+08         0.00000E+00
    0.00000E+00         0.00000E+00        -0.38306E+08
 
   -0.42326E+08         0.14170E+07         0.00000E+00
    0.14170E+07        -0.60123E+08         0.00000E+00
    0.00000E+00         0.00000E+00        -0.38082E+08
 
   -0.40907E+08         0.22778E+07         0.00000E+00
    0.22778E+07        -0.60495E+08         0.00000E+00
    0.00000E+00         0.00000E+00        -0.37875E+08
 
   -0.39481E+08         0.33426E+07         0.00000E+00
    0.33426E+07        -0.60970E+08         0.00000E+00
    0.00000E+00         0.00000E+00        -0.37688E+08
 
   -0.38113E+08         0.46587E+07         0.00000E+00
    0.46587E+07        -0.61510E+08         0.00000E+00
    0.00000E+00         0.00000E+00        -0.37527E+08
 
   -0.61396E+08        -0.53118E+06         0.00000E+00
   -0.53118E+06        -0.60012E+08         0.00000E+00
    0.00000E+00         0.00000E+00        -0.40720E+08
 
   -0.58804E+08        -0.12210E+07         0.00000E+00
   -0.12210E+07        -0.60016E+08         0.00000E+00
    0.00000E+00         0.00000E+00        -0.40190E+08
 
   -0.56383E+08        -0.15188E+07         0.00000E+00
   -0.15188E+07        -0.59949E+08         0.00000E+00
    0.00000E+00         0.00000E+00        -0.39681E+08
 
   -0.54215E+08        -0.15665E+07         0.00000E+00
   -0.15665E+07        -0.59799E+08         0.00000E+00
    0.00000E+00         0.00000E+00        -0.39207E+08
 
   -0.52288E+08        -0.14677E+07         0.00000E+00
   -0.14677E+07        -0.59598E+08         0.00000E+00
    0.00000E+00         0.00000E+00        -0.38774E+08
 
   -0.50556E+08        -0.12796E+07         0.00000E+00
   -0.12796E+07        -0.59386E+08         0.00000E+00
    0.00000E+00         0.00000E+00        -0.38380E+08
 
   -0.48965E+08        -0.10292E+07         0.00000E+00
   -0.10292E+07        -0.59198E+08         0.00000E+00
    0.00000E+00         0.00000E+00        -0.38021E+08
 
   -0.47469E+08        -0.72759E+06         0.00000E+00
   -0.72759E+06        -0.59058E+08         0.00000E+00
    0.00000E+00         0.00000E+00        -0.37691E+08
 
   -0.46023E+08        -0.37582E+06         0.00000E+00
   -0.37582E+06        -0.58987E+08         0.00000E+00
    0.00000E+00         0.00000E+00        -0.37387E+08
 
   -0.44590E+08         0.32720E+05         0.00000E+00
    0.32720E+05        -0.59007E+08         0.00000E+00
    0.00000E+00         0.00000E+00        -0.37104E+08
 
   -0.43131E+08         0.51325E+06         0.00000E+00
    0.51325E+06        -0.59135E+08         0.00000E+00
    0.00000E+00         0.00000E+00        -0.36839E+08
 
   -0.41613E+08         0.10936E+07         0.00000E+00
    0.10936E+07        -0.59392E+08         0.00000E+00
    0.00000E+00         0.00000E+00        -0.36589E+08
 
   -0.40012E+08         0.18222E+07         0.00000E+00
    0.18222E+07        -0.59798E+08         0.00000E+00
    0.00000E+00         0.00000E+00        -0.36352E+08
 
   -0.38339E+08         0.27735E+07         0.00000E+00
    0.27735E+07        -0.60352E+08         0.00000E+00
    0.00000E+00         0.00000E+00        -0.36131E+08
 
   -0.36665E+08         0.40345E+07         0.00000E+00
    0.40345E+07        -0.61018E+08         0.00000E+00
    0.00000E+00         0.00000E+00        -0.35934E+08
 
   -0.62328E+08        -0.54864E+06         0.00000E+00
   -0.54864E+06        -0.60004E+08         0.00000E+00
    0.00000E+00         0.00000E+00        -0.39703E+08
 
   -0.59225E+08        -0.11566E+07         0.00000E+00
   -0.11566E+07        -0.59948E+08         0.00000E+00
    0.00000E+00         0.00000E+00        -0.39055E+08
 
   -0.56489E+08        -0.13346E+07         0.00000E+00
   -0.13346E+07        -0.59746E+08         0.00000E+00
    0.00000E+00         0.00000E+00        -0.38455E+08
 
   -0.54156E+08        -0.13085E+07         0.00000E+00
   -0.13085E+07        -0.59437E+08         0.00000E+00
    0.00000E+00         0.00000E+00        -0.37916E+08
 
   -0.52140E+08        -0.11900E+07         0.00000E+00
   -0.11900E+07        -0.59094E+08         0.00000E+00
    0.00000E+00         0.00000E+00        -0.37437E+08
 
   -0.50351E+08        -0.10211E+07         0.00000E+00
   -0.10211E+07        -0.58766E+08         0.00000E+00
    0.00000E+00         0.00000E+00        -0.37009E+08
 
   -0.48717E+08        -0.81751E+06         0.00000E+00
   -0.81751E+06        -0.58484E+08         0.00000E+00
    0.00000E+00         0.00000E+00        -0.36623E+08
 
   -0.47181E+08        -0.58417E+06         0.00000E+00
   -0.58417E+06        -0.58270E+08         0.00000E+00
    0.00000E+00         0.00000E+00        -0.36271E+08
 
   -0.45693E+08        -0.31957E+06         0.00000E+00
   -0.31957E+06        -0.58140E+08         0.00000E+00
    0.00000E+00         0.00000E+00        -0.35947E+08
 
   -0.44206E+08        -0.17144E+05         0.00000E+00
   -0.17144E+05        -0.58114E+08         0.00000E+00
    0.00000E+00         0.00000E+00        -0.35645E+08
 
   -0.42675E+08         0.33620E+06         0.00000E+00
    0.33620E+06        -0.58211E+08         0.00000E+00
    0.00000E+00         0.00000E+00        -0.35359E+08
 
   -0.41049E+08         0.76480E+06         0.00000E+00
    0.76480E+06        -0.58454E+08         0.00000E+00
    0.00000E+00         0.00000E+00        -0.35084E+08
 
   -0.39273E+08         0.13159E+07         0.00000E+00
    0.13159E+07        -0.58877E+08         0.00000E+00
    0.00000E+00         0.00000E+00        -0.34816E+08
 
   -0.37317E+08         0.20896E+07         0.00000E+00
    0.20896E+07        -0.59515E+08         0.00000E+00
    0.00000E+00         0.00000E+00        -0.34555E+08
 
   -0.35242E+08         0.32434E+07         0.00000E+00
    0.32434E+07        -0.60341E+08         0.00000E+00
    0.00000E+00         0.00000E+00        -0.34309E+08
 
   -0.63204E+08        -0.53292E+06         0.00000E+00
   -0.53292E+06        -0.59979E+08         0.00000E+00
    0.00000E+00         0.00000E+00        -0.38670E+08
 
   -0.59482E+08        -0.93022E+06         0.00000E+00
   -0.93022E+06        -0.59763E+08         0.00000E+00
    0.00000E+00         0.00000E+00        -0.37864E+08
 
   -0.56494E+08        -0.95414E+06         0.00000E+00
   -0.95414E+06        -0.59320E+08         0.00000E+00
    0.00000E+00         0.00000E+00        -0.37164E+08
 
   -0.54070E+08        -0.88587E+06         0.00000E+00
   -0.88587E+06        -0.58818E+08         0.00000E+00
    0.00000E+00         0.00000E+00        -0.36569E+08
 
   -0.52009E+08        -0.78347E+06         0.00000E+00
   -0.78347E+06        -0.58333E+08         0.00000E+00
    0.00000E+00         0.00000E+00        -0.36054E+08
 
   -0.50192E+08        -0.66262E+06         0.00000E+00
   -0.66262E+06        -0.57901E+08         0.00000E+00
    0.00000E+00         0.00000E+00        -0.35600E+08
 
   -0.48536E+08        -0.52788E+06         0.00000E+00
   -0.52788E+06        -0.57540E+08         0.00000E+00
    0.00000E+00         0.00000E+00        -0.35194E+08
 
   -0.46978E+08        -0.37939E+06         0.00000E+00
   -0.37939E+06        -0.57264E+08         0.00000E+00
    0.00000E+00         0.00000E+00        -0.34826E+08
 
   -0.45464E+08        -0.21480E+06         0.00000E+00
   -0.21480E+06        -0.57087E+08         0.00000E+00
    0.00000E+00         0.00000E+00        -0.34488E+08
 
   -0.43944E+08        -0.29294E+05         0.00000E+00
   -0.29294E+05        -0.57022E+08         0.00000E+00
    0.00000E+00         0.00000E+00        -0.34172E+08
 
   -0.42364E+08         0.18570E+06         0.00000E+00
    0.18570E+06        -0.57088E+08         0.00000E+00
    0.00000E+00         0.00000E+00        -0.33870E+08
 
   -0.40661E+08         0.44602E+06         0.00000E+00
    0.44602E+06        -0.57311E+08         0.00000E+00
    0.00000E+00         0.00000E+00        -0.33576E+08
 
   -0.38751E+08         0.78406E+06         0.00000E+00
    0.78406E+06        -0.57729E+08         0.00000E+00
    0.00000E+00         0.00000E+00        -0.33279E+08
 
   -0.36505E+08         0.12818E+07         0.00000E+00
    0.12818E+07        -0.58411E+08         0.00000E+00
    0.00000E+00         0.00000E+00        -0.32969E+08
 
   -0.33891E+08         0.22105E+07         0.00000E+00
    0.22105E+07        -0.59453E+08         0.00000E+00
    0.00000E+00         0.00000E+00        -0.32657E+08
 
   -0.63838E+08        -0.33589E+06         0.00000E+00
   -0.33589E+06        -0.59760E+08         0.00000E+00
    0.00000E+00         0.00000E+00        -0.37550E+08
 
   -0.59520E+08        -0.38461E+06         0.00000E+00
   -0.38461E+06        -0.59144E+08         0.00000E+00
    0.00000E+00         0.00000E+00        -0.36543E+08
 
   -0.56457E+08        -0.35264E+06         0.00000E+00
   -0.35264E+06        -0.58455E+08         0.00000E+00
    0.00000E+00         0.00000E+00        -0.35779E+08
 
   -0.54004E+08        -0.31568E+06         0.00000E+00
   -0.31568E+06        -0.57809E+08         0.00000E+00
    0.00000E+00         0.00000E+00        -0.35150E+08
 
   -0.51930E+08        -0.27435E+06         0.00000E+00
   -0.27435E+06        -0.57232E+08         0.00000E+00
    0.00000E+00         0.00000E+00        -0.34614E+08
 
   -0.50105E+08        -0.23005E+06         0.00000E+00
   -0.23005E+06        -0.56736E+08         0.00000E+00
    0.00000E+00         0.00000E+00        -0.34147E+08
 
   -0.48441E+08        -0.18268E+06         0.00000E+00
   -0.18268E+06        -0.56329E+08         0.00000E+00
    0.00000E+00         0.00000E+00        -0.33730E+08
 
   -0.46873E+08        -0.13162E+06         0.00000E+00
   -0.13162E+06        -0.56019E+08         0.00000E+00
    0.00000E+00         0.00000E+00        -0.33354E+08
 
   -0.45347E+08        -0.75727E+05         0.00000E+00
   -0.75727E+05        -0.55815E+08         0.00000E+00
    0.00000E+00         0.00000E+00        -0.33008E+08
 
   -0.43811E+08        -0.13254E+05         0.00000E+00
   -0.13254E+05        -0.55728E+08         0.00000E+00
    0.00000E+00         0.00000E+00        -0.32685E+08
 
   -0.42207E+08         0.58739E+05         0.00000E+00
    0.58739E+05        -0.55776E+08         0.00000E+00
    0.00000E+00         0.00000E+00        -0.32375E+08
 
   -0.40465E+08         0.14552E+06         0.00000E+00
    0.14552E+06        -0.55981E+08         0.00000E+00
    0.00000E+00         0.00000E+00        -0.32070E+08
 
   -0.38483E+08         0.25847E+06         0.00000E+00
    0.25847E+06        -0.56386E+08         0.00000E+00
    0.00000E+00         0.00000E+00        -0.31756E+08
 
   -0.36079E+08         0.42346E+06         0.00000E+00
    0.42346E+06        -0.57067E+08         0.00000E+00
    0.00000E+00         0.00000E+00        -0.31413E+08
 
   -0.32735E+08         0.81077E+06         0.00000E+00
    0.81077E+06        -0.58243E+08         0.00000E+00
    0.00000E+00         0.00000E+00        -0.30980E+08
 
SCALARS stressS double 
LOOKUP_TABLE default
  -57630561.9634075     
  -57366527.2536110     
  -57550153.3563376     
  -58270634.4152691     
  -59597026.7419207     
  -61195716.8273237     
  -62746895.6855857     
  -64051084.4177491     
  -65041092.5590085     
  -65870769.5128889     
  -66607625.0251160     
  -67293124.7672862     
  -67963762.1434877     
  -68666203.5851969     
  -69522493.5091778     
  -58070684.5945360     
  -58402970.2784182     
  -58793666.4542822     
  -59443851.4975565     
  -60355998.7582360     
  -61348801.7421329     
  -62347689.6338801     
  -63284624.4403820     
  -64167467.6424499     
  -64942834.7254463     
  -65643660.0169811     
  -66297031.2871365     
  -66927873.5386323     
  -67564799.1432249     
  -68182963.7713319     
  -58380728.7802182     
  -59167388.6853003     
  -59773973.7788403     
  -60201398.1480447     
  -60638216.1726018     
  -61193643.8830590     
  -61900431.2531699     
  -62663125.9655250     
  -63397815.8296403     
  -64087989.4153484     
  -64726678.2332328     
  -65324041.3881848     
  -65890728.1907267     
  -66426283.0930831     
  -66916500.1001610     
  -58635387.3035812     
  -59161392.7873323     
  -59539818.9937453     
  -59915802.8643558     
  -60354732.5556226     
  -60870225.8574103     
  -61449798.6760909     
  -62068316.2396838     
  -62689265.3699491     
  -63286587.3787109     
  -63851376.2710983     
  -64381038.1337909     
  -64874672.4064541     
  -65327047.9386304     
  -65724294.1443795     
  -58281289.5623976     
  -58721466.1172523     
  -59160736.4126274     
  -59568020.8083042     
  -59995647.2347025     
  -60460415.4434282     
  -60960667.8515059     
  -61482590.0839486     
  -62008396.8772879     
  -62521873.5992208     
  -63011943.5179236     
  -63472139.5855614     
  -63896952.4848002     
  -64279001.0728433     
  -64607428.8293018     
  -57966302.0279284     
  -58389553.7231566     
  -58791550.8993963     
  -59189993.8509807     
  -59592566.1221660     
  -60011378.7762466     
  -60447570.0582849     
  -60894944.9403329     
  -61343430.7799383     
  -61782527.6462901     
  -62203203.6828766     
  -62598114.4628926     
  -62960622.8663215     
  -63283475.1283012     
  -63558154.6693333     
  -57685585.1647394     
  -58067492.9120768     
  -58437939.5430722     
  -58802688.9318938     
  -59169377.6854794     
  -59542153.3230627     
  -59922258.3447210     
  -60306549.8070386     
  -60689106.4332752     
  -61062874.1524986     
  -61420858.9053801     
  -61756543.9361820     
  -62063701.8898130     
  -62336022.8736326     
  -62566983.7040633     
  -57422170.3189221     
  -57759577.5826189     
  -58088842.5672172     
  -58413896.1645089     
  -58738153.0835956     
  -59064089.4012170     
  -59391970.5278428     
  -59719897.5528626     
  -60044086.5704448     
  -60359664.8995827     
  -60661347.4665380     
  -60943823.1206037     
  -61201866.5996241     
  -61430347.1194525     
  -61624341.5355003     
  -57170677.6499878     
  -57459992.0433262     
  -57744417.5865890     
  -58025426.8989404     
  -58304715.5742216     
  -58583321.5147974     
  -58861191.7317741     
  -59136925.9010327     
  -59407937.0781320     
  -59670772.7084595     
  -59921495.1394270     
  -60155973.4080123     
  -60370070.5800059     
  -60559786.9694436     
  -60721447.7170651     
  -56925378.7847960     
  -57165884.3930772     
  -57403574.0747367     
  -57638659.9161849     
  -57871690.4425730     
  -58103011.2329405     
  -58332358.4809857     
  -58558685.5110111     
  -58780163.8495347     
  -58994334.0794671     
  -59198311.4617543     
  -59388990.8447943     
  -59563223.8965323     
  -59717984.1125275     
  -59850550.9214397     
  -56682817.9914465     
  -56875074.0611922     
  -57065609.1025364     
  -57254024.9869203     
  -57440349.2512122     
  -57624609.7544343     
  -57806536.0876130     
  -57985388.6265648     
  -58159918.0390063     
  -58328420.2425789     
  -58488851.1817538     
  -58638964.0837235     
  -58776450.9922846     
  -58899085.6414067     
  -59004874.0359679     
  -56441245.8751838     
  -56586412.1549250     
  -56730035.2359058     
  -56871640.2107462     
  -57011157.5678947     
  -57148612.2843374     
  -57283888.8517869     
  -57416586.4406872     
  -57545959.4981225     
  -57670930.1247768     
  -57790149.7229047     
  -57902089.0841682     
  -58005141.8817218     
  -58097733.5618846     
  -58178431.9241402     
  -56200407.0727050     
  -56299629.1005104     
  -56396726.7121375     
  -56491522.7369281     
  -56584172.3437136     
  -56674934.4902241     
  -56763993.0740960     
  -56851337.8097041     
  -56936705.4934030     
  -57019573.3728690     
  -57099192.0242219     
  -57174643.3827247     
  -57244912.5514724     
  -57308964.1828000     
  -57365816.6742608     
  -55961210.5071945     
  -56015208.5031563     
  -56065915.6174194     
  -56113719.4217592     
  -56159234.4383803     
  -56203135.6431083     
  -56246024.3997541     
  -56288335.9882792     
  -56330290.2077441     
  -56371880.4770448     
  -56412892.7394181     
  -56452944.0373921     
  -56491531.2124191     
  -56528080.8515488     
  -56561993.7519260     
  -55725434.4404375     
  -55734217.9280314     
  -55738137.7824272     
  -55738335.9989142     
  -55736058.0057343     
  -55732530.8717402     
  -55728865.2826670     
  -55725988.4749924     
  -55724609.5620543     
  -55725213.6822011     
  -55728077.9258850     
  -55733301.0704759     
  -55740837.5872700     
  -55750528.7720784     
  -55762123.9965585     
  -55495463.7829270     
  -55458133.9155442     
  -55414136.1895285     
  -55365505.8478360     
  -55314245.0480406     
  -55262232.2423382     
  -55211153.0769442     
  -55162457.8651533     
  -55117345.6136084     
  -55076770.9557089     
  -55041466.5122745     
  -55011972.9768207     
  -54988667.5797825     
  -54971783.3960081     
  -54961413.0192489     
  -55274062.1850255     
  -55188667.7272238     
  -55094739.8739047     
  -54995315.7298317     
  -54893248.7576880     
  -54791138.4353082     
  -54691285.0015219     
  -54595671.9943263     
  -54505974.0152664     
  -54423584.2289477     
  -54349653.2998872     
  -54285129.3672903     
  -54230790.0171832     
  -54187256.7995553     
  -54154985.4441960     
  -55064171.9966923     
  -54927594.2140719     
  -54780725.1539013     
  -54627699.6347874     
  -54472297.8392772     
  -54317885.6583270     
  -54167390.4182975     
  -54023311.3157252     
  -53887759.2156815     
  -53762515.4328345     
  -53649098.4673927     
  -53548826.1118051     
  -53462860.5693486     
  -53392224.8339569     
  -53337782.1857884     
  -54868735.1668486     
  -54676580.6432737     
  -54472659.3738576     
  -54262303.5698223     
  -54050287.1015534     
  -53840766.6004615     
  -53637277.5548285     
  -53442780.4109732     
  -53259745.2329582     
  -53090257.7933087     
  -52936130.1603362     
  -52798999.8328512     
  -52680399.0285127     
  -52581779.3634187     
  -52504481.7611794     
  -54690527.5844043     
  -54437008.4874130     
  -54170720.7562880     
  -53898316.8217739     
  -53625632.5191775     
  -53357618.3974394     
  -53098358.9739780     
  -52851169.8036462     
  -52618748.1219108     
  -52403350.0398858     
  -52206969.2604655     
  -52031491.1882880     
  -51878799.0261562     
  -51750812.8551127     
  -51649449.9629554     
  -54532001.7222553     
  -54209775.0054589     
  -53874479.1291626     
  -53534256.6685003     
  -53196082.8008981     
  -52865676.9052327     
  -52547556.9931363     
  -52245212.9250034     
  -51961357.6973653     
  -51698213.1784955     
  -51457788.3048754     
  -51242110.6879491     
  -51053383.6432059     
  -50894046.7844900     
  -50766726.1588884     
  -54395125.9675920     
  -53995053.8954598     
  -53582610.6280455     
  -53167680.8792037     
  -52758469.0834597     
  -52361390.6109130     
  -51981190.6369371     
  -51621243.1505502     
  -51283957.3902754     
  -50971222.5596578     
  -50684821.5608581     
  -50426766.8268187     
  -50199526.8721511     
  -50006120.3156182     
  -49850057.6119785     
  -54281211.3741010     
  -53791974.3934367     
  -53292497.3866988     
  -52794783.8138121     
  -52308366.4160580     
  -51840182.5562676     
  -51394843.5281817     
  -50975156.9648846     
  -50582772.3629939     
  -50218831.4387594     
  -49884549.2471534     
  -49581684.3783953     
  -49312869.3798131     
  -49081764.1663469     
  -48892996.1375114     
  -54190711.1679585     
  -53598152.4786731     
  -52999617.8056826     
  -52409808.4680134     
  -51839628.3859801     
  -51296148.4098598     
  -50783214.5807507     
  -50302394.4880921     
  -49853961.7625378     
  -49437767.2308597     
  -49053984.5817849     
  -48703752.6822377     
  -48389673.1715494     
  -48116095.3844755     
  -47889076.6162725     
  -54122901.3721924     
  -53408910.6495925     
  -52696575.9324482     
  -52004162.6400543     
  -51343759.0561130     
  -50721692.8578241     
  -50139968.1168964     
  -49597955.4695522     
  -49093774.0733130     
  -48625316.8671184     
  -48191095.7589792     
  -47791054.8989489     
  -47427389.2251869     
  -47105098.3852880     
  -46832112.3750808     
  -54075278.8322077     
  -53215788.4537787     
  -52371424.7360433     
  -51565096.9942236     
  -50809115.8949868     
  -50107159.2487150     
  -49457646.9598531     
  -48856485.1759909     
  -48298766.9237968     
  -47779705.4298268     
  -47295368.6962829     
  -46843669.3502924     
  -46425555.2330349     
  -46046446.7382024     
  -45716649.9353340     
  -54042312.2092988     
  -53003471.9027159     
  -52004607.9046187     
  -51073779.4242846     
  -50220085.2759066     
  -49440697.7726026     
  -48727782.1837612     
  -48072468.8356828     
  -47466049.2708337     
  -46900445.5116057     
  -46368532.6138532     
  -45864747.1847744     
  -45387402.8566871     
  -44940872.4779917     
  -44538801.7419127     
  -54011472.1133448     
  -52742695.8106205     
  -51563356.2587118     
  -50502983.8624921     
  -49557153.1185450     
  -48708743.2850648     
  -47941393.5839824     
  -47240562.9697795     
  -46593446.4089309     
  -45988476.8785548     
  -45414851.2731604     
  -44862419.1678176     
  -44322094.3450876     
  -43795633.2321058     
  -43297379.1175085     
  -53950852.0755732     
  -52369563.1569141     
  -50992517.1369949     
  -49818962.8525859     
  -48798717.7678751     
  -47897563.3937206     
  -47089944.8362093     
  -46356056.4096662     
  -45679526.1119847     
  -45045786.6451832     
  -44440696.6159646     
  -43849032.8502492     
  -43253176.9941560     
  -42628208.3452752     
  -42000188.5091978     
  -53715829.1521707     
  -51735739.4343078     
  -50230316.2072373     
  -48987788.7001239     
  -47925571.5830402     
  -46995690.5167473     
  -46166640.9239206     
  -45415391.1400668     
  -44723481.3049462     
  -44074591.2457505     
  -43452530.4652336     
  -42838841.1625043     
  -42208330.1534228     
  -41519744.2889906     
  -40652724.0597911     
SCALARS 2waySource double 
LOOKUP_TABLE default
  3.267284359324345E-005
  3.409337251089266E-005
  3.465537383089021E-005
  3.462204516370404E-005
  3.258278069664251E-005
  2.974390358592900E-005
  3.405144575899150E-005
  3.892429864329677E-005
  4.433948192875182E-005
  4.738444960188576E-005
  4.950751009799309E-005
  5.111847943104934E-005
  5.238924757705685E-005
  5.340333407054119E-005
  5.419830579600419E-005
  3.377496198367610E-005
  3.382674208290408E-005
  3.289300645725825E-005
  3.038124013352886E-005
  3.000364603148252E-005
  3.961981732727351E-005
  4.517663236860989E-005
  4.270241042751081E-005
  4.562825507967389E-005
  4.798098053501141E-005
  4.981564464823044E-005
  5.128282346218704E-005
  5.247977136806742E-005
  5.345956148682720E-005
  5.424840514443793E-005
  3.277720393325006E-005
  2.987684254532609E-005
  3.406947805116032E-005
  3.971433652898334E-005
  4.898958504636273E-005
  4.945223393162844E-005
  4.598703883009970E-005
  4.637619653094124E-005
  4.718515993723922E-005
  4.876167371869009E-005
  5.021708080346239E-005
  5.148782718303483E-005
  5.257955219053331E-005
  5.351134616223423E-005
  5.429600927204580E-005
  4.155444884160084E-005
  4.776227360724149E-005
  5.138159448193917E-005
  5.022973712470212E-005
  4.811405669419197E-005
  4.890639532997277E-005
  4.815044494534510E-005
  4.789830182417716E-005
  4.853080023749707E-005
  4.948757945330052E-005
  5.059877720795090E-005
  5.166486055240914E-005
  5.264129600542040E-005
  5.351829727302513E-005
  5.429809153592581E-005
  5.155126842911964E-005
  4.911936565399400E-005
  4.979541625688705E-005
  4.975310994026156E-005
  4.912571394810003E-005
  4.887471316516904E-005
  4.884370775350062E-005
  4.889313284686477E-005
  4.929763649626239E-005
  5.001051327525760E-005
  5.086048919898946E-005
  5.175081906758677E-005
  5.261726354109686E-005
  5.343774036739899E-005
  5.420811648960615E-005
  4.966035232479759E-005
  4.927290639588247E-005
  4.912510989931810E-005
  4.921647320676866E-005
  4.911329390585677E-005
  4.904012646126376E-005
  4.909002476274392E-005
  4.929440874354557E-005
  4.967763485923175E-005
  5.024497535171897E-005
  5.093991339019845E-005
  5.169467641819749E-005
  5.246612643080985E-005
  5.323116986735616E-005
  5.398451335423232E-005
  4.817319366535174E-005
  4.840063643755980E-005
  4.854091032521483E-005
  4.867464063299564E-005
  4.879250003885684E-005
  4.890010556896545E-005
  4.906585502795823E-005
  4.932896430296366E-005
  4.971138721664845E-005
  5.021115590926159E-005
  5.080628014330711E-005
  5.146422608570652E-005
  5.215692326044450E-005
  5.286863506812985E-005
  5.359581399048298E-005
  4.683496594533815E-005
  4.737566071379097E-005
  4.775049180594606E-005
  4.804389218466212E-005
  4.829131185887146E-005
  4.852512304395674E-005
  4.877920886236008E-005
  4.908721443253228E-005
  4.946854129408672E-005
  4.992816249380340E-005
  5.045809299514914E-005
  5.104371698634980E-005
  5.167073805680014E-005
  5.233044319840999E-005
  5.302226453469679E-005
  4.558147532168533E-005
  4.631300640181257E-005
  4.686073925889288E-005
  4.728807168296901E-005
  4.764310060581531E-005
  4.796189004848376E-005
  4.827663056617967E-005
  4.861393054300867E-005
  4.899271777739180E-005
  4.942206292079842E-005
  4.990267523228138E-005
  5.043015223771236E-005
  5.099911103118059E-005
  5.160667352885481E-005
  5.225474530253244E-005
  4.440051172110246E-005
  4.525317166254774E-005
  4.591390513915683E-005
  4.643710045453009E-005
  4.686783227487842E-005
  4.724320812151555E-005
  4.759387092224024E-005
  4.794482765926243E-005
  4.831462352213088E-005
  4.871509007375380E-005
  4.915207077725743E-005
  4.962740805101064E-005
  5.014141377936568E-005
  5.069518705515360E-005
  5.129233268149654E-005
  4.329395298015090E-005
  4.421149012587052E-005
  4.493630363838800E-005
  4.551526224007132E-005
  4.598951606497494E-005
  4.639416331366537E-005
  4.675870297342764E-005
  4.710724828271413E-005
  4.745857471159840E-005
  4.782622910446660E-005
  4.821920067201262E-005
  4.864314527553830E-005
  4.910194675449785E-005
  4.959923298981865E-005
  5.013956441058773E-005
  4.226156395562350E-005
  4.319743519086702E-005
  4.394384594893224E-005
  4.454173505538912E-005
  4.502822246047645E-005
  4.543597396492096E-005
  4.579302084060635E-005
  4.612279042547440E-005
  4.644418875922211E-005
  4.677185192095449E-005
  4.711667009503813E-005
  4.748661764249024E-005
  4.788775896610394E-005
  4.832523740466778E-005
  4.880405462236416E-005
  4.130206731476919E-005
  4.221672924294881E-005
  4.294754667746208E-005
  4.353078521696729E-005
  4.400011081960907E-005
  4.438582260172903E-005
  4.471447772322162E-005
  4.500875973463025E-005
  4.528752108571929E-005
  4.556599035138379E-005
  4.585616957926210E-005
  4.616740273394505E-005
  4.650704056555686E-005
  4.688108183486657E-005
  4.729466537061584E-005
  4.041424376195581E-005
  4.127326462063856E-005
  4.195532141739499E-005
  4.249320258228880E-005
  4.291780769473405E-005
  4.325740567000471E-005
  4.353719304399942E-005
  4.377908851996023E-005
  4.400171248982418E-005
  4.422052726848430E-005
  4.444811993537026E-005
  4.469459614234464E-005
  4.496802523034416E-005
  4.527485617502703E-005
  4.562021770666521E-005
  3.959766314874464E-005
  4.037007491281103E-005
  4.097313239968552E-005
  4.143718628477704E-005
  4.179106896514149E-005
  4.206143032989511E-005
  4.227230200966607E-005
  4.244486435367520E-005
  4.259738644103659E-005
  4.274531109703053E-005
  4.290145600877472E-005
  4.307629291789302E-005
  4.327825423365515E-005
  4.351400629891362E-005
  4.378862682389630E-005
  3.885289033070551E-005
  3.950985744296030E-005
  4.000561485280544E-005
  4.036895323953921E-005
  4.062728101408782E-005
  4.080604847425461E-005
  4.092834689185754E-005
  4.101468037861345E-005
  4.108289395173252E-005
  4.114823239354577E-005
  4.122349727768778E-005
  4.131926239752758E-005
  4.144410125006033E-005
  4.160477668759536E-005
  4.180634447032965E-005
  3.818140531528868E-005
  3.869515268548304E-005
  3.905638868751898E-005
  3.929308135665518E-005
  3.943178799662667E-005
  3.949715239230242E-005
  3.951154605789150E-005
  3.949486562729662E-005
  3.946447771241781E-005
  3.943528632187694E-005
  3.941988684909904E-005
  3.942876408836201E-005
  3.947048900936332E-005
  3.955186970378318E-005
  3.967801623284998E-005
  3.758536932234786E-005
  3.792830391526883E-005
  3.812813203508540E-005
  3.821263763969335E-005
  3.820803896114121E-005
  3.813852781556170E-005
  3.802594713881484E-005
  3.788962946927408E-005
  3.774638967418374E-005
  3.761064160384896E-005
  3.749459429911021E-005
  3.740847854827858E-005
  3.736075614594742E-005
  3.735826908926028E-005
  3.740629250577085E-005
  3.706731323283300E-005
  3.721126517777135E-005
  3.722246775063590E-005
  3.712911443975447E-005
  3.695756147449780E-005
  3.673186329879463E-005
  3.647347281582570E-005
  3.620113859146058E-005
  3.593098579810918E-005
  3.567673390831807E-005
  3.544998863127268E-005
  3.526054596614257E-005
  3.511665540861239E-005
  3.502520002384131E-005
  3.499175960229373E-005
  3.662978616756494E-005
  3.654529088618307E-005
  3.633967999429653E-005
  3.604217613046734E-005
  3.567975525469548E-005
  3.527661152400815E-005
  3.485386361177807E-005
  3.442954186935535E-005
  3.401881984512035E-005
  3.363440588859394E-005
  3.328699833756165E-005
  3.298572164836451E-005
  3.273848441811848E-005
  3.255222012285474E-005
  3.243298058097223E-005
  3.627498281352947E-005
  3.593050807302255E-005
  3.547824247266251E-005
  3.494918629781904E-005
  3.437147743921323E-005
  3.376968641374097E-005
  3.316451895612490E-005
  3.257296026712624E-005
  3.200876383124626E-005
  3.148312538313300E-005
  3.100538878145587E-005
  3.058367422346750E-005
  3.022536928262460E-005
  2.993745598629026E-005
  2.972665502970396E-005
  3.600435692867736E-005
  3.536533575296864E-005
  3.463409001505027E-005
  3.384443836867874E-005
  3.302635854745009E-005
  3.220496586627833E-005
  3.140023815238590E-005
  3.062746754392946E-005
  2.989819500127536E-005
  2.922132768233840E-005
  2.860420341409103E-005
  2.805347099519770E-005
  2.757574160093286E-005
  2.717802059184174E-005
  2.686792514814538E-005
  3.581821659586314E-005
  3.484565643228792E-005
  3.379948159291915E-005
  3.271793751717235E-005
  3.163374514704541E-005
  3.057256101994962E-005
  2.955287533010040E-005
  2.858710669748283E-005
  2.768330804376754E-005
  2.684694545319763E-005
  2.608243514010332E-005
  2.539431673348481E-005
  2.478807465478438E-005
  2.427067152287338E-005
  2.385087559644405E-005
  3.571527078772113E-005
  3.436352544816552E-005
  3.296114158968339E-005
  3.155345818935377E-005
  3.017711965693734E-005
  2.885783159395491E-005
  2.761096443511277E-005
  2.644402169615461E-005
  2.535963090143084E-005
  2.435820687467393E-005
  2.344001312344016E-005
  2.260664402903071E-005
  2.186197828944714E-005
  2.121281091811959E-005
  2.066930262353231E-005
  3.569203911844115E-005
  3.390491812430884E-005
  3.209703148947256E-005
  3.032540107888774E-005
  2.863184487087247E-005
  2.704023489108428E-005
  2.555947219517023E-005
  2.418882977376179E-005
  2.292282710964445E-005
  2.175477076663968E-005
  2.067921826988463E-005
  1.969368455000502E-005
  1.879983098713992E-005
  1.800398777797727E-005
  1.731789552791145E-005
  3.574181935203151E-005
  3.344530079136347E-005
  3.117032837218699E-005
  2.899372544414504E-005
  2.696230449890690E-005
  2.509241833998896E-005
  2.338004036437618E-005
  2.181138179575515E-005
  2.036978432770941E-005
  1.903922600058983E-005
  1.780658217376188E-005
  1.666381004890439E-005
  1.560916867312951E-005
  1.464830932194525E-005
  1.379407284828265E-005
  3.585249382870775E-005
  3.293933709777243E-005
  3.011759197778649E-005
  2.749633350721052E-005
  2.511947431133766E-005
  2.298078394581868E-005
  2.105221566400759E-005
  1.930199989964885E-005
  1.769981124687899E-005
  1.621858147438045E-005
  1.483549455383206E-005
  1.353366692484618E-005
  1.230690569831995E-005
  1.115800695948790E-005
  1.010146512185756E-005
  3.599748143148652E-005
  3.229429811492394E-005
  2.882468053121912E-005
  2.574110214480128E-005
  2.304371212028429E-005
  2.066889110245540E-005
  1.855610706880524E-005
  1.665307871056599E-005
  1.491547500679200E-005
  1.330499277214224E-005
  1.178785515352182E-005
  1.033479970829568E-005
  8.924022870972722E-006
  7.562825309717277E-006
  6.255261947596496E-006
  3.610379589131175E-005
  3.127836403357647E-005
  2.709083585672276E-005
  2.362133260610445E-005
  2.067539169168023E-005
  1.812457423804524E-005
  1.587616876845571E-005
  1.386067483039604E-005
  1.202256871044141E-005
  1.031445283067679E-005
  8.692754901688734E-006
  7.114171652418822E-006
  5.533821170392897E-006
  3.907632033504113E-006
  2.310423269547939E-006
  3.564987242868980E-005
  2.931302808676083E-005
  2.472730663282945E-005
  2.105007958695359E-005
  1.797368366294211E-005
  1.532831472745544E-005
  1.300497105563092E-005
  1.092555834864032E-005
  9.029026845777487E-006
  7.263266380175731E-006
  5.579098814007416E-006
  3.924108388553166E-006
  2.233873185805324E-006
  4.133925366846714E-007
 -1.675212618632830E-006
SCALARS poroP double 
LOOKUP_TABLE default
  7.045268865898678E-005
  6.233979053185845E-005
  5.030920948171107E-005
  3.838172577520470E-005
  2.939847922903989E-005
  2.279292391426094E-005
  1.819386112644942E-005
  1.732776960246050E-005
  1.731076520151842E-005
  1.729230094343645E-005
  1.727243843280273E-005
  1.725124919852403E-005
  1.722881523673263E-005
  1.720522945397869E-005
  1.718059601473932E-005
  5.062379892665346E-005
  4.065682096189225E-005
  3.228387777371702E-005
  2.609848947797218E-005
  2.113175353232717E-005
  1.783956062521491E-005
  1.734293383106699E-005
  1.732748157700446E-005
  1.731052767776488E-005
  1.729212489095388E-005
  1.727233505544657E-005
  1.725122963149731E-005
  1.722889030169529E-005
  1.720540943930458E-005
  1.718089042027284E-005
  3.103933343267087E-005
  2.327420402387400E-005
  1.934992164320885E-005
  1.757968209856888E-005
  1.736839314528279E-005
  1.735611643306814E-005
  1.734227395957648E-005
  1.732690440112980E-005
  1.731005372312399E-005
  1.729177574520774E-005
  1.727213268821695E-005
  1.725119578615411E-005
  1.722904608082969E-005
  1.720577490468536E-005
  1.718148399693912E-005
  1.904586381671383E-005
  1.739423066658598E-005
  1.738685032032934E-005
  1.737783617481989E-005
  1.736721431748692E-005
  1.735501534927856E-005
  1.734127523926923E-005
  1.732603588279506E-005
  1.730934555401326E-005
  1.729125939015199E-005
  1.727183998592458E-005
  1.725115815638489E-005
  1.722929387658806E-005
  1.720633668022162E-005
  1.718238614149260E-005
  1.739810717356002E-005
  1.739241740497457E-005
  1.738508438953668E-005
  1.737613536115954E-005
  1.736560147618644E-005
  1.735351850842425E-005
  1.733992708899483E-005
  1.732487282874761E-005
  1.730840652386567E-005
  1.729058458461625E-005
  1.727146972970051E-005
  1.725113213278351E-005
  1.722965000971658E-005
  1.720711052179841E-005
  1.718361088667933E-005
  1.739566429150086E-005
  1.739003031793998E-005
  1.738277268227056E-005
  1.737392336013022E-005
  1.736351910606596E-005
  1.735160130526014E-005
  1.733821550077313E-005
  1.732341102462407E-005
  1.730724097827472E-005
  1.728976266035305E-005
  1.727103843161973E-005
  1.725113711602510E-005
  1.723013510956856E-005
  1.720811697307640E-005
  1.718517674260472E-005
  1.739253150736392E-005
  1.738698546266049E-005
  1.737984325743164E-005
  1.737114147780310E-005
  1.736092242803901E-005
  1.734923289564565E-005
  1.733612293586830E-005
  1.732164501275364E-005
  1.730585381761524E-005
  1.728880681409097E-005
  1.727056539837374E-005
  1.725119655426382E-005
  1.723077431963157E-005
  1.720938058739597E-005
  1.718710629390272E-005
  1.738859183465296E-005
  1.738317909346732E-005
  1.737620777523983E-005
  1.736771812479004E-005
  1.735775711640697E-005
  1.734637592579379E-005
  1.733362793085369E-005
  1.731956749007381E-005
  1.730424970682053E-005
  1.728773116695745E-005
  1.727007174704505E-005
  1.725133620906568E-005
  1.723159559853593E-005
  1.721092941341478E-005
  1.718942614279908E-005
  1.738370416376670E-005
  1.737848679525585E-005
  1.737176089997776E-005
  1.736356838193474E-005
  1.735395887585315E-005
  1.734298593174287E-005
  1.733070421041164E-005
  1.731716807727079E-005
  1.730243151378266E-005
  1.728654914926533E-005
  1.726957851136757E-005
  1.725158204156885E-005
  1.723262826414433E-005
  1.721279435162610E-005
  1.719216682491422E-005
  1.737770274181692E-005
  1.737276316598100E-005
  1.736638004438702E-005
  1.735859358561748E-005
  1.734945272653299E-005
  1.733901018879522E-005
  1.732731903754462E-005
  1.731443122578340E-005
  1.730039785276501E-005
  1.728527073198782E-005
  1.726910460840699E-005
  1.725195937052054E-005
  1.723390199060544E-005
  1.721500811932958E-005
  1.719536249883226E-005
  1.737039793922833E-005
  1.736584239310107E-005
  1.735992555223736E-005
  1.735268090406919E-005
  1.734415180926875E-005
  1.733438571855855E-005
  1.732343047835686E-005
  1.731133294792597E-005
  1.729813966200811E-005
  1.728389888578906E-005
  1.726866290573426E-005
  1.725248979649902E-005
  1.723544556383765E-005
  1.721760474600484E-005
  1.719905067898157E-005
  1.736157902680354E-005
  1.735754016514210E-005
  1.735224143946899E-005
  1.734570276020955E-005
  1.733795544543402E-005
  1.732903614042570E-005
  1.731898330823410E-005
  1.730783613346019E-005
  1.729563535684918E-005
  1.728242566695687E-005
  1.726825777575319E-005
  1.725318906653033E-005
  1.723728459175793E-005
  1.722061797085499E-005
  1.720327172284238E-005
  1.735101985623758E-005
  1.734765740745982E-005
  1.734315682240494E-005
  1.733751595389222E-005
  1.733074621263878E-005
  1.732286711740478E-005
  1.731390342945790E-005
  1.730388450824033E-005
  1.729284505533331E-005
  1.728082708471688E-005
  1.726788080724852E-005
  1.725406331194145E-005
  1.723943913975010E-005
  1.722408082744865E-005
  1.720806879361573E-005
  1.733848845948339E-005
  1.733598638919421E-005
  1.733248821140336E-005
  1.732796039392116E-005
  1.732238581854782E-005
  1.731576026030154E-005
  1.730809077587803E-005
  1.729939542532891E-005
  1.728970372926881E-005
  1.727905687797633E-005
  1.726750528891594E-005
  1.725510614319598E-005
  1.724192305119879E-005
  1.722802499634423E-005
  1.721348696343012E-005
  1.732376152204332E-005
  1.732231983011874E-005
  1.732004300501121E-005
  1.731685765711132E-005
  1.731270992477240E-005
  1.730756560919268E-005
  1.730141074536148E-005
  1.729425152476632E-005
  1.728611395811050E-005
  1.727704055215563E-005
  1.726708247769207E-005
  1.725629635342372E-005
  1.724474183032624E-005
  1.723247905559347E-005
  1.721957153574087E-005
  1.730664393418530E-005
  1.730646354853400E-005
  1.730562493781221E-005
  1.730401012956256E-005
  1.730152267521235E-005
  1.729809345677925E-005
  1.729368499062549E-005
  1.728829203129872E-005
  1.728193917337963E-005
  1.727467055248101E-005
  1.726653795081467E-005
  1.725759487636657E-005
  1.724789004878138E-005
  1.723746597789375E-005
  1.722636548078570E-005
  1.728699331790635E-005
  1.728825278438864E-005
  1.728904257869270E-005
  1.728920238418957E-005
  1.728859249151698E-005
  1.728710685272959E-005
  1.728468293150018E-005
  1.728130489851572E-005
  1.727699628519267E-005
  1.727180102251241E-005
  1.726576849937006E-005
  1.725894183288068E-005
  1.725134785462248E-005
  1.724299900963846E-005
  1.723390547173691E-005
  1.726474762640838E-005
  1.726757269789337E-005
  1.727012240463243E-005
  1.727220718330306E-005
  1.727365179624874E-005
  1.727431677726259E-005
  1.727411552590252E-005
  1.727302123668090E-005
  1.727105183299821E-005
  1.726824493598149E-005
  1.726463883635044E-005
  1.726025226187554E-005
  1.725507506847645E-005
  1.724907503526106E-005
  1.724221656271211E-005
  1.723995136543586E-005
  1.724438139742583E-005
  1.724872848306982E-005
  1.725279957923738E-005
  1.725640450263209E-005
  1.725938390125483E-005
  1.726163385187393E-005
  1.726311236628066E-005
  1.726381937068795E-005
  1.726377176982647E-005
  1.726297702199311E-005
  1.726140849689962E-005
  1.725900146597942E-005
  1.725566509846401E-005
  1.725130591563584E-005
  1.721277359932170E-005
  1.721873201058591E-005
  1.722478733171113E-005
  1.723078136819235E-005
  1.723654661953018E-005
  1.724193408286036E-005
  1.724683770865615E-005
  1.725119298158547E-005
  1.725495985239342E-005
  1.725810342282151E-005
  1.726056511767107E-005
  1.726224666800557E-005
  1.726301229250554E-005
  1.726270257294116E-005
  1.726115655398609E-005
  1.718350859997149E-005
  1.719078476302158E-005
  1.719831230247559E-005
  1.720601559066136E-005
  1.721380494397005E-005
  1.722159386189125E-005
  1.722930216624355E-005
  1.723683765453051E-005
  1.724408565921720E-005
  1.725090432475937E-005
  1.725712016594031E-005
  1.726253437428417E-005
  1.726692844607365E-005
  1.727006956368623E-005
  1.727172179016128E-005
  1.715255558233270E-005
  1.716080178831689E-005
  1.716941660830321E-005
  1.717846325271182E-005
  1.718799431443370E-005
  1.719805484949620E-005
  1.720863496243378E-005
  1.721961645969157E-005
  1.723076440437494E-005
  1.724176040284388E-005
  1.725226112085197E-005
  1.726193810428864E-005
  1.727048114980826E-005
  1.727758200936562E-005
  1.728292168564959E-005
  1.712038002681878E-005
  1.712911821232637E-005
  1.713831296330068E-005
  1.714821216644052E-005
  1.715908394934473E-005
  1.717117140840328E-005
  1.718457613932150E-005
  1.719915641649877E-005
  1.721452557347499E-005
  1.723014643202012E-005
  1.724546237926939E-005
  1.725998114462852E-005
  1.727328270138626E-005
  1.728497401161329E-005
  1.729463806252437E-005
  1.708744580053931E-005
  1.709609277521292E-005
  1.710527954021495E-005
  1.711548964057580E-005
  1.712727057666875E-005
  1.714108720056950E-005
  1.715713164195934E-005
  1.717522953266388E-005
  1.719488536647234E-005
  1.721539801228547E-005
  1.723600162819218E-005
  1.725599389544813E-005
  1.727478945550723E-005
  1.729187376773096E-005
  1.730670768866605E-005
  1.705411849115876E-005
  1.706201426338181E-005
  1.707060195934730E-005
  1.708066506047922E-005
  1.709304843883160E-005
  1.710834054028697E-005
  1.712668131233196E-005
  1.714786408690284E-005
  1.717143959159955E-005
  1.719674601292714E-005
  1.722292996273373E-005
  1.724904971271474E-005
  1.727423768646163E-005
  1.729775870936966E-005
  1.731891040122419E-005
  1.702072339474908E-005
  1.702704920324463E-005
  1.703452761919421E-005
  1.704428537307813E-005
  1.705726732143084E-005
  1.707384150982248E-005
  1.709395394598570E-005
  1.711743391102763E-005
  1.714407024380477E-005
  1.717351455991876E-005
  1.720512482330097E-005
  1.723788082354788E-005
  1.727052576573480E-005
  1.730188221420620E-005
  1.733094141451588E-005
  1.698745492074543E-005
  1.699128752052816E-005
  1.699743825168418E-005
  1.700724847495146E-005
  1.702104074728062E-005
  1.703862241174149E-005
  1.705983508735480E-005
  1.708465867654222E-005
  1.711319183106302E-005
  1.714553868178465E-005
  1.718161400037801E-005
  1.722086976515006E-005
  1.726199828563126E-005
  1.730306504012750E-005
  1.734236884165617E-005
  1.695427316682586E-005
  1.695488341577014E-005
  1.696041014996091E-005
  1.697083586014260E-005
  1.698534280162420E-005
  1.700346993461176E-005
  1.702512988351912E-005
  1.705047199124639E-005
  1.707980085267472E-005
  1.711357457564990E-005
  1.715235651536939E-005
  1.719659563362879E-005
  1.724615622860970E-005
  1.729927417470965E-005
  1.735241980307616E-005
  1.692066980466462E-005
  1.691946825451033E-005
  1.692532346222258E-005
  1.693594522482945E-005
  1.695057223510006E-005
  1.696877412645089E-005
  1.699045936377241E-005
  1.701580263670243E-005
  1.704518236893278E-005
  1.707921871799554E-005
  1.711886540278149E-005
  1.716545385194188E-005
  1.722062620705448E-005
  1.728604597144151E-005
  1.735927201708890E-005
  1.689180333519977E-005
  1.688859004719328E-005
  1.689270765048072E-005
  1.690252519054997E-005
  1.691675257394180E-005
  1.693475347960539E-005
  1.695627530417548E-005
  1.698138976581903E-005
  1.701047420662652E-005
  1.704421369290617E-005
  1.708364972913402E-005
  1.713042903416215E-005
  1.718729816800675E-005
  1.725903281179834E-005
  1.735612347373390E-005
SCALARS elementIsPlast double 
LOOKUP_TABLE default
   1.00000000000000     
   1.00000000000000     
   1.00000000000000     
   1.00000000000000     
   1.00000000000000     
   1.00000000000000     
   1.00000000000000     
  0.000000000000000E+000
  0.000000000000000E+000
  0.000000000000000E+000
  0.000000000000000E+000
  0.000000000000000E+000
  0.000000000000000E+000
  0.000000000000000E+000
  0.000000000000000E+000
   1.00000000000000     
   1.00000000000000     
   1.00000000000000     
   1.00000000000000     
   1.00000000000000     
   1.00000000000000     
  0.000000000000000E+000
  0.000000000000000E+000
  0.000000000000000E+000
  0.000000000000000E+000
  0.000000000000000E+000
  0.000000000000000E+000
  0.000000000000000E+000
  0.000000000000000E+000
  0.000000000000000E+000
   1.00000000000000     
   1.00000000000000     
   1.00000000000000     
   1.00000000000000     
  0.000000000000000E+000
  0.000000000000000E+000
  0.000000000000000E+000
  0.000000000000000E+000
  0.000000000000000E+000
  0.000000000000000E+000
  0.000000000000000E+000
  0.000000000000000E+000
  0.000000000000000E+000
  0.000000000000000E+000
  0.000000000000000E+000
   1.00000000000000     
  0.000000000000000E+000
  0.000000000000000E+000
  0.000000000000000E+000
  0.000000000000000E+000
  0.000000000000000E+000
  0.000000000000000E+000
  0.000000000000000E+000
  0.000000000000000E+000
  0.000000000000000E+000
  0.000000000000000E+000
  0.000000000000000E+000
  0.000000000000000E+000
  0.000000000000000E+000
  0.000000000000000E+000
  0.000000000000000E+000
  0.000000000000000E+000
  0.000000000000000E+000
  0.000000000000000E+000
  0.000000000000000E+000
  0.000000000000000E+000
  0.000000000000000E+000
  0.000000000000000E+000
  0.000000000000000E+000
  0.000000000000000E+000
  0.000000000000000E+000
  0.000000000000000E+000
  0.000000000000000E+000
  0.000000000000000E+000
  0.000000000000000E+000
  0.000000000000000E+000
  0.000000000000000E+000
  0.000000000000000E+000
  0.000000000000000E+000
  0.000000000000000E+000
  0.000000000000000E+000
  0.000000000000000E+000
  0.000000000000000E+000
  0.000000000000000E+000
  0.000000000000000E+000
  0.000000000000000E+000
  0.000000000000000E+000
  0.000000000000000E+000
  0.000000000000000E+000
  0.000000000000000E+000
  0.000000000000000E+000
  0.000000000000000E+000
  0.000000000000000E+000
  0.000000000000000E+000
  0.000000000000000E+000
  0.000000000000000E+000
  0.000000000000000E+000
  0.000000000000000E+000
  0.000000000000000E+000
  0.000000000000000E+000
  0.000000000000000E+000
  0.000000000000000E+000
  0.000000000000000E+000
  0.000000000000000E+000
  0.000000000000000E+000
  0.000000000000000E+000
  0.000000000000000E+000
  0.000000000000000E+000
  0.000000000000000E+000
  0.000000000000000E+000
  0.000000000000000E+000
  0.000000000000000E+000
  0.000000000000000E+000
  0.000000000000000E+000
  0.000000000000000E+000
  0.000000000000000E+000
  0.000000000000000E+000
  0.000000000000000E+000
  0.000000000000000E+000
  0.000000000000000E+000
  0.000000000000000E+000
  0.000000000000000E+000
  0.000000000000000E+000
  0.000000000000000E+000
  0.000000000000000E+000
  0.000000000000000E+000
  0.000000000000000E+000
  0.000000000000000E+000
  0.000000000000000E+000
  0.000000000000000E+000
  0.000000000000000E+000
  0.000000000000000E+000
  0.000000000000000E+000
  0.000000000000000E+000
  0.000000000000000E+000
  0.000000000000000E+000
  0.000000000000000E+000
  0.000000000000000E+000
  0.000000000000000E+000
  0.000000000000000E+000
  0.000000000000000E+000
  0.000000000000000E+000
  0.000000000000000E+000
  0.000000000000000E+000
  0.000000000000000E+000
  0.000000000000000E+000
  0.000000000000000E+000
  0.000000000000000E+000
  0.000000000000000E+000
  0.000000000000000E+000
  0.000000000000000E+000
  0.000000000000000E+000
  0.000000000000000E+000
  0.000000000000000E+000
  0.000000000000000E+000
  0.000000000000000E+000
  0.000000000000000E+000
  0.000000000000000E+000
  0.000000000000000E+000
  0.000000000000000E+000
  0.000000000000000E+000
  0.000000000000000E+000
  0.000000000000000E+000
  0.000000000000000E+000
  0.000000000000000E+000
  0.000000000000000E+000
  0.000000000000000E+000
  0.000000000000000E+000
  0.000000000000000E+000
  0.000000000000000E+000
  0.000000000000000E+000
  0.000000000000000E+000
  0.000000000000000E+000
  0.000000000000000E+000
  0.000000000000000E+000
  0.000000000000000E+000
  0.000000000000000E+000
  0.000000000000000E+000
  0.000000000000000E+000
  0.000000000000000E+000
  0.000000000000000E+000
  0.000000000000000E+000
  0.000000000000000E+000
  0.000000000000000E+000
  0.000000000000000E+000
  0.000000000000000E+000
  0.000000000000000E+000
  0.000000000000000E+000
  0.000000000000000E+000
  0.000000000000000E+000
  0.000000000000000E+000
  0.000000000000000E+000
  0.000000000000000E+000
  0.000000000000000E+000
  0.000000000000000E+000
  0.000000000000000E+000
  0.000000000000000E+000
  0.000000000000000E+000
  0.000000000000000E+000
  0.000000000000000E+000
  0.000000000000000E+000
  0.000000000000000E+000
  0.000000000000000E+000
  0.000000000000000E+000
  0.000000000000000E+000
  0.000000000000000E+000
  0.000000000000000E+000
  0.000000000000000E+000
  0.000000000000000E+000
  0.000000000000000E+000
  0.000000000000000E+000
  0.000000000000000E+000
  0.000000000000000E+000
  0.000000000000000E+000
  0.000000000000000E+000
  0.000000000000000E+000
  0.000000000000000E+000
  0.000000000000000E+000
  0.000000000000000E+000
  0.000000000000000E+000
  0.000000000000000E+000
  0.000000000000000E+000
  0.000000000000000E+000
  0.000000000000000E+000
  0.000000000000000E+000
  0.000000000000000E+000
  0.000000000000000E+000
  0.000000000000000E+000
  0.000000000000000E+000
  0.000000000000000E+000
  0.000000000000000E+000
  0.000000000000000E+000
  0.000000000000000E+000
  0.000000000000000E+000
  0.000000000000000E+000
  0.000000000000000E+000
  0.000000000000000E+000
  0.000000000000000E+000
  0.000000000000000E+000
  0.000000000000000E+000
  0.000000000000000E+000
  0.000000000000000E+000
  0.000000000000000E+000
  0.000000000000000E+000
  0.000000000000000E+000
  0.000000000000000E+000
  0.000000000000000E+000
  0.000000000000000E+000
  0.000000000000000E+000
  0.000000000000000E+000
  0.000000000000000E+000
  0.000000000000000E+000
  0.000000000000000E+000
  0.000000000000000E+000
  0.000000000000000E+000
  0.000000000000000E+000
  0.000000000000000E+000
  0.000000000000000E+000
  0.000000000000000E+000
  0.000000000000000E+000
  0.000000000000000E+000
  0.000000000000000E+000
  0.000000000000000E+000
  0.000000000000000E+000
  0.000000000000000E+000
  0.000000000000000E+000
  0.000000000000000E+000
  0.000000000000000E+000
  0.000000000000000E+000
  0.000000000000000E+000
  0.000000000000000E+000
  0.000000000000000E+000
  0.000000000000000E+000
  0.000000000000000E+000
  0.000000000000000E+000
  0.000000000000000E+000
  0.000000000000000E+000
  0.000000000000000E+000
  0.000000000000000E+000
  0.000000000000000E+000
  0.000000000000000E+000
  0.000000000000000E+000
  0.000000000000000E+000
  0.000000000000000E+000
  0.000000000000000E+000
  0.000000000000000E+000
  0.000000000000000E+000
  0.000000000000000E+000
  0.000000000000000E+000
  0.000000000000000E+000
  0.000000000000000E+000
  0.000000000000000E+000
  0.000000000000000E+000
  0.000000000000000E+000
  0.000000000000000E+000
  0.000000000000000E+000
  0.000000000000000E+000
  0.000000000000000E+000
  0.000000000000000E+000
  0.000000000000000E+000
  0.000000000000000E+000
  0.000000000000000E+000
  0.000000000000000E+000
  0.000000000000000E+000
  0.000000000000000E+000
  0.000000000000000E+000
  0.000000000000000E+000
  0.000000000000000E+000
  0.000000000000000E+000
  0.000000000000000E+000
  0.000000000000000E+000
  0.000000000000000E+000
  0.000000000000000E+000
  0.000000000000000E+000
  0.000000000000000E+000
  0.000000000000000E+000
  0.000000000000000E+000
  0.000000000000000E+000
  0.000000000000000E+000
  0.000000000000000E+000
  0.000000000000000E+000
  0.000000000000000E+000
  0.000000000000000E+000
  0.000000000000000E+000
  0.000000000000000E+000
  0.000000000000000E+000
  0.000000000000000E+000
  0.000000000000000E+000
  0.000000000000000E+000
  0.000000000000000E+000
  0.000000000000000E+000
  0.000000000000000E+000
  0.000000000000000E+000
  0.000000000000000E+000
  0.000000000000000E+000
  0.000000000000000E+000
  0.000000000000000E+000
  0.000000000000000E+000
  0.000000000000000E+000
  0.000000000000000E+000
  0.000000000000000E+000
  0.000000000000000E+000
  0.000000000000000E+000
  0.000000000000000E+000
  0.000000000000000E+000
  0.000000000000000E+000
  0.000000000000000E+000
  0.000000000000000E+000
  0.000000000000000E+000
  0.000000000000000E+000
  0.000000000000000E+000
  0.000000000000000E+000
  0.000000000000000E+000
  0.000000000000000E+000
  0.000000000000000E+000
  0.000000000000000E+000
  0.000000000000000E+000
  0.000000000000000E+000
  0.000000000000000E+000
  0.000000000000000E+000
  0.000000000000000E+000
  0.000000000000000E+000
  0.000000000000000E+000
  0.000000000000000E+000
  0.000000000000000E+000
  0.000000000000000E+000
  0.000000000000000E+000
  0.000000000000000E+000
  0.000000000000000E+000
  0.000000000000000E+000
  0.000000000000000E+000
  0.000000000000000E+000
  0.000000000000000E+000
  0.000000000000000E+000
  0.000000000000000E+000
  0.000000000000000E+000
  0.000000000000000E+000
  0.000000000000000E+000
  0.000000000000000E+000
  0.000000000000000E+000
  0.000000000000000E+000
  0.000000000000000E+000
  0.000000000000000E+000
  0.000000000000000E+000
  0.000000000000000E+000
  0.000000000000000E+000
  0.000000000000000E+000
  0.000000000000000E+000
  0.000000000000000E+000
  0.000000000000000E+000
  0.000000000000000E+000
  0.000000000000000E+000
  0.000000000000000E+000
  0.000000000000000E+000
  0.000000000000000E+000
  0.000000000000000E+000
  0.000000000000000E+000
  0.000000000000000E+000
  0.000000000000000E+000
  0.000000000000000E+000
  0.000000000000000E+000
  0.000000000000000E+000
  0.000000000000000E+000
  0.000000000000000E+000
  0.000000000000000E+000
  0.000000000000000E+000
  0.000000000000000E+000
  0.000000000000000E+000
  0.000000000000000E+000
  0.000000000000000E+000
  0.000000000000000E+000
  0.000000000000000E+000
  0.000000000000000E+000
  0.000000000000000E+000
  0.000000000000000E+000
  0.000000000000000E+000
  0.000000000000000E+000
  0.000000000000000E+000
  0.000000000000000E+000
  0.000000000000000E+000
  0.000000000000000E+000
  0.000000000000000E+000
  0.000000000000000E+000
  0.000000000000000E+000
  0.000000000000000E+000
  0.000000000000000E+000
  0.000000000000000E+000
  0.000000000000000E+000
  0.000000000000000E+000
  0.000000000000000E+000
  0.000000000000000E+000
  0.000000000000000E+000
  0.000000000000000E+000
  0.000000000000000E+000
  0.000000000000000E+000
  0.000000000000000E+000
  0.000000000000000E+000
  0.000000000000000E+000
  0.000000000000000E+000
  0.000000000000000E+000
  0.000000000000000E+000
  0.000000000000000E+000
  0.000000000000000E+000
  0.000000000000000E+000
  0.000000000000000E+000
  0.000000000000000E+000
  0.000000000000000E+000
  0.000000000000000E+000
  0.000000000000000E+000
  0.000000000000000E+000
SCALARS poroL double 
LOOKUP_TABLE default
  0.156165191568366     
  0.156159114114375     
  0.156145678844444     
  0.156128219444505     
  0.156109045263046     
  0.156090155558657     
  0.156073638566846     
  0.156062754138424     
  0.156055134384171     
  0.156048745135877     
  0.156043067121002     
  0.156037781353991     
  0.156032607057097     
  0.156027185131772     
  0.156020576445590     
  0.156126408953531     
  0.156113889035482     
  0.156102516159728     
  0.156091336442411     
  0.156079361734726     
  0.156068442435332     
  0.156060272670406     
  0.156053060744512     
  0.156046262975245     
  0.156040289656334     
  0.156034887268836     
  0.156029847325096     
  0.156024977978579     
  0.156020058992524     
  0.156015281372291     
  0.156088872270045     
  0.156075057860263     
  0.156066471324130     
  0.156061418592681     
  0.156057853759591     
  0.156053576436789     
  0.156048133798123     
  0.156042259768304     
  0.156036599538229     
  0.156031279819891     
  0.156026353984237     
  0.156021743713925     
  0.156017366960460     
  0.156013227140494     
  0.156009433525433     
  0.156059355228986     
  0.156053658822141     
  0.156050743290538     
  0.156047846255881     
  0.156044464404220     
  0.156040492624115     
  0.156036026756977     
  0.156031260014299     
  0.156026473070517     
  0.156021866166461     
  0.156017507612438     
  0.156013417203971     
  0.156009601757702     
  0.156006101460021     
  0.156003023027025     
  0.156044870804506     
  0.156041480292080     
  0.156038096149497     
  0.156034957343816     
  0.156031661211031     
  0.156028078351974     
  0.156024221353612     
  0.156020196363260     
  0.156016140065985     
  0.156012177046858     
  0.156008392370643     
  0.156004835665319     
  0.156001549230004     
  0.155998589811959     
  0.155996040948661     
  0.156031735360664     
  0.156028474745146     
  0.156025376792445     
  0.156022305279511     
  0.156019201009473     
  0.156015970718687     
  0.156012605553424     
  0.156009153080341     
  0.156005690696120     
  0.156002299077525     
  0.155999047608767     
  0.155995992708384     
  0.155993185381897     
  0.155990681415084     
  0.155988546348328     
  0.156018339860697     
  0.156015397137701     
  0.156012541541945     
  0.156009728720576     
  0.156006899885657     
  0.156004023080590     
  0.156001088694326     
  0.155998120852126     
  0.155995165050823     
  0.155992275498903     
  0.155989505944679     
  0.155986906475172     
  0.155984524970886     
  0.155982409973136     
  0.155980611692020     
  0.156004814768597     
  0.156002214320987     
  0.155999675334691     
  0.155997167580527     
  0.155994664784496     
  0.155992147885138     
  0.155989614823327     
  0.155987080186857     
  0.155984573061542     
  0.155982130906832     
  0.155979794356318     
  0.155977604251544     
  0.155975600786631     
  0.155973823447430     
  0.155972310141633     
  0.155991201285597     
  0.155988970844595     
  0.155986776751399     
  0.155984607698648     
  0.155982450660900     
  0.155980297668342     
  0.155978149139405     
  0.155976015853479     
  0.155973917714781     
  0.155971881284229     
  0.155969936855687     
  0.155968116215472     
  0.155966451204730     
  0.155964972621688     
  0.155963708778936     
  0.155977543197090     
  0.155975688374644     
  0.155973853905679     
  0.155972038184388     
  0.155970237024048     
  0.155968447800434     
  0.155966672575035     
  0.155964919428174     
  0.155963202450826     
  0.155961540585652     
  0.155959956047869     
  0.155958472752059     
  0.155957114951667     
  0.155955905971618     
  0.155954866791718     
  0.155963866722784     
  0.155962383335928     
  0.155960911863245     
  0.155959455392212     
  0.155958013751094     
  0.155956586771868     
  0.155955176581542     
  0.155953788914501     
  0.155952433423712     
  0.155951123259370     
  0.155949874188003     
  0.155948703538411     
  0.155947629115097     
  0.155946668099497     
  0.155945835890977     
  0.155950184882626     
  0.155949064148340     
  0.155947953970412     
  0.155946858020284     
  0.155945776872818     
  0.155944710387113     
  0.155943659507213     
  0.155942627372801     
  0.155941619775254     
  0.155940645063593     
  0.155939713671483     
  0.155938837424285     
  0.155938028743396     
  0.155937299808792     
  0.155936661707706     
  0.155936499141060     
  0.155935732407449     
  0.155934980734679     
  0.155934245490756     
  0.155933525514894     
  0.155932818864433     
  0.155932124183469     
  0.155931441615366     
  0.155930773252949     
  0.155930123189732     
  0.155929497266588     
  0.155928902623008     
  0.155928347144366     
  0.155927838873948     
  0.155927385441006     
  0.155922801957465     
  0.155922383864837     
  0.155921989859519     
  0.155921616945540     
  0.155921260413986     
  0.155920915113829     
  0.155920576476643     
  0.155920241223886     
  0.155919907744512     
  0.155919576176905     
  0.155919248259404     
  0.155918927029810     
  0.155918616449288     
  0.155918321015980     
  0.155918045422472     
  0.155909079073047     
  0.155909009742154     
  0.155908976666759     
  0.155908971022499     
  0.155908983226365     
  0.155909003866853     
  0.155909024453176     
  0.155909037926961     
  0.155909038925551     
  0.155909023821397     
  0.155908990589964     
  0.155908938576378     
  0.155908868230161     
  0.155908780862027     
  0.155908678482078     
  0.155895311554049     
  0.155895598092566     
  0.155895934847441     
  0.155896306096769     
  0.155896696411979     
  0.155897091353563     
  0.155897478001296     
  0.155897845277716     
  0.155898184065471     
  0.155898487141419     
  0.155898748991041     
  0.155898965569736     
  0.155899134076113     
  0.155899252800818     
  0.155899321103496     
  0.155881477571924     
  0.155882135159848     
  0.155882857403973     
  0.155883620855255     
  0.155884403513833     
  0.155885185375816     
  0.155885948785558     
  0.155886678569005     
  0.155887361963693     
  0.155887988386253     
  0.155888549116546     
  0.155889036977300     
  0.155889446077069     
  0.155889771699234     
  0.155890010387983     
  0.155867553971785     
  0.155868606717300     
  0.155869737732562     
  0.155870915120972     
  0.155872109741523     
  0.155873295681647     
  0.155874450455448     
  0.155875554926527     
  0.155876592984328     
  0.155877551065484     
  0.155878417620563     
  0.155879182615392     
  0.155879837173867     
  0.155880373457596     
  0.155880784840773     
  0.155853517678050     
  0.155854999409197     
  0.155856570846563     
  0.155858190908931     
  0.155859822822089     
  0.155861434592318     
  0.155862999055774     
  0.155864493527145     
  0.155865899126772     
  0.155867199939051     
  0.155868382135289     
  0.155869433186463     
  0.155870341325840     
  0.155871095370120     
  0.155871684972620     
  0.155839346988139     
  0.155841302145123     
  0.155843354788585     
  0.155845453750222     
  0.155847554137379     
  0.155849617881730     
  0.155851613610957     
  0.155853515898422     
  0.155855304086904     
  0.155856960906940     
  0.155858471074383     
  0.155859820089847     
  0.155860993425011     
  0.155861976235101     
  0.155862753684183     
  0.155825022784595     
  0.155827507639479     
  0.155830092342901     
  0.155832714384195     
  0.155835320214230     
  0.155837865935316     
  0.155840316881953     
  0.155842646269351     
  0.155844833251354     
  0.155846860720183     
  0.155848713164699     
  0.155850374897310     
  0.155851828852798     
  0.155853056127170     
  0.155854036370212     
  0.155810529751418     
  0.155813614248245     
  0.155816793244227     
  0.155819991008385     
  0.155823144709429     
  0.155826205248763     
  0.155829136296632     
  0.155831911940251     
  0.155834513552668     
  0.155836926409823     
  0.155839136571115     
  0.155841128339686     
  0.155842882525383     
  0.155844375705365     
  0.155845580657180     
  0.155795857668295     
  0.155799628409025     
  0.155803477257729     
  0.155807312416175     
  0.155811061082804     
  0.155814670360615     
  0.155818105069753     
  0.155821343632010     
  0.155824373110500     
  0.155827184308668     
  0.155829767438068     
  0.155832108590956     
  0.155834187210352     
  0.155835974865813     
  0.155837435660619     
  0.155781002884636     
  0.155785568197914     
  0.155790178836360     
  0.155794722534694     
  0.155799116253936     
  0.155803306306040     
  0.155807263490219     
  0.155810975729134     
  0.155814440551923     
  0.155817658518674     
  0.155820627634545     
  0.155823338544968     
  0.155825770767419     
  0.155827890456368     
  0.155829650611479     
  0.155765970678490     
  0.155771469237413     
  0.155776954530741     
  0.155782287229932     
  0.155787375509073     
  0.155792171525781     
  0.155796660188643     
  0.155800846274049     
  0.155804743914612     
  0.155808368755130     
  0.155811731482958     
  0.155814831685235     
  0.155817651723697     
  0.155820152537885     
  0.155822272578797     
  0.155750779942794     
  0.155757396101122     
  0.155763895844389     
  0.155770104517711     
  0.155775928699607     
  0.155781340701782     
  0.155786352789540     
  0.155790996402596     
  0.155795309167672     
  0.155799327635773     
  0.155803081486462     
  0.155806585840459     
  0.155809832255198     
  0.155812777995747     
  0.155815342950850     
  0.155735472698341     
  0.155743465979329     
  0.155751152937904     
  0.155758319562661     
  0.155764896507823     
  0.155770905535605     
  0.155776406885838     
  0.155781468856109     
  0.155786158599259     
  0.155790538412567     
  0.155794663071641     
  0.155798574886791     
  0.155802285610290     
  0.155805759803714     
  0.155808890994139     
  0.155720144520915     
  0.155729903420794     
  0.155738978311661     
  0.155747142515179     
  0.155754429524649     
  0.155760970723609     
  0.155766891964729     
  0.155772305308386     
  0.155777309599641     
  0.155781994306145     
  0.155786443123723     
  0.155790734620272     
  0.155794938612802     
  0.155799039935963     
  0.155802924932274     
  0.155705039520389     
  0.155717200849370     
  0.155727797507653     
  0.155736833386398     
  0.155744693900742     
  0.155751641918495     
  0.155757873969356     
  0.155763542607313     
  0.155768774168085     
  0.155773681342526     
  0.155778373878243     
  0.155782970225379     
  0.155787607579349     
  0.155792479357508     
  0.155797382812609     
  0.155691274502358     
  0.155706502240219     
  0.155718085815037     
  0.155727652761354     
  0.155735837104230     
  0.155743007263878     
  0.155749405343213     
  0.155755208588176     
  0.155760559379911     
  0.155765583946865     
  0.155770407876161     
  0.155775174801691     
  0.155780081270692     
  0.155785449401227     
  0.155792215590898     
