# vtk DataFile Version 3.0
vtk output
ASCII
DATASET UNSTRUCTURED_GRID
POINTS       496 double 
  0.00000000E+00  3.00000000E+02  0.00000000E+00
  0.00000000E+00  2.80000000E+02  0.00000000E+00
  0.00000000E+00  2.60000000E+02  0.00000000E+00
  0.00000000E+00  2.40000000E+02  0.00000000E+00
  0.00000000E+00  2.20000000E+02  0.00000000E+00
  0.00000000E+00  2.00000000E+02  0.00000000E+00
  0.00000000E+00  1.80000000E+02  0.00000000E+00
  0.00000000E+00  1.60000000E+02  0.00000000E+00
  0.00000000E+00  1.40000000E+02  0.00000000E+00
  0.00000000E+00  1.20000000E+02  0.00000000E+00
  0.00000000E+00  1.00000000E+02  0.00000000E+00
  0.00000000E+00  8.00000000E+01  0.00000000E+00
  0.00000000E+00  6.00000000E+01  0.00000000E+00
  0.00000000E+00  4.00000000E+01  0.00000000E+00
  0.00000000E+00  2.00000000E+01  0.00000000E+00
  0.00000000E+00  4.99600361E-14  0.00000000E+00
  2.00000000E+01  3.00000000E+02  0.00000000E+00
  2.00000000E+01  2.80000000E+02  0.00000000E+00
  2.00000000E+01  2.60000000E+02  0.00000000E+00
  2.00000000E+01  2.40000000E+02  0.00000000E+00
  2.00000000E+01  2.20000000E+02  0.00000000E+00
  2.00000000E+01  2.00000000E+02  0.00000000E+00
  2.00000000E+01  1.80000000E+02  0.00000000E+00
  2.00000000E+01  1.60000000E+02  0.00000000E+00
  2.00000000E+01  1.40000000E+02  0.00000000E+00
  2.00000000E+01  1.20000000E+02  0.00000000E+00
  2.00000000E+01  1.00000000E+02  0.00000000E+00
  2.00000000E+01  8.00000000E+01  0.00000000E+00
  2.00000000E+01  6.00000000E+01  0.00000000E+00
  2.00000000E+01  4.00000000E+01  0.00000000E+00
  2.00000000E+01  2.00000000E+01  0.00000000E+00
  2.00000000E+01  4.99600361E-14  0.00000000E+00
  4.00000000E+01  3.00000000E+02  0.00000000E+00
  4.00000000E+01  2.80000000E+02  0.00000000E+00
  4.00000000E+01  2.60000000E+02  0.00000000E+00
  4.00000000E+01  2.40000000E+02  0.00000000E+00
  4.00000000E+01  2.20000000E+02  0.00000000E+00
  4.00000000E+01  2.00000000E+02  0.00000000E+00
  4.00000000E+01  1.80000000E+02  0.00000000E+00
  4.00000000E+01  1.60000000E+02  0.00000000E+00
  4.00000000E+01  1.40000000E+02  0.00000000E+00
  4.00000000E+01  1.20000000E+02  0.00000000E+00
  4.00000000E+01  1.00000000E+02  0.00000000E+00
  4.00000000E+01  8.00000000E+01  0.00000000E+00
  4.00000000E+01  6.00000000E+01  0.00000000E+00
  4.00000000E+01  4.00000000E+01  0.00000000E+00
  4.00000000E+01  2.00000000E+01  0.00000000E+00
  4.00000000E+01  4.99600361E-14  0.00000000E+00
  6.00000000E+01  3.00000000E+02  0.00000000E+00
  6.00000000E+01  2.80000000E+02  0.00000000E+00
  6.00000000E+01  2.60000000E+02  0.00000000E+00
  6.00000000E+01  2.40000000E+02  0.00000000E+00
  6.00000000E+01  2.20000000E+02  0.00000000E+00
  6.00000000E+01  2.00000000E+02  0.00000000E+00
  6.00000000E+01  1.80000000E+02  0.00000000E+00
  6.00000000E+01  1.60000000E+02  0.00000000E+00
  6.00000000E+01  1.40000000E+02  0.00000000E+00
  6.00000000E+01  1.20000000E+02  0.00000000E+00
  6.00000000E+01  1.00000000E+02  0.00000000E+00
  6.00000000E+01  8.00000000E+01  0.00000000E+00
  6.00000000E+01  6.00000000E+01  0.00000000E+00
  6.00000000E+01  4.00000000E+01  0.00000000E+00
  6.00000000E+01  2.00000000E+01  0.00000000E+00
  6.00000000E+01  4.99600361E-14  0.00000000E+00
  8.00000000E+01  3.00000000E+02  0.00000000E+00
  8.00000000E+01  2.80000000E+02  0.00000000E+00
  8.00000000E+01  2.60000000E+02  0.00000000E+00
  8.00000000E+01  2.40000000E+02  0.00000000E+00
  8.00000000E+01  2.20000000E+02  0.00000000E+00
  8.00000000E+01  2.00000000E+02  0.00000000E+00
  8.00000000E+01  1.80000000E+02  0.00000000E+00
  8.00000000E+01  1.60000000E+02  0.00000000E+00
  8.00000000E+01  1.40000000E+02  0.00000000E+00
  8.00000000E+01  1.20000000E+02  0.00000000E+00
  8.00000000E+01  1.00000000E+02  0.00000000E+00
  8.00000000E+01  8.00000000E+01  0.00000000E+00
  8.00000000E+01  6.00000000E+01  0.00000000E+00
  8.00000000E+01  4.00000000E+01  0.00000000E+00
  8.00000000E+01  2.00000000E+01  0.00000000E+00
  8.00000000E+01  4.99600361E-14  0.00000000E+00
  1.00000000E+02  3.00000000E+02  0.00000000E+00
  1.00000000E+02  2.80000000E+02  0.00000000E+00
  1.00000000E+02  2.60000000E+02  0.00000000E+00
  1.00000000E+02  2.40000000E+02  0.00000000E+00
  1.00000000E+02  2.20000000E+02  0.00000000E+00
  1.00000000E+02  2.00000000E+02  0.00000000E+00
  1.00000000E+02  1.80000000E+02  0.00000000E+00
  1.00000000E+02  1.60000000E+02  0.00000000E+00
  1.00000000E+02  1.40000000E+02  0.00000000E+00
  1.00000000E+02  1.20000000E+02  0.00000000E+00
  1.00000000E+02  1.00000000E+02  0.00000000E+00
  1.00000000E+02  8.00000000E+01  0.00000000E+00
  1.00000000E+02  6.00000000E+01  0.00000000E+00
  1.00000000E+02  4.00000000E+01  0.00000000E+00
  1.00000000E+02  2.00000000E+01  0.00000000E+00
  1.00000000E+02  4.99600361E-14  0.00000000E+00
  1.20000000E+02  3.00000000E+02  0.00000000E+00
  1.20000000E+02  2.80000000E+02  0.00000000E+00
  1.20000000E+02  2.60000000E+02  0.00000000E+00
  1.20000000E+02  2.40000000E+02  0.00000000E+00
  1.20000000E+02  2.20000000E+02  0.00000000E+00
  1.20000000E+02  2.00000000E+02  0.00000000E+00
  1.20000000E+02  1.80000000E+02  0.00000000E+00
  1.20000000E+02  1.60000000E+02  0.00000000E+00
  1.20000000E+02  1.40000000E+02  0.00000000E+00
  1.20000000E+02  1.20000000E+02  0.00000000E+00
  1.20000000E+02  1.00000000E+02  0.00000000E+00
  1.20000000E+02  8.00000000E+01  0.00000000E+00
  1.20000000E+02  6.00000000E+01  0.00000000E+00
  1.20000000E+02  4.00000000E+01  0.00000000E+00
  1.20000000E+02  2.00000000E+01  0.00000000E+00
  1.20000000E+02  4.99600361E-14  0.00000000E+00
  1.40000000E+02  3.00000000E+02  0.00000000E+00
  1.40000000E+02  2.80000000E+02  0.00000000E+00
  1.40000000E+02  2.60000000E+02  0.00000000E+00
  1.40000000E+02  2.40000000E+02  0.00000000E+00
  1.40000000E+02  2.20000000E+02  0.00000000E+00
  1.40000000E+02  2.00000000E+02  0.00000000E+00
  1.40000000E+02  1.80000000E+02  0.00000000E+00
  1.40000000E+02  1.60000000E+02  0.00000000E+00
  1.40000000E+02  1.40000000E+02  0.00000000E+00
  1.40000000E+02  1.20000000E+02  0.00000000E+00
  1.40000000E+02  1.00000000E+02  0.00000000E+00
  1.40000000E+02  8.00000000E+01  0.00000000E+00
  1.40000000E+02  6.00000000E+01  0.00000000E+00
  1.40000000E+02  4.00000000E+01  0.00000000E+00
  1.40000000E+02  2.00000000E+01  0.00000000E+00
  1.40000000E+02  4.99600361E-14  0.00000000E+00
  1.60000000E+02  3.00000000E+02  0.00000000E+00
  1.60000000E+02  2.80000000E+02  0.00000000E+00
  1.60000000E+02  2.60000000E+02  0.00000000E+00
  1.60000000E+02  2.40000000E+02  0.00000000E+00
  1.60000000E+02  2.20000000E+02  0.00000000E+00
  1.60000000E+02  2.00000000E+02  0.00000000E+00
  1.60000000E+02  1.80000000E+02  0.00000000E+00
  1.60000000E+02  1.60000000E+02  0.00000000E+00
  1.60000000E+02  1.40000000E+02  0.00000000E+00
  1.60000000E+02  1.20000000E+02  0.00000000E+00
  1.60000000E+02  1.00000000E+02  0.00000000E+00
  1.60000000E+02  8.00000000E+01  0.00000000E+00
  1.60000000E+02  6.00000000E+01  0.00000000E+00
  1.60000000E+02  4.00000000E+01  0.00000000E+00
  1.60000000E+02  2.00000000E+01  0.00000000E+00
  1.60000000E+02  4.99600361E-14  0.00000000E+00
  1.80000000E+02  3.00000000E+02  0.00000000E+00
  1.80000000E+02  2.80000000E+02  0.00000000E+00
  1.80000000E+02  2.60000000E+02  0.00000000E+00
  1.80000000E+02  2.40000000E+02  0.00000000E+00
  1.80000000E+02  2.20000000E+02  0.00000000E+00
  1.80000000E+02  2.00000000E+02  0.00000000E+00
  1.80000000E+02  1.80000000E+02  0.00000000E+00
  1.80000000E+02  1.60000000E+02  0.00000000E+00
  1.80000000E+02  1.40000000E+02  0.00000000E+00
  1.80000000E+02  1.20000000E+02  0.00000000E+00
  1.80000000E+02  1.00000000E+02  0.00000000E+00
  1.80000000E+02  8.00000000E+01  0.00000000E+00
  1.80000000E+02  6.00000000E+01  0.00000000E+00
  1.80000000E+02  4.00000000E+01  0.00000000E+00
  1.80000000E+02  2.00000000E+01  0.00000000E+00
  1.80000000E+02  4.99600361E-14  0.00000000E+00
  2.00000000E+02  3.00000000E+02  0.00000000E+00
  2.00000000E+02  2.80000000E+02  0.00000000E+00
  2.00000000E+02  2.60000000E+02  0.00000000E+00
  2.00000000E+02  2.40000000E+02  0.00000000E+00
  2.00000000E+02  2.20000000E+02  0.00000000E+00
  2.00000000E+02  2.00000000E+02  0.00000000E+00
  2.00000000E+02  1.80000000E+02  0.00000000E+00
  2.00000000E+02  1.60000000E+02  0.00000000E+00
  2.00000000E+02  1.40000000E+02  0.00000000E+00
  2.00000000E+02  1.20000000E+02  0.00000000E+00
  2.00000000E+02  1.00000000E+02  0.00000000E+00
  2.00000000E+02  8.00000000E+01  0.00000000E+00
  2.00000000E+02  6.00000000E+01  0.00000000E+00
  2.00000000E+02  4.00000000E+01  0.00000000E+00
  2.00000000E+02  2.00000000E+01  0.00000000E+00
  2.00000000E+02  4.99600361E-14  0.00000000E+00
  2.20000000E+02  3.00000000E+02  0.00000000E+00
  2.20000000E+02  2.80000000E+02  0.00000000E+00
  2.20000000E+02  2.60000000E+02  0.00000000E+00
  2.20000000E+02  2.40000000E+02  0.00000000E+00
  2.20000000E+02  2.20000000E+02  0.00000000E+00
  2.20000000E+02  2.00000000E+02  0.00000000E+00
  2.20000000E+02  1.80000000E+02  0.00000000E+00
  2.20000000E+02  1.60000000E+02  0.00000000E+00
  2.20000000E+02  1.40000000E+02  0.00000000E+00
  2.20000000E+02  1.20000000E+02  0.00000000E+00
  2.20000000E+02  1.00000000E+02  0.00000000E+00
  2.20000000E+02  8.00000000E+01  0.00000000E+00
  2.20000000E+02  6.00000000E+01  0.00000000E+00
  2.20000000E+02  4.00000000E+01  0.00000000E+00
  2.20000000E+02  2.00000000E+01  0.00000000E+00
  2.20000000E+02  4.99600361E-14  0.00000000E+00
  2.40000000E+02  3.00000000E+02  0.00000000E+00
  2.40000000E+02  2.80000000E+02  0.00000000E+00
  2.40000000E+02  2.60000000E+02  0.00000000E+00
  2.40000000E+02  2.40000000E+02  0.00000000E+00
  2.40000000E+02  2.20000000E+02  0.00000000E+00
  2.40000000E+02  2.00000000E+02  0.00000000E+00
  2.40000000E+02  1.80000000E+02  0.00000000E+00
  2.40000000E+02  1.60000000E+02  0.00000000E+00
  2.40000000E+02  1.40000000E+02  0.00000000E+00
  2.40000000E+02  1.20000000E+02  0.00000000E+00
  2.40000000E+02  1.00000000E+02  0.00000000E+00
  2.40000000E+02  8.00000000E+01  0.00000000E+00
  2.40000000E+02  6.00000000E+01  0.00000000E+00
  2.40000000E+02  4.00000000E+01  0.00000000E+00
  2.40000000E+02  2.00000000E+01  0.00000000E+00
  2.40000000E+02  4.99600361E-14  0.00000000E+00
  2.60000000E+02  3.00000000E+02  0.00000000E+00
  2.60000000E+02  2.80000000E+02  0.00000000E+00
  2.60000000E+02  2.60000000E+02  0.00000000E+00
  2.60000000E+02  2.40000000E+02  0.00000000E+00
  2.60000000E+02  2.20000000E+02  0.00000000E+00
  2.60000000E+02  2.00000000E+02  0.00000000E+00
  2.60000000E+02  1.80000000E+02  0.00000000E+00
  2.60000000E+02  1.60000000E+02  0.00000000E+00
  2.60000000E+02  1.40000000E+02  0.00000000E+00
  2.60000000E+02  1.20000000E+02  0.00000000E+00
  2.60000000E+02  1.00000000E+02  0.00000000E+00
  2.60000000E+02  8.00000000E+01  0.00000000E+00
  2.60000000E+02  6.00000000E+01  0.00000000E+00
  2.60000000E+02  4.00000000E+01  0.00000000E+00
  2.60000000E+02  2.00000000E+01  0.00000000E+00
  2.60000000E+02  4.99600361E-14  0.00000000E+00
  2.80000000E+02  3.00000000E+02  0.00000000E+00
  2.80000000E+02  2.80000000E+02  0.00000000E+00
  2.80000000E+02  2.60000000E+02  0.00000000E+00
  2.80000000E+02  2.40000000E+02  0.00000000E+00
  2.80000000E+02  2.20000000E+02  0.00000000E+00
  2.80000000E+02  2.00000000E+02  0.00000000E+00
  2.80000000E+02  1.80000000E+02  0.00000000E+00
  2.80000000E+02  1.60000000E+02  0.00000000E+00
  2.80000000E+02  1.40000000E+02  0.00000000E+00
  2.80000000E+02  1.20000000E+02  0.00000000E+00
  2.80000000E+02  1.00000000E+02  0.00000000E+00
  2.80000000E+02  8.00000000E+01  0.00000000E+00
  2.80000000E+02  6.00000000E+01  0.00000000E+00
  2.80000000E+02  4.00000000E+01  0.00000000E+00
  2.80000000E+02  2.00000000E+01  0.00000000E+00
  2.80000000E+02  4.99600361E-14  0.00000000E+00
  3.00000000E+02  3.00000000E+02  0.00000000E+00
  3.00000000E+02  2.80000000E+02  0.00000000E+00
  3.00000000E+02  2.60000000E+02  0.00000000E+00
  3.00000000E+02  2.40000000E+02  0.00000000E+00
  3.00000000E+02  2.20000000E+02  0.00000000E+00
  3.00000000E+02  2.00000000E+02  0.00000000E+00
  3.00000000E+02  1.80000000E+02  0.00000000E+00
  3.00000000E+02  1.60000000E+02  0.00000000E+00
  3.00000000E+02  1.40000000E+02  0.00000000E+00
  3.00000000E+02  1.20000000E+02  0.00000000E+00
  3.00000000E+02  1.00000000E+02  0.00000000E+00
  3.00000000E+02  8.00000000E+01  0.00000000E+00
  3.00000000E+02  6.00000000E+01  0.00000000E+00
  3.00000000E+02  4.00000000E+01  0.00000000E+00
  3.00000000E+02  2.00000000E+01  0.00000000E+00
  3.00000000E+02  4.99600361E-14  0.00000000E+00
  3.20000000E+02  3.00000000E+02  0.00000000E+00
  3.20000000E+02  2.80000000E+02  0.00000000E+00
  3.20000000E+02  2.60000000E+02  0.00000000E+00
  3.20000000E+02  2.40000000E+02  0.00000000E+00
  3.20000000E+02  2.20000000E+02  0.00000000E+00
  3.20000000E+02  2.00000000E+02  0.00000000E+00
  3.20000000E+02  1.80000000E+02  0.00000000E+00
  3.20000000E+02  1.60000000E+02  0.00000000E+00
  3.20000000E+02  1.40000000E+02  0.00000000E+00
  3.20000000E+02  1.20000000E+02  0.00000000E+00
  3.20000000E+02  1.00000000E+02  0.00000000E+00
  3.20000000E+02  8.00000000E+01  0.00000000E+00
  3.20000000E+02  6.00000000E+01  0.00000000E+00
  3.20000000E+02  4.00000000E+01  0.00000000E+00
  3.20000000E+02  2.00000000E+01  0.00000000E+00
  3.20000000E+02  4.99600361E-14  0.00000000E+00
  3.40000000E+02  3.00000000E+02  0.00000000E+00
  3.40000000E+02  2.80000000E+02  0.00000000E+00
  3.40000000E+02  2.60000000E+02  0.00000000E+00
  3.40000000E+02  2.40000000E+02  0.00000000E+00
  3.40000000E+02  2.20000000E+02  0.00000000E+00
  3.40000000E+02  2.00000000E+02  0.00000000E+00
  3.40000000E+02  1.80000000E+02  0.00000000E+00
  3.40000000E+02  1.60000000E+02  0.00000000E+00
  3.40000000E+02  1.40000000E+02  0.00000000E+00
  3.40000000E+02  1.20000000E+02  0.00000000E+00
  3.40000000E+02  1.00000000E+02  0.00000000E+00
  3.40000000E+02  8.00000000E+01  0.00000000E+00
  3.40000000E+02  6.00000000E+01  0.00000000E+00
  3.40000000E+02  4.00000000E+01  0.00000000E+00
  3.40000000E+02  2.00000000E+01  0.00000000E+00
  3.40000000E+02  4.99600361E-14  0.00000000E+00
  3.60000000E+02  3.00000000E+02  0.00000000E+00
  3.60000000E+02  2.80000000E+02  0.00000000E+00
  3.60000000E+02  2.60000000E+02  0.00000000E+00
  3.60000000E+02  2.40000000E+02  0.00000000E+00
  3.60000000E+02  2.20000000E+02  0.00000000E+00
  3.60000000E+02  2.00000000E+02  0.00000000E+00
  3.60000000E+02  1.80000000E+02  0.00000000E+00
  3.60000000E+02  1.60000000E+02  0.00000000E+00
  3.60000000E+02  1.40000000E+02  0.00000000E+00
  3.60000000E+02  1.20000000E+02  0.00000000E+00
  3.60000000E+02  1.00000000E+02  0.00000000E+00
  3.60000000E+02  8.00000000E+01  0.00000000E+00
  3.60000000E+02  6.00000000E+01  0.00000000E+00
  3.60000000E+02  4.00000000E+01  0.00000000E+00
  3.60000000E+02  2.00000000E+01  0.00000000E+00
  3.60000000E+02  4.99600361E-14  0.00000000E+00
  3.80000000E+02  3.00000000E+02  0.00000000E+00
  3.80000000E+02  2.80000000E+02  0.00000000E+00
  3.80000000E+02  2.60000000E+02  0.00000000E+00
  3.80000000E+02  2.40000000E+02  0.00000000E+00
  3.80000000E+02  2.20000000E+02  0.00000000E+00
  3.80000000E+02  2.00000000E+02  0.00000000E+00
  3.80000000E+02  1.80000000E+02  0.00000000E+00
  3.80000000E+02  1.60000000E+02  0.00000000E+00
  3.80000000E+02  1.40000000E+02  0.00000000E+00
  3.80000000E+02  1.20000000E+02  0.00000000E+00
  3.80000000E+02  1.00000000E+02  0.00000000E+00
  3.80000000E+02  8.00000000E+01  0.00000000E+00
  3.80000000E+02  6.00000000E+01  0.00000000E+00
  3.80000000E+02  4.00000000E+01  0.00000000E+00
  3.80000000E+02  2.00000000E+01  0.00000000E+00
  3.80000000E+02  4.99600361E-14  0.00000000E+00
  4.00000000E+02  3.00000000E+02  0.00000000E+00
  4.00000000E+02  2.80000000E+02  0.00000000E+00
  4.00000000E+02  2.60000000E+02  0.00000000E+00
  4.00000000E+02  2.40000000E+02  0.00000000E+00
  4.00000000E+02  2.20000000E+02  0.00000000E+00
  4.00000000E+02  2.00000000E+02  0.00000000E+00
  4.00000000E+02  1.80000000E+02  0.00000000E+00
  4.00000000E+02  1.60000000E+02  0.00000000E+00
  4.00000000E+02  1.40000000E+02  0.00000000E+00
  4.00000000E+02  1.20000000E+02  0.00000000E+00
  4.00000000E+02  1.00000000E+02  0.00000000E+00
  4.00000000E+02  8.00000000E+01  0.00000000E+00
  4.00000000E+02  6.00000000E+01  0.00000000E+00
  4.00000000E+02  4.00000000E+01  0.00000000E+00
  4.00000000E+02  2.00000000E+01  0.00000000E+00
  4.00000000E+02  4.99600361E-14  0.00000000E+00
  4.20000000E+02  3.00000000E+02  0.00000000E+00
  4.20000000E+02  2.80000000E+02  0.00000000E+00
  4.20000000E+02  2.60000000E+02  0.00000000E+00
  4.20000000E+02  2.40000000E+02  0.00000000E+00
  4.20000000E+02  2.20000000E+02  0.00000000E+00
  4.20000000E+02  2.00000000E+02  0.00000000E+00
  4.20000000E+02  1.80000000E+02  0.00000000E+00
  4.20000000E+02  1.60000000E+02  0.00000000E+00
  4.20000000E+02  1.40000000E+02  0.00000000E+00
  4.20000000E+02  1.20000000E+02  0.00000000E+00
  4.20000000E+02  1.00000000E+02  0.00000000E+00
  4.20000000E+02  8.00000000E+01  0.00000000E+00
  4.20000000E+02  6.00000000E+01  0.00000000E+00
  4.20000000E+02  4.00000000E+01  0.00000000E+00
  4.20000000E+02  2.00000000E+01  0.00000000E+00
  4.20000000E+02  4.99600361E-14  0.00000000E+00
  4.40000000E+02  3.00000000E+02  0.00000000E+00
  4.40000000E+02  2.80000000E+02  0.00000000E+00
  4.40000000E+02  2.60000000E+02  0.00000000E+00
  4.40000000E+02  2.40000000E+02  0.00000000E+00
  4.40000000E+02  2.20000000E+02  0.00000000E+00
  4.40000000E+02  2.00000000E+02  0.00000000E+00
  4.40000000E+02  1.80000000E+02  0.00000000E+00
  4.40000000E+02  1.60000000E+02  0.00000000E+00
  4.40000000E+02  1.40000000E+02  0.00000000E+00
  4.40000000E+02  1.20000000E+02  0.00000000E+00
  4.40000000E+02  1.00000000E+02  0.00000000E+00
  4.40000000E+02  8.00000000E+01  0.00000000E+00
  4.40000000E+02  6.00000000E+01  0.00000000E+00
  4.40000000E+02  4.00000000E+01  0.00000000E+00
  4.40000000E+02  2.00000000E+01  0.00000000E+00
  4.40000000E+02  4.99600361E-14  0.00000000E+00
  4.60000000E+02  3.00000000E+02  0.00000000E+00
  4.60000000E+02  2.80000000E+02  0.00000000E+00
  4.60000000E+02  2.60000000E+02  0.00000000E+00
  4.60000000E+02  2.40000000E+02  0.00000000E+00
  4.60000000E+02  2.20000000E+02  0.00000000E+00
  4.60000000E+02  2.00000000E+02  0.00000000E+00
  4.60000000E+02  1.80000000E+02  0.00000000E+00
  4.60000000E+02  1.60000000E+02  0.00000000E+00
  4.60000000E+02  1.40000000E+02  0.00000000E+00
  4.60000000E+02  1.20000000E+02  0.00000000E+00
  4.60000000E+02  1.00000000E+02  0.00000000E+00
  4.60000000E+02  8.00000000E+01  0.00000000E+00
  4.60000000E+02  6.00000000E+01  0.00000000E+00
  4.60000000E+02  4.00000000E+01  0.00000000E+00
  4.60000000E+02  2.00000000E+01  0.00000000E+00
  4.60000000E+02  4.99600361E-14  0.00000000E+00
  4.80000000E+02  3.00000000E+02  0.00000000E+00
  4.80000000E+02  2.80000000E+02  0.00000000E+00
  4.80000000E+02  2.60000000E+02  0.00000000E+00
  4.80000000E+02  2.40000000E+02  0.00000000E+00
  4.80000000E+02  2.20000000E+02  0.00000000E+00
  4.80000000E+02  2.00000000E+02  0.00000000E+00
  4.80000000E+02  1.80000000E+02  0.00000000E+00
  4.80000000E+02  1.60000000E+02  0.00000000E+00
  4.80000000E+02  1.40000000E+02  0.00000000E+00
  4.80000000E+02  1.20000000E+02  0.00000000E+00
  4.80000000E+02  1.00000000E+02  0.00000000E+00
  4.80000000E+02  8.00000000E+01  0.00000000E+00
  4.80000000E+02  6.00000000E+01  0.00000000E+00
  4.80000000E+02  4.00000000E+01  0.00000000E+00
  4.80000000E+02  2.00000000E+01  0.00000000E+00
  4.80000000E+02  4.99600361E-14  0.00000000E+00
  5.00000000E+02  3.00000000E+02  0.00000000E+00
  5.00000000E+02  2.80000000E+02  0.00000000E+00
  5.00000000E+02  2.60000000E+02  0.00000000E+00
  5.00000000E+02  2.40000000E+02  0.00000000E+00
  5.00000000E+02  2.20000000E+02  0.00000000E+00
  5.00000000E+02  2.00000000E+02  0.00000000E+00
  5.00000000E+02  1.80000000E+02  0.00000000E+00
  5.00000000E+02  1.60000000E+02  0.00000000E+00
  5.00000000E+02  1.40000000E+02  0.00000000E+00
  5.00000000E+02  1.20000000E+02  0.00000000E+00
  5.00000000E+02  1.00000000E+02  0.00000000E+00
  5.00000000E+02  8.00000000E+01  0.00000000E+00
  5.00000000E+02  6.00000000E+01  0.00000000E+00
  5.00000000E+02  4.00000000E+01  0.00000000E+00
  5.00000000E+02  2.00000000E+01  0.00000000E+00
  5.00000000E+02  4.99600361E-14  0.00000000E+00
  5.20000000E+02  3.00000000E+02  0.00000000E+00
  5.20000000E+02  2.80000000E+02  0.00000000E+00
  5.20000000E+02  2.60000000E+02  0.00000000E+00
  5.20000000E+02  2.40000000E+02  0.00000000E+00
  5.20000000E+02  2.20000000E+02  0.00000000E+00
  5.20000000E+02  2.00000000E+02  0.00000000E+00
  5.20000000E+02  1.80000000E+02  0.00000000E+00
  5.20000000E+02  1.60000000E+02  0.00000000E+00
  5.20000000E+02  1.40000000E+02  0.00000000E+00
  5.20000000E+02  1.20000000E+02  0.00000000E+00
  5.20000000E+02  1.00000000E+02  0.00000000E+00
  5.20000000E+02  8.00000000E+01  0.00000000E+00
  5.20000000E+02  6.00000000E+01  0.00000000E+00
  5.20000000E+02  4.00000000E+01  0.00000000E+00
  5.20000000E+02  2.00000000E+01  0.00000000E+00
  5.20000000E+02  4.99600361E-14  0.00000000E+00
  5.40000000E+02  3.00000000E+02  0.00000000E+00
  5.40000000E+02  2.80000000E+02  0.00000000E+00
  5.40000000E+02  2.60000000E+02  0.00000000E+00
  5.40000000E+02  2.40000000E+02  0.00000000E+00
  5.40000000E+02  2.20000000E+02  0.00000000E+00
  5.40000000E+02  2.00000000E+02  0.00000000E+00
  5.40000000E+02  1.80000000E+02  0.00000000E+00
  5.40000000E+02  1.60000000E+02  0.00000000E+00
  5.40000000E+02  1.40000000E+02  0.00000000E+00
  5.40000000E+02  1.20000000E+02  0.00000000E+00
  5.40000000E+02  1.00000000E+02  0.00000000E+00
  5.40000000E+02  8.00000000E+01  0.00000000E+00
  5.40000000E+02  6.00000000E+01  0.00000000E+00
  5.40000000E+02  4.00000000E+01  0.00000000E+00
  5.40000000E+02  2.00000000E+01  0.00000000E+00
  5.40000000E+02  4.99600361E-14  0.00000000E+00
  5.60000000E+02  3.00000000E+02  0.00000000E+00
  5.60000000E+02  2.80000000E+02  0.00000000E+00
  5.60000000E+02  2.60000000E+02  0.00000000E+00
  5.60000000E+02  2.40000000E+02  0.00000000E+00
  5.60000000E+02  2.20000000E+02  0.00000000E+00
  5.60000000E+02  2.00000000E+02  0.00000000E+00
  5.60000000E+02  1.80000000E+02  0.00000000E+00
  5.60000000E+02  1.60000000E+02  0.00000000E+00
  5.60000000E+02  1.40000000E+02  0.00000000E+00
  5.60000000E+02  1.20000000E+02  0.00000000E+00
  5.60000000E+02  1.00000000E+02  0.00000000E+00
  5.60000000E+02  8.00000000E+01  0.00000000E+00
  5.60000000E+02  6.00000000E+01  0.00000000E+00
  5.60000000E+02  4.00000000E+01  0.00000000E+00
  5.60000000E+02  2.00000000E+01  0.00000000E+00
  5.60000000E+02  4.99600361E-14  0.00000000E+00
  5.80000000E+02  3.00000000E+02  0.00000000E+00
  5.80000000E+02  2.80000000E+02  0.00000000E+00
  5.80000000E+02  2.60000000E+02  0.00000000E+00
  5.80000000E+02  2.40000000E+02  0.00000000E+00
  5.80000000E+02  2.20000000E+02  0.00000000E+00
  5.80000000E+02  2.00000000E+02  0.00000000E+00
  5.80000000E+02  1.80000000E+02  0.00000000E+00
  5.80000000E+02  1.60000000E+02  0.00000000E+00
  5.80000000E+02  1.40000000E+02  0.00000000E+00
  5.80000000E+02  1.20000000E+02  0.00000000E+00
  5.80000000E+02  1.00000000E+02  0.00000000E+00
  5.80000000E+02  8.00000000E+01  0.00000000E+00
  5.80000000E+02  6.00000000E+01  0.00000000E+00
  5.80000000E+02  4.00000000E+01  0.00000000E+00
  5.80000000E+02  2.00000000E+01  0.00000000E+00
  5.80000000E+02  4.99600361E-14  0.00000000E+00
  6.00000000E+02  3.00000000E+02  0.00000000E+00
  6.00000000E+02  2.80000000E+02  0.00000000E+00
  6.00000000E+02  2.60000000E+02  0.00000000E+00
  6.00000000E+02  2.40000000E+02  0.00000000E+00
  6.00000000E+02  2.20000000E+02  0.00000000E+00
  6.00000000E+02  2.00000000E+02  0.00000000E+00
  6.00000000E+02  1.80000000E+02  0.00000000E+00
  6.00000000E+02  1.60000000E+02  0.00000000E+00
  6.00000000E+02  1.40000000E+02  0.00000000E+00
  6.00000000E+02  1.20000000E+02  0.00000000E+00
  6.00000000E+02  1.00000000E+02  0.00000000E+00
  6.00000000E+02  8.00000000E+01  0.00000000E+00
  6.00000000E+02  6.00000000E+01  0.00000000E+00
  6.00000000E+02  4.00000000E+01  0.00000000E+00
  6.00000000E+02  2.00000000E+01  0.00000000E+00
  6.00000000E+02  4.99600361E-14  0.00000000E+00
CELLS       450      2250
         4           0           1          17          16
         4           1           2          18          17
         4           2           3          19          18
         4           3           4          20          19
         4           4           5          21          20
         4           5           6          22          21
         4           6           7          23          22
         4           7           8          24          23
         4           8           9          25          24
         4           9          10          26          25
         4          10          11          27          26
         4          11          12          28          27
         4          12          13          29          28
         4          13          14          30          29
         4          14          15          31          30
         4          16          17          33          32
         4          17          18          34          33
         4          18          19          35          34
         4          19          20          36          35
         4          20          21          37          36
         4          21          22          38          37
         4          22          23          39          38
         4          23          24          40          39
         4          24          25          41          40
         4          25          26          42          41
         4          26          27          43          42
         4          27          28          44          43
         4          28          29          45          44
         4          29          30          46          45
         4          30          31          47          46
         4          32          33          49          48
         4          33          34          50          49
         4          34          35          51          50
         4          35          36          52          51
         4          36          37          53          52
         4          37          38          54          53
         4          38          39          55          54
         4          39          40          56          55
         4          40          41          57          56
         4          41          42          58          57
         4          42          43          59          58
         4          43          44          60          59
         4          44          45          61          60
         4          45          46          62          61
         4          46          47          63          62
         4          48          49          65          64
         4          49          50          66          65
         4          50          51          67          66
         4          51          52          68          67
         4          52          53          69          68
         4          53          54          70          69
         4          54          55          71          70
         4          55          56          72          71
         4          56          57          73          72
         4          57          58          74          73
         4          58          59          75          74
         4          59          60          76          75
         4          60          61          77          76
         4          61          62          78          77
         4          62          63          79          78
         4          64          65          81          80
         4          65          66          82          81
         4          66          67          83          82
         4          67          68          84          83
         4          68          69          85          84
         4          69          70          86          85
         4          70          71          87          86
         4          71          72          88          87
         4          72          73          89          88
         4          73          74          90          89
         4          74          75          91          90
         4          75          76          92          91
         4          76          77          93          92
         4          77          78          94          93
         4          78          79          95          94
         4          80          81          97          96
         4          81          82          98          97
         4          82          83          99          98
         4          83          84         100          99
         4          84          85         101         100
         4          85          86         102         101
         4          86          87         103         102
         4          87          88         104         103
         4          88          89         105         104
         4          89          90         106         105
         4          90          91         107         106
         4          91          92         108         107
         4          92          93         109         108
         4          93          94         110         109
         4          94          95         111         110
         4          96          97         113         112
         4          97          98         114         113
         4          98          99         115         114
         4          99         100         116         115
         4         100         101         117         116
         4         101         102         118         117
         4         102         103         119         118
         4         103         104         120         119
         4         104         105         121         120
         4         105         106         122         121
         4         106         107         123         122
         4         107         108         124         123
         4         108         109         125         124
         4         109         110         126         125
         4         110         111         127         126
         4         112         113         129         128
         4         113         114         130         129
         4         114         115         131         130
         4         115         116         132         131
         4         116         117         133         132
         4         117         118         134         133
         4         118         119         135         134
         4         119         120         136         135
         4         120         121         137         136
         4         121         122         138         137
         4         122         123         139         138
         4         123         124         140         139
         4         124         125         141         140
         4         125         126         142         141
         4         126         127         143         142
         4         128         129         145         144
         4         129         130         146         145
         4         130         131         147         146
         4         131         132         148         147
         4         132         133         149         148
         4         133         134         150         149
         4         134         135         151         150
         4         135         136         152         151
         4         136         137         153         152
         4         137         138         154         153
         4         138         139         155         154
         4         139         140         156         155
         4         140         141         157         156
         4         141         142         158         157
         4         142         143         159         158
         4         144         145         161         160
         4         145         146         162         161
         4         146         147         163         162
         4         147         148         164         163
         4         148         149         165         164
         4         149         150         166         165
         4         150         151         167         166
         4         151         152         168         167
         4         152         153         169         168
         4         153         154         170         169
         4         154         155         171         170
         4         155         156         172         171
         4         156         157         173         172
         4         157         158         174         173
         4         158         159         175         174
         4         160         161         177         176
         4         161         162         178         177
         4         162         163         179         178
         4         163         164         180         179
         4         164         165         181         180
         4         165         166         182         181
         4         166         167         183         182
         4         167         168         184         183
         4         168         169         185         184
         4         169         170         186         185
         4         170         171         187         186
         4         171         172         188         187
         4         172         173         189         188
         4         173         174         190         189
         4         174         175         191         190
         4         176         177         193         192
         4         177         178         194         193
         4         178         179         195         194
         4         179         180         196         195
         4         180         181         197         196
         4         181         182         198         197
         4         182         183         199         198
         4         183         184         200         199
         4         184         185         201         200
         4         185         186         202         201
         4         186         187         203         202
         4         187         188         204         203
         4         188         189         205         204
         4         189         190         206         205
         4         190         191         207         206
         4         192         193         209         208
         4         193         194         210         209
         4         194         195         211         210
         4         195         196         212         211
         4         196         197         213         212
         4         197         198         214         213
         4         198         199         215         214
         4         199         200         216         215
         4         200         201         217         216
         4         201         202         218         217
         4         202         203         219         218
         4         203         204         220         219
         4         204         205         221         220
         4         205         206         222         221
         4         206         207         223         222
         4         208         209         225         224
         4         209         210         226         225
         4         210         211         227         226
         4         211         212         228         227
         4         212         213         229         228
         4         213         214         230         229
         4         214         215         231         230
         4         215         216         232         231
         4         216         217         233         232
         4         217         218         234         233
         4         218         219         235         234
         4         219         220         236         235
         4         220         221         237         236
         4         221         222         238         237
         4         222         223         239         238
         4         224         225         241         240
         4         225         226         242         241
         4         226         227         243         242
         4         227         228         244         243
         4         228         229         245         244
         4         229         230         246         245
         4         230         231         247         246
         4         231         232         248         247
         4         232         233         249         248
         4         233         234         250         249
         4         234         235         251         250
         4         235         236         252         251
         4         236         237         253         252
         4         237         238         254         253
         4         238         239         255         254
         4         240         241         257         256
         4         241         242         258         257
         4         242         243         259         258
         4         243         244         260         259
         4         244         245         261         260
         4         245         246         262         261
         4         246         247         263         262
         4         247         248         264         263
         4         248         249         265         264
         4         249         250         266         265
         4         250         251         267         266
         4         251         252         268         267
         4         252         253         269         268
         4         253         254         270         269
         4         254         255         271         270
         4         256         257         273         272
         4         257         258         274         273
         4         258         259         275         274
         4         259         260         276         275
         4         260         261         277         276
         4         261         262         278         277
         4         262         263         279         278
         4         263         264         280         279
         4         264         265         281         280
         4         265         266         282         281
         4         266         267         283         282
         4         267         268         284         283
         4         268         269         285         284
         4         269         270         286         285
         4         270         271         287         286
         4         272         273         289         288
         4         273         274         290         289
         4         274         275         291         290
         4         275         276         292         291
         4         276         277         293         292
         4         277         278         294         293
         4         278         279         295         294
         4         279         280         296         295
         4         280         281         297         296
         4         281         282         298         297
         4         282         283         299         298
         4         283         284         300         299
         4         284         285         301         300
         4         285         286         302         301
         4         286         287         303         302
         4         288         289         305         304
         4         289         290         306         305
         4         290         291         307         306
         4         291         292         308         307
         4         292         293         309         308
         4         293         294         310         309
         4         294         295         311         310
         4         295         296         312         311
         4         296         297         313         312
         4         297         298         314         313
         4         298         299         315         314
         4         299         300         316         315
         4         300         301         317         316
         4         301         302         318         317
         4         302         303         319         318
         4         304         305         321         320
         4         305         306         322         321
         4         306         307         323         322
         4         307         308         324         323
         4         308         309         325         324
         4         309         310         326         325
         4         310         311         327         326
         4         311         312         328         327
         4         312         313         329         328
         4         313         314         330         329
         4         314         315         331         330
         4         315         316         332         331
         4         316         317         333         332
         4         317         318         334         333
         4         318         319         335         334
         4         320         321         337         336
         4         321         322         338         337
         4         322         323         339         338
         4         323         324         340         339
         4         324         325         341         340
         4         325         326         342         341
         4         326         327         343         342
         4         327         328         344         343
         4         328         329         345         344
         4         329         330         346         345
         4         330         331         347         346
         4         331         332         348         347
         4         332         333         349         348
         4         333         334         350         349
         4         334         335         351         350
         4         336         337         353         352
         4         337         338         354         353
         4         338         339         355         354
         4         339         340         356         355
         4         340         341         357         356
         4         341         342         358         357
         4         342         343         359         358
         4         343         344         360         359
         4         344         345         361         360
         4         345         346         362         361
         4         346         347         363         362
         4         347         348         364         363
         4         348         349         365         364
         4         349         350         366         365
         4         350         351         367         366
         4         352         353         369         368
         4         353         354         370         369
         4         354         355         371         370
         4         355         356         372         371
         4         356         357         373         372
         4         357         358         374         373
         4         358         359         375         374
         4         359         360         376         375
         4         360         361         377         376
         4         361         362         378         377
         4         362         363         379         378
         4         363         364         380         379
         4         364         365         381         380
         4         365         366         382         381
         4         366         367         383         382
         4         368         369         385         384
         4         369         370         386         385
         4         370         371         387         386
         4         371         372         388         387
         4         372         373         389         388
         4         373         374         390         389
         4         374         375         391         390
         4         375         376         392         391
         4         376         377         393         392
         4         377         378         394         393
         4         378         379         395         394
         4         379         380         396         395
         4         380         381         397         396
         4         381         382         398         397
         4         382         383         399         398
         4         384         385         401         400
         4         385         386         402         401
         4         386         387         403         402
         4         387         388         404         403
         4         388         389         405         404
         4         389         390         406         405
         4         390         391         407         406
         4         391         392         408         407
         4         392         393         409         408
         4         393         394         410         409
         4         394         395         411         410
         4         395         396         412         411
         4         396         397         413         412
         4         397         398         414         413
         4         398         399         415         414
         4         400         401         417         416
         4         401         402         418         417
         4         402         403         419         418
         4         403         404         420         419
         4         404         405         421         420
         4         405         406         422         421
         4         406         407         423         422
         4         407         408         424         423
         4         408         409         425         424
         4         409         410         426         425
         4         410         411         427         426
         4         411         412         428         427
         4         412         413         429         428
         4         413         414         430         429
         4         414         415         431         430
         4         416         417         433         432
         4         417         418         434         433
         4         418         419         435         434
         4         419         420         436         435
         4         420         421         437         436
         4         421         422         438         437
         4         422         423         439         438
         4         423         424         440         439
         4         424         425         441         440
         4         425         426         442         441
         4         426         427         443         442
         4         427         428         444         443
         4         428         429         445         444
         4         429         430         446         445
         4         430         431         447         446
         4         432         433         449         448
         4         433         434         450         449
         4         434         435         451         450
         4         435         436         452         451
         4         436         437         453         452
         4         437         438         454         453
         4         438         439         455         454
         4         439         440         456         455
         4         440         441         457         456
         4         441         442         458         457
         4         442         443         459         458
         4         443         444         460         459
         4         444         445         461         460
         4         445         446         462         461
         4         446         447         463         462
         4         448         449         465         464
         4         449         450         466         465
         4         450         451         467         466
         4         451         452         468         467
         4         452         453         469         468
         4         453         454         470         469
         4         454         455         471         470
         4         455         456         472         471
         4         456         457         473         472
         4         457         458         474         473
         4         458         459         475         474
         4         459         460         476         475
         4         460         461         477         476
         4         461         462         478         477
         4         462         463         479         478
         4         464         465         481         480
         4         465         466         482         481
         4         466         467         483         482
         4         467         468         484         483
         4         468         469         485         484
         4         469         470         486         485
         4         470         471         487         486
         4         471         472         488         487
         4         472         473         489         488
         4         473         474         490         489
         4         474         475         491         490
         4         475         476         492         491
         4         476         477         493         492
         4         477         478         494         493
         4         478         479         495         494
CELL_TYPES        450
9
9
9
9
9
9
9
9
9
9
9
9
9
9
9
9
9
9
9
9
9
9
9
9
9
9
9
9
9
9
9
9
9
9
9
9
9
9
9
9
9
9
9
9
9
9
9
9
9
9
9
9
9
9
9
9
9
9
9
9
9
9
9
9
9
9
9
9
9
9
9
9
9
9
9
9
9
9
9
9
9
9
9
9
9
9
9
9
9
9
9
9
9
9
9
9
9
9
9
9
9
9
9
9
9
9
9
9
9
9
9
9
9
9
9
9
9
9
9
9
9
9
9
9
9
9
9
9
9
9
9
9
9
9
9
9
9
9
9
9
9
9
9
9
9
9
9
9
9
9
9
9
9
9
9
9
9
9
9
9
9
9
9
9
9
9
9
9
9
9
9
9
9
9
9
9
9
9
9
9
9
9
9
9
9
9
9
9
9
9
9
9
9
9
9
9
9
9
9
9
9
9
9
9
9
9
9
9
9
9
9
9
9
9
9
9
9
9
9
9
9
9
9
9
9
9
9
9
9
9
9
9
9
9
9
9
9
9
9
9
9
9
9
9
9
9
9
9
9
9
9
9
9
9
9
9
9
9
9
9
9
9
9
9
9
9
9
9
9
9
9
9
9
9
9
9
9
9
9
9
9
9
9
9
9
9
9
9
9
9
9
9
9
9
9
9
9
9
9
9
9
9
9
9
9
9
9
9
9
9
9
9
9
9
9
9
9
9
9
9
9
9
9
9
9
9
9
9
9
9
9
9
9
9
9
9
9
9
9
9
9
9
9
9
9
9
9
9
9
9
9
9
9
9
9
9
9
9
9
9
9
9
9
9
9
9
9
9
9
9
9
9
9
9
9
9
9
9
9
9
9
9
9
9
9
9
9
9
9
9
9
9
9
9
9
9
9
9
9
9
9
9
9
9
9
9
9
9
9
9
9
9
9
9
9
9
9
9
9
9
9
9
9
9
9
9
9
9
9
9
9
9
9
9
9
9
9
9
9
9
9
9
9
9
9
9
9
9
9
9
POINT_DATA       496
SCALARS p double 
LOOKUP_TABLE default
   46635303.6775420     
   46635315.5566470     
   46635347.8514314     
   46635396.2437756     
   46635456.7853268     
   46635525.8669445     
   46635600.1874672     
   46635676.7222673     
   46635752.6920234     
   46635825.5320861     
   46635892.8627615     
   46635952.4607790     
   46636002.2321534     
   46636040.1865889     
   46636064.4135147     
   46636073.0597764     
   46632250.9092553     
   46632262.7532527     
   46632294.9499558     
   46632343.1915341     
   46632403.5401089     
   46632472.3970496     
   46632546.4716030     
   46632622.7493301     
   46632698.4607769     
   46632771.0507588     
   46632838.1485816     
   46632897.5394663     
   46632947.1373856     
   46632984.9594624     
   46633009.1020168     
   46633017.7182883     
   46623092.2686368     
   46623104.0072058     
   46623135.9093982     
   46623183.6983168     
   46623243.4675642     
   46623311.6500854     
   46623384.9863888     
   46623460.4926244     
   46623535.4289537     
   46623607.2685893     
   46623673.6678304     
   46623732.4373584     
   46623781.5150005     
   46623818.9401088     
   46623842.8296442     
   46623851.3559908     
   46607826.7493282     
   46607838.3118331     
   46607869.7222921     
   46607916.7555866     
   46607975.5579806     
   46608042.6152024     
   46608114.7199805     
   46608188.9395254     
   46608262.5833976     
   46608333.1721462     
   46608398.4070373     
   46608456.1411399     
   46608504.3519695     
   46608541.1158393     
   46608564.5840045     
   46608572.9606310     
   46586452.6771149     
   46586463.9924019     
   46586494.7126095     
   46586540.6855798     
   46586598.1317088     
   46586663.6109493     
   46586733.9893804     
   46586806.4058544     
   46586878.2391701     
   46586947.0761551     
   46587010.6809770     
   46587066.9659423     
   46587113.9639823     
   46587149.8029674     
   46587172.6819396     
   46587180.8492947     
   46558967.7144733     
   46558978.7106800     
   46559008.5403630     
   46559053.1459873     
   46559108.8439598     
   46559172.2902198     
   46559240.4455581     
   46559310.5411935     
   46559380.0450626     
   46559446.6292043     
   46559508.1385521     
   46559562.5613824     
   46559608.0016090     
   46559642.6530611     
   46559664.7758314     
   46559672.6747294     
   46525368.8668831     
   46525379.4712668     
   46525408.2080041     
   46525451.1364762     
   46525504.6915030     
   46525565.6471767     
   46525631.0806400     
   46525698.3363624     
   46525764.9913703     
   46525828.8218075     
   46525887.7711231     
   46525939.9201209     
   46525983.4590433     
   46526016.6618192     
   46526037.8625571     
   46526045.4343248     
   46485652.4908501     
   46485662.6296448     
   46485690.0685745     
   46485731.0070164     
   46485782.0212473     
   46485840.0261542     
   46485902.2371844     
   46485966.1330995     
   46486029.4199891     
   46486089.9969032     
   46486145.9233762     
   46486195.3890497     
   46486236.6855452     
   46486268.1806965     
   46486288.2952219     
   46486295.4818806     
   46439814.3035634     
   46439823.9018802     
   46439849.8355453     
   46439888.4679682     
   46439936.5406781     
   46439991.1325357     
   46440049.6195680     
   46440109.6359978     
   46440169.0369119     
   46440225.8628937     
   46440278.3068584     
   46440324.6832535     
   46440363.3997408     
   46440392.9314461     
   46440411.7978443     
   46440418.5423364     
   46387849.3940936     
   46387858.3758796     
   46387882.5942692     
   46387918.6018706     
   46387963.3301192     
   46388014.0456043     
   46388068.3075131     
   46388123.9267614     
   46388178.9272258     
   46388231.5093555     
   46388280.0163382     
   46388322.9029259     
   46388358.7069808     
   46388386.0237913     
   46388403.4832108     
   46388409.7296840     
   46329752.2360112     
   46329760.5240914     
   46329782.8149449     
   46329815.8768562     
   46329856.8567741     
   46329903.2333616     
   46329952.7717944     
   46330003.4808620     
   46330053.5727323     
   46330101.4255833     
   46330145.5491878     
   46330184.5534678     
   46330217.1200030     
   46330241.9764882     
   46330257.8741694     
   46330263.5683337     
   46265516.7012789     
   46265524.2175101     
   46265544.3669722     
   46265574.1616009     
   46265610.9904962     
   46265652.5693067     
   46265696.8921656     
   46265742.1866921     
   46265786.8723366     
   46265829.5221628     
   46265868.8280264     
   46265903.5690396     
   46265932.5831992     
   46265954.7420944     
   46265968.9286882     
   46265974.0182617     
   46195136.0752402     
   46195142.7408128     
   46195160.5345486     
   46195186.7416930     
   46195219.0212166     
   46195255.3511624     
   46195293.9775565     
   46195333.3673258     
   46195372.1653818     
   46195409.1558041     
   46195443.2269049     
   46195473.3398897     
   46195498.5008387     
   46195517.7358179     
   46195530.0690609     
   46195534.5043238     
   46118603.0724866     
   46118608.8084207     
   46118624.0333264     
   46118646.3372823     
   46118673.6779474     
   46118704.3215313     
   46118736.7885942     
   46118769.8050174     
   46118802.2581306     
   46118833.1577070     
   46118861.6013636     
   46118886.7438378     
   46118907.7696605     
   46118923.8688805     
   46118934.2157069     
   46118937.9501877     
   46035909.8533449     
   46035914.5812346     
   46035927.0279093     
   46035945.1218380     
   46035967.1492539     
   46035991.6904532     
   46036017.5625082     
   46036043.7685881     
   46036069.4536305     
   46036093.8657733     
   46036116.3227424     
   46036136.1823467     
   46036152.8163104     
   46036165.5868957     
   46036173.8260777     
   46036176.8173952     
   45947048.0406697     
   45947051.6837449     
   45947061.1499218     
   45947074.7418068     
   45947091.1050673     
   45947109.1598319     
   45947128.0404895     
   45947147.0438714     
   45947165.5852332     
   45947183.1610226     
   45947199.3171799     
   45947213.6216775     
   45947225.6401555     
   45947234.9138233     
   45947240.9392445     
   45947243.1501348     
   45852008.7365625     
   45852011.2211462     
   45852017.5163288     
   45852026.3369208     
   45852036.7196831     
   45852047.9496896     
   45852059.4975822     
   45852070.9674195     
   45852082.0540775     
   45852092.5086217     
   45852102.1097844     
   45852110.6396744     
   45852117.8620728     
   45852123.5021191     
   45852127.2267987     
   45852128.6263571     
   45750782.5385544     
   45750783.7960136     
   45750786.7476110     
   45750790.5608521     
   45750794.6957667     
   45750798.8262097     
   45750802.7752144     
   45750806.4637057     
   45750809.8708919     
   45750813.0039757     
   45750815.8745117     
   45750818.4787739     
   45750820.7798451     
   45750822.6897471     
   45750824.0507432     
   45750824.6159131     
   45643359.5546792     
   45643359.5239879     
   45643358.9853195     
   45643357.6018621     
   45643355.2891748     
   45643352.1315549     
   45643348.3165181     
   45643344.0861199     
   45643339.7025225     
   45643335.4243808     
   45643331.4903127     
   45643328.1058587     
   45643325.4308292     
   45643323.5647380     
   45643322.5290711     
   45643322.2464124     
   45529729.4167147     
   45529728.0477772     
   45529723.9084225     
   45529717.2030416     
   45529708.3344165     
   45529697.8155114     
   45529686.2046843     
   45529674.0621383     
   45529661.9236608     
   45529650.2867620     
   45529639.6041181     
   45529630.2795591     
   45529622.6625340     
   45529617.0379665     
   45529613.6097178     
   45529612.4774905     
   45409881.2906470     
   45409878.5485827     
   45409870.7477311     
   45409858.6817149     
   45409843.2706632     
   45409825.4691741     
   45409806.2047821     
   45409786.3432005     
   45409766.6743147     
   45409747.9120225     
   45409730.7011693     
   45409715.6255256     
   45409703.2116702     
   45409693.9247452     
   45409688.1535081     
   45409686.1841083     
   45283803.8830797     
   45283799.7537614     
   45283788.2975205     
   45283770.9476111     
   45283749.1684411     
   45283724.3612269     
   45283697.8098064     
   45283670.6600626     
   45283643.9236601     
   45283618.4964614     
   45283595.1830298     
   45283574.7199768     
   45283557.7920301     
   45283545.0356786     
   45283537.0266028     
   45283534.2494046     
   45151485.4417618     
   45151479.9390732     
   45151464.9232768     
   45151442.5195918     
   45151414.7576536     
   45151383.4780433     
   45151350.2923396     
   45151316.5847819     
   45151283.5409778     
   45151252.1905096     
   45151223.4532217     
   45151198.1813962     
   45151177.1911872     
   45151161.2769611     
   45151151.2027700     
   45151147.6674645     
   45012913.7474795     
   45012906.9231122     
   45012888.5642803     
   45012861.5412273     
   45012828.4586664     
   45012791.5701149     
   45012752.7642776     
   45012713.6010738     
   45012675.3744023     
   45012639.1845550     
   45012606.0096519     
   45012576.7694111     
   45012552.3753366     
   45012533.7598942     
   45012521.8756042     
   45012517.6562252     
   44868076.0928819     
   44868068.0502193     
   44868046.7295956     
   44868015.7967836     
   44867978.4203936     
   44867937.2096350     
   44867894.2488098     
   44867851.1855989     
   44867809.3380662     
   44867769.8006801     
   44867733.5415384     
   44867701.4883590     
   44867674.6004177     
   44867653.9187986     
   44867640.5806783     
   44867635.7807450     
   44716959.2405884     
   44716950.1558533     
   44716926.4862752     
   44716892.7322090     
   44716852.5737397     
   44716808.8680731     
   44716763.7714150     
   44716718.9036853     
   44716675.5077430     
   44716634.5874696     
   44716597.0260150     
   44716563.6902605     
   44716535.5255025     
   44716513.6355688     
   44716499.3277841     
   44716494.0875370     
   44559549.3462949     
   44559539.5040325     
   44559514.4404145     
   44559479.4931299     
   44559438.7173391     
   44559395.0288205     
   44559350.4796780     
   44559306.5236223     
   44559264.2240938     
   44559224.4125918     
   44559187.8155977     
   44559155.1669390     
   44559127.3201139     
   44559105.3674666     
   44559090.7443047     
   44559085.2526349     
   44395831.8174185     
   44395821.6778776     
   44395796.7202239     
   44395763.0101543     
   44395724.6683739     
   44395684.3574924     
   44395643.8034836     
   44395604.1529766     
   44395566.2009836     
   44395530.5452985     
   44395497.7026826     
   44395468.2122156     
   44395442.7478967     
   44395422.2698664     
   44395408.2344592     
   44395402.7504964     
   44225791.0354173     
   44225781.3925797     
   44225759.0023656     
   44225730.2099420     
   44225698.5322745     
   44225665.9547001     
   44225633.6638933     
   44225602.3968026     
   44225572.6342875     
   44225544.7199252     
   44225518.9450012     
   44225495.6238948     
   44225475.1830004     
   44225458.2946721     
   44225446.1596614     
   44225441.0774862     
   44049409.7676979     
   44049402.1539505     
   44049386.8108117     
   44049368.5062524     
   44049349.1429190     
   44049329.7017712     
   44049310.7258353     
   44049292.5301176     
   44049275.3046601     
   44049259.1745727     
   44049244.2413672     
   44049230.6193613     
   44049218.4793395     
   44049208.1242265     
   44049200.1360200     
   44049196.0319125     
   43866666.6666667     
   43866666.6666667     
   43866666.6666667     
   43866666.6666667     
   43866666.6666667     
   43866666.6666667     
   43866666.6666667     
   43866666.6666667     
   43866666.6666667     
   43866666.6666667     
   43866666.6666667     
   43866666.6666667     
   43866666.6666667     
   43866666.6666667     
   43866666.6666667     
   43866666.6666667     
VECTORS u double 
    0.00000E+00        -0.15538E-01         0.00000E+00
    0.00000E+00        -0.14491E-01         0.00000E+00
    0.00000E+00        -0.13445E-01         0.00000E+00
    0.00000E+00        -0.12401E-01         0.00000E+00
    0.00000E+00        -0.11358E-01         0.00000E+00
    0.00000E+00        -0.10317E-01         0.00000E+00
    0.00000E+00        -0.92771E-02         0.00000E+00
    0.00000E+00        -0.82387E-02         0.00000E+00
    0.00000E+00        -0.72019E-02         0.00000E+00
    0.00000E+00        -0.61667E-02         0.00000E+00
    0.00000E+00        -0.51332E-02         0.00000E+00
    0.00000E+00        -0.41017E-02         0.00000E+00
    0.00000E+00        -0.30723E-02         0.00000E+00
    0.00000E+00        -0.20454E-02         0.00000E+00
    0.00000E+00        -0.10212E-02         0.00000E+00
    0.00000E+00         0.00000E+00         0.00000E+00
    0.81078E-04        -0.15542E-01         0.00000E+00
    0.74126E-04        -0.14494E-01         0.00000E+00
    0.67575E-04        -0.13448E-01         0.00000E+00
    0.61401E-04        -0.12404E-01         0.00000E+00
    0.55568E-04        -0.11361E-01         0.00000E+00
    0.50035E-04        -0.10320E-01         0.00000E+00
    0.44754E-04        -0.92795E-02         0.00000E+00
    0.39675E-04        -0.82409E-02         0.00000E+00
    0.34745E-04        -0.72038E-02         0.00000E+00
    0.29910E-04        -0.61683E-02         0.00000E+00
    0.25116E-04        -0.51346E-02         0.00000E+00
    0.20311E-04        -0.41028E-02         0.00000E+00
    0.15444E-04        -0.30732E-02         0.00000E+00
    0.10467E-04        -0.20460E-02         0.00000E+00
    0.53331E-05        -0.10215E-02         0.00000E+00
    0.00000E+00         0.00000E+00         0.00000E+00
    0.16176E-03        -0.15553E-01         0.00000E+00
    0.14786E-03        -0.14505E-01         0.00000E+00
    0.13478E-03        -0.13458E-01         0.00000E+00
    0.12245E-03        -0.12413E-01         0.00000E+00
    0.11081E-03        -0.11369E-01         0.00000E+00
    0.99771E-04        -0.10327E-01         0.00000E+00
    0.89240E-04        -0.92867E-02         0.00000E+00
    0.79114E-04        -0.82474E-02         0.00000E+00
    0.69286E-04        -0.72096E-02         0.00000E+00
    0.59648E-04        -0.61733E-02         0.00000E+00
    0.50093E-04        -0.51388E-02         0.00000E+00
    0.40514E-04        -0.41063E-02         0.00000E+00
    0.30809E-04        -0.30758E-02         0.00000E+00
    0.20882E-04        -0.20477E-02         0.00000E+00
    0.10641E-04        -0.10224E-02         0.00000E+00
    0.00000E+00         0.00000E+00         0.00000E+00
    0.24165E-03        -0.15571E-01         0.00000E+00
    0.22082E-03        -0.14522E-01         0.00000E+00
    0.20123E-03        -0.13474E-01         0.00000E+00
    0.18279E-03        -0.12428E-01         0.00000E+00
    0.16540E-03        -0.11384E-01         0.00000E+00
    0.14891E-03        -0.10340E-01         0.00000E+00
    0.13319E-03        -0.92986E-02         0.00000E+00
    0.11808E-03        -0.82581E-02         0.00000E+00
    0.10342E-03        -0.72192E-02         0.00000E+00
    0.89045E-04        -0.61817E-02         0.00000E+00
    0.74792E-04        -0.51459E-02         0.00000E+00
    0.60500E-04        -0.41120E-02         0.00000E+00
    0.46017E-04        -0.30802E-02         0.00000E+00
    0.31196E-04        -0.20507E-02         0.00000E+00
    0.15900E-04        -0.10239E-02         0.00000E+00
    0.00000E+00         0.00000E+00         0.00000E+00
    0.32033E-03        -0.15596E-01         0.00000E+00
    0.29261E-03        -0.14545E-01         0.00000E+00
    0.26656E-03        -0.13496E-01         0.00000E+00
    0.24207E-03        -0.12449E-01         0.00000E+00
    0.21900E-03        -0.11403E-01         0.00000E+00
    0.19715E-03        -0.10359E-01         0.00000E+00
    0.17633E-03        -0.93152E-02         0.00000E+00
    0.15634E-03        -0.82732E-02         0.00000E+00
    0.13694E-03        -0.72326E-02         0.00000E+00
    0.11793E-03        -0.61934E-02         0.00000E+00
    0.99074E-04        -0.51558E-02         0.00000E+00
    0.80163E-04        -0.41201E-02         0.00000E+00
    0.60989E-04        -0.30863E-02         0.00000E+00
    0.41358E-04        -0.20548E-02         0.00000E+00
    0.21085E-04        -0.10260E-02         0.00000E+00
    0.00000E+00         0.00000E+00         0.00000E+00
    0.39740E-03        -0.15628E-01         0.00000E+00
    0.36281E-03        -0.14576E-01         0.00000E+00
    0.33037E-03        -0.13525E-01         0.00000E+00
    0.29993E-03        -0.12476E-01         0.00000E+00
    0.27127E-03        -0.11428E-01         0.00000E+00
    0.24418E-03        -0.10382E-01         0.00000E+00
    0.21840E-03        -0.93367E-02         0.00000E+00
    0.19365E-03        -0.82926E-02         0.00000E+00
    0.16965E-03        -0.72498E-02         0.00000E+00
    0.14613E-03        -0.62084E-02         0.00000E+00
    0.12280E-03        -0.51686E-02         0.00000E+00
    0.99396E-04        -0.41304E-02         0.00000E+00
    0.75649E-04        -0.30942E-02         0.00000E+00
    0.51318E-04        -0.20601E-02         0.00000E+00
    0.26172E-04        -0.10286E-02         0.00000E+00
    0.00000E+00         0.00000E+00         0.00000E+00
    0.47242E-03        -0.15667E-01         0.00000E+00
    0.43102E-03        -0.14613E-01         0.00000E+00
    0.39228E-03        -0.13560E-01         0.00000E+00
    0.35598E-03        -0.12509E-01         0.00000E+00
    0.32189E-03        -0.11459E-01         0.00000E+00
    0.28970E-03        -0.10410E-01         0.00000E+00
    0.25911E-03        -0.93628E-02         0.00000E+00
    0.22977E-03        -0.83163E-02         0.00000E+00
    0.20134E-03        -0.72709E-02         0.00000E+00
    0.17348E-03        -0.62268E-02         0.00000E+00
    0.14584E-03        -0.51841E-02         0.00000E+00
    0.11809E-03        -0.41430E-02         0.00000E+00
    0.89922E-04        -0.31038E-02         0.00000E+00
    0.61029E-04        -0.20666E-02         0.00000E+00
    0.31140E-04        -0.10319E-02         0.00000E+00
    0.00000E+00         0.00000E+00         0.00000E+00
    0.54493E-03        -0.15713E-01         0.00000E+00
    0.49680E-03        -0.14657E-01         0.00000E+00
    0.45186E-03        -0.13602E-01         0.00000E+00
    0.40986E-03        -0.12548E-01         0.00000E+00
    0.37049E-03        -0.11496E-01         0.00000E+00
    0.33339E-03        -0.10444E-01         0.00000E+00
    0.29819E-03        -0.93937E-02         0.00000E+00
    0.26446E-03        -0.83442E-02         0.00000E+00
    0.23181E-03        -0.72957E-02         0.00000E+00
    0.19981E-03        -0.62484E-02         0.00000E+00
    0.16806E-03        -0.52024E-02         0.00000E+00
    0.13615E-03        -0.41579E-02         0.00000E+00
    0.10373E-03        -0.31151E-02         0.00000E+00
    0.70445E-04        -0.20743E-02         0.00000E+00
    0.35965E-04        -0.10358E-02         0.00000E+00
    0.00000E+00         0.00000E+00         0.00000E+00
    0.61448E-03        -0.15767E-01         0.00000E+00
    0.55970E-03        -0.14707E-01         0.00000E+00
    0.50870E-03        -0.13650E-01         0.00000E+00
    0.46116E-03        -0.12593E-01         0.00000E+00
    0.41672E-03        -0.11537E-01         0.00000E+00
    0.37493E-03        -0.10483E-01         0.00000E+00
    0.33535E-03        -0.94292E-02         0.00000E+00
    0.29749E-03        -0.83763E-02         0.00000E+00
    0.26085E-03        -0.73244E-02         0.00000E+00
    0.22495E-03        -0.62734E-02         0.00000E+00
    0.18931E-03        -0.52235E-02         0.00000E+00
    0.15348E-03        -0.41750E-02         0.00000E+00
    0.11701E-03        -0.31281E-02         0.00000E+00
    0.79520E-04        -0.20831E-02         0.00000E+00
    0.40627E-04        -0.10403E-02         0.00000E+00
    0.00000E+00         0.00000E+00         0.00000E+00
    0.68056E-03        -0.15827E-01         0.00000E+00
    0.61924E-03        -0.14765E-01         0.00000E+00
    0.56235E-03        -0.13704E-01         0.00000E+00
    0.50949E-03        -0.12644E-01         0.00000E+00
    0.46021E-03        -0.11585E-01         0.00000E+00
    0.41400E-03        -0.10527E-01         0.00000E+00
    0.37032E-03        -0.94694E-02         0.00000E+00
    0.32859E-03        -0.84127E-02         0.00000E+00
    0.28825E-03        -0.73567E-02         0.00000E+00
    0.24872E-03        -0.63015E-02         0.00000E+00
    0.20947E-03        -0.52474E-02         0.00000E+00
    0.16996E-03        -0.41944E-02         0.00000E+00
    0.12969E-03        -0.31428E-02         0.00000E+00
    0.88213E-04        -0.20930E-02         0.00000E+00
    0.45107E-04        -0.10453E-02         0.00000E+00
    0.00000E+00         0.00000E+00         0.00000E+00
    0.74265E-03        -0.15894E-01         0.00000E+00
    0.67494E-03        -0.14828E-01         0.00000E+00
    0.61236E-03        -0.13764E-01         0.00000E+00
    0.55442E-03        -0.12700E-01         0.00000E+00
    0.50059E-03        -0.11638E-01         0.00000E+00
    0.45026E-03        -0.10576E-01         0.00000E+00
    0.40279E-03        -0.95141E-02         0.00000E+00
    0.35753E-03        -0.84531E-02         0.00000E+00
    0.31380E-03        -0.73927E-02         0.00000E+00
    0.27097E-03        -0.63329E-02         0.00000E+00
    0.22841E-03        -0.52739E-02         0.00000E+00
    0.18550E-03        -0.42159E-02         0.00000E+00
    0.14170E-03        -0.31592E-02         0.00000E+00
    0.96482E-04        -0.21041E-02         0.00000E+00
    0.49387E-04        -0.10509E-02         0.00000E+00
    0.00000E+00         0.00000E+00         0.00000E+00
    0.80020E-03        -0.15968E-01         0.00000E+00
    0.72627E-03        -0.14898E-01         0.00000E+00
    0.65824E-03        -0.13830E-01         0.00000E+00
    0.59552E-03        -0.12762E-01         0.00000E+00
    0.53747E-03        -0.11696E-01         0.00000E+00
    0.48337E-03        -0.10629E-01         0.00000E+00
    0.43248E-03        -0.95632E-02         0.00000E+00
    0.38405E-03        -0.84976E-02         0.00000E+00
    0.33731E-03        -0.74322E-02         0.00000E+00
    0.29153E-03        -0.63673E-02         0.00000E+00
    0.24599E-03        -0.53030E-02         0.00000E+00
    0.20001E-03        -0.42396E-02         0.00000E+00
    0.15297E-03        -0.31772E-02         0.00000E+00
    0.10429E-03        -0.21162E-02         0.00000E+00
    0.53448E-04        -0.10570E-02         0.00000E+00
    0.00000E+00         0.00000E+00         0.00000E+00
    0.85260E-03        -0.16048E-01         0.00000E+00
    0.77269E-03        -0.14974E-01         0.00000E+00
    0.69950E-03        -0.13902E-01         0.00000E+00
    0.63234E-03        -0.12830E-01         0.00000E+00
    0.57044E-03        -0.11759E-01         0.00000E+00
    0.51297E-03        -0.10688E-01         0.00000E+00
    0.45908E-03        -0.96168E-02         0.00000E+00
    0.40789E-03        -0.85460E-02         0.00000E+00
    0.35855E-03        -0.74753E-02         0.00000E+00
    0.31021E-03        -0.64048E-02         0.00000E+00
    0.26208E-03        -0.53347E-02         0.00000E+00
    0.21339E-03        -0.42653E-02         0.00000E+00
    0.16344E-03        -0.31967E-02         0.00000E+00
    0.11159E-03        -0.21294E-02         0.00000E+00
    0.57276E-04        -0.10637E-02         0.00000E+00
    0.00000E+00         0.00000E+00         0.00000E+00
    0.89924E-03        -0.16135E-01         0.00000E+00
    0.81361E-03        -0.15057E-01         0.00000E+00
    0.73561E-03        -0.13979E-01         0.00000E+00
    0.66440E-03        -0.12903E-01         0.00000E+00
    0.59909E-03        -0.11827E-01         0.00000E+00
    0.53871E-03        -0.10751E-01         0.00000E+00
    0.48227E-03        -0.96745E-02         0.00000E+00
    0.42880E-03        -0.85981E-02         0.00000E+00
    0.37730E-03        -0.75217E-02         0.00000E+00
    0.32685E-03        -0.64452E-02         0.00000E+00
    0.27654E-03        -0.53689E-02         0.00000E+00
    0.22553E-03        -0.42930E-02         0.00000E+00
    0.17304E-03        -0.32178E-02         0.00000E+00
    0.11835E-03        -0.21436E-02         0.00000E+00
    0.60853E-04        -0.10709E-02         0.00000E+00
    0.00000E+00         0.00000E+00         0.00000E+00
    0.93943E-03        -0.16227E-01         0.00000E+00
    0.84842E-03        -0.15144E-01         0.00000E+00
    0.76601E-03        -0.14063E-01         0.00000E+00
    0.69123E-03        -0.12981E-01         0.00000E+00
    0.62299E-03        -0.11900E-01         0.00000E+00
    0.56021E-03        -0.10818E-01         0.00000E+00
    0.50175E-03        -0.97362E-02         0.00000E+00
    0.44650E-03        -0.86539E-02         0.00000E+00
    0.39335E-03        -0.75712E-02         0.00000E+00
    0.34127E-03        -0.64883E-02         0.00000E+00
    0.28924E-03        -0.54054E-02         0.00000E+00
    0.23634E-03        -0.43226E-02         0.00000E+00
    0.18170E-03        -0.32403E-02         0.00000E+00
    0.12453E-03        -0.21588E-02         0.00000E+00
    0.64163E-04        -0.10786E-02         0.00000E+00
    0.00000E+00         0.00000E+00         0.00000E+00
    0.97246E-03        -0.16326E-01         0.00000E+00
    0.87647E-03        -0.15238E-01         0.00000E+00
    0.79014E-03        -0.14151E-01         0.00000E+00
    0.71230E-03        -0.13064E-01         0.00000E+00
    0.64171E-03        -0.11977E-01         0.00000E+00
    0.57710E-03        -0.10890E-01         0.00000E+00
    0.51719E-03        -0.98015E-02         0.00000E+00
    0.46072E-03        -0.87129E-02         0.00000E+00
    0.40647E-03        -0.76237E-02         0.00000E+00
    0.35328E-03        -0.65340E-02         0.00000E+00
    0.30003E-03        -0.54440E-02         0.00000E+00
    0.24571E-03        -0.43539E-02         0.00000E+00
    0.18935E-03        -0.32641E-02         0.00000E+00
    0.13009E-03        -0.21749E-02         0.00000E+00
    0.67189E-04        -0.10867E-02         0.00000E+00
    0.00000E+00         0.00000E+00         0.00000E+00
    0.99757E-03        -0.16430E-01         0.00000E+00
    0.89709E-03        -0.15336E-01         0.00000E+00
    0.80740E-03        -0.14244E-01         0.00000E+00
    0.72711E-03        -0.13151E-01         0.00000E+00
    0.65479E-03        -0.12058E-01         0.00000E+00
    0.58898E-03        -0.10965E-01         0.00000E+00
    0.52825E-03        -0.98703E-02         0.00000E+00
    0.47117E-03        -0.87750E-02         0.00000E+00
    0.41641E-03        -0.76789E-02         0.00000E+00
    0.36268E-03        -0.65820E-02         0.00000E+00
    0.30876E-03        -0.54846E-02         0.00000E+00
    0.25351E-03        -0.43869E-02         0.00000E+00
    0.19590E-03        -0.32891E-02         0.00000E+00
    0.13498E-03        -0.21918E-02         0.00000E+00
    0.69910E-04        -0.10953E-02         0.00000E+00
    0.00000E+00         0.00000E+00         0.00000E+00
    0.10139E-02        -0.16538E-01         0.00000E+00
    0.90957E-03        -0.15439E-01         0.00000E+00
    0.81717E-03        -0.14341E-01         0.00000E+00
    0.73512E-03        -0.13243E-01         0.00000E+00
    0.66177E-03        -0.12143E-01         0.00000E+00
    0.59547E-03        -0.11043E-01         0.00000E+00
    0.53459E-03        -0.99420E-02         0.00000E+00
    0.47757E-03        -0.88397E-02         0.00000E+00
    0.42293E-03        -0.77363E-02         0.00000E+00
    0.36926E-03        -0.66320E-02         0.00000E+00
    0.31524E-03        -0.55268E-02         0.00000E+00
    0.25962E-03        -0.44211E-02         0.00000E+00
    0.20126E-03        -0.33152E-02         0.00000E+00
    0.13913E-03        -0.22094E-02         0.00000E+00
    0.72300E-04        -0.11042E-02         0.00000E+00
    0.00000E+00         0.00000E+00         0.00000E+00
    0.10207E-02        -0.16651E-01         0.00000E+00
    0.91316E-03        -0.15547E-01         0.00000E+00
    0.81880E-03        -0.14442E-01         0.00000E+00
    0.73578E-03        -0.13337E-01         0.00000E+00
    0.66219E-03        -0.12231E-01         0.00000E+00
    0.59615E-03        -0.11124E-01         0.00000E+00
    0.53586E-03        -0.10016E-01         0.00000E+00
    0.47960E-03        -0.89065E-02         0.00000E+00
    0.42575E-03        -0.77956E-02         0.00000E+00
    0.37279E-03        -0.66835E-02         0.00000E+00
    0.31927E-03        -0.55704E-02         0.00000E+00
    0.26386E-03        -0.44565E-02         0.00000E+00
    0.20531E-03        -0.33421E-02         0.00000E+00
    0.14247E-03        -0.22276E-02         0.00000E+00
    0.74323E-04        -0.11134E-02         0.00000E+00
    0.00000E+00         0.00000E+00         0.00000E+00
    0.10171E-02        -0.16768E-01         0.00000E+00
    0.90710E-03        -0.15657E-01         0.00000E+00
    0.81166E-03        -0.14546E-01         0.00000E+00
    0.72855E-03        -0.13435E-01         0.00000E+00
    0.65557E-03        -0.12322E-01         0.00000E+00
    0.59062E-03        -0.11208E-01         0.00000E+00
    0.53170E-03        -0.10092E-01         0.00000E+00
    0.47694E-03        -0.89749E-02         0.00000E+00
    0.42458E-03        -0.78563E-02         0.00000E+00
    0.37298E-03        -0.67362E-02         0.00000E+00
    0.32062E-03        -0.56150E-02         0.00000E+00
    0.26604E-03        -0.44927E-02         0.00000E+00
    0.20789E-03        -0.33697E-02         0.00000E+00
    0.14490E-03        -0.22463E-02         0.00000E+00
    0.75933E-04        -0.11229E-02         0.00000E+00
    0.00000E+00         0.00000E+00         0.00000E+00
    0.10020E-02        -0.16887E-01         0.00000E+00
    0.89059E-03        -0.15770E-01         0.00000E+00
    0.79509E-03        -0.14652E-01         0.00000E+00
    0.71287E-03        -0.13534E-01         0.00000E+00
    0.64145E-03        -0.12414E-01         0.00000E+00
    0.57848E-03        -0.11292E-01         0.00000E+00
    0.52174E-03        -0.10169E-01         0.00000E+00
    0.46923E-03        -0.90441E-02         0.00000E+00
    0.41908E-03        -0.79176E-02         0.00000E+00
    0.36954E-03        -0.67895E-02         0.00000E+00
    0.31900E-03        -0.56600E-02         0.00000E+00
    0.26591E-03        -0.45293E-02         0.00000E+00
    0.20880E-03        -0.33976E-02         0.00000E+00
    0.14628E-03        -0.22652E-02         0.00000E+00
    0.77064E-04        -0.11325E-02         0.00000E+00
    0.00000E+00         0.00000E+00         0.00000E+00
    0.97445E-03        -0.17008E-01         0.00000E+00
    0.86285E-03        -0.15884E-01         0.00000E+00
    0.76843E-03        -0.14759E-01         0.00000E+00
    0.68822E-03        -0.13634E-01         0.00000E+00
    0.61939E-03        -0.12506E-01         0.00000E+00
    0.55931E-03        -0.11377E-01         0.00000E+00
    0.50561E-03        -0.10246E-01         0.00000E+00
    0.45611E-03        -0.91133E-02         0.00000E+00
    0.40888E-03        -0.79788E-02         0.00000E+00
    0.36209E-03        -0.68427E-02         0.00000E+00
    0.31406E-03        -0.57050E-02         0.00000E+00
    0.26316E-03        -0.45659E-02         0.00000E+00
    0.20779E-03        -0.34256E-02         0.00000E+00
    0.14644E-03        -0.22842E-02         0.00000E+00
    0.77625E-04        -0.11422E-02         0.00000E+00
    0.00000E+00         0.00000E+00         0.00000E+00
    0.93354E-03        -0.17129E-01         0.00000E+00
    0.82305E-03        -0.15998E-01         0.00000E+00
    0.73105E-03        -0.14867E-01         0.00000E+00
    0.65408E-03        -0.13733E-01         0.00000E+00
    0.58894E-03        -0.12598E-01         0.00000E+00
    0.53273E-03        -0.11461E-01         0.00000E+00
    0.48289E-03        -0.10322E-01         0.00000E+00
    0.43717E-03        -0.91814E-02         0.00000E+00
    0.39355E-03        -0.80390E-02         0.00000E+00
    0.35019E-03        -0.68949E-02         0.00000E+00
    0.30536E-03        -0.57493E-02         0.00000E+00
    0.25737E-03        -0.46020E-02         0.00000E+00
    0.20452E-03        -0.34533E-02         0.00000E+00
    0.14512E-03        -0.23031E-02         0.00000E+00
    0.77487E-04        -0.11519E-02         0.00000E+00
    0.00000E+00         0.00000E+00         0.00000E+00
    0.87820E-03        -0.17249E-01         0.00000E+00
    0.77043E-03        -0.16111E-01         0.00000E+00
    0.68237E-03        -0.14972E-01         0.00000E+00
    0.61001E-03        -0.13831E-01         0.00000E+00
    0.54972E-03        -0.12688E-01         0.00000E+00
    0.49834E-03        -0.11543E-01         0.00000E+00
    0.45318E-03        -0.10396E-01         0.00000E+00
    0.41193E-03        -0.92472E-02         0.00000E+00
    0.37257E-03        -0.80970E-02         0.00000E+00
    0.33329E-03        -0.69454E-02         0.00000E+00
    0.29235E-03        -0.57920E-02         0.00000E+00
    0.24802E-03        -0.46370E-02         0.00000E+00
    0.19853E-03        -0.34802E-02         0.00000E+00
    0.14200E-03        -0.23216E-02         0.00000E+00
    0.76474E-04        -0.11614E-02         0.00000E+00
    0.00000E+00         0.00000E+00         0.00000E+00
    0.80737E-03        -0.17366E-01         0.00000E+00
    0.70422E-03        -0.16221E-01         0.00000E+00
    0.62186E-03        -0.15074E-01         0.00000E+00
    0.55560E-03        -0.13925E-01         0.00000E+00
    0.50137E-03        -0.12774E-01         0.00000E+00
    0.45577E-03        -0.11620E-01         0.00000E+00
    0.41603E-03        -0.10466E-01         0.00000E+00
    0.37987E-03        -0.93093E-02         0.00000E+00
    0.34535E-03        -0.81518E-02         0.00000E+00
    0.31072E-03        -0.69929E-02         0.00000E+00
    0.27433E-03        -0.58324E-02         0.00000E+00
    0.23444E-03        -0.46702E-02         0.00000E+00
    0.18922E-03        -0.35059E-02         0.00000E+00
    0.13661E-03        -0.23394E-02         0.00000E+00
    0.74341E-04        -0.11707E-02         0.00000E+00
    0.00000E+00         0.00000E+00         0.00000E+00
    0.72000E-03        -0.17479E-01         0.00000E+00
    0.62373E-03        -0.16326E-01         0.00000E+00
    0.54910E-03        -0.15171E-01         0.00000E+00
    0.49056E-03        -0.14013E-01         0.00000E+00
    0.44359E-03        -0.12853E-01         0.00000E+00
    0.40463E-03        -0.11692E-01         0.00000E+00
    0.37094E-03        -0.10530E-01         0.00000E+00
    0.34038E-03        -0.93662E-02         0.00000E+00
    0.31116E-03        -0.82018E-02         0.00000E+00
    0.28169E-03        -0.70363E-02         0.00000E+00
    0.25043E-03        -0.58695E-02         0.00000E+00
    0.21576E-03        -0.47008E-02         0.00000E+00
    0.17581E-03        -0.35299E-02         0.00000E+00
    0.12835E-03        -0.23562E-02         0.00000E+00
    0.70746E-04        -0.11796E-02         0.00000E+00
    0.00000E+00         0.00000E+00         0.00000E+00
    0.61501E-03        -0.17584E-01         0.00000E+00
    0.52842E-03        -0.16423E-01         0.00000E+00
    0.46384E-03        -0.15259E-01         0.00000E+00
    0.41473E-03        -0.14093E-01         0.00000E+00
    0.37613E-03        -0.12925E-01         0.00000E+00
    0.34451E-03        -0.11756E-01         0.00000E+00
    0.31734E-03        -0.10586E-01         0.00000E+00
    0.29272E-03        -0.94162E-02         0.00000E+00
    0.26913E-03        -0.82456E-02         0.00000E+00
    0.24521E-03        -0.70744E-02         0.00000E+00
    0.21962E-03        -0.59021E-02         0.00000E+00
    0.19089E-03        -0.47280E-02         0.00000E+00
    0.15725E-03        -0.35515E-02         0.00000E+00
    0.11637E-03        -0.23717E-02         0.00000E+00
    0.65209E-04        -0.11879E-02         0.00000E+00
    0.00000E+00         0.00000E+00         0.00000E+00
    0.49135E-03        -0.17678E-01         0.00000E+00
    0.41792E-03        -0.16509E-01         0.00000E+00
    0.36606E-03        -0.15337E-01         0.00000E+00
    0.32802E-03        -0.14162E-01         0.00000E+00
    0.29869E-03        -0.12986E-01         0.00000E+00
    0.27488E-03        -0.11809E-01         0.00000E+00
    0.25449E-03        -0.10633E-01         0.00000E+00
    0.23601E-03        -0.94574E-02         0.00000E+00
    0.21825E-03        -0.82818E-02         0.00000E+00
    0.20014E-03        -0.71059E-02         0.00000E+00
    0.18063E-03        -0.59291E-02         0.00000E+00
    0.15850E-03        -0.47508E-02         0.00000E+00
    0.13220E-03        -0.35699E-02         0.00000E+00
    0.99498E-04        -0.23852E-02         0.00000E+00
    0.57025E-04        -0.11955E-02         0.00000E+00
    0.00000E+00         0.00000E+00         0.00000E+00
    0.34798E-03        -0.17757E-01         0.00000E+00
    0.29231E-03        -0.16580E-01         0.00000E+00
    0.25607E-03        -0.15398E-01         0.00000E+00
    0.23040E-03        -0.14215E-01         0.00000E+00
    0.21083E-03        -0.13032E-01         0.00000E+00
    0.19501E-03        -0.11850E-01         0.00000E+00
    0.18147E-03        -0.10669E-01         0.00000E+00
    0.16918E-03        -0.94884E-02         0.00000E+00
    0.15734E-03        -0.83088E-02         0.00000E+00
    0.14521E-03        -0.71294E-02         0.00000E+00
    0.13206E-03        -0.59495E-02         0.00000E+00
    0.11704E-03        -0.47682E-02         0.00000E+00
    0.98977E-04        -0.35843E-02         0.00000E+00
    0.76100E-04        -0.23963E-02         0.00000E+00
    0.45099E-04        -0.12022E-02         0.00000E+00
    0.00000E+00         0.00000E+00         0.00000E+00
    0.18398E-03        -0.17816E-01         0.00000E+00
    0.15249E-03        -0.16629E-01         0.00000E+00
    0.13425E-03        -0.15439E-01         0.00000E+00
    0.12144E-03        -0.14250E-01         0.00000E+00
    0.11171E-03        -0.13061E-01         0.00000E+00
    0.10384E-03        -0.11875E-01         0.00000E+00
    0.97107E-04        -0.10691E-01         0.00000E+00
    0.90983E-04        -0.95076E-02         0.00000E+00
    0.85065E-04        -0.83256E-02         0.00000E+00
    0.78987E-04        -0.71440E-02         0.00000E+00
    0.72376E-04        -0.59622E-02         0.00000E+00
    0.64786E-04        -0.47791E-02         0.00000E+00
    0.55603E-04        -0.35936E-02         0.00000E+00
    0.43822E-04        -0.24039E-02         0.00000E+00
    0.27493E-04        -0.12075E-02         0.00000E+00
    0.00000E+00         0.00000E+00         0.00000E+00
    0.00000E+00        -0.17842E-01         0.00000E+00
    0.00000E+00        -0.16648E-01         0.00000E+00
    0.00000E+00        -0.15454E-01         0.00000E+00
    0.00000E+00        -0.14261E-01         0.00000E+00
    0.00000E+00        -0.13071E-01         0.00000E+00
    0.00000E+00        -0.11884E-01         0.00000E+00
    0.00000E+00        -0.10698E-01         0.00000E+00
    0.00000E+00        -0.95141E-02         0.00000E+00
    0.00000E+00        -0.83312E-02         0.00000E+00
    0.00000E+00        -0.71490E-02         0.00000E+00
    0.00000E+00        -0.59665E-02         0.00000E+00
    0.00000E+00        -0.47829E-02         0.00000E+00
    0.00000E+00        -0.35968E-02         0.00000E+00
    0.00000E+00        -0.24066E-02         0.00000E+00
    0.00000E+00        -0.12097E-02         0.00000E+00
    0.00000E+00         0.00000E+00         0.00000E+00
CELL_DATA        450
VECTORS vDarcy double 
    0.17431E-08         0.67726E-11         0.00000E+00
    0.17431E-08         0.18411E-10         0.00000E+00
    0.17431E-08         0.27587E-10         0.00000E+00
    0.17432E-08         0.34512E-10         0.00000E+00
    0.17434E-08         0.39379E-10         0.00000E+00
    0.17435E-08         0.42364E-10         0.00000E+00
    0.17436E-08         0.43625E-10         0.00000E+00
    0.17438E-08         0.43302E-10         0.00000E+00
    0.17439E-08         0.41517E-10         0.00000E+00
    0.17440E-08         0.38376E-10         0.00000E+00
    0.17442E-08         0.33969E-10         0.00000E+00
    0.17443E-08         0.28368E-10         0.00000E+00
    0.17443E-08         0.21632E-10         0.00000E+00
    0.17444E-08         0.13808E-10         0.00000E+00
    0.17444E-08         0.49280E-11         0.00000E+00
    0.52293E-08         0.67325E-11         0.00000E+00
    0.52294E-08         0.18299E-10         0.00000E+00
    0.52296E-08         0.27415E-10         0.00000E+00
    0.52299E-08         0.34291E-10         0.00000E+00
    0.52302E-08         0.39122E-10         0.00000E+00
    0.52306E-08         0.42083E-10         0.00000E+00
    0.52310E-08         0.43331E-10         0.00000E+00
    0.52315E-08         0.43007E-10         0.00000E+00
    0.52319E-08         0.41231E-10         0.00000E+00
    0.52323E-08         0.38110E-10         0.00000E+00
    0.52327E-08         0.33732E-10         0.00000E+00
    0.52330E-08         0.28169E-10         0.00000E+00
    0.52332E-08         0.21481E-10         0.00000E+00
    0.52334E-08         0.13712E-10         0.00000E+00
    0.52335E-08         0.48938E-11         0.00000E+00
    0.87162E-08         0.66521E-11         0.00000E+00
    0.87164E-08         0.18075E-10         0.00000E+00
    0.87167E-08         0.27070E-10         0.00000E+00
    0.87171E-08         0.33850E-10         0.00000E+00
    0.87177E-08         0.38608E-10         0.00000E+00
    0.87184E-08         0.41521E-10         0.00000E+00
    0.87190E-08         0.42744E-10         0.00000E+00
    0.87198E-08         0.42416E-10         0.00000E+00
    0.87205E-08         0.40660E-10         0.00000E+00
    0.87211E-08         0.37578E-10         0.00000E+00
    0.87217E-08         0.33259E-10         0.00000E+00
    0.87223E-08         0.27773E-10         0.00000E+00
    0.87227E-08         0.21179E-10         0.00000E+00
    0.87230E-08         0.13519E-10         0.00000E+00
    0.87231E-08         0.48254E-11         0.00000E+00
    0.12204E-07         0.65313E-11         0.00000E+00
    0.12204E-07         0.17737E-10         0.00000E+00
    0.12205E-07         0.26552E-10         0.00000E+00
    0.12205E-07         0.33187E-10         0.00000E+00
    0.12206E-07         0.37837E-10         0.00000E+00
    0.12207E-07         0.40676E-10         0.00000E+00
    0.12208E-07         0.41861E-10         0.00000E+00
    0.12209E-07         0.41530E-10         0.00000E+00
    0.12210E-07         0.39803E-10         0.00000E+00
    0.12211E-07         0.36781E-10         0.00000E+00
    0.12212E-07         0.32550E-10         0.00000E+00
    0.12212E-07         0.27180E-10         0.00000E+00
    0.12213E-07         0.20726E-10         0.00000E+00
    0.12213E-07         0.13231E-10         0.00000E+00
    0.12214E-07         0.47229E-11         0.00000E+00
    0.15693E-07         0.63696E-11         0.00000E+00
    0.15693E-07         0.17286E-10         0.00000E+00
    0.15694E-07         0.25859E-10         0.00000E+00
    0.15695E-07         0.32300E-10         0.00000E+00
    0.15696E-07         0.36806E-10         0.00000E+00
    0.15697E-07         0.39548E-10         0.00000E+00
    0.15698E-07         0.40684E-10         0.00000E+00
    0.15700E-07         0.40349E-10         0.00000E+00
    0.15701E-07         0.38660E-10         0.00000E+00
    0.15702E-07         0.35717E-10         0.00000E+00
    0.15703E-07         0.31604E-10         0.00000E+00
    0.15704E-07         0.26389E-10         0.00000E+00
    0.15705E-07         0.20123E-10         0.00000E+00
    0.15705E-07         0.12847E-10         0.00000E+00
    0.15706E-07         0.45865E-11         0.00000E+00
    0.19184E-07         0.61666E-11         0.00000E+00
    0.19184E-07         0.16720E-10         0.00000E+00
    0.19185E-07         0.24989E-10         0.00000E+00
    0.19186E-07         0.31190E-10         0.00000E+00
    0.19187E-07         0.35514E-10         0.00000E+00
    0.19189E-07         0.38137E-10         0.00000E+00
    0.19190E-07         0.39211E-10         0.00000E+00
    0.19192E-07         0.38870E-10         0.00000E+00
    0.19193E-07         0.37230E-10         0.00000E+00
    0.19195E-07         0.34388E-10         0.00000E+00
    0.19196E-07         0.30424E-10         0.00000E+00
    0.19197E-07         0.25401E-10         0.00000E+00
    0.19198E-07         0.19371E-10         0.00000E+00
    0.19199E-07         0.12368E-10         0.00000E+00
    0.19199E-07         0.44164E-11         0.00000E+00
    0.22677E-07         0.59218E-11         0.00000E+00
    0.22677E-07         0.16037E-10         0.00000E+00
    0.22678E-07         0.23942E-10         0.00000E+00
    0.22679E-07         0.29852E-10         0.00000E+00
    0.22681E-07         0.33961E-10         0.00000E+00
    0.22682E-07         0.36440E-10         0.00000E+00
    0.22684E-07         0.37441E-10         0.00000E+00
    0.22686E-07         0.37095E-10         0.00000E+00
    0.22688E-07         0.35515E-10         0.00000E+00
    0.22690E-07         0.32794E-10         0.00000E+00
    0.22691E-07         0.29008E-10         0.00000E+00
    0.22693E-07         0.24218E-10         0.00000E+00
    0.22694E-07         0.18469E-10         0.00000E+00
    0.22694E-07         0.11794E-10         0.00000E+00
    0.22695E-07         0.42131E-11         0.00000E+00
    0.26172E-07         0.56346E-11         0.00000E+00
    0.26172E-07         0.15237E-10         0.00000E+00
    0.26173E-07         0.22716E-10         0.00000E+00
    0.26175E-07         0.28287E-10         0.00000E+00
    0.26177E-07         0.32144E-10         0.00000E+00
    0.26179E-07         0.34456E-10         0.00000E+00
    0.26181E-07         0.35374E-10         0.00000E+00
    0.26183E-07         0.35024E-10         0.00000E+00
    0.26185E-07         0.33515E-10         0.00000E+00
    0.26187E-07         0.30937E-10         0.00000E+00
    0.26189E-07         0.27360E-10         0.00000E+00
    0.26190E-07         0.22841E-10         0.00000E+00
    0.26192E-07         0.17421E-10         0.00000E+00
    0.26192E-07         0.11128E-10         0.00000E+00
    0.26193E-07         0.39769E-11         0.00000E+00
    0.29670E-07         0.53042E-11         0.00000E+00
    0.29671E-07         0.14317E-10         0.00000E+00
    0.29672E-07         0.21308E-10         0.00000E+00
    0.29673E-07         0.26492E-10         0.00000E+00
    0.29675E-07         0.30063E-10         0.00000E+00
    0.29677E-07         0.32187E-10         0.00000E+00
    0.29680E-07         0.33011E-10         0.00000E+00
    0.29682E-07         0.32658E-10         0.00000E+00
    0.29685E-07         0.31233E-10         0.00000E+00
    0.29687E-07         0.28819E-10         0.00000E+00
    0.29689E-07         0.25482E-10         0.00000E+00
    0.29691E-07         0.21273E-10         0.00000E+00
    0.29692E-07         0.16229E-10         0.00000E+00
    0.29693E-07         0.10370E-10         0.00000E+00
    0.29694E-07         0.37085E-11         0.00000E+00
    0.33171E-07         0.49302E-11         0.00000E+00
    0.33172E-07         0.13277E-10         0.00000E+00
    0.33173E-07         0.19718E-10         0.00000E+00
    0.33175E-07         0.24467E-10         0.00000E+00
    0.33177E-07         0.27717E-10         0.00000E+00
    0.33179E-07         0.29632E-10         0.00000E+00
    0.33182E-07         0.30354E-10         0.00000E+00
    0.33185E-07         0.30001E-10         0.00000E+00
    0.33188E-07         0.28671E-10         0.00000E+00
    0.33190E-07         0.26443E-10         0.00000E+00
    0.33192E-07         0.23377E-10         0.00000E+00
    0.33194E-07         0.19518E-10         0.00000E+00
    0.33196E-07         0.14894E-10         0.00000E+00
    0.33197E-07         0.95224E-11         0.00000E+00
    0.33198E-07         0.34087E-11         0.00000E+00
    0.36676E-07         0.45117E-11         0.00000E+00
    0.36676E-07         0.12116E-10         0.00000E+00
    0.36678E-07         0.17944E-10         0.00000E+00
    0.36680E-07         0.22212E-10         0.00000E+00
    0.36682E-07         0.25109E-10         0.00000E+00
    0.36685E-07         0.26795E-10         0.00000E+00
    0.36688E-07         0.27406E-10         0.00000E+00
    0.36691E-07         0.27056E-10         0.00000E+00
    0.36694E-07         0.25836E-10         0.00000E+00
    0.36697E-07         0.23816E-10         0.00000E+00
    0.36699E-07         0.21052E-10         0.00000E+00
    0.36701E-07         0.17579E-10         0.00000E+00
    0.36703E-07         0.13421E-10         0.00000E+00
    0.36704E-07         0.85881E-11         0.00000E+00
    0.36705E-07         0.30784E-11         0.00000E+00
    0.40184E-07         0.40485E-11         0.00000E+00
    0.40185E-07         0.10832E-10         0.00000E+00
    0.40186E-07         0.15987E-10         0.00000E+00
    0.40188E-07         0.19728E-10         0.00000E+00
    0.40191E-07         0.22241E-10         0.00000E+00
    0.40194E-07         0.23679E-10         0.00000E+00
    0.40197E-07         0.24175E-10         0.00000E+00
    0.40201E-07         0.23832E-10         0.00000E+00
    0.40204E-07         0.22735E-10         0.00000E+00
    0.40207E-07         0.20947E-10         0.00000E+00
    0.40210E-07         0.18514E-10         0.00000E+00
    0.40212E-07         0.15465E-10         0.00000E+00
    0.40214E-07         0.11817E-10         0.00000E+00
    0.40215E-07         0.75705E-11         0.00000E+00
    0.40216E-07         0.27190E-11         0.00000E+00
    0.43696E-07         0.35403E-11         0.00000E+00
    0.43697E-07         0.94258E-11         0.00000E+00
    0.43699E-07         0.13848E-10         0.00000E+00
    0.43701E-07         0.17020E-10         0.00000E+00
    0.43704E-07         0.19119E-10         0.00000E+00
    0.43707E-07         0.20295E-10         0.00000E+00
    0.43711E-07         0.20670E-10         0.00000E+00
    0.43714E-07         0.20340E-10         0.00000E+00
    0.43718E-07         0.19380E-10         0.00000E+00
    0.43721E-07         0.17846E-10         0.00000E+00
    0.43724E-07         0.15773E-10         0.00000E+00
    0.43727E-07         0.13185E-10         0.00000E+00
    0.43729E-07         0.10087E-10         0.00000E+00
    0.43730E-07         0.64743E-11         0.00000E+00
    0.43731E-07         0.23322E-11         0.00000E+00
    0.47213E-07         0.29871E-11         0.00000E+00
    0.47214E-07         0.78993E-11         0.00000E+00
    0.47216E-07         0.11532E-10         0.00000E+00
    0.47218E-07         0.14093E-10         0.00000E+00
    0.47221E-07         0.15753E-10         0.00000E+00
    0.47225E-07         0.16654E-10         0.00000E+00
    0.47229E-07         0.16906E-10         0.00000E+00
    0.47233E-07         0.16596E-10         0.00000E+00
    0.47236E-07         0.15789E-10         0.00000E+00
    0.47240E-07         0.14530E-10         0.00000E+00
    0.47243E-07         0.12846E-10         0.00000E+00
    0.47246E-07         0.10750E-10         0.00000E+00
    0.47248E-07         0.82412E-11         0.00000E+00
    0.47249E-07         0.53056E-11         0.00000E+00
    0.47250E-07         0.19200E-11         0.00000E+00
    0.50734E-07         0.23896E-11         0.00000E+00
    0.50735E-07         0.62553E-11         0.00000E+00
    0.50737E-07         0.90452E-11         0.00000E+00
    0.50740E-07         0.10959E-10         0.00000E+00
    0.50743E-07         0.12160E-10         0.00000E+00
    0.50747E-07         0.12775E-10         0.00000E+00
    0.50751E-07         0.12906E-10         0.00000E+00
    0.50755E-07         0.12625E-10         0.00000E+00
    0.50759E-07         0.11986E-10         0.00000E+00
    0.50763E-07         0.11023E-10         0.00000E+00
    0.50766E-07         0.97525E-11         0.00000E+00
    0.50769E-07         0.81791E-11         0.00000E+00
    0.50771E-07         0.62928E-11         0.00000E+00
    0.50773E-07         0.40720E-11         0.00000E+00
    0.50774E-07         0.14850E-11         0.00000E+00
    0.54261E-07         0.17492E-11         0.00000E+00
    0.54262E-07         0.44993E-11         0.00000E+00
    0.54264E-07         0.63979E-11         0.00000E+00
    0.54267E-07         0.76349E-11         0.00000E+00
    0.54270E-07         0.83596E-11         0.00000E+00
    0.54274E-07         0.86861E-11         0.00000E+00
    0.54279E-07         0.86989E-11         0.00000E+00
    0.54283E-07         0.84576E-11         0.00000E+00
    0.54287E-07         0.80015E-11         0.00000E+00
    0.54291E-07         0.73527E-11         0.00000E+00
    0.54294E-07         0.65183E-11         0.00000E+00
    0.54297E-07         0.54925E-11         0.00000E+00
    0.54300E-07         0.42572E-11         0.00000E+00
    0.54301E-07         0.27832E-11         0.00000E+00
    0.54302E-07         0.10306E-11         0.00000E+00
    0.57792E-07         0.10682E-11         0.00000E+00
    0.57793E-07         0.26396E-11         0.00000E+00
    0.57796E-07         0.36064E-11         0.00000E+00
    0.57799E-07         0.41442E-11         0.00000E+00
    0.57803E-07         0.43848E-11         0.00000E+00
    0.57807E-07         0.44237E-11         0.00000E+00
    0.57811E-07         0.43270E-11         0.00000E+00
    0.57815E-07         0.41374E-11         0.00000E+00
    0.57820E-07         0.38787E-11         0.00000E+00
    0.57824E-07         0.35601E-11         0.00000E+00
    0.57827E-07         0.31783E-11         0.00000E+00
    0.57830E-07         0.27185E-11         0.00000E+00
    0.57833E-07         0.21552E-11         0.00000E+00
    0.57834E-07         0.14517E-11         0.00000E+00
    0.57835E-07         0.56084E-12         0.00000E+00
    0.61329E-07         0.35019E-12         0.00000E+00
    0.61331E-07         0.68878E-12         0.00000E+00
    0.61333E-07         0.69359E-12         0.00000E+00
    0.61336E-07         0.52016E-12         0.00000E+00
    0.61340E-07         0.27770E-12         0.00000E+00
    0.61344E-07         0.38242E-13         0.00000E+00
    0.61349E-07        -0.15469E-12         0.00000E+00
    0.61353E-07        -0.27872E-12         0.00000E+00
    0.61358E-07        -0.32686E-12         0.00000E+00
    0.61362E-07        -0.30359E-12         0.00000E+00
    0.61365E-07        -0.22271E-12         0.00000E+00
    0.61368E-07        -0.10675E-12         0.00000E+00
    0.61371E-07         0.12506E-13         0.00000E+00
    0.61373E-07         0.92866E-13         0.00000E+00
    0.61374E-07         0.80644E-13         0.00000E+00
    0.64872E-07        -0.39953E-12         0.00000E+00
    0.64874E-07        -0.13353E-11         0.00000E+00
    0.64876E-07        -0.23090E-11         0.00000E+00
    0.64879E-07        -0.31917E-11         0.00000E+00
    0.64883E-07        -0.39040E-11         0.00000E+00
    0.64888E-07        -0.44033E-11         0.00000E+00
    0.64892E-07        -0.46737E-11         0.00000E+00
    0.64897E-07        -0.47162E-11         0.00000E+00
    0.64901E-07        -0.45430E-11         0.00000E+00
    0.64905E-07        -0.41724E-11         0.00000E+00
    0.64909E-07        -0.36278E-11         0.00000E+00
    0.64912E-07        -0.29379E-11         0.00000E+00
    0.64914E-07        -0.21382E-11         0.00000E+00
    0.64916E-07        -0.12742E-11         0.00000E+00
    0.64917E-07        -0.40388E-12         0.00000E+00
    0.68421E-07        -0.11735E-11         0.00000E+00
    0.68423E-07        -0.34083E-11         0.00000E+00
    0.68425E-07        -0.53583E-11         0.00000E+00
    0.68429E-07        -0.69306E-11         0.00000E+00
    0.68433E-07        -0.80840E-11         0.00000E+00
    0.68437E-07        -0.88133E-11         0.00000E+00
    0.68441E-07        -0.91355E-11         0.00000E+00
    0.68446E-07        -0.90794E-11         0.00000E+00
    0.68450E-07        -0.86774E-11         0.00000E+00
    0.68454E-07        -0.79622E-11         0.00000E+00
    0.68457E-07        -0.69650E-11         0.00000E+00
    0.68460E-07        -0.57178E-11         0.00000E+00
    0.68463E-07        -0.42565E-11         0.00000E+00
    0.68464E-07        -0.26260E-11         0.00000E+00
    0.68465E-07        -0.88536E-12         0.00000E+00
    0.71976E-07        -0.19614E-11         0.00000E+00
    0.71978E-07        -0.54968E-11         0.00000E+00
    0.71980E-07        -0.83966E-11         0.00000E+00
    0.71984E-07        -0.10616E-10         0.00000E+00
    0.71988E-07        -0.12162E-10         0.00000E+00
    0.71992E-07        -0.13078E-10         0.00000E+00
    0.71996E-07        -0.13419E-10         0.00000E+00
    0.72000E-07        -0.13246E-10         0.00000E+00
    0.72004E-07        -0.12614E-10         0.00000E+00
    0.72008E-07        -0.11567E-10         0.00000E+00
    0.72011E-07        -0.10144E-10         0.00000E+00
    0.72014E-07        -0.83755E-11         0.00000E+00
    0.72016E-07        -0.62922E-11         0.00000E+00
    0.72018E-07        -0.39335E-11         0.00000E+00
    0.72019E-07        -0.13549E-11         0.00000E+00
    0.75538E-07        -0.27494E-11         0.00000E+00
    0.75540E-07        -0.75562E-11         0.00000E+00
    0.75542E-07        -0.11347E-10         0.00000E+00
    0.75545E-07        -0.14141E-10         0.00000E+00
    0.75549E-07        -0.16009E-10         0.00000E+00
    0.75553E-07        -0.17051E-10         0.00000E+00
    0.75557E-07        -0.17371E-10         0.00000E+00
    0.75561E-07        -0.17064E-10         0.00000E+00
    0.75564E-07        -0.16207E-10         0.00000E+00
    0.75568E-07        -0.14858E-10         0.00000E+00
    0.75571E-07        -0.13055E-10         0.00000E+00
    0.75573E-07        -0.10823E-10         0.00000E+00
    0.75575E-07        -0.81838E-11         0.00000E+00
    0.75577E-07        -0.51618E-11         0.00000E+00
    0.75578E-07        -0.18019E-11         0.00000E+00
    0.79107E-07        -0.35186E-11         0.00000E+00
    0.79108E-07        -0.95263E-11         0.00000E+00
    0.79111E-07        -0.14108E-10         0.00000E+00
    0.79114E-07        -0.17367E-10         0.00000E+00
    0.79117E-07        -0.19458E-10         0.00000E+00
    0.79120E-07        -0.20549E-10         0.00000E+00
    0.79124E-07        -0.20800E-10         0.00000E+00
    0.79127E-07        -0.20343E-10         0.00000E+00
    0.79130E-07        -0.19279E-10         0.00000E+00
    0.79133E-07        -0.17672E-10         0.00000E+00
    0.79135E-07        -0.15560E-10         0.00000E+00
    0.79137E-07        -0.12955E-10         0.00000E+00
    0.79139E-07        -0.98562E-11         0.00000E+00
    0.79141E-07        -0.62679E-11         0.00000E+00
    0.79141E-07        -0.22135E-11         0.00000E+00
    0.82682E-07        -0.42435E-11         0.00000E+00
    0.82684E-07        -0.11326E-10         0.00000E+00
    0.82686E-07        -0.16542E-10         0.00000E+00
    0.82688E-07        -0.20111E-10         0.00000E+00
    0.82691E-07        -0.22292E-10         0.00000E+00
    0.82694E-07        -0.23339E-10         0.00000E+00
    0.82696E-07        -0.23470E-10         0.00000E+00
    0.82699E-07        -0.22856E-10         0.00000E+00
    0.82701E-07        -0.21615E-10         0.00000E+00
    0.82703E-07        -0.19819E-10         0.00000E+00
    0.82705E-07        -0.17495E-10         0.00000E+00
    0.82707E-07        -0.14638E-10         0.00000E+00
    0.82708E-07        -0.11217E-10         0.00000E+00
    0.82709E-07        -0.71995E-11         0.00000E+00
    0.82710E-07        -0.25745E-11         0.00000E+00
    0.86265E-07        -0.48886E-11         0.00000E+00
    0.86266E-07        -0.12841E-10         0.00000E+00
    0.86268E-07        -0.18463E-10         0.00000E+00
    0.86270E-07        -0.22131E-10         0.00000E+00
    0.86272E-07        -0.24238E-10         0.00000E+00
    0.86274E-07        -0.25134E-10         0.00000E+00
    0.86275E-07        -0.25098E-10         0.00000E+00
    0.86276E-07        -0.24331E-10         0.00000E+00
    0.86278E-07        -0.22965E-10         0.00000E+00
    0.86279E-07        -0.21071E-10         0.00000E+00
    0.86280E-07        -0.18664E-10         0.00000E+00
    0.86281E-07        -0.15714E-10         0.00000E+00
    0.86281E-07        -0.12151E-10         0.00000E+00
    0.86282E-07        -0.78912E-11         0.00000E+00
    0.86283E-07        -0.28658E-11         0.00000E+00
    0.89855E-07        -0.54021E-11         0.00000E+00
    0.89857E-07        -0.13909E-10         0.00000E+00
    0.89858E-07        -0.19609E-10         0.00000E+00
    0.89859E-07        -0.23101E-10         0.00000E+00
    0.89860E-07        -0.24944E-10         0.00000E+00
    0.89860E-07        -0.25587E-10         0.00000E+00
    0.89860E-07        -0.25353E-10         0.00000E+00
    0.89860E-07        -0.24460E-10         0.00000E+00
    0.89859E-07        -0.23043E-10         0.00000E+00
    0.89859E-07        -0.21167E-10         0.00000E+00
    0.89859E-07        -0.18834E-10         0.00000E+00
    0.89859E-07        -0.15988E-10         0.00000E+00
    0.89859E-07        -0.12514E-10         0.00000E+00
    0.89859E-07        -0.82579E-11         0.00000E+00
    0.89860E-07        -0.30633E-11         0.00000E+00
    0.93454E-07        -0.57031E-11         0.00000E+00
    0.93455E-07        -0.14277E-10         0.00000E+00
    0.93455E-07        -0.19596E-10         0.00000E+00
    0.93455E-07        -0.22582E-10         0.00000E+00
    0.93454E-07        -0.23975E-10         0.00000E+00
    0.93452E-07        -0.24290E-10         0.00000E+00
    0.93450E-07        -0.23863E-10         0.00000E+00
    0.93448E-07        -0.22906E-10         0.00000E+00
    0.93446E-07        -0.21540E-10         0.00000E+00
    0.93444E-07        -0.19820E-10         0.00000E+00
    0.93443E-07        -0.17736E-10         0.00000E+00
    0.93442E-07        -0.15217E-10         0.00000E+00
    0.93441E-07        -0.12111E-10         0.00000E+00
    0.93441E-07        -0.81801E-11         0.00000E+00
    0.93441E-07        -0.31328E-11         0.00000E+00
    0.97061E-07        -0.56460E-11         0.00000E+00
    0.97061E-07        -0.13514E-10         0.00000E+00
    0.97060E-07        -0.17839E-10         0.00000E+00
    0.97058E-07        -0.19985E-10         0.00000E+00
    0.97054E-07        -0.20804E-10         0.00000E+00
    0.97050E-07        -0.20791E-10         0.00000E+00
    0.97046E-07        -0.20241E-10         0.00000E+00
    0.97042E-07        -0.19327E-10         0.00000E+00
    0.97038E-07        -0.18144E-10         0.00000E+00
    0.97034E-07        -0.16731E-10         0.00000E+00
    0.97031E-07        -0.15074E-10         0.00000E+00
    0.97028E-07        -0.13103E-10         0.00000E+00
    0.97026E-07        -0.10665E-10         0.00000E+00
    0.97025E-07        -0.74698E-11         0.00000E+00
    0.97025E-07        -0.30159E-11         0.00000E+00
    0.10068E-06        -0.49250E-11         0.00000E+00
    0.10068E-06        -0.10769E-10         0.00000E+00
    0.10067E-06        -0.13442E-10         0.00000E+00
    0.10067E-06        -0.14568E-10         0.00000E+00
    0.10066E-06        -0.14847E-10         0.00000E+00
    0.10065E-06        -0.14632E-10         0.00000E+00
    0.10065E-06        -0.14118E-10         0.00000E+00
    0.10064E-06        -0.13411E-10         0.00000E+00
    0.10063E-06        -0.12571E-10         0.00000E+00
    0.10063E-06        -0.11619E-10         0.00000E+00
    0.10062E-06        -0.10544E-10         0.00000E+00
    0.10062E-06        -0.92994E-11         0.00000E+00
    0.10061E-06        -0.77760E-11         0.00000E+00
    0.10061E-06        -0.57437E-11         0.00000E+00
    0.10061E-06        -0.26220E-11         0.00000E+00
    0.10431E-06        -0.21729E-11         0.00000E+00
    0.10430E-06        -0.43789E-11         0.00000E+00
    0.10429E-06        -0.52242E-11         0.00000E+00
    0.10428E-06        -0.55264E-11         0.00000E+00
    0.10427E-06        -0.55487E-11         0.00000E+00
    0.10426E-06        -0.54159E-11         0.00000E+00
    0.10425E-06        -0.51933E-11         0.00000E+00
    0.10424E-06        -0.49164E-11         0.00000E+00
    0.10423E-06        -0.46038E-11         0.00000E+00
    0.10423E-06        -0.42622E-11         0.00000E+00
    0.10422E-06        -0.38880E-11         0.00000E+00
    0.10421E-06        -0.34650E-11         0.00000E+00
    0.10421E-06        -0.29556E-11         0.00000E+00
    0.10420E-06        -0.22800E-11         0.00000E+00
    0.10420E-06        -0.11714E-11         0.00000E+00
POINT_DATA        496
VECTORS vDarcyNodal double 
    0.17430E-08         0.67826E-11         0.00000E+00
    0.17431E-08         0.12611E-10         0.00000E+00
    0.17431E-08         0.23035E-10         0.00000E+00
    0.17432E-08         0.31099E-10         0.00000E+00
    0.17433E-08         0.37005E-10         0.00000E+00
    0.17434E-08         0.40939E-10         0.00000E+00
    0.17435E-08         0.43066E-10         0.00000E+00
    0.17437E-08         0.43537E-10         0.00000E+00
    0.17438E-08         0.42482E-10         0.00000E+00
    0.17440E-08         0.40016E-10         0.00000E+00
    0.17441E-08         0.36235E-10         0.00000E+00
    0.17442E-08         0.31222E-10         0.00000E+00
    0.17443E-08         0.25044E-10         0.00000E+00
    0.17444E-08         0.17751E-10         0.00000E+00
    0.17444E-08         0.93845E-11         0.00000E+00
    0.17444E-08         0.49366E-11         0.00000E+00
    0.34862E-08         0.67626E-11         0.00000E+00
    0.34862E-08         0.12573E-10         0.00000E+00
    0.34863E-08         0.22964E-10         0.00000E+00
    0.34865E-08         0.31001E-10         0.00000E+00
    0.34867E-08         0.36886E-10         0.00000E+00
    0.34869E-08         0.40804E-10         0.00000E+00
    0.34872E-08         0.42923E-10         0.00000E+00
    0.34875E-08         0.43390E-10         0.00000E+00
    0.34878E-08         0.42337E-10         0.00000E+00
    0.34880E-08         0.39878E-10         0.00000E+00
    0.34883E-08         0.36110E-10         0.00000E+00
    0.34885E-08         0.31114E-10         0.00000E+00
    0.34887E-08         0.24956E-10         0.00000E+00
    0.34889E-08         0.17689E-10         0.00000E+00
    0.34889E-08         0.93518E-11         0.00000E+00
    0.34890E-08         0.49194E-11         0.00000E+00
    0.69727E-08         0.67024E-11         0.00000E+00
    0.69728E-08         0.12459E-10         0.00000E+00
    0.69730E-08         0.22750E-10         0.00000E+00
    0.69733E-08         0.30706E-10         0.00000E+00
    0.69737E-08         0.36528E-10         0.00000E+00
    0.69742E-08         0.40401E-10         0.00000E+00
    0.69748E-08         0.42492E-10         0.00000E+00
    0.69753E-08         0.42948E-10         0.00000E+00
    0.69759E-08         0.41901E-10         0.00000E+00
    0.69765E-08         0.39464E-10         0.00000E+00
    0.69770E-08         0.35733E-10         0.00000E+00
    0.69774E-08         0.30788E-10         0.00000E+00
    0.69778E-08         0.24694E-10         0.00000E+00
    0.69781E-08         0.17504E-10         0.00000E+00
    0.69783E-08         0.92539E-11         0.00000E+00
    0.69783E-08         0.48681E-11         0.00000E+00
    0.10460E-07         0.66018E-11         0.00000E+00
    0.10460E-07         0.12268E-10         0.00000E+00
    0.10460E-07         0.22394E-10         0.00000E+00
    0.10461E-07         0.30214E-10         0.00000E+00
    0.10462E-07         0.35931E-10         0.00000E+00
    0.10462E-07         0.39728E-10         0.00000E+00
    0.10463E-07         0.41773E-10         0.00000E+00
    0.10464E-07         0.42212E-10         0.00000E+00
    0.10465E-07         0.41175E-10         0.00000E+00
    0.10466E-07         0.38775E-10         0.00000E+00
    0.10466E-07         0.35105E-10         0.00000E+00
    0.10467E-07         0.30245E-10         0.00000E+00
    0.10468E-07         0.24258E-10         0.00000E+00
    0.10468E-07         0.17195E-10         0.00000E+00
    0.10468E-07         0.90909E-11         0.00000E+00
    0.10468E-07         0.47826E-11         0.00000E+00
    0.13948E-07         0.64607E-11         0.00000E+00
    0.13949E-07         0.12000E-10         0.00000E+00
    0.13949E-07         0.21895E-10         0.00000E+00
    0.13950E-07         0.29524E-10         0.00000E+00
    0.13950E-07         0.35093E-10         0.00000E+00
    0.13951E-07         0.38785E-10         0.00000E+00
    0.13953E-07         0.40765E-10         0.00000E+00
    0.13954E-07         0.41180E-10         0.00000E+00
    0.13955E-07         0.40158E-10         0.00000E+00
    0.13956E-07         0.37809E-10         0.00000E+00
    0.13957E-07         0.34226E-10         0.00000E+00
    0.13958E-07         0.29485E-10         0.00000E+00
    0.13959E-07         0.23648E-10         0.00000E+00
    0.13959E-07         0.16762E-10         0.00000E+00
    0.13960E-07         0.88629E-11         0.00000E+00
    0.13960E-07         0.46631E-11         0.00000E+00
    0.17438E-07         0.62785E-11         0.00000E+00
    0.17439E-07         0.11655E-10         0.00000E+00
    0.17439E-07         0.21250E-10         0.00000E+00
    0.17440E-07         0.28635E-10         0.00000E+00
    0.17441E-07         0.34013E-10         0.00000E+00
    0.17442E-07         0.37569E-10         0.00000E+00
    0.17444E-07         0.39468E-10         0.00000E+00
    0.17445E-07         0.39852E-10         0.00000E+00
    0.17446E-07         0.38850E-10         0.00000E+00
    0.17448E-07         0.36568E-10         0.00000E+00
    0.17449E-07         0.33096E-10         0.00000E+00
    0.17450E-07         0.28508E-10         0.00000E+00
    0.17451E-07         0.22864E-10         0.00000E+00
    0.17452E-07         0.16208E-10         0.00000E+00
    0.17452E-07         0.85704E-11         0.00000E+00
    0.17452E-07         0.45098E-11         0.00000E+00
    0.20930E-07         0.60547E-11         0.00000E+00
    0.20930E-07         0.11231E-10         0.00000E+00
    0.20931E-07         0.20459E-10         0.00000E+00
    0.20932E-07         0.27544E-10         0.00000E+00
    0.20933E-07         0.32690E-10         0.00000E+00
    0.20935E-07         0.36081E-10         0.00000E+00
    0.20936E-07         0.37880E-10         0.00000E+00
    0.20938E-07         0.38228E-10         0.00000E+00
    0.20940E-07         0.37250E-10         0.00000E+00
    0.20941E-07         0.35051E-10         0.00000E+00
    0.20943E-07         0.31716E-10         0.00000E+00
    0.20944E-07         0.27316E-10         0.00000E+00
    0.20946E-07         0.21908E-10         0.00000E+00
    0.20946E-07         0.15531E-10         0.00000E+00
    0.20947E-07         0.82137E-11         0.00000E+00
    0.20947E-07         0.43230E-11         0.00000E+00
    0.24424E-07         0.57889E-11         0.00000E+00
    0.24424E-07         0.10728E-10         0.00000E+00
    0.24425E-07         0.19520E-10         0.00000E+00
    0.24426E-07         0.26251E-10         0.00000E+00
    0.24428E-07         0.31123E-10         0.00000E+00
    0.24430E-07         0.34319E-10         0.00000E+00
    0.24431E-07         0.36000E-10         0.00000E+00
    0.24433E-07         0.36308E-10         0.00000E+00
    0.24435E-07         0.35360E-10         0.00000E+00
    0.24437E-07         0.33259E-10         0.00000E+00
    0.24439E-07         0.30087E-10         0.00000E+00
    0.24441E-07         0.25910E-10         0.00000E+00
    0.24442E-07         0.20780E-10         0.00000E+00
    0.24443E-07         0.14733E-10         0.00000E+00
    0.24444E-07         0.77937E-11         0.00000E+00
    0.24444E-07         0.41032E-11         0.00000E+00
    0.27921E-07         0.54803E-11         0.00000E+00
    0.27921E-07         0.10144E-10         0.00000E+00
    0.27922E-07         0.18432E-10         0.00000E+00
    0.27923E-07         0.24752E-10         0.00000E+00
    0.27925E-07         0.29308E-10         0.00000E+00
    0.27927E-07         0.32281E-10         0.00000E+00
    0.27929E-07         0.33830E-10         0.00000E+00
    0.27931E-07         0.34091E-10         0.00000E+00
    0.27934E-07         0.33180E-10         0.00000E+00
    0.27936E-07         0.31194E-10         0.00000E+00
    0.27938E-07         0.28210E-10         0.00000E+00
    0.27940E-07         0.24292E-10         0.00000E+00
    0.27941E-07         0.19483E-10         0.00000E+00
    0.27942E-07         0.13816E-10         0.00000E+00
    0.27943E-07         0.73111E-11         0.00000E+00
    0.27943E-07         0.38507E-11         0.00000E+00
    0.31420E-07         0.51282E-11         0.00000E+00
    0.31421E-07         0.94779E-11         0.00000E+00
    0.31422E-07         0.17193E-10         0.00000E+00
    0.31423E-07         0.23048E-10         0.00000E+00
    0.31425E-07         0.27247E-10         0.00000E+00
    0.31427E-07         0.29968E-10         0.00000E+00
    0.31430E-07         0.31368E-10         0.00000E+00
    0.31432E-07         0.31579E-10         0.00000E+00
    0.31435E-07         0.30712E-10         0.00000E+00
    0.31437E-07         0.28858E-10         0.00000E+00
    0.31440E-07         0.26090E-10         0.00000E+00
    0.31442E-07         0.22464E-10         0.00000E+00
    0.31443E-07         0.18019E-10         0.00000E+00
    0.31445E-07         0.12782E-10         0.00000E+00
    0.31445E-07         0.67673E-11         0.00000E+00
    0.31446E-07         0.35663E-11         0.00000E+00
    0.34923E-07         0.47321E-11         0.00000E+00
    0.34923E-07         0.87295E-11         0.00000E+00
    0.34924E-07         0.15802E-10         0.00000E+00
    0.34926E-07         0.21137E-10         0.00000E+00
    0.34928E-07         0.24938E-10         0.00000E+00
    0.34931E-07         0.27381E-10         0.00000E+00
    0.34934E-07         0.28618E-10         0.00000E+00
    0.34936E-07         0.28776E-10         0.00000E+00
    0.34939E-07         0.27960E-10         0.00000E+00
    0.34942E-07         0.26256E-10         0.00000E+00
    0.34945E-07         0.23730E-10         0.00000E+00
    0.34947E-07         0.20431E-10         0.00000E+00
    0.34949E-07         0.16392E-10         0.00000E+00
    0.34950E-07         0.11634E-10         0.00000E+00
    0.34951E-07         0.61638E-11         0.00000E+00
    0.34951E-07         0.32510E-11         0.00000E+00
    0.38429E-07         0.42914E-11         0.00000E+00
    0.38430E-07         0.78978E-11         0.00000E+00
    0.38431E-07         0.14258E-10         0.00000E+00
    0.38433E-07         0.19019E-10         0.00000E+00
    0.38435E-07         0.22383E-10         0.00000E+00
    0.38438E-07         0.24522E-10         0.00000E+00
    0.38441E-07         0.25583E-10         0.00000E+00
    0.38444E-07         0.25687E-10         0.00000E+00
    0.38447E-07         0.24932E-10         0.00000E+00
    0.38450E-07         0.23396E-10         0.00000E+00
    0.38453E-07         0.21138E-10         0.00000E+00
    0.38456E-07         0.18200E-10         0.00000E+00
    0.38458E-07         0.14608E-10         0.00000E+00
    0.38459E-07         0.10375E-10         0.00000E+00
    0.38460E-07         0.55027E-11         0.00000E+00
    0.38461E-07         0.29058E-11         0.00000E+00
    0.41940E-07         0.38057E-11         0.00000E+00
    0.41940E-07         0.69824E-11         0.00000E+00
    0.41941E-07         0.12561E-10         0.00000E+00
    0.41943E-07         0.16696E-10         0.00000E+00
    0.41946E-07         0.19586E-10         0.00000E+00
    0.41949E-07         0.21398E-10         0.00000E+00
    0.41952E-07         0.22271E-10         0.00000E+00
    0.41956E-07         0.22320E-10         0.00000E+00
    0.41959E-07         0.21635E-10         0.00000E+00
    0.41962E-07         0.20286E-10         0.00000E+00
    0.41966E-07         0.18322E-10         0.00000E+00
    0.41968E-07         0.15779E-10         0.00000E+00
    0.41970E-07         0.12673E-10         0.00000E+00
    0.41972E-07         0.90116E-11         0.00000E+00
    0.41973E-07         0.47868E-11         0.00000E+00
    0.41974E-07         0.25322E-11         0.00000E+00
    0.45454E-07         0.32749E-11         0.00000E+00
    0.45455E-07         0.59837E-11         0.00000E+00
    0.45456E-07         0.10713E-10         0.00000E+00
    0.45458E-07         0.14172E-10         0.00000E+00
    0.45461E-07         0.16553E-10         0.00000E+00
    0.45464E-07         0.18016E-10         0.00000E+00
    0.45468E-07         0.18693E-10         0.00000E+00
    0.45472E-07         0.18689E-10         0.00000E+00
    0.45475E-07         0.18085E-10         0.00000E+00
    0.45479E-07         0.16940E-10         0.00000E+00
    0.45482E-07         0.15297E-10         0.00000E+00
    0.45485E-07         0.13179E-10         0.00000E+00
    0.45487E-07         0.10598E-10         0.00000E+00
    0.45489E-07         0.75494E-11         0.00000E+00
    0.45490E-07         0.40197E-11         0.00000E+00
    0.45491E-07         0.21321E-11         0.00000E+00
    0.48973E-07         0.26993E-11         0.00000E+00
    0.48974E-07         0.49028E-11         0.00000E+00
    0.48975E-07         0.87183E-11         0.00000E+00
    0.48978E-07         0.11453E-10         0.00000E+00
    0.48981E-07         0.13294E-10         0.00000E+00
    0.48984E-07         0.14391E-10         0.00000E+00
    0.48988E-07         0.14866E-10         0.00000E+00
    0.48992E-07         0.14813E-10         0.00000E+00
    0.48996E-07         0.14301E-10         0.00000E+00
    0.49000E-07         0.13379E-10         0.00000E+00
    0.49003E-07         0.12080E-10         0.00000E+00
    0.49006E-07         0.10418E-10         0.00000E+00
    0.49009E-07         0.83939E-11         0.00000E+00
    0.49010E-07         0.59975E-11         0.00000E+00
    0.49012E-07         0.32059E-11         0.00000E+00
    0.49012E-07         0.17078E-11         0.00000E+00
    0.52497E-07         0.20799E-11         0.00000E+00
    0.52498E-07         0.37422E-11         0.00000E+00
    0.52499E-07         0.65822E-11         0.00000E+00
    0.52502E-07         0.85511E-11         0.00000E+00
    0.52505E-07         0.98250E-11         0.00000E+00
    0.52509E-07         0.10544E-10         0.00000E+00
    0.52513E-07         0.10814E-10         0.00000E+00
    0.52517E-07         0.10718E-10         0.00000E+00
    0.52521E-07         0.10310E-10         0.00000E+00
    0.52525E-07         0.96291E-11         0.00000E+00
    0.52529E-07         0.86953E-11         0.00000E+00
    0.52532E-07         0.75141E-11         0.00000E+00
    0.52534E-07         0.60780E-11         0.00000E+00
    0.52536E-07         0.43673E-11         0.00000E+00
    0.52538E-07         0.23511E-11         0.00000E+00
    0.52538E-07         0.12622E-11         0.00000E+00
    0.56026E-07         0.14185E-11         0.00000E+00
    0.56027E-07         0.25063E-11         0.00000E+00
    0.56028E-07         0.43149E-11         0.00000E+00
    0.56031E-07         0.54818E-11         0.00000E+00
    0.56035E-07         0.61696E-11         0.00000E+00
    0.56038E-07         0.65021E-11         0.00000E+00
    0.56043E-07         0.65706E-11         0.00000E+00
    0.56047E-07         0.64389E-11         0.00000E+00
    0.56051E-07         0.61491E-11         0.00000E+00
    0.56055E-07         0.57251E-11         0.00000E+00
    0.56059E-07         0.51756E-11         0.00000E+00
    0.56062E-07         0.44966E-11         0.00000E+00
    0.56065E-07         0.36717E-11         0.00000E+00
    0.56067E-07         0.26732E-11         0.00000E+00
    0.56068E-07         0.14627E-11         0.00000E+00
    0.56069E-07         0.79903E-12         0.00000E+00
    0.59560E-07         0.71790E-12         0.00000E+00
    0.59561E-07         0.12015E-11         0.00000E+00
    0.59563E-07         0.19311E-11         0.00000E+00
    0.59566E-07         0.22689E-11         0.00000E+00
    0.59569E-07         0.23594E-11         0.00000E+00
    0.59573E-07         0.23063E-11         0.00000E+00
    0.59578E-07         0.21802E-11         0.00000E+00
    0.59582E-07         0.20255E-11         0.00000E+00
    0.59587E-07         0.18670E-11         0.00000E+00
    0.59591E-07         0.17138E-11         0.00000E+00
    0.59595E-07         0.15628E-11         0.00000E+00
    0.59598E-07         0.14003E-11         0.00000E+00
    0.59601E-07         0.12020E-11         0.00000E+00
    0.59603E-07         0.93369E-12         0.00000E+00
    0.59604E-07         0.54983E-12         0.00000E+00
    0.59605E-07         0.32266E-12         0.00000E+00
    0.63100E-07        -0.17522E-13         0.00000E+00
    0.63101E-07        -0.16253E-12         0.00000E+00
    0.63103E-07        -0.54868E-12         0.00000E+00
    0.63106E-07        -0.10551E-11         0.00000E+00
    0.63110E-07        -0.15615E-11         0.00000E+00
    0.63114E-07        -0.19904E-11         0.00000E+00
    0.63118E-07        -0.22966E-11         0.00000E+00
    0.63123E-07        -0.24589E-11         0.00000E+00
    0.63127E-07        -0.24725E-11         0.00000E+00
    0.63131E-07        -0.23442E-11         0.00000E+00
    0.63135E-07        -0.20891E-11         0.00000E+00
    0.63139E-07        -0.17297E-11         0.00000E+00
    0.63142E-07        -0.12963E-11         0.00000E+00
    0.63144E-07        -0.82831E-12         0.00000E+00
    0.63145E-07        -0.37632E-12         0.00000E+00
    0.63145E-07        -0.16137E-12         0.00000E+00
    0.66646E-07        -0.78153E-12         0.00000E+00
    0.66647E-07        -0.15723E-11         0.00000E+00
    0.66649E-07        -0.30956E-11         0.00000E+00
    0.66652E-07        -0.44456E-11         0.00000E+00
    0.66656E-07        -0.55342E-11         0.00000E+00
    0.66660E-07        -0.63169E-11         0.00000E+00
    0.66664E-07        -0.67804E-11         0.00000E+00
    0.66669E-07        -0.69310E-11         0.00000E+00
    0.66673E-07        -0.67867E-11         0.00000E+00
    0.66677E-07        -0.63711E-11         0.00000E+00
    0.66681E-07        -0.57111E-11         0.00000E+00
    0.66685E-07        -0.48360E-11         0.00000E+00
    0.66687E-07        -0.37798E-11         0.00000E+00
    0.66690E-07        -0.25841E-11         0.00000E+00
    0.66691E-07        -0.13018E-11         0.00000E+00
    0.66691E-07        -0.64639E-12         0.00000E+00
    0.70198E-07        -0.15654E-11         0.00000E+00
    0.70199E-07        -0.30094E-11         0.00000E+00
    0.70201E-07        -0.56709E-11         0.00000E+00
    0.70204E-07        -0.78432E-11         0.00000E+00
    0.70208E-07        -0.94804E-11         0.00000E+00
    0.70212E-07        -0.10580E-10         0.00000E+00
    0.70216E-07        -0.11168E-10         0.00000E+00
    0.70221E-07        -0.11284E-10         0.00000E+00
    0.70225E-07        -0.10970E-10         0.00000E+00
    0.70229E-07        -0.10268E-10         0.00000E+00
    0.70233E-07        -0.92161E-11         0.00000E+00
    0.70236E-07        -0.78468E-11         0.00000E+00
    0.70239E-07        -0.61944E-11         0.00000E+00
    0.70241E-07        -0.42983E-11         0.00000E+00
    0.70242E-07        -0.22095E-11         0.00000E+00
    0.70242E-07        -0.11243E-11         0.00000E+00
    0.73757E-07        -0.23574E-11         0.00000E+00
    0.73758E-07        -0.44488E-11         0.00000E+00
    0.73760E-07        -0.82225E-11         0.00000E+00
    0.73763E-07        -0.11169E-10         0.00000E+00
    0.73766E-07        -0.13298E-10         0.00000E+00
    0.73770E-07        -0.14660E-10         0.00000E+00
    0.73774E-07        -0.15329E-10         0.00000E+00
    0.73778E-07        -0.15381E-10         0.00000E+00
    0.73782E-07        -0.14890E-10         0.00000E+00
    0.73786E-07        -0.13913E-10         0.00000E+00
    0.73789E-07        -0.12496E-10         0.00000E+00
    0.73792E-07        -0.10673E-10         0.00000E+00
    0.73795E-07        -0.84732E-11         0.00000E+00
    0.73797E-07        -0.59274E-11         0.00000E+00
    0.73798E-07        -0.30789E-11         0.00000E+00
    0.73799E-07        -0.15855E-11         0.00000E+00
    0.77322E-07        -0.31413E-11         0.00000E+00
    0.77323E-07        -0.58567E-11         0.00000E+00
    0.77325E-07        -0.10681E-10         0.00000E+00
    0.77328E-07        -0.14319E-10         0.00000E+00
    0.77331E-07        -0.16853E-10         0.00000E+00
    0.77335E-07        -0.18401E-10         0.00000E+00
    0.77338E-07        -0.19094E-10         0.00000E+00
    0.77342E-07        -0.19054E-10         0.00000E+00
    0.77345E-07        -0.18381E-10         0.00000E+00
    0.77349E-07        -0.17152E-10         0.00000E+00
    0.77352E-07        -0.15416E-10         0.00000E+00
    0.77354E-07        -0.13205E-10         0.00000E+00
    0.77356E-07        -0.10534E-10         0.00000E+00
    0.77358E-07        -0.74182E-11         0.00000E+00
    0.77359E-07        -0.38847E-11         0.00000E+00
    0.77360E-07        -0.20183E-11         0.00000E+00
    0.80894E-07        -0.38958E-11         0.00000E+00
    0.80895E-07        -0.71881E-11         0.00000E+00
    0.80897E-07        -0.12953E-10         0.00000E+00
    0.80899E-07        -0.17156E-10         0.00000E+00
    0.80902E-07        -0.19972E-10         0.00000E+00
    0.80906E-07        -0.21606E-10         0.00000E+00
    0.80909E-07        -0.22255E-10         0.00000E+00
    0.80911E-07        -0.22090E-10         0.00000E+00
    0.80914E-07        -0.21241E-10         0.00000E+00
    0.80917E-07        -0.19799E-10         0.00000E+00
    0.80919E-07        -0.17816E-10         0.00000E+00
    0.80921E-07        -0.15309E-10         0.00000E+00
    0.80923E-07        -0.12277E-10         0.00000E+00
    0.80924E-07        -0.87058E-11         0.00000E+00
    0.80925E-07        -0.45966E-11         0.00000E+00
    0.80926E-07        -0.24088E-11         0.00000E+00
    0.84473E-07        -0.45912E-11         0.00000E+00
    0.84474E-07        -0.83811E-11         0.00000E+00
    0.84476E-07        -0.14915E-10         0.00000E+00
    0.84478E-07        -0.19497E-10         0.00000E+00
    0.84480E-07        -0.22431E-10         0.00000E+00
    0.84483E-07        -0.24025E-10         0.00000E+00
    0.84485E-07        -0.24554E-10         0.00000E+00
    0.84487E-07        -0.24236E-10         0.00000E+00
    0.84488E-07        -0.23230E-10         0.00000E+00
    0.84490E-07        -0.21635E-10         0.00000E+00
    0.84492E-07        -0.19499E-10         0.00000E+00
    0.84493E-07        -0.16824E-10         0.00000E+00
    0.84494E-07        -0.13578E-10         0.00000E+00
    0.84495E-07        -0.97105E-11         0.00000E+00
    0.84496E-07        -0.51773E-11         0.00000E+00
    0.84496E-07        -0.27402E-11         0.00000E+00
    0.88060E-07        -0.51859E-11         0.00000E+00
    0.88061E-07        -0.93488E-11         0.00000E+00
    0.88062E-07        -0.16390E-10         0.00000E+00
    0.88064E-07        -0.21096E-10         0.00000E+00
    0.88065E-07        -0.23937E-10         0.00000E+00
    0.88066E-07        -0.25347E-10         0.00000E+00
    0.88067E-07        -0.25678E-10         0.00000E+00
    0.88068E-07        -0.25193E-10         0.00000E+00
    0.88068E-07        -0.24066E-10         0.00000E+00
    0.88069E-07        -0.22401E-10         0.00000E+00
    0.88069E-07        -0.20236E-10         0.00000E+00
    0.88069E-07        -0.17554E-10         0.00000E+00
    0.88070E-07        -0.14287E-10         0.00000E+00
    0.88071E-07        -0.10332E-10         0.00000E+00
    0.88071E-07        -0.55797E-11         0.00000E+00
    0.88071E-07        -0.29915E-11         0.00000E+00
    0.91655E-07        -0.56183E-11         0.00000E+00
    0.91655E-07        -0.99627E-11         0.00000E+00
    0.91656E-07        -0.17128E-10         0.00000E+00
    0.91657E-07        -0.21613E-10         0.00000E+00
    0.91657E-07        -0.24108E-10         0.00000E+00
    0.91656E-07        -0.25185E-10         0.00000E+00
    0.91656E-07        -0.25262E-10         0.00000E+00
    0.91655E-07        -0.24620E-10         0.00000E+00
    0.91653E-07        -0.23437E-10         0.00000E+00
    0.91652E-07        -0.21809E-10         0.00000E+00
    0.91651E-07        -0.19765E-10         0.00000E+00
    0.91650E-07        -0.17267E-10         0.00000E+00
    0.91650E-07        -0.14214E-10         0.00000E+00
    0.91650E-07        -0.10440E-10         0.00000E+00
    0.91650E-07        -0.57414E-11         0.00000E+00
    0.91650E-07        -0.31350E-11         0.00000E+00
    0.95258E-07        -0.57878E-11         0.00000E+00
    0.95258E-07        -0.10017E-10         0.00000E+00
    0.95258E-07        -0.16745E-10         0.00000E+00
    0.95257E-07        -0.20565E-10         0.00000E+00
    0.95255E-07        -0.22449E-10         0.00000E+00
    0.95253E-07        -0.23080E-10         0.00000E+00
    0.95250E-07        -0.22892E-10         0.00000E+00
    0.95247E-07        -0.22150E-10         0.00000E+00
    0.95244E-07        -0.21009E-10         0.00000E+00
    0.95241E-07        -0.19551E-10         0.00000E+00
    0.95238E-07        -0.17792E-10         0.00000E+00
    0.95236E-07        -0.15686E-10         0.00000E+00
    0.95234E-07        -0.13113E-10         0.00000E+00
    0.95233E-07        -0.98512E-11         0.00000E+00
    0.95232E-07        -0.55714E-11         0.00000E+00
    0.95233E-07        -0.31306E-11         0.00000E+00
    0.98870E-07        -0.55042E-11         0.00000E+00
    0.98870E-07        -0.91424E-11         0.00000E+00
    0.98868E-07        -0.14608E-10         0.00000E+00
    0.98865E-07        -0.17259E-10         0.00000E+00
    0.98860E-07        -0.18339E-10         0.00000E+00
    0.98855E-07        -0.18514E-10         0.00000E+00
    0.98850E-07        -0.18141E-10         0.00000E+00
    0.98844E-07        -0.17419E-10         0.00000E+00
    0.98839E-07        -0.16462E-10         0.00000E+00
    0.98833E-07        -0.15324E-10         0.00000E+00
    0.98829E-07        -0.14013E-10         0.00000E+00
    0.98825E-07        -0.12491E-10         0.00000E+00
    0.98821E-07        -0.10655E-10         0.00000E+00
    0.98819E-07        -0.82841E-11         0.00000E+00
    0.98818E-07        -0.49143E-11         0.00000E+00
    0.98818E-07        -0.29012E-11         0.00000E+00
    0.10249E-06        -0.43459E-11         0.00000E+00
    0.10249E-06        -0.65519E-11         0.00000E+00
    0.10249E-06        -0.96032E-11         0.00000E+00
    0.10248E-06        -0.10751E-10         0.00000E+00
    0.10247E-06        -0.11075E-10         0.00000E+00
    0.10246E-06        -0.10965E-10         0.00000E+00
    0.10245E-06        -0.10609E-10         0.00000E+00
    0.10245E-06        -0.10110E-10         0.00000E+00
    0.10244E-06        -0.95203E-11         0.00000E+00
    0.10243E-06        -0.88660E-11         0.00000E+00
    0.10242E-06        -0.81502E-11         0.00000E+00
    0.10242E-06        -0.73530E-11         0.00000E+00
    0.10241E-06        -0.64206E-11         0.00000E+00
    0.10241E-06        -0.52356E-11         0.00000E+00
    0.10241E-06        -0.34515E-11         0.00000E+00
    0.10240E-06        -0.23428E-11         0.00000E+00
    0.10431E-06         0.00000E+00         0.00000E+00
    0.10430E-06         0.00000E+00         0.00000E+00
    0.10430E-06        -0.26580E-20         0.00000E+00
    0.10429E-06         0.00000E+00         0.00000E+00
    0.10428E-06         0.00000E+00         0.00000E+00
    0.10427E-06         0.00000E+00         0.00000E+00
    0.10426E-06         0.00000E+00         0.00000E+00
    0.10425E-06        -0.26581E-20         0.00000E+00
    0.10424E-06         0.00000E+00         0.00000E+00
    0.10423E-06         0.00000E+00         0.00000E+00
    0.10422E-06         0.00000E+00         0.00000E+00
    0.10421E-06         0.00000E+00         0.00000E+00
    0.10421E-06        -0.53164E-20         0.00000E+00
    0.10420E-06        -0.26582E-20         0.00000E+00
    0.10420E-06         0.00000E+00         0.00000E+00
    0.10420E-06         0.00000E+00         0.00000E+00
CELL_DATA        450
TENSORS stressef double 
   -0.23958E+07        -0.52978E+02         0.00000E+00
   -0.52978E+02        -0.13366E+08         0.00000E+00
    0.00000E+00         0.00000E+00        -0.31524E+07
 
   -0.24781E+07        -0.11869E+03         0.00000E+00
   -0.11869E+03        -0.13366E+08         0.00000E+00
    0.00000E+00         0.00000E+00        -0.31689E+07
 
   -0.25557E+07        -0.10108E+03         0.00000E+00
   -0.10108E+03        -0.13367E+08         0.00000E+00
    0.00000E+00         0.00000E+00        -0.31845E+07
 
   -0.26289E+07         0.29891E+02         0.00000E+00
    0.29891E+02        -0.13367E+08         0.00000E+00
    0.00000E+00         0.00000E+00        -0.31991E+07
 
   -0.26981E+07         0.29812E+03         0.00000E+00
    0.29812E+03        -0.13366E+08         0.00000E+00
    0.00000E+00         0.00000E+00        -0.32129E+07
 
   -0.27637E+07         0.72169E+03         0.00000E+00
    0.72169E+03        -0.13365E+08         0.00000E+00
    0.00000E+00         0.00000E+00        -0.32258E+07
 
   -0.28263E+07         0.13133E+04         0.00000E+00
    0.13133E+04        -0.13363E+08         0.00000E+00
    0.00000E+00         0.00000E+00        -0.32379E+07
 
   -0.28864E+07         0.20805E+04         0.00000E+00
    0.20805E+04        -0.13360E+08         0.00000E+00
    0.00000E+00         0.00000E+00        -0.32492E+07
 
   -0.29447E+07         0.30269E+04         0.00000E+00
    0.30269E+04        -0.13355E+08         0.00000E+00
    0.00000E+00         0.00000E+00        -0.32599E+07
 
   -0.30015E+07         0.41520E+04         0.00000E+00
    0.41520E+04        -0.13347E+08         0.00000E+00
    0.00000E+00         0.00000E+00        -0.32698E+07
 
   -0.30576E+07         0.54523E+04         0.00000E+00
    0.54523E+04        -0.13338E+08         0.00000E+00
    0.00000E+00         0.00000E+00        -0.32791E+07
 
   -0.31135E+07         0.69220E+04         0.00000E+00
    0.69220E+04        -0.13325E+08         0.00000E+00
    0.00000E+00         0.00000E+00        -0.32878E+07
 
   -0.31696E+07         0.85536E+04         0.00000E+00
    0.85536E+04        -0.13310E+08         0.00000E+00
    0.00000E+00         0.00000E+00        -0.32959E+07
 
   -0.32265E+07         0.10338E+05         0.00000E+00
    0.10338E+05        -0.13291E+08         0.00000E+00
    0.00000E+00         0.00000E+00        -0.33035E+07
 
   -0.32846E+07         0.12268E+05         0.00000E+00
    0.12268E+05        -0.13268E+08         0.00000E+00
    0.00000E+00         0.00000E+00        -0.33106E+07
 
   -0.24021E+07        -0.16910E+03         0.00000E+00
   -0.16910E+03        -0.13372E+08         0.00000E+00
    0.00000E+00         0.00000E+00        -0.31549E+07
 
   -0.24843E+07        -0.38422E+03         0.00000E+00
   -0.38422E+03        -0.13373E+08         0.00000E+00
    0.00000E+00         0.00000E+00        -0.31714E+07
 
   -0.25617E+07        -0.34620E+03         0.00000E+00
   -0.34620E+03        -0.13373E+08         0.00000E+00
    0.00000E+00         0.00000E+00        -0.31869E+07
 
   -0.26346E+07         0.34984E+02         0.00000E+00
    0.34984E+02        -0.13373E+08         0.00000E+00
    0.00000E+00         0.00000E+00        -0.32015E+07
 
   -0.27035E+07         0.83086E+03         0.00000E+00
    0.83086E+03        -0.13373E+08         0.00000E+00
    0.00000E+00         0.00000E+00        -0.32153E+07
 
   -0.27688E+07         0.20954E+04         0.00000E+00
    0.20954E+04        -0.13372E+08         0.00000E+00
    0.00000E+00         0.00000E+00        -0.32281E+07
 
   -0.28311E+07         0.38663E+04         0.00000E+00
    0.38663E+04        -0.13370E+08         0.00000E+00
    0.00000E+00         0.00000E+00        -0.32402E+07
 
   -0.28908E+07         0.61664E+04         0.00000E+00
    0.61664E+04        -0.13367E+08         0.00000E+00
    0.00000E+00         0.00000E+00        -0.32515E+07
 
   -0.29487E+07         0.90055E+04         0.00000E+00
    0.90055E+04        -0.13362E+08         0.00000E+00
    0.00000E+00         0.00000E+00        -0.32621E+07
 
   -0.30052E+07         0.12382E+05         0.00000E+00
    0.12382E+05        -0.13355E+08         0.00000E+00
    0.00000E+00         0.00000E+00        -0.32720E+07
 
   -0.30610E+07         0.16285E+05         0.00000E+00
    0.16285E+05        -0.13345E+08         0.00000E+00
    0.00000E+00         0.00000E+00        -0.32812E+07
 
   -0.31165E+07         0.20698E+05         0.00000E+00
    0.20698E+05        -0.13333E+08         0.00000E+00
    0.00000E+00         0.00000E+00        -0.32898E+07
 
   -0.31723E+07         0.25595E+05         0.00000E+00
    0.25595E+05        -0.13317E+08         0.00000E+00
    0.00000E+00         0.00000E+00        -0.32979E+07
 
   -0.32288E+07         0.30953E+05         0.00000E+00
    0.30953E+05        -0.13299E+08         0.00000E+00
    0.00000E+00         0.00000E+00        -0.33055E+07
 
   -0.32867E+07         0.36744E+05         0.00000E+00
    0.36744E+05        -0.13276E+08         0.00000E+00
    0.00000E+00         0.00000E+00        -0.33126E+07
 
   -0.24148E+07        -0.31578E+03         0.00000E+00
   -0.31578E+03        -0.13385E+08         0.00000E+00
    0.00000E+00         0.00000E+00        -0.31599E+07
 
   -0.24967E+07        -0.73428E+03         0.00000E+00
   -0.73428E+03        -0.13385E+08         0.00000E+00
    0.00000E+00         0.00000E+00        -0.31763E+07
 
   -0.25737E+07        -0.72023E+03         0.00000E+00
   -0.72023E+03        -0.13385E+08         0.00000E+00
    0.00000E+00         0.00000E+00        -0.31918E+07
 
   -0.26461E+07        -0.12394E+03         0.00000E+00
   -0.12394E+03        -0.13386E+08         0.00000E+00
    0.00000E+00         0.00000E+00        -0.32063E+07
 
   -0.27143E+07         0.11732E+04         0.00000E+00
    0.11732E+04        -0.13386E+08         0.00000E+00
    0.00000E+00         0.00000E+00        -0.32200E+07
 
   -0.27790E+07         0.32603E+04         0.00000E+00
    0.32603E+04        -0.13385E+08         0.00000E+00
    0.00000E+00         0.00000E+00        -0.32328E+07
 
   -0.28406E+07         0.61992E+04         0.00000E+00
    0.61992E+04        -0.13383E+08         0.00000E+00
    0.00000E+00         0.00000E+00        -0.32448E+07
 
   -0.28996E+07         0.10027E+05         0.00000E+00
    0.10027E+05        -0.13380E+08         0.00000E+00
    0.00000E+00         0.00000E+00        -0.32560E+07
 
   -0.29568E+07         0.14759E+05         0.00000E+00
    0.14759E+05        -0.13376E+08         0.00000E+00
    0.00000E+00         0.00000E+00        -0.32665E+07
 
   -0.30126E+07         0.20391E+05         0.00000E+00
    0.20391E+05        -0.13369E+08         0.00000E+00
    0.00000E+00         0.00000E+00        -0.32763E+07
 
   -0.30676E+07         0.26904E+05         0.00000E+00
    0.26904E+05        -0.13360E+08         0.00000E+00
    0.00000E+00         0.00000E+00        -0.32855E+07
 
   -0.31225E+07         0.34268E+05         0.00000E+00
    0.34268E+05        -0.13348E+08         0.00000E+00
    0.00000E+00         0.00000E+00        -0.32940E+07
 
   -0.31776E+07         0.42441E+05         0.00000E+00
    0.42441E+05        -0.13333E+08         0.00000E+00
    0.00000E+00         0.00000E+00        -0.33020E+07
 
   -0.32336E+07         0.51381E+05         0.00000E+00
    0.51381E+05        -0.13314E+08         0.00000E+00
    0.00000E+00         0.00000E+00        -0.33095E+07
 
   -0.32909E+07         0.61041E+05         0.00000E+00
    0.61041E+05        -0.13292E+08         0.00000E+00
    0.00000E+00         0.00000E+00        -0.33166E+07
 
   -0.24338E+07        -0.51349E+03         0.00000E+00
   -0.51349E+03        -0.13403E+08         0.00000E+00
    0.00000E+00         0.00000E+00        -0.31674E+07
 
   -0.25153E+07        -0.12254E+04         0.00000E+00
   -0.12254E+04        -0.13403E+08         0.00000E+00
    0.00000E+00         0.00000E+00        -0.31837E+07
 
   -0.25917E+07        -0.13092E+04         0.00000E+00
   -0.13092E+04        -0.13404E+08         0.00000E+00
    0.00000E+00         0.00000E+00        -0.31991E+07
 
   -0.26633E+07        -0.55604E+03         0.00000E+00
   -0.55604E+03        -0.13405E+08         0.00000E+00
    0.00000E+00         0.00000E+00        -0.32136E+07
 
   -0.27307E+07         0.11987E+04         0.00000E+00
    0.11987E+04        -0.13405E+08         0.00000E+00
    0.00000E+00         0.00000E+00        -0.32271E+07
 
   -0.27943E+07         0.40779E+04         0.00000E+00
    0.40779E+04        -0.13405E+08         0.00000E+00
    0.00000E+00         0.00000E+00        -0.32398E+07
 
   -0.28548E+07         0.81662E+04         0.00000E+00
    0.81662E+04        -0.13404E+08         0.00000E+00
    0.00000E+00         0.00000E+00        -0.32517E+07
 
   -0.29128E+07         0.13513E+05         0.00000E+00
    0.13513E+05        -0.13401E+08         0.00000E+00
    0.00000E+00         0.00000E+00        -0.32628E+07
 
   -0.29689E+07         0.20137E+05         0.00000E+00
    0.20137E+05        -0.13397E+08         0.00000E+00
    0.00000E+00         0.00000E+00        -0.32731E+07
 
   -0.30236E+07         0.28032E+05         0.00000E+00
    0.28032E+05        -0.13390E+08         0.00000E+00
    0.00000E+00         0.00000E+00        -0.32828E+07
 
   -0.30776E+07         0.37167E+05         0.00000E+00
    0.37167E+05        -0.13382E+08         0.00000E+00
    0.00000E+00         0.00000E+00        -0.32918E+07
 
   -0.31315E+07         0.47497E+05         0.00000E+00
    0.47497E+05        -0.13370E+08         0.00000E+00
    0.00000E+00         0.00000E+00        -0.33003E+07
 
   -0.31857E+07         0.58962E+05         0.00000E+00
    0.58962E+05        -0.13355E+08         0.00000E+00
    0.00000E+00         0.00000E+00        -0.33082E+07
 
   -0.32408E+07         0.71499E+05         0.00000E+00
    0.71499E+05        -0.13337E+08         0.00000E+00
    0.00000E+00         0.00000E+00        -0.33156E+07
 
   -0.32972E+07         0.85040E+05         0.00000E+00
    0.85040E+05        -0.13315E+08         0.00000E+00
    0.00000E+00         0.00000E+00        -0.33225E+07
 
   -0.24594E+07        -0.78286E+03         0.00000E+00
   -0.78286E+03        -0.13427E+08         0.00000E+00
    0.00000E+00         0.00000E+00        -0.31774E+07
 
   -0.25403E+07        -0.19142E+04         0.00000E+00
   -0.19142E+04        -0.13428E+08         0.00000E+00
    0.00000E+00         0.00000E+00        -0.31937E+07
 
   -0.26158E+07        -0.21989E+04         0.00000E+00
   -0.21989E+04        -0.13429E+08         0.00000E+00
    0.00000E+00         0.00000E+00        -0.32090E+07
 
   -0.26864E+07        -0.13700E+04         0.00000E+00
   -0.13700E+04        -0.13430E+08         0.00000E+00
    0.00000E+00         0.00000E+00        -0.32233E+07
 
   -0.27525E+07         0.78166E+03         0.00000E+00
    0.78166E+03        -0.13431E+08         0.00000E+00
    0.00000E+00         0.00000E+00        -0.32367E+07
 
   -0.28148E+07         0.44110E+04         0.00000E+00
    0.44110E+04        -0.13431E+08         0.00000E+00
    0.00000E+00         0.00000E+00        -0.32492E+07
 
   -0.28739E+07         0.96230E+04         0.00000E+00
    0.96230E+04        -0.13430E+08         0.00000E+00
    0.00000E+00         0.00000E+00        -0.32609E+07
 
   -0.29304E+07         0.16477E+05         0.00000E+00
    0.16477E+05        -0.13428E+08         0.00000E+00
    0.00000E+00         0.00000E+00        -0.32718E+07
 
   -0.29850E+07         0.24995E+05         0.00000E+00
    0.24995E+05        -0.13425E+08         0.00000E+00
    0.00000E+00         0.00000E+00        -0.32820E+07
 
   -0.30383E+07         0.35161E+05         0.00000E+00
    0.35161E+05        -0.13419E+08         0.00000E+00
    0.00000E+00         0.00000E+00        -0.32915E+07
 
   -0.30909E+07         0.46935E+05         0.00000E+00
    0.46935E+05        -0.13411E+08         0.00000E+00
    0.00000E+00         0.00000E+00        -0.33003E+07
 
   -0.31434E+07         0.60252E+05         0.00000E+00
    0.60252E+05        -0.13400E+08         0.00000E+00
    0.00000E+00         0.00000E+00        -0.33086E+07
 
   -0.31964E+07         0.75032E+05         0.00000E+00
    0.75032E+05        -0.13386E+08         0.00000E+00
    0.00000E+00         0.00000E+00        -0.33164E+07
 
   -0.32503E+07         0.91188E+05         0.00000E+00
    0.91188E+05        -0.13368E+08         0.00000E+00
    0.00000E+00         0.00000E+00        -0.33237E+07
 
   -0.33057E+07         0.10863E+06         0.00000E+00
    0.10863E+06        -0.13347E+08         0.00000E+00
    0.00000E+00         0.00000E+00        -0.33305E+07
 
   -0.24917E+07        -0.11447E+04         0.00000E+00
   -0.11447E+04        -0.13458E+08         0.00000E+00
    0.00000E+00         0.00000E+00        -0.31900E+07
 
   -0.25718E+07        -0.28575E+04         0.00000E+00
   -0.28575E+04        -0.13459E+08         0.00000E+00
    0.00000E+00         0.00000E+00        -0.32061E+07
 
   -0.26462E+07        -0.34751E+04         0.00000E+00
   -0.34751E+04        -0.13460E+08         0.00000E+00
    0.00000E+00         0.00000E+00        -0.32213E+07
 
   -0.27154E+07        -0.26738E+04         0.00000E+00
   -0.26738E+04        -0.13462E+08         0.00000E+00
    0.00000E+00         0.00000E+00        -0.32354E+07
 
   -0.27799E+07        -0.20192E+03         0.00000E+00
   -0.20192E+03        -0.13463E+08         0.00000E+00
    0.00000E+00         0.00000E+00        -0.32486E+07
 
   -0.28405E+07         0.41245E+04         0.00000E+00
    0.41245E+04        -0.13464E+08         0.00000E+00
    0.00000E+00         0.00000E+00        -0.32609E+07
 
   -0.28978E+07         0.10428E+05         0.00000E+00
    0.10428E+05        -0.13464E+08         0.00000E+00
    0.00000E+00         0.00000E+00        -0.32724E+07
 
   -0.29525E+07         0.18776E+05         0.00000E+00
    0.18776E+05        -0.13463E+08         0.00000E+00
    0.00000E+00         0.00000E+00        -0.32830E+07
 
   -0.30052E+07         0.29187E+05         0.00000E+00
    0.29187E+05        -0.13460E+08         0.00000E+00
    0.00000E+00         0.00000E+00        -0.32930E+07
 
   -0.30567E+07         0.41638E+05         0.00000E+00
    0.41638E+05        -0.13455E+08         0.00000E+00
    0.00000E+00         0.00000E+00        -0.33023E+07
 
   -0.31075E+07         0.56071E+05         0.00000E+00
    0.56071E+05        -0.13447E+08         0.00000E+00
    0.00000E+00         0.00000E+00        -0.33110E+07
 
   -0.31583E+07         0.72403E+05         0.00000E+00
    0.72403E+05        -0.13437E+08         0.00000E+00
    0.00000E+00         0.00000E+00        -0.33191E+07
 
   -0.32097E+07         0.90528E+05         0.00000E+00
    0.90528E+05        -0.13423E+08         0.00000E+00
    0.00000E+00         0.00000E+00        -0.33266E+07
 
   -0.32622E+07         0.11033E+06         0.00000E+00
    0.11033E+06        -0.13406E+08         0.00000E+00
    0.00000E+00         0.00000E+00        -0.33337E+07
 
   -0.33162E+07         0.13169E+06         0.00000E+00
    0.13169E+06        -0.13386E+08         0.00000E+00
    0.00000E+00         0.00000E+00        -0.33404E+07
 
   -0.25310E+07        -0.16198E+04         0.00000E+00
   -0.16198E+04        -0.13495E+08         0.00000E+00
    0.00000E+00         0.00000E+00        -0.32051E+07
 
   -0.26100E+07        -0.41121E+04         0.00000E+00
   -0.41121E+04        -0.13496E+08         0.00000E+00
    0.00000E+00         0.00000E+00        -0.32212E+07
 
   -0.26830E+07        -0.52227E+04         0.00000E+00
   -0.52227E+04        -0.13497E+08         0.00000E+00
    0.00000E+00         0.00000E+00        -0.32361E+07
 
   -0.27504E+07        -0.45735E+04         0.00000E+00
   -0.45735E+04        -0.13500E+08         0.00000E+00
    0.00000E+00         0.00000E+00        -0.32500E+07
 
   -0.28130E+07        -0.18737E+04         0.00000E+00
   -0.18737E+04        -0.13502E+08         0.00000E+00
    0.00000E+00         0.00000E+00        -0.32629E+07
 
   -0.28715E+07         0.30866E+04         0.00000E+00
    0.30866E+04        -0.13503E+08         0.00000E+00
    0.00000E+00         0.00000E+00        -0.32750E+07
 
   -0.29265E+07         0.10444E+05         0.00000E+00
    0.10444E+05        -0.13504E+08         0.00000E+00
    0.00000E+00         0.00000E+00        -0.32862E+07
 
   -0.29789E+07         0.20268E+05         0.00000E+00
    0.20268E+05        -0.13504E+08         0.00000E+00
    0.00000E+00         0.00000E+00        -0.32966E+07
 
   -0.30294E+07         0.32574E+05         0.00000E+00
    0.32574E+05        -0.13502E+08         0.00000E+00
    0.00000E+00         0.00000E+00        -0.33062E+07
 
   -0.30786E+07         0.47325E+05         0.00000E+00
    0.47325E+05        -0.13498E+08         0.00000E+00
    0.00000E+00         0.00000E+00        -0.33153E+07
 
   -0.31274E+07         0.64444E+05         0.00000E+00
    0.64444E+05        -0.13491E+08         0.00000E+00
    0.00000E+00         0.00000E+00        -0.33237E+07
 
   -0.31762E+07         0.83823E+05         0.00000E+00
    0.83823E+05        -0.13482E+08         0.00000E+00
    0.00000E+00         0.00000E+00        -0.33315E+07
 
   -0.32257E+07         0.10533E+06         0.00000E+00
    0.10533E+06        -0.13469E+08         0.00000E+00
    0.00000E+00         0.00000E+00        -0.33389E+07
 
   -0.32764E+07         0.12881E+06         0.00000E+00
    0.12881E+06        -0.13453E+08         0.00000E+00
    0.00000E+00         0.00000E+00        -0.33458E+07
 
   -0.33287E+07         0.15413E+06         0.00000E+00
    0.15413E+06        -0.13432E+08         0.00000E+00
    0.00000E+00         0.00000E+00        -0.33522E+07
 
   -0.25773E+07        -0.22293E+04         0.00000E+00
   -0.22293E+04        -0.13538E+08         0.00000E+00
    0.00000E+00         0.00000E+00        -0.32230E+07
 
   -0.26551E+07        -0.57341E+04         0.00000E+00
   -0.57341E+04        -0.13539E+08         0.00000E+00
    0.00000E+00         0.00000E+00        -0.32388E+07
 
   -0.27263E+07        -0.75251E+04         0.00000E+00
   -0.75251E+04        -0.13541E+08         0.00000E+00
    0.00000E+00         0.00000E+00        -0.32535E+07
 
   -0.27916E+07        -0.71729E+04         0.00000E+00
   -0.71729E+04        -0.13544E+08         0.00000E+00
    0.00000E+00         0.00000E+00        -0.32671E+07
 
   -0.28518E+07        -0.43514E+04         0.00000E+00
   -0.43514E+04        -0.13547E+08         0.00000E+00
    0.00000E+00         0.00000E+00        -0.32797E+07
 
   -0.29077E+07         0.11704E+04         0.00000E+00
    0.11704E+04        -0.13549E+08         0.00000E+00
    0.00000E+00         0.00000E+00        -0.32914E+07
 
   -0.29601E+07         0.95379E+04         0.00000E+00
    0.95379E+04        -0.13551E+08         0.00000E+00
    0.00000E+00         0.00000E+00        -0.33023E+07
 
   -0.30098E+07         0.20821E+05         0.00000E+00
    0.20821E+05        -0.13552E+08         0.00000E+00
    0.00000E+00         0.00000E+00        -0.33123E+07
 
   -0.30576E+07         0.35023E+05         0.00000E+00
    0.35023E+05        -0.13551E+08         0.00000E+00
    0.00000E+00         0.00000E+00        -0.33217E+07
 
   -0.31042E+07         0.52092E+05         0.00000E+00
    0.52092E+05        -0.13548E+08         0.00000E+00
    0.00000E+00         0.00000E+00        -0.33304E+07
 
   -0.31504E+07         0.71928E+05         0.00000E+00
    0.71928E+05        -0.13542E+08         0.00000E+00
    0.00000E+00         0.00000E+00        -0.33385E+07
 
   -0.31969E+07         0.94394E+05         0.00000E+00
    0.94394E+05        -0.13533E+08         0.00000E+00
    0.00000E+00         0.00000E+00        -0.33461E+07
 
   -0.32442E+07         0.11932E+06         0.00000E+00
    0.11932E+06        -0.13522E+08         0.00000E+00
    0.00000E+00         0.00000E+00        -0.33532E+07
 
   -0.32928E+07         0.14653E+06         0.00000E+00
    0.14653E+06        -0.13506E+08         0.00000E+00
    0.00000E+00         0.00000E+00        -0.33598E+07
 
   -0.33433E+07         0.17583E+06         0.00000E+00
    0.17583E+06        -0.13487E+08         0.00000E+00
    0.00000E+00         0.00000E+00        -0.33660E+07
 
   -0.26311E+07        -0.29938E+04         0.00000E+00
   -0.29938E+04        -0.13587E+08         0.00000E+00
    0.00000E+00         0.00000E+00        -0.32435E+07
 
   -0.27072E+07        -0.77786E+04         0.00000E+00
   -0.77786E+04        -0.13588E+08         0.00000E+00
    0.00000E+00         0.00000E+00        -0.32591E+07
 
   -0.27763E+07        -0.10463E+05         0.00000E+00
   -0.10463E+05        -0.13591E+08         0.00000E+00
    0.00000E+00         0.00000E+00        -0.32734E+07
 
   -0.28391E+07        -0.10571E+05         0.00000E+00
   -0.10571E+05        -0.13594E+08         0.00000E+00
    0.00000E+00         0.00000E+00        -0.32867E+07
 
   -0.28965E+07        -0.77469E+04         0.00000E+00
   -0.77469E+04        -0.13598E+08         0.00000E+00
    0.00000E+00         0.00000E+00        -0.32989E+07
 
   -0.29493E+07        -0.17440E+04         0.00000E+00
   -0.17440E+04        -0.13602E+08         0.00000E+00
    0.00000E+00         0.00000E+00        -0.33102E+07
 
   -0.29986E+07         0.75865E+04         0.00000E+00
    0.75865E+04        -0.13605E+08         0.00000E+00
    0.00000E+00         0.00000E+00        -0.33207E+07
 
   -0.30451E+07         0.20308E+05         0.00000E+00
    0.20308E+05        -0.13607E+08         0.00000E+00
    0.00000E+00         0.00000E+00        -0.33303E+07
 
   -0.30898E+07         0.36409E+05         0.00000E+00
    0.36409E+05        -0.13607E+08         0.00000E+00
    0.00000E+00         0.00000E+00        -0.33393E+07
 
   -0.31334E+07         0.55816E+05         0.00000E+00
    0.55816E+05        -0.13605E+08         0.00000E+00
    0.00000E+00         0.00000E+00        -0.33476E+07
 
   -0.31767E+07         0.78403E+05         0.00000E+00
    0.78403E+05        -0.13600E+08         0.00000E+00
    0.00000E+00         0.00000E+00        -0.33554E+07
 
   -0.32205E+07         0.10400E+06         0.00000E+00
    0.10400E+06        -0.13593E+08         0.00000E+00
    0.00000E+00         0.00000E+00        -0.33626E+07
 
   -0.32652E+07         0.13240E+06         0.00000E+00
    0.13240E+06        -0.13582E+08         0.00000E+00
    0.00000E+00         0.00000E+00        -0.33694E+07
 
   -0.33115E+07         0.16339E+06         0.00000E+00
    0.16339E+06        -0.13567E+08         0.00000E+00
    0.00000E+00         0.00000E+00        -0.33757E+07
 
   -0.33599E+07         0.19672E+06         0.00000E+00
    0.19672E+06        -0.13549E+08         0.00000E+00
    0.00000E+00         0.00000E+00        -0.33817E+07
 
   -0.26926E+07        -0.39337E+04         0.00000E+00
   -0.39337E+04        -0.13642E+08         0.00000E+00
    0.00000E+00         0.00000E+00        -0.32669E+07
 
   -0.27667E+07        -0.10299E+05         0.00000E+00
   -0.10299E+05        -0.13644E+08         0.00000E+00
    0.00000E+00         0.00000E+00        -0.32821E+07
 
   -0.28332E+07        -0.14114E+05         0.00000E+00
   -0.14114E+05        -0.13647E+08         0.00000E+00
    0.00000E+00         0.00000E+00        -0.32960E+07
 
   -0.28930E+07        -0.14861E+05         0.00000E+00
   -0.14861E+05        -0.13651E+08         0.00000E+00
    0.00000E+00         0.00000E+00        -0.33089E+07
 
   -0.29470E+07        -0.12164E+05         0.00000E+00
   -0.12164E+05        -0.13656E+08         0.00000E+00
    0.00000E+00         0.00000E+00        -0.33206E+07
 
   -0.29964E+07        -0.57660E+04         0.00000E+00
   -0.57660E+04        -0.13661E+08         0.00000E+00
    0.00000E+00         0.00000E+00        -0.33315E+07
 
   -0.30420E+07         0.44767E+04         0.00000E+00
    0.44767E+04        -0.13665E+08         0.00000E+00
    0.00000E+00         0.00000E+00        -0.33414E+07
 
   -0.30849E+07         0.18615E+05         0.00000E+00
    0.18615E+05        -0.13668E+08         0.00000E+00
    0.00000E+00         0.00000E+00        -0.33506E+07
 
   -0.31260E+07         0.36618E+05         0.00000E+00
    0.36618E+05        -0.13669E+08         0.00000E+00
    0.00000E+00         0.00000E+00        -0.33591E+07
 
   -0.31662E+07         0.58385E+05         0.00000E+00
    0.58385E+05        -0.13669E+08         0.00000E+00
    0.00000E+00         0.00000E+00        -0.33670E+07
 
   -0.32062E+07         0.83759E+05         0.00000E+00
    0.83759E+05        -0.13665E+08         0.00000E+00
    0.00000E+00         0.00000E+00        -0.33743E+07
 
   -0.32468E+07         0.11253E+06         0.00000E+00
    0.11253E+06        -0.13659E+08         0.00000E+00
    0.00000E+00         0.00000E+00        -0.33811E+07
 
   -0.32887E+07         0.14446E+06         0.00000E+00
    0.14446E+06        -0.13649E+08         0.00000E+00
    0.00000E+00         0.00000E+00        -0.33876E+07
 
   -0.33324E+07         0.17928E+06         0.00000E+00
    0.17928E+06        -0.13636E+08         0.00000E+00
    0.00000E+00         0.00000E+00        -0.33936E+07
 
   -0.33785E+07         0.21669E+06         0.00000E+00
    0.21669E+06        -0.13618E+08         0.00000E+00
    0.00000E+00         0.00000E+00        -0.33993E+07
 
   -0.27623E+07        -0.50685E+04         0.00000E+00
   -0.50685E+04        -0.13703E+08         0.00000E+00
    0.00000E+00         0.00000E+00        -0.32930E+07
 
   -0.28339E+07        -0.13345E+05         0.00000E+00
   -0.13345E+05        -0.13705E+08         0.00000E+00
    0.00000E+00         0.00000E+00        -0.33078E+07
 
   -0.28973E+07        -0.18547E+05         0.00000E+00
   -0.18547E+05        -0.13709E+08         0.00000E+00
    0.00000E+00         0.00000E+00        -0.33213E+07
 
   -0.29535E+07        -0.20127E+05         0.00000E+00
   -0.20127E+05        -0.13715E+08         0.00000E+00
    0.00000E+00         0.00000E+00        -0.33336E+07
 
   -0.30037E+07        -0.17693E+05         0.00000E+00
   -0.17693E+05        -0.13721E+08         0.00000E+00
    0.00000E+00         0.00000E+00        -0.33448E+07
 
   -0.30490E+07        -0.10991E+05         0.00000E+00
   -0.10991E+05        -0.13727E+08         0.00000E+00
    0.00000E+00         0.00000E+00        -0.33551E+07
 
   -0.30905E+07         0.11086E+03         0.00000E+00
    0.11086E+03        -0.13732E+08         0.00000E+00
    0.00000E+00         0.00000E+00        -0.33645E+07
 
   -0.31292E+07         0.15644E+05         0.00000E+00
    0.15644E+05        -0.13736E+08         0.00000E+00
    0.00000E+00         0.00000E+00        -0.33731E+07
 
   -0.31663E+07         0.35550E+05         0.00000E+00
    0.35550E+05        -0.13739E+08         0.00000E+00
    0.00000E+00         0.00000E+00        -0.33810E+07
 
   -0.32025E+07         0.59699E+05         0.00000E+00
    0.59699E+05        -0.13739E+08         0.00000E+00
    0.00000E+00         0.00000E+00        -0.33884E+07
 
   -0.32388E+07         0.87898E+05         0.00000E+00
    0.87898E+05        -0.13737E+08         0.00000E+00
    0.00000E+00         0.00000E+00        -0.33952E+07
 
   -0.32759E+07         0.11990E+06         0.00000E+00
    0.11990E+06        -0.13732E+08         0.00000E+00
    0.00000E+00         0.00000E+00        -0.34016E+07
 
   -0.33146E+07         0.15542E+06         0.00000E+00
    0.15542E+06        -0.13724E+08         0.00000E+00
    0.00000E+00         0.00000E+00        -0.34076E+07
 
   -0.33555E+07         0.19413E+06         0.00000E+00
    0.19413E+06        -0.13711E+08         0.00000E+00
    0.00000E+00         0.00000E+00        -0.34133E+07
 
   -0.33990E+07         0.23568E+06         0.00000E+00
    0.23568E+06        -0.13695E+08         0.00000E+00
    0.00000E+00         0.00000E+00        -0.34188E+07
 
   -0.28404E+07        -0.64163E+04         0.00000E+00
   -0.64163E+04        -0.13770E+08         0.00000E+00
    0.00000E+00         0.00000E+00        -0.33222E+07
 
   -0.29090E+07        -0.16961E+05         0.00000E+00
   -0.16961E+05        -0.13773E+08         0.00000E+00
    0.00000E+00         0.00000E+00        -0.33364E+07
 
   -0.29687E+07        -0.23825E+05         0.00000E+00
   -0.23825E+05        -0.13778E+08         0.00000E+00
    0.00000E+00         0.00000E+00        -0.33493E+07
 
   -0.30208E+07        -0.26440E+05         0.00000E+00
   -0.26440E+05        -0.13784E+08         0.00000E+00
    0.00000E+00         0.00000E+00        -0.33610E+07
 
   -0.30665E+07        -0.24410E+05         0.00000E+00
   -0.24410E+05        -0.13791E+08         0.00000E+00
    0.00000E+00         0.00000E+00        -0.33715E+07
 
   -0.31071E+07        -0.17497E+05         0.00000E+00
   -0.17497E+05        -0.13798E+08         0.00000E+00
    0.00000E+00         0.00000E+00        -0.33811E+07
 
   -0.31439E+07        -0.55884E+04         0.00000E+00
   -0.55884E+04        -0.13805E+08         0.00000E+00
    0.00000E+00         0.00000E+00        -0.33898E+07
 
   -0.31780E+07         0.11316E+05         0.00000E+00
    0.11316E+05        -0.13811E+08         0.00000E+00
    0.00000E+00         0.00000E+00        -0.33978E+07
 
   -0.32105E+07         0.33126E+05         0.00000E+00
    0.33126E+05        -0.13815E+08         0.00000E+00
    0.00000E+00         0.00000E+00        -0.34051E+07
 
   -0.32423E+07         0.59676E+05         0.00000E+00
    0.59676E+05        -0.13817E+08         0.00000E+00
    0.00000E+00         0.00000E+00        -0.34118E+07
 
   -0.32745E+07         0.90733E+05         0.00000E+00
    0.90733E+05        -0.13816E+08         0.00000E+00
    0.00000E+00         0.00000E+00        -0.34181E+07
 
   -0.33078E+07         0.12601E+06         0.00000E+00
    0.12601E+06        -0.13812E+08         0.00000E+00
    0.00000E+00         0.00000E+00        -0.34240E+07
 
   -0.33429E+07         0.16517E+06         0.00000E+00
    0.16517E+06        -0.13805E+08         0.00000E+00
    0.00000E+00         0.00000E+00        -0.34296E+07
 
   -0.33806E+07         0.20784E+06         0.00000E+00
    0.20784E+06        -0.13794E+08         0.00000E+00
    0.00000E+00         0.00000E+00        -0.34349E+07
 
   -0.34213E+07         0.25361E+06         0.00000E+00
    0.25361E+06        -0.13779E+08         0.00000E+00
    0.00000E+00         0.00000E+00        -0.34400E+07
 
   -0.29275E+07        -0.79932E+04         0.00000E+00
   -0.79932E+04        -0.13844E+08         0.00000E+00
    0.00000E+00         0.00000E+00        -0.33543E+07
 
   -0.29924E+07        -0.21187E+05         0.00000E+00
   -0.21187E+05        -0.13847E+08         0.00000E+00
    0.00000E+00         0.00000E+00        -0.33679E+07
 
   -0.30477E+07        -0.29998E+05         0.00000E+00
   -0.29998E+05        -0.13853E+08         0.00000E+00
    0.00000E+00         0.00000E+00        -0.33801E+07
 
   -0.30950E+07        -0.33852E+05         0.00000E+00
   -0.33852E+05        -0.13860E+08         0.00000E+00
    0.00000E+00         0.00000E+00        -0.33910E+07
 
   -0.31356E+07        -0.32368E+05         0.00000E+00
   -0.32368E+05        -0.13868E+08         0.00000E+00
    0.00000E+00         0.00000E+00        -0.34008E+07
 
   -0.31710E+07        -0.25333E+05         0.00000E+00
   -0.25333E+05        -0.13877E+08         0.00000E+00
    0.00000E+00         0.00000E+00        -0.34096E+07
 
   -0.32025E+07        -0.12672E+05         0.00000E+00
   -0.12672E+05        -0.13885E+08         0.00000E+00
    0.00000E+00         0.00000E+00        -0.34175E+07
 
   -0.32313E+07         0.55790E+04         0.00000E+00
    0.55790E+04        -0.13892E+08         0.00000E+00
    0.00000E+00         0.00000E+00        -0.34247E+07
 
   -0.32587E+07         0.29289E+05         0.00000E+00
    0.29289E+05        -0.13897E+08         0.00000E+00
    0.00000E+00         0.00000E+00        -0.34312E+07
 
   -0.32857E+07         0.58252E+05         0.00000E+00
    0.58252E+05        -0.13901E+08         0.00000E+00
    0.00000E+00         0.00000E+00        -0.34373E+07
 
   -0.33132E+07         0.92196E+05         0.00000E+00
    0.92196E+05        -0.13901E+08         0.00000E+00
    0.00000E+00         0.00000E+00        -0.34429E+07
 
   -0.33423E+07         0.13079E+06         0.00000E+00
    0.13079E+06        -0.13899E+08         0.00000E+00
    0.00000E+00         0.00000E+00        -0.34483E+07
 
   -0.33736E+07         0.17365E+06         0.00000E+00
    0.17365E+06        -0.13893E+08         0.00000E+00
    0.00000E+00         0.00000E+00        -0.34533E+07
 
   -0.34078E+07         0.22035E+06         0.00000E+00
    0.22035E+06        -0.13883E+08         0.00000E+00
    0.00000E+00         0.00000E+00        -0.34582E+07
 
   -0.34455E+07         0.27040E+06         0.00000E+00
    0.27040E+06        -0.13869E+08         0.00000E+00
    0.00000E+00         0.00000E+00        -0.34629E+07
 
   -0.30239E+07        -0.98125E+04         0.00000E+00
   -0.98125E+04        -0.13924E+08         0.00000E+00
    0.00000E+00         0.00000E+00        -0.33895E+07
 
   -0.30844E+07        -0.26049E+05         0.00000E+00
   -0.26049E+05        -0.13927E+08         0.00000E+00
    0.00000E+00         0.00000E+00        -0.34023E+07
 
   -0.31347E+07        -0.37097E+05         0.00000E+00
   -0.37097E+05        -0.13934E+08         0.00000E+00
    0.00000E+00         0.00000E+00        -0.34137E+07
 
   -0.31764E+07        -0.42394E+05         0.00000E+00
   -0.42394E+05        -0.13942E+08         0.00000E+00
    0.00000E+00         0.00000E+00        -0.34237E+07
 
   -0.32112E+07        -0.41591E+05         0.00000E+00
   -0.41591E+05        -0.13951E+08         0.00000E+00
    0.00000E+00         0.00000E+00        -0.34325E+07
 
   -0.32406E+07        -0.34519E+05         0.00000E+00
   -0.34519E+05        -0.13961E+08         0.00000E+00
    0.00000E+00         0.00000E+00        -0.34404E+07
 
   -0.32661E+07        -0.21155E+05         0.00000E+00
   -0.21155E+05        -0.13971E+08         0.00000E+00
    0.00000E+00         0.00000E+00        -0.34474E+07
 
   -0.32892E+07        -0.15843E+04         0.00000E+00
   -0.15843E+04        -0.13979E+08         0.00000E+00
    0.00000E+00         0.00000E+00        -0.34537E+07
 
   -0.33109E+07         0.24014E+05         0.00000E+00
    0.24014E+05        -0.13986E+08         0.00000E+00
    0.00000E+00         0.00000E+00        -0.34594E+07
 
   -0.33325E+07         0.55392E+05         0.00000E+00
    0.55392E+05        -0.13991E+08         0.00000E+00
    0.00000E+00         0.00000E+00        -0.34647E+07
 
   -0.33550E+07         0.92237E+05         0.00000E+00
    0.92237E+05        -0.13993E+08         0.00000E+00
    0.00000E+00         0.00000E+00        -0.34696E+07
 
   -0.33794E+07         0.13418E+06         0.00000E+00
    0.13418E+06        -0.13992E+08         0.00000E+00
    0.00000E+00         0.00000E+00        -0.34743E+07
 
   -0.34064E+07         0.18079E+06         0.00000E+00
    0.18079E+06        -0.13988E+08         0.00000E+00
    0.00000E+00         0.00000E+00        -0.34788E+07
 
   -0.34369E+07         0.23158E+06         0.00000E+00
    0.23158E+06        -0.13979E+08         0.00000E+00
    0.00000E+00         0.00000E+00        -0.34832E+07
 
   -0.34714E+07         0.28601E+06         0.00000E+00
    0.28601E+06        -0.13966E+08         0.00000E+00
    0.00000E+00         0.00000E+00        -0.34875E+07
 
   -0.31301E+07        -0.11883E+05         0.00000E+00
   -0.11883E+05        -0.14010E+08         0.00000E+00
    0.00000E+00         0.00000E+00        -0.34279E+07
 
   -0.31854E+07        -0.31566E+05         0.00000E+00
   -0.31566E+05        -0.14014E+08         0.00000E+00
    0.00000E+00         0.00000E+00        -0.34398E+07
 
   -0.32297E+07        -0.45135E+05         0.00000E+00
   -0.45135E+05        -0.14021E+08         0.00000E+00
    0.00000E+00         0.00000E+00        -0.34501E+07
 
   -0.32650E+07        -0.52065E+05         0.00000E+00
   -0.52065E+05        -0.14030E+08         0.00000E+00
    0.00000E+00         0.00000E+00        -0.34590E+07
 
   -0.32932E+07        -0.52064E+05         0.00000E+00
   -0.52064E+05        -0.14041E+08         0.00000E+00
    0.00000E+00         0.00000E+00        -0.34668E+07
 
   -0.33160E+07        -0.45030E+05         0.00000E+00
   -0.45030E+05        -0.14052E+08         0.00000E+00
    0.00000E+00         0.00000E+00        -0.34736E+07
 
   -0.33350E+07        -0.31007E+05         0.00000E+00
   -0.31007E+05        -0.14063E+08         0.00000E+00
    0.00000E+00         0.00000E+00        -0.34795E+07
 
   -0.33516E+07        -0.10148E+05         0.00000E+00
   -0.10148E+05        -0.14073E+08         0.00000E+00
    0.00000E+00         0.00000E+00        -0.34848E+07
 
   -0.33671E+07         0.17317E+05         0.00000E+00
    0.17317E+05        -0.14081E+08         0.00000E+00
    0.00000E+00         0.00000E+00        -0.34896E+07
 
   -0.33828E+07         0.51092E+05         0.00000E+00
    0.51092E+05        -0.14087E+08         0.00000E+00
    0.00000E+00         0.00000E+00        -0.34940E+07
 
   -0.33998E+07         0.90831E+05         0.00000E+00
    0.90831E+05        -0.14091E+08         0.00000E+00
    0.00000E+00         0.00000E+00        -0.34981E+07
 
   -0.34191E+07         0.13613E+06         0.00000E+00
    0.13613E+06        -0.14091E+08         0.00000E+00
    0.00000E+00         0.00000E+00        -0.35020E+07
 
   -0.34415E+07         0.18652E+06         0.00000E+00
    0.18652E+06        -0.14088E+08         0.00000E+00
    0.00000E+00         0.00000E+00        -0.35059E+07
 
   -0.34679E+07         0.24147E+06         0.00000E+00
    0.24147E+06        -0.14081E+08         0.00000E+00
    0.00000E+00         0.00000E+00        -0.35098E+07
 
   -0.34989E+07         0.30035E+06         0.00000E+00
    0.30035E+06        -0.14070E+08         0.00000E+00
    0.00000E+00         0.00000E+00        -0.35137E+07
 
   -0.32467E+07        -0.14211E+05         0.00000E+00
   -0.14211E+05        -0.14102E+08         0.00000E+00
    0.00000E+00         0.00000E+00        -0.34697E+07
 
   -0.32957E+07        -0.37737E+05         0.00000E+00
   -0.37737E+05        -0.14106E+08         0.00000E+00
    0.00000E+00         0.00000E+00        -0.34804E+07
 
   -0.33331E+07        -0.54095E+05         0.00000E+00
   -0.54095E+05        -0.14114E+08         0.00000E+00
    0.00000E+00         0.00000E+00        -0.34894E+07
 
   -0.33612E+07        -0.62825E+05         0.00000E+00
   -0.62825E+05        -0.14124E+08         0.00000E+00
    0.00000E+00         0.00000E+00        -0.34971E+07
 
   -0.33819E+07        -0.63724E+05         0.00000E+00
   -0.63724E+05        -0.14136E+08         0.00000E+00
    0.00000E+00         0.00000E+00        -0.35036E+07
 
   -0.33973E+07        -0.56784E+05         0.00000E+00
   -0.56784E+05        -0.14148E+08         0.00000E+00
    0.00000E+00         0.00000E+00        -0.35092E+07
 
   -0.34090E+07        -0.42142E+05         0.00000E+00
   -0.42142E+05        -0.14161E+08         0.00000E+00
    0.00000E+00         0.00000E+00        -0.35139E+07
 
   -0.34186E+07        -0.20029E+05         0.00000E+00
   -0.20029E+05        -0.14172E+08         0.00000E+00
    0.00000E+00         0.00000E+00        -0.35180E+07
 
   -0.34274E+07         0.92604E+04         0.00000E+00
    0.92604E+04        -0.14181E+08         0.00000E+00
    0.00000E+00         0.00000E+00        -0.35217E+07
 
   -0.34367E+07         0.45388E+05         0.00000E+00
    0.45388E+05        -0.14189E+08         0.00000E+00
    0.00000E+00         0.00000E+00        -0.35251E+07
 
   -0.34477E+07         0.87978E+05         0.00000E+00
    0.87978E+05        -0.14194E+08         0.00000E+00
    0.00000E+00         0.00000E+00        -0.35283E+07
 
   -0.34614E+07         0.13660E+06         0.00000E+00
    0.13660E+06        -0.14196E+08         0.00000E+00
    0.00000E+00         0.00000E+00        -0.35314E+07
 
   -0.34788E+07         0.19078E+06         0.00000E+00
    0.19078E+06        -0.14194E+08         0.00000E+00
    0.00000E+00         0.00000E+00        -0.35346E+07
 
   -0.35008E+07         0.24992E+06         0.00000E+00
    0.24992E+06        -0.14188E+08         0.00000E+00
    0.00000E+00         0.00000E+00        -0.35378E+07
 
   -0.35280E+07         0.31335E+06         0.00000E+00
    0.31335E+06        -0.14178E+08         0.00000E+00
    0.00000E+00         0.00000E+00        -0.35413E+07
 
   -0.33741E+07        -0.16792E+05         0.00000E+00
   -0.16792E+05        -0.14200E+08         0.00000E+00
    0.00000E+00         0.00000E+00        -0.35148E+07
 
   -0.34157E+07        -0.44542E+05         0.00000E+00
   -0.44542E+05        -0.14205E+08         0.00000E+00
    0.00000E+00         0.00000E+00        -0.35241E+07
 
   -0.34451E+07        -0.63926E+05         0.00000E+00
   -0.63926E+05        -0.14214E+08         0.00000E+00
    0.00000E+00         0.00000E+00        -0.35317E+07
 
   -0.34648E+07        -0.74586E+05         0.00000E+00
   -0.74586E+05        -0.14225E+08         0.00000E+00
    0.00000E+00         0.00000E+00        -0.35379E+07
 
   -0.34773E+07        -0.76447E+05         0.00000E+00
   -0.76447E+05        -0.14237E+08         0.00000E+00
    0.00000E+00         0.00000E+00        -0.35430E+07
 
   -0.34845E+07        -0.69633E+05         0.00000E+00
   -0.69633E+05        -0.14251E+08         0.00000E+00
    0.00000E+00         0.00000E+00        -0.35471E+07
 
   -0.34883E+07        -0.54399E+05         0.00000E+00
   -0.54399E+05        -0.14264E+08         0.00000E+00
    0.00000E+00         0.00000E+00        -0.35504E+07
 
   -0.34903E+07        -0.31076E+05         0.00000E+00
   -0.31076E+05        -0.14276E+08         0.00000E+00
    0.00000E+00         0.00000E+00        -0.35532E+07
 
   -0.34918E+07        -0.29044E+02         0.00000E+00
   -0.29044E+02        -0.14287E+08         0.00000E+00
    0.00000E+00         0.00000E+00        -0.35557E+07
 
   -0.34942E+07         0.38365E+05         0.00000E+00
    0.38365E+05        -0.14295E+08         0.00000E+00
    0.00000E+00         0.00000E+00        -0.35579E+07
 
   -0.34987E+07         0.83713E+05         0.00000E+00
    0.83713E+05        -0.14302E+08         0.00000E+00
    0.00000E+00         0.00000E+00        -0.35601E+07
 
   -0.35064E+07         0.13559E+06         0.00000E+00
    0.13559E+06        -0.14305E+08         0.00000E+00
    0.00000E+00         0.00000E+00        -0.35623E+07
 
   -0.35183E+07         0.19350E+06         0.00000E+00
    0.19350E+06        -0.14305E+08         0.00000E+00
    0.00000E+00         0.00000E+00        -0.35646E+07
 
   -0.35354E+07         0.25685E+06         0.00000E+00
    0.25685E+06        -0.14301E+08         0.00000E+00
    0.00000E+00         0.00000E+00        -0.35673E+07
 
   -0.35586E+07         0.32491E+06         0.00000E+00
    0.32491E+06        -0.14292E+08         0.00000E+00
    0.00000E+00         0.00000E+00        -0.35702E+07
 
   -0.35128E+07        -0.19619E+05         0.00000E+00
   -0.19619E+05        -0.14304E+08         0.00000E+00
    0.00000E+00         0.00000E+00        -0.35634E+07
 
   -0.35455E+07        -0.51939E+05         0.00000E+00
   -0.51939E+05        -0.14310E+08         0.00000E+00
    0.00000E+00         0.00000E+00        -0.35710E+07
 
   -0.35657E+07        -0.74532E+05         0.00000E+00
   -0.74532E+05        -0.14319E+08         0.00000E+00
    0.00000E+00         0.00000E+00        -0.35769E+07
 
   -0.35762E+07        -0.87196E+05         0.00000E+00
   -0.87196E+05        -0.14331E+08         0.00000E+00
    0.00000E+00         0.00000E+00        -0.35814E+07
 
   -0.35794E+07        -0.90030E+05         0.00000E+00
   -0.90030E+05        -0.14344E+08         0.00000E+00
    0.00000E+00         0.00000E+00        -0.35848E+07
 
   -0.35777E+07        -0.83336E+05         0.00000E+00
   -0.83336E+05        -0.14358E+08         0.00000E+00
    0.00000E+00         0.00000E+00        -0.35872E+07
 
   -0.35729E+07        -0.67526E+05         0.00000E+00
   -0.67526E+05        -0.14372E+08         0.00000E+00
    0.00000E+00         0.00000E+00        -0.35890E+07
 
   -0.35667E+07        -0.43050E+05         0.00000E+00
   -0.43050E+05        -0.14385E+08         0.00000E+00
    0.00000E+00         0.00000E+00        -0.35903E+07
 
   -0.35605E+07        -0.10350E+05         0.00000E+00
   -0.10350E+05        -0.14397E+08         0.00000E+00
    0.00000E+00         0.00000E+00        -0.35914E+07
 
   -0.35555E+07         0.30165E+05         0.00000E+00
    0.30165E+05        -0.14406E+08         0.00000E+00
    0.00000E+00         0.00000E+00        -0.35924E+07
 
   -0.35530E+07         0.78107E+05         0.00000E+00
    0.78107E+05        -0.14414E+08         0.00000E+00
    0.00000E+00         0.00000E+00        -0.35934E+07
 
   -0.35541E+07         0.13308E+06         0.00000E+00
    0.13308E+06        -0.14419E+08         0.00000E+00
    0.00000E+00         0.00000E+00        -0.35945E+07
 
   -0.35600E+07         0.19462E+06         0.00000E+00
    0.19462E+06        -0.14420E+08         0.00000E+00
    0.00000E+00         0.00000E+00        -0.35960E+07
 
   -0.35717E+07         0.26215E+06         0.00000E+00
    0.26215E+06        -0.14418E+08         0.00000E+00
    0.00000E+00         0.00000E+00        -0.35979E+07
 
   -0.35904E+07         0.33491E+06         0.00000E+00
    0.33491E+06        -0.14411E+08         0.00000E+00
    0.00000E+00         0.00000E+00        -0.36003E+07
 
   -0.36631E+07        -0.22674E+05         0.00000E+00
   -0.22674E+05        -0.14415E+08         0.00000E+00
    0.00000E+00         0.00000E+00        -0.36156E+07
 
   -0.36856E+07        -0.59853E+05         0.00000E+00
   -0.59853E+05        -0.14421E+08         0.00000E+00
    0.00000E+00         0.00000E+00        -0.36212E+07
 
   -0.36952E+07        -0.85765E+05         0.00000E+00
   -0.85765E+05        -0.14430E+08         0.00000E+00
    0.00000E+00         0.00000E+00        -0.36251E+07
 
   -0.36951E+07        -0.10042E+06         0.00000E+00
   -0.10042E+06        -0.14443E+08         0.00000E+00
    0.00000E+00         0.00000E+00        -0.36276E+07
 
   -0.36882E+07        -0.10417E+06         0.00000E+00
   -0.10417E+06        -0.14457E+08         0.00000E+00
    0.00000E+00         0.00000E+00        -0.36290E+07
 
   -0.36768E+07        -0.97544E+05         0.00000E+00
   -0.97544E+05        -0.14471E+08         0.00000E+00
    0.00000E+00         0.00000E+00        -0.36296E+07
 
   -0.36629E+07        -0.81156E+05         0.00000E+00
   -0.81156E+05        -0.14485E+08         0.00000E+00
    0.00000E+00         0.00000E+00        -0.36296E+07
 
   -0.36480E+07        -0.55604E+05         0.00000E+00
   -0.55604E+05        -0.14498E+08         0.00000E+00
    0.00000E+00         0.00000E+00        -0.36293E+07
 
   -0.36335E+07        -0.21410E+05         0.00000E+00
   -0.21410E+05        -0.14510E+08         0.00000E+00
    0.00000E+00         0.00000E+00        -0.36288E+07
 
   -0.36208E+07         0.20998E+05         0.00000E+00
    0.20998E+05        -0.14521E+08         0.00000E+00
    0.00000E+00         0.00000E+00        -0.36283E+07
 
   -0.36108E+07         0.71271E+05         0.00000E+00
    0.71271E+05        -0.14529E+08         0.00000E+00
    0.00000E+00         0.00000E+00        -0.36280E+07
 
   -0.36048E+07         0.12908E+06         0.00000E+00
    0.12908E+06        -0.14535E+08         0.00000E+00
    0.00000E+00         0.00000E+00        -0.36280E+07
 
   -0.36041E+07         0.19405E+06         0.00000E+00
    0.19405E+06        -0.14539E+08         0.00000E+00
    0.00000E+00         0.00000E+00        -0.36285E+07
 
   -0.36099E+07         0.26567E+06         0.00000E+00
    0.26567E+06        -0.14538E+08         0.00000E+00
    0.00000E+00         0.00000E+00        -0.36296E+07
 
   -0.36235E+07         0.34318E+06         0.00000E+00
    0.34318E+06        -0.14533E+08         0.00000E+00
    0.00000E+00         0.00000E+00        -0.36313E+07
 
   -0.38256E+07        -0.25931E+05         0.00000E+00
   -0.25931E+05        -0.14532E+08         0.00000E+00
    0.00000E+00         0.00000E+00        -0.36715E+07
 
   -0.38360E+07        -0.68177E+05         0.00000E+00
   -0.68177E+05        -0.14538E+08         0.00000E+00
    0.00000E+00         0.00000E+00        -0.36747E+07
 
   -0.38335E+07        -0.97411E+05         0.00000E+00
   -0.97411E+05        -0.14548E+08         0.00000E+00
    0.00000E+00         0.00000E+00        -0.36763E+07
 
   -0.38217E+07        -0.11394E+06         0.00000E+00
   -0.11394E+06        -0.14561E+08         0.00000E+00
    0.00000E+00         0.00000E+00        -0.36764E+07
 
   -0.38036E+07        -0.11845E+06         0.00000E+00
   -0.11845E+06        -0.14574E+08         0.00000E+00
    0.00000E+00         0.00000E+00        -0.36756E+07
 
   -0.37818E+07        -0.11177E+06         0.00000E+00
   -0.11177E+06        -0.14589E+08         0.00000E+00
    0.00000E+00         0.00000E+00        -0.36741E+07
 
   -0.37582E+07        -0.94785E+05         0.00000E+00
   -0.94785E+05        -0.14602E+08         0.00000E+00
    0.00000E+00         0.00000E+00        -0.36721E+07
 
   -0.37343E+07        -0.68263E+05         0.00000E+00
   -0.68263E+05        -0.14615E+08         0.00000E+00
    0.00000E+00         0.00000E+00        -0.36699E+07
 
   -0.37113E+07        -0.32807E+05         0.00000E+00
   -0.32807E+05        -0.14627E+08         0.00000E+00
    0.00000E+00         0.00000E+00        -0.36677E+07
 
   -0.36903E+07         0.11158E+05         0.00000E+00
    0.11158E+05        -0.14638E+08         0.00000E+00
    0.00000E+00         0.00000E+00        -0.36656E+07
 
   -0.36724E+07         0.63362E+05         0.00000E+00
    0.63362E+05        -0.14647E+08         0.00000E+00
    0.00000E+00         0.00000E+00        -0.36639E+07
 
   -0.36588E+07         0.12361E+06         0.00000E+00
    0.12361E+06        -0.14654E+08         0.00000E+00
    0.00000E+00         0.00000E+00        -0.36627E+07
 
   -0.36508E+07         0.19168E+06         0.00000E+00
    0.19168E+06        -0.14659E+08         0.00000E+00
    0.00000E+00         0.00000E+00        -0.36620E+07
 
   -0.36499E+07         0.26719E+06         0.00000E+00
    0.26719E+06        -0.14661E+08         0.00000E+00
    0.00000E+00         0.00000E+00        -0.36621E+07
 
   -0.36576E+07         0.34946E+06         0.00000E+00
    0.34946E+06        -0.14658E+08         0.00000E+00
    0.00000E+00         0.00000E+00        -0.36631E+07
 
   -0.40004E+07        -0.29351E+05         0.00000E+00
   -0.29351E+05        -0.14655E+08         0.00000E+00
    0.00000E+00         0.00000E+00        -0.37310E+07
 
   -0.39968E+07        -0.76759E+05         0.00000E+00
   -0.76759E+05        -0.14661E+08         0.00000E+00
    0.00000E+00         0.00000E+00        -0.37315E+07
 
   -0.39805E+07        -0.10917E+06         0.00000E+00
   -0.10917E+06        -0.14671E+08         0.00000E+00
    0.00000E+00         0.00000E+00        -0.37303E+07
 
   -0.39556E+07        -0.12730E+06         0.00000E+00
   -0.12730E+06        -0.14684E+08         0.00000E+00
    0.00000E+00         0.00000E+00        -0.37278E+07
 
   -0.39255E+07        -0.13228E+06         0.00000E+00
   -0.13228E+06        -0.14697E+08         0.00000E+00
    0.00000E+00         0.00000E+00        -0.37245E+07
 
   -0.38926E+07        -0.12536E+06         0.00000E+00
   -0.12536E+06        -0.14710E+08         0.00000E+00
    0.00000E+00         0.00000E+00        -0.37205E+07
 
   -0.38590E+07        -0.10774E+06         0.00000E+00
   -0.10774E+06        -0.14723E+08         0.00000E+00
    0.00000E+00         0.00000E+00        -0.37163E+07
 
   -0.38258E+07        -0.80397E+05         0.00000E+00
   -0.80397E+05        -0.14735E+08         0.00000E+00
    0.00000E+00         0.00000E+00        -0.37121E+07
 
   -0.37940E+07        -0.44013E+05         0.00000E+00
   -0.44013E+05        -0.14746E+08         0.00000E+00
    0.00000E+00         0.00000E+00        -0.37080E+07
 
   -0.37646E+07         0.10264E+04         0.00000E+00
    0.10264E+04        -0.14756E+08         0.00000E+00
    0.00000E+00         0.00000E+00        -0.37042E+07
 
   -0.37384E+07         0.54588E+05         0.00000E+00
    0.54588E+05        -0.14766E+08         0.00000E+00
    0.00000E+00         0.00000E+00        -0.37009E+07
 
   -0.37165E+07         0.11669E+06         0.00000E+00
    0.11669E+06        -0.14774E+08         0.00000E+00
    0.00000E+00         0.00000E+00        -0.36982E+07
 
   -0.37004E+07         0.18735E+06         0.00000E+00
    0.18735E+06        -0.14781E+08         0.00000E+00
    0.00000E+00         0.00000E+00        -0.36963E+07
 
   -0.36918E+07         0.26643E+06         0.00000E+00
    0.26643E+06        -0.14785E+08         0.00000E+00
    0.00000E+00         0.00000E+00        -0.36953E+07
 
   -0.36927E+07         0.35340E+06         0.00000E+00
    0.35340E+06        -0.14785E+08         0.00000E+00
    0.00000E+00         0.00000E+00        -0.36955E+07
 
   -0.41878E+07        -0.32887E+05         0.00000E+00
   -0.32887E+05        -0.14784E+08         0.00000E+00
    0.00000E+00         0.00000E+00        -0.37944E+07
 
   -0.41678E+07        -0.85398E+05         0.00000E+00
   -0.85398E+05        -0.14790E+08         0.00000E+00
    0.00000E+00         0.00000E+00        -0.37916E+07
 
   -0.41358E+07        -0.12063E+06         0.00000E+00
   -0.12063E+06        -0.14800E+08         0.00000E+00
    0.00000E+00         0.00000E+00        -0.37872E+07
 
   -0.40965E+07        -0.13989E+06         0.00000E+00
   -0.13989E+06        -0.14812E+08         0.00000E+00
    0.00000E+00         0.00000E+00        -0.37816E+07
 
   -0.40534E+07        -0.14490E+06         0.00000E+00
   -0.14490E+06        -0.14824E+08         0.00000E+00
    0.00000E+00         0.00000E+00        -0.37754E+07
 
   -0.40091E+07        -0.13745E+06         0.00000E+00
   -0.13745E+06        -0.14835E+08         0.00000E+00
    0.00000E+00         0.00000E+00        -0.37688E+07
 
   -0.39653E+07        -0.11916E+06         0.00000E+00
   -0.11916E+06        -0.14845E+08         0.00000E+00
    0.00000E+00         0.00000E+00        -0.37621E+07
 
   -0.39228E+07        -0.91210E+05         0.00000E+00
   -0.91210E+05        -0.14856E+08         0.00000E+00
    0.00000E+00         0.00000E+00        -0.37557E+07
 
   -0.38823E+07        -0.54361E+05         0.00000E+00
   -0.54361E+05        -0.14865E+08         0.00000E+00
    0.00000E+00         0.00000E+00        -0.37495E+07
 
   -0.38443E+07        -0.89144E+04         0.00000E+00
   -0.89144E+04        -0.14875E+08         0.00000E+00
    0.00000E+00         0.00000E+00        -0.37438E+07
 
   -0.38094E+07         0.45204E+05         0.00000E+00
    0.45204E+05        -0.14885E+08         0.00000E+00
    0.00000E+00         0.00000E+00        -0.37388E+07
 
   -0.37787E+07         0.10832E+06         0.00000E+00
    0.10832E+06        -0.14894E+08         0.00000E+00
    0.00000E+00         0.00000E+00        -0.37345E+07
 
   -0.37536E+07         0.18084E+06         0.00000E+00
    0.18084E+06        -0.14902E+08         0.00000E+00
    0.00000E+00         0.00000E+00        -0.37312E+07
 
   -0.37361E+07         0.26297E+06         0.00000E+00
    0.26297E+06        -0.14909E+08         0.00000E+00
    0.00000E+00         0.00000E+00        -0.37290E+07
 
   -0.37288E+07         0.35450E+06         0.00000E+00
    0.35450E+06        -0.14912E+08         0.00000E+00
    0.00000E+00         0.00000E+00        -0.37281E+07
 
   -0.43878E+07        -0.36480E+05         0.00000E+00
   -0.36480E+05        -0.14919E+08         0.00000E+00
    0.00000E+00         0.00000E+00        -0.38615E+07
 
   -0.43487E+07        -0.93821E+05         0.00000E+00
   -0.93821E+05        -0.14925E+08         0.00000E+00
    0.00000E+00         0.00000E+00        -0.38548E+07
 
   -0.42989E+07        -0.13125E+06         0.00000E+00
   -0.13125E+06        -0.14935E+08         0.00000E+00
    0.00000E+00         0.00000E+00        -0.38467E+07
 
   -0.42437E+07        -0.15088E+06         0.00000E+00
   -0.15088E+06        -0.14945E+08         0.00000E+00
    0.00000E+00         0.00000E+00        -0.38377E+07
 
   -0.41870E+07        -0.15528E+06         0.00000E+00
   -0.15528E+06        -0.14954E+08         0.00000E+00
    0.00000E+00         0.00000E+00        -0.38282E+07
 
   -0.41311E+07        -0.14695E+06         0.00000E+00
   -0.14695E+06        -0.14962E+08         0.00000E+00
    0.00000E+00         0.00000E+00        -0.38187E+07
 
   -0.40772E+07        -0.12796E+06         0.00000E+00
   -0.12796E+06        -0.14970E+08         0.00000E+00
    0.00000E+00         0.00000E+00        -0.38094E+07
 
   -0.40258E+07        -0.99726E+05         0.00000E+00
   -0.99726E+05        -0.14977E+08         0.00000E+00
    0.00000E+00         0.00000E+00        -0.38005E+07
 
   -0.39768E+07        -0.63043E+05         0.00000E+00
   -0.63043E+05        -0.14984E+08         0.00000E+00
    0.00000E+00         0.00000E+00        -0.37921E+07
 
   -0.39303E+07        -0.18080E+05         0.00000E+00
   -0.18080E+05        -0.14992E+08         0.00000E+00
    0.00000E+00         0.00000E+00        -0.37844E+07
 
   -0.38865E+07         0.35523E+05         0.00000E+00
    0.35523E+05        -0.15001E+08         0.00000E+00
    0.00000E+00         0.00000E+00        -0.37775E+07
 
   -0.38462E+07         0.98516E+05         0.00000E+00
    0.98516E+05        -0.15011E+08         0.00000E+00
    0.00000E+00         0.00000E+00        -0.37715E+07
 
   -0.38110E+07         0.17183E+06         0.00000E+00
    0.17183E+06        -0.15022E+08         0.00000E+00
    0.00000E+00         0.00000E+00        -0.37665E+07
 
   -0.37830E+07         0.25625E+06         0.00000E+00
    0.25625E+06        -0.15031E+08         0.00000E+00
    0.00000E+00         0.00000E+00        -0.37629E+07
 
   -0.37657E+07         0.35203E+06         0.00000E+00
    0.35203E+06        -0.15038E+08         0.00000E+00
    0.00000E+00         0.00000E+00        -0.37607E+07
 
   -0.46004E+07        -0.40055E+05         0.00000E+00
   -0.40055E+05        -0.15061E+08         0.00000E+00
    0.00000E+00         0.00000E+00        -0.39323E+07
 
   -0.45389E+07        -0.10165E+06         0.00000E+00
   -0.10165E+06        -0.15067E+08         0.00000E+00
    0.00000E+00         0.00000E+00        -0.39211E+07
 
   -0.44689E+07        -0.14025E+06         0.00000E+00
   -0.14025E+06        -0.15074E+08         0.00000E+00
    0.00000E+00         0.00000E+00        -0.39087E+07
 
   -0.43966E+07        -0.15915E+06         0.00000E+00
   -0.15915E+06        -0.15082E+08         0.00000E+00
    0.00000E+00         0.00000E+00        -0.38956E+07
 
   -0.43258E+07        -0.16211E+06         0.00000E+00
   -0.16211E+06        -0.15087E+08         0.00000E+00
    0.00000E+00         0.00000E+00        -0.38826E+07
 
   -0.42585E+07        -0.15250E+06         0.00000E+00
   -0.15250E+06        -0.15091E+08         0.00000E+00
    0.00000E+00         0.00000E+00        -0.38698E+07
 
   -0.41951E+07        -0.13285E+06         0.00000E+00
   -0.13285E+06        -0.15093E+08         0.00000E+00
    0.00000E+00         0.00000E+00        -0.38577E+07
 
   -0.41353E+07        -0.10481E+06         0.00000E+00
   -0.10481E+06        -0.15096E+08         0.00000E+00
    0.00000E+00         0.00000E+00        -0.38463E+07
 
   -0.40783E+07        -0.69129E+05         0.00000E+00
   -0.69129E+05        -0.15100E+08         0.00000E+00
    0.00000E+00         0.00000E+00        -0.38356E+07
 
   -0.40237E+07        -0.25789E+05         0.00000E+00
   -0.25789E+05        -0.15105E+08         0.00000E+00
    0.00000E+00         0.00000E+00        -0.38258E+07
 
   -0.39709E+07         0.25914E+05         0.00000E+00
    0.25914E+05        -0.15113E+08         0.00000E+00
    0.00000E+00         0.00000E+00        -0.38169E+07
 
   -0.39205E+07         0.87262E+05         0.00000E+00
    0.87262E+05        -0.15124E+08         0.00000E+00
    0.00000E+00         0.00000E+00        -0.38089E+07
 
   -0.38738E+07         0.15991E+06         0.00000E+00
    0.15991E+06        -0.15137E+08         0.00000E+00
    0.00000E+00         0.00000E+00        -0.38022E+07
 
   -0.38334E+07         0.24548E+06         0.00000E+00
    0.24548E+06        -0.15150E+08         0.00000E+00
    0.00000E+00         0.00000E+00        -0.37968E+07
 
   -0.38035E+07         0.34500E+06         0.00000E+00
    0.34500E+06        -0.15162E+08         0.00000E+00
    0.00000E+00         0.00000E+00        -0.37931E+07
 
   -0.48251E+07        -0.43518E+05         0.00000E+00
   -0.43518E+05        -0.15209E+08         0.00000E+00
    0.00000E+00         0.00000E+00        -0.40068E+07
 
   -0.47373E+07        -0.10835E+06         0.00000E+00
   -0.10835E+06        -0.15214E+08         0.00000E+00
    0.00000E+00         0.00000E+00        -0.39902E+07
 
   -0.46444E+07        -0.14650E+06         0.00000E+00
   -0.14650E+06        -0.15219E+08         0.00000E+00
    0.00000E+00         0.00000E+00        -0.39727E+07
 
   -0.45538E+07        -0.16316E+06         0.00000E+00
   -0.16316E+06        -0.15222E+08         0.00000E+00
    0.00000E+00         0.00000E+00        -0.39551E+07
 
   -0.44690E+07        -0.16370E+06         0.00000E+00
   -0.16370E+06        -0.15221E+08         0.00000E+00
    0.00000E+00         0.00000E+00        -0.39381E+07
 
   -0.43911E+07        -0.15246E+06         0.00000E+00
   -0.15246E+06        -0.15219E+08         0.00000E+00
    0.00000E+00         0.00000E+00        -0.39220E+07
 
   -0.43192E+07        -0.13241E+06         0.00000E+00
   -0.13241E+06        -0.15215E+08         0.00000E+00
    0.00000E+00         0.00000E+00        -0.39069E+07
 
   -0.42521E+07        -0.10525E+06         0.00000E+00
   -0.10525E+06        -0.15212E+08         0.00000E+00
    0.00000E+00         0.00000E+00        -0.38929E+07
 
   -0.41881E+07        -0.71622E+05         0.00000E+00
   -0.71622E+05        -0.15211E+08         0.00000E+00
    0.00000E+00         0.00000E+00        -0.38799E+07
 
   -0.41259E+07        -0.31288E+05         0.00000E+00
   -0.31288E+05        -0.15213E+08         0.00000E+00
    0.00000E+00         0.00000E+00        -0.38679E+07
 
   -0.40644E+07         0.16819E+05         0.00000E+00
    0.16819E+05        -0.15220E+08         0.00000E+00
    0.00000E+00         0.00000E+00        -0.38569E+07
 
   -0.40033E+07         0.74574E+05         0.00000E+00
    0.74574E+05        -0.15231E+08         0.00000E+00
    0.00000E+00         0.00000E+00        -0.38468E+07
 
   -0.39437E+07         0.14455E+06         0.00000E+00
    0.14455E+06        -0.15246E+08         0.00000E+00
    0.00000E+00         0.00000E+00        -0.38380E+07
 
   -0.38884E+07         0.22959E+06         0.00000E+00
    0.22959E+06        -0.15265E+08         0.00000E+00
    0.00000E+00         0.00000E+00        -0.38306E+07
 
   -0.38425E+07         0.33200E+06         0.00000E+00
    0.33200E+06        -0.15282E+08         0.00000E+00
    0.00000E+00         0.00000E+00        -0.38250E+07
 
   -0.50614E+07        -0.46734E+05         0.00000E+00
   -0.46734E+05        -0.15363E+08         0.00000E+00
    0.00000E+00         0.00000E+00        -0.40849E+07
 
   -0.49420E+07        -0.11303E+06         0.00000E+00
   -0.11303E+06        -0.15367E+08         0.00000E+00
    0.00000E+00         0.00000E+00        -0.40617E+07
 
   -0.48236E+07        -0.14829E+06         0.00000E+00
   -0.14829E+06        -0.15368E+08         0.00000E+00
    0.00000E+00         0.00000E+00        -0.40382E+07
 
   -0.47141E+07        -0.16077E+06         0.00000E+00
   -0.16077E+06        -0.15364E+08         0.00000E+00
    0.00000E+00         0.00000E+00        -0.40155E+07
 
   -0.46162E+07        -0.15794E+06         0.00000E+00
   -0.15794E+06        -0.15355E+08         0.00000E+00
    0.00000E+00         0.00000E+00        -0.39942E+07
 
   -0.45290E+07        -0.14505E+06         0.00000E+00
   -0.14505E+06        -0.15344E+08         0.00000E+00
    0.00000E+00         0.00000E+00        -0.39746E+07
 
   -0.44502E+07        -0.12519E+06         0.00000E+00
   -0.12519E+06        -0.15333E+08         0.00000E+00
    0.00000E+00         0.00000E+00        -0.39565E+07
 
   -0.43772E+07        -0.99889E+05         0.00000E+00
   -0.99889E+05        -0.15323E+08         0.00000E+00
    0.00000E+00         0.00000E+00        -0.39400E+07
 
   -0.43074E+07        -0.69578E+05         0.00000E+00
   -0.69578E+05        -0.15316E+08         0.00000E+00
    0.00000E+00         0.00000E+00        -0.39247E+07
 
   -0.42386E+07        -0.33802E+05         0.00000E+00
   -0.33802E+05        -0.15314E+08         0.00000E+00
    0.00000E+00         0.00000E+00        -0.39106E+07
 
   -0.41689E+07         0.87805E+04         0.00000E+00
    0.87805E+04        -0.15318E+08         0.00000E+00
    0.00000E+00         0.00000E+00        -0.38974E+07
 
   -0.40969E+07         0.60570E+05         0.00000E+00
    0.60570E+05        -0.15329E+08         0.00000E+00
    0.00000E+00         0.00000E+00        -0.38852E+07
 
   -0.40229E+07         0.12518E+06         0.00000E+00
    0.12518E+06        -0.15347E+08         0.00000E+00
    0.00000E+00         0.00000E+00        -0.38740E+07
 
   -0.39496E+07         0.20722E+06         0.00000E+00
    0.20722E+06        -0.15371E+08         0.00000E+00
    0.00000E+00         0.00000E+00        -0.38642E+07
 
   -0.38831E+07         0.31108E+06         0.00000E+00
    0.31108E+06        -0.15398E+08         0.00000E+00
    0.00000E+00         0.00000E+00        -0.38561E+07
 
   -0.53078E+07        -0.49471E+05         0.00000E+00
   -0.49471E+05        -0.15523E+08         0.00000E+00
    0.00000E+00         0.00000E+00        -0.41662E+07
 
   -0.51501E+07        -0.11409E+06         0.00000E+00
   -0.11409E+06        -0.15524E+08         0.00000E+00
    0.00000E+00         0.00000E+00        -0.41348E+07
 
   -0.50036E+07        -0.14284E+06         0.00000E+00
   -0.14284E+06        -0.15518E+08         0.00000E+00
    0.00000E+00         0.00000E+00        -0.41043E+07
 
   -0.48761E+07        -0.14903E+06         0.00000E+00
   -0.14903E+06        -0.15504E+08         0.00000E+00
    0.00000E+00         0.00000E+00        -0.40760E+07
 
   -0.47672E+07        -0.14247E+06         0.00000E+00
   -0.14247E+06        -0.15484E+08         0.00000E+00
    0.00000E+00         0.00000E+00        -0.40503E+07
 
   -0.46730E+07        -0.12860E+06         0.00000E+00
   -0.12860E+06        -0.15463E+08         0.00000E+00
    0.00000E+00         0.00000E+00        -0.40271E+07
 
   -0.45892E+07        -0.11006E+06         0.00000E+00
   -0.11006E+06        -0.15442E+08         0.00000E+00
    0.00000E+00         0.00000E+00        -0.40063E+07
 
   -0.45119E+07        -0.87905E+05         0.00000E+00
   -0.87905E+05        -0.15425E+08         0.00000E+00
    0.00000E+00         0.00000E+00        -0.39874E+07
 
   -0.44377E+07        -0.62299E+05         0.00000E+00
   -0.62299E+05        -0.15412E+08         0.00000E+00
    0.00000E+00         0.00000E+00        -0.39700E+07
 
   -0.43636E+07        -0.32646E+05         0.00000E+00
   -0.32646E+05        -0.15406E+08         0.00000E+00
    0.00000E+00         0.00000E+00        -0.39538E+07
 
   -0.42866E+07         0.24688E+04         0.00000E+00
    0.24688E+04        -0.15407E+08         0.00000E+00
    0.00000E+00         0.00000E+00        -0.39387E+07
 
   -0.42042E+07         0.45638E+05         0.00000E+00
    0.45638E+05        -0.15417E+08         0.00000E+00
    0.00000E+00         0.00000E+00        -0.39242E+07
 
   -0.41147E+07         0.10138E+06         0.00000E+00
    0.10138E+06        -0.15437E+08         0.00000E+00
    0.00000E+00         0.00000E+00        -0.39104E+07
 
   -0.40197E+07         0.17661E+06         0.00000E+00
    0.17661E+06        -0.15468E+08         0.00000E+00
    0.00000E+00         0.00000E+00        -0.38976E+07
 
   -0.39262E+07         0.27939E+06         0.00000E+00
    0.27939E+06        -0.15505E+08         0.00000E+00
    0.00000E+00         0.00000E+00        -0.38863E+07
 
   -0.55615E+07        -0.51156E+05         0.00000E+00
   -0.51156E+05        -0.15690E+08         0.00000E+00
    0.00000E+00         0.00000E+00        -0.42502E+07
 
   -0.53568E+07        -0.10813E+06         0.00000E+00
   -0.10813E+06        -0.15684E+08         0.00000E+00
    0.00000E+00         0.00000E+00        -0.42083E+07
 
   -0.51815E+07        -0.12548E+06         0.00000E+00
   -0.12548E+06        -0.15665E+08         0.00000E+00
    0.00000E+00         0.00000E+00        -0.41694E+07
 
   -0.50394E+07        -0.12433E+06         0.00000E+00
   -0.12433E+06        -0.15636E+08         0.00000E+00
    0.00000E+00         0.00000E+00        -0.41351E+07
 
   -0.49229E+07        -0.11521E+06         0.00000E+00
   -0.11521E+06        -0.15603E+08         0.00000E+00
    0.00000E+00         0.00000E+00        -0.41052E+07
 
   -0.48243E+07        -0.10212E+06         0.00000E+00
   -0.10212E+06        -0.15571E+08         0.00000E+00
    0.00000E+00         0.00000E+00        -0.40790E+07
 
   -0.47375E+07        -0.86587E+05         0.00000E+00
   -0.86587E+05        -0.15541E+08         0.00000E+00
    0.00000E+00         0.00000E+00        -0.40557E+07
 
   -0.46575E+07        -0.69116E+05         0.00000E+00
   -0.69116E+05        -0.15516E+08         0.00000E+00
    0.00000E+00         0.00000E+00        -0.40348E+07
 
   -0.45804E+07        -0.49596E+05         0.00000E+00
   -0.49596E+05        -0.15498E+08         0.00000E+00
    0.00000E+00         0.00000E+00        -0.40156E+07
 
   -0.45024E+07        -0.27433E+05         0.00000E+00
   -0.27433E+05        -0.15487E+08         0.00000E+00
    0.00000E+00         0.00000E+00        -0.39978E+07
 
   -0.44197E+07        -0.14148E+04         0.00000E+00
   -0.14148E+04        -0.15484E+08         0.00000E+00
    0.00000E+00         0.00000E+00        -0.39808E+07
 
   -0.43283E+07         0.30724E+05         0.00000E+00
    0.30724E+05        -0.15493E+08         0.00000E+00
    0.00000E+00         0.00000E+00        -0.39642E+07
 
   -0.42236E+07         0.73379E+05         0.00000E+00
    0.73379E+05        -0.15514E+08         0.00000E+00
    0.00000E+00         0.00000E+00        -0.39476E+07
 
   -0.41034E+07         0.13586E+06         0.00000E+00
    0.13586E+06        -0.15552E+08         0.00000E+00
    0.00000E+00         0.00000E+00        -0.39312E+07
 
   -0.39737E+07         0.23273E+06         0.00000E+00
    0.23273E+06        -0.15604E+08         0.00000E+00
    0.00000E+00         0.00000E+00        -0.39156E+07
 
   -0.58165E+07        -0.49696E+05         0.00000E+00
   -0.49696E+05        -0.15861E+08         0.00000E+00
    0.00000E+00         0.00000E+00        -0.43354E+07
 
   -0.55544E+07        -0.86926E+05         0.00000E+00
   -0.86926E+05        -0.15840E+08         0.00000E+00
    0.00000E+00         0.00000E+00        -0.42789E+07
 
   -0.53560E+07        -0.89629E+05         0.00000E+00
   -0.89629E+05        -0.15799E+08         0.00000E+00
    0.00000E+00         0.00000E+00        -0.42309E+07
 
   -0.52058E+07        -0.84061E+05         0.00000E+00
   -0.84061E+05        -0.15751E+08         0.00000E+00
    0.00000E+00         0.00000E+00        -0.41914E+07
 
   -0.50857E+07        -0.75693E+05         0.00000E+00
   -0.75693E+05        -0.15705E+08         0.00000E+00
    0.00000E+00         0.00000E+00        -0.41581E+07
 
   -0.49852E+07        -0.66037E+05         0.00000E+00
   -0.66037E+05        -0.15662E+08         0.00000E+00
    0.00000E+00         0.00000E+00        -0.41295E+07
 
   -0.48969E+07        -0.55555E+05         0.00000E+00
   -0.55555E+05        -0.15625E+08         0.00000E+00
    0.00000E+00         0.00000E+00        -0.41044E+07
 
   -0.48156E+07        -0.44290E+05         0.00000E+00
   -0.44290E+05        -0.15595E+08         0.00000E+00
    0.00000E+00         0.00000E+00        -0.40820E+07
 
   -0.47367E+07        -0.32041E+05         0.00000E+00
   -0.32041E+05        -0.15571E+08         0.00000E+00
    0.00000E+00         0.00000E+00        -0.40616E+07
 
   -0.46562E+07        -0.18367E+05         0.00000E+00
   -0.18367E+05        -0.15556E+08         0.00000E+00
    0.00000E+00         0.00000E+00        -0.40425E+07
 
   -0.45697E+07        -0.24763E+04         0.00000E+00
   -0.24763E+04        -0.15551E+08         0.00000E+00
    0.00000E+00         0.00000E+00        -0.40241E+07
 
   -0.44719E+07         0.17102E+05         0.00000E+00
    0.17102E+05        -0.15557E+08         0.00000E+00
    0.00000E+00         0.00000E+00        -0.40057E+07
 
   -0.43554E+07         0.43382E+05         0.00000E+00
    0.43382E+05        -0.15578E+08         0.00000E+00
    0.00000E+00         0.00000E+00        -0.39866E+07
 
   -0.42089E+07         0.83972E+05         0.00000E+00
    0.83972E+05        -0.15620E+08         0.00000E+00
    0.00000E+00         0.00000E+00        -0.39657E+07
 
   -0.40301E+07         0.16402E+06         0.00000E+00
    0.16402E+06        -0.15691E+08         0.00000E+00
    0.00000E+00         0.00000E+00        -0.39442E+07
 
   -0.60552E+07        -0.31239E+05         0.00000E+00
   -0.31239E+05        -0.16019E+08         0.00000E+00
    0.00000E+00         0.00000E+00        -0.44149E+07
 
   -0.57378E+07        -0.35886E+05         0.00000E+00
   -0.35886E+05        -0.15962E+08         0.00000E+00
    0.00000E+00         0.00000E+00        -0.43400E+07
 
   -0.55325E+07        -0.33099E+05         0.00000E+00
   -0.33099E+05        -0.15898E+08         0.00000E+00
    0.00000E+00         0.00000E+00        -0.42860E+07
 
   -0.53799E+07        -0.29930E+05         0.00000E+00
   -0.29930E+05        -0.15837E+08         0.00000E+00
    0.00000E+00         0.00000E+00        -0.42433E+07
 
   -0.52589E+07        -0.26475E+05         0.00000E+00
   -0.26475E+05        -0.15781E+08         0.00000E+00
    0.00000E+00         0.00000E+00        -0.42080E+07
 
   -0.51578E+07        -0.22886E+05         0.00000E+00
   -0.22886E+05        -0.15733E+08         0.00000E+00
    0.00000E+00         0.00000E+00        -0.41781E+07
 
   -0.50690E+07        -0.19165E+05         0.00000E+00
   -0.19165E+05        -0.15691E+08         0.00000E+00
    0.00000E+00         0.00000E+00        -0.41521E+07
 
   -0.49871E+07        -0.15265E+05         0.00000E+00
   -0.15265E+05        -0.15657E+08         0.00000E+00
    0.00000E+00         0.00000E+00        -0.41289E+07
 
   -0.49075E+07        -0.11087E+05         0.00000E+00
   -0.11087E+05        -0.15631E+08         0.00000E+00
    0.00000E+00         0.00000E+00        -0.41078E+07
 
   -0.48259E+07        -0.64705E+04         0.00000E+00
   -0.64705E+04        -0.15614E+08         0.00000E+00
    0.00000E+00         0.00000E+00        -0.40880E+07
 
   -0.47375E+07        -0.11425E+04         0.00000E+00
   -0.11425E+04        -0.15607E+08         0.00000E+00
    0.00000E+00         0.00000E+00        -0.40688E+07
 
   -0.46364E+07         0.53858E+04         0.00000E+00
    0.53858E+04        -0.15611E+08         0.00000E+00
    0.00000E+00         0.00000E+00        -0.40495E+07
 
   -0.45135E+07         0.14173E+05         0.00000E+00
    0.14173E+05        -0.15631E+08         0.00000E+00
    0.00000E+00         0.00000E+00        -0.40288E+07
 
   -0.43527E+07         0.27619E+05         0.00000E+00
    0.27619E+05        -0.15673E+08         0.00000E+00
    0.00000E+00         0.00000E+00        -0.40050E+07
 
   -0.41066E+07         0.61508E+05         0.00000E+00
    0.61508E+05        -0.15756E+08         0.00000E+00
    0.00000E+00         0.00000E+00        -0.39726E+07
 
TENSORS stresstot double 
   -0.49030E+08        -0.52978E+02         0.00000E+00
   -0.52978E+02        -0.60000E+08         0.00000E+00
    0.00000E+00         0.00000E+00        -0.49786E+08
 
   -0.49112E+08        -0.11869E+03         0.00000E+00
   -0.11869E+03        -0.60000E+08         0.00000E+00
    0.00000E+00         0.00000E+00        -0.49803E+08
 
   -0.49190E+08        -0.10108E+03         0.00000E+00
   -0.10108E+03        -0.60001E+08         0.00000E+00
    0.00000E+00         0.00000E+00        -0.49818E+08
 
   -0.49263E+08         0.29891E+02         0.00000E+00
    0.29891E+02        -0.60001E+08         0.00000E+00
    0.00000E+00         0.00000E+00        -0.49833E+08
 
   -0.49332E+08         0.29812E+03         0.00000E+00
    0.29812E+03        -0.60000E+08         0.00000E+00
    0.00000E+00         0.00000E+00        -0.49847E+08
 
   -0.49398E+08         0.72169E+03         0.00000E+00
    0.72169E+03        -0.59999E+08         0.00000E+00
    0.00000E+00         0.00000E+00        -0.49860E+08
 
   -0.49460E+08         0.13133E+04         0.00000E+00
    0.13133E+04        -0.59997E+08         0.00000E+00
    0.00000E+00         0.00000E+00        -0.49872E+08
 
   -0.49521E+08         0.20805E+04         0.00000E+00
    0.20805E+04        -0.59994E+08         0.00000E+00
    0.00000E+00         0.00000E+00        -0.49883E+08
 
   -0.49579E+08         0.30269E+04         0.00000E+00
    0.30269E+04        -0.59989E+08         0.00000E+00
    0.00000E+00         0.00000E+00        -0.49894E+08
 
   -0.49636E+08         0.41520E+04         0.00000E+00
    0.41520E+04        -0.59982E+08         0.00000E+00
    0.00000E+00         0.00000E+00        -0.49904E+08
 
   -0.49692E+08         0.54523E+04         0.00000E+00
    0.54523E+04        -0.59972E+08         0.00000E+00
    0.00000E+00         0.00000E+00        -0.49913E+08
 
   -0.49748E+08         0.69220E+04         0.00000E+00
    0.69220E+04        -0.59960E+08         0.00000E+00
    0.00000E+00         0.00000E+00        -0.49922E+08
 
   -0.49804E+08         0.85536E+04         0.00000E+00
    0.85536E+04        -0.59944E+08         0.00000E+00
    0.00000E+00         0.00000E+00        -0.49930E+08
 
   -0.49861E+08         0.10338E+05         0.00000E+00
    0.10338E+05        -0.59925E+08         0.00000E+00
    0.00000E+00         0.00000E+00        -0.49938E+08
 
   -0.49919E+08         0.12268E+05         0.00000E+00
    0.12268E+05        -0.59903E+08         0.00000E+00
    0.00000E+00         0.00000E+00        -0.49945E+08
 
   -0.49030E+08        -0.16910E+03         0.00000E+00
   -0.16910E+03        -0.60000E+08         0.00000E+00
    0.00000E+00         0.00000E+00        -0.49783E+08
 
   -0.49112E+08        -0.38422E+03         0.00000E+00
   -0.38422E+03        -0.60000E+08         0.00000E+00
    0.00000E+00         0.00000E+00        -0.49799E+08
 
   -0.49189E+08        -0.34620E+03         0.00000E+00
   -0.34620E+03        -0.60001E+08         0.00000E+00
    0.00000E+00         0.00000E+00        -0.49815E+08
 
   -0.49262E+08         0.34984E+02         0.00000E+00
    0.34984E+02        -0.60001E+08         0.00000E+00
    0.00000E+00         0.00000E+00        -0.49829E+08
 
   -0.49331E+08         0.83086E+03         0.00000E+00
    0.83086E+03        -0.60001E+08         0.00000E+00
    0.00000E+00         0.00000E+00        -0.49843E+08
 
   -0.49397E+08         0.20954E+04         0.00000E+00
    0.20954E+04        -0.60000E+08         0.00000E+00
    0.00000E+00         0.00000E+00        -0.49856E+08
 
   -0.49459E+08         0.38663E+04         0.00000E+00
    0.38663E+04        -0.59998E+08         0.00000E+00
    0.00000E+00         0.00000E+00        -0.49868E+08
 
   -0.49519E+08         0.61664E+04         0.00000E+00
    0.61664E+04        -0.59995E+08         0.00000E+00
    0.00000E+00         0.00000E+00        -0.49880E+08
 
   -0.49577E+08         0.90055E+04         0.00000E+00
    0.90055E+04        -0.59990E+08         0.00000E+00
    0.00000E+00         0.00000E+00        -0.49890E+08
 
   -0.49633E+08         0.12382E+05         0.00000E+00
    0.12382E+05        -0.59983E+08         0.00000E+00
    0.00000E+00         0.00000E+00        -0.49900E+08
 
   -0.49689E+08         0.16285E+05         0.00000E+00
    0.16285E+05        -0.59973E+08         0.00000E+00
    0.00000E+00         0.00000E+00        -0.49909E+08
 
   -0.49745E+08         0.20698E+05         0.00000E+00
    0.20698E+05        -0.59961E+08         0.00000E+00
    0.00000E+00         0.00000E+00        -0.49918E+08
 
   -0.49801E+08         0.25595E+05         0.00000E+00
    0.25595E+05        -0.59946E+08         0.00000E+00
    0.00000E+00         0.00000E+00        -0.49926E+08
 
   -0.49857E+08         0.30953E+05         0.00000E+00
    0.30953E+05        -0.59927E+08         0.00000E+00
    0.00000E+00         0.00000E+00        -0.49934E+08
 
   -0.49915E+08         0.36744E+05         0.00000E+00
    0.36744E+05        -0.59905E+08         0.00000E+00
    0.00000E+00         0.00000E+00        -0.49941E+08
 
   -0.49030E+08        -0.31578E+03         0.00000E+00
   -0.31578E+03        -0.60000E+08         0.00000E+00
    0.00000E+00         0.00000E+00        -0.49775E+08
 
   -0.49112E+08        -0.73428E+03         0.00000E+00
   -0.73428E+03        -0.60000E+08         0.00000E+00
    0.00000E+00         0.00000E+00        -0.49792E+08
 
   -0.49189E+08        -0.72023E+03         0.00000E+00
   -0.72023E+03        -0.60001E+08         0.00000E+00
    0.00000E+00         0.00000E+00        -0.49807E+08
 
   -0.49262E+08        -0.12394E+03         0.00000E+00
   -0.12394E+03        -0.60001E+08         0.00000E+00
    0.00000E+00         0.00000E+00        -0.49822E+08
 
   -0.49330E+08         0.11732E+04         0.00000E+00
    0.11732E+04        -0.60001E+08         0.00000E+00
    0.00000E+00         0.00000E+00        -0.49836E+08
 
   -0.49395E+08         0.32603E+04         0.00000E+00
    0.32603E+04        -0.60001E+08         0.00000E+00
    0.00000E+00         0.00000E+00        -0.49849E+08
 
   -0.49456E+08         0.61992E+04         0.00000E+00
    0.61992E+04        -0.59999E+08         0.00000E+00
    0.00000E+00         0.00000E+00        -0.49861E+08
 
   -0.49515E+08         0.10027E+05         0.00000E+00
    0.10027E+05        -0.59996E+08         0.00000E+00
    0.00000E+00         0.00000E+00        -0.49872E+08
 
   -0.49573E+08         0.14759E+05         0.00000E+00
    0.14759E+05        -0.59992E+08         0.00000E+00
    0.00000E+00         0.00000E+00        -0.49882E+08
 
   -0.49629E+08         0.20391E+05         0.00000E+00
    0.20391E+05        -0.59985E+08         0.00000E+00
    0.00000E+00         0.00000E+00        -0.49892E+08
 
   -0.49684E+08         0.26904E+05         0.00000E+00
    0.26904E+05        -0.59976E+08         0.00000E+00
    0.00000E+00         0.00000E+00        -0.49902E+08
 
   -0.49739E+08         0.34268E+05         0.00000E+00
    0.34268E+05        -0.59964E+08         0.00000E+00
    0.00000E+00         0.00000E+00        -0.49910E+08
 
   -0.49794E+08         0.42441E+05         0.00000E+00
    0.42441E+05        -0.59949E+08         0.00000E+00
    0.00000E+00         0.00000E+00        -0.49918E+08
 
   -0.49850E+08         0.51381E+05         0.00000E+00
    0.51381E+05        -0.59930E+08         0.00000E+00
    0.00000E+00         0.00000E+00        -0.49926E+08
 
   -0.49907E+08         0.61041E+05         0.00000E+00
    0.61041E+05        -0.59908E+08         0.00000E+00
    0.00000E+00         0.00000E+00        -0.49933E+08
 
   -0.49031E+08        -0.51349E+03         0.00000E+00
   -0.51349E+03        -0.60000E+08         0.00000E+00
    0.00000E+00         0.00000E+00        -0.49765E+08
 
   -0.49112E+08        -0.12254E+04         0.00000E+00
   -0.12254E+04        -0.60001E+08         0.00000E+00
    0.00000E+00         0.00000E+00        -0.49781E+08
 
   -0.49189E+08        -0.13092E+04         0.00000E+00
   -0.13092E+04        -0.60001E+08         0.00000E+00
    0.00000E+00         0.00000E+00        -0.49796E+08
 
   -0.49261E+08        -0.55604E+03         0.00000E+00
   -0.55604E+03        -0.60002E+08         0.00000E+00
    0.00000E+00         0.00000E+00        -0.49811E+08
 
   -0.49328E+08         0.11987E+04         0.00000E+00
    0.11987E+04        -0.60002E+08         0.00000E+00
    0.00000E+00         0.00000E+00        -0.49824E+08
 
   -0.49392E+08         0.40779E+04         0.00000E+00
    0.40779E+04        -0.60002E+08         0.00000E+00
    0.00000E+00         0.00000E+00        -0.49837E+08
 
   -0.49452E+08         0.81662E+04         0.00000E+00
    0.81662E+04        -0.60001E+08         0.00000E+00
    0.00000E+00         0.00000E+00        -0.49849E+08
 
   -0.49510E+08         0.13513E+05         0.00000E+00
    0.13513E+05        -0.59998E+08         0.00000E+00
    0.00000E+00         0.00000E+00        -0.49860E+08
 
   -0.49566E+08         0.20137E+05         0.00000E+00
    0.20137E+05        -0.59994E+08         0.00000E+00
    0.00000E+00         0.00000E+00        -0.49871E+08
 
   -0.49621E+08         0.28032E+05         0.00000E+00
    0.28032E+05        -0.59988E+08         0.00000E+00
    0.00000E+00         0.00000E+00        -0.49880E+08
 
   -0.49675E+08         0.37167E+05         0.00000E+00
    0.37167E+05        -0.59979E+08         0.00000E+00
    0.00000E+00         0.00000E+00        -0.49890E+08
 
   -0.49729E+08         0.47497E+05         0.00000E+00
    0.47497E+05        -0.59968E+08         0.00000E+00
    0.00000E+00         0.00000E+00        -0.49898E+08
 
   -0.49784E+08         0.58962E+05         0.00000E+00
    0.58962E+05        -0.59953E+08         0.00000E+00
    0.00000E+00         0.00000E+00        -0.49906E+08
 
   -0.49839E+08         0.71499E+05         0.00000E+00
    0.71499E+05        -0.59935E+08         0.00000E+00
    0.00000E+00         0.00000E+00        -0.49913E+08
 
   -0.49895E+08         0.85040E+05         0.00000E+00
    0.85040E+05        -0.59913E+08         0.00000E+00
    0.00000E+00         0.00000E+00        -0.49920E+08
 
   -0.49032E+08        -0.78286E+03         0.00000E+00
   -0.78286E+03        -0.60000E+08         0.00000E+00
    0.00000E+00         0.00000E+00        -0.49750E+08
 
   -0.49113E+08        -0.19142E+04         0.00000E+00
   -0.19142E+04        -0.60001E+08         0.00000E+00
    0.00000E+00         0.00000E+00        -0.49766E+08
 
   -0.49189E+08        -0.21989E+04         0.00000E+00
   -0.21989E+04        -0.60002E+08         0.00000E+00
    0.00000E+00         0.00000E+00        -0.49782E+08
 
   -0.49259E+08        -0.13700E+04         0.00000E+00
   -0.13700E+04        -0.60003E+08         0.00000E+00
    0.00000E+00         0.00000E+00        -0.49796E+08
 
   -0.49325E+08         0.78166E+03         0.00000E+00
    0.78166E+03        -0.60004E+08         0.00000E+00
    0.00000E+00         0.00000E+00        -0.49810E+08
 
   -0.49388E+08         0.44110E+04         0.00000E+00
    0.44110E+04        -0.60004E+08         0.00000E+00
    0.00000E+00         0.00000E+00        -0.49822E+08
 
   -0.49447E+08         0.96230E+04         0.00000E+00
    0.96230E+04        -0.60003E+08         0.00000E+00
    0.00000E+00         0.00000E+00        -0.49834E+08
 
   -0.49504E+08         0.16477E+05         0.00000E+00
    0.16477E+05        -0.60002E+08         0.00000E+00
    0.00000E+00         0.00000E+00        -0.49845E+08
 
   -0.49558E+08         0.24995E+05         0.00000E+00
    0.24995E+05        -0.59998E+08         0.00000E+00
    0.00000E+00         0.00000E+00        -0.49855E+08
 
   -0.49612E+08         0.35161E+05         0.00000E+00
    0.35161E+05        -0.59992E+08         0.00000E+00
    0.00000E+00         0.00000E+00        -0.49865E+08
 
   -0.49664E+08         0.46935E+05         0.00000E+00
    0.46935E+05        -0.59984E+08         0.00000E+00
    0.00000E+00         0.00000E+00        -0.49874E+08
 
   -0.49717E+08         0.60252E+05         0.00000E+00
    0.60252E+05        -0.59973E+08         0.00000E+00
    0.00000E+00         0.00000E+00        -0.49882E+08
 
   -0.49770E+08         0.75032E+05         0.00000E+00
    0.75032E+05        -0.59959E+08         0.00000E+00
    0.00000E+00         0.00000E+00        -0.49890E+08
 
   -0.49824E+08         0.91188E+05         0.00000E+00
    0.91188E+05        -0.59941E+08         0.00000E+00
    0.00000E+00         0.00000E+00        -0.49897E+08
 
   -0.49879E+08         0.10863E+06         0.00000E+00
    0.10863E+06        -0.59920E+08         0.00000E+00
    0.00000E+00         0.00000E+00        -0.49904E+08
 
   -0.49034E+08        -0.11447E+04         0.00000E+00
   -0.11447E+04        -0.60000E+08         0.00000E+00
    0.00000E+00         0.00000E+00        -0.49732E+08
 
   -0.49114E+08        -0.28575E+04         0.00000E+00
   -0.28575E+04        -0.60001E+08         0.00000E+00
    0.00000E+00         0.00000E+00        -0.49748E+08
 
   -0.49188E+08        -0.34751E+04         0.00000E+00
   -0.34751E+04        -0.60002E+08         0.00000E+00
    0.00000E+00         0.00000E+00        -0.49763E+08
 
   -0.49258E+08        -0.26738E+04         0.00000E+00
   -0.26738E+04        -0.60004E+08         0.00000E+00
    0.00000E+00         0.00000E+00        -0.49778E+08
 
   -0.49322E+08        -0.20192E+03         0.00000E+00
   -0.20192E+03        -0.60005E+08         0.00000E+00
    0.00000E+00         0.00000E+00        -0.49791E+08
 
   -0.49383E+08         0.41245E+04         0.00000E+00
    0.41245E+04        -0.60006E+08         0.00000E+00
    0.00000E+00         0.00000E+00        -0.49803E+08
 
   -0.49440E+08         0.10428E+05         0.00000E+00
    0.10428E+05        -0.60006E+08         0.00000E+00
    0.00000E+00         0.00000E+00        -0.49815E+08
 
   -0.49495E+08         0.18776E+05         0.00000E+00
    0.18776E+05        -0.60005E+08         0.00000E+00
    0.00000E+00         0.00000E+00        -0.49826E+08
 
   -0.49548E+08         0.29187E+05         0.00000E+00
    0.29187E+05        -0.60002E+08         0.00000E+00
    0.00000E+00         0.00000E+00        -0.49836E+08
 
   -0.49599E+08         0.41638E+05         0.00000E+00
    0.41638E+05        -0.59997E+08         0.00000E+00
    0.00000E+00         0.00000E+00        -0.49845E+08
 
   -0.49650E+08         0.56071E+05         0.00000E+00
    0.56071E+05        -0.59990E+08         0.00000E+00
    0.00000E+00         0.00000E+00        -0.49854E+08
 
   -0.49701E+08         0.72403E+05         0.00000E+00
    0.72403E+05        -0.59980E+08         0.00000E+00
    0.00000E+00         0.00000E+00        -0.49862E+08
 
   -0.49753E+08         0.90528E+05         0.00000E+00
    0.90528E+05        -0.59966E+08         0.00000E+00
    0.00000E+00         0.00000E+00        -0.49869E+08
 
   -0.49805E+08         0.11033E+06         0.00000E+00
    0.11033E+06        -0.59949E+08         0.00000E+00
    0.00000E+00         0.00000E+00        -0.49877E+08
 
   -0.49859E+08         0.13169E+06         0.00000E+00
    0.13169E+06        -0.59929E+08         0.00000E+00
    0.00000E+00         0.00000E+00        -0.49883E+08
 
   -0.49036E+08        -0.16198E+04         0.00000E+00
   -0.16198E+04        -0.60000E+08         0.00000E+00
    0.00000E+00         0.00000E+00        -0.49711E+08
 
   -0.49116E+08        -0.41121E+04         0.00000E+00
   -0.41121E+04        -0.60001E+08         0.00000E+00
    0.00000E+00         0.00000E+00        -0.49727E+08
 
   -0.49189E+08        -0.52227E+04         0.00000E+00
   -0.52227E+04        -0.60003E+08         0.00000E+00
    0.00000E+00         0.00000E+00        -0.49742E+08
 
   -0.49256E+08        -0.45735E+04         0.00000E+00
   -0.45735E+04        -0.60005E+08         0.00000E+00
    0.00000E+00         0.00000E+00        -0.49756E+08
 
   -0.49319E+08        -0.18737E+04         0.00000E+00
   -0.18737E+04        -0.60007E+08         0.00000E+00
    0.00000E+00         0.00000E+00        -0.49769E+08
 
   -0.49377E+08         0.30866E+04         0.00000E+00
    0.30866E+04        -0.60009E+08         0.00000E+00
    0.00000E+00         0.00000E+00        -0.49781E+08
 
   -0.49432E+08         0.10444E+05         0.00000E+00
    0.10444E+05        -0.60010E+08         0.00000E+00
    0.00000E+00         0.00000E+00        -0.49792E+08
 
   -0.49485E+08         0.20268E+05         0.00000E+00
    0.20268E+05        -0.60010E+08         0.00000E+00
    0.00000E+00         0.00000E+00        -0.49802E+08
 
   -0.49535E+08         0.32574E+05         0.00000E+00
    0.32574E+05        -0.60008E+08         0.00000E+00
    0.00000E+00         0.00000E+00        -0.49812E+08
 
   -0.49585E+08         0.47325E+05         0.00000E+00
    0.47325E+05        -0.60004E+08         0.00000E+00
    0.00000E+00         0.00000E+00        -0.49821E+08
 
   -0.49633E+08         0.64444E+05         0.00000E+00
    0.64444E+05        -0.59997E+08         0.00000E+00
    0.00000E+00         0.00000E+00        -0.49830E+08
 
   -0.49682E+08         0.83823E+05         0.00000E+00
    0.83823E+05        -0.59988E+08         0.00000E+00
    0.00000E+00         0.00000E+00        -0.49838E+08
 
   -0.49732E+08         0.10533E+06         0.00000E+00
    0.10533E+06        -0.59975E+08         0.00000E+00
    0.00000E+00         0.00000E+00        -0.49845E+08
 
   -0.49783E+08         0.12881E+06         0.00000E+00
    0.12881E+06        -0.59959E+08         0.00000E+00
    0.00000E+00         0.00000E+00        -0.49852E+08
 
   -0.49835E+08         0.15413E+06         0.00000E+00
    0.15413E+06        -0.59939E+08         0.00000E+00
    0.00000E+00         0.00000E+00        -0.49858E+08
 
   -0.49040E+08        -0.22293E+04         0.00000E+00
   -0.22293E+04        -0.60000E+08         0.00000E+00
    0.00000E+00         0.00000E+00        -0.49686E+08
 
   -0.49118E+08        -0.57341E+04         0.00000E+00
   -0.57341E+04        -0.60002E+08         0.00000E+00
    0.00000E+00         0.00000E+00        -0.49702E+08
 
   -0.49189E+08        -0.75251E+04         0.00000E+00
   -0.75251E+04        -0.60004E+08         0.00000E+00
    0.00000E+00         0.00000E+00        -0.49716E+08
 
   -0.49254E+08        -0.71729E+04         0.00000E+00
   -0.71729E+04        -0.60007E+08         0.00000E+00
    0.00000E+00         0.00000E+00        -0.49730E+08
 
   -0.49315E+08        -0.43514E+04         0.00000E+00
   -0.43514E+04        -0.60010E+08         0.00000E+00
    0.00000E+00         0.00000E+00        -0.49743E+08
 
   -0.49371E+08         0.11704E+04         0.00000E+00
    0.11704E+04        -0.60012E+08         0.00000E+00
    0.00000E+00         0.00000E+00        -0.49754E+08
 
   -0.49423E+08         0.95379E+04         0.00000E+00
    0.95379E+04        -0.60014E+08         0.00000E+00
    0.00000E+00         0.00000E+00        -0.49765E+08
 
   -0.49473E+08         0.20821E+05         0.00000E+00
    0.20821E+05        -0.60015E+08         0.00000E+00
    0.00000E+00         0.00000E+00        -0.49775E+08
 
   -0.49521E+08         0.35023E+05         0.00000E+00
    0.35023E+05        -0.60014E+08         0.00000E+00
    0.00000E+00         0.00000E+00        -0.49785E+08
 
   -0.49567E+08         0.52092E+05         0.00000E+00
    0.52092E+05        -0.60011E+08         0.00000E+00
    0.00000E+00         0.00000E+00        -0.49794E+08
 
   -0.49614E+08         0.71928E+05         0.00000E+00
    0.71928E+05        -0.60005E+08         0.00000E+00
    0.00000E+00         0.00000E+00        -0.49802E+08
 
   -0.49660E+08         0.94394E+05         0.00000E+00
    0.94394E+05        -0.59997E+08         0.00000E+00
    0.00000E+00         0.00000E+00        -0.49809E+08
 
   -0.49707E+08         0.11932E+06         0.00000E+00
    0.11932E+06        -0.59985E+08         0.00000E+00
    0.00000E+00         0.00000E+00        -0.49816E+08
 
   -0.49756E+08         0.14653E+06         0.00000E+00
    0.14653E+06        -0.59969E+08         0.00000E+00
    0.00000E+00         0.00000E+00        -0.49823E+08
 
   -0.49807E+08         0.17583E+06         0.00000E+00
    0.17583E+06        -0.59950E+08         0.00000E+00
    0.00000E+00         0.00000E+00        -0.49829E+08
 
   -0.49045E+08        -0.29938E+04         0.00000E+00
   -0.29938E+04        -0.60000E+08         0.00000E+00
    0.00000E+00         0.00000E+00        -0.49657E+08
 
   -0.49121E+08        -0.77786E+04         0.00000E+00
   -0.77786E+04        -0.60002E+08         0.00000E+00
    0.00000E+00         0.00000E+00        -0.49673E+08
 
   -0.49190E+08        -0.10463E+05         0.00000E+00
   -0.10463E+05        -0.60005E+08         0.00000E+00
    0.00000E+00         0.00000E+00        -0.49687E+08
 
   -0.49253E+08        -0.10571E+05         0.00000E+00
   -0.10571E+05        -0.60008E+08         0.00000E+00
    0.00000E+00         0.00000E+00        -0.49701E+08
 
   -0.49310E+08        -0.77469E+04         0.00000E+00
   -0.77469E+04        -0.60012E+08         0.00000E+00
    0.00000E+00         0.00000E+00        -0.49713E+08
 
   -0.49363E+08        -0.17440E+04         0.00000E+00
   -0.17440E+04        -0.60016E+08         0.00000E+00
    0.00000E+00         0.00000E+00        -0.49724E+08
 
   -0.49413E+08         0.75865E+04         0.00000E+00
    0.75865E+04        -0.60019E+08         0.00000E+00
    0.00000E+00         0.00000E+00        -0.49735E+08
 
   -0.49459E+08         0.20308E+05         0.00000E+00
    0.20308E+05        -0.60021E+08         0.00000E+00
    0.00000E+00         0.00000E+00        -0.49744E+08
 
   -0.49504E+08         0.36409E+05         0.00000E+00
    0.36409E+05        -0.60021E+08         0.00000E+00
    0.00000E+00         0.00000E+00        -0.49754E+08
 
   -0.49548E+08         0.55816E+05         0.00000E+00
    0.55816E+05        -0.60019E+08         0.00000E+00
    0.00000E+00         0.00000E+00        -0.49762E+08
 
   -0.49591E+08         0.78403E+05         0.00000E+00
    0.78403E+05        -0.60014E+08         0.00000E+00
    0.00000E+00         0.00000E+00        -0.49770E+08
 
   -0.49635E+08         0.10400E+06         0.00000E+00
    0.10400E+06        -0.60007E+08         0.00000E+00
    0.00000E+00         0.00000E+00        -0.49777E+08
 
   -0.49680E+08         0.13240E+06         0.00000E+00
    0.13240E+06        -0.59996E+08         0.00000E+00
    0.00000E+00         0.00000E+00        -0.49784E+08
 
   -0.49726E+08         0.16339E+06         0.00000E+00
    0.16339E+06        -0.59982E+08         0.00000E+00
    0.00000E+00         0.00000E+00        -0.49790E+08
 
   -0.49774E+08         0.19672E+06         0.00000E+00
    0.19672E+06        -0.59963E+08         0.00000E+00
    0.00000E+00         0.00000E+00        -0.49796E+08
 
   -0.49051E+08        -0.39337E+04         0.00000E+00
   -0.39337E+04        -0.60001E+08         0.00000E+00
    0.00000E+00         0.00000E+00        -0.49626E+08
 
   -0.49126E+08        -0.10299E+05         0.00000E+00
   -0.10299E+05        -0.60002E+08         0.00000E+00
    0.00000E+00         0.00000E+00        -0.49641E+08
 
   -0.49192E+08        -0.14114E+05         0.00000E+00
   -0.14114E+05        -0.60006E+08         0.00000E+00
    0.00000E+00         0.00000E+00        -0.49655E+08
 
   -0.49252E+08        -0.14861E+05         0.00000E+00
   -0.14861E+05        -0.60010E+08         0.00000E+00
    0.00000E+00         0.00000E+00        -0.49668E+08
 
   -0.49306E+08        -0.12164E+05         0.00000E+00
   -0.12164E+05        -0.60015E+08         0.00000E+00
    0.00000E+00         0.00000E+00        -0.49680E+08
 
   -0.49355E+08        -0.57660E+04         0.00000E+00
   -0.57660E+04        -0.60020E+08         0.00000E+00
    0.00000E+00         0.00000E+00        -0.49690E+08
 
   -0.49401E+08         0.44767E+04         0.00000E+00
    0.44767E+04        -0.60024E+08         0.00000E+00
    0.00000E+00         0.00000E+00        -0.49700E+08
 
   -0.49444E+08         0.18615E+05         0.00000E+00
    0.18615E+05        -0.60027E+08         0.00000E+00
    0.00000E+00         0.00000E+00        -0.49710E+08
 
   -0.49485E+08         0.36618E+05         0.00000E+00
    0.36618E+05        -0.60029E+08         0.00000E+00
    0.00000E+00         0.00000E+00        -0.49718E+08
 
   -0.49525E+08         0.58385E+05         0.00000E+00
    0.58385E+05        -0.60028E+08         0.00000E+00
    0.00000E+00         0.00000E+00        -0.49726E+08
 
   -0.49565E+08         0.83759E+05         0.00000E+00
    0.83759E+05        -0.60024E+08         0.00000E+00
    0.00000E+00         0.00000E+00        -0.49734E+08
 
   -0.49606E+08         0.11253E+06         0.00000E+00
    0.11253E+06        -0.60018E+08         0.00000E+00
    0.00000E+00         0.00000E+00        -0.49740E+08
 
   -0.49648E+08         0.14446E+06         0.00000E+00
    0.14446E+06        -0.60008E+08         0.00000E+00
    0.00000E+00         0.00000E+00        -0.49747E+08
 
   -0.49692E+08         0.17928E+06         0.00000E+00
    0.17928E+06        -0.59995E+08         0.00000E+00
    0.00000E+00         0.00000E+00        -0.49753E+08
 
   -0.49738E+08         0.21669E+06         0.00000E+00
    0.21669E+06        -0.59978E+08         0.00000E+00
    0.00000E+00         0.00000E+00        -0.49759E+08
 
   -0.49060E+08        -0.50685E+04         0.00000E+00
   -0.50685E+04        -0.60001E+08         0.00000E+00
    0.00000E+00         0.00000E+00        -0.49591E+08
 
   -0.49132E+08        -0.13345E+05         0.00000E+00
   -0.13345E+05        -0.60003E+08         0.00000E+00
    0.00000E+00         0.00000E+00        -0.49605E+08
 
   -0.49195E+08        -0.18547E+05         0.00000E+00
   -0.18547E+05        -0.60007E+08         0.00000E+00
    0.00000E+00         0.00000E+00        -0.49619E+08
 
   -0.49251E+08        -0.20127E+05         0.00000E+00
   -0.20127E+05        -0.60012E+08         0.00000E+00
    0.00000E+00         0.00000E+00        -0.49631E+08
 
   -0.49301E+08        -0.17693E+05         0.00000E+00
   -0.17693E+05        -0.60018E+08         0.00000E+00
    0.00000E+00         0.00000E+00        -0.49643E+08
 
   -0.49347E+08        -0.10991E+05         0.00000E+00
   -0.10991E+05        -0.60024E+08         0.00000E+00
    0.00000E+00         0.00000E+00        -0.49653E+08
 
   -0.49388E+08         0.11086E+03         0.00000E+00
    0.11086E+03        -0.60030E+08         0.00000E+00
    0.00000E+00         0.00000E+00        -0.49662E+08
 
   -0.49427E+08         0.15644E+05         0.00000E+00
    0.15644E+05        -0.60034E+08         0.00000E+00
    0.00000E+00         0.00000E+00        -0.49671E+08
 
   -0.49464E+08         0.35550E+05         0.00000E+00
    0.35550E+05        -0.60037E+08         0.00000E+00
    0.00000E+00         0.00000E+00        -0.49679E+08
 
   -0.49500E+08         0.59699E+05         0.00000E+00
    0.59699E+05        -0.60037E+08         0.00000E+00
    0.00000E+00         0.00000E+00        -0.49686E+08
 
   -0.49537E+08         0.87898E+05         0.00000E+00
    0.87898E+05        -0.60035E+08         0.00000E+00
    0.00000E+00         0.00000E+00        -0.49693E+08
 
   -0.49574E+08         0.11990E+06         0.00000E+00
    0.11990E+06        -0.60030E+08         0.00000E+00
    0.00000E+00         0.00000E+00        -0.49700E+08
 
   -0.49613E+08         0.15542E+06         0.00000E+00
    0.15542E+06        -0.60022E+08         0.00000E+00
    0.00000E+00         0.00000E+00        -0.49706E+08
 
   -0.49654E+08         0.19413E+06         0.00000E+00
    0.19413E+06        -0.60009E+08         0.00000E+00
    0.00000E+00         0.00000E+00        -0.49711E+08
 
   -0.49697E+08         0.23568E+06         0.00000E+00
    0.23568E+06        -0.59993E+08         0.00000E+00
    0.00000E+00         0.00000E+00        -0.49717E+08
 
   -0.49071E+08        -0.64163E+04         0.00000E+00
   -0.64163E+04        -0.60001E+08         0.00000E+00
    0.00000E+00         0.00000E+00        -0.49552E+08
 
   -0.49139E+08        -0.16961E+05         0.00000E+00
   -0.16961E+05        -0.60003E+08         0.00000E+00
    0.00000E+00         0.00000E+00        -0.49567E+08
 
   -0.49199E+08        -0.23825E+05         0.00000E+00
   -0.23825E+05        -0.60008E+08         0.00000E+00
    0.00000E+00         0.00000E+00        -0.49580E+08
 
   -0.49251E+08        -0.26440E+05         0.00000E+00
   -0.26440E+05        -0.60015E+08         0.00000E+00
    0.00000E+00         0.00000E+00        -0.49591E+08
 
   -0.49297E+08        -0.24410E+05         0.00000E+00
   -0.24410E+05        -0.60022E+08         0.00000E+00
    0.00000E+00         0.00000E+00        -0.49602E+08
 
   -0.49338E+08        -0.17497E+05         0.00000E+00
   -0.17497E+05        -0.60029E+08         0.00000E+00
    0.00000E+00         0.00000E+00        -0.49612E+08
 
   -0.49374E+08        -0.55884E+04         0.00000E+00
   -0.55884E+04        -0.60036E+08         0.00000E+00
    0.00000E+00         0.00000E+00        -0.49620E+08
 
   -0.49409E+08         0.11316E+05         0.00000E+00
    0.11316E+05        -0.60041E+08         0.00000E+00
    0.00000E+00         0.00000E+00        -0.49628E+08
 
   -0.49441E+08         0.33126E+05         0.00000E+00
    0.33126E+05        -0.60046E+08         0.00000E+00
    0.00000E+00         0.00000E+00        -0.49636E+08
 
   -0.49473E+08         0.59676E+05         0.00000E+00
    0.59676E+05        -0.60047E+08         0.00000E+00
    0.00000E+00         0.00000E+00        -0.49642E+08
 
   -0.49505E+08         0.90733E+05         0.00000E+00
    0.90733E+05        -0.60047E+08         0.00000E+00
    0.00000E+00         0.00000E+00        -0.49649E+08
 
   -0.49538E+08         0.12601E+06         0.00000E+00
    0.12601E+06        -0.60043E+08         0.00000E+00
    0.00000E+00         0.00000E+00        -0.49655E+08
 
   -0.49574E+08         0.16517E+06         0.00000E+00
    0.16517E+06        -0.60036E+08         0.00000E+00
    0.00000E+00         0.00000E+00        -0.49660E+08
 
   -0.49611E+08         0.20784E+06         0.00000E+00
    0.20784E+06        -0.60025E+08         0.00000E+00
    0.00000E+00         0.00000E+00        -0.49666E+08
 
   -0.49652E+08         0.25361E+06         0.00000E+00
    0.25361E+06        -0.60009E+08         0.00000E+00
    0.00000E+00         0.00000E+00        -0.49671E+08
 
   -0.49084E+08        -0.79932E+04         0.00000E+00
   -0.79932E+04        -0.60001E+08         0.00000E+00
    0.00000E+00         0.00000E+00        -0.49511E+08
 
   -0.49149E+08        -0.21187E+05         0.00000E+00
   -0.21187E+05        -0.60004E+08         0.00000E+00
    0.00000E+00         0.00000E+00        -0.49525E+08
 
   -0.49205E+08        -0.29998E+05         0.00000E+00
   -0.29998E+05        -0.60010E+08         0.00000E+00
    0.00000E+00         0.00000E+00        -0.49537E+08
 
   -0.49252E+08        -0.33852E+05         0.00000E+00
   -0.33852E+05        -0.60017E+08         0.00000E+00
    0.00000E+00         0.00000E+00        -0.49548E+08
 
   -0.49293E+08        -0.32368E+05         0.00000E+00
   -0.32368E+05        -0.60025E+08         0.00000E+00
    0.00000E+00         0.00000E+00        -0.49558E+08
 
   -0.49328E+08        -0.25333E+05         0.00000E+00
   -0.25333E+05        -0.60034E+08         0.00000E+00
    0.00000E+00         0.00000E+00        -0.49567E+08
 
   -0.49360E+08        -0.12672E+05         0.00000E+00
   -0.12672E+05        -0.60042E+08         0.00000E+00
    0.00000E+00         0.00000E+00        -0.49575E+08
 
   -0.49388E+08         0.55790E+04         0.00000E+00
    0.55790E+04        -0.60049E+08         0.00000E+00
    0.00000E+00         0.00000E+00        -0.49582E+08
 
   -0.49416E+08         0.29289E+05         0.00000E+00
    0.29289E+05        -0.60055E+08         0.00000E+00
    0.00000E+00         0.00000E+00        -0.49588E+08
 
   -0.49443E+08         0.58252E+05         0.00000E+00
    0.58252E+05        -0.60058E+08         0.00000E+00
    0.00000E+00         0.00000E+00        -0.49594E+08
 
   -0.49470E+08         0.92196E+05         0.00000E+00
    0.92196E+05        -0.60059E+08         0.00000E+00
    0.00000E+00         0.00000E+00        -0.49600E+08
 
   -0.49499E+08         0.13079E+06         0.00000E+00
    0.13079E+06        -0.60056E+08         0.00000E+00
    0.00000E+00         0.00000E+00        -0.49605E+08
 
   -0.49531E+08         0.17365E+06         0.00000E+00
    0.17365E+06        -0.60050E+08         0.00000E+00
    0.00000E+00         0.00000E+00        -0.49611E+08
 
   -0.49565E+08         0.22035E+06         0.00000E+00
    0.22035E+06        -0.60040E+08         0.00000E+00
    0.00000E+00         0.00000E+00        -0.49615E+08
 
   -0.49603E+08         0.27040E+06         0.00000E+00
    0.27040E+06        -0.60026E+08         0.00000E+00
    0.00000E+00         0.00000E+00        -0.49620E+08
 
   -0.49101E+08        -0.98125E+04         0.00000E+00
   -0.98125E+04        -0.60001E+08         0.00000E+00
    0.00000E+00         0.00000E+00        -0.49467E+08
 
   -0.49162E+08        -0.26049E+05         0.00000E+00
   -0.26049E+05        -0.60005E+08         0.00000E+00
    0.00000E+00         0.00000E+00        -0.49480E+08
 
   -0.49212E+08        -0.37097E+05         0.00000E+00
   -0.37097E+05        -0.60011E+08         0.00000E+00
    0.00000E+00         0.00000E+00        -0.49491E+08
 
   -0.49254E+08        -0.42394E+05         0.00000E+00
   -0.42394E+05        -0.60019E+08         0.00000E+00
    0.00000E+00         0.00000E+00        -0.49501E+08
 
   -0.49288E+08        -0.41591E+05         0.00000E+00
   -0.41591E+05        -0.60029E+08         0.00000E+00
    0.00000E+00         0.00000E+00        -0.49510E+08
 
   -0.49318E+08        -0.34519E+05         0.00000E+00
   -0.34519E+05        -0.60039E+08         0.00000E+00
    0.00000E+00         0.00000E+00        -0.49518E+08
 
   -0.49344E+08        -0.21155E+05         0.00000E+00
   -0.21155E+05        -0.60048E+08         0.00000E+00
    0.00000E+00         0.00000E+00        -0.49525E+08
 
   -0.49367E+08        -0.15843E+04         0.00000E+00
   -0.15843E+04        -0.60057E+08         0.00000E+00
    0.00000E+00         0.00000E+00        -0.49531E+08
 
   -0.49388E+08         0.24014E+05         0.00000E+00
    0.24014E+05        -0.60064E+08         0.00000E+00
    0.00000E+00         0.00000E+00        -0.49537E+08
 
   -0.49410E+08         0.55392E+05         0.00000E+00
    0.55392E+05        -0.60068E+08         0.00000E+00
    0.00000E+00         0.00000E+00        -0.49542E+08
 
   -0.49433E+08         0.92237E+05         0.00000E+00
    0.92237E+05        -0.60071E+08         0.00000E+00
    0.00000E+00         0.00000E+00        -0.49547E+08
 
   -0.49457E+08         0.13418E+06         0.00000E+00
    0.13418E+06        -0.60070E+08         0.00000E+00
    0.00000E+00         0.00000E+00        -0.49552E+08
 
   -0.49484E+08         0.18079E+06         0.00000E+00
    0.18079E+06        -0.60065E+08         0.00000E+00
    0.00000E+00         0.00000E+00        -0.49556E+08
 
   -0.49514E+08         0.23158E+06         0.00000E+00
    0.23158E+06        -0.60057E+08         0.00000E+00
    0.00000E+00         0.00000E+00        -0.49561E+08
 
   -0.49549E+08         0.28601E+06         0.00000E+00
    0.28601E+06        -0.60044E+08         0.00000E+00
    0.00000E+00         0.00000E+00        -0.49565E+08
 
   -0.49122E+08        -0.11883E+05         0.00000E+00
   -0.11883E+05        -0.60001E+08         0.00000E+00
    0.00000E+00         0.00000E+00        -0.49419E+08
 
   -0.49177E+08        -0.31566E+05         0.00000E+00
   -0.31566E+05        -0.60005E+08         0.00000E+00
    0.00000E+00         0.00000E+00        -0.49431E+08
 
   -0.49221E+08        -0.45135E+05         0.00000E+00
   -0.45135E+05        -0.60012E+08         0.00000E+00
    0.00000E+00         0.00000E+00        -0.49442E+08
 
   -0.49257E+08        -0.52065E+05         0.00000E+00
   -0.52065E+05        -0.60022E+08         0.00000E+00
    0.00000E+00         0.00000E+00        -0.49451E+08
 
   -0.49285E+08        -0.52064E+05         0.00000E+00
   -0.52064E+05        -0.60032E+08         0.00000E+00
    0.00000E+00         0.00000E+00        -0.49458E+08
 
   -0.49308E+08        -0.45030E+05         0.00000E+00
   -0.45030E+05        -0.60043E+08         0.00000E+00
    0.00000E+00         0.00000E+00        -0.49465E+08
 
   -0.49327E+08        -0.31007E+05         0.00000E+00
   -0.31007E+05        -0.60054E+08         0.00000E+00
    0.00000E+00         0.00000E+00        -0.49471E+08
 
   -0.49343E+08        -0.10148E+05         0.00000E+00
   -0.10148E+05        -0.60064E+08         0.00000E+00
    0.00000E+00         0.00000E+00        -0.49476E+08
 
   -0.49359E+08         0.17317E+05         0.00000E+00
    0.17317E+05        -0.60073E+08         0.00000E+00
    0.00000E+00         0.00000E+00        -0.49481E+08
 
   -0.49374E+08         0.51092E+05         0.00000E+00
    0.51092E+05        -0.60079E+08         0.00000E+00
    0.00000E+00         0.00000E+00        -0.49486E+08
 
   -0.49391E+08         0.90831E+05         0.00000E+00
    0.90831E+05        -0.60082E+08         0.00000E+00
    0.00000E+00         0.00000E+00        -0.49490E+08
 
   -0.49411E+08         0.13613E+06         0.00000E+00
    0.13613E+06        -0.60083E+08         0.00000E+00
    0.00000E+00         0.00000E+00        -0.49494E+08
 
   -0.49433E+08         0.18652E+06         0.00000E+00
    0.18652E+06        -0.60080E+08         0.00000E+00
    0.00000E+00         0.00000E+00        -0.49498E+08
 
   -0.49460E+08         0.24147E+06         0.00000E+00
    0.24147E+06        -0.60073E+08         0.00000E+00
    0.00000E+00         0.00000E+00        -0.49501E+08
 
   -0.49491E+08         0.30035E+06         0.00000E+00
    0.30035E+06        -0.60061E+08         0.00000E+00
    0.00000E+00         0.00000E+00        -0.49505E+08
 
   -0.49146E+08        -0.14211E+05         0.00000E+00
   -0.14211E+05        -0.60001E+08         0.00000E+00
    0.00000E+00         0.00000E+00        -0.49369E+08
 
   -0.49195E+08        -0.37737E+05         0.00000E+00
   -0.37737E+05        -0.60006E+08         0.00000E+00
    0.00000E+00         0.00000E+00        -0.49380E+08
 
   -0.49233E+08        -0.54095E+05         0.00000E+00
   -0.54095E+05        -0.60014E+08         0.00000E+00
    0.00000E+00         0.00000E+00        -0.49389E+08
 
   -0.49261E+08        -0.62825E+05         0.00000E+00
   -0.62825E+05        -0.60024E+08         0.00000E+00
    0.00000E+00         0.00000E+00        -0.49397E+08
 
   -0.49282E+08        -0.63724E+05         0.00000E+00
   -0.63724E+05        -0.60036E+08         0.00000E+00
    0.00000E+00         0.00000E+00        -0.49403E+08
 
   -0.49297E+08        -0.56784E+05         0.00000E+00
   -0.56784E+05        -0.60048E+08         0.00000E+00
    0.00000E+00         0.00000E+00        -0.49409E+08
 
   -0.49309E+08        -0.42142E+05         0.00000E+00
   -0.42142E+05        -0.60060E+08         0.00000E+00
    0.00000E+00         0.00000E+00        -0.49414E+08
 
   -0.49318E+08        -0.20029E+05         0.00000E+00
   -0.20029E+05        -0.60071E+08         0.00000E+00
    0.00000E+00         0.00000E+00        -0.49418E+08
 
   -0.49327E+08         0.92604E+04         0.00000E+00
    0.92604E+04        -0.60081E+08         0.00000E+00
    0.00000E+00         0.00000E+00        -0.49421E+08
 
   -0.49336E+08         0.45388E+05         0.00000E+00
    0.45388E+05        -0.60088E+08         0.00000E+00
    0.00000E+00         0.00000E+00        -0.49425E+08
 
   -0.49347E+08         0.87978E+05         0.00000E+00
    0.87978E+05        -0.60093E+08         0.00000E+00
    0.00000E+00         0.00000E+00        -0.49428E+08
 
   -0.49361E+08         0.13660E+06         0.00000E+00
    0.13660E+06        -0.60095E+08         0.00000E+00
    0.00000E+00         0.00000E+00        -0.49431E+08
 
   -0.49378E+08         0.19078E+06         0.00000E+00
    0.19078E+06        -0.60094E+08         0.00000E+00
    0.00000E+00         0.00000E+00        -0.49434E+08
 
   -0.49400E+08         0.24992E+06         0.00000E+00
    0.24992E+06        -0.60088E+08         0.00000E+00
    0.00000E+00         0.00000E+00        -0.49438E+08
 
   -0.49428E+08         0.31335E+06         0.00000E+00
    0.31335E+06        -0.60078E+08         0.00000E+00
    0.00000E+00         0.00000E+00        -0.49441E+08
 
   -0.49176E+08        -0.16792E+05         0.00000E+00
   -0.16792E+05        -0.60001E+08         0.00000E+00
    0.00000E+00         0.00000E+00        -0.49316E+08
 
   -0.49217E+08        -0.44542E+05         0.00000E+00
   -0.44542E+05        -0.60006E+08         0.00000E+00
    0.00000E+00         0.00000E+00        -0.49325E+08
 
   -0.49246E+08        -0.63926E+05         0.00000E+00
   -0.63926E+05        -0.60015E+08         0.00000E+00
    0.00000E+00         0.00000E+00        -0.49333E+08
 
   -0.49266E+08        -0.74586E+05         0.00000E+00
   -0.74586E+05        -0.60026E+08         0.00000E+00
    0.00000E+00         0.00000E+00        -0.49339E+08
 
   -0.49279E+08        -0.76447E+05         0.00000E+00
   -0.76447E+05        -0.60039E+08         0.00000E+00
    0.00000E+00         0.00000E+00        -0.49344E+08
 
   -0.49286E+08        -0.69633E+05         0.00000E+00
   -0.69633E+05        -0.60052E+08         0.00000E+00
    0.00000E+00         0.00000E+00        -0.49348E+08
 
   -0.49290E+08        -0.54399E+05         0.00000E+00
   -0.54399E+05        -0.60065E+08         0.00000E+00
    0.00000E+00         0.00000E+00        -0.49352E+08
 
   -0.49292E+08        -0.31076E+05         0.00000E+00
   -0.31076E+05        -0.60077E+08         0.00000E+00
    0.00000E+00         0.00000E+00        -0.49355E+08
 
   -0.49293E+08        -0.29044E+02         0.00000E+00
   -0.29044E+02        -0.60088E+08         0.00000E+00
    0.00000E+00         0.00000E+00        -0.49357E+08
 
   -0.49296E+08         0.38365E+05         0.00000E+00
    0.38365E+05        -0.60097E+08         0.00000E+00
    0.00000E+00         0.00000E+00        -0.49359E+08
 
   -0.49300E+08         0.83713E+05         0.00000E+00
    0.83713E+05        -0.60103E+08         0.00000E+00
    0.00000E+00         0.00000E+00        -0.49362E+08
 
   -0.49308E+08         0.13559E+06         0.00000E+00
    0.13559E+06        -0.60106E+08         0.00000E+00
    0.00000E+00         0.00000E+00        -0.49364E+08
 
   -0.49320E+08         0.19350E+06         0.00000E+00
    0.19350E+06        -0.60106E+08         0.00000E+00
    0.00000E+00         0.00000E+00        -0.49366E+08
 
   -0.49337E+08         0.25685E+06         0.00000E+00
    0.25685E+06        -0.60102E+08         0.00000E+00
    0.00000E+00         0.00000E+00        -0.49369E+08
 
   -0.49360E+08         0.32491E+06         0.00000E+00
    0.32491E+06        -0.60094E+08         0.00000E+00
    0.00000E+00         0.00000E+00        -0.49372E+08
 
   -0.49210E+08        -0.19619E+05         0.00000E+00
   -0.19619E+05        -0.60001E+08         0.00000E+00
    0.00000E+00         0.00000E+00        -0.49260E+08
 
   -0.49243E+08        -0.51939E+05         0.00000E+00
   -0.51939E+05        -0.60007E+08         0.00000E+00
    0.00000E+00         0.00000E+00        -0.49268E+08
 
   -0.49263E+08        -0.74532E+05         0.00000E+00
   -0.74532E+05        -0.60016E+08         0.00000E+00
    0.00000E+00         0.00000E+00        -0.49274E+08
 
   -0.49273E+08        -0.87196E+05         0.00000E+00
   -0.87196E+05        -0.60028E+08         0.00000E+00
    0.00000E+00         0.00000E+00        -0.49279E+08
 
   -0.49276E+08        -0.90030E+05         0.00000E+00
   -0.90030E+05        -0.60041E+08         0.00000E+00
    0.00000E+00         0.00000E+00        -0.49282E+08
 
   -0.49275E+08        -0.83336E+05         0.00000E+00
   -0.83336E+05        -0.60055E+08         0.00000E+00
    0.00000E+00         0.00000E+00        -0.49284E+08
 
   -0.49270E+08        -0.67526E+05         0.00000E+00
   -0.67526E+05        -0.60069E+08         0.00000E+00
    0.00000E+00         0.00000E+00        -0.49286E+08
 
   -0.49264E+08        -0.43050E+05         0.00000E+00
   -0.43050E+05        -0.60082E+08         0.00000E+00
    0.00000E+00         0.00000E+00        -0.49287E+08
 
   -0.49258E+08        -0.10350E+05         0.00000E+00
   -0.10350E+05        -0.60094E+08         0.00000E+00
    0.00000E+00         0.00000E+00        -0.49288E+08
 
   -0.49253E+08         0.30165E+05         0.00000E+00
    0.30165E+05        -0.60103E+08         0.00000E+00
    0.00000E+00         0.00000E+00        -0.49289E+08
 
   -0.49250E+08         0.78107E+05         0.00000E+00
    0.78107E+05        -0.60111E+08         0.00000E+00
    0.00000E+00         0.00000E+00        -0.49290E+08
 
   -0.49251E+08         0.13308E+06         0.00000E+00
    0.13308E+06        -0.60116E+08         0.00000E+00
    0.00000E+00         0.00000E+00        -0.49292E+08
 
   -0.49257E+08         0.19462E+06         0.00000E+00
    0.19462E+06        -0.60117E+08         0.00000E+00
    0.00000E+00         0.00000E+00        -0.49293E+08
 
   -0.49269E+08         0.26215E+06         0.00000E+00
    0.26215E+06        -0.60115E+08         0.00000E+00
    0.00000E+00         0.00000E+00        -0.49295E+08
 
   -0.49287E+08         0.33491E+06         0.00000E+00
    0.33491E+06        -0.60108E+08         0.00000E+00
    0.00000E+00         0.00000E+00        -0.49297E+08
 
   -0.49250E+08        -0.22674E+05         0.00000E+00
   -0.22674E+05        -0.60001E+08         0.00000E+00
    0.00000E+00         0.00000E+00        -0.49202E+08
 
   -0.49272E+08        -0.59853E+05         0.00000E+00
   -0.59853E+05        -0.60007E+08         0.00000E+00
    0.00000E+00         0.00000E+00        -0.49208E+08
 
   -0.49282E+08        -0.85765E+05         0.00000E+00
   -0.85765E+05        -0.60017E+08         0.00000E+00
    0.00000E+00         0.00000E+00        -0.49212E+08
 
   -0.49282E+08        -0.10042E+06         0.00000E+00
   -0.10042E+06        -0.60029E+08         0.00000E+00
    0.00000E+00         0.00000E+00        -0.49214E+08
 
   -0.49275E+08        -0.10417E+06         0.00000E+00
   -0.10417E+06        -0.60043E+08         0.00000E+00
    0.00000E+00         0.00000E+00        -0.49216E+08
 
   -0.49263E+08        -0.97544E+05         0.00000E+00
   -0.97544E+05        -0.60058E+08         0.00000E+00
    0.00000E+00         0.00000E+00        -0.49216E+08
 
   -0.49249E+08        -0.81156E+05         0.00000E+00
   -0.81156E+05        -0.60072E+08         0.00000E+00
    0.00000E+00         0.00000E+00        -0.49216E+08
 
   -0.49234E+08        -0.55604E+05         0.00000E+00
   -0.55604E+05        -0.60085E+08         0.00000E+00
    0.00000E+00         0.00000E+00        -0.49216E+08
 
   -0.49220E+08        -0.21410E+05         0.00000E+00
   -0.21410E+05        -0.60097E+08         0.00000E+00
    0.00000E+00         0.00000E+00        -0.49215E+08
 
   -0.49207E+08         0.20998E+05         0.00000E+00
    0.20998E+05        -0.60107E+08         0.00000E+00
    0.00000E+00         0.00000E+00        -0.49215E+08
 
   -0.49197E+08         0.71271E+05         0.00000E+00
    0.71271E+05        -0.60116E+08         0.00000E+00
    0.00000E+00         0.00000E+00        -0.49215E+08
 
   -0.49191E+08         0.12908E+06         0.00000E+00
    0.12908E+06        -0.60122E+08         0.00000E+00
    0.00000E+00         0.00000E+00        -0.49215E+08
 
   -0.49191E+08         0.19405E+06         0.00000E+00
    0.19405E+06        -0.60125E+08         0.00000E+00
    0.00000E+00         0.00000E+00        -0.49215E+08
 
   -0.49196E+08         0.26567E+06         0.00000E+00
    0.26567E+06        -0.60124E+08         0.00000E+00
    0.00000E+00         0.00000E+00        -0.49216E+08
 
   -0.49210E+08         0.34318E+06         0.00000E+00
    0.34318E+06        -0.60120E+08         0.00000E+00
    0.00000E+00         0.00000E+00        -0.49218E+08
 
   -0.49295E+08        -0.25931E+05         0.00000E+00
   -0.25931E+05        -0.60002E+08         0.00000E+00
    0.00000E+00         0.00000E+00        -0.49141E+08
 
   -0.49306E+08        -0.68177E+05         0.00000E+00
   -0.68177E+05        -0.60008E+08         0.00000E+00
    0.00000E+00         0.00000E+00        -0.49145E+08
 
   -0.49303E+08        -0.97411E+05         0.00000E+00
   -0.97411E+05        -0.60018E+08         0.00000E+00
    0.00000E+00         0.00000E+00        -0.49146E+08
 
   -0.49291E+08        -0.11394E+06         0.00000E+00
   -0.11394E+06        -0.60030E+08         0.00000E+00
    0.00000E+00         0.00000E+00        -0.49146E+08
 
   -0.49273E+08        -0.11845E+06         0.00000E+00
   -0.11845E+06        -0.60044E+08         0.00000E+00
    0.00000E+00         0.00000E+00        -0.49145E+08
 
   -0.49252E+08        -0.11177E+06         0.00000E+00
   -0.11177E+06        -0.60058E+08         0.00000E+00
    0.00000E+00         0.00000E+00        -0.49144E+08
 
   -0.49228E+08        -0.94785E+05         0.00000E+00
   -0.94785E+05        -0.60072E+08         0.00000E+00
    0.00000E+00         0.00000E+00        -0.49142E+08
 
   -0.49204E+08        -0.68263E+05         0.00000E+00
   -0.68263E+05        -0.60085E+08         0.00000E+00
    0.00000E+00         0.00000E+00        -0.49140E+08
 
   -0.49181E+08        -0.32807E+05         0.00000E+00
   -0.32807E+05        -0.60097E+08         0.00000E+00
    0.00000E+00         0.00000E+00        -0.49137E+08
 
   -0.49160E+08         0.11158E+05         0.00000E+00
    0.11158E+05        -0.60108E+08         0.00000E+00
    0.00000E+00         0.00000E+00        -0.49135E+08
 
   -0.49142E+08         0.63362E+05         0.00000E+00
    0.63362E+05        -0.60117E+08         0.00000E+00
    0.00000E+00         0.00000E+00        -0.49134E+08
 
   -0.49128E+08         0.12361E+06         0.00000E+00
    0.12361E+06        -0.60124E+08         0.00000E+00
    0.00000E+00         0.00000E+00        -0.49132E+08
 
   -0.49120E+08         0.19168E+06         0.00000E+00
    0.19168E+06        -0.60129E+08         0.00000E+00
    0.00000E+00         0.00000E+00        -0.49132E+08
 
   -0.49120E+08         0.26719E+06         0.00000E+00
    0.26719E+06        -0.60130E+08         0.00000E+00
    0.00000E+00         0.00000E+00        -0.49132E+08
 
   -0.49127E+08         0.34946E+06         0.00000E+00
    0.34946E+06        -0.60128E+08         0.00000E+00
    0.00000E+00         0.00000E+00        -0.49133E+08
 
   -0.49347E+08        -0.29351E+05         0.00000E+00
   -0.29351E+05        -0.60002E+08         0.00000E+00
    0.00000E+00         0.00000E+00        -0.49078E+08
 
   -0.49344E+08        -0.76759E+05         0.00000E+00
   -0.76759E+05        -0.60008E+08         0.00000E+00
    0.00000E+00         0.00000E+00        -0.49078E+08
 
   -0.49327E+08        -0.10917E+06         0.00000E+00
   -0.10917E+06        -0.60018E+08         0.00000E+00
    0.00000E+00         0.00000E+00        -0.49077E+08
 
   -0.49302E+08        -0.12730E+06         0.00000E+00
   -0.12730E+06        -0.60030E+08         0.00000E+00
    0.00000E+00         0.00000E+00        -0.49075E+08
 
   -0.49272E+08        -0.13228E+06         0.00000E+00
   -0.13228E+06        -0.60044E+08         0.00000E+00
    0.00000E+00         0.00000E+00        -0.49071E+08
 
   -0.49239E+08        -0.12536E+06         0.00000E+00
   -0.12536E+06        -0.60057E+08         0.00000E+00
    0.00000E+00         0.00000E+00        -0.49067E+08
 
   -0.49206E+08        -0.10774E+06         0.00000E+00
   -0.10774E+06        -0.60069E+08         0.00000E+00
    0.00000E+00         0.00000E+00        -0.49063E+08
 
   -0.49172E+08        -0.80397E+05         0.00000E+00
   -0.80397E+05        -0.60081E+08         0.00000E+00
    0.00000E+00         0.00000E+00        -0.49059E+08
 
   -0.49141E+08        -0.44013E+05         0.00000E+00
   -0.44013E+05        -0.60093E+08         0.00000E+00
    0.00000E+00         0.00000E+00        -0.49055E+08
 
   -0.49111E+08         0.10264E+04         0.00000E+00
    0.10264E+04        -0.60103E+08         0.00000E+00
    0.00000E+00         0.00000E+00        -0.49051E+08
 
   -0.49085E+08         0.54588E+05         0.00000E+00
    0.54588E+05        -0.60113E+08         0.00000E+00
    0.00000E+00         0.00000E+00        -0.49048E+08
 
   -0.49063E+08         0.11669E+06         0.00000E+00
    0.11669E+06        -0.60121E+08         0.00000E+00
    0.00000E+00         0.00000E+00        -0.49045E+08
 
   -0.49047E+08         0.18735E+06         0.00000E+00
    0.18735E+06        -0.60128E+08         0.00000E+00
    0.00000E+00         0.00000E+00        -0.49043E+08
 
   -0.49038E+08         0.26643E+06         0.00000E+00
    0.26643E+06        -0.60131E+08         0.00000E+00
    0.00000E+00         0.00000E+00        -0.49042E+08
 
   -0.49039E+08         0.35340E+06         0.00000E+00
    0.35340E+06        -0.60131E+08         0.00000E+00
    0.00000E+00         0.00000E+00        -0.49042E+08
 
   -0.49405E+08        -0.32887E+05         0.00000E+00
   -0.32887E+05        -0.60002E+08         0.00000E+00
    0.00000E+00         0.00000E+00        -0.49012E+08
 
   -0.49385E+08        -0.85398E+05         0.00000E+00
   -0.85398E+05        -0.60008E+08         0.00000E+00
    0.00000E+00         0.00000E+00        -0.49009E+08
 
   -0.49353E+08        -0.12063E+06         0.00000E+00
   -0.12063E+06        -0.60018E+08         0.00000E+00
    0.00000E+00         0.00000E+00        -0.49005E+08
 
   -0.49314E+08        -0.13989E+06         0.00000E+00
   -0.13989E+06        -0.60029E+08         0.00000E+00
    0.00000E+00         0.00000E+00        -0.48999E+08
 
   -0.49271E+08        -0.14490E+06         0.00000E+00
   -0.14490E+06        -0.60041E+08         0.00000E+00
    0.00000E+00         0.00000E+00        -0.48993E+08
 
   -0.49227E+08        -0.13745E+06         0.00000E+00
   -0.13745E+06        -0.60052E+08         0.00000E+00
    0.00000E+00         0.00000E+00        -0.48986E+08
 
   -0.49183E+08        -0.11916E+06         0.00000E+00
   -0.11916E+06        -0.60063E+08         0.00000E+00
    0.00000E+00         0.00000E+00        -0.48980E+08
 
   -0.49140E+08        -0.91210E+05         0.00000E+00
   -0.91210E+05        -0.60073E+08         0.00000E+00
    0.00000E+00         0.00000E+00        -0.48973E+08
 
   -0.49100E+08        -0.54361E+05         0.00000E+00
   -0.54361E+05        -0.60083E+08         0.00000E+00
    0.00000E+00         0.00000E+00        -0.48967E+08
 
   -0.49062E+08        -0.89144E+04         0.00000E+00
   -0.89144E+04        -0.60092E+08         0.00000E+00
    0.00000E+00         0.00000E+00        -0.48961E+08
 
   -0.49027E+08         0.45204E+05         0.00000E+00
    0.45204E+05        -0.60102E+08         0.00000E+00
    0.00000E+00         0.00000E+00        -0.48956E+08
 
   -0.48996E+08         0.10832E+06         0.00000E+00
    0.10832E+06        -0.60111E+08         0.00000E+00
    0.00000E+00         0.00000E+00        -0.48952E+08
 
   -0.48971E+08         0.18084E+06         0.00000E+00
    0.18084E+06        -0.60120E+08         0.00000E+00
    0.00000E+00         0.00000E+00        -0.48949E+08
 
   -0.48953E+08         0.26297E+06         0.00000E+00
    0.26297E+06        -0.60126E+08         0.00000E+00
    0.00000E+00         0.00000E+00        -0.48946E+08
 
   -0.48946E+08         0.35450E+06         0.00000E+00
    0.35450E+06        -0.60129E+08         0.00000E+00
    0.00000E+00         0.00000E+00        -0.48945E+08
 
   -0.49470E+08        -0.36480E+05         0.00000E+00
   -0.36480E+05        -0.60002E+08         0.00000E+00
    0.00000E+00         0.00000E+00        -0.48944E+08
 
   -0.49431E+08        -0.93821E+05         0.00000E+00
   -0.93821E+05        -0.60008E+08         0.00000E+00
    0.00000E+00         0.00000E+00        -0.48937E+08
 
   -0.49381E+08        -0.13125E+06         0.00000E+00
   -0.13125E+06        -0.60017E+08         0.00000E+00
    0.00000E+00         0.00000E+00        -0.48929E+08
 
   -0.49326E+08        -0.15088E+06         0.00000E+00
   -0.15088E+06        -0.60027E+08         0.00000E+00
    0.00000E+00         0.00000E+00        -0.48920E+08
 
   -0.49269E+08        -0.15528E+06         0.00000E+00
   -0.15528E+06        -0.60036E+08         0.00000E+00
    0.00000E+00         0.00000E+00        -0.48910E+08
 
   -0.49213E+08        -0.14695E+06         0.00000E+00
   -0.14695E+06        -0.60044E+08         0.00000E+00
    0.00000E+00         0.00000E+00        -0.48901E+08
 
   -0.49159E+08        -0.12796E+06         0.00000E+00
   -0.12796E+06        -0.60052E+08         0.00000E+00
    0.00000E+00         0.00000E+00        -0.48891E+08
 
   -0.49108E+08        -0.99726E+05         0.00000E+00
   -0.99726E+05        -0.60059E+08         0.00000E+00
    0.00000E+00         0.00000E+00        -0.48882E+08
 
   -0.49059E+08        -0.63043E+05         0.00000E+00
   -0.63043E+05        -0.60066E+08         0.00000E+00
    0.00000E+00         0.00000E+00        -0.48874E+08
 
   -0.49012E+08        -0.18080E+05         0.00000E+00
   -0.18080E+05        -0.60074E+08         0.00000E+00
    0.00000E+00         0.00000E+00        -0.48866E+08
 
   -0.48968E+08         0.35523E+05         0.00000E+00
    0.35523E+05        -0.60083E+08         0.00000E+00
    0.00000E+00         0.00000E+00        -0.48859E+08
 
   -0.48928E+08         0.98516E+05         0.00000E+00
    0.98516E+05        -0.60093E+08         0.00000E+00
    0.00000E+00         0.00000E+00        -0.48853E+08
 
   -0.48893E+08         0.17183E+06         0.00000E+00
    0.17183E+06        -0.60104E+08         0.00000E+00
    0.00000E+00         0.00000E+00        -0.48848E+08
 
   -0.48865E+08         0.25625E+06         0.00000E+00
    0.25625E+06        -0.60113E+08         0.00000E+00
    0.00000E+00         0.00000E+00        -0.48845E+08
 
   -0.48847E+08         0.35203E+06         0.00000E+00
    0.35203E+06        -0.60120E+08         0.00000E+00
    0.00000E+00         0.00000E+00        -0.48843E+08
 
   -0.49541E+08        -0.40055E+05         0.00000E+00
   -0.40055E+05        -0.60002E+08         0.00000E+00
    0.00000E+00         0.00000E+00        -0.48873E+08
 
   -0.49479E+08        -0.10165E+06         0.00000E+00
   -0.10165E+06        -0.60007E+08         0.00000E+00
    0.00000E+00         0.00000E+00        -0.48862E+08
 
   -0.49409E+08        -0.14025E+06         0.00000E+00
   -0.14025E+06        -0.60015E+08         0.00000E+00
    0.00000E+00         0.00000E+00        -0.48849E+08
 
   -0.49337E+08        -0.15915E+06         0.00000E+00
   -0.15915E+06        -0.60022E+08         0.00000E+00
    0.00000E+00         0.00000E+00        -0.48836E+08
 
   -0.49266E+08        -0.16211E+06         0.00000E+00
   -0.16211E+06        -0.60027E+08         0.00000E+00
    0.00000E+00         0.00000E+00        -0.48823E+08
 
   -0.49199E+08        -0.15250E+06         0.00000E+00
   -0.15250E+06        -0.60031E+08         0.00000E+00
    0.00000E+00         0.00000E+00        -0.48810E+08
 
   -0.49135E+08        -0.13285E+06         0.00000E+00
   -0.13285E+06        -0.60034E+08         0.00000E+00
    0.00000E+00         0.00000E+00        -0.48798E+08
 
   -0.49076E+08        -0.10481E+06         0.00000E+00
   -0.10481E+06        -0.60036E+08         0.00000E+00
    0.00000E+00         0.00000E+00        -0.48787E+08
 
   -0.49019E+08        -0.69129E+05         0.00000E+00
   -0.69129E+05        -0.60040E+08         0.00000E+00
    0.00000E+00         0.00000E+00        -0.48776E+08
 
   -0.48964E+08        -0.25789E+05         0.00000E+00
   -0.25789E+05        -0.60046E+08         0.00000E+00
    0.00000E+00         0.00000E+00        -0.48766E+08
 
   -0.48911E+08         0.25914E+05         0.00000E+00
    0.25914E+05        -0.60054E+08         0.00000E+00
    0.00000E+00         0.00000E+00        -0.48757E+08
 
   -0.48861E+08         0.87262E+05         0.00000E+00
    0.87262E+05        -0.60064E+08         0.00000E+00
    0.00000E+00         0.00000E+00        -0.48749E+08
 
   -0.48814E+08         0.15991E+06         0.00000E+00
    0.15991E+06        -0.60077E+08         0.00000E+00
    0.00000E+00         0.00000E+00        -0.48742E+08
 
   -0.48774E+08         0.24548E+06         0.00000E+00
    0.24548E+06        -0.60091E+08         0.00000E+00
    0.00000E+00         0.00000E+00        -0.48737E+08
 
   -0.48744E+08         0.34500E+06         0.00000E+00
    0.34500E+06        -0.60102E+08         0.00000E+00
    0.00000E+00         0.00000E+00        -0.48733E+08
 
   -0.49618E+08        -0.43518E+05         0.00000E+00
   -0.43518E+05        -0.60002E+08         0.00000E+00
    0.00000E+00         0.00000E+00        -0.48799E+08
 
   -0.49530E+08        -0.10835E+06         0.00000E+00
   -0.10835E+06        -0.60006E+08         0.00000E+00
    0.00000E+00         0.00000E+00        -0.48783E+08
 
   -0.49437E+08        -0.14650E+06         0.00000E+00
   -0.14650E+06        -0.60011E+08         0.00000E+00
    0.00000E+00         0.00000E+00        -0.48765E+08
 
   -0.49346E+08        -0.16316E+06         0.00000E+00
   -0.16316E+06        -0.60014E+08         0.00000E+00
    0.00000E+00         0.00000E+00        -0.48748E+08
 
   -0.49261E+08        -0.16370E+06         0.00000E+00
   -0.16370E+06        -0.60014E+08         0.00000E+00
    0.00000E+00         0.00000E+00        -0.48730E+08
 
   -0.49183E+08        -0.15246E+06         0.00000E+00
   -0.15246E+06        -0.60011E+08         0.00000E+00
    0.00000E+00         0.00000E+00        -0.48714E+08
 
   -0.49111E+08        -0.13241E+06         0.00000E+00
   -0.13241E+06        -0.60008E+08         0.00000E+00
    0.00000E+00         0.00000E+00        -0.48699E+08
 
   -0.49044E+08        -0.10525E+06         0.00000E+00
   -0.10525E+06        -0.60005E+08         0.00000E+00
    0.00000E+00         0.00000E+00        -0.48685E+08
 
   -0.48980E+08        -0.71622E+05         0.00000E+00
   -0.71622E+05        -0.60003E+08         0.00000E+00
    0.00000E+00         0.00000E+00        -0.48672E+08
 
   -0.48918E+08        -0.31288E+05         0.00000E+00
   -0.31288E+05        -0.60006E+08         0.00000E+00
    0.00000E+00         0.00000E+00        -0.48660E+08
 
   -0.48857E+08         0.16819E+05         0.00000E+00
    0.16819E+05        -0.60012E+08         0.00000E+00
    0.00000E+00         0.00000E+00        -0.48649E+08
 
   -0.48795E+08         0.74574E+05         0.00000E+00
    0.74574E+05        -0.60023E+08         0.00000E+00
    0.00000E+00         0.00000E+00        -0.48639E+08
 
   -0.48736E+08         0.14455E+06         0.00000E+00
    0.14455E+06        -0.60038E+08         0.00000E+00
    0.00000E+00         0.00000E+00        -0.48630E+08
 
   -0.48680E+08         0.22959E+06         0.00000E+00
    0.22959E+06        -0.60057E+08         0.00000E+00
    0.00000E+00         0.00000E+00        -0.48623E+08
 
   -0.48635E+08         0.33200E+06         0.00000E+00
    0.33200E+06        -0.60075E+08         0.00000E+00
    0.00000E+00         0.00000E+00        -0.48617E+08
 
   -0.49700E+08        -0.46734E+05         0.00000E+00
   -0.46734E+05        -0.60001E+08         0.00000E+00
    0.00000E+00         0.00000E+00        -0.48723E+08
 
   -0.49580E+08        -0.11303E+06         0.00000E+00
   -0.11303E+06        -0.60005E+08         0.00000E+00
    0.00000E+00         0.00000E+00        -0.48700E+08
 
   -0.49462E+08        -0.14829E+06         0.00000E+00
   -0.14829E+06        -0.60006E+08         0.00000E+00
    0.00000E+00         0.00000E+00        -0.48676E+08
 
   -0.49352E+08        -0.16077E+06         0.00000E+00
   -0.16077E+06        -0.60002E+08         0.00000E+00
    0.00000E+00         0.00000E+00        -0.48654E+08
 
   -0.49254E+08        -0.15794E+06         0.00000E+00
   -0.15794E+06        -0.59993E+08         0.00000E+00
    0.00000E+00         0.00000E+00        -0.48632E+08
 
   -0.49167E+08        -0.14505E+06         0.00000E+00
   -0.14505E+06        -0.59982E+08         0.00000E+00
    0.00000E+00         0.00000E+00        -0.48613E+08
 
   -0.49088E+08        -0.12519E+06         0.00000E+00
   -0.12519E+06        -0.59971E+08         0.00000E+00
    0.00000E+00         0.00000E+00        -0.48595E+08
 
   -0.49015E+08        -0.99889E+05         0.00000E+00
   -0.99889E+05        -0.59961E+08         0.00000E+00
    0.00000E+00         0.00000E+00        -0.48578E+08
 
   -0.48945E+08        -0.69578E+05         0.00000E+00
   -0.69578E+05        -0.59954E+08         0.00000E+00
    0.00000E+00         0.00000E+00        -0.48563E+08
 
   -0.48877E+08        -0.33802E+05         0.00000E+00
   -0.33802E+05        -0.59952E+08         0.00000E+00
    0.00000E+00         0.00000E+00        -0.48548E+08
 
   -0.48807E+08         0.87805E+04         0.00000E+00
    0.87805E+04        -0.59956E+08         0.00000E+00
    0.00000E+00         0.00000E+00        -0.48535E+08
 
   -0.48735E+08         0.60570E+05         0.00000E+00
    0.60570E+05        -0.59967E+08         0.00000E+00
    0.00000E+00         0.00000E+00        -0.48523E+08
 
   -0.48661E+08         0.12518E+06         0.00000E+00
    0.12518E+06        -0.59985E+08         0.00000E+00
    0.00000E+00         0.00000E+00        -0.48512E+08
 
   -0.48587E+08         0.20722E+06         0.00000E+00
    0.20722E+06        -0.60009E+08         0.00000E+00
    0.00000E+00         0.00000E+00        -0.48502E+08
 
   -0.48521E+08         0.31108E+06         0.00000E+00
    0.31108E+06        -0.60035E+08         0.00000E+00
    0.00000E+00         0.00000E+00        -0.48494E+08
 
   -0.49785E+08        -0.49471E+05         0.00000E+00
   -0.49471E+05        -0.60001E+08         0.00000E+00
    0.00000E+00         0.00000E+00        -0.48644E+08
 
   -0.49628E+08        -0.11409E+06         0.00000E+00
   -0.11409E+06        -0.60002E+08         0.00000E+00
    0.00000E+00         0.00000E+00        -0.48613E+08
 
   -0.49481E+08        -0.14284E+06         0.00000E+00
   -0.14284E+06        -0.59996E+08         0.00000E+00
    0.00000E+00         0.00000E+00        -0.48582E+08
 
   -0.49354E+08        -0.14903E+06         0.00000E+00
   -0.14903E+06        -0.59981E+08         0.00000E+00
    0.00000E+00         0.00000E+00        -0.48554E+08
 
   -0.49245E+08        -0.14247E+06         0.00000E+00
   -0.14247E+06        -0.59962E+08         0.00000E+00
    0.00000E+00         0.00000E+00        -0.48528E+08
 
   -0.49150E+08        -0.12860E+06         0.00000E+00
   -0.12860E+06        -0.59940E+08         0.00000E+00
    0.00000E+00         0.00000E+00        -0.48505E+08
 
   -0.49067E+08        -0.11006E+06         0.00000E+00
   -0.11006E+06        -0.59920E+08         0.00000E+00
    0.00000E+00         0.00000E+00        -0.48484E+08
 
   -0.48989E+08        -0.87905E+05         0.00000E+00
   -0.87905E+05        -0.59902E+08         0.00000E+00
    0.00000E+00         0.00000E+00        -0.48465E+08
 
   -0.48915E+08        -0.62299E+05         0.00000E+00
   -0.62299E+05        -0.59890E+08         0.00000E+00
    0.00000E+00         0.00000E+00        -0.48447E+08
 
   -0.48841E+08        -0.32646E+05         0.00000E+00
   -0.32646E+05        -0.59883E+08         0.00000E+00
    0.00000E+00         0.00000E+00        -0.48431E+08
 
   -0.48764E+08         0.24688E+04         0.00000E+00
    0.24688E+04        -0.59884E+08         0.00000E+00
    0.00000E+00         0.00000E+00        -0.48416E+08
 
   -0.48681E+08         0.45638E+05         0.00000E+00
    0.45638E+05        -0.59894E+08         0.00000E+00
    0.00000E+00         0.00000E+00        -0.48401E+08
 
   -0.48592E+08         0.10138E+06         0.00000E+00
    0.10138E+06        -0.59915E+08         0.00000E+00
    0.00000E+00         0.00000E+00        -0.48388E+08
 
   -0.48497E+08         0.17661E+06         0.00000E+00
    0.17661E+06        -0.59945E+08         0.00000E+00
    0.00000E+00         0.00000E+00        -0.48375E+08
 
   -0.48403E+08         0.27939E+06         0.00000E+00
    0.27939E+06        -0.59983E+08         0.00000E+00
    0.00000E+00         0.00000E+00        -0.48364E+08
 
   -0.49872E+08        -0.51156E+05         0.00000E+00
   -0.51156E+05        -0.60000E+08         0.00000E+00
    0.00000E+00         0.00000E+00        -0.48561E+08
 
   -0.49668E+08        -0.10813E+06         0.00000E+00
   -0.10813E+06        -0.59995E+08         0.00000E+00
    0.00000E+00         0.00000E+00        -0.48519E+08
 
   -0.49492E+08        -0.12548E+06         0.00000E+00
   -0.12548E+06        -0.59976E+08         0.00000E+00
    0.00000E+00         0.00000E+00        -0.48480E+08
 
   -0.49350E+08        -0.12433E+06         0.00000E+00
   -0.12433E+06        -0.59947E+08         0.00000E+00
    0.00000E+00         0.00000E+00        -0.48446E+08
 
   -0.49234E+08        -0.11521E+06         0.00000E+00
   -0.11521E+06        -0.59914E+08         0.00000E+00
    0.00000E+00         0.00000E+00        -0.48416E+08
 
   -0.49135E+08        -0.10212E+06         0.00000E+00
   -0.10212E+06        -0.59881E+08         0.00000E+00
    0.00000E+00         0.00000E+00        -0.48390E+08
 
   -0.49048E+08        -0.86587E+05         0.00000E+00
   -0.86587E+05        -0.59852E+08         0.00000E+00
    0.00000E+00         0.00000E+00        -0.48366E+08
 
   -0.48968E+08        -0.69116E+05         0.00000E+00
   -0.69116E+05        -0.59827E+08         0.00000E+00
    0.00000E+00         0.00000E+00        -0.48345E+08
 
   -0.48891E+08        -0.49596E+05         0.00000E+00
   -0.49596E+05        -0.59808E+08         0.00000E+00
    0.00000E+00         0.00000E+00        -0.48326E+08
 
   -0.48813E+08        -0.27433E+05         0.00000E+00
   -0.27433E+05        -0.59797E+08         0.00000E+00
    0.00000E+00         0.00000E+00        -0.48308E+08
 
   -0.48730E+08        -0.14148E+04         0.00000E+00
   -0.14148E+04        -0.59795E+08         0.00000E+00
    0.00000E+00         0.00000E+00        -0.48291E+08
 
   -0.48639E+08         0.30724E+05         0.00000E+00
    0.30724E+05        -0.59803E+08         0.00000E+00
    0.00000E+00         0.00000E+00        -0.48275E+08
 
   -0.48534E+08         0.73379E+05         0.00000E+00
    0.73379E+05        -0.59825E+08         0.00000E+00
    0.00000E+00         0.00000E+00        -0.48258E+08
 
   -0.48414E+08         0.13586E+06         0.00000E+00
    0.13586E+06        -0.59863E+08         0.00000E+00
    0.00000E+00         0.00000E+00        -0.48242E+08
 
   -0.48284E+08         0.23273E+06         0.00000E+00
    0.23273E+06        -0.59915E+08         0.00000E+00
    0.00000E+00         0.00000E+00        -0.48226E+08
 
   -0.49954E+08        -0.49696E+05         0.00000E+00
   -0.49696E+05        -0.59998E+08         0.00000E+00
    0.00000E+00         0.00000E+00        -0.48473E+08
 
   -0.49692E+08        -0.86926E+05         0.00000E+00
   -0.86926E+05        -0.59978E+08         0.00000E+00
    0.00000E+00         0.00000E+00        -0.48417E+08
 
   -0.49494E+08        -0.89629E+05         0.00000E+00
   -0.89629E+05        -0.59936E+08         0.00000E+00
    0.00000E+00         0.00000E+00        -0.48368E+08
 
   -0.49343E+08        -0.84061E+05         0.00000E+00
   -0.84061E+05        -0.59889E+08         0.00000E+00
    0.00000E+00         0.00000E+00        -0.48329E+08
 
   -0.49223E+08        -0.75693E+05         0.00000E+00
   -0.75693E+05        -0.59842E+08         0.00000E+00
    0.00000E+00         0.00000E+00        -0.48296E+08
 
   -0.49123E+08        -0.66037E+05         0.00000E+00
   -0.66037E+05        -0.59800E+08         0.00000E+00
    0.00000E+00         0.00000E+00        -0.48267E+08
 
   -0.49034E+08        -0.55555E+05         0.00000E+00
   -0.55555E+05        -0.59763E+08         0.00000E+00
    0.00000E+00         0.00000E+00        -0.48242E+08
 
   -0.48953E+08        -0.44290E+05         0.00000E+00
   -0.44290E+05        -0.59732E+08         0.00000E+00
    0.00000E+00         0.00000E+00        -0.48219E+08
 
   -0.48874E+08        -0.32041E+05         0.00000E+00
   -0.32041E+05        -0.59709E+08         0.00000E+00
    0.00000E+00         0.00000E+00        -0.48199E+08
 
   -0.48794E+08        -0.18367E+05         0.00000E+00
   -0.18367E+05        -0.59693E+08         0.00000E+00
    0.00000E+00         0.00000E+00        -0.48180E+08
 
   -0.48707E+08        -0.24763E+04         0.00000E+00
   -0.24763E+04        -0.59688E+08         0.00000E+00
    0.00000E+00         0.00000E+00        -0.48161E+08
 
   -0.48609E+08         0.17102E+05         0.00000E+00
    0.17102E+05        -0.59694E+08         0.00000E+00
    0.00000E+00         0.00000E+00        -0.48143E+08
 
   -0.48493E+08         0.43382E+05         0.00000E+00
    0.43382E+05        -0.59715E+08         0.00000E+00
    0.00000E+00         0.00000E+00        -0.48124E+08
 
   -0.48346E+08         0.83972E+05         0.00000E+00
    0.83972E+05        -0.59757E+08         0.00000E+00
    0.00000E+00         0.00000E+00        -0.48103E+08
 
   -0.48167E+08         0.16402E+06         0.00000E+00
    0.16402E+06        -0.59828E+08         0.00000E+00
    0.00000E+00         0.00000E+00        -0.48082E+08
 
   -0.50013E+08        -0.31239E+05         0.00000E+00
   -0.31239E+05        -0.59977E+08         0.00000E+00
    0.00000E+00         0.00000E+00        -0.48373E+08
 
   -0.49696E+08        -0.35886E+05         0.00000E+00
   -0.35886E+05        -0.59920E+08         0.00000E+00
    0.00000E+00         0.00000E+00        -0.48298E+08
 
   -0.49490E+08        -0.33099E+05         0.00000E+00
   -0.33099E+05        -0.59856E+08         0.00000E+00
    0.00000E+00         0.00000E+00        -0.48244E+08
 
   -0.49338E+08        -0.29930E+05         0.00000E+00
   -0.29930E+05        -0.59795E+08         0.00000E+00
    0.00000E+00         0.00000E+00        -0.48201E+08
 
   -0.49217E+08        -0.26475E+05         0.00000E+00
   -0.26475E+05        -0.59739E+08         0.00000E+00
    0.00000E+00         0.00000E+00        -0.48166E+08
 
   -0.49116E+08        -0.22886E+05         0.00000E+00
   -0.22886E+05        -0.59691E+08         0.00000E+00
    0.00000E+00         0.00000E+00        -0.48136E+08
 
   -0.49027E+08        -0.19165E+05         0.00000E+00
   -0.19165E+05        -0.59649E+08         0.00000E+00
    0.00000E+00         0.00000E+00        -0.48110E+08
 
   -0.48945E+08        -0.15265E+05         0.00000E+00
   -0.15265E+05        -0.59615E+08         0.00000E+00
    0.00000E+00         0.00000E+00        -0.48087E+08
 
   -0.48865E+08        -0.11087E+05         0.00000E+00
   -0.11087E+05        -0.59589E+08         0.00000E+00
    0.00000E+00         0.00000E+00        -0.48066E+08
 
   -0.48784E+08        -0.64705E+04         0.00000E+00
   -0.64705E+04        -0.59572E+08         0.00000E+00
    0.00000E+00         0.00000E+00        -0.48046E+08
 
   -0.48695E+08        -0.11425E+04         0.00000E+00
   -0.11425E+04        -0.59565E+08         0.00000E+00
    0.00000E+00         0.00000E+00        -0.48027E+08
 
   -0.48594E+08         0.53858E+04         0.00000E+00
    0.53858E+04        -0.59569E+08         0.00000E+00
    0.00000E+00         0.00000E+00        -0.48007E+08
 
   -0.48471E+08         0.14173E+05         0.00000E+00
    0.14173E+05        -0.59589E+08         0.00000E+00
    0.00000E+00         0.00000E+00        -0.47987E+08
 
   -0.48311E+08         0.27619E+05         0.00000E+00
    0.27619E+05        -0.59630E+08         0.00000E+00
    0.00000E+00         0.00000E+00        -0.47963E+08
 
   -0.48065E+08         0.61508E+05         0.00000E+00
    0.61508E+05        -0.59714E+08         0.00000E+00
    0.00000E+00         0.00000E+00        -0.47931E+08
 
SCALARS stressS double 
LOOKUP_TABLE default
  -52938631.8685680     
  -52971647.0546779     
  -53002800.2279457     
  -53032139.6249050     
  -53059724.5827829     
  -53085623.1365542     
  -53109909.7281975     
  -53132663.0664875     
  -53153964.1696324     
  -53173894.6182393     
  -53192535.0424046     
  -53209963.8640466     
  -53226256.3136960     
  -53241483.7395632     
  -53255713.2254223     
  -52937493.1585750     
  -52970470.3954824     
  -53001572.1902930     
  -53030849.2650264     
  -53058363.3721611     
  -53084184.8466842     
  -53108390.2775787     
  -53131060.3358724     
  -53152277.7903279     
  -53172125.7370858     
  -53190686.0660221     
  -53208038.1841169     
  -53224258.0145321     
  -53239417.2890642     
  -53253583.1507808     
  -52935231.2825975     
  -52968130.1047102     
  -52999126.6468505     
  -53028276.6548945     
  -53055646.7562914     
  -53081311.9232575     
  -53105353.0699642     
  -53127854.8183554     
  -53148903.4611482     
  -53168585.1459017     
  -53186984.3007590     
  -53204182.3204380     
  -53220256.5300563     
  -53235279.4440977     
  -53249318.3378403     
  -52931877.3670666     
  -52964652.2141012     
  -52995484.5854338     
  -53024437.8939052     
  -53051586.1894144     
  -53077011.4917701     
  -53100801.2795869     
  -53123046.1659731     
  -53143837.7855865     
  -53163266.9131065     
  -53181421.8302683     
  -53198386.9572359     
  -53214241.7640379     
  -53229059.9786922     
  -53242909.1100305     
  -52927478.1872387     
  -52960075.7029421     
  -52990677.2894651     
  -53019356.8241923     
  -53046198.4555900     
  -53071293.7679194     
  -53094739.1318143     
  -53116633.2659975     
  -53137075.0290815     
  -53156161.4559885     
  -53173986.0510962     
  -53190637.3497211     
  -53206197.7607870     
  -53220742.7061032     
  -53234340.0750289     
  -52922096.2404561     
  -52954452.3890554     
  -52984746.0760041     
  -53013064.6416844     
  -53039505.1750118     
  -53064171.4773778     
  -53087171.2504353     
  -53108613.5257488     
  -53128606.3476823     
  -53147254.7165174     
  -53164658.7968662     
  -53180912.3970241     
  -53196101.7278209     
  -53210304.4543542     
  -53223589.0600398     
  -52915809.7939090     
  -52947846.7378256     
  -52977741.9060146     
  -53005599.3429148     
  -53031532.1174461     
  -53055659.0603107     
  -53078101.7718527     
  -53098981.9092551     
  -53118418.7545957     
  -53136527.0606863     
  -53153415.1701238     
  -53169183.4047924     
  -53183922.7280795     
  -53197713.6898219     
  -53210625.6736798     
  -52908712.8626063     
  -52940335.5490406     
  -52969724.8313625     
  -52997004.9773502     
  -53022308.2982655     
  -53045771.6420783     
  -53067533.2135657     
  -53087729.7186950     
  -53106493.8222515     
  -53123951.9023876     
  -53140222.0844438     
  -53155412.5395231     
  -53169620.0408920     
  -53182928.7828268     
  -53195409.4809917     
  -52900915.0605775     
  -52932007.4700065     
  -52960763.2331228     
  -52987330.6666245     
  -53011864.8259490     
  -53034523.7469764     
  -53055465.0819403     
  -53074843.1133891     
  -53092806.1193983     
  -53109494.0563592     
  -53125036.5239782     
  -53139550.9815225     
  -53153141.1950415     
  -53165895.9116852     
  -53177887.7780229     
  -52892541.2549848     
  -52922962.2714347     
  -52950932.7951294     
  -52976629.3429628     
  -53000233.4627397     
  -53021927.7270709     
  -53041892.2021978     
  -53060301.3599406     
  -53077321.3863594     
  -53093107.8307053     
  -53107803.5351907     
  -53121536.7915657     
  -53134419.6848810     
  -53146546.6074433     
  -53157992.9550598     
  -52883730.9391980     
  -52913309.8100378     
  -52940315.1451025     
  -52964956.1487994     
  -52987444.8518941     
  -53007991.8727311     
  -53026802.7516038     
  -53044074.8090607     
  -53059994.4573701     
  -53074734.8786498     
  -53088453.9771321     
  -53101292.5190910     
  -53113372.3928303     
  -53124794.9518206     
  -53135639.4441731     
  -52874637.2276583     
  -52903168.5887077     
  -52928996.0826710     
  -52952366.4273474     
  -52973526.3547130     
  -52992718.1646286     
  -53010175.9745885     
  -53026122.5976745     
  -53040766.9473841     
  -53054301.8424949     
  -53066902.0735720     
  -53078722.5987005     
  -53089896.7604588     
  -53100534.4574938     
  -53110720.2588139     
  -52865425.3636348     
  -52892663.8116157     
  -52917063.2983402     
  -52938913.2182799     
  -52958499.4268052     
  -52976099.6174336     
  -52991979.5551834     
  -53006390.0789654     
  -53019564.7324747     
  -53031717.8414442     
  -53043042.8343757     
  -53053710.6089422     
  -53063867.7780156     
  -53073634.6850402     
  -53083103.1529683     
  -52856270.6223473     
  -52881924.8173561     
  -52904603.4682886     
  -52924644.1512775     
  -52942376.4431981     
  -52958117.1510799     
  -52972166.6164375     
  -52984805.9878283     
  -52996295.2687207     
  -53006871.8806846     
  -53016749.4470269     
  -53026116.5056005     
  -53035134.9016767     
  -53043937.6876418     
  -53052626.4577307     
  -52847355.4884060     
  -52871081.7574119     
  -52891698.5836864     
  -52909597.5987579     
  -52925156.8517594     
  -52938735.9029201     
  -52950672.3063997     
  -52961279.3543645     
  -52970844.8153709     
  -52979630.2942105     
  -52987870.7853386     
  -52995773.9946985     
  -53003519.0628317     
  -53011254.4268699     
  -53019094.6977780     
  -52838865.9903544     
  -52860261.3672092     
  -52878421.3341734     
  -52893797.9004150     
  -52906822.4871029     
  -52917900.8582249     
  -52927409.9130435     
  -52935696.1831927     
  -52943075.6558366     
  -52949834.3816737     
  -52956229.2455840     
  -52962488.2830755     
  -52968810.0094301     
  -52975361.3753131     
  -52982274.1536274     
  -52830987.0880153     
  -52849581.6469561     
  -52864829.3025215     
  -52877249.3940950     
  -52887331.8020148     
  -52895531.6198353     
  -52902266.4225595     
  -52907915.9214713     
  -52912823.4475826     
  -52917298.4650121     
  -52921619.2067295     
  -52926034.5434322     
  -52930764.3222270     
  -52935997.6202552     
  -52941888.6228271     
  -52823897.0300278     
  -52839145.2168342     
  -52850957.6219896     
  -52859928.8597952     
  -52866612.6539961     
  -52871516.0500772     
  -52875097.3928325     
  -52877767.7448862     
  -52879894.8841914     
  -52881808.6811004     
  -52883806.5299449     
  -52886157.5653603     
  -52889104.5872411     
  -52892862.9139487     
  -52897615.7493801     
  -52817760.6237613     
  -52829031.0105927     
  -52836809.5646046     
  -52841775.7726703     
  -52844553.0963178     
  -52845702.3865434     
  -52845720.9540771     
  -52845046.7026839     
  -52844065.9279151     
  -52843122.9526962     
  -52842529.6753558     
  -52842573.2470686     
  -52843520.3917314     
  -52845617.2886943     
  -52849084.4397125     
  -52812721.3702702     
  -52819283.7728603     
  -52822344.2044875     
  -52822679.4117322     
  -52820989.3314055     
  -52817889.2455992     
  -52813910.6747240     
  -52809509.7906458     
  -52805080.9813911     
  -52800972.7553081     
  -52797503.2373349     
  -52794972.8332730     
  -52793672.0626689     
  -52793883.0809684     
  -52795874.0668598     
  -52808892.3713878     
  -52809900.4282838     
  -52807459.7192786     
  -52802461.2924809     
  -52795689.5449862     
  -52787812.6809475     
  -52779386.9626092     
  -52770872.0869801     
  -52762653.5294499     
  -52755067.5356855     
  -52748425.0030763     
  -52743031.1512744     
  -52739198.4163785     
  -52737250.5096411     
  -52737516.3813001     
  -52806345.7212251     
  -52800811.5914403     
  -52791969.8336094     
  -52780850.4352466     
  -52768331.7078640     
  -52755129.1949020     
  -52741806.6698987     
  -52728803.2339509     
  -52716469.0080800     
  -52705102.9405733     
  -52694988.0365855     
  -52686420.5870127     
  -52679730.2974268     
  -52675288.3797620     
  -52673501.2962763     
  -52805099.5522860     
  -52791854.8448931     
  -52775568.9378577     
  -52757447.4041203     
  -52738472.6096030     
  -52719393.4530019     
  -52700750.7904845     
  -52682924.8470598     
  -52666190.9355385     
  -52650774.3238511     
  -52636899.7825332     
  -52624833.2389151     
  -52614912.5041144     
  -52607562.1493021     
  -52603288.0236079     
  -52805100.5223367     
  -52782732.9522542     
  -52757777.6099189     
  -52731670.5039329     
  -52705504.5708972     
  -52680029.8660363     
  -52655710.9242080     
  -52632809.9906547     
  -52611471.5221528     
  -52591797.1607959     
  -52573910.6196940     
  -52558014.7812261     
  -52544438.0738597     
  -52533662.8808985     
  -52526323.4608091     
  -52806196.2600662     
  -52772942.2457666     
  -52737852.7519860     
  -52702673.6089029     
  -52668596.3558078     
  -52636299.3407445     
  -52606077.1827185     
  -52577986.6830529     
  -52551967.7868525     
  -52527935.2436811     
  -52505854.6342869     
  -52485814.8526739     
  -52468101.9722398     
  -52453253.0034921     
  -52442070.8308533     
  -52808082.4417379     
  -52761637.8520918     
  -52714630.5418967     
  -52669220.5671638     
  -52626619.1091124     
  -52587268.6215260     
  -52551134.4521816     
  -52517948.3129402     
  -52487362.3031248     
  -52459035.6777085     
  -52432702.7766810     
  -52408262.5358861     
  -52385885.3078646     
  -52366142.8296042     
  -52350053.0094811     
  -52810185.4553622     
  -52747346.1677330     
  -52686239.9530545     
  -52629503.3963335     
  -52578075.0790053     
  -52531805.5435640     
  -52490078.1561411     
  -52452174.1467304     
  -52417385.4609948     
  -52385059.1742731     
  -52354628.2036756     
  -52325667.7439791     
  -52298105.0305809     
  -52272418.8524437     
  -52249929.2126294     
  -52811293.4975968     
  -52727296.1392480     
  -52649565.5867512     
  -52580935.9592733     
  -52521116.3698355     
  -52468630.7916218     
  -52422063.4881348     
  -52380161.9290223     
  -52341831.8399390     
  -52306091.7540886     
  -52272029.3648709     
  -52238792.1838854     
  -52205625.7503414     
  -52172763.0121363     
  -52141604.0037070     
  -52808405.0073610     
  -52695454.2926373     
  -52599415.8540540     
  -52520347.2680641     
  -52453719.9255021     
  -52396461.0015232     
  -52346293.3872200     
  -52301471.1980992     
  -52260565.1852154     
  -52222312.5225946     
  -52185489.7526741     
  -52148773.6175011     
  -52110620.4805051     
  -52068816.9618562     
  -52025792.8833172     
  -52787881.5865365     
  -52637978.8261304     
  -52530022.7930534     
  -52444577.8641156     
  -52374097.7251710     
  -52314227.9684999     
  -52262135.6291184     
  -52215771.1117391     
  -52173508.8986163     
  -52133922.6044626     
  -52095598.6835310     
  -52056914.5630273     
  -52015627.4339729     
  -51968018.7254912     
  -51903113.7538108     
SCALARS 2waySource double 
LOOKUP_TABLE default
 -3.812170380425796E-004
 -3.809324840799920E-004
 -3.806708220774469E-004
 -3.804302184840182E-004
 -3.802088987075433E-004
 -3.800051509079647E-004
 -3.798173292600533E-004
 -3.796438565643514E-004
 -3.794832261150807E-004
 -3.793340027562987E-004
 -3.791948230734869E-004
 -3.790643946766651E-004
 -3.789414945341619E-004
 -3.788249663140183E-004
 -3.787137166839599E-004
 -3.812307722135350E-004
 -3.809473039254406E-004
 -3.806866930405088E-004
 -3.804471036149336E-004
 -3.802267587685515E-004
 -3.800239445677626E-004
 -3.798370133692874E-004
 -3.796643865034465E-004
 -3.795045562052397E-004
 -3.793560867245265E-004
 -3.792176145625547E-004
 -3.790878477917587E-004
 -3.789655644195409E-004
 -3.788496097553879E-004
 -3.787388927353923E-004
 -3.812522117637359E-004
 -3.809710099267557E-004
 -3.807126152561949E-004
 -3.804751837109746E-004
 -3.802569307503562E-004
 -3.800561354833027E-004
 -3.798711442342686E-004
 -3.797003734102969E-004
 -3.795423115839952E-004
 -3.793955207298362E-004
 -3.792586365673361E-004
 -3.791303679743527E-004
 -3.790094954372488E-004
 -3.788948685030672E-004
 -3.787854021926254E-004
 -3.812811247690404E-004
 -3.810033869104288E-004
 -3.807483901148246E-004
 -3.805142761238966E-004
 -3.802992470080500E-004
 -3.801015697521418E-004
 -3.799195801769424E-004
 -3.797516860943801E-004
 -3.795963696238198E-004
 -3.794521886198006E-004
 -3.793177771771191E-004
 -3.791918451886039E-004
 -3.790731769335033E-004
 -3.789606286710551E-004
 -3.788531252052959E-004
 -3.813171717219677E-004
 -3.810441214701222E-004
 -3.807937299082587E-004
 -3.805641177979249E-004
 -3.803534675519844E-004
 -3.801600284129726E-004
 -3.799821208502466E-004
 -3.798181400937467E-004
 -3.796665587515190E-004
 -3.795259284809271E-004
 -3.793948806988790E-004
 -3.792721263246889E-004
 -3.791564545505429E-004
 -3.790467306283127E-004
 -3.789418926490159E-004
 -3.813599059307775E-004
 -3.810928032451923E-004
 -3.808482598607568E-004
 -3.806243679392639E-004
 -3.804192832565067E-004
 -3.802312311093541E-004
 -3.800585112877396E-004
 -3.798995020565035E-004
 -3.797526631213865E-004
 -3.796165375758641E-004
 -3.794897528409782E-004
 -3.793710206178522E-004
 -3.792591358718802E-004
 -3.791529748577204E-004
 -3.790514921761639E-004
 -3.814087742741337E-004
 -3.811489268304922E-004
 -3.809115210158797E-004
 -3.806946117219637E-004
 -3.804963202481812E-004
 -3.803148410456816E-004
 -3.801484473351548E-004
 -3.799954955780669E-004
 -3.798544288097720E-004
 -3.797237788660042E-004
 -3.796021675502215E-004
 -3.794883067968857E-004
 -3.793809978827996E-004
 -3.792791297246619E-004
 -3.791816762749953E-004
 -3.814631185251636E-004
 -3.812118945126177E-004
 -3.809829741532446E-004
 -3.807743651811892E-004
 -3.805841456002698E-004
 -3.804104713372998E-004
 -3.802515825411603E-004
 -3.801058085483463E-004
 -3.799715715646341E-004
 -3.798473891372958E-004
 -3.797318755111366E-004
 -3.796237419702364E-004
 -3.795217962634850E-004
 -3.794249411924071E-004
 -3.793321724045334E-004
 -3.815221775215147E-004
 -3.812810200829697E-004
 -3.810620049569620E-004
 -3.808630814851055E-004
 -3.806822744926157E-004
 -3.805176928804781E-004
 -3.803675365987344E-004
 -3.802301020669861E-004
 -3.801037861384137E-004
 -3.799870887338629E-004
 -3.798786142972131E-004
 -3.797770722366129E-004
 -3.796812765124659E-004
 -3.795901445078858E-004
 -3.795026952699915E-004
 -3.815850905243851E-004
 -3.813555340357728E-004
 -3.811479307076614E-004
 -3.809601588196113E-004
 -3.807901790305732E-004
 -3.806360438920719E-004
 -3.804959054412338E-004
 -3.803680209846713E-004
 -3.802507572194805E-004
 -3.801425928792891E-004
 -3.800421201307265E-004
 -3.799480449691045E-004
 -3.798591868610662E-004
 -3.797744778510371E-004
 -3.796929612854813E-004
 -3.816509021778702E-004
 -3.814345905190485E-004
 -3.812400088239549E-004
 -3.810649501673023E-004
 -3.809072989553969E-004
 -3.807650412961854E-004
 -3.806362731094250E-004
 -3.805192061235142E-004
 -3.804121719543728E-004
 -3.803136245260460E-004
 -3.802221411550345E-004
 -3.801364226617114E-004
 -3.800552928784733E-004
 -3.799776978867253E-004
 -3.799027052316123E-004
 -3.817185695455804E-004
 -3.815172764669839E-004
 -3.813374476370415E-004
 -3.811767753172557E-004
 -3.810330545262870E-004
 -3.809041941691542E-004
 -3.807882255204823E-004
 -3.806833082200916E-004
 -3.805877340179993E-004
 -3.804999286142825E-004
 -3.804184520448148E-004
 -3.803419981363765E-004
 -3.802693935732594E-004
 -3.801995970715713E-004
 -3.801316990467188E-004
 -3.817869717589825E-004
 -3.816026234016552E-004
 -3.814394198484092E-004
 -3.812949355114329E-004
 -3.811668619184223E-004
 -3.810530195022439E-004
 -3.809513662911350E-004
 -3.808600036216918E-004
 -3.807771791389003E-004
 -3.807012875360111E-004
 -3.806308696658795E-004
 -3.805646107763875E-004
 -3.805013386585522E-004
 -3.804400224367690E-004
 -3.803797725802528E-004
 -3.818549228506611E-004
 -3.816896224498705E-004
 -3.815450792011510E-004
 -3.814187312295627E-004
 -3.813081515761003E-004
 -3.812110606154237E-004
 -3.811253348024806E-004
 -3.810490117514327E-004
 -3.809802919171906E-004
 -3.809175374806186E-004
 -3.808592693351336E-004
 -3.808041632637734E-004
 -3.807510464495187E-004
 -3.806988953764502E-004
 -3.806468359706890E-004
 -3.819211883527942E-004
 -3.817772431787895E-004
 -3.816535810059242E-004
 -3.815474837591888E-004
 -3.814563901092866E-004
 -3.813779086749273E-004
 -3.813098267551091E-004
 -3.812501143428659E-004
 -3.811969236776088E-004
 -3.811485851690820E-004
 -3.811036010048542E-004
 -3.810606380346553E-004
 -3.810185215827796E-004
 -3.809762316999765E-004
 -3.809329030693036E-004
 -3.819845062000710E-004
 -3.818644569203153E-004
 -3.817641073309558E-004
 -3.816805614313564E-004
 -3.816111065650578E-004
 -3.815532279626116E-004
 -3.815046175653885E-004
 -3.814631764300986E-004
 -3.814270109660914E-004
 -3.813944242463422E-004
 -3.813639043791709E-004
 -3.813341123008440E-004
 -3.813038713625887E-004
 -3.812721608311614E-004
 -3.812381149923173E-004
 -3.820436123686242E-004
 -3.819502653537358E-004
 -3.818758979485676E-004
 -3.818174117952765E-004
 -3.817719243087378E-004
 -3.817367858627977E-004
 -3.817095891176904E-004
 -3.816881690602139E-004
 -3.816705941032536E-004
 -3.816551502615335E-004
 -3.816403215280217E-004
 -3.816247699839269E-004
 -3.816073190158861E-004
 -3.815869425291130E-004
 -3.815627624224200E-004
 -3.820972714948447E-004
 -3.820337353037664E-004
 -3.819882886329560E-004
 -3.819576016793352E-004
 -3.819386004182119E-004
 -3.819284890381914E-004
 -3.819247606324170E-004
 -3.819251936520903E-004
 -3.819278349081499E-004
 -3.819309726709702E-004
 -3.819331049438536E-004
 -3.819329082233618E-004
 -3.819292114383942E-004
 -3.819209788315909E-004
 -3.819073046695702E-004
 -3.821443124523116E-004
 -3.821140411057311E-004
 -3.821007593209782E-004
 -3.821008682526207E-004
 -3.821110755961582E-004
 -3.821284280484405E-004
 -3.821503247426962E-004
 -3.821745078082644E-004
 -3.821990322229778E-004
 -3.822222215685578E-004
 -3.822426181167232E-004
 -3.822589351936117E-004
 -3.822700180884309E-004
 -3.822748180447435E-004
 -3.822723827173606E-004
 -3.821836685629064E-004
 -3.821905167343936E-004
 -3.822129963466222E-004
 -3.822471862255020E-004
 -3.822895393920257E-004
 -3.823369338164888E-004
 -3.823866902513437E-004
 -3.824365520770266E-004
 -3.824846330699106E-004
 -3.825293457637429E-004
 -3.825693244914929E-004
 -3.826033547218462E-004
 -3.826303164716670E-004
 -3.826491464733833E-004
 -3.826588225026532E-004
 -3.822144219025814E-004
 -3.822627216843546E-004
 -3.823249761386644E-004
 -3.823968598473933E-004
 -3.824745183592878E-004
 -3.825546509106747E-004
 -3.826345332902603E-004
 -3.827119764221587E-004
 -3.827852359473424E-004
 -3.828528972426983E-004
 -3.829137590057756E-004
 -3.829667315454402E-004
 -3.830107580601704E-004
 -3.830447621198015E-004
 -3.830676234679480E-004
 -3.822358513287666E-004
 -3.823305283629056E-004
 -3.824370838228945E-004
 -3.825506544852274E-004
 -3.826669990868741E-004
 -3.827826343739071E-004
 -3.828948582309611E-004
 -3.830016635395526E-004
 -3.831015806765929E-004
 -3.831934948348791E-004
 -3.832764742149760E-004
 -3.833496288445716E-004
 -3.834120063376118E-004
 -3.834625225651788E-004
 -3.834999258920670E-004
 -3.822474850049325E-004
 -3.823942468484247E-004
 -3.825502919784470E-004
 -3.827099932600707E-004
 -3.828686040493162E-004
 -3.830224777690196E-004
 -3.831690674682937E-004
 -3.833067429868180E-004
 -3.834345161901099E-004
 -3.835517572311679E-004
 -3.836579502223821E-004
 -3.837525068072431E-004
 -3.838346354569054E-004
 -3.839032562606457E-004
 -3.839569482548477E-004
 -3.822491619539892E-004
 -3.824548206863220E-004
 -3.826664489835558E-004
 -3.828772626328375E-004
 -3.830818447419554E-004
 -3.832764768573292E-004
 -3.834590324548295E-004
 -3.836285845746315E-004
 -3.837849345494437E-004
 -3.839281929396012E-004
 -3.840584549128669E-004
 -3.841755664377622E-004
 -3.842789732923605E-004
 -3.843676207217234E-004
 -3.844398821407673E-004
 -3.822411160106761E-004
 -3.825141711388916E-004
 -3.827887775654887E-004
 -3.830563013254570E-004
 -3.833104766405174E-004
 -3.835478163719451E-004
 -3.837671424264381E-004
 -3.839687522634954E-004
 -3.841536587076035E-004
 -3.843230366125704E-004
 -3.844778368345305E-004
 -3.846185182665162E-004
 -3.847448608440951E-004
 -3.848558823035796E-004
 -3.849497221610126E-004
 -3.822241290718362E-004
 -3.825758772339804E-004
 -3.829228035476232E-004
 -3.832531849452552E-004
 -3.835599457941996E-004
 -3.838407174344484E-004
 -3.840962757129417E-004
 -3.843288962383141E-004
 -3.845412842844881E-004
 -3.847360275896469E-004
 -3.849152421698493E-004
 -3.850802312448678E-004
 -3.852312938615314E-004
 -3.853675546196404E-004
 -3.854869933175462E-004
 -3.821998643330948E-004
 -3.826467604231009E-004
 -3.830781805722610E-004
 -3.834774030563466E-004
 -3.838377682177886E-004
 -3.841603567933968E-004
 -3.844496172084958E-004
 -3.847105696829249E-004
 -3.849480028966879E-004
 -3.851661882353792E-004
 -3.853687211162158E-004
 -3.855582580054786E-004
 -3.857357809857314E-004
 -3.859008576141453E-004
 -3.860512230430347E-004
 -3.821722571933318E-004
 -3.827409823036418E-004
 -3.832724042640876E-004
 -3.837430910473014E-004
 -3.841531044317889E-004
 -3.845123475322515E-004
 -3.848302544461293E-004
 -3.851149879386277E-004
 -3.853734792145293E-004
 -3.856117181989076E-004
 -3.858349797692883E-004
 -3.860478216359031E-004
 -3.862536283210728E-004
 -3.864512787748634E-004
 -3.866401243305191E-004
 -3.821524366127689E-004
 -3.828941813545519E-004
 -3.835363527178097E-004
 -3.840666530225464E-004
 -3.845151244367464E-004
 -3.849016460954254E-004
 -3.852405988230641E-004
 -3.855427879896978E-004
 -3.858168604992916E-004
 -3.860702006489118E-004
 -3.863095877825491E-004
 -3.865417400022608E-004
 -3.867735958118037E-004
 -3.870119448601517E-004
 -3.872452584121519E-004
 -3.822207253651743E-004
 -3.831954847548278E-004
 -3.838990911480369E-004
 -3.844614739964457E-004
 -3.849301156307242E-004
 -3.853312646161190E-004
 -3.856818073097338E-004
 -3.859938694985388E-004
 -3.862769468912239E-004
 -3.865391485084363E-004
 -3.867881173556996E-004
 -3.870319766185494E-004
 -3.872806766824112E-004
 -3.875488518286753E-004
 -3.878577130002259E-004
SCALARS poroP double 
LOOKUP_TABLE default
  0.000000000000000E+000
  0.000000000000000E+000
  0.000000000000000E+000
  0.000000000000000E+000
  0.000000000000000E+000
  0.000000000000000E+000
  0.000000000000000E+000
  0.000000000000000E+000
  0.000000000000000E+000
  0.000000000000000E+000
  0.000000000000000E+000
  0.000000000000000E+000
  0.000000000000000E+000
  0.000000000000000E+000
  0.000000000000000E+000
  0.000000000000000E+000
  0.000000000000000E+000
  0.000000000000000E+000
  0.000000000000000E+000
  0.000000000000000E+000
  0.000000000000000E+000
  0.000000000000000E+000
  0.000000000000000E+000
  0.000000000000000E+000
  0.000000000000000E+000
  0.000000000000000E+000
  0.000000000000000E+000
  0.000000000000000E+000
  0.000000000000000E+000
  0.000000000000000E+000
  0.000000000000000E+000
  0.000000000000000E+000
  0.000000000000000E+000
  0.000000000000000E+000
  0.000000000000000E+000
  0.000000000000000E+000
  0.000000000000000E+000
  0.000000000000000E+000
  0.000000000000000E+000
  0.000000000000000E+000
  0.000000000000000E+000
  0.000000000000000E+000
  0.000000000000000E+000
  0.000000000000000E+000
  0.000000000000000E+000
  0.000000000000000E+000
  0.000000000000000E+000
  0.000000000000000E+000
  0.000000000000000E+000
  0.000000000000000E+000
  0.000000000000000E+000
  0.000000000000000E+000
  0.000000000000000E+000
  0.000000000000000E+000
  0.000000000000000E+000
  0.000000000000000E+000
  0.000000000000000E+000
  0.000000000000000E+000
  0.000000000000000E+000
  0.000000000000000E+000
  0.000000000000000E+000
  0.000000000000000E+000
  0.000000000000000E+000
  0.000000000000000E+000
  0.000000000000000E+000
  0.000000000000000E+000
  0.000000000000000E+000
  0.000000000000000E+000
  0.000000000000000E+000
  0.000000000000000E+000
  0.000000000000000E+000
  0.000000000000000E+000
  0.000000000000000E+000
  0.000000000000000E+000
  0.000000000000000E+000
  0.000000000000000E+000
  0.000000000000000E+000
  0.000000000000000E+000
  0.000000000000000E+000
  0.000000000000000E+000
  0.000000000000000E+000
  0.000000000000000E+000
  0.000000000000000E+000
  0.000000000000000E+000
  0.000000000000000E+000
  0.000000000000000E+000
  0.000000000000000E+000
  0.000000000000000E+000
  0.000000000000000E+000
  0.000000000000000E+000
  0.000000000000000E+000
  0.000000000000000E+000
  0.000000000000000E+000
  0.000000000000000E+000
  0.000000000000000E+000
  0.000000000000000E+000
  0.000000000000000E+000
  0.000000000000000E+000
  0.000000000000000E+000
  0.000000000000000E+000
  0.000000000000000E+000
  0.000000000000000E+000
  0.000000000000000E+000
  0.000000000000000E+000
  0.000000000000000E+000
  0.000000000000000E+000
  0.000000000000000E+000
  0.000000000000000E+000
  0.000000000000000E+000
  0.000000000000000E+000
  0.000000000000000E+000
  0.000000000000000E+000
  0.000000000000000E+000
  0.000000000000000E+000
  0.000000000000000E+000
  0.000000000000000E+000
  0.000000000000000E+000
  0.000000000000000E+000
  0.000000000000000E+000
  0.000000000000000E+000
  0.000000000000000E+000
  0.000000000000000E+000
  0.000000000000000E+000
  0.000000000000000E+000
  0.000000000000000E+000
  0.000000000000000E+000
  0.000000000000000E+000
  0.000000000000000E+000
  0.000000000000000E+000
  0.000000000000000E+000
  0.000000000000000E+000
  0.000000000000000E+000
  0.000000000000000E+000
  0.000000000000000E+000
  0.000000000000000E+000
  0.000000000000000E+000
  0.000000000000000E+000
  0.000000000000000E+000
  0.000000000000000E+000
  0.000000000000000E+000
  0.000000000000000E+000
  0.000000000000000E+000
  0.000000000000000E+000
  0.000000000000000E+000
  0.000000000000000E+000
  0.000000000000000E+000
  0.000000000000000E+000
  0.000000000000000E+000
  0.000000000000000E+000
  0.000000000000000E+000
  0.000000000000000E+000
  0.000000000000000E+000
  0.000000000000000E+000
  0.000000000000000E+000
  0.000000000000000E+000
  0.000000000000000E+000
  0.000000000000000E+000
  0.000000000000000E+000
  0.000000000000000E+000
  0.000000000000000E+000
  0.000000000000000E+000
  0.000000000000000E+000
  0.000000000000000E+000
  0.000000000000000E+000
  0.000000000000000E+000
  0.000000000000000E+000
  0.000000000000000E+000
  0.000000000000000E+000
  0.000000000000000E+000
  0.000000000000000E+000
  0.000000000000000E+000
  0.000000000000000E+000
  0.000000000000000E+000
  0.000000000000000E+000
  0.000000000000000E+000
  0.000000000000000E+000
  0.000000000000000E+000
  0.000000000000000E+000
  0.000000000000000E+000
  0.000000000000000E+000
  0.000000000000000E+000
  0.000000000000000E+000
  0.000000000000000E+000
  0.000000000000000E+000
  0.000000000000000E+000
  0.000000000000000E+000
  0.000000000000000E+000
  0.000000000000000E+000
  0.000000000000000E+000
  0.000000000000000E+000
  0.000000000000000E+000
  0.000000000000000E+000
  0.000000000000000E+000
  0.000000000000000E+000
  0.000000000000000E+000
  0.000000000000000E+000
  0.000000000000000E+000
  0.000000000000000E+000
  0.000000000000000E+000
  0.000000000000000E+000
  0.000000000000000E+000
  0.000000000000000E+000
  0.000000000000000E+000
  0.000000000000000E+000
  0.000000000000000E+000
  0.000000000000000E+000
  0.000000000000000E+000
  0.000000000000000E+000
  0.000000000000000E+000
  0.000000000000000E+000
  0.000000000000000E+000
  0.000000000000000E+000
  0.000000000000000E+000
  0.000000000000000E+000
  0.000000000000000E+000
  0.000000000000000E+000
  0.000000000000000E+000
  0.000000000000000E+000
  0.000000000000000E+000
  0.000000000000000E+000
  0.000000000000000E+000
  0.000000000000000E+000
  0.000000000000000E+000
  0.000000000000000E+000
  0.000000000000000E+000
  0.000000000000000E+000
  0.000000000000000E+000
  0.000000000000000E+000
  0.000000000000000E+000
  0.000000000000000E+000
  0.000000000000000E+000
  0.000000000000000E+000
  0.000000000000000E+000
  0.000000000000000E+000
  0.000000000000000E+000
  0.000000000000000E+000
  0.000000000000000E+000
  0.000000000000000E+000
  0.000000000000000E+000
  0.000000000000000E+000
  0.000000000000000E+000
  0.000000000000000E+000
  0.000000000000000E+000
  0.000000000000000E+000
  0.000000000000000E+000
  0.000000000000000E+000
  0.000000000000000E+000
  0.000000000000000E+000
  0.000000000000000E+000
  0.000000000000000E+000
  0.000000000000000E+000
  0.000000000000000E+000
  0.000000000000000E+000
  0.000000000000000E+000
  0.000000000000000E+000
  0.000000000000000E+000
  0.000000000000000E+000
  0.000000000000000E+000
  0.000000000000000E+000
  0.000000000000000E+000
  0.000000000000000E+000
  0.000000000000000E+000
  0.000000000000000E+000
  0.000000000000000E+000
  0.000000000000000E+000
  0.000000000000000E+000
  0.000000000000000E+000
  0.000000000000000E+000
  0.000000000000000E+000
  0.000000000000000E+000
  0.000000000000000E+000
  0.000000000000000E+000
  0.000000000000000E+000
  0.000000000000000E+000
  0.000000000000000E+000
  0.000000000000000E+000
  0.000000000000000E+000
  0.000000000000000E+000
  0.000000000000000E+000
  0.000000000000000E+000
  0.000000000000000E+000
  0.000000000000000E+000
  0.000000000000000E+000
  0.000000000000000E+000
  0.000000000000000E+000
  0.000000000000000E+000
  0.000000000000000E+000
  0.000000000000000E+000
  0.000000000000000E+000
  0.000000000000000E+000
  0.000000000000000E+000
  0.000000000000000E+000
  0.000000000000000E+000
  0.000000000000000E+000
  0.000000000000000E+000
  0.000000000000000E+000
  0.000000000000000E+000
  0.000000000000000E+000
  0.000000000000000E+000
  0.000000000000000E+000
  0.000000000000000E+000
  0.000000000000000E+000
  0.000000000000000E+000
  0.000000000000000E+000
  0.000000000000000E+000
  0.000000000000000E+000
  0.000000000000000E+000
  0.000000000000000E+000
  0.000000000000000E+000
  0.000000000000000E+000
  0.000000000000000E+000
  0.000000000000000E+000
  0.000000000000000E+000
  0.000000000000000E+000
  0.000000000000000E+000
  0.000000000000000E+000
  0.000000000000000E+000
  0.000000000000000E+000
  0.000000000000000E+000
  0.000000000000000E+000
  0.000000000000000E+000
  0.000000000000000E+000
  0.000000000000000E+000
  0.000000000000000E+000
  0.000000000000000E+000
  0.000000000000000E+000
  0.000000000000000E+000
  0.000000000000000E+000
  0.000000000000000E+000
  0.000000000000000E+000
  0.000000000000000E+000
  0.000000000000000E+000
  0.000000000000000E+000
  0.000000000000000E+000
  0.000000000000000E+000
  0.000000000000000E+000
  0.000000000000000E+000
  0.000000000000000E+000
  0.000000000000000E+000
  0.000000000000000E+000
  0.000000000000000E+000
  0.000000000000000E+000
  0.000000000000000E+000
  0.000000000000000E+000
  0.000000000000000E+000
  0.000000000000000E+000
  0.000000000000000E+000
  0.000000000000000E+000
  0.000000000000000E+000
  0.000000000000000E+000
  0.000000000000000E+000
  0.000000000000000E+000
  0.000000000000000E+000
  0.000000000000000E+000
  0.000000000000000E+000
  0.000000000000000E+000
  0.000000000000000E+000
  0.000000000000000E+000
  0.000000000000000E+000
  0.000000000000000E+000
  0.000000000000000E+000
  0.000000000000000E+000
  0.000000000000000E+000
  0.000000000000000E+000
  0.000000000000000E+000
  0.000000000000000E+000
  0.000000000000000E+000
  0.000000000000000E+000
  0.000000000000000E+000
  0.000000000000000E+000
  0.000000000000000E+000
  0.000000000000000E+000
  0.000000000000000E+000
  0.000000000000000E+000
  0.000000000000000E+000
  0.000000000000000E+000
  0.000000000000000E+000
  0.000000000000000E+000
  0.000000000000000E+000
  0.000000000000000E+000
  0.000000000000000E+000
  0.000000000000000E+000
  0.000000000000000E+000
  0.000000000000000E+000
  0.000000000000000E+000
  0.000000000000000E+000
  0.000000000000000E+000
  0.000000000000000E+000
  0.000000000000000E+000
  0.000000000000000E+000
  0.000000000000000E+000
  0.000000000000000E+000
  0.000000000000000E+000
  0.000000000000000E+000
  0.000000000000000E+000
  0.000000000000000E+000
  0.000000000000000E+000
  0.000000000000000E+000
  0.000000000000000E+000
  0.000000000000000E+000
  0.000000000000000E+000
  0.000000000000000E+000
  0.000000000000000E+000
  0.000000000000000E+000
  0.000000000000000E+000
  0.000000000000000E+000
  0.000000000000000E+000
  0.000000000000000E+000
  0.000000000000000E+000
  0.000000000000000E+000
  0.000000000000000E+000
  0.000000000000000E+000
  0.000000000000000E+000
  0.000000000000000E+000
  0.000000000000000E+000
  0.000000000000000E+000
  0.000000000000000E+000
  0.000000000000000E+000
  0.000000000000000E+000
  0.000000000000000E+000
  0.000000000000000E+000
  0.000000000000000E+000
  0.000000000000000E+000
  0.000000000000000E+000
  0.000000000000000E+000
  0.000000000000000E+000
  0.000000000000000E+000
  0.000000000000000E+000
  0.000000000000000E+000
  0.000000000000000E+000
  0.000000000000000E+000
  0.000000000000000E+000
  0.000000000000000E+000
  0.000000000000000E+000
  0.000000000000000E+000
  0.000000000000000E+000
  0.000000000000000E+000
  0.000000000000000E+000
  0.000000000000000E+000
  0.000000000000000E+000
  0.000000000000000E+000
  0.000000000000000E+000
  0.000000000000000E+000
  0.000000000000000E+000
  0.000000000000000E+000
  0.000000000000000E+000
  0.000000000000000E+000
  0.000000000000000E+000
  0.000000000000000E+000
  0.000000000000000E+000
SCALARS elementIsPlast double 
LOOKUP_TABLE default
  0.000000000000000E+000
  0.000000000000000E+000
  0.000000000000000E+000
  0.000000000000000E+000
  0.000000000000000E+000
  0.000000000000000E+000
  0.000000000000000E+000
  0.000000000000000E+000
  0.000000000000000E+000
  0.000000000000000E+000
  0.000000000000000E+000
  0.000000000000000E+000
  0.000000000000000E+000
  0.000000000000000E+000
  0.000000000000000E+000
  0.000000000000000E+000
  0.000000000000000E+000
  0.000000000000000E+000
  0.000000000000000E+000
  0.000000000000000E+000
  0.000000000000000E+000
  0.000000000000000E+000
  0.000000000000000E+000
  0.000000000000000E+000
  0.000000000000000E+000
  0.000000000000000E+000
  0.000000000000000E+000
  0.000000000000000E+000
  0.000000000000000E+000
  0.000000000000000E+000
  0.000000000000000E+000
  0.000000000000000E+000
  0.000000000000000E+000
  0.000000000000000E+000
  0.000000000000000E+000
  0.000000000000000E+000
  0.000000000000000E+000
  0.000000000000000E+000
  0.000000000000000E+000
  0.000000000000000E+000
  0.000000000000000E+000
  0.000000000000000E+000
  0.000000000000000E+000
  0.000000000000000E+000
  0.000000000000000E+000
  0.000000000000000E+000
  0.000000000000000E+000
  0.000000000000000E+000
  0.000000000000000E+000
  0.000000000000000E+000
  0.000000000000000E+000
  0.000000000000000E+000
  0.000000000000000E+000
  0.000000000000000E+000
  0.000000000000000E+000
  0.000000000000000E+000
  0.000000000000000E+000
  0.000000000000000E+000
  0.000000000000000E+000
  0.000000000000000E+000
  0.000000000000000E+000
  0.000000000000000E+000
  0.000000000000000E+000
  0.000000000000000E+000
  0.000000000000000E+000
  0.000000000000000E+000
  0.000000000000000E+000
  0.000000000000000E+000
  0.000000000000000E+000
  0.000000000000000E+000
  0.000000000000000E+000
  0.000000000000000E+000
  0.000000000000000E+000
  0.000000000000000E+000
  0.000000000000000E+000
  0.000000000000000E+000
  0.000000000000000E+000
  0.000000000000000E+000
  0.000000000000000E+000
  0.000000000000000E+000
  0.000000000000000E+000
  0.000000000000000E+000
  0.000000000000000E+000
  0.000000000000000E+000
  0.000000000000000E+000
  0.000000000000000E+000
  0.000000000000000E+000
  0.000000000000000E+000
  0.000000000000000E+000
  0.000000000000000E+000
  0.000000000000000E+000
  0.000000000000000E+000
  0.000000000000000E+000
  0.000000000000000E+000
  0.000000000000000E+000
  0.000000000000000E+000
  0.000000000000000E+000
  0.000000000000000E+000
  0.000000000000000E+000
  0.000000000000000E+000
  0.000000000000000E+000
  0.000000000000000E+000
  0.000000000000000E+000
  0.000000000000000E+000
  0.000000000000000E+000
  0.000000000000000E+000
  0.000000000000000E+000
  0.000000000000000E+000
  0.000000000000000E+000
  0.000000000000000E+000
  0.000000000000000E+000
  0.000000000000000E+000
  0.000000000000000E+000
  0.000000000000000E+000
  0.000000000000000E+000
  0.000000000000000E+000
  0.000000000000000E+000
  0.000000000000000E+000
  0.000000000000000E+000
  0.000000000000000E+000
  0.000000000000000E+000
  0.000000000000000E+000
  0.000000000000000E+000
  0.000000000000000E+000
  0.000000000000000E+000
  0.000000000000000E+000
  0.000000000000000E+000
  0.000000000000000E+000
  0.000000000000000E+000
  0.000000000000000E+000
  0.000000000000000E+000
  0.000000000000000E+000
  0.000000000000000E+000
  0.000000000000000E+000
  0.000000000000000E+000
  0.000000000000000E+000
  0.000000000000000E+000
  0.000000000000000E+000
  0.000000000000000E+000
  0.000000000000000E+000
  0.000000000000000E+000
  0.000000000000000E+000
  0.000000000000000E+000
  0.000000000000000E+000
  0.000000000000000E+000
  0.000000000000000E+000
  0.000000000000000E+000
  0.000000000000000E+000
  0.000000000000000E+000
  0.000000000000000E+000
  0.000000000000000E+000
  0.000000000000000E+000
  0.000000000000000E+000
  0.000000000000000E+000
  0.000000000000000E+000
  0.000000000000000E+000
  0.000000000000000E+000
  0.000000000000000E+000
  0.000000000000000E+000
  0.000000000000000E+000
  0.000000000000000E+000
  0.000000000000000E+000
  0.000000000000000E+000
  0.000000000000000E+000
  0.000000000000000E+000
  0.000000000000000E+000
  0.000000000000000E+000
  0.000000000000000E+000
  0.000000000000000E+000
  0.000000000000000E+000
  0.000000000000000E+000
  0.000000000000000E+000
  0.000000000000000E+000
  0.000000000000000E+000
  0.000000000000000E+000
  0.000000000000000E+000
  0.000000000000000E+000
  0.000000000000000E+000
  0.000000000000000E+000
  0.000000000000000E+000
  0.000000000000000E+000
  0.000000000000000E+000
  0.000000000000000E+000
  0.000000000000000E+000
  0.000000000000000E+000
  0.000000000000000E+000
  0.000000000000000E+000
  0.000000000000000E+000
  0.000000000000000E+000
  0.000000000000000E+000
  0.000000000000000E+000
  0.000000000000000E+000
  0.000000000000000E+000
  0.000000000000000E+000
  0.000000000000000E+000
  0.000000000000000E+000
  0.000000000000000E+000
  0.000000000000000E+000
  0.000000000000000E+000
  0.000000000000000E+000
  0.000000000000000E+000
  0.000000000000000E+000
  0.000000000000000E+000
  0.000000000000000E+000
  0.000000000000000E+000
  0.000000000000000E+000
  0.000000000000000E+000
  0.000000000000000E+000
  0.000000000000000E+000
  0.000000000000000E+000
  0.000000000000000E+000
  0.000000000000000E+000
  0.000000000000000E+000
  0.000000000000000E+000
  0.000000000000000E+000
  0.000000000000000E+000
  0.000000000000000E+000
  0.000000000000000E+000
  0.000000000000000E+000
  0.000000000000000E+000
  0.000000000000000E+000
  0.000000000000000E+000
  0.000000000000000E+000
  0.000000000000000E+000
  0.000000000000000E+000
  0.000000000000000E+000
  0.000000000000000E+000
  0.000000000000000E+000
  0.000000000000000E+000
  0.000000000000000E+000
  0.000000000000000E+000
  0.000000000000000E+000
  0.000000000000000E+000
  0.000000000000000E+000
  0.000000000000000E+000
  0.000000000000000E+000
  0.000000000000000E+000
  0.000000000000000E+000
  0.000000000000000E+000
  0.000000000000000E+000
  0.000000000000000E+000
  0.000000000000000E+000
  0.000000000000000E+000
  0.000000000000000E+000
  0.000000000000000E+000
  0.000000000000000E+000
  0.000000000000000E+000
  0.000000000000000E+000
  0.000000000000000E+000
  0.000000000000000E+000
  0.000000000000000E+000
  0.000000000000000E+000
  0.000000000000000E+000
  0.000000000000000E+000
  0.000000000000000E+000
  0.000000000000000E+000
  0.000000000000000E+000
  0.000000000000000E+000
  0.000000000000000E+000
  0.000000000000000E+000
  0.000000000000000E+000
  0.000000000000000E+000
  0.000000000000000E+000
  0.000000000000000E+000
  0.000000000000000E+000
  0.000000000000000E+000
  0.000000000000000E+000
  0.000000000000000E+000
  0.000000000000000E+000
  0.000000000000000E+000
  0.000000000000000E+000
  0.000000000000000E+000
  0.000000000000000E+000
  0.000000000000000E+000
  0.000000000000000E+000
  0.000000000000000E+000
  0.000000000000000E+000
  0.000000000000000E+000
  0.000000000000000E+000
  0.000000000000000E+000
  0.000000000000000E+000
  0.000000000000000E+000
  0.000000000000000E+000
  0.000000000000000E+000
  0.000000000000000E+000
  0.000000000000000E+000
  0.000000000000000E+000
  0.000000000000000E+000
  0.000000000000000E+000
  0.000000000000000E+000
  0.000000000000000E+000
  0.000000000000000E+000
  0.000000000000000E+000
  0.000000000000000E+000
  0.000000000000000E+000
  0.000000000000000E+000
  0.000000000000000E+000
  0.000000000000000E+000
  0.000000000000000E+000
  0.000000000000000E+000
  0.000000000000000E+000
  0.000000000000000E+000
  0.000000000000000E+000
  0.000000000000000E+000
  0.000000000000000E+000
  0.000000000000000E+000
  0.000000000000000E+000
  0.000000000000000E+000
  0.000000000000000E+000
  0.000000000000000E+000
  0.000000000000000E+000
  0.000000000000000E+000
  0.000000000000000E+000
  0.000000000000000E+000
  0.000000000000000E+000
  0.000000000000000E+000
  0.000000000000000E+000
  0.000000000000000E+000
  0.000000000000000E+000
  0.000000000000000E+000
  0.000000000000000E+000
  0.000000000000000E+000
  0.000000000000000E+000
  0.000000000000000E+000
  0.000000000000000E+000
  0.000000000000000E+000
  0.000000000000000E+000
  0.000000000000000E+000
  0.000000000000000E+000
  0.000000000000000E+000
  0.000000000000000E+000
  0.000000000000000E+000
  0.000000000000000E+000
  0.000000000000000E+000
  0.000000000000000E+000
  0.000000000000000E+000
  0.000000000000000E+000
  0.000000000000000E+000
  0.000000000000000E+000
  0.000000000000000E+000
  0.000000000000000E+000
  0.000000000000000E+000
  0.000000000000000E+000
  0.000000000000000E+000
  0.000000000000000E+000
  0.000000000000000E+000
  0.000000000000000E+000
  0.000000000000000E+000
  0.000000000000000E+000
  0.000000000000000E+000
  0.000000000000000E+000
  0.000000000000000E+000
  0.000000000000000E+000
  0.000000000000000E+000
  0.000000000000000E+000
  0.000000000000000E+000
  0.000000000000000E+000
  0.000000000000000E+000
  0.000000000000000E+000
  0.000000000000000E+000
  0.000000000000000E+000
  0.000000000000000E+000
  0.000000000000000E+000
  0.000000000000000E+000
  0.000000000000000E+000
  0.000000000000000E+000
  0.000000000000000E+000
  0.000000000000000E+000
  0.000000000000000E+000
  0.000000000000000E+000
  0.000000000000000E+000
  0.000000000000000E+000
  0.000000000000000E+000
  0.000000000000000E+000
  0.000000000000000E+000
  0.000000000000000E+000
  0.000000000000000E+000
  0.000000000000000E+000
  0.000000000000000E+000
  0.000000000000000E+000
  0.000000000000000E+000
  0.000000000000000E+000
  0.000000000000000E+000
  0.000000000000000E+000
  0.000000000000000E+000
  0.000000000000000E+000
  0.000000000000000E+000
  0.000000000000000E+000
  0.000000000000000E+000
  0.000000000000000E+000
  0.000000000000000E+000
  0.000000000000000E+000
  0.000000000000000E+000
  0.000000000000000E+000
  0.000000000000000E+000
  0.000000000000000E+000
  0.000000000000000E+000
  0.000000000000000E+000
  0.000000000000000E+000
  0.000000000000000E+000
  0.000000000000000E+000
  0.000000000000000E+000
  0.000000000000000E+000
  0.000000000000000E+000
  0.000000000000000E+000
  0.000000000000000E+000
  0.000000000000000E+000
  0.000000000000000E+000
  0.000000000000000E+000
  0.000000000000000E+000
  0.000000000000000E+000
  0.000000000000000E+000
  0.000000000000000E+000
  0.000000000000000E+000
  0.000000000000000E+000
  0.000000000000000E+000
  0.000000000000000E+000
  0.000000000000000E+000
  0.000000000000000E+000
  0.000000000000000E+000
  0.000000000000000E+000
  0.000000000000000E+000
  0.000000000000000E+000
  0.000000000000000E+000
  0.000000000000000E+000
  0.000000000000000E+000
  0.000000000000000E+000
  0.000000000000000E+000
  0.000000000000000E+000
  0.000000000000000E+000
  0.000000000000000E+000
  0.000000000000000E+000
  0.000000000000000E+000
  0.000000000000000E+000
  0.000000000000000E+000
  0.000000000000000E+000
  0.000000000000000E+000
  0.000000000000000E+000
  0.000000000000000E+000
  0.000000000000000E+000
  0.000000000000000E+000
  0.000000000000000E+000
  0.000000000000000E+000
  0.000000000000000E+000
  0.000000000000000E+000
  0.000000000000000E+000
  0.000000000000000E+000
  0.000000000000000E+000
  0.000000000000000E+000
  0.000000000000000E+000
SCALARS poroL double 
LOOKUP_TABLE default
  0.155951501164274     
  0.155951247370947     
  0.155951008041009     
  0.155950782771656     
  0.155950571077420     
  0.155950372408417     
  0.155950186167727     
  0.155950011727612     
  0.155949848444341     
  0.155949695671387     
  0.155949552770850     
  0.155949419122911     
  0.155949294133194     
  0.155949177237891     
  0.155949067906523     
  0.155951462956354     
  0.155951209453919     
  0.155950970517285     
  0.155950745724687     
  0.155950534572243     
  0.155950336492535     
  0.155950150872288     
  0.155949977068823     
  0.155949814425092     
  0.155949662283053     
  0.155949519995248     
  0.155949386934409     
  0.155949262500950     
  0.155949146128221     
  0.155949037285390     
  0.155951386415782     
  0.155951133514484     
  0.155950895383650     
  0.155950671563192     
  0.155950461512049     
  0.155950264627459     
  0.155950080263190     
  0.155949907746483     
  0.155949746393478     
  0.155949595522946     
  0.155949454468174     
  0.155949322586853     
  0.155949199268851     
  0.155949083941718     
  0.155948976073806     
  0.155951271292812     
  0.155951019342082     
  0.155950782468335     
  0.155950560152991     
  0.155950351798381     
  0.155950156748016     
  0.155949974305647     
  0.155949803752892     
  0.155949644365247     
  0.155949495426315     
  0.155949356240142     
  0.155949226141527     
  0.155949104504190     
  0.155948990746673     
  0.155948884335838     
  0.155951117212203     
  0.155950866621431     
  0.155950631515244     
  0.155950411295212     
  0.155950205286643     
  0.155950012760124     
  0.155949832951644     
  0.155949665081091     
  0.155949508368987     
  0.155949362051348     
  0.155949225392582     
  0.155949097696335     
  0.155948978314189     
  0.155948866652095     
  0.155948762174388     
  0.155950923672695     
  0.155950674933412     
  0.155950442186013     
  0.155950224729329     
  0.155950021789948     
  0.155949832545296     
  0.155949656145004     
  0.155949491730406     
  0.155949338452109     
  0.155949195485567     
  0.155949062044623     
  0.155948937392989     
  0.155948820853585     
  0.155948711815646     
  0.155948609739437     
  0.155950690046698     
  0.155950443756589     
  0.155950214063069     
  0.155950000137470     
  0.155949801084454     
  0.155949615966827     
  0.155949443828269     
  0.155949283713930     
  0.155949134688869     
  0.155948995854366     
  0.155948866362160     
  0.155948745426605     
  0.155948632334759     
  0.155948526454310     
  0.155948427239191     
  0.155950415580530     
  0.155950172469691     
  0.155949946653949     
  0.155949737150245     
  0.155949542916399     
  0.155949362877783     
  0.155949195951484     
  0.155949041067983     
  0.155948897190438     
  0.155948763331693     
  0.155948638569163     
  0.155948522057691     
  0.155948413040450     
  0.155948310857834     
  0.155948214954218     
  0.155950099395641     
  0.155949860355438     
  0.155949639397245     
  0.155949435354373     
  0.155949247011048     
  0.155949073130995     
  0.155948912483004     
  0.155948763863603     
  0.155948626117036     
  0.155948498152827     
  0.155948378961180     
  0.155948267626475     
  0.155948163339003     
  0.155948065404980     
  0.155947973254694     
  0.155949740491366     
  0.155949506606199     
  0.155949291670591     
  0.155949094302488     
  0.155948913083875     
  0.155948746591250     
  0.155948593422458     
  0.155948452220130     
  0.155948321692095     
  0.155948200629188     
  0.155948087920925     
  0.155947982569456     
  0.155947883702092     
  0.155947790582554     
  0.155947702620837     
  0.155949337749850     
  0.155949110332083     
  0.155948902801231     
  0.155948713525559     
  0.155948540854312     
  0.155948383149953     
  0.155948238816010     
  0.155948106320916     
  0.155947984218391     
  0.155947871165020     
  0.155947765935752     
  0.155947667437979     
  0.155947574724712     
  0.155947487007143     
  0.155947403666563     
  0.155948889943893     
  0.155948670572125     
  0.155948472079758     
  0.155948292548472     
  0.155948130062526     
  0.155947982742561     
  0.155947848774087     
  0.155947726431156     
  0.155947614096012     
  0.155947510275698     
  0.155947413616672     
  0.155947322918458     
  0.155947237147154     
  0.155947155449319     
  0.155947077166317     
  0.155948395748543     
  0.155948186309367     
  0.155947998777795     
  0.155947830909433     
  0.155947680489740     
  0.155947545369171     
  0.155947423491765     
  0.155947312917846     
  0.155947211841937     
  0.155947118607262     
  0.155947031718412     
  0.155946949853689     
  0.155946871878391     
  0.155946796859903     
  0.155946724084860     
  0.155947853757358     
  0.155947656490734     
  0.155947482170475     
  0.155947328184002     
  0.155947191982820     
  0.155947071118767     
  0.155946963272036     
  0.155946866271796     
  0.155946778110885     
  0.155946696956586     
  0.155946621159735     
  0.155946549264403     
  0.155946480020067     
  0.155946412397590     
  0.155946345609574     
  0.155947262504241     
  0.155947080052718     
  0.155946921564821     
  0.155946784014852     
  0.155946664484034     
  0.155946560197772     
  0.155946468552288     
  0.155946387131604     
  0.155946313716931     
  0.155946246291327     
  0.155946183042890     
  0.155946122369772     
  0.155946062889819     
  0.155946003456843     
  0.155945943184503     
  0.155946620491771     
  0.155946455954043     
  0.155946316335401     
  0.155946198148657     
  0.155946098067280     
  0.155946012963874     
  0.155945939934418     
  0.155945876309457     
  0.155945819655165     
  0.155945767768404     
  0.155945718670588     
  0.155945670605060     
  0.155945622042078     
  0.155945571694386     
  0.155945518544862     
  0.155945926226808     
  0.155945783216718     
  0.155945665969138     
  0.155945570482186     
  0.155945492982660     
  0.155945429966480     
  0.155945378219257     
  0.155945334818597     
  0.155945297122399     
  0.155945262749302     
  0.155945229558223     
  0.155945195633820     
  0.155945159283740     
  0.155945119051901     
  0.155945073750055     
  0.155945178264025     
  0.155945060977280     
  0.155944970121938     
  0.155944901120593     
  0.155944849712167     
  0.155944811995864     
  0.155944784446289     
  0.155944763902199     
  0.155944747535510     
  0.155944732809748     
  0.155944717438134     
  0.155944699351027     
  0.155944676680993     
  0.155944647771497     
  0.155944611212394     
  0.155944375257785     
  0.155944288550814     
  0.155944228691231     
  0.155944190452573     
  0.155944169040741     
  0.155944160144081     
  0.155944159940102     
  0.155944165063392     
  0.155944172545434     
  0.155944179740375     
  0.155944184251497     
  0.155944183872097     
  0.155944176552171     
  0.155944160399205     
  0.155944133717507     
  0.155943516022736     
  0.155943465511848     
  0.155943441911006     
  0.155943439249698     
  0.155943452149162     
  0.155943475882138     
  0.155943506365608     
  0.155943540095848     
  0.155943574043983     
  0.155943605533621     
  0.155943632121656     
  0.155943651500858     
  0.155943661439589     
  0.155943659770004     
  0.155943644431072     
  0.155942599603828     
  0.155942591799297     
  0.155942610480380     
  0.155942648801728     
  0.155942700738634     
  0.155942761159848     
  0.155942825794553     
  0.155942891113949     
  0.155942954159401     
  0.155943012350288     
  0.155943063300418     
  0.155943104666816     
  0.155943134050574     
  0.155943148965581     
  0.155943146884785     
  0.155941625357948     
  0.155941667858746     
  0.155941735744911     
  0.155941821107024     
  0.155941917201796     
  0.155942018536850     
  0.155942120785899     
  0.155942220580334     
  0.155942315234845     
  0.155942402456848     
  0.155942480075752     
  0.155942545818339     
  0.155942597154050     
  0.155942631232736     
  0.155942644932618     
  0.155940593053543     
  0.155940694848020     
  0.155940819964994     
  0.155940959149347     
  0.155941104861204     
  0.155941251354409     
  0.155941394480924     
  0.155941531326371     
  0.155941659781824     
  0.155941778122197     
  0.155941884625545     
  0.155941977253003     
  0.155942053412667     
  0.155942109845227     
  0.155942142665976     
  0.155939503005239     
  0.155939674958573     
  0.155939866734985     
  0.155940067311926     
  0.155940268302645     
  0.155940463954478     
  0.155940650707890     
  0.155940826556801     
  0.155940990399248     
  0.155941141461333     
  0.155941278798712     
  0.155941400857901     
  0.155941505119921     
  0.155941587881945     
  0.155941644273173     
  0.155938356285576     
  0.155938611966229     
  0.155938881674494     
  0.155939152009784     
  0.155939413830093     
  0.155939661936029     
  0.155939894075728     
  0.155940109823467     
  0.155940309650166     
  0.155940494219194     
  0.155940663802325     
  0.155940817722873     
  0.155940953788060     
  0.155941067875863     
  0.155941153820103     
  0.155937155131692     
  0.155937512267650     
  0.155937873636509     
  0.155938222656246     
  0.155938550036061     
  0.155938852391657     
  0.155939130003596     
  0.155939384945976     
  0.155939619902922     
  0.155939837502175     
  0.155940039793446     
  0.155940227560691     
  0.155940399501187     
  0.155940551226455     
  0.155940674918028     
  0.155935903847162     
  0.155936387091676     
  0.155936856911253     
  0.155937293062122     
  0.155937688350877     
  0.155938043945183     
  0.155938364600645     
  0.155938655854836     
  0.155938923160652     
  0.155939171545729     
  0.155939405377082     
  0.155939627927829     
  0.155939839764583     
  0.155940037213858     
  0.155940210134868     
  0.155934611638332     
  0.155935257642762     
  0.155935855358838     
  0.155936383024199     
  0.155936842900064     
  0.155937246355025     
  0.155937604288586     
  0.155937926341671     
  0.155938220936040     
  0.155938495624801     
  0.155938757428893     
  0.155939012909676     
  0.155939267875950     
  0.155939520544058     
  0.155939760158091     
  0.155933301469847     
  0.155934170215748     
  0.155934908809833     
  0.155935516840998     
  0.155936029160826     
  0.155936469415462     
  0.155936855126476     
  0.155937199727064     
  0.155937514213640     
  0.155937808301905     
  0.155938091404652     
  0.155938373702761     
  0.155938667073383     
  0.155938988547821     
  0.155939319445907     
  0.155932078113286     
  0.155933231167295     
  0.155934061533612     
  0.155934718729858     
  0.155935260810149     
  0.155935721272860     
  0.155936121911678     
  0.155936478493695     
  0.155936803523496     
  0.155937107973714     
  0.155937402718192     
  0.155937700238808     
  0.155938017788848     
  0.155938383974407     
  0.155938883220165     
