# vtk DataFile Version 3.0
vtk output
ASCII
DATASET UNSTRUCTURED_GRID
POINTS       496 double 
  0.00000000E+00  3.00000000E+02  0.00000000E+00
  0.00000000E+00  2.80000000E+02  0.00000000E+00
  0.00000000E+00  2.60000000E+02  0.00000000E+00
  0.00000000E+00  2.40000000E+02  0.00000000E+00
  0.00000000E+00  2.20000000E+02  0.00000000E+00
  0.00000000E+00  2.00000000E+02  0.00000000E+00
  0.00000000E+00  1.80000000E+02  0.00000000E+00
  0.00000000E+00  1.60000000E+02  0.00000000E+00
  0.00000000E+00  1.40000000E+02  0.00000000E+00
  0.00000000E+00  1.20000000E+02  0.00000000E+00
  0.00000000E+00  1.00000000E+02  0.00000000E+00
  0.00000000E+00  8.00000000E+01  0.00000000E+00
  0.00000000E+00  6.00000000E+01  0.00000000E+00
  0.00000000E+00  4.00000000E+01  0.00000000E+00
  0.00000000E+00  2.00000000E+01  0.00000000E+00
  0.00000000E+00  4.99600361E-14  0.00000000E+00
  2.00000000E+01  3.00000000E+02  0.00000000E+00
  2.00000000E+01  2.80000000E+02  0.00000000E+00
  2.00000000E+01  2.60000000E+02  0.00000000E+00
  2.00000000E+01  2.40000000E+02  0.00000000E+00
  2.00000000E+01  2.20000000E+02  0.00000000E+00
  2.00000000E+01  2.00000000E+02  0.00000000E+00
  2.00000000E+01  1.80000000E+02  0.00000000E+00
  2.00000000E+01  1.60000000E+02  0.00000000E+00
  2.00000000E+01  1.40000000E+02  0.00000000E+00
  2.00000000E+01  1.20000000E+02  0.00000000E+00
  2.00000000E+01  1.00000000E+02  0.00000000E+00
  2.00000000E+01  8.00000000E+01  0.00000000E+00
  2.00000000E+01  6.00000000E+01  0.00000000E+00
  2.00000000E+01  4.00000000E+01  0.00000000E+00
  2.00000000E+01  2.00000000E+01  0.00000000E+00
  2.00000000E+01  4.99600361E-14  0.00000000E+00
  4.00000000E+01  3.00000000E+02  0.00000000E+00
  4.00000000E+01  2.80000000E+02  0.00000000E+00
  4.00000000E+01  2.60000000E+02  0.00000000E+00
  4.00000000E+01  2.40000000E+02  0.00000000E+00
  4.00000000E+01  2.20000000E+02  0.00000000E+00
  4.00000000E+01  2.00000000E+02  0.00000000E+00
  4.00000000E+01  1.80000000E+02  0.00000000E+00
  4.00000000E+01  1.60000000E+02  0.00000000E+00
  4.00000000E+01  1.40000000E+02  0.00000000E+00
  4.00000000E+01  1.20000000E+02  0.00000000E+00
  4.00000000E+01  1.00000000E+02  0.00000000E+00
  4.00000000E+01  8.00000000E+01  0.00000000E+00
  4.00000000E+01  6.00000000E+01  0.00000000E+00
  4.00000000E+01  4.00000000E+01  0.00000000E+00
  4.00000000E+01  2.00000000E+01  0.00000000E+00
  4.00000000E+01  4.99600361E-14  0.00000000E+00
  6.00000000E+01  3.00000000E+02  0.00000000E+00
  6.00000000E+01  2.80000000E+02  0.00000000E+00
  6.00000000E+01  2.60000000E+02  0.00000000E+00
  6.00000000E+01  2.40000000E+02  0.00000000E+00
  6.00000000E+01  2.20000000E+02  0.00000000E+00
  6.00000000E+01  2.00000000E+02  0.00000000E+00
  6.00000000E+01  1.80000000E+02  0.00000000E+00
  6.00000000E+01  1.60000000E+02  0.00000000E+00
  6.00000000E+01  1.40000000E+02  0.00000000E+00
  6.00000000E+01  1.20000000E+02  0.00000000E+00
  6.00000000E+01  1.00000000E+02  0.00000000E+00
  6.00000000E+01  8.00000000E+01  0.00000000E+00
  6.00000000E+01  6.00000000E+01  0.00000000E+00
  6.00000000E+01  4.00000000E+01  0.00000000E+00
  6.00000000E+01  2.00000000E+01  0.00000000E+00
  6.00000000E+01  4.99600361E-14  0.00000000E+00
  8.00000000E+01  3.00000000E+02  0.00000000E+00
  8.00000000E+01  2.80000000E+02  0.00000000E+00
  8.00000000E+01  2.60000000E+02  0.00000000E+00
  8.00000000E+01  2.40000000E+02  0.00000000E+00
  8.00000000E+01  2.20000000E+02  0.00000000E+00
  8.00000000E+01  2.00000000E+02  0.00000000E+00
  8.00000000E+01  1.80000000E+02  0.00000000E+00
  8.00000000E+01  1.60000000E+02  0.00000000E+00
  8.00000000E+01  1.40000000E+02  0.00000000E+00
  8.00000000E+01  1.20000000E+02  0.00000000E+00
  8.00000000E+01  1.00000000E+02  0.00000000E+00
  8.00000000E+01  8.00000000E+01  0.00000000E+00
  8.00000000E+01  6.00000000E+01  0.00000000E+00
  8.00000000E+01  4.00000000E+01  0.00000000E+00
  8.00000000E+01  2.00000000E+01  0.00000000E+00
  8.00000000E+01  4.99600361E-14  0.00000000E+00
  1.00000000E+02  3.00000000E+02  0.00000000E+00
  1.00000000E+02  2.80000000E+02  0.00000000E+00
  1.00000000E+02  2.60000000E+02  0.00000000E+00
  1.00000000E+02  2.40000000E+02  0.00000000E+00
  1.00000000E+02  2.20000000E+02  0.00000000E+00
  1.00000000E+02  2.00000000E+02  0.00000000E+00
  1.00000000E+02  1.80000000E+02  0.00000000E+00
  1.00000000E+02  1.60000000E+02  0.00000000E+00
  1.00000000E+02  1.40000000E+02  0.00000000E+00
  1.00000000E+02  1.20000000E+02  0.00000000E+00
  1.00000000E+02  1.00000000E+02  0.00000000E+00
  1.00000000E+02  8.00000000E+01  0.00000000E+00
  1.00000000E+02  6.00000000E+01  0.00000000E+00
  1.00000000E+02  4.00000000E+01  0.00000000E+00
  1.00000000E+02  2.00000000E+01  0.00000000E+00
  1.00000000E+02  4.99600361E-14  0.00000000E+00
  1.20000000E+02  3.00000000E+02  0.00000000E+00
  1.20000000E+02  2.80000000E+02  0.00000000E+00
  1.20000000E+02  2.60000000E+02  0.00000000E+00
  1.20000000E+02  2.40000000E+02  0.00000000E+00
  1.20000000E+02  2.20000000E+02  0.00000000E+00
  1.20000000E+02  2.00000000E+02  0.00000000E+00
  1.20000000E+02  1.80000000E+02  0.00000000E+00
  1.20000000E+02  1.60000000E+02  0.00000000E+00
  1.20000000E+02  1.40000000E+02  0.00000000E+00
  1.20000000E+02  1.20000000E+02  0.00000000E+00
  1.20000000E+02  1.00000000E+02  0.00000000E+00
  1.20000000E+02  8.00000000E+01  0.00000000E+00
  1.20000000E+02  6.00000000E+01  0.00000000E+00
  1.20000000E+02  4.00000000E+01  0.00000000E+00
  1.20000000E+02  2.00000000E+01  0.00000000E+00
  1.20000000E+02  4.99600361E-14  0.00000000E+00
  1.40000000E+02  3.00000000E+02  0.00000000E+00
  1.40000000E+02  2.80000000E+02  0.00000000E+00
  1.40000000E+02  2.60000000E+02  0.00000000E+00
  1.40000000E+02  2.40000000E+02  0.00000000E+00
  1.40000000E+02  2.20000000E+02  0.00000000E+00
  1.40000000E+02  2.00000000E+02  0.00000000E+00
  1.40000000E+02  1.80000000E+02  0.00000000E+00
  1.40000000E+02  1.60000000E+02  0.00000000E+00
  1.40000000E+02  1.40000000E+02  0.00000000E+00
  1.40000000E+02  1.20000000E+02  0.00000000E+00
  1.40000000E+02  1.00000000E+02  0.00000000E+00
  1.40000000E+02  8.00000000E+01  0.00000000E+00
  1.40000000E+02  6.00000000E+01  0.00000000E+00
  1.40000000E+02  4.00000000E+01  0.00000000E+00
  1.40000000E+02  2.00000000E+01  0.00000000E+00
  1.40000000E+02  4.99600361E-14  0.00000000E+00
  1.60000000E+02  3.00000000E+02  0.00000000E+00
  1.60000000E+02  2.80000000E+02  0.00000000E+00
  1.60000000E+02  2.60000000E+02  0.00000000E+00
  1.60000000E+02  2.40000000E+02  0.00000000E+00
  1.60000000E+02  2.20000000E+02  0.00000000E+00
  1.60000000E+02  2.00000000E+02  0.00000000E+00
  1.60000000E+02  1.80000000E+02  0.00000000E+00
  1.60000000E+02  1.60000000E+02  0.00000000E+00
  1.60000000E+02  1.40000000E+02  0.00000000E+00
  1.60000000E+02  1.20000000E+02  0.00000000E+00
  1.60000000E+02  1.00000000E+02  0.00000000E+00
  1.60000000E+02  8.00000000E+01  0.00000000E+00
  1.60000000E+02  6.00000000E+01  0.00000000E+00
  1.60000000E+02  4.00000000E+01  0.00000000E+00
  1.60000000E+02  2.00000000E+01  0.00000000E+00
  1.60000000E+02  4.99600361E-14  0.00000000E+00
  1.80000000E+02  3.00000000E+02  0.00000000E+00
  1.80000000E+02  2.80000000E+02  0.00000000E+00
  1.80000000E+02  2.60000000E+02  0.00000000E+00
  1.80000000E+02  2.40000000E+02  0.00000000E+00
  1.80000000E+02  2.20000000E+02  0.00000000E+00
  1.80000000E+02  2.00000000E+02  0.00000000E+00
  1.80000000E+02  1.80000000E+02  0.00000000E+00
  1.80000000E+02  1.60000000E+02  0.00000000E+00
  1.80000000E+02  1.40000000E+02  0.00000000E+00
  1.80000000E+02  1.20000000E+02  0.00000000E+00
  1.80000000E+02  1.00000000E+02  0.00000000E+00
  1.80000000E+02  8.00000000E+01  0.00000000E+00
  1.80000000E+02  6.00000000E+01  0.00000000E+00
  1.80000000E+02  4.00000000E+01  0.00000000E+00
  1.80000000E+02  2.00000000E+01  0.00000000E+00
  1.80000000E+02  4.99600361E-14  0.00000000E+00
  2.00000000E+02  3.00000000E+02  0.00000000E+00
  2.00000000E+02  2.80000000E+02  0.00000000E+00
  2.00000000E+02  2.60000000E+02  0.00000000E+00
  2.00000000E+02  2.40000000E+02  0.00000000E+00
  2.00000000E+02  2.20000000E+02  0.00000000E+00
  2.00000000E+02  2.00000000E+02  0.00000000E+00
  2.00000000E+02  1.80000000E+02  0.00000000E+00
  2.00000000E+02  1.60000000E+02  0.00000000E+00
  2.00000000E+02  1.40000000E+02  0.00000000E+00
  2.00000000E+02  1.20000000E+02  0.00000000E+00
  2.00000000E+02  1.00000000E+02  0.00000000E+00
  2.00000000E+02  8.00000000E+01  0.00000000E+00
  2.00000000E+02  6.00000000E+01  0.00000000E+00
  2.00000000E+02  4.00000000E+01  0.00000000E+00
  2.00000000E+02  2.00000000E+01  0.00000000E+00
  2.00000000E+02  4.99600361E-14  0.00000000E+00
  2.20000000E+02  3.00000000E+02  0.00000000E+00
  2.20000000E+02  2.80000000E+02  0.00000000E+00
  2.20000000E+02  2.60000000E+02  0.00000000E+00
  2.20000000E+02  2.40000000E+02  0.00000000E+00
  2.20000000E+02  2.20000000E+02  0.00000000E+00
  2.20000000E+02  2.00000000E+02  0.00000000E+00
  2.20000000E+02  1.80000000E+02  0.00000000E+00
  2.20000000E+02  1.60000000E+02  0.00000000E+00
  2.20000000E+02  1.40000000E+02  0.00000000E+00
  2.20000000E+02  1.20000000E+02  0.00000000E+00
  2.20000000E+02  1.00000000E+02  0.00000000E+00
  2.20000000E+02  8.00000000E+01  0.00000000E+00
  2.20000000E+02  6.00000000E+01  0.00000000E+00
  2.20000000E+02  4.00000000E+01  0.00000000E+00
  2.20000000E+02  2.00000000E+01  0.00000000E+00
  2.20000000E+02  4.99600361E-14  0.00000000E+00
  2.40000000E+02  3.00000000E+02  0.00000000E+00
  2.40000000E+02  2.80000000E+02  0.00000000E+00
  2.40000000E+02  2.60000000E+02  0.00000000E+00
  2.40000000E+02  2.40000000E+02  0.00000000E+00
  2.40000000E+02  2.20000000E+02  0.00000000E+00
  2.40000000E+02  2.00000000E+02  0.00000000E+00
  2.40000000E+02  1.80000000E+02  0.00000000E+00
  2.40000000E+02  1.60000000E+02  0.00000000E+00
  2.40000000E+02  1.40000000E+02  0.00000000E+00
  2.40000000E+02  1.20000000E+02  0.00000000E+00
  2.40000000E+02  1.00000000E+02  0.00000000E+00
  2.40000000E+02  8.00000000E+01  0.00000000E+00
  2.40000000E+02  6.00000000E+01  0.00000000E+00
  2.40000000E+02  4.00000000E+01  0.00000000E+00
  2.40000000E+02  2.00000000E+01  0.00000000E+00
  2.40000000E+02  4.99600361E-14  0.00000000E+00
  2.60000000E+02  3.00000000E+02  0.00000000E+00
  2.60000000E+02  2.80000000E+02  0.00000000E+00
  2.60000000E+02  2.60000000E+02  0.00000000E+00
  2.60000000E+02  2.40000000E+02  0.00000000E+00
  2.60000000E+02  2.20000000E+02  0.00000000E+00
  2.60000000E+02  2.00000000E+02  0.00000000E+00
  2.60000000E+02  1.80000000E+02  0.00000000E+00
  2.60000000E+02  1.60000000E+02  0.00000000E+00
  2.60000000E+02  1.40000000E+02  0.00000000E+00
  2.60000000E+02  1.20000000E+02  0.00000000E+00
  2.60000000E+02  1.00000000E+02  0.00000000E+00
  2.60000000E+02  8.00000000E+01  0.00000000E+00
  2.60000000E+02  6.00000000E+01  0.00000000E+00
  2.60000000E+02  4.00000000E+01  0.00000000E+00
  2.60000000E+02  2.00000000E+01  0.00000000E+00
  2.60000000E+02  4.99600361E-14  0.00000000E+00
  2.80000000E+02  3.00000000E+02  0.00000000E+00
  2.80000000E+02  2.80000000E+02  0.00000000E+00
  2.80000000E+02  2.60000000E+02  0.00000000E+00
  2.80000000E+02  2.40000000E+02  0.00000000E+00
  2.80000000E+02  2.20000000E+02  0.00000000E+00
  2.80000000E+02  2.00000000E+02  0.00000000E+00
  2.80000000E+02  1.80000000E+02  0.00000000E+00
  2.80000000E+02  1.60000000E+02  0.00000000E+00
  2.80000000E+02  1.40000000E+02  0.00000000E+00
  2.80000000E+02  1.20000000E+02  0.00000000E+00
  2.80000000E+02  1.00000000E+02  0.00000000E+00
  2.80000000E+02  8.00000000E+01  0.00000000E+00
  2.80000000E+02  6.00000000E+01  0.00000000E+00
  2.80000000E+02  4.00000000E+01  0.00000000E+00
  2.80000000E+02  2.00000000E+01  0.00000000E+00
  2.80000000E+02  4.99600361E-14  0.00000000E+00
  3.00000000E+02  3.00000000E+02  0.00000000E+00
  3.00000000E+02  2.80000000E+02  0.00000000E+00
  3.00000000E+02  2.60000000E+02  0.00000000E+00
  3.00000000E+02  2.40000000E+02  0.00000000E+00
  3.00000000E+02  2.20000000E+02  0.00000000E+00
  3.00000000E+02  2.00000000E+02  0.00000000E+00
  3.00000000E+02  1.80000000E+02  0.00000000E+00
  3.00000000E+02  1.60000000E+02  0.00000000E+00
  3.00000000E+02  1.40000000E+02  0.00000000E+00
  3.00000000E+02  1.20000000E+02  0.00000000E+00
  3.00000000E+02  1.00000000E+02  0.00000000E+00
  3.00000000E+02  8.00000000E+01  0.00000000E+00
  3.00000000E+02  6.00000000E+01  0.00000000E+00
  3.00000000E+02  4.00000000E+01  0.00000000E+00
  3.00000000E+02  2.00000000E+01  0.00000000E+00
  3.00000000E+02  4.99600361E-14  0.00000000E+00
  3.20000000E+02  3.00000000E+02  0.00000000E+00
  3.20000000E+02  2.80000000E+02  0.00000000E+00
  3.20000000E+02  2.60000000E+02  0.00000000E+00
  3.20000000E+02  2.40000000E+02  0.00000000E+00
  3.20000000E+02  2.20000000E+02  0.00000000E+00
  3.20000000E+02  2.00000000E+02  0.00000000E+00
  3.20000000E+02  1.80000000E+02  0.00000000E+00
  3.20000000E+02  1.60000000E+02  0.00000000E+00
  3.20000000E+02  1.40000000E+02  0.00000000E+00
  3.20000000E+02  1.20000000E+02  0.00000000E+00
  3.20000000E+02  1.00000000E+02  0.00000000E+00
  3.20000000E+02  8.00000000E+01  0.00000000E+00
  3.20000000E+02  6.00000000E+01  0.00000000E+00
  3.20000000E+02  4.00000000E+01  0.00000000E+00
  3.20000000E+02  2.00000000E+01  0.00000000E+00
  3.20000000E+02  4.99600361E-14  0.00000000E+00
  3.40000000E+02  3.00000000E+02  0.00000000E+00
  3.40000000E+02  2.80000000E+02  0.00000000E+00
  3.40000000E+02  2.60000000E+02  0.00000000E+00
  3.40000000E+02  2.40000000E+02  0.00000000E+00
  3.40000000E+02  2.20000000E+02  0.00000000E+00
  3.40000000E+02  2.00000000E+02  0.00000000E+00
  3.40000000E+02  1.80000000E+02  0.00000000E+00
  3.40000000E+02  1.60000000E+02  0.00000000E+00
  3.40000000E+02  1.40000000E+02  0.00000000E+00
  3.40000000E+02  1.20000000E+02  0.00000000E+00
  3.40000000E+02  1.00000000E+02  0.00000000E+00
  3.40000000E+02  8.00000000E+01  0.00000000E+00
  3.40000000E+02  6.00000000E+01  0.00000000E+00
  3.40000000E+02  4.00000000E+01  0.00000000E+00
  3.40000000E+02  2.00000000E+01  0.00000000E+00
  3.40000000E+02  4.99600361E-14  0.00000000E+00
  3.60000000E+02  3.00000000E+02  0.00000000E+00
  3.60000000E+02  2.80000000E+02  0.00000000E+00
  3.60000000E+02  2.60000000E+02  0.00000000E+00
  3.60000000E+02  2.40000000E+02  0.00000000E+00
  3.60000000E+02  2.20000000E+02  0.00000000E+00
  3.60000000E+02  2.00000000E+02  0.00000000E+00
  3.60000000E+02  1.80000000E+02  0.00000000E+00
  3.60000000E+02  1.60000000E+02  0.00000000E+00
  3.60000000E+02  1.40000000E+02  0.00000000E+00
  3.60000000E+02  1.20000000E+02  0.00000000E+00
  3.60000000E+02  1.00000000E+02  0.00000000E+00
  3.60000000E+02  8.00000000E+01  0.00000000E+00
  3.60000000E+02  6.00000000E+01  0.00000000E+00
  3.60000000E+02  4.00000000E+01  0.00000000E+00
  3.60000000E+02  2.00000000E+01  0.00000000E+00
  3.60000000E+02  4.99600361E-14  0.00000000E+00
  3.80000000E+02  3.00000000E+02  0.00000000E+00
  3.80000000E+02  2.80000000E+02  0.00000000E+00
  3.80000000E+02  2.60000000E+02  0.00000000E+00
  3.80000000E+02  2.40000000E+02  0.00000000E+00
  3.80000000E+02  2.20000000E+02  0.00000000E+00
  3.80000000E+02  2.00000000E+02  0.00000000E+00
  3.80000000E+02  1.80000000E+02  0.00000000E+00
  3.80000000E+02  1.60000000E+02  0.00000000E+00
  3.80000000E+02  1.40000000E+02  0.00000000E+00
  3.80000000E+02  1.20000000E+02  0.00000000E+00
  3.80000000E+02  1.00000000E+02  0.00000000E+00
  3.80000000E+02  8.00000000E+01  0.00000000E+00
  3.80000000E+02  6.00000000E+01  0.00000000E+00
  3.80000000E+02  4.00000000E+01  0.00000000E+00
  3.80000000E+02  2.00000000E+01  0.00000000E+00
  3.80000000E+02  4.99600361E-14  0.00000000E+00
  4.00000000E+02  3.00000000E+02  0.00000000E+00
  4.00000000E+02  2.80000000E+02  0.00000000E+00
  4.00000000E+02  2.60000000E+02  0.00000000E+00
  4.00000000E+02  2.40000000E+02  0.00000000E+00
  4.00000000E+02  2.20000000E+02  0.00000000E+00
  4.00000000E+02  2.00000000E+02  0.00000000E+00
  4.00000000E+02  1.80000000E+02  0.00000000E+00
  4.00000000E+02  1.60000000E+02  0.00000000E+00
  4.00000000E+02  1.40000000E+02  0.00000000E+00
  4.00000000E+02  1.20000000E+02  0.00000000E+00
  4.00000000E+02  1.00000000E+02  0.00000000E+00
  4.00000000E+02  8.00000000E+01  0.00000000E+00
  4.00000000E+02  6.00000000E+01  0.00000000E+00
  4.00000000E+02  4.00000000E+01  0.00000000E+00
  4.00000000E+02  2.00000000E+01  0.00000000E+00
  4.00000000E+02  4.99600361E-14  0.00000000E+00
  4.20000000E+02  3.00000000E+02  0.00000000E+00
  4.20000000E+02  2.80000000E+02  0.00000000E+00
  4.20000000E+02  2.60000000E+02  0.00000000E+00
  4.20000000E+02  2.40000000E+02  0.00000000E+00
  4.20000000E+02  2.20000000E+02  0.00000000E+00
  4.20000000E+02  2.00000000E+02  0.00000000E+00
  4.20000000E+02  1.80000000E+02  0.00000000E+00
  4.20000000E+02  1.60000000E+02  0.00000000E+00
  4.20000000E+02  1.40000000E+02  0.00000000E+00
  4.20000000E+02  1.20000000E+02  0.00000000E+00
  4.20000000E+02  1.00000000E+02  0.00000000E+00
  4.20000000E+02  8.00000000E+01  0.00000000E+00
  4.20000000E+02  6.00000000E+01  0.00000000E+00
  4.20000000E+02  4.00000000E+01  0.00000000E+00
  4.20000000E+02  2.00000000E+01  0.00000000E+00
  4.20000000E+02  4.99600361E-14  0.00000000E+00
  4.40000000E+02  3.00000000E+02  0.00000000E+00
  4.40000000E+02  2.80000000E+02  0.00000000E+00
  4.40000000E+02  2.60000000E+02  0.00000000E+00
  4.40000000E+02  2.40000000E+02  0.00000000E+00
  4.40000000E+02  2.20000000E+02  0.00000000E+00
  4.40000000E+02  2.00000000E+02  0.00000000E+00
  4.40000000E+02  1.80000000E+02  0.00000000E+00
  4.40000000E+02  1.60000000E+02  0.00000000E+00
  4.40000000E+02  1.40000000E+02  0.00000000E+00
  4.40000000E+02  1.20000000E+02  0.00000000E+00
  4.40000000E+02  1.00000000E+02  0.00000000E+00
  4.40000000E+02  8.00000000E+01  0.00000000E+00
  4.40000000E+02  6.00000000E+01  0.00000000E+00
  4.40000000E+02  4.00000000E+01  0.00000000E+00
  4.40000000E+02  2.00000000E+01  0.00000000E+00
  4.40000000E+02  4.99600361E-14  0.00000000E+00
  4.60000000E+02  3.00000000E+02  0.00000000E+00
  4.60000000E+02  2.80000000E+02  0.00000000E+00
  4.60000000E+02  2.60000000E+02  0.00000000E+00
  4.60000000E+02  2.40000000E+02  0.00000000E+00
  4.60000000E+02  2.20000000E+02  0.00000000E+00
  4.60000000E+02  2.00000000E+02  0.00000000E+00
  4.60000000E+02  1.80000000E+02  0.00000000E+00
  4.60000000E+02  1.60000000E+02  0.00000000E+00
  4.60000000E+02  1.40000000E+02  0.00000000E+00
  4.60000000E+02  1.20000000E+02  0.00000000E+00
  4.60000000E+02  1.00000000E+02  0.00000000E+00
  4.60000000E+02  8.00000000E+01  0.00000000E+00
  4.60000000E+02  6.00000000E+01  0.00000000E+00
  4.60000000E+02  4.00000000E+01  0.00000000E+00
  4.60000000E+02  2.00000000E+01  0.00000000E+00
  4.60000000E+02  4.99600361E-14  0.00000000E+00
  4.80000000E+02  3.00000000E+02  0.00000000E+00
  4.80000000E+02  2.80000000E+02  0.00000000E+00
  4.80000000E+02  2.60000000E+02  0.00000000E+00
  4.80000000E+02  2.40000000E+02  0.00000000E+00
  4.80000000E+02  2.20000000E+02  0.00000000E+00
  4.80000000E+02  2.00000000E+02  0.00000000E+00
  4.80000000E+02  1.80000000E+02  0.00000000E+00
  4.80000000E+02  1.60000000E+02  0.00000000E+00
  4.80000000E+02  1.40000000E+02  0.00000000E+00
  4.80000000E+02  1.20000000E+02  0.00000000E+00
  4.80000000E+02  1.00000000E+02  0.00000000E+00
  4.80000000E+02  8.00000000E+01  0.00000000E+00
  4.80000000E+02  6.00000000E+01  0.00000000E+00
  4.80000000E+02  4.00000000E+01  0.00000000E+00
  4.80000000E+02  2.00000000E+01  0.00000000E+00
  4.80000000E+02  4.99600361E-14  0.00000000E+00
  5.00000000E+02  3.00000000E+02  0.00000000E+00
  5.00000000E+02  2.80000000E+02  0.00000000E+00
  5.00000000E+02  2.60000000E+02  0.00000000E+00
  5.00000000E+02  2.40000000E+02  0.00000000E+00
  5.00000000E+02  2.20000000E+02  0.00000000E+00
  5.00000000E+02  2.00000000E+02  0.00000000E+00
  5.00000000E+02  1.80000000E+02  0.00000000E+00
  5.00000000E+02  1.60000000E+02  0.00000000E+00
  5.00000000E+02  1.40000000E+02  0.00000000E+00
  5.00000000E+02  1.20000000E+02  0.00000000E+00
  5.00000000E+02  1.00000000E+02  0.00000000E+00
  5.00000000E+02  8.00000000E+01  0.00000000E+00
  5.00000000E+02  6.00000000E+01  0.00000000E+00
  5.00000000E+02  4.00000000E+01  0.00000000E+00
  5.00000000E+02  2.00000000E+01  0.00000000E+00
  5.00000000E+02  4.99600361E-14  0.00000000E+00
  5.20000000E+02  3.00000000E+02  0.00000000E+00
  5.20000000E+02  2.80000000E+02  0.00000000E+00
  5.20000000E+02  2.60000000E+02  0.00000000E+00
  5.20000000E+02  2.40000000E+02  0.00000000E+00
  5.20000000E+02  2.20000000E+02  0.00000000E+00
  5.20000000E+02  2.00000000E+02  0.00000000E+00
  5.20000000E+02  1.80000000E+02  0.00000000E+00
  5.20000000E+02  1.60000000E+02  0.00000000E+00
  5.20000000E+02  1.40000000E+02  0.00000000E+00
  5.20000000E+02  1.20000000E+02  0.00000000E+00
  5.20000000E+02  1.00000000E+02  0.00000000E+00
  5.20000000E+02  8.00000000E+01  0.00000000E+00
  5.20000000E+02  6.00000000E+01  0.00000000E+00
  5.20000000E+02  4.00000000E+01  0.00000000E+00
  5.20000000E+02  2.00000000E+01  0.00000000E+00
  5.20000000E+02  4.99600361E-14  0.00000000E+00
  5.40000000E+02  3.00000000E+02  0.00000000E+00
  5.40000000E+02  2.80000000E+02  0.00000000E+00
  5.40000000E+02  2.60000000E+02  0.00000000E+00
  5.40000000E+02  2.40000000E+02  0.00000000E+00
  5.40000000E+02  2.20000000E+02  0.00000000E+00
  5.40000000E+02  2.00000000E+02  0.00000000E+00
  5.40000000E+02  1.80000000E+02  0.00000000E+00
  5.40000000E+02  1.60000000E+02  0.00000000E+00
  5.40000000E+02  1.40000000E+02  0.00000000E+00
  5.40000000E+02  1.20000000E+02  0.00000000E+00
  5.40000000E+02  1.00000000E+02  0.00000000E+00
  5.40000000E+02  8.00000000E+01  0.00000000E+00
  5.40000000E+02  6.00000000E+01  0.00000000E+00
  5.40000000E+02  4.00000000E+01  0.00000000E+00
  5.40000000E+02  2.00000000E+01  0.00000000E+00
  5.40000000E+02  4.99600361E-14  0.00000000E+00
  5.60000000E+02  3.00000000E+02  0.00000000E+00
  5.60000000E+02  2.80000000E+02  0.00000000E+00
  5.60000000E+02  2.60000000E+02  0.00000000E+00
  5.60000000E+02  2.40000000E+02  0.00000000E+00
  5.60000000E+02  2.20000000E+02  0.00000000E+00
  5.60000000E+02  2.00000000E+02  0.00000000E+00
  5.60000000E+02  1.80000000E+02  0.00000000E+00
  5.60000000E+02  1.60000000E+02  0.00000000E+00
  5.60000000E+02  1.40000000E+02  0.00000000E+00
  5.60000000E+02  1.20000000E+02  0.00000000E+00
  5.60000000E+02  1.00000000E+02  0.00000000E+00
  5.60000000E+02  8.00000000E+01  0.00000000E+00
  5.60000000E+02  6.00000000E+01  0.00000000E+00
  5.60000000E+02  4.00000000E+01  0.00000000E+00
  5.60000000E+02  2.00000000E+01  0.00000000E+00
  5.60000000E+02  4.99600361E-14  0.00000000E+00
  5.80000000E+02  3.00000000E+02  0.00000000E+00
  5.80000000E+02  2.80000000E+02  0.00000000E+00
  5.80000000E+02  2.60000000E+02  0.00000000E+00
  5.80000000E+02  2.40000000E+02  0.00000000E+00
  5.80000000E+02  2.20000000E+02  0.00000000E+00
  5.80000000E+02  2.00000000E+02  0.00000000E+00
  5.80000000E+02  1.80000000E+02  0.00000000E+00
  5.80000000E+02  1.60000000E+02  0.00000000E+00
  5.80000000E+02  1.40000000E+02  0.00000000E+00
  5.80000000E+02  1.20000000E+02  0.00000000E+00
  5.80000000E+02  1.00000000E+02  0.00000000E+00
  5.80000000E+02  8.00000000E+01  0.00000000E+00
  5.80000000E+02  6.00000000E+01  0.00000000E+00
  5.80000000E+02  4.00000000E+01  0.00000000E+00
  5.80000000E+02  2.00000000E+01  0.00000000E+00
  5.80000000E+02  4.99600361E-14  0.00000000E+00
  6.00000000E+02  3.00000000E+02  0.00000000E+00
  6.00000000E+02  2.80000000E+02  0.00000000E+00
  6.00000000E+02  2.60000000E+02  0.00000000E+00
  6.00000000E+02  2.40000000E+02  0.00000000E+00
  6.00000000E+02  2.20000000E+02  0.00000000E+00
  6.00000000E+02  2.00000000E+02  0.00000000E+00
  6.00000000E+02  1.80000000E+02  0.00000000E+00
  6.00000000E+02  1.60000000E+02  0.00000000E+00
  6.00000000E+02  1.40000000E+02  0.00000000E+00
  6.00000000E+02  1.20000000E+02  0.00000000E+00
  6.00000000E+02  1.00000000E+02  0.00000000E+00
  6.00000000E+02  8.00000000E+01  0.00000000E+00
  6.00000000E+02  6.00000000E+01  0.00000000E+00
  6.00000000E+02  4.00000000E+01  0.00000000E+00
  6.00000000E+02  2.00000000E+01  0.00000000E+00
  6.00000000E+02  4.99600361E-14  0.00000000E+00
CELLS       450      2250
         4           0           1          17          16
         4           1           2          18          17
         4           2           3          19          18
         4           3           4          20          19
         4           4           5          21          20
         4           5           6          22          21
         4           6           7          23          22
         4           7           8          24          23
         4           8           9          25          24
         4           9          10          26          25
         4          10          11          27          26
         4          11          12          28          27
         4          12          13          29          28
         4          13          14          30          29
         4          14          15          31          30
         4          16          17          33          32
         4          17          18          34          33
         4          18          19          35          34
         4          19          20          36          35
         4          20          21          37          36
         4          21          22          38          37
         4          22          23          39          38
         4          23          24          40          39
         4          24          25          41          40
         4          25          26          42          41
         4          26          27          43          42
         4          27          28          44          43
         4          28          29          45          44
         4          29          30          46          45
         4          30          31          47          46
         4          32          33          49          48
         4          33          34          50          49
         4          34          35          51          50
         4          35          36          52          51
         4          36          37          53          52
         4          37          38          54          53
         4          38          39          55          54
         4          39          40          56          55
         4          40          41          57          56
         4          41          42          58          57
         4          42          43          59          58
         4          43          44          60          59
         4          44          45          61          60
         4          45          46          62          61
         4          46          47          63          62
         4          48          49          65          64
         4          49          50          66          65
         4          50          51          67          66
         4          51          52          68          67
         4          52          53          69          68
         4          53          54          70          69
         4          54          55          71          70
         4          55          56          72          71
         4          56          57          73          72
         4          57          58          74          73
         4          58          59          75          74
         4          59          60          76          75
         4          60          61          77          76
         4          61          62          78          77
         4          62          63          79          78
         4          64          65          81          80
         4          65          66          82          81
         4          66          67          83          82
         4          67          68          84          83
         4          68          69          85          84
         4          69          70          86          85
         4          70          71          87          86
         4          71          72          88          87
         4          72          73          89          88
         4          73          74          90          89
         4          74          75          91          90
         4          75          76          92          91
         4          76          77          93          92
         4          77          78          94          93
         4          78          79          95          94
         4          80          81          97          96
         4          81          82          98          97
         4          82          83          99          98
         4          83          84         100          99
         4          84          85         101         100
         4          85          86         102         101
         4          86          87         103         102
         4          87          88         104         103
         4          88          89         105         104
         4          89          90         106         105
         4          90          91         107         106
         4          91          92         108         107
         4          92          93         109         108
         4          93          94         110         109
         4          94          95         111         110
         4          96          97         113         112
         4          97          98         114         113
         4          98          99         115         114
         4          99         100         116         115
         4         100         101         117         116
         4         101         102         118         117
         4         102         103         119         118
         4         103         104         120         119
         4         104         105         121         120
         4         105         106         122         121
         4         106         107         123         122
         4         107         108         124         123
         4         108         109         125         124
         4         109         110         126         125
         4         110         111         127         126
         4         112         113         129         128
         4         113         114         130         129
         4         114         115         131         130
         4         115         116         132         131
         4         116         117         133         132
         4         117         118         134         133
         4         118         119         135         134
         4         119         120         136         135
         4         120         121         137         136
         4         121         122         138         137
         4         122         123         139         138
         4         123         124         140         139
         4         124         125         141         140
         4         125         126         142         141
         4         126         127         143         142
         4         128         129         145         144
         4         129         130         146         145
         4         130         131         147         146
         4         131         132         148         147
         4         132         133         149         148
         4         133         134         150         149
         4         134         135         151         150
         4         135         136         152         151
         4         136         137         153         152
         4         137         138         154         153
         4         138         139         155         154
         4         139         140         156         155
         4         140         141         157         156
         4         141         142         158         157
         4         142         143         159         158
         4         144         145         161         160
         4         145         146         162         161
         4         146         147         163         162
         4         147         148         164         163
         4         148         149         165         164
         4         149         150         166         165
         4         150         151         167         166
         4         151         152         168         167
         4         152         153         169         168
         4         153         154         170         169
         4         154         155         171         170
         4         155         156         172         171
         4         156         157         173         172
         4         157         158         174         173
         4         158         159         175         174
         4         160         161         177         176
         4         161         162         178         177
         4         162         163         179         178
         4         163         164         180         179
         4         164         165         181         180
         4         165         166         182         181
         4         166         167         183         182
         4         167         168         184         183
         4         168         169         185         184
         4         169         170         186         185
         4         170         171         187         186
         4         171         172         188         187
         4         172         173         189         188
         4         173         174         190         189
         4         174         175         191         190
         4         176         177         193         192
         4         177         178         194         193
         4         178         179         195         194
         4         179         180         196         195
         4         180         181         197         196
         4         181         182         198         197
         4         182         183         199         198
         4         183         184         200         199
         4         184         185         201         200
         4         185         186         202         201
         4         186         187         203         202
         4         187         188         204         203
         4         188         189         205         204
         4         189         190         206         205
         4         190         191         207         206
         4         192         193         209         208
         4         193         194         210         209
         4         194         195         211         210
         4         195         196         212         211
         4         196         197         213         212
         4         197         198         214         213
         4         198         199         215         214
         4         199         200         216         215
         4         200         201         217         216
         4         201         202         218         217
         4         202         203         219         218
         4         203         204         220         219
         4         204         205         221         220
         4         205         206         222         221
         4         206         207         223         222
         4         208         209         225         224
         4         209         210         226         225
         4         210         211         227         226
         4         211         212         228         227
         4         212         213         229         228
         4         213         214         230         229
         4         214         215         231         230
         4         215         216         232         231
         4         216         217         233         232
         4         217         218         234         233
         4         218         219         235         234
         4         219         220         236         235
         4         220         221         237         236
         4         221         222         238         237
         4         222         223         239         238
         4         224         225         241         240
         4         225         226         242         241
         4         226         227         243         242
         4         227         228         244         243
         4         228         229         245         244
         4         229         230         246         245
         4         230         231         247         246
         4         231         232         248         247
         4         232         233         249         248
         4         233         234         250         249
         4         234         235         251         250
         4         235         236         252         251
         4         236         237         253         252
         4         237         238         254         253
         4         238         239         255         254
         4         240         241         257         256
         4         241         242         258         257
         4         242         243         259         258
         4         243         244         260         259
         4         244         245         261         260
         4         245         246         262         261
         4         246         247         263         262
         4         247         248         264         263
         4         248         249         265         264
         4         249         250         266         265
         4         250         251         267         266
         4         251         252         268         267
         4         252         253         269         268
         4         253         254         270         269
         4         254         255         271         270
         4         256         257         273         272
         4         257         258         274         273
         4         258         259         275         274
         4         259         260         276         275
         4         260         261         277         276
         4         261         262         278         277
         4         262         263         279         278
         4         263         264         280         279
         4         264         265         281         280
         4         265         266         282         281
         4         266         267         283         282
         4         267         268         284         283
         4         268         269         285         284
         4         269         270         286         285
         4         270         271         287         286
         4         272         273         289         288
         4         273         274         290         289
         4         274         275         291         290
         4         275         276         292         291
         4         276         277         293         292
         4         277         278         294         293
         4         278         279         295         294
         4         279         280         296         295
         4         280         281         297         296
         4         281         282         298         297
         4         282         283         299         298
         4         283         284         300         299
         4         284         285         301         300
         4         285         286         302         301
         4         286         287         303         302
         4         288         289         305         304
         4         289         290         306         305
         4         290         291         307         306
         4         291         292         308         307
         4         292         293         309         308
         4         293         294         310         309
         4         294         295         311         310
         4         295         296         312         311
         4         296         297         313         312
         4         297         298         314         313
         4         298         299         315         314
         4         299         300         316         315
         4         300         301         317         316
         4         301         302         318         317
         4         302         303         319         318
         4         304         305         321         320
         4         305         306         322         321
         4         306         307         323         322
         4         307         308         324         323
         4         308         309         325         324
         4         309         310         326         325
         4         310         311         327         326
         4         311         312         328         327
         4         312         313         329         328
         4         313         314         330         329
         4         314         315         331         330
         4         315         316         332         331
         4         316         317         333         332
         4         317         318         334         333
         4         318         319         335         334
         4         320         321         337         336
         4         321         322         338         337
         4         322         323         339         338
         4         323         324         340         339
         4         324         325         341         340
         4         325         326         342         341
         4         326         327         343         342
         4         327         328         344         343
         4         328         329         345         344
         4         329         330         346         345
         4         330         331         347         346
         4         331         332         348         347
         4         332         333         349         348
         4         333         334         350         349
         4         334         335         351         350
         4         336         337         353         352
         4         337         338         354         353
         4         338         339         355         354
         4         339         340         356         355
         4         340         341         357         356
         4         341         342         358         357
         4         342         343         359         358
         4         343         344         360         359
         4         344         345         361         360
         4         345         346         362         361
         4         346         347         363         362
         4         347         348         364         363
         4         348         349         365         364
         4         349         350         366         365
         4         350         351         367         366
         4         352         353         369         368
         4         353         354         370         369
         4         354         355         371         370
         4         355         356         372         371
         4         356         357         373         372
         4         357         358         374         373
         4         358         359         375         374
         4         359         360         376         375
         4         360         361         377         376
         4         361         362         378         377
         4         362         363         379         378
         4         363         364         380         379
         4         364         365         381         380
         4         365         366         382         381
         4         366         367         383         382
         4         368         369         385         384
         4         369         370         386         385
         4         370         371         387         386
         4         371         372         388         387
         4         372         373         389         388
         4         373         374         390         389
         4         374         375         391         390
         4         375         376         392         391
         4         376         377         393         392
         4         377         378         394         393
         4         378         379         395         394
         4         379         380         396         395
         4         380         381         397         396
         4         381         382         398         397
         4         382         383         399         398
         4         384         385         401         400
         4         385         386         402         401
         4         386         387         403         402
         4         387         388         404         403
         4         388         389         405         404
         4         389         390         406         405
         4         390         391         407         406
         4         391         392         408         407
         4         392         393         409         408
         4         393         394         410         409
         4         394         395         411         410
         4         395         396         412         411
         4         396         397         413         412
         4         397         398         414         413
         4         398         399         415         414
         4         400         401         417         416
         4         401         402         418         417
         4         402         403         419         418
         4         403         404         420         419
         4         404         405         421         420
         4         405         406         422         421
         4         406         407         423         422
         4         407         408         424         423
         4         408         409         425         424
         4         409         410         426         425
         4         410         411         427         426
         4         411         412         428         427
         4         412         413         429         428
         4         413         414         430         429
         4         414         415         431         430
         4         416         417         433         432
         4         417         418         434         433
         4         418         419         435         434
         4         419         420         436         435
         4         420         421         437         436
         4         421         422         438         437
         4         422         423         439         438
         4         423         424         440         439
         4         424         425         441         440
         4         425         426         442         441
         4         426         427         443         442
         4         427         428         444         443
         4         428         429         445         444
         4         429         430         446         445
         4         430         431         447         446
         4         432         433         449         448
         4         433         434         450         449
         4         434         435         451         450
         4         435         436         452         451
         4         436         437         453         452
         4         437         438         454         453
         4         438         439         455         454
         4         439         440         456         455
         4         440         441         457         456
         4         441         442         458         457
         4         442         443         459         458
         4         443         444         460         459
         4         444         445         461         460
         4         445         446         462         461
         4         446         447         463         462
         4         448         449         465         464
         4         449         450         466         465
         4         450         451         467         466
         4         451         452         468         467
         4         452         453         469         468
         4         453         454         470         469
         4         454         455         471         470
         4         455         456         472         471
         4         456         457         473         472
         4         457         458         474         473
         4         458         459         475         474
         4         459         460         476         475
         4         460         461         477         476
         4         461         462         478         477
         4         462         463         479         478
         4         464         465         481         480
         4         465         466         482         481
         4         466         467         483         482
         4         467         468         484         483
         4         468         469         485         484
         4         469         470         486         485
         4         470         471         487         486
         4         471         472         488         487
         4         472         473         489         488
         4         473         474         490         489
         4         474         475         491         490
         4         475         476         492         491
         4         476         477         493         492
         4         477         478         494         493
         4         478         479         495         494
CELL_TYPES        450
9
9
9
9
9
9
9
9
9
9
9
9
9
9
9
9
9
9
9
9
9
9
9
9
9
9
9
9
9
9
9
9
9
9
9
9
9
9
9
9
9
9
9
9
9
9
9
9
9
9
9
9
9
9
9
9
9
9
9
9
9
9
9
9
9
9
9
9
9
9
9
9
9
9
9
9
9
9
9
9
9
9
9
9
9
9
9
9
9
9
9
9
9
9
9
9
9
9
9
9
9
9
9
9
9
9
9
9
9
9
9
9
9
9
9
9
9
9
9
9
9
9
9
9
9
9
9
9
9
9
9
9
9
9
9
9
9
9
9
9
9
9
9
9
9
9
9
9
9
9
9
9
9
9
9
9
9
9
9
9
9
9
9
9
9
9
9
9
9
9
9
9
9
9
9
9
9
9
9
9
9
9
9
9
9
9
9
9
9
9
9
9
9
9
9
9
9
9
9
9
9
9
9
9
9
9
9
9
9
9
9
9
9
9
9
9
9
9
9
9
9
9
9
9
9
9
9
9
9
9
9
9
9
9
9
9
9
9
9
9
9
9
9
9
9
9
9
9
9
9
9
9
9
9
9
9
9
9
9
9
9
9
9
9
9
9
9
9
9
9
9
9
9
9
9
9
9
9
9
9
9
9
9
9
9
9
9
9
9
9
9
9
9
9
9
9
9
9
9
9
9
9
9
9
9
9
9
9
9
9
9
9
9
9
9
9
9
9
9
9
9
9
9
9
9
9
9
9
9
9
9
9
9
9
9
9
9
9
9
9
9
9
9
9
9
9
9
9
9
9
9
9
9
9
9
9
9
9
9
9
9
9
9
9
9
9
9
9
9
9
9
9
9
9
9
9
9
9
9
9
9
9
9
9
9
9
9
9
9
9
9
9
9
9
9
9
9
9
9
9
9
9
9
9
9
9
9
9
9
9
9
9
9
9
9
9
9
9
9
9
9
9
9
9
9
9
9
9
9
9
9
9
9
9
9
9
9
9
9
9
9
9
9
9
9
9
9
9
9
9
POINT_DATA       496
SCALARS p double 
LOOKUP_TABLE default
   64042430.5151308     
   64042607.9160445     
   64043114.1130810     
   64043855.3142999     
   64044696.0051553     
   64045510.9274219     
   64046247.8464566     
   64046923.3948683     
   64047550.3567187     
   64048130.9501156     
   64048665.8064194     
   64049153.8783506     
   64049592.0178944     
   64049972.3910375     
   64050282.2087693     
   64050417.6938949     
   62025025.3382903     
   62025146.7163760     
   62025399.6550364     
   62025658.9880330     
   62025941.9973823     
   62026304.3029848     
   62026737.1605242     
   62027186.5726361     
   62027624.9696585     
   62028041.1185352     
   62028426.9977780     
   62028775.3979843     
   62029077.4737588     
   62029320.2952534     
   62029474.7185433     
   62029524.4935048     
   60026602.5944917     
   60026600.4973071     
   60026616.2665863     
   60026697.5013802     
   60026856.7679081     
   60027060.4426832     
   60027294.5679449     
   60027557.4791905     
   60027831.0992763     
   60028099.3130016     
   60028350.5170545     
   60028574.5769970     
   60028761.1669598     
   60028897.7998246     
   60028975.6247211     
   60028999.3948478     
   58047438.1178372     
   58047426.3523605     
   58047433.9113099     
   58047488.8758439     
   58047568.4926680     
   58047666.4924322     
   58047782.4732468     
   58047914.3884321     
   58048058.0698321     
   58048204.0384173     
   58048342.2802861     
   58048463.6497208     
   58048559.7363668     
   58048624.3359376     
   58048656.6673599     
   58048665.1151050     
   56087997.6000618     
   56087989.5194515     
   56087980.7068658     
   56087987.0670482     
   56088005.1519437     
   56088029.6609998     
   56088060.8459842     
   56088100.4627159     
   56088147.6037891     
   56088198.6179624     
   56088247.7814482     
   56088289.1443992     
   56088317.9615364     
   56088332.2321114     
   56088334.5796435     
   56088333.4533650     
   54148107.1424070     
   54148096.7496482     
   54148070.8502329     
   54148039.5660672     
   54148007.7183361     
   54147975.4935438     
   54147944.1109931     
   54147915.7722013     
   54147891.8687114     
   54147871.9012104     
   54147853.9169433     
   54147835.5434246     
   54147815.3413845     
   54147794.1064445     
   54147775.8870769     
   54147768.2647561     
   52227526.0516467     
   52227509.5026404     
   52227466.5707438     
   52227407.5098575     
   52227338.3274480     
   52227262.9569638     
   52227184.4270996     
   52227105.8053700     
   52227029.7040562     
   52226957.7681757     
   52226890.7258180     
   52226829.0357495     
   52226773.7925447     
   52226727.5984610     
   52226695.1119911     
   52226683.0167914     
   50325946.0992649     
   50325925.4968068     
   50325869.9756174     
   50325790.3387218     
   50325694.1898528     
   50325587.1064819     
   50325473.7321856     
   50325358.2020215     
   50325244.2119456     
   50325134.8857948     
   50325032.8315327     
   50324940.4959174     
   50324860.7145319     
   50324797.2238876     
   50324754.9293406     
   50324739.7701619     
   48443009.8943468     
   48442986.5004525     
   48442922.4891769     
   48442828.7475930     
   48442713.7100397     
   48442584.1497845     
   48442445.8192919     
   48442303.8587616     
   48442162.9333512     
   48442027.2853760     
   48441900.8285037     
   48441787.3498758     
   48441690.8062520     
   48441615.6099295     
   48441566.7282778     
   48441549.5207159     
   46578303.8987773     
   46578278.8943432     
   46578209.6886370     
   46578106.8983907     
   46577979.3534565     
   46577834.5493856     
   46577679.0621912     
   46577518.8397258     
   46577359.3629952     
   46577205.7315050     
   46577062.7672235     
   46576935.1418840     
   46576827.5175212     
   46576744.6744307     
   46576691.5373208     
   46576673.0182277     
   44731361.0320291     
   44731335.2543480     
   44731263.2907017     
   44731155.2397544     
   44731020.0030853     
   44730865.4869424     
   44730698.8310217     
   44730526.5997003     
   44730354.9067862     
   44730189.4966226     
   44730035.8204473     
   44729899.1259018     
   44729784.5097687     
   44729696.9340728     
   44729641.2181890     
   44729621.9173976     
   42901662.4281651     
   42901636.4421288     
   42901563.3947608     
   42901452.7629434     
   42901313.3204615     
   42901153.1608952     
   42900979.7842083     
   42900800.1898635     
   42900620.9591564     
   42900448.3066573     
   42900288.1158832     
   42900145.9856024     
   42900027.2619864     
   42899937.0023300     
   42899879.8943808     
   42899860.1890179     
   41088639.6595601     
   41088613.8063500     
   41088540.7313550     
   41088429.2880217     
   41088288.0216790     
   41088125.0688344     
   41087948.1354154     
   41087764.5124268     
   41087581.0996318     
   41087404.4309023     
   41087240.6824006     
   41087095.6686248     
   41086974.8468872     
   41086883.2915452     
   41086825.5918378     
   41086805.7445534     
   39291677.0554507     
   39291651.5055226     
   39291578.9781077     
   39291467.7724600     
   39291326.1796666     
   39291162.2987114     
   39290983.9369021     
   39290798.5608083     
   39290613.2747907     
   39290434.8098578     
   39290269.5162263     
   39290123.3415529     
   39290001.7896024     
   39289909.8820638     
   39289852.1042616     
   39289832.2725780     
   37510114.1034796     
   37510088.9005154     
   37510017.1350550     
   37509906.6673957     
   37509765.5627146     
   37509601.8529141     
   37509423.3817372     
   37509237.7090589     
   37509052.0528784     
   37508873.2528905     
   37508707.7414253     
   37508561.5135073     
   37508440.0860505     
   37508348.4351026     
   37508290.9262111     
   37508271.2127989     
   35743247.8964439     
   35743222.9941483     
   35743151.9454297     
   35743042.3159723     
   35742902.0118506     
   35742739.0057831     
   35742561.1459322     
   35742376.0286314     
   35742190.9165615     
   35742012.6854977     
   35741847.7858240     
   35741702.2062582     
   35741581.4289943     
   35741490.3720525     
   35741433.3046547     
   35741413.7581764     
   33990335.6081387     
   33990310.8991859     
   33990240.3464183     
   33990131.3839100     
   33989991.8506570     
   33989829.6949928     
   33989652.7607483     
   33989468.6426726     
   33989284.5930192     
   33989107.4635225     
   33988943.6664856     
   33988799.1401325     
   33988679.3069976     
   33988589.0144654     
   33988532.4586097     
   33988513.0961544     
   32250596.9770486     
   32250572.3196483     
   32250501.9389377     
   32250393.3115489     
   32250254.3199699     
   32250092.9391204     
   32249917.0144241     
   32249734.1110915     
   32249551.4227377     
   32249375.7211897     
   32249213.3281578     
   32249070.0916460     
   32248951.3526495     
   32248861.8933125     
   32248805.8623553     
   32248786.6802873     
   30523216.8036145     
   30523192.0384038     
   30523121.4639294     
   30523012.7806954     
   30522874.0296924     
   30522713.2756730     
   30522538.3770829     
   30522356.8432423     
   30522175.7600891     
   30522001.7611863     
   30521841.0228216     
   30521699.2621004     
   30521581.7207986     
   30521493.1227254     
   30521437.5989757     
   30521418.5822099     
   28807347.4137710     
   28807322.3999884     
   28807251.2933411     
   28807142.1881282     
   28807003.4208622     
   28806843.2125277     
   28806669.4434117     
   28806489.5346942     
   28806310.4048386     
   28806138.4801284     
   28805979.7279402     
   28805839.6885593     
   28805723.4840136     
   28805635.7887301     
   28805580.7537873     
   28805561.8844926     
   27102111.3394088     
   27102085.9056080     
   27102013.9230472     
   27101904.1200246     
   27101765.2313838     
   27101605.6869802     
   27101433.3893023     
   27101255.6186115     
   27101079.0483788     
   27100909.8104370     
   27100753.5844193     
   27100615.6764431     
   27100501.0626398     
   27100414.3784186     
   27100359.8417705     
   27100341.1080620     
   25406603.5102044     
   25406577.5454729     
   25406504.4559892     
   25406393.8241470     
   25406254.9571115     
   25406096.5338256     
   25405926.4395818     
   25405751.7371088     
   25405578.7452638     
   25405413.1896089     
   25405260.3625999     
   25405125.2631659     
   25405012.6861775     
   25404927.2383863     
   25404873.2630728     
   25404854.6661454     
   23719893.7907921     
   23719867.2144610     
   23719792.9335399     
   23719681.6319964     
   23719543.3206720     
   23719386.9633629     
   23719220.3616203     
   23719050.2316801     
   23718882.3969298     
   23718722.0367824     
   23718573.9342185     
   23718442.6883410     
   23718332.8634111     
   23718249.0448368     
   23718195.7723711     
   23718177.3331293     
   22041029.4277719     
   22041002.2251213     
   22040926.8709761     
   22040815.4314045     
   22040678.7603584     
   22040526.0821283     
   22040364.9822115     
   22040201.6528534     
   22040041.2447875     
   22039888.2291207     
   22039746.7382727     
   22039620.8572704     
   22039514.8489443     
   22039433.2734805     
   22039380.9497695     
   22039362.7153320     
   20369037.6048604     
   20369009.7996942     
   20368933.7225835     
   20368823.1924243     
   20368689.9844213     
   20368543.4595285     
   20368390.7545990     
   20368237.2992703     
   20368087.3679863     
   20367944.5614646     
   20367812.2177404     
   20367693.7737036     
   20367593.0852001     
   20367514.6535967     
   20367463.6607293     
   20367445.7116227     
   18702927.7040375     
   18702899.4270343     
   18702823.3590209     
   18702715.5317129     
   18702588.6270158     
   18702451.8139306     
   18702311.4123871     
   18702171.7956226     
   18702036.1757603     
   18701907.1645865     
   18701787.1910497     
   18701678.9032430     
   18701585.5890282     
   18701511.5848342     
   18701462.4902987     
   18701444.9507494     
   17041693.7091406     
   17041665.2574796     
   17041590.5866689     
   17041488.4408286     
   17041372.0977151     
   17041249.8767392     
   17041126.7315082     
   17041005.7097112     
   17040888.8787857     
   17040777.8452676     
   17040674.1107528     
   17040579.4106820     
   17040496.2291100     
   17040428.4795656     
   17040382.1281052     
   17040365.1932867     
   15384316.6295219     
   15384288.6230096     
   15384217.9367236     
   15384126.4097590     
   15384026.8425636     
   15383925.4921074     
   15383825.3821456     
   15383728.1836614     
   15383634.9195626     
   15383546.3394910     
   15383463.1346628     
   15383386.1549768     
   15383316.7706759     
   15383257.9635501     
   15383215.6973283     
   15383199.6629873     
   13729766.9513308     
   13729740.7853144     
   13729679.1945923     
   13729606.5692481     
   13729532.2489096     
   13729458.9270449     
   13729387.8237639     
   13729319.5194727     
   13729254.3315022     
   13729192.4465018     
   13729134.0137826     
   13729079.2282591     
   13729028.5053071     
   13728982.7701501     
   13728946.8879789     
   13728932.4700247     
   12077007.1370237     
   12076986.7928817     
   12076945.8247527     
   12076904.7558572     
   12076864.5800445     
   12076825.9205631     
   12076788.9099767     
   12076753.6044264     
   12076720.0260919     
   12076688.1685031     
   12076657.9891406     
   12076629.4169738     
   12076602.3564797     
   12076576.8521095     
   12076552.2351520     
   12076539.9563927     
   10425000.0000000     
   10425000.0000000     
   10425000.0000000     
   10425000.0000000     
   10425000.0000000     
   10425000.0000000     
   10425000.0000000     
   10425000.0000000     
   10425000.0000000     
   10425000.0000000     
   10425000.0000000     
   10425000.0000000     
   10425000.0000000     
   10425000.0000000     
   10425000.0000000     
   10425000.0000000     
VECTORS u double 
    0.00000E+00        -0.11591E-01         0.00000E+00
    0.00000E+00        -0.98874E-02         0.00000E+00
    0.00000E+00        -0.84449E-02         0.00000E+00
    0.00000E+00        -0.73649E-02         0.00000E+00
    0.00000E+00        -0.66064E-02         0.00000E+00
    0.00000E+00        -0.60040E-02         0.00000E+00
    0.00000E+00        -0.53966E-02         0.00000E+00
    0.00000E+00        -0.47456E-02         0.00000E+00
    0.00000E+00        -0.40637E-02         0.00000E+00
    0.00000E+00        -0.33695E-02         0.00000E+00
    0.00000E+00        -0.26789E-02         0.00000E+00
    0.00000E+00        -0.20078E-02         0.00000E+00
    0.00000E+00        -0.13745E-02         0.00000E+00
    0.00000E+00        -0.80135E-03         0.00000E+00
    0.00000E+00        -0.32012E-03         0.00000E+00
    0.00000E+00         0.00000E+00         0.00000E+00
    0.41249E-02        -0.11572E-01         0.00000E+00
    0.38846E-02        -0.10009E-01         0.00000E+00
    0.33471E-02        -0.87386E-02         0.00000E+00
    0.27179E-02        -0.77607E-02         0.00000E+00
    0.21315E-02        -0.69762E-02         0.00000E+00
    0.16886E-02        -0.62714E-02         0.00000E+00
    0.14726E-02        -0.55806E-02         0.00000E+00
    0.13350E-02        -0.48824E-02         0.00000E+00
    0.12167E-02        -0.41720E-02         0.00000E+00
    0.11038E-02        -0.34577E-02         0.00000E+00
    0.98847E-03        -0.27514E-02         0.00000E+00
    0.86419E-03        -0.20676E-02         0.00000E+00
    0.72349E-03        -0.14231E-02         0.00000E+00
    0.55509E-03        -0.83973E-03         0.00000E+00
    0.33784E-03        -0.34887E-03         0.00000E+00
    0.00000E+00         0.00000E+00         0.00000E+00
    0.73796E-02        -0.11746E-01         0.00000E+00
    0.66314E-02        -0.10561E-01         0.00000E+00
    0.56132E-02        -0.95499E-02         0.00000E+00
    0.46043E-02        -0.86291E-02         0.00000E+00
    0.37881E-02        -0.77514E-02         0.00000E+00
    0.32201E-02        -0.68954E-02         0.00000E+00
    0.28315E-02        -0.60660E-02         0.00000E+00
    0.25463E-02        -0.52657E-02         0.00000E+00
    0.23037E-02        -0.44829E-02         0.00000E+00
    0.20745E-02        -0.37137E-02         0.00000E+00
    0.18425E-02        -0.29633E-02         0.00000E+00
    0.15943E-02        -0.22417E-02         0.00000E+00
    0.13154E-02        -0.15633E-02         0.00000E+00
    0.98549E-03        -0.94731E-03         0.00000E+00
    0.56843E-03        -0.41876E-03         0.00000E+00
    0.00000E+00         0.00000E+00         0.00000E+00
    0.96163E-02        -0.12649E-01         0.00000E+00
    0.83976E-02        -0.11614E-01         0.00000E+00
    0.72216E-02        -0.10640E-01         0.00000E+00
    0.61741E-02        -0.96536E-02         0.00000E+00
    0.52947E-02        -0.86612E-02         0.00000E+00
    0.46068E-02        -0.76868E-02         0.00000E+00
    0.40758E-02        -0.67453E-02         0.00000E+00
    0.36489E-02        -0.58384E-02         0.00000E+00
    0.32787E-02        -0.49633E-02         0.00000E+00
    0.29307E-02        -0.41164E-02         0.00000E+00
    0.25815E-02        -0.32988E-02         0.00000E+00
    0.22113E-02        -0.25171E-02         0.00000E+00
    0.18000E-02        -0.17821E-02         0.00000E+00
    0.13214E-02        -0.11081E-02         0.00000E+00
    0.73846E-03        -0.51056E-03         0.00000E+00
    0.00000E+00         0.00000E+00         0.00000E+00
    0.11323E-01        -0.14018E-01         0.00000E+00
    0.99289E-02        -0.12918E-01         0.00000E+00
    0.86841E-02        -0.11836E-01         0.00000E+00
    0.75839E-02        -0.10753E-01         0.00000E+00
    0.66382E-02        -0.96710E-02         0.00000E+00
    0.58493E-02        -0.86012E-02         0.00000E+00
    0.51966E-02        -0.75583E-02         0.00000E+00
    0.46432E-02        -0.65497E-02         0.00000E+00
    0.41506E-02        -0.55768E-02         0.00000E+00
    0.36857E-02        -0.46390E-02         0.00000E+00
    0.32214E-02        -0.37375E-02         0.00000E+00
    0.27339E-02        -0.28768E-02         0.00000E+00
    0.21990E-02        -0.20641E-02         0.00000E+00
    0.15889E-02        -0.13087E-02         0.00000E+00
    0.86940E-03        -0.61930E-03         0.00000E+00
    0.00000E+00         0.00000E+00         0.00000E+00
    0.12818E-01        -0.15548E-01         0.00000E+00
    0.11329E-01        -0.14339E-01         0.00000E+00
    0.10009E-01        -0.13145E-01         0.00000E+00
    0.88441E-02        -0.11959E-01         0.00000E+00
    0.78275E-02        -0.10780E-01         0.00000E+00
    0.69502E-02        -0.96159E-02         0.00000E+00
    0.61932E-02        -0.84756E-02         0.00000E+00
    0.55282E-02        -0.73666E-02         0.00000E+00
    0.49234E-02        -0.62930E-02         0.00000E+00
    0.43481E-02        -0.52564E-02         0.00000E+00
    0.37748E-02        -0.42589E-02         0.00000E+00
    0.31773E-02        -0.33038E-02         0.00000E+00
    0.25301E-02        -0.23957E-02         0.00000E+00
    0.18055E-02        -0.15402E-02         0.00000E+00
    0.97308E-03        -0.74140E-03         0.00000E+00
    0.00000E+00         0.00000E+00         0.00000E+00
    0.14160E-01        -0.17175E-01         0.00000E+00
    0.12589E-01        -0.15856E-01         0.00000E+00
    0.11196E-01        -0.14553E-01         0.00000E+00
    0.99628E-02        -0.13261E-01         0.00000E+00
    0.88750E-02        -0.11982E-01         0.00000E+00
    0.79169E-02        -0.10719E-01         0.00000E+00
    0.70689E-02        -0.94786E-02         0.00000E+00
    0.63061E-02        -0.82674E-02         0.00000E+00
    0.56007E-02        -0.70896E-02         0.00000E+00
    0.49247E-02        -0.59480E-02         0.00000E+00
    0.42510E-02        -0.48450E-02         0.00000E+00
    0.35535E-02        -0.37833E-02         0.00000E+00
    0.28063E-02        -0.27659E-02         0.00000E+00
    0.19831E-02        -0.17957E-02         0.00000E+00
    0.10567E-02        -0.87414E-03         0.00000E+00
    0.00000E+00         0.00000E+00         0.00000E+00
    0.15346E-01        -0.18883E-01         0.00000E+00
    0.13703E-01        -0.17456E-01         0.00000E+00
    0.12243E-01        -0.16044E-01         0.00000E+00
    0.10945E-01        -0.14646E-01         0.00000E+00
    0.97891E-02        -0.13263E-01         0.00000E+00
    0.87576E-02        -0.11897E-01         0.00000E+00
    0.78294E-02        -0.10553E-01         0.00000E+00
    0.69810E-02        -0.92360E-02         0.00000E+00
    0.61870E-02        -0.79497E-02         0.00000E+00
    0.54212E-02        -0.66973E-02         0.00000E+00
    0.46578E-02        -0.54811E-02         0.00000E+00
    0.38714E-02        -0.43034E-02         0.00000E+00
    0.30368E-02        -0.31658E-02         0.00000E+00
    0.21294E-02        -0.20698E-02         0.00000E+00
    0.11248E-02        -0.10153E-02         0.00000E+00
    0.00000E+00         0.00000E+00         0.00000E+00
    0.16374E-01        -0.20658E-01         0.00000E+00
    0.14670E-01        -0.19125E-01         0.00000E+00
    0.13151E-01        -0.17606E-01         0.00000E+00
    0.11793E-01        -0.16101E-01         0.00000E+00
    0.10576E-01        -0.14611E-01         0.00000E+00
    0.94790E-02        -0.13138E-01         0.00000E+00
    0.84805E-02        -0.11687E-01         0.00000E+00
    0.75579E-02        -0.10260E-01         0.00000E+00
    0.66869E-02        -0.88604E-02         0.00000E+00
    0.58429E-02        -0.74917E-02         0.00000E+00
    0.50012E-02        -0.61558E-02         0.00000E+00
    0.41376E-02        -0.48544E-02         0.00000E+00
    0.32280E-02        -0.35884E-02         0.00000E+00
    0.22496E-02        -0.23582E-02         0.00000E+00
    0.11803E-02        -0.11629E-02         0.00000E+00
    0.00000E+00         0.00000E+00         0.00000E+00
    0.17244E-01        -0.22488E-01         0.00000E+00
    0.15491E-01        -0.20850E-01         0.00000E+00
    0.13921E-01        -0.19224E-01         0.00000E+00
    0.12512E-01        -0.17611E-01         0.00000E+00
    0.11241E-01        -0.16013E-01         0.00000E+00
    0.10087E-01        -0.14431E-01         0.00000E+00
    0.90278E-02        -0.12868E-01         0.00000E+00
    0.80417E-02        -0.11327E-01         0.00000E+00
    0.71052E-02        -0.98107E-02         0.00000E+00
    0.61946E-02        -0.83211E-02         0.00000E+00
    0.52863E-02        -0.68601E-02         0.00000E+00
    0.43572E-02        -0.54290E-02         0.00000E+00
    0.33848E-02        -0.40282E-02         0.00000E+00
    0.23474E-02        -0.26575E-02         0.00000E+00
    0.12252E-02        -0.13156E-02         0.00000E+00
    0.00000E+00         0.00000E+00         0.00000E+00
    0.17957E-01        -0.24360E-01         0.00000E+00
    0.16166E-01        -0.22618E-01         0.00000E+00
    0.14555E-01        -0.20886E-01         0.00000E+00
    0.13103E-01        -0.19165E-01         0.00000E+00
    0.11786E-01        -0.17457E-01         0.00000E+00
    0.10585E-01        -0.15763E-01         0.00000E+00
    0.94757E-02        -0.14087E-01         0.00000E+00
    0.84371E-02        -0.12429E-01         0.00000E+00
    0.74464E-02        -0.10792E-01         0.00000E+00
    0.64806E-02        -0.91771E-02         0.00000E+00
    0.55173E-02        -0.75866E-02         0.00000E+00
    0.45342E-02        -0.60211E-02         0.00000E+00
    0.35103E-02        -0.44806E-02         0.00000E+00
    0.24253E-02        -0.29648E-02         0.00000E+00
    0.12607E-02        -0.14720E-02         0.00000E+00
    0.00000E+00         0.00000E+00         0.00000E+00
    0.18516E-01        -0.26264E-01         0.00000E+00
    0.16697E-01        -0.24418E-01         0.00000E+00
    0.15055E-01        -0.22580E-01         0.00000E+00
    0.13568E-01        -0.20751E-01         0.00000E+00
    0.12217E-01        -0.18933E-01         0.00000E+00
    0.10977E-01        -0.17126E-01         0.00000E+00
    0.98282E-02        -0.15334E-01         0.00000E+00
    0.87479E-02        -0.13556E-01         0.00000E+00
    0.77141E-02        -0.11795E-01         0.00000E+00
    0.67046E-02        -0.10053E-01         0.00000E+00
    0.56976E-02        -0.83294E-02         0.00000E+00
    0.46719E-02        -0.66259E-02         0.00000E+00
    0.36074E-02        -0.49422E-02         0.00000E+00
    0.24851E-02        -0.32777E-02         0.00000E+00
    0.12878E-02        -0.16310E-02         0.00000E+00
    0.00000E+00         0.00000E+00         0.00000E+00
    0.18923E-01        -0.28189E-01         0.00000E+00
    0.17085E-01        -0.26240E-01         0.00000E+00
    0.15421E-01        -0.24297E-01         0.00000E+00
    0.13911E-01        -0.22360E-01         0.00000E+00
    0.12534E-01        -0.20431E-01         0.00000E+00
    0.11267E-01        -0.18511E-01         0.00000E+00
    0.10088E-01        -0.16600E-01         0.00000E+00
    0.89773E-02        -0.14701E-01         0.00000E+00
    0.79116E-02        -0.12815E-01         0.00000E+00
    0.68695E-02        -0.10942E-01         0.00000E+00
    0.58300E-02        -0.90833E-02         0.00000E+00
    0.47726E-02        -0.72393E-02         0.00000E+00
    0.36780E-02        -0.54099E-02         0.00000E+00
    0.25282E-02        -0.35944E-02         0.00000E+00
    0.13070E-02        -0.17918E-02         0.00000E+00
    0.00000E+00         0.00000E+00         0.00000E+00
    0.19179E-01        -0.30126E-01         0.00000E+00
    0.17332E-01        -0.28075E-01         0.00000E+00
    0.15657E-01        -0.26027E-01         0.00000E+00
    0.14133E-01        -0.23983E-01         0.00000E+00
    0.12740E-01        -0.21943E-01         0.00000E+00
    0.11456E-01        -0.19908E-01         0.00000E+00
    0.10259E-01        -0.17880E-01         0.00000E+00
    0.91281E-02        -0.15858E-01         0.00000E+00
    0.80415E-02        -0.13844E-01         0.00000E+00
    0.69779E-02        -0.11839E-01         0.00000E+00
    0.59167E-02        -0.98438E-02         0.00000E+00
    0.48382E-02        -0.78577E-02         0.00000E+00
    0.37236E-02        -0.58811E-02         0.00000E+00
    0.25557E-02        -0.39133E-02         0.00000E+00
    0.13190E-02        -0.19535E-02         0.00000E+00
    0.00000E+00         0.00000E+00         0.00000E+00
    0.19288E-01        -0.32065E-01         0.00000E+00
    0.17441E-01        -0.29914E-01         0.00000E+00
    0.15763E-01        -0.27763E-01         0.00000E+00
    0.14235E-01        -0.25611E-01         0.00000E+00
    0.12837E-01        -0.23461E-01         0.00000E+00
    0.11546E-01        -0.21312E-01         0.00000E+00
    0.10342E-01        -0.19164E-01         0.00000E+00
    0.92023E-02        -0.17019E-01         0.00000E+00
    0.81059E-02        -0.14878E-01         0.00000E+00
    0.70318E-02        -0.12740E-01         0.00000E+00
    0.59597E-02        -0.10607E-01         0.00000E+00
    0.48703E-02        -0.84779E-02         0.00000E+00
    0.37454E-02        -0.63534E-02         0.00000E+00
    0.25683E-02        -0.42328E-02         0.00000E+00
    0.13241E-02        -0.21154E-02         0.00000E+00
    0.00000E+00         0.00000E+00         0.00000E+00
    0.19250E-01        -0.34001E-01         0.00000E+00
    0.17411E-01        -0.31749E-01         0.00000E+00
    0.15740E-01        -0.29495E-01         0.00000E+00
    0.14219E-01        -0.27237E-01         0.00000E+00
    0.12826E-01        -0.24977E-01         0.00000E+00
    0.11540E-01        -0.22713E-01         0.00000E+00
    0.10339E-01        -0.20447E-01         0.00000E+00
    0.92017E-02        -0.18179E-01         0.00000E+00
    0.81065E-02        -0.15910E-01         0.00000E+00
    0.70326E-02        -0.13640E-01         0.00000E+00
    0.59601E-02        -0.11369E-01         0.00000E+00
    0.48700E-02        -0.90968E-02         0.00000E+00
    0.37443E-02        -0.68245E-02         0.00000E+00
    0.25668E-02        -0.45513E-02         0.00000E+00
    0.13229E-02        -0.22767E-02         0.00000E+00
    0.00000E+00         0.00000E+00         0.00000E+00
    0.19066E-01        -0.35923E-01         0.00000E+00
    0.17244E-01        -0.33573E-01         0.00000E+00
    0.15590E-01        -0.31217E-01         0.00000E+00
    0.14085E-01        -0.28854E-01         0.00000E+00
    0.12709E-01        -0.26484E-01         0.00000E+00
    0.11438E-01        -0.24107E-01         0.00000E+00
    0.10252E-01        -0.21723E-01         0.00000E+00
    0.91275E-02        -0.19332E-01         0.00000E+00
    0.80444E-02        -0.16936E-01         0.00000E+00
    0.69816E-02        -0.14533E-01         0.00000E+00
    0.59191E-02        -0.12125E-01         0.00000E+00
    0.48380E-02        -0.97113E-02         0.00000E+00
    0.37208E-02        -0.72921E-02         0.00000E+00
    0.25514E-02        -0.48674E-02         0.00000E+00
    0.13152E-02        -0.24368E-02         0.00000E+00
    0.00000E+00         0.00000E+00         0.00000E+00
    0.18737E-01        -0.37826E-01         0.00000E+00
    0.16939E-01        -0.35378E-01         0.00000E+00
    0.15312E-01        -0.32921E-01         0.00000E+00
    0.13835E-01        -0.30453E-01         0.00000E+00
    0.12485E-01        -0.27975E-01         0.00000E+00
    0.11241E-01        -0.25485E-01         0.00000E+00
    0.10080E-01        -0.22984E-01         0.00000E+00
    0.89806E-02        -0.20472E-01         0.00000E+00
    0.79205E-02        -0.17949E-01         0.00000E+00
    0.68793E-02        -0.15416E-01         0.00000E+00
    0.58370E-02        -0.12872E-01         0.00000E+00
    0.47749E-02        -0.10318E-01         0.00000E+00
    0.36754E-02        -0.77541E-02         0.00000E+00
    0.25223E-02        -0.51797E-02         0.00000E+00
    0.13013E-02        -0.25949E-02         0.00000E+00
    0.00000E+00         0.00000E+00         0.00000E+00
    0.18260E-01        -0.39700E-01         0.00000E+00
    0.16497E-01        -0.37155E-01         0.00000E+00
    0.14906E-01        -0.34599E-01         0.00000E+00
    0.13467E-01        -0.32028E-01         0.00000E+00
    0.12156E-01        -0.29443E-01         0.00000E+00
    0.10950E-01        -0.26841E-01         0.00000E+00
    0.98257E-02        -0.24225E-01         0.00000E+00
    0.87615E-02        -0.21593E-01         0.00000E+00
    0.77352E-02        -0.18945E-01         0.00000E+00
    0.67260E-02        -0.16283E-01         0.00000E+00
    0.57141E-02        -0.13606E-01         0.00000E+00
    0.46806E-02        -0.10915E-01         0.00000E+00
    0.36078E-02        -0.82081E-02         0.00000E+00
    0.24796E-02        -0.54866E-02         0.00000E+00
    0.12812E-02        -0.27504E-02         0.00000E+00
    0.00000E+00         0.00000E+00         0.00000E+00
    0.17636E-01        -0.41537E-01         0.00000E+00
    0.15916E-01        -0.38898E-01         0.00000E+00
    0.14373E-01        -0.36243E-01         0.00000E+00
    0.12983E-01        -0.33570E-01         0.00000E+00
    0.11721E-01        -0.30879E-01         0.00000E+00
    0.10564E-01        -0.28168E-01         0.00000E+00
    0.94884E-02        -0.25437E-01         0.00000E+00
    0.84704E-02        -0.22687E-01         0.00000E+00
    0.74884E-02        -0.19918E-01         0.00000E+00
    0.65216E-02        -0.17130E-01         0.00000E+00
    0.55500E-02        -0.14323E-01         0.00000E+00
    0.45547E-02        -0.11497E-01         0.00000E+00
    0.35178E-02        -0.86516E-02         0.00000E+00
    0.24228E-02        -0.57866E-02         0.00000E+00
    0.12546E-02        -0.29026E-02         0.00000E+00
    0.00000E+00         0.00000E+00         0.00000E+00
    0.16862E-01        -0.43329E-01         0.00000E+00
    0.15195E-01        -0.40596E-01         0.00000E+00
    0.13711E-01        -0.37844E-01         0.00000E+00
    0.12381E-01        -0.35070E-01         0.00000E+00
    0.11181E-01        -0.32274E-01         0.00000E+00
    0.10085E-01        -0.29455E-01         0.00000E+00
    0.90681E-02        -0.26613E-01         0.00000E+00
    0.81070E-02        -0.23748E-01         0.00000E+00
    0.71797E-02        -0.20860E-01         0.00000E+00
    0.62653E-02        -0.17950E-01         0.00000E+00
    0.53438E-02        -0.15017E-01         0.00000E+00
    0.43962E-02        -0.12061E-01         0.00000E+00
    0.34043E-02        -0.90818E-02         0.00000E+00
    0.23512E-02        -0.60780E-02         0.00000E+00
    0.12211E-02        -0.30505E-02         0.00000E+00
    0.00000E+00         0.00000E+00         0.00000E+00
    0.15934E-01        -0.45065E-01         0.00000E+00
    0.14333E-01        -0.42240E-01         0.00000E+00
    0.12919E-01        -0.39392E-01         0.00000E+00
    0.11663E-01        -0.36519E-01         0.00000E+00
    0.10536E-01        -0.33620E-01         0.00000E+00
    0.95118E-02        -0.30694E-01         0.00000E+00
    0.85646E-02        -0.27743E-01         0.00000E+00
    0.76707E-02        -0.24766E-01         0.00000E+00
    0.68080E-02        -0.21764E-01         0.00000E+00
    0.59556E-02        -0.18737E-01         0.00000E+00
    0.50938E-02        -0.15684E-01         0.00000E+00
    0.42034E-02        -0.12604E-01         0.00000E+00
    0.32660E-02        -0.94957E-02         0.00000E+00
    0.22639E-02        -0.63589E-02         0.00000E+00
    0.11803E-02        -0.31934E-02         0.00000E+00
    0.00000E+00         0.00000E+00         0.00000E+00
    0.14850E-01        -0.46734E-01         0.00000E+00
    0.13327E-01        -0.43817E-01         0.00000E+00
    0.11997E-01        -0.40875E-01         0.00000E+00
    0.10826E-01        -0.37903E-01         0.00000E+00
    0.97852E-02        -0.34903E-01         0.00000E+00
    0.88442E-02        -0.31874E-01         0.00000E+00
    0.79772E-02        -0.28817E-01         0.00000E+00
    0.71602E-02        -0.25733E-01         0.00000E+00
    0.63714E-02        -0.22622E-01         0.00000E+00
    0.55903E-02        -0.19483E-01         0.00000E+00
    0.47974E-02        -0.16316E-01         0.00000E+00
    0.39737E-02        -0.13119E-01         0.00000E+00
    0.31004E-02        -0.98899E-02         0.00000E+00
    0.21589E-02        -0.66271E-02         0.00000E+00
    0.11311E-02        -0.33302E-02         0.00000E+00
    0.00000E+00         0.00000E+00         0.00000E+00
    0.13605E-01        -0.48322E-01         0.00000E+00
    0.12175E-01        -0.45315E-01         0.00000E+00
    0.10943E-01        -0.42279E-01         0.00000E+00
    0.98727E-02        -0.39211E-01         0.00000E+00
    0.89291E-02        -0.36112E-01         0.00000E+00
    0.80821E-02        -0.32982E-01         0.00000E+00
    0.73049E-02        -0.29823E-01         0.00000E+00
    0.65738E-02        -0.26637E-01         0.00000E+00
    0.58675E-02        -0.23423E-01         0.00000E+00
    0.51662E-02        -0.20180E-01         0.00000E+00
    0.44511E-02        -0.16908E-01         0.00000E+00
    0.37034E-02        -0.13602E-01         0.00000E+00
    0.29042E-02        -0.10261E-01         0.00000E+00
    0.20338E-02        -0.68803E-02         0.00000E+00
    0.10723E-02        -0.34600E-02         0.00000E+00
    0.00000E+00         0.00000E+00         0.00000E+00
    0.12196E-01        -0.49813E-01         0.00000E+00
    0.10876E-01        -0.46718E-01         0.00000E+00
    0.97584E-02        -0.43590E-01         0.00000E+00
    0.88016E-02        -0.40426E-01         0.00000E+00
    0.79679E-02        -0.37230E-01         0.00000E+00
    0.72252E-02        -0.34002E-01         0.00000E+00
    0.65466E-02        -0.30747E-01         0.00000E+00
    0.59091E-02        -0.27465E-01         0.00000E+00
    0.52927E-02        -0.24156E-01         0.00000E+00
    0.46788E-02        -0.20819E-01         0.00000E+00
    0.40498E-02        -0.17450E-01         0.00000E+00
    0.33875E-02        -0.14047E-01         0.00000E+00
    0.26728E-02        -0.10603E-01         0.00000E+00
    0.18850E-02        -0.71160E-02         0.00000E+00
    0.10018E-02        -0.35817E-02         0.00000E+00
    0.00000E+00         0.00000E+00         0.00000E+00
    0.10616E-01        -0.51189E-01         0.00000E+00
    0.94261E-02        -0.48008E-01         0.00000E+00
    0.84419E-02        -0.44788E-01         0.00000E+00
    0.76144E-02        -0.41530E-01         0.00000E+00
    0.69024E-02        -0.38239E-01         0.00000E+00
    0.62730E-02        -0.34919E-01         0.00000E+00
    0.57002E-02        -0.31573E-01         0.00000E+00
    0.51627E-02        -0.28204E-01         0.00000E+00
    0.46422E-02        -0.24809E-01         0.00000E+00
    0.41224E-02        -0.21388E-01         0.00000E+00
    0.35869E-02        -0.17935E-01         0.00000E+00
    0.30189E-02        -0.14446E-01         0.00000E+00
    0.23996E-02        -0.10913E-01         0.00000E+00
    0.17072E-02        -0.73311E-02         0.00000E+00
    0.91668E-03        -0.36941E-02         0.00000E+00
    0.00000E+00         0.00000E+00         0.00000E+00
    0.88617E-02        -0.52429E-01         0.00000E+00
    0.78258E-02        -0.49161E-01         0.00000E+00
    0.69956E-02        -0.45851E-01         0.00000E+00
    0.63129E-02        -0.42501E-01         0.00000E+00
    0.57334E-02        -0.39119E-01         0.00000E+00
    0.52247E-02        -0.35713E-01         0.00000E+00
    0.47631E-02        -0.32285E-01         0.00000E+00
    0.43301E-02        -0.28838E-01         0.00000E+00
    0.39102E-02        -0.25369E-01         0.00000E+00
    0.34895E-02        -0.21876E-01         0.00000E+00
    0.30540E-02        -0.18352E-01         0.00000E+00
    0.25887E-02        -0.14791E-01         0.00000E+00
    0.20759E-02        -0.11185E-01         0.00000E+00
    0.14934E-02        -0.75224E-02         0.00000E+00
    0.81290E-03        -0.37958E-02         0.00000E+00
    0.00000E+00         0.00000E+00         0.00000E+00
    0.69267E-02        -0.53503E-01         0.00000E+00
    0.60756E-02        -0.50151E-01         0.00000E+00
    0.54228E-02        -0.46750E-01         0.00000E+00
    0.48999E-02        -0.43311E-01         0.00000E+00
    0.44614E-02        -0.39846E-01         0.00000E+00
    0.40784E-02        -0.36363E-01         0.00000E+00
    0.37314E-02        -0.32865E-01         0.00000E+00
    0.34057E-02        -0.29352E-01         0.00000E+00
    0.30893E-02        -0.25822E-01         0.00000E+00
    0.27714E-02        -0.22271E-01         0.00000E+00
    0.24408E-02        -0.18692E-01         0.00000E+00
    0.20855E-02        -0.15075E-01         0.00000E+00
    0.16901E-02        -0.11411E-01         0.00000E+00
    0.12333E-02        -0.76857E-02         0.00000E+00
    0.68427E-03        -0.38853E-02         0.00000E+00
    0.00000E+00         0.00000E+00         0.00000E+00
    0.48056E-02        -0.54375E-01         0.00000E+00
    0.41794E-02        -0.50939E-01         0.00000E+00
    0.37296E-02        -0.47450E-01         0.00000E+00
    0.33782E-02        -0.43930E-01         0.00000E+00
    0.30856E-02        -0.40393E-01         0.00000E+00
    0.28305E-02        -0.36847E-01         0.00000E+00
    0.25993E-02        -0.33294E-01         0.00000E+00
    0.23820E-02        -0.29732E-01         0.00000E+00
    0.21707E-02        -0.26156E-01         0.00000E+00
    0.19579E-02        -0.22563E-01         0.00000E+00
    0.17359E-02        -0.18943E-01         0.00000E+00
    0.14961E-02        -0.15288E-01         0.00000E+00
    0.12272E-02        -0.11584E-01         0.00000E+00
    0.91231E-03        -0.78154E-02         0.00000E+00
    0.52104E-03        -0.39604E-02         0.00000E+00
    0.00000E+00         0.00000E+00         0.00000E+00
    0.24938E-02        -0.54992E-01         0.00000E+00
    0.21486E-02        -0.51472E-01         0.00000E+00
    0.19227E-02        -0.47903E-01         0.00000E+00
    0.17472E-02        -0.44321E-01         0.00000E+00
    0.16014E-02        -0.40735E-01         0.00000E+00
    0.14743E-02        -0.37147E-01         0.00000E+00
    0.13589E-02        -0.33558E-01         0.00000E+00
    0.12503E-02        -0.29965E-01         0.00000E+00
    0.11446E-02        -0.26361E-01         0.00000E+00
    0.10379E-02        -0.22742E-01         0.00000E+00
    0.92656E-03        -0.19098E-01         0.00000E+00
    0.80587E-03        -0.15420E-01         0.00000E+00
    0.66993E-03        -0.11694E-01         0.00000E+00
    0.50921E-03        -0.79019E-02         0.00000E+00
    0.30574E-03        -0.40178E-02         0.00000E+00
    0.00000E+00         0.00000E+00         0.00000E+00
    0.00000E+00        -0.55254E-01         0.00000E+00
    0.00000E+00        -0.51668E-01         0.00000E+00
    0.00000E+00        -0.48062E-01         0.00000E+00
    0.00000E+00        -0.44455E-01         0.00000E+00
    0.00000E+00        -0.40851E-01         0.00000E+00
    0.00000E+00        -0.37249E-01         0.00000E+00
    0.00000E+00        -0.33648E-01         0.00000E+00
    0.00000E+00        -0.30043E-01         0.00000E+00
    0.00000E+00        -0.26430E-01         0.00000E+00
    0.00000E+00        -0.22802E-01         0.00000E+00
    0.00000E+00        -0.19151E-01         0.00000E+00
    0.00000E+00        -0.15465E-01         0.00000E+00
    0.00000E+00        -0.11732E-01         0.00000E+00
    0.00000E+00        -0.79327E-02         0.00000E+00
    0.00000E+00        -0.40415E-02         0.00000E+00
    0.00000E+00         0.00000E+00         0.00000E+00
CELL_DATA        450
VECTORS vDarcy double 
    0.11543E-05         0.85473E-10         0.00000E+00
    0.11542E-05         0.21715E-09         0.00000E+00
    0.11542E-05         0.28614E-09         0.00000E+00
    0.11542E-05         0.32127E-09         0.00000E+00
    0.11542E-05         0.33648E-09         0.00000E+00
    0.11542E-05         0.33429E-09         0.00000E+00
    0.11542E-05         0.32144E-09         0.00000E+00
    0.11542E-05         0.30438E-09         0.00000E+00
    0.11542E-05         0.28475E-09         0.00000E+00
    0.11542E-05         0.26302E-09         0.00000E+00
    0.11542E-05         0.23893E-09         0.00000E+00
    0.11542E-05         0.21142E-09         0.00000E+00
    0.11542E-05         0.17798E-09         0.00000E+00
    0.11541E-05         0.13258E-09         0.00000E+00
    0.11541E-05         0.52901E-10         0.00000E+00
    0.11428E-05         0.34103E-10         0.00000E+00
    0.11426E-05         0.76809E-10         0.00000E+00
    0.11426E-05         0.97336E-10         0.00000E+00
    0.11426E-05         0.12639E-09         0.00000E+00
    0.11426E-05         0.16173E-09         0.00000E+00
    0.11425E-05         0.19057E-09         0.00000E+00
    0.11425E-05         0.20351E-09         0.00000E+00
    0.11425E-05         0.20340E-09         0.00000E+00
    0.11425E-05         0.19548E-09         0.00000E+00
    0.11425E-05         0.18196E-09         0.00000E+00
    0.11425E-05         0.16350E-09         0.00000E+00
    0.11425E-05         0.13955E-09         0.00000E+00
    0.11425E-05         0.10836E-09         0.00000E+00
    0.11424E-05         0.66317E-10         0.00000E+00
    0.11424E-05         0.20999E-10         0.00000E+00
    0.11312E-05        -0.39615E-11         0.00000E+00
    0.11311E-05         0.66657E-11         0.00000E+00
    0.11310E-05         0.38916E-10         0.00000E+00
    0.11310E-05         0.68253E-10         0.00000E+00
    0.11310E-05         0.86187E-10         0.00000E+00
    0.11309E-05         0.10002E-09         0.00000E+00
    0.11309E-05         0.11278E-09         0.00000E+00
    0.11309E-05         0.11919E-09         0.00000E+00
    0.11309E-05         0.11829E-09         0.00000E+00
    0.11309E-05         0.11122E-09         0.00000E+00
    0.11309E-05         0.98642E-10         0.00000E+00
    0.11309E-05         0.80718E-10         0.00000E+00
    0.11308E-05         0.57458E-10         0.00000E+00
    0.11308E-05         0.31451E-10         0.00000E+00
    0.11308E-05         0.91982E-11         0.00000E+00
    0.11196E-05        -0.56701E-11         0.00000E+00
    0.11196E-05        -0.35815E-12         0.00000E+00
    0.11195E-05         0.17519E-10         0.00000E+00
    0.11195E-05         0.27909E-10         0.00000E+00
    0.11195E-05         0.34993E-10         0.00000E+00
    0.11194E-05         0.42033E-10         0.00000E+00
    0.11194E-05         0.48989E-10         0.00000E+00
    0.11194E-05         0.54495E-10         0.00000E+00
    0.11194E-05         0.56251E-10         0.00000E+00
    0.11194E-05         0.53512E-10         0.00000E+00
    0.11193E-05         0.46465E-10         0.00000E+00
    0.11193E-05         0.35662E-10         0.00000E+00
    0.11193E-05         0.22517E-10         0.00000E+00
    0.11193E-05         0.99003E-11         0.00000E+00
    0.11192E-05         0.20901E-11         0.00000E+00
    0.11082E-05        -0.52768E-11         0.00000E+00
    0.11082E-05        -0.99148E-11         0.00000E+00
    0.11081E-05        -0.71186E-11         0.00000E+00
    0.11081E-05        -0.39307E-11         0.00000E+00
    0.11081E-05        -0.22035E-11         0.00000E+00
    0.11081E-05        -0.56419E-13         0.00000E+00
    0.11080E-05         0.32204E-11         0.00000E+00
    0.11080E-05         0.66352E-11         0.00000E+00
    0.11080E-05         0.88644E-11         0.00000E+00
    0.11080E-05         0.89018E-11         0.00000E+00
    0.11079E-05         0.65633E-11         0.00000E+00
    0.11079E-05         0.24594E-11         0.00000E+00
    0.11079E-05        -0.19881E-11         0.00000E+00
    0.11079E-05        -0.45307E-11         0.00000E+00
    0.11078E-05        -0.24972E-11         0.00000E+00
    0.10970E-05        -0.76942E-11         0.00000E+00
    0.10969E-05        -0.19656E-10         0.00000E+00
    0.10969E-05        -0.25799E-10         0.00000E+00
    0.10969E-05        -0.28849E-10         0.00000E+00
    0.10968E-05        -0.30722E-10         0.00000E+00
    0.10968E-05        -0.31382E-10         0.00000E+00
    0.10968E-05        -0.30538E-10         0.00000E+00
    0.10968E-05        -0.28550E-10         0.00000E+00
    0.10967E-05        -0.26236E-10         0.00000E+00
    0.10967E-05        -0.24272E-10         0.00000E+00
    0.10967E-05        -0.22854E-10         0.00000E+00
    0.10967E-05        -0.21535E-10         0.00000E+00
    0.10967E-05        -0.19246E-10         0.00000E+00
    0.10966E-05        -0.14473E-10         0.00000E+00
    0.10966E-05        -0.56277E-11         0.00000E+00
    0.10859E-05        -0.10608E-10         0.00000E+00
    0.10859E-05        -0.28110E-10         0.00000E+00
    0.10858E-05        -0.39599E-10         0.00000E+00
    0.10858E-05        -0.47201E-10         0.00000E+00
    0.10858E-05        -0.52087E-10         0.00000E+00
    0.10858E-05        -0.54783E-10         0.00000E+00
    0.10857E-05        -0.55422E-10         0.00000E+00
    0.10857E-05        -0.54261E-10         0.00000E+00
    0.10857E-05        -0.51739E-10         0.00000E+00
    0.10857E-05        -0.48264E-10         0.00000E+00
    0.10856E-05        -0.43961E-10         0.00000E+00
    0.10856E-05        -0.38537E-10         0.00000E+00
    0.10856E-05        -0.31304E-10         0.00000E+00
    0.10856E-05        -0.21342E-10         0.00000E+00
    0.10856E-05        -0.77780E-11         0.00000E+00
    0.10750E-05        -0.12560E-10         0.00000E+00
    0.10750E-05        -0.34122E-10         0.00000E+00
    0.10750E-05        -0.49491E-10         0.00000E+00
    0.10750E-05        -0.60281E-10         0.00000E+00
    0.10749E-05        -0.67546E-10         0.00000E+00
    0.10749E-05        -0.71842E-10         0.00000E+00
    0.10749E-05        -0.73491E-10         0.00000E+00
    0.10749E-05        -0.72754E-10         0.00000E+00
    0.10748E-05        -0.69914E-10         0.00000E+00
    0.10748E-05        -0.65214E-10         0.00000E+00
    0.10748E-05        -0.58734E-10         0.00000E+00
    0.10748E-05        -0.50318E-10         0.00000E+00
    0.10748E-05        -0.39576E-10         0.00000E+00
    0.10748E-05        -0.26018E-10         0.00000E+00
    0.10747E-05        -0.92359E-11         0.00000E+00
    0.10644E-05        -0.13813E-10         0.00000E+00
    0.10644E-05        -0.38021E-10         0.00000E+00
    0.10644E-05        -0.56090E-10         0.00000E+00
    0.10644E-05        -0.69231E-10         0.00000E+00
    0.10643E-05        -0.78299E-10         0.00000E+00
    0.10643E-05        -0.83848E-10         0.00000E+00
    0.10643E-05        -0.86233E-10         0.00000E+00
    0.10643E-05        -0.85723E-10         0.00000E+00
    0.10643E-05        -0.82546E-10         0.00000E+00
    0.10642E-05        -0.76878E-10         0.00000E+00
    0.10642E-05        -0.68796E-10         0.00000E+00
    0.10642E-05        -0.58256E-10         0.00000E+00
    0.10642E-05        -0.45093E-10         0.00000E+00
    0.10642E-05        -0.29108E-10         0.00000E+00
    0.10642E-05        -0.10193E-10         0.00000E+00
    0.10541E-05        -0.14491E-10         0.00000E+00
    0.10541E-05        -0.40283E-10         0.00000E+00
    0.10540E-05        -0.60163E-10         0.00000E+00
    0.10540E-05        -0.74982E-10         0.00000E+00
    0.10540E-05        -0.85406E-10         0.00000E+00
    0.10540E-05        -0.91917E-10         0.00000E+00
    0.10540E-05        -0.94857E-10         0.00000E+00
    0.10540E-05        -0.94488E-10         0.00000E+00
    0.10539E-05        -0.91026E-10         0.00000E+00
    0.10539E-05        -0.84633E-10         0.00000E+00
    0.10539E-05        -0.75410E-10         0.00000E+00
    0.10539E-05        -0.63404E-10         0.00000E+00
    0.10539E-05        -0.48619E-10         0.00000E+00
    0.10539E-05        -0.31054E-10         0.00000E+00
    0.10539E-05        -0.10789E-10         0.00000E+00
    0.10440E-05        -0.14768E-10         0.00000E+00
    0.10440E-05        -0.41371E-10         0.00000E+00
    0.10440E-05        -0.62389E-10         0.00000E+00
    0.10440E-05        -0.78364E-10         0.00000E+00
    0.10440E-05        -0.89773E-10         0.00000E+00
    0.10440E-05        -0.97005E-10         0.00000E+00
    0.10440E-05        -0.10037E-09         0.00000E+00
    0.10439E-05        -0.10011E-09         0.00000E+00
    0.10439E-05        -0.96439E-10         0.00000E+00
    0.10439E-05        -0.89535E-10         0.00000E+00
    0.10439E-05        -0.79538E-10         0.00000E+00
    0.10439E-05        -0.66562E-10         0.00000E+00
    0.10439E-05        -0.50728E-10         0.00000E+00
    0.10439E-05        -0.32183E-10         0.00000E+00
    0.10439E-05        -0.11127E-10         0.00000E+00
    0.10343E-05        -0.14787E-10         0.00000E+00
    0.10343E-05        -0.41681E-10         0.00000E+00
    0.10343E-05        -0.63346E-10         0.00000E+00
    0.10343E-05        -0.80070E-10         0.00000E+00
    0.10343E-05        -0.92165E-10         0.00000E+00
    0.10343E-05        -0.99922E-10         0.00000E+00
    0.10343E-05        -0.10360E-09         0.00000E+00
    0.10343E-05        -0.10344E-09         0.00000E+00
    0.10343E-05        -0.99637E-10         0.00000E+00
    0.10343E-05        -0.92396E-10         0.00000E+00
    0.10342E-05        -0.81900E-10         0.00000E+00
    0.10342E-05        -0.68323E-10         0.00000E+00
    0.10342E-05        -0.51857E-10         0.00000E+00
    0.10342E-05        -0.32745E-10         0.00000E+00
    0.10342E-05        -0.11281E-10         0.00000E+00
    0.10250E-05        -0.14660E-10         0.00000E+00
    0.10250E-05        -0.41525E-10         0.00000E+00
    0.10250E-05        -0.63499E-10         0.00000E+00
    0.10250E-05        -0.80670E-10         0.00000E+00
    0.10250E-05        -0.93211E-10         0.00000E+00
    0.10250E-05        -0.10133E-09         0.00000E+00
    0.10250E-05        -0.10524E-09         0.00000E+00
    0.10250E-05        -0.10515E-09         0.00000E+00
    0.10250E-05        -0.10128E-09         0.00000E+00
    0.10249E-05        -0.93839E-10         0.00000E+00
    0.10249E-05        -0.83043E-10         0.00000E+00
    0.10249E-05        -0.69121E-10         0.00000E+00
    0.10249E-05        -0.52321E-10         0.00000E+00
    0.10249E-05        -0.32932E-10         0.00000E+00
    0.10249E-05        -0.11316E-10         0.00000E+00
    0.10160E-05        -0.14472E-10         0.00000E+00
    0.10160E-05        -0.41145E-10         0.00000E+00
    0.10160E-05        -0.63210E-10         0.00000E+00
    0.10160E-05        -0.80611E-10         0.00000E+00
    0.10160E-05        -0.93412E-10         0.00000E+00
    0.10160E-05        -0.10175E-09         0.00000E+00
    0.10160E-05        -0.10580E-09         0.00000E+00
    0.10160E-05        -0.10577E-09         0.00000E+00
    0.10160E-05        -0.10187E-09         0.00000E+00
    0.10160E-05        -0.94329E-10         0.00000E+00
    0.10160E-05        -0.83378E-10         0.00000E+00
    0.10160E-05        -0.69285E-10         0.00000E+00
    0.10160E-05        -0.52341E-10         0.00000E+00
    0.10160E-05        -0.32874E-10         0.00000E+00
    0.10160E-05        -0.11276E-10         0.00000E+00
    0.10075E-05        -0.14285E-10         0.00000E+00
    0.10075E-05        -0.40716E-10         0.00000E+00
    0.10075E-05        -0.62750E-10         0.00000E+00
    0.10075E-05        -0.80230E-10         0.00000E+00
    0.10075E-05        -0.93148E-10         0.00000E+00
    0.10075E-05        -0.10159E-09         0.00000E+00
    0.10075E-05        -0.10572E-09         0.00000E+00
    0.10075E-05        -0.10571E-09         0.00000E+00
    0.10075E-05        -0.10179E-09         0.00000E+00
    0.10075E-05        -0.94204E-10         0.00000E+00
    0.10075E-05        -0.83198E-10         0.00000E+00
    0.10075E-05        -0.69056E-10         0.00000E+00
    0.10075E-05        -0.52092E-10         0.00000E+00
    0.10075E-05        -0.32667E-10         0.00000E+00
    0.10075E-05        -0.11194E-10         0.00000E+00
    0.99932E-06        -0.14142E-10         0.00000E+00
    0.99934E-06        -0.40364E-10         0.00000E+00
    0.99935E-06        -0.62311E-10         0.00000E+00
    0.99936E-06        -0.79770E-10         0.00000E+00
    0.99937E-06        -0.92691E-10         0.00000E+00
    0.99938E-06        -0.10114E-09         0.00000E+00
    0.99939E-06        -0.10526E-09         0.00000E+00
    0.99940E-06        -0.10524E-09         0.00000E+00
    0.99941E-06        -0.10130E-09         0.00000E+00
    0.99941E-06        -0.93703E-10         0.00000E+00
    0.99942E-06        -0.82702E-10         0.00000E+00
    0.99942E-06        -0.68593E-10         0.00000E+00
    0.99943E-06        -0.51699E-10         0.00000E+00
    0.99943E-06        -0.32392E-10         0.00000E+00
    0.99944E-06        -0.11092E-10         0.00000E+00
    0.99165E-06        -0.14069E-10         0.00000E+00
    0.99166E-06        -0.40167E-10         0.00000E+00
    0.99168E-06        -0.62015E-10         0.00000E+00
    0.99170E-06        -0.79383E-10         0.00000E+00
    0.99171E-06        -0.92214E-10         0.00000E+00
    0.99173E-06        -0.10057E-09         0.00000E+00
    0.99174E-06        -0.10461E-09         0.00000E+00
    0.99175E-06        -0.10453E-09         0.00000E+00
    0.99176E-06        -0.10057E-09         0.00000E+00
    0.99177E-06        -0.92976E-10         0.00000E+00
    0.99178E-06        -0.82024E-10         0.00000E+00
    0.99179E-06        -0.68003E-10         0.00000E+00
    0.99180E-06        -0.51237E-10         0.00000E+00
    0.99181E-06        -0.32092E-10         0.00000E+00
    0.99181E-06        -0.10987E-10         0.00000E+00
    0.98444E-06        -0.14083E-10         0.00000E+00
    0.98446E-06        -0.40166E-10         0.00000E+00
    0.98448E-06        -0.61926E-10         0.00000E+00
    0.98450E-06        -0.79148E-10         0.00000E+00
    0.98452E-06        -0.91801E-10         0.00000E+00
    0.98454E-06        -0.99978E-10         0.00000E+00
    0.98456E-06        -0.10386E-09         0.00000E+00
    0.98458E-06        -0.10367E-09         0.00000E+00
    0.98459E-06        -0.99663E-10         0.00000E+00
    0.98461E-06        -0.92093E-10         0.00000E+00
    0.98462E-06        -0.81226E-10         0.00000E+00
    0.98463E-06        -0.67342E-10         0.00000E+00
    0.98464E-06        -0.50748E-10         0.00000E+00
    0.98465E-06        -0.31795E-10         0.00000E+00
    0.98466E-06        -0.10887E-10         0.00000E+00
    0.97772E-06        -0.14182E-10         0.00000E+00
    0.97774E-06        -0.40367E-10         0.00000E+00
    0.97777E-06        -0.62052E-10         0.00000E+00
    0.97780E-06        -0.79072E-10         0.00000E+00
    0.97782E-06        -0.91453E-10         0.00000E+00
    0.97784E-06        -0.99350E-10         0.00000E+00
    0.97787E-06        -0.10299E-09         0.00000E+00
    0.97789E-06        -0.10264E-09         0.00000E+00
    0.97791E-06        -0.98574E-10         0.00000E+00
    0.97792E-06        -0.91044E-10         0.00000E+00
    0.97794E-06        -0.80305E-10         0.00000E+00
    0.97795E-06        -0.66612E-10         0.00000E+00
    0.97797E-06        -0.50240E-10         0.00000E+00
    0.97798E-06        -0.31507E-10         0.00000E+00
    0.97799E-06        -0.10797E-10         0.00000E+00
    0.97150E-06        -0.14370E-10         0.00000E+00
    0.97153E-06        -0.40761E-10         0.00000E+00
    0.97156E-06        -0.62362E-10         0.00000E+00
    0.97159E-06        -0.79100E-10         0.00000E+00
    0.97162E-06        -0.91095E-10         0.00000E+00
    0.97165E-06        -0.98595E-10         0.00000E+00
    0.97168E-06        -0.10191E-09         0.00000E+00
    0.97170E-06        -0.10135E-09         0.00000E+00
    0.97172E-06        -0.97206E-10         0.00000E+00
    0.97174E-06        -0.89747E-10         0.00000E+00
    0.97176E-06        -0.79197E-10         0.00000E+00
    0.97178E-06        -0.65770E-10         0.00000E+00
    0.97180E-06        -0.49689E-10         0.00000E+00
    0.97181E-06        -0.31223E-10         0.00000E+00
    0.97182E-06        -0.10715E-10         0.00000E+00
    0.96580E-06        -0.14639E-10         0.00000E+00
    0.96583E-06        -0.41320E-10         0.00000E+00
    0.96587E-06        -0.62787E-10         0.00000E+00
    0.96591E-06        -0.79117E-10         0.00000E+00
    0.96594E-06        -0.90574E-10         0.00000E+00
    0.96597E-06        -0.97535E-10         0.00000E+00
    0.96600E-06        -0.10041E-09         0.00000E+00
    0.96603E-06        -0.99584E-10         0.00000E+00
    0.96606E-06        -0.95379E-10         0.00000E+00
    0.96608E-06        -0.88048E-10         0.00000E+00
    0.96611E-06        -0.77781E-10         0.00000E+00
    0.96613E-06        -0.64729E-10         0.00000E+00
    0.96614E-06        -0.49043E-10         0.00000E+00
    0.96616E-06        -0.30917E-10         0.00000E+00
    0.96617E-06        -0.10636E-10         0.00000E+00
    0.96063E-06        -0.14962E-10         0.00000E+00
    0.96067E-06        -0.41968E-10         0.00000E+00
    0.96071E-06        -0.63204E-10         0.00000E+00
    0.96076E-06        -0.78941E-10         0.00000E+00
    0.96079E-06        -0.89654E-10         0.00000E+00
    0.96083E-06        -0.95899E-10         0.00000E+00
    0.96087E-06        -0.98221E-10         0.00000E+00
    0.96090E-06        -0.97083E-10         0.00000E+00
    0.96093E-06        -0.92839E-10         0.00000E+00
    0.96095E-06        -0.85724E-10         0.00000E+00
    0.96098E-06        -0.75874E-10         0.00000E+00
    0.96100E-06        -0.63358E-10         0.00000E+00
    0.96102E-06        -0.48222E-10         0.00000E+00
    0.96104E-06        -0.30554E-10         0.00000E+00
    0.96106E-06        -0.10551E-10         0.00000E+00
    0.95601E-06        -0.15312E-10         0.00000E+00
    0.95605E-06        -0.42606E-10         0.00000E+00
    0.95610E-06        -0.63425E-10         0.00000E+00
    0.95615E-06        -0.78304E-10         0.00000E+00
    0.95619E-06        -0.88005E-10         0.00000E+00
    0.95624E-06        -0.93325E-10         0.00000E+00
    0.95627E-06        -0.94969E-10         0.00000E+00
    0.95631E-06        -0.93487E-10         0.00000E+00
    0.95634E-06        -0.89256E-10         0.00000E+00
    0.95637E-06        -0.82486E-10         0.00000E+00
    0.95640E-06        -0.73240E-10         0.00000E+00
    0.95642E-06        -0.61480E-10         0.00000E+00
    0.95645E-06        -0.47114E-10         0.00000E+00
    0.95647E-06        -0.30081E-10         0.00000E+00
    0.95649E-06        -0.10447E-10         0.00000E+00
    0.95194E-06        -0.15659E-10         0.00000E+00
    0.95199E-06        -0.43111E-10         0.00000E+00
    0.95205E-06        -0.63196E-10         0.00000E+00
    0.95210E-06        -0.76840E-10         0.00000E+00
    0.95215E-06        -0.85194E-10         0.00000E+00
    0.95219E-06        -0.89356E-10         0.00000E+00
    0.95224E-06        -0.90209E-10         0.00000E+00
    0.95227E-06        -0.88378E-10         0.00000E+00
    0.95231E-06        -0.84247E-10         0.00000E+00
    0.95234E-06        -0.77988E-10         0.00000E+00
    0.95237E-06        -0.69587E-10         0.00000E+00
    0.95240E-06        -0.58872E-10         0.00000E+00
    0.95243E-06        -0.45575E-10         0.00000E+00
    0.95245E-06        -0.29428E-10         0.00000E+00
    0.95247E-06        -0.10307E-10         0.00000E+00
    0.94843E-06        -0.15962E-10         0.00000E+00
    0.94850E-06        -0.43307E-10         0.00000E+00
    0.94856E-06        -0.62158E-10         0.00000E+00
    0.94862E-06        -0.74049E-10         0.00000E+00
    0.94867E-06        -0.80666E-10         0.00000E+00
    0.94872E-06        -0.83452E-10         0.00000E+00
    0.94877E-06        -0.83447E-10         0.00000E+00
    0.94881E-06        -0.81309E-10         0.00000E+00
    0.94884E-06        -0.77403E-10         0.00000E+00
    0.94888E-06        -0.71853E-10         0.00000E+00
    0.94891E-06        -0.64569E-10         0.00000E+00
    0.94894E-06        -0.55251E-10         0.00000E+00
    0.94897E-06        -0.43414E-10         0.00000E+00
    0.94900E-06        -0.28506E-10         0.00000E+00
    0.94902E-06        -0.10108E-10         0.00000E+00
    0.94550E-06        -0.16144E-10         0.00000E+00
    0.94558E-06        -0.42900E-10         0.00000E+00
    0.94565E-06        -0.59763E-10         0.00000E+00
    0.94571E-06        -0.69239E-10         0.00000E+00
    0.94577E-06        -0.73737E-10         0.00000E+00
    0.94582E-06        -0.75027E-10         0.00000E+00
    0.94587E-06        -0.74203E-10         0.00000E+00
    0.94591E-06        -0.71876E-10         0.00000E+00
    0.94595E-06        -0.68348E-10         0.00000E+00
    0.94598E-06        -0.63699E-10         0.00000E+00
    0.94602E-06        -0.57802E-10         0.00000E+00
    0.94605E-06        -0.50260E-10         0.00000E+00
    0.94608E-06        -0.40368E-10         0.00000E+00
    0.94611E-06        -0.27182E-10         0.00000E+00
    0.94614E-06        -0.98182E-11         0.00000E+00
    0.94315E-06        -0.16064E-10         0.00000E+00
    0.94324E-06        -0.41362E-10         0.00000E+00
    0.94332E-06        -0.55116E-10         0.00000E+00
    0.94339E-06        -0.61449E-10         0.00000E+00
    0.94345E-06        -0.63635E-10         0.00000E+00
    0.94350E-06        -0.63549E-10         0.00000E+00
    0.94355E-06        -0.62120E-10         0.00000E+00
    0.94359E-06        -0.59811E-10         0.00000E+00
    0.94363E-06        -0.56830E-10         0.00000E+00
    0.94367E-06        -0.53224E-10         0.00000E+00
    0.94371E-06        -0.48882E-10         0.00000E+00
    0.94374E-06        -0.43442E-10         0.00000E+00
    0.94378E-06        -0.36038E-10         0.00000E+00
    0.94381E-06        -0.25235E-10         0.00000E+00
    0.94384E-06        -0.93888E-11         0.00000E+00
    0.94139E-06        -0.15411E-10         0.00000E+00
    0.94149E-06        -0.37635E-10         0.00000E+00
    0.94158E-06        -0.46709E-10         0.00000E+00
    0.94165E-06        -0.49483E-10         0.00000E+00
    0.94172E-06        -0.49711E-10         0.00000E+00
    0.94177E-06        -0.48730E-10         0.00000E+00
    0.94182E-06        -0.47108E-10         0.00000E+00
    0.94186E-06        -0.45104E-10         0.00000E+00
    0.94190E-06        -0.42833E-10         0.00000E+00
    0.94194E-06        -0.40322E-10         0.00000E+00
    0.94198E-06        -0.37514E-10         0.00000E+00
    0.94201E-06        -0.34197E-10         0.00000E+00
    0.94205E-06        -0.29766E-10         0.00000E+00
    0.94209E-06        -0.22252E-10         0.00000E+00
    0.94213E-06        -0.86715E-11         0.00000E+00
    0.94021E-06        -0.13229E-10         0.00000E+00
    0.94033E-06        -0.29176E-10         0.00000E+00
    0.94043E-06        -0.32347E-10         0.00000E+00
    0.94051E-06        -0.32579E-10         0.00000E+00
    0.94057E-06        -0.31866E-10         0.00000E+00
    0.94063E-06        -0.30768E-10         0.00000E+00
    0.94068E-06        -0.29488E-10         0.00000E+00
    0.94072E-06        -0.28112E-10         0.00000E+00
    0.94076E-06        -0.26683E-10         0.00000E+00
    0.94080E-06        -0.25224E-10         0.00000E+00
    0.94084E-06        -0.23730E-10         0.00000E+00
    0.94087E-06        -0.22144E-10         0.00000E+00
    0.94091E-06        -0.20282E-10         0.00000E+00
    0.94096E-06        -0.17226E-10         0.00000E+00
    0.94100E-06        -0.76016E-11         0.00000E+00
    0.93964E-06        -0.57858E-11         0.00000E+00
    0.93978E-06        -0.11653E-10         0.00000E+00
    0.93988E-06        -0.11683E-10         0.00000E+00
    0.93996E-06        -0.11430E-10         0.00000E+00
    0.94003E-06        -0.11000E-10         0.00000E+00
    0.94008E-06        -0.10532E-10         0.00000E+00
    0.94013E-06        -0.10047E-10         0.00000E+00
    0.94018E-06        -0.95565E-11         0.00000E+00
    0.94022E-06        -0.90673E-11         0.00000E+00
    0.94025E-06        -0.85901E-11         0.00000E+00
    0.94029E-06        -0.81331E-11         0.00000E+00
    0.94033E-06        -0.77033E-11         0.00000E+00
    0.94036E-06        -0.72607E-11         0.00000E+00
    0.94041E-06        -0.70085E-11         0.00000E+00
    0.94047E-06        -0.34961E-11         0.00000E+00
POINT_DATA        496
VECTORS vDarcyNodal double 
    0.11543E-05         0.10150E-09         0.00000E+00
    0.11542E-05         0.19554E-09         0.00000E+00
    0.11542E-05         0.35677E-09         0.00000E+00
    0.11542E-05         0.45233E-09         0.00000E+00
    0.11542E-05         0.47328E-09         0.00000E+00
    0.11542E-05         0.44352E-09         0.00000E+00
    0.11542E-05         0.40362E-09         0.00000E+00
    0.11542E-05         0.37216E-09         0.00000E+00
    0.11542E-05         0.34499E-09         0.00000E+00
    0.11542E-05         0.31865E-09         0.00000E+00
    0.11542E-05         0.29220E-09         0.00000E+00
    0.11542E-05         0.26455E-09         0.00000E+00
    0.11542E-05         0.23377E-09         0.00000E+00
    0.11541E-05         0.19711E-09         0.00000E+00
    0.11541E-05         0.12716E-09         0.00000E+00
    0.11541E-05         0.77375E-10         0.00000E+00
    0.11485E-05         0.69426E-10         0.00000E+00
    0.11484E-05         0.10704E-09         0.00000E+00
    0.11484E-05         0.14647E-09         0.00000E+00
    0.11484E-05         0.15504E-09         0.00000E+00
    0.11484E-05         0.18444E-09         0.00000E+00
    0.11484E-05         0.22723E-09         0.00000E+00
    0.11483E-05         0.25209E-09         0.00000E+00
    0.11483E-05         0.25365E-09         0.00000E+00
    0.11483E-05         0.24412E-09         0.00000E+00
    0.11483E-05         0.22910E-09         0.00000E+00
    0.11483E-05         0.20973E-09         0.00000E+00
    0.11483E-05         0.18578E-09         0.00000E+00
    0.11483E-05         0.15562E-09         0.00000E+00
    0.11483E-05         0.11344E-09         0.00000E+00
    0.11483E-05         0.58310E-10         0.00000E+00
    0.11483E-05         0.28425E-10         0.00000E+00
    0.11369E-05        -0.11989E-11         0.00000E+00
    0.11369E-05         0.39073E-11         0.00000E+00
    0.11368E-05         0.27721E-10         0.00000E+00
    0.11368E-05         0.68724E-10         0.00000E+00
    0.11368E-05         0.10371E-09         0.00000E+00
    0.11367E-05         0.12508E-09         0.00000E+00
    0.11367E-05         0.14200E-09         0.00000E+00
    0.11367E-05         0.15326E-09         0.00000E+00
    0.11367E-05         0.15477E-09         0.00000E+00
    0.11367E-05         0.14835E-09         0.00000E+00
    0.11367E-05         0.13573E-09         0.00000E+00
    0.11367E-05         0.11727E-09         0.00000E+00
    0.11367E-05         0.92299E-10         0.00000E+00
    0.11366E-05         0.61236E-10         0.00000E+00
    0.11366E-05         0.29008E-10         0.00000E+00
    0.11366E-05         0.13573E-10         0.00000E+00
    0.11254E-05        -0.67236E-11         0.00000E+00
    0.11254E-05        -0.12021E-11         0.00000E+00
    0.11253E-05         0.17863E-10         0.00000E+00
    0.11253E-05         0.38449E-10         0.00000E+00
    0.11252E-05         0.50741E-10         0.00000E+00
    0.11252E-05         0.61125E-10         0.00000E+00
    0.11252E-05         0.70807E-10         0.00000E+00
    0.11252E-05         0.78714E-10         0.00000E+00
    0.11251E-05         0.82722E-10         0.00000E+00
    0.11251E-05         0.81163E-10         0.00000E+00
    0.11251E-05         0.74133E-10         0.00000E+00
    0.11251E-05         0.62092E-10         0.00000E+00
    0.11251E-05         0.45880E-10         0.00000E+00
    0.11251E-05         0.27675E-10         0.00000E+00
    0.11250E-05         0.11642E-10         0.00000E+00
    0.11250E-05         0.48234E-11         0.00000E+00
    0.11139E-05        -0.46168E-11         0.00000E+00
    0.11139E-05        -0.48258E-11         0.00000E+00
    0.11139E-05        -0.70064E-12         0.00000E+00
    0.11138E-05         0.69823E-11         0.00000E+00
    0.11138E-05         0.12166E-10         0.00000E+00
    0.11138E-05         0.15906E-10         0.00000E+00
    0.11137E-05         0.20220E-10         0.00000E+00
    0.11137E-05         0.24775E-10         0.00000E+00
    0.11137E-05         0.28028E-10         0.00000E+00
    0.11137E-05         0.28604E-10         0.00000E+00
    0.11137E-05         0.25847E-10         0.00000E+00
    0.11136E-05         0.20037E-10         0.00000E+00
    0.11136E-05         0.12301E-10         0.00000E+00
    0.11136E-05         0.47441E-11         0.00000E+00
    0.11136E-05         0.34864E-12         0.00000E+00
    0.11135E-05        -0.64301E-12         0.00000E+00
    0.11026E-05        -0.59366E-11         0.00000E+00
    0.11026E-05        -0.10365E-10         0.00000E+00
    0.11025E-05        -0.16331E-10         0.00000E+00
    0.11025E-05        -0.18029E-10         0.00000E+00
    0.11025E-05        -0.18297E-10         0.00000E+00
    0.11024E-05        -0.18163E-10         0.00000E+00
    0.11024E-05        -0.17053E-10         0.00000E+00
    0.11024E-05        -0.14916E-10         0.00000E+00
    0.11024E-05        -0.12525E-10         0.00000E+00
    0.11024E-05        -0.10835E-10         0.00000E+00
    0.11023E-05        -0.10379E-10         0.00000E+00
    0.11023E-05        -0.11012E-10         0.00000E+00
    0.11023E-05        -0.11828E-10         0.00000E+00
    0.11023E-05        -0.11262E-10         0.00000E+00
    0.11022E-05        -0.73761E-11         0.00000E+00
    0.11022E-05        -0.43513E-11         0.00000E+00
    0.10914E-05        -0.94513E-11         0.00000E+00
    0.10914E-05        -0.16985E-10         0.00000E+00
    0.10914E-05        -0.29123E-10         0.00000E+00
    0.10914E-05        -0.36617E-10         0.00000E+00
    0.10913E-05        -0.41272E-10         0.00000E+00
    0.10913E-05        -0.43939E-10         0.00000E+00
    0.10913E-05        -0.44865E-10         0.00000E+00
    0.10912E-05        -0.44170E-10         0.00000E+00
    0.10912E-05        -0.42259E-10         0.00000E+00
    0.10912E-05        -0.39671E-10         0.00000E+00
    0.10912E-05        -0.36745E-10         0.00000E+00
    0.10912E-05        -0.33376E-10         0.00000E+00
    0.10911E-05        -0.28952E-10         0.00000E+00
    0.10911E-05        -0.22456E-10         0.00000E+00
    0.10911E-05        -0.12724E-10         0.00000E+00
    0.10911E-05        -0.69039E-11         0.00000E+00
    0.10805E-05        -0.11764E-10         0.00000E+00
    0.10805E-05        -0.21733E-10         0.00000E+00
    0.10804E-05        -0.38585E-10         0.00000E+00
    0.10804E-05        -0.50182E-10         0.00000E+00
    0.10804E-05        -0.58015E-10         0.00000E+00
    0.10803E-05        -0.62930E-10         0.00000E+00
    0.10803E-05        -0.65339E-10         0.00000E+00
    0.10803E-05        -0.65512E-10         0.00000E+00
    0.10803E-05        -0.63739E-10         0.00000E+00
    0.10803E-05        -0.60330E-10         0.00000E+00
    0.10802E-05        -0.55479E-10         0.00000E+00
    0.10802E-05        -0.49121E-10         0.00000E+00
    0.10802E-05        -0.40887E-10         0.00000E+00
    0.10802E-05        -0.30189E-10         0.00000E+00
    0.10802E-05        -0.16396E-10         0.00000E+00
    0.10802E-05        -0.86519E-11         0.00000E+00
    0.10697E-05        -0.13355E-10         0.00000E+00
    0.10697E-05        -0.24948E-10         0.00000E+00
    0.10697E-05        -0.45027E-10         0.00000E+00
    0.10697E-05        -0.59590E-10         0.00000E+00
    0.10696E-05        -0.69811E-10         0.00000E+00
    0.10696E-05        -0.76457E-10         0.00000E+00
    0.10696E-05        -0.79993E-10         0.00000E+00
    0.10696E-05        -0.80732E-10         0.00000E+00
    0.10696E-05        -0.78928E-10         0.00000E+00
    0.10695E-05        -0.74797E-10         0.00000E+00
    0.10695E-05        -0.68468E-10         0.00000E+00
    0.10695E-05        -0.59931E-10         0.00000E+00
    0.10695E-05        -0.49006E-10         0.00000E+00
    0.10695E-05        -0.35405E-10         0.00000E+00
    0.10695E-05        -0.18858E-10         0.00000E+00
    0.10695E-05        -0.98198E-11         0.00000E+00
    0.10592E-05        -0.14272E-10         0.00000E+00
    0.10592E-05        -0.26886E-10         0.00000E+00
    0.10592E-05        -0.49083E-10         0.00000E+00
    0.10592E-05        -0.65730E-10         0.00000E+00
    0.10592E-05        -0.77718E-10         0.00000E+00
    0.10592E-05        -0.85690E-10         0.00000E+00
    0.10591E-05        -0.90087E-10         0.00000E+00
    0.10591E-05        -0.91223E-10         0.00000E+00
    0.10591E-05        -0.89341E-10         0.00000E+00
    0.10591E-05        -0.84627E-10         0.00000E+00
    0.10591E-05        -0.77205E-10         0.00000E+00
    0.10591E-05        -0.67121E-10         0.00000E+00
    0.10590E-05        -0.54342E-10         0.00000E+00
    0.10590E-05        -0.38796E-10         0.00000E+00
    0.10590E-05        -0.20444E-10         0.00000E+00
    0.10590E-05        -0.10567E-10         0.00000E+00
    0.10491E-05        -0.14710E-10         0.00000E+00
    0.10490E-05        -0.27888E-10         0.00000E+00
    0.10490E-05        -0.51362E-10         0.00000E+00
    0.10490E-05        -0.69414E-10         0.00000E+00
    0.10490E-05        -0.82670E-10         0.00000E+00
    0.10490E-05        -0.91633E-10         0.00000E+00
    0.10490E-05        -0.96686E-10         0.00000E+00
    0.10490E-05        -0.98121E-10         0.00000E+00
    0.10489E-05        -0.96173E-10         0.00000E+00
    0.10489E-05        -0.91031E-10         0.00000E+00
    0.10489E-05        -0.82838E-10         0.00000E+00
    0.10489E-05        -0.71694E-10         0.00000E+00
    0.10489E-05        -0.57680E-10         0.00000E+00
    0.10489E-05        -0.40877E-10         0.00000E+00
    0.10489E-05        -0.21400E-10         0.00000E+00
    0.10489E-05        -0.11012E-10         0.00000E+00
    0.10392E-05        -0.14826E-10         0.00000E+00
    0.10392E-05        -0.28252E-10         0.00000E+00
    0.10392E-05        -0.52398E-10         0.00000E+00
    0.10392E-05        -0.71338E-10         0.00000E+00
    0.10391E-05        -0.85466E-10         0.00000E+00
    0.10391E-05        -0.95145E-10         0.00000E+00
    0.10391E-05        -0.10069E-09         0.00000E+00
    0.10391E-05        -0.10236E-09         0.00000E+00
    0.10391E-05        -0.10038E-09         0.00000E+00
    0.10391E-05        -0.94943E-10         0.00000E+00
    0.10391E-05        -0.86235E-10         0.00000E+00
    0.10391E-05        -0.74406E-10         0.00000E+00
    0.10391E-05        -0.59610E-10         0.00000E+00
    0.10391E-05        -0.42035E-10         0.00000E+00
    0.10391E-05        -0.21910E-10         0.00000E+00
    0.10391E-05        -0.11241E-10         0.00000E+00
    0.10296E-05        -0.14748E-10         0.00000E+00
    0.10296E-05        -0.28216E-10         0.00000E+00
    0.10296E-05        -0.52628E-10         0.00000E+00
    0.10296E-05        -0.72078E-10         0.00000E+00
    0.10296E-05        -0.86769E-10         0.00000E+00
    0.10296E-05        -0.96941E-10         0.00000E+00
    0.10296E-05        -0.10284E-09         0.00000E+00
    0.10296E-05        -0.10468E-09         0.00000E+00
    0.10296E-05        -0.10270E-09         0.00000E+00
    0.10296E-05        -0.97090E-10         0.00000E+00
    0.10296E-05        -0.88061E-10         0.00000E+00
    0.10296E-05        -0.75817E-10         0.00000E+00
    0.10296E-05        -0.60570E-10         0.00000E+00
    0.10296E-05        -0.42568E-10         0.00000E+00
    0.10296E-05        -0.22116E-10         0.00000E+00
    0.10296E-05        -0.11321E-10         0.00000E+00
    0.10205E-05        -0.14572E-10         0.00000E+00
    0.10205E-05        -0.27969E-10         0.00000E+00
    0.10205E-05        -0.52395E-10         0.00000E+00
    0.10205E-05        -0.72091E-10         0.00000E+00
    0.10205E-05        -0.87113E-10         0.00000E+00
    0.10205E-05        -0.97598E-10         0.00000E+00
    0.10205E-05        -0.10373E-09         0.00000E+00
    0.10205E-05        -0.10570E-09         0.00000E+00
    0.10205E-05        -0.10373E-09         0.00000E+00
    0.10205E-05        -0.98029E-10         0.00000E+00
    0.10205E-05        -0.88821E-10         0.00000E+00
    0.10205E-05        -0.76347E-10         0.00000E+00
    0.10205E-05        -0.60871E-10         0.00000E+00
    0.10205E-05        -0.42685E-10         0.00000E+00
    0.10205E-05        -0.22132E-10         0.00000E+00
    0.10205E-05        -0.11311E-10         0.00000E+00
    0.10117E-05        -0.14372E-10         0.00000E+00
    0.10117E-05        -0.27648E-10         0.00000E+00
    0.10117E-05        -0.51959E-10         0.00000E+00
    0.10117E-05        -0.71730E-10         0.00000E+00
    0.10117E-05        -0.86911E-10         0.00000E+00
    0.10118E-05        -0.97565E-10         0.00000E+00
    0.10118E-05        -0.10383E-09         0.00000E+00
    0.10118E-05        -0.10588E-09         0.00000E+00
    0.10118E-05        -0.10392E-09         0.00000E+00
    0.10118E-05        -0.98173E-10         0.00000E+00
    0.10118E-05        -0.88886E-10         0.00000E+00
    0.10118E-05        -0.76317E-10         0.00000E+00
    0.10118E-05        -0.60755E-10         0.00000E+00
    0.10118E-05        -0.42530E-10         0.00000E+00
    0.10118E-05        -0.22018E-10         0.00000E+00
    0.10118E-05        -0.11242E-10         0.00000E+00
    0.10034E-05        -0.14198E-10         0.00000E+00
    0.10034E-05        -0.27353E-10         0.00000E+00
    0.10034E-05        -0.51507E-10         0.00000E+00
    0.10034E-05        -0.71251E-10         0.00000E+00
    0.10034E-05        -0.86468E-10         0.00000E+00
    0.10034E-05        -0.97175E-10         0.00000E+00
    0.10034E-05        -0.10348E-09         0.00000E+00
    0.10034E-05        -0.10555E-09         0.00000E+00
    0.10035E-05        -0.10359E-09         0.00000E+00
    0.10035E-05        -0.97824E-10         0.00000E+00
    0.10035E-05        -0.88515E-10         0.00000E+00
    0.10035E-05        -0.75937E-10         0.00000E+00
    0.10035E-05        -0.60393E-10         0.00000E+00
    0.10035E-05        -0.42230E-10         0.00000E+00
    0.10035E-05        -0.21842E-10         0.00000E+00
    0.10035E-05        -0.11145E-10         0.00000E+00
    0.99548E-06        -0.14085E-10         0.00000E+00
    0.99549E-06        -0.27152E-10         0.00000E+00
    0.99551E-06        -0.51167E-10         0.00000E+00
    0.99552E-06        -0.70830E-10         0.00000E+00
    0.99554E-06        -0.85993E-10         0.00000E+00
    0.99555E-06        -0.96655E-10         0.00000E+00
    0.99556E-06        -0.10292E-09         0.00000E+00
    0.99557E-06        -0.10495E-09         0.00000E+00
    0.99558E-06        -0.10295E-09         0.00000E+00
    0.99559E-06        -0.97182E-10         0.00000E+00
    0.99560E-06        -0.87890E-10         0.00000E+00
    0.99561E-06        -0.75358E-10         0.00000E+00
    0.99561E-06        -0.59899E-10         0.00000E+00
    0.99562E-06        -0.41861E-10         0.00000E+00
    0.99562E-06        -0.21642E-10         0.00000E+00
    0.99563E-06        -0.11039E-10         0.00000E+00
    0.98804E-06        -0.14053E-10         0.00000E+00
    0.98805E-06        -0.27084E-10         0.00000E+00
    0.98807E-06        -0.51014E-10         0.00000E+00
    0.98809E-06        -0.70569E-10         0.00000E+00
    0.98811E-06        -0.85605E-10         0.00000E+00
    0.98813E-06        -0.96132E-10         0.00000E+00
    0.98814E-06        -0.10227E-09         0.00000E+00
    0.98816E-06        -0.10420E-09         0.00000E+00
    0.98817E-06        -0.10215E-09         0.00000E+00
    0.98818E-06        -0.96363E-10         0.00000E+00
    0.98820E-06        -0.87111E-10         0.00000E+00
    0.98821E-06        -0.74669E-10         0.00000E+00
    0.98822E-06        -0.59342E-10         0.00000E+00
    0.98822E-06        -0.41469E-10         0.00000E+00
    0.98823E-06        -0.21438E-10         0.00000E+00
    0.98823E-06        -0.10935E-10         0.00000E+00
    0.98108E-06        -0.14113E-10         0.00000E+00
    0.98109E-06        -0.27165E-10         0.00000E+00
    0.98111E-06        -0.51077E-10         0.00000E+00
    0.98114E-06        -0.70505E-10         0.00000E+00
    0.98116E-06        -0.85345E-10         0.00000E+00
    0.98118E-06        -0.95647E-10         0.00000E+00
    0.98120E-06        -0.10157E-09         0.00000E+00
    0.98122E-06        -0.10334E-09         0.00000E+00
    0.98124E-06        -0.10119E-09         0.00000E+00
    0.98126E-06        -0.95394E-10         0.00000E+00
    0.98127E-06        -0.86208E-10         0.00000E+00
    0.98128E-06        -0.73898E-10         0.00000E+00
    0.98130E-06        -0.58748E-10         0.00000E+00
    0.98131E-06        -0.41074E-10         0.00000E+00
    0.98132E-06        -0.21244E-10         0.00000E+00
    0.98132E-06        -0.10840E-10         0.00000E+00
    0.97461E-06        -0.14252E-10         0.00000E+00
    0.97462E-06        -0.27383E-10         0.00000E+00
    0.97465E-06        -0.51341E-10         0.00000E+00
    0.97468E-06        -0.70619E-10         0.00000E+00
    0.97471E-06        -0.85181E-10         0.00000E+00
    0.97473E-06        -0.95156E-10         0.00000E+00
    0.97476E-06        -0.10077E-09         0.00000E+00
    0.97478E-06        -0.10230E-09         0.00000E+00
    0.97480E-06        -0.10003E-09         0.00000E+00
    0.97482E-06        -0.94225E-10         0.00000E+00
    0.97484E-06        -0.85141E-10         0.00000E+00
    0.97486E-06        -0.73018E-10         0.00000E+00
    0.97487E-06        -0.58103E-10         0.00000E+00
    0.97489E-06        -0.40673E-10         0.00000E+00
    0.97490E-06        -0.21060E-10         0.00000E+00
    0.97490E-06        -0.10754E-10         0.00000E+00
    0.96865E-06        -0.14489E-10         0.00000E+00
    0.96866E-06        -0.27748E-10         0.00000E+00
    0.96870E-06        -0.51782E-10         0.00000E+00
    0.96873E-06        -0.70842E-10         0.00000E+00
    0.96877E-06        -0.85014E-10         0.00000E+00
    0.96880E-06        -0.94534E-10         0.00000E+00
    0.96883E-06        -0.99730E-10         0.00000E+00
    0.96885E-06        -0.10095E-09         0.00000E+00
    0.96888E-06        -0.98522E-10         0.00000E+00
    0.96890E-06        -0.92728E-10         0.00000E+00
    0.96892E-06        -0.83804E-10         0.00000E+00
    0.96894E-06        -0.71949E-10         0.00000E+00
    0.96896E-06        -0.57356E-10         0.00000E+00
    0.96898E-06        -0.40239E-10         0.00000E+00
    0.96899E-06        -0.20877E-10         0.00000E+00
    0.96900E-06        -0.10676E-10         0.00000E+00
    0.96321E-06        -0.14789E-10         0.00000E+00
    0.96323E-06        -0.28210E-10         0.00000E+00
    0.96327E-06        -0.52325E-10         0.00000E+00
    0.96331E-06        -0.71062E-10         0.00000E+00
    0.96335E-06        -0.84677E-10         0.00000E+00
    0.96339E-06        -0.93574E-10         0.00000E+00
    0.96342E-06        -0.98215E-10         0.00000E+00
    0.96345E-06        -0.99044E-10         0.00000E+00
    0.96348E-06        -0.96441E-10         0.00000E+00
    0.96351E-06        -0.90700E-10         0.00000E+00
    0.96353E-06        -0.82026E-10         0.00000E+00
    0.96355E-06        -0.70561E-10         0.00000E+00
    0.96357E-06        -0.56417E-10         0.00000E+00
    0.96359E-06        -0.39722E-10         0.00000E+00
    0.96361E-06        -0.20676E-10         0.00000E+00
    0.96361E-06        -0.10597E-10         0.00000E+00
    0.95832E-06        -0.15135E-10         0.00000E+00
    0.95834E-06        -0.28719E-10         0.00000E+00
    0.95839E-06        -0.52847E-10         0.00000E+00
    0.95843E-06        -0.71084E-10         0.00000E+00
    0.95847E-06        -0.83918E-10         0.00000E+00
    0.95851E-06        -0.91979E-10         0.00000E+00
    0.95855E-06        -0.95905E-10         0.00000E+00
    0.95859E-06        -0.96260E-10         0.00000E+00
    0.95862E-06        -0.93481E-10         0.00000E+00
    0.95865E-06        -0.87864E-10         0.00000E+00
    0.95868E-06        -0.79573E-10         0.00000E+00
    0.95870E-06        -0.68672E-10         0.00000E+00
    0.95872E-06        -0.55163E-10         0.00000E+00
    0.95874E-06        -0.39054E-10         0.00000E+00
    0.95876E-06        -0.20429E-10         0.00000E+00
    0.95877E-06        -0.10506E-10         0.00000E+00
    0.95397E-06        -0.15489E-10         0.00000E+00
    0.95400E-06        -0.29199E-10         0.00000E+00
    0.95405E-06        -0.53184E-10         0.00000E+00
    0.95410E-06        -0.70645E-10         0.00000E+00
    0.95415E-06        -0.82392E-10         0.00000E+00
    0.95419E-06        -0.89352E-10         0.00000E+00
    0.95424E-06        -0.92390E-10         0.00000E+00
    0.95427E-06        -0.92197E-10         0.00000E+00
    0.95431E-06        -0.89263E-10         0.00000E+00
    0.95434E-06        -0.83879E-10         0.00000E+00
    0.95437E-06        -0.76153E-10         0.00000E+00
    0.95440E-06        -0.66049E-10         0.00000E+00
    0.95442E-06        -0.53431E-10         0.00000E+00
    0.95445E-06        -0.38141E-10         0.00000E+00
    0.95447E-06        -0.20099E-10         0.00000E+00
    0.95448E-06        -0.10388E-10         0.00000E+00
    0.95018E-06        -0.15829E-10         0.00000E+00
    0.95021E-06        -0.29571E-10         0.00000E+00
    0.95027E-06        -0.53123E-10         0.00000E+00
    0.95033E-06        -0.69391E-10         0.00000E+00
    0.95039E-06        -0.79643E-10         0.00000E+00
    0.95043E-06        -0.85198E-10         0.00000E+00
    0.95048E-06        -0.87176E-10         0.00000E+00
    0.95052E-06        -0.86391E-10         0.00000E+00
    0.95056E-06        -0.83362E-10         0.00000E+00
    0.95059E-06        -0.78357E-10         0.00000E+00
    0.95062E-06        -0.71422E-10         0.00000E+00
    0.95065E-06        -0.62409E-10         0.00000E+00
    0.95068E-06        -0.51016E-10         0.00000E+00
    0.95071E-06        -0.36863E-10         0.00000E+00
    0.95073E-06        -0.19637E-10         0.00000E+00
    0.95075E-06        -0.10225E-10         0.00000E+00
    0.94697E-06        -0.16095E-10         0.00000E+00
    0.94700E-06        -0.29698E-10         0.00000E+00
    0.94707E-06        -0.52343E-10         0.00000E+00
    0.94713E-06        -0.66817E-10         0.00000E+00
    0.94719E-06        -0.75073E-10         0.00000E+00
    0.94725E-06        -0.78920E-10         0.00000E+00
    0.94729E-06        -0.79723E-10         0.00000E+00
    0.94734E-06        -0.78366E-10         0.00000E+00
    0.94738E-06        -0.75350E-10         0.00000E+00
    0.94741E-06        -0.70898E-10         0.00000E+00
    0.94745E-06        -0.65000E-10         0.00000E+00
    0.94748E-06        -0.57411E-10         0.00000E+00
    0.94751E-06        -0.47650E-10         0.00000E+00
    0.94754E-06        -0.35058E-10         0.00000E+00
    0.94757E-06        -0.18978E-10         0.00000E+00
    0.94758E-06        -0.99908E-11         0.00000E+00
    0.94433E-06        -0.16192E-10         0.00000E+00
    0.94437E-06        -0.29346E-10         0.00000E+00
    0.94444E-06        -0.50321E-10         0.00000E+00
    0.94452E-06        -0.62185E-10         0.00000E+00
    0.94458E-06        -0.67904E-10         0.00000E+00
    0.94464E-06        -0.69845E-10         0.00000E+00
    0.94469E-06        -0.69508E-10         0.00000E+00
    0.94473E-06        -0.67714E-10         0.00000E+00
    0.94477E-06        -0.64875E-10         0.00000E+00
    0.94481E-06        -0.61149E-10         0.00000E+00
    0.94484E-06        -0.56501E-10         0.00000E+00
    0.94488E-06        -0.50651E-10         0.00000E+00
    0.94491E-06        -0.42979E-10         0.00000E+00
    0.94495E-06        -0.32493E-10         0.00000E+00
    0.94498E-06        -0.18023E-10         0.00000E+00
    0.94499E-06        -0.96456E-11         0.00000E+00
    0.94227E-06        -0.15936E-10         0.00000E+00
    0.94232E-06        -0.28081E-10         0.00000E+00
    0.94241E-06        -0.46158E-10         0.00000E+00
    0.94248E-06        -0.54381E-10         0.00000E+00
    0.94255E-06        -0.57181E-10         0.00000E+00
    0.94261E-06        -0.57340E-10         0.00000E+00
    0.94266E-06        -0.56162E-10         0.00000E+00
    0.94271E-06        -0.54217E-10         0.00000E+00
    0.94275E-06        -0.51767E-10         0.00000E+00
    0.94279E-06        -0.48906E-10         0.00000E+00
    0.94282E-06        -0.45606E-10         0.00000E+00
    0.94286E-06        -0.41673E-10         0.00000E+00
    0.94289E-06        -0.36501E-10         0.00000E+00
    0.94293E-06        -0.28780E-10         0.00000E+00
    0.94297E-06        -0.16602E-10         0.00000E+00
    0.94299E-06        -0.91321E-11         0.00000E+00
    0.94080E-06        -0.14886E-10         0.00000E+00
    0.94086E-06        -0.24966E-10         0.00000E+00
    0.94096E-06        -0.38186E-10         0.00000E+00
    0.94104E-06        -0.41812E-10         0.00000E+00
    0.94111E-06        -0.42014E-10         0.00000E+00
    0.94117E-06        -0.41102E-10         0.00000E+00
    0.94123E-06        -0.39677E-10         0.00000E+00
    0.94127E-06        -0.37996E-10         0.00000E+00
    0.94131E-06        -0.36171E-10         0.00000E+00
    0.94135E-06        -0.34250E-10         0.00000E+00
    0.94139E-06        -0.32231E-10         0.00000E+00
    0.94143E-06        -0.30038E-10         0.00000E+00
    0.94146E-06        -0.27463E-10         0.00000E+00
    0.94150E-06        -0.23239E-10         0.00000E+00
    0.94154E-06        -0.14322E-10         0.00000E+00
    0.94157E-06        -0.82110E-11         0.00000E+00
    0.93993E-06        -0.11572E-10         0.00000E+00
    0.93999E-06        -0.17440E-10         0.00000E+00
    0.94011E-06        -0.23338E-10         0.00000E+00
    0.94020E-06        -0.23115E-10         0.00000E+00
    0.94027E-06        -0.22432E-10         0.00000E+00
    0.94033E-06        -0.21533E-10         0.00000E+00
    0.94038E-06        -0.20580E-10         0.00000E+00
    0.94043E-06        -0.19605E-10         0.00000E+00
    0.94047E-06        -0.18625E-10         0.00000E+00
    0.94051E-06        -0.17658E-10         0.00000E+00
    0.94055E-06        -0.16724E-10         0.00000E+00
    0.94058E-06        -0.15837E-10         0.00000E+00
    0.94062E-06        -0.14965E-10         0.00000E+00
    0.94066E-06        -0.14270E-10         0.00000E+00
    0.94071E-06        -0.10505E-10         0.00000E+00
    0.94073E-06        -0.69923E-11         0.00000E+00
    0.93965E-06         0.00000E+00         0.00000E+00
    0.93971E-06         0.00000E+00         0.00000E+00
    0.93983E-06        -0.26494E-20         0.00000E+00
    0.93992E-06         0.28764E-24         0.00000E+00
    0.93999E-06         0.26497E-20         0.00000E+00
    0.94005E-06         0.00000E+00         0.00000E+00
    0.94011E-06         0.00000E+00         0.00000E+00
    0.94015E-06        -0.26506E-20         0.00000E+00
    0.94020E-06        -0.26506E-20         0.00000E+00
    0.94023E-06         0.26509E-20         0.00000E+00
    0.94027E-06         0.26509E-20         0.00000E+00
    0.94031E-06        -0.29826E-20         0.00000E+00
    0.94034E-06        -0.66268E-21         0.00000E+00
    0.94038E-06         0.26514E-20         0.00000E+00
    0.94044E-06         0.66287E-21         0.00000E+00
    0.94046E-06         0.00000E+00         0.00000E+00
CELL_DATA        450
TENSORS stressef double 
    0.16194E+08         0.21438E+06         0.00000E+00
    0.21438E+06         0.38575E+07         0.00000E+00
    0.00000E+00         0.00000E+00         0.21992E+07
 
    0.16394E+08         0.20865E+06         0.00000E+00
    0.20865E+06         0.43488E+07         0.00000E+00
    0.00000E+00         0.00000E+00         0.24565E+07
 
    0.16248E+08        -0.28896E+05         0.00000E+00
   -0.28896E+05         0.44302E+07         0.00000E+00
    0.00000E+00         0.00000E+00         0.20616E+07
 
    0.15643E+08        -0.25513E+06         0.00000E+00
   -0.25513E+06         0.38890E+07         0.00000E+00
    0.00000E+00         0.00000E+00         0.92009E+06
 
    0.14492E+08        -0.38560E+06         0.00000E+00
   -0.38560E+06         0.30151E+07         0.00000E+00
    0.00000E+00         0.00000E+00        -0.12298E+07
 
    0.12327E+08        -0.57470E+06         0.00000E+00
   -0.57470E+06         0.20564E+07         0.00000E+00
    0.00000E+00         0.00000E+00        -0.29618E+07
 
    0.99609E+07        -0.44733E+06         0.00000E+00
   -0.44733E+06         0.11429E+07         0.00000E+00
    0.00000E+00         0.00000E+00        -0.36214E+07
 
    0.82435E+07        -0.31006E+06         0.00000E+00
   -0.31006E+06         0.44172E+06         0.00000E+00
    0.00000E+00         0.00000E+00        -0.41076E+07
 
    0.67297E+07        -0.20461E+06         0.00000E+00
   -0.20461E+06        -0.47356E+05         0.00000E+00
    0.00000E+00         0.00000E+00        -0.45096E+07
 
    0.52802E+07        -0.11176E+06         0.00000E+00
   -0.11176E+06        -0.34965E+06         0.00000E+00
    0.00000E+00         0.00000E+00        -0.48602E+07
 
    0.38059E+07        -0.20832E+05         0.00000E+00
   -0.20832E+05        -0.47372E+06         0.00000E+00
    0.00000E+00         0.00000E+00        -0.51789E+07
 
    0.22239E+07         0.77549E+05         0.00000E+00
    0.77549E+05        -0.41146E+06         0.00000E+00
    0.00000E+00         0.00000E+00        -0.54810E+07
 
    0.42712E+06         0.19689E+06         0.00000E+00
    0.19689E+06        -0.13380E+06         0.00000E+00
    0.00000E+00         0.00000E+00        -0.57819E+07
 
   -0.17647E+07         0.36410E+06         0.00000E+00
    0.36410E+06         0.42917E+06         0.00000E+00
    0.00000E+00         0.00000E+00        -0.61038E+07
 
   -0.48649E+07         0.75134E+06         0.00000E+00
    0.75134E+06         0.14878E+07         0.00000E+00
    0.00000E+00         0.00000E+00        -0.65073E+07
 
    0.14519E+08         0.42497E+06         0.00000E+00
    0.42497E+06         0.95867E+06         0.00000E+00
    0.00000E+00         0.00000E+00        -0.32122E+06
 
    0.14224E+08         0.36560E+06         0.00000E+00
    0.36560E+06         0.56862E+06         0.00000E+00
    0.00000E+00         0.00000E+00        -0.87751E+06
 
    0.13903E+08        -0.46118E+05         0.00000E+00
   -0.46118E+05         0.27517E+06         0.00000E+00
    0.00000E+00         0.00000E+00        -0.16255E+07
 
    0.13440E+08        -0.54637E+06         0.00000E+00
   -0.54637E+06         0.34450E+06         0.00000E+00
    0.00000E+00         0.00000E+00        -0.27231E+07
 
    0.12059E+08        -0.94876E+06         0.00000E+00
   -0.94876E+06         0.39835E+06         0.00000E+00
    0.00000E+00         0.00000E+00        -0.33422E+07
 
    0.10205E+08        -0.12331E+07         0.00000E+00
   -0.12331E+07         0.17234E+06         0.00000E+00
    0.00000E+00         0.00000E+00        -0.37631E+07
 
    0.81754E+07        -0.10899E+07         0.00000E+00
   -0.10899E+07        -0.21296E+06         0.00000E+00
    0.00000E+00         0.00000E+00        -0.42499E+07
 
    0.64322E+07        -0.81577E+06         0.00000E+00
   -0.81577E+06        -0.62676E+06         0.00000E+00
    0.00000E+00         0.00000E+00        -0.46838E+07
 
    0.48992E+07        -0.55152E+06         0.00000E+00
   -0.55152E+06        -0.96197E+06         0.00000E+00
    0.00000E+00         0.00000E+00        -0.50588E+07
 
    0.34438E+07        -0.29738E+06         0.00000E+00
   -0.29738E+06        -0.11734E+07         0.00000E+00
    0.00000E+00         0.00000E+00        -0.53923E+07
 
    0.19785E+07        -0.36886E+05         0.00000E+00
   -0.36886E+05        -0.12389E+07         0.00000E+00
    0.00000E+00         0.00000E+00        -0.56976E+07
 
    0.42435E+06         0.25204E+06         0.00000E+00
    0.25204E+06        -0.11357E+07         0.00000E+00
    0.00000E+00         0.00000E+00        -0.59859E+07
 
   -0.13082E+07         0.60567E+06         0.00000E+00
    0.60567E+06        -0.82882E+06         0.00000E+00
    0.00000E+00         0.00000E+00        -0.62681E+07
 
   -0.33493E+07         0.11081E+07         0.00000E+00
    0.11081E+07        -0.25525E+06         0.00000E+00
    0.00000E+00         0.00000E+00        -0.65578E+07
 
   -0.57224E+07         0.20325E+07         0.00000E+00
    0.20325E+07         0.67254E+06         0.00000E+00
    0.00000E+00         0.00000E+00        -0.68421E+07
 
    0.12898E+08         0.67366E+05         0.00000E+00
    0.67366E+05        -0.16319E+07         0.00000E+00
    0.00000E+00         0.00000E+00        -0.30298E+07
 
    0.12188E+08         0.13419E+06         0.00000E+00
    0.13419E+06        -0.19542E+07         0.00000E+00
    0.00000E+00         0.00000E+00        -0.37026E+07
 
    0.11401E+08        -0.14422E+06         0.00000E+00
   -0.14422E+06        -0.18590E+07         0.00000E+00
    0.00000E+00         0.00000E+00        -0.39127E+07
 
    0.10815E+08        -0.58531E+06         0.00000E+00
   -0.58531E+06        -0.17891E+07         0.00000E+00
    0.00000E+00         0.00000E+00        -0.40231E+07
 
    0.97051E+07        -0.10891E+07         0.00000E+00
   -0.10891E+07        -0.18331E+07         0.00000E+00
    0.00000E+00         0.00000E+00        -0.42598E+07
 
    0.81128E+07        -0.13476E+07         0.00000E+00
   -0.13476E+07        -0.18796E+07         0.00000E+00
    0.00000E+00         0.00000E+00        -0.45924E+07
 
    0.63863E+07        -0.13207E+07         0.00000E+00
   -0.13207E+07        -0.19318E+07         0.00000E+00
    0.00000E+00         0.00000E+00        -0.49518E+07
 
    0.47316E+07        -0.10783E+07         0.00000E+00
   -0.10783E+07        -0.20561E+07         0.00000E+00
    0.00000E+00         0.00000E+00        -0.53101E+07
 
    0.32136E+07        -0.75120E+06         0.00000E+00
   -0.75120E+06        -0.21920E+07         0.00000E+00
    0.00000E+00         0.00000E+00        -0.56422E+07
 
    0.17724E+07        -0.38821E+06         0.00000E+00
   -0.38821E+06        -0.22703E+07         0.00000E+00
    0.00000E+00         0.00000E+00        -0.59463E+07
 
    0.33745E+06         0.11449E+05         0.00000E+00
    0.11449E+05        -0.22455E+07         0.00000E+00
    0.00000E+00         0.00000E+00        -0.62274E+07
 
   -0.11553E+07         0.47069E+06         0.00000E+00
    0.47069E+06        -0.20824E+07         0.00000E+00
    0.00000E+00         0.00000E+00        -0.64915E+07
 
   -0.27673E+07         0.10376E+07         0.00000E+00
    0.10376E+07        -0.17457E+07         0.00000E+00
    0.00000E+00         0.00000E+00        -0.67437E+07
 
   -0.45306E+07         0.18127E+07         0.00000E+00
    0.18127E+07        -0.12006E+07         0.00000E+00
    0.00000E+00         0.00000E+00        -0.69835E+07
 
   -0.63792E+07         0.29516E+07         0.00000E+00
    0.29516E+07        -0.47654E+06         0.00000E+00
    0.00000E+00         0.00000E+00        -0.72037E+07
 
    0.11067E+08        -0.13412E+06         0.00000E+00
   -0.13412E+06        -0.30849E+07         0.00000E+00
    0.00000E+00         0.00000E+00        -0.42507E+07
 
    0.99457E+07        -0.19356E+06         0.00000E+00
   -0.19356E+06        -0.31209E+07         0.00000E+00
    0.00000E+00         0.00000E+00        -0.44486E+07
 
    0.91507E+07        -0.36308E+06         0.00000E+00
   -0.36308E+06        -0.34075E+07         0.00000E+00
    0.00000E+00         0.00000E+00        -0.46733E+07
 
    0.83835E+07        -0.69740E+06         0.00000E+00
   -0.69740E+06        -0.36436E+07         0.00000E+00
    0.00000E+00         0.00000E+00        -0.48811E+07
 
    0.73618E+07        -0.10953E+07         0.00000E+00
   -0.10953E+07        -0.37231E+07         0.00000E+00
    0.00000E+00         0.00000E+00        -0.51072E+07
 
    0.60274E+07        -0.13311E+07         0.00000E+00
   -0.13311E+07        -0.37023E+07         0.00000E+00
    0.00000E+00         0.00000E+00        -0.53747E+07
 
    0.45418E+07        -0.13326E+07         0.00000E+00
   -0.13326E+07        -0.36628E+07         0.00000E+00
    0.00000E+00         0.00000E+00        -0.56675E+07
 
    0.30489E+07        -0.11330E+07         0.00000E+00
   -0.11330E+07        -0.36361E+07         0.00000E+00
    0.00000E+00         0.00000E+00        -0.59631E+07
 
    0.16115E+07        -0.79533E+06         0.00000E+00
   -0.79533E+06        -0.36206E+07         0.00000E+00
    0.00000E+00         0.00000E+00        -0.62488E+07
 
    0.22573E+06        -0.36840E+06         0.00000E+00
   -0.36840E+06        -0.35775E+07         0.00000E+00
    0.00000E+00         0.00000E+00        -0.65175E+07
 
   -0.11457E+07         0.13535E+06         0.00000E+00
    0.13535E+06        -0.34649E+07         0.00000E+00
    0.00000E+00         0.00000E+00        -0.67684E+07
 
   -0.25433E+07         0.73239E+06         0.00000E+00
    0.73239E+06        -0.32484E+07         0.00000E+00
    0.00000E+00         0.00000E+00        -0.70027E+07
 
   -0.39943E+07         0.14663E+07         0.00000E+00
    0.14663E+07        -0.29016E+07         0.00000E+00
    0.00000E+00         0.00000E+00        -0.72208E+07
 
   -0.54909E+07         0.24082E+07         0.00000E+00
    0.24082E+07        -0.24205E+07         0.00000E+00
    0.00000E+00         0.00000E+00        -0.74201E+07
 
   -0.69596E+07         0.36400E+07         0.00000E+00
    0.36400E+07        -0.18431E+07         0.00000E+00
    0.00000E+00         0.00000E+00        -0.75937E+07
 
    0.88841E+07        -0.16793E+06         0.00000E+00
   -0.16793E+06        -0.49193E+07         0.00000E+00
    0.00000E+00         0.00000E+00        -0.50126E+07
 
    0.78443E+07        -0.40572E+06         0.00000E+00
   -0.40572E+06        -0.49901E+07         0.00000E+00
    0.00000E+00         0.00000E+00        -0.52442E+07
 
    0.69617E+07        -0.61116E+06         0.00000E+00
   -0.61116E+06        -0.51722E+07         0.00000E+00
    0.00000E+00         0.00000E+00        -0.54653E+07
 
    0.61084E+07        -0.86355E+06         0.00000E+00
   -0.86355E+06        -0.53471E+07         0.00000E+00
    0.00000E+00         0.00000E+00        -0.56779E+07
 
    0.51320E+07        -0.11220E+07         0.00000E+00
   -0.11220E+07        -0.54379E+07         0.00000E+00
    0.00000E+00         0.00000E+00        -0.58972E+07
 
    0.39779E+07        -0.12806E+07         0.00000E+00
   -0.12806E+07        -0.54266E+07         0.00000E+00
    0.00000E+00         0.00000E+00        -0.61303E+07
 
    0.26974E+07        -0.12656E+07         0.00000E+00
   -0.12656E+07        -0.53563E+07         0.00000E+00
    0.00000E+00         0.00000E+00        -0.63759E+07
 
    0.13734E+07        -0.10709E+07         0.00000E+00
   -0.10709E+07        -0.52660E+07         0.00000E+00
    0.00000E+00         0.00000E+00        -0.66249E+07
 
    0.59575E+05        -0.72508E+06         0.00000E+00
   -0.72508E+06        -0.51645E+07         0.00000E+00
    0.00000E+00         0.00000E+00        -0.68686E+07
 
   -0.12296E+07        -0.25682E+06         0.00000E+00
   -0.25682E+06        -0.50383E+07         0.00000E+00
    0.00000E+00         0.00000E+00        -0.71013E+07
 
   -0.25040E+07         0.32156E+06         0.00000E+00
    0.32156E+06        -0.48622E+07         0.00000E+00
    0.00000E+00         0.00000E+00        -0.73201E+07
 
   -0.37794E+07         0.10196E+07         0.00000E+00
    0.10196E+07        -0.46123E+07         0.00000E+00
    0.00000E+00         0.00000E+00        -0.75233E+07
 
   -0.50607E+07         0.18666E+07         0.00000E+00
    0.18666E+07        -0.42746E+07         0.00000E+00
    0.00000E+00         0.00000E+00        -0.77093E+07
 
   -0.63255E+07         0.29052E+07         0.00000E+00
    0.29052E+07        -0.38548E+07         0.00000E+00
    0.00000E+00         0.00000E+00        -0.78746E+07
 
   -0.75126E+07         0.41756E+07         0.00000E+00
    0.41756E+07        -0.33871E+07         0.00000E+00
    0.00000E+00         0.00000E+00        -0.80140E+07
 
    0.66172E+07        -0.20534E+06         0.00000E+00
   -0.20534E+06        -0.68216E+07         0.00000E+00
    0.00000E+00         0.00000E+00        -0.58484E+07
 
    0.56708E+07        -0.51907E+06         0.00000E+00
   -0.51907E+06        -0.68853E+07         0.00000E+00
    0.00000E+00         0.00000E+00        -0.60597E+07
 
    0.48048E+07        -0.76529E+06         0.00000E+00
   -0.76529E+06        -0.69868E+07         0.00000E+00
    0.00000E+00         0.00000E+00        -0.62612E+07
 
    0.39477E+07        -0.97908E+06         0.00000E+00
   -0.97908E+06        -0.70892E+07         0.00000E+00
    0.00000E+00         0.00000E+00        -0.64599E+07
 
    0.30263E+07        -0.11501E+07         0.00000E+00
   -0.11501E+07        -0.71416E+07         0.00000E+00
    0.00000E+00         0.00000E+00        -0.66603E+07
 
    0.20019E+07        -0.12289E+07         0.00000E+00
   -0.12289E+07        -0.71230E+07         0.00000E+00
    0.00000E+00         0.00000E+00        -0.68659E+07
 
    0.88815E+06        -0.11698E+07         0.00000E+00
   -0.11698E+07        -0.70443E+07         0.00000E+00
    0.00000E+00         0.00000E+00        -0.70763E+07
 
   -0.27442E+06        -0.95434E+06         0.00000E+00
   -0.95434E+06        -0.69274E+07         0.00000E+00
    0.00000E+00         0.00000E+00        -0.72876E+07
 
   -0.14485E+07        -0.58883E+06         0.00000E+00
   -0.58883E+06        -0.67845E+07         0.00000E+00
    0.00000E+00         0.00000E+00        -0.74950E+07
 
   -0.26144E+07        -0.86484E+05         0.00000E+00
   -0.86484E+05        -0.66134E+07         0.00000E+00
    0.00000E+00         0.00000E+00        -0.76941E+07
 
   -0.37671E+07         0.54567E+06         0.00000E+00
    0.54567E+06        -0.64030E+07         0.00000E+00
    0.00000E+00         0.00000E+00        -0.78816E+07
 
   -0.49053E+07         0.13126E+07         0.00000E+00
    0.13126E+07        -0.61414E+07         0.00000E+00
    0.00000E+00         0.00000E+00        -0.80551E+07
 
   -0.60208E+07         0.22307E+07         0.00000E+00
    0.22307E+07        -0.58238E+07         0.00000E+00
    0.00000E+00         0.00000E+00        -0.82120E+07
 
   -0.70877E+07         0.33219E+07         0.00000E+00
    0.33219E+07        -0.54595E+07         0.00000E+00
    0.00000E+00         0.00000E+00        -0.83489E+07
 
   -0.80580E+07         0.46026E+07         0.00000E+00
    0.46026E+07        -0.50753E+07         0.00000E+00
    0.00000E+00         0.00000E+00        -0.84618E+07
 
    0.43067E+07        -0.22745E+06         0.00000E+00
   -0.22745E+06        -0.87306E+07         0.00000E+00
    0.00000E+00         0.00000E+00        -0.66947E+07
 
    0.34702E+07        -0.58570E+06         0.00000E+00
   -0.58570E+06        -0.87617E+07         0.00000E+00
    0.00000E+00         0.00000E+00        -0.68773E+07
 
    0.26667E+07        -0.84778E+06         0.00000E+00
   -0.84778E+06        -0.88143E+07         0.00000E+00
    0.00000E+00         0.00000E+00        -0.70563E+07
 
    0.18615E+07        -0.10382E+07         0.00000E+00
   -0.10382E+07        -0.88610E+07         0.00000E+00
    0.00000E+00         0.00000E+00        -0.72332E+07
 
    0.10151E+07        -0.11537E+07         0.00000E+00
   -0.11537E+07        -0.88746E+07         0.00000E+00
    0.00000E+00         0.00000E+00        -0.74107E+07
 
    0.10507E+06        -0.11711E+07         0.00000E+00
   -0.11711E+07        -0.88382E+07         0.00000E+00
    0.00000E+00         0.00000E+00        -0.75897E+07
 
   -0.86641E+06        -0.10636E+07         0.00000E+00
   -0.10636E+07        -0.87520E+07         0.00000E+00
    0.00000E+00         0.00000E+00        -0.77699E+07
 
   -0.18795E+07        -0.81494E+06         0.00000E+00
   -0.81494E+06        -0.86253E+07         0.00000E+00
    0.00000E+00         0.00000E+00        -0.79493E+07
 
   -0.29103E+07        -0.42196E+06         0.00000E+00
   -0.42196E+06        -0.84666E+07         0.00000E+00
    0.00000E+00         0.00000E+00        -0.81248E+07
 
   -0.39405E+07         0.11184E+06         0.00000E+00
    0.11184E+06        -0.82784E+07         0.00000E+00
    0.00000E+00         0.00000E+00        -0.82933E+07
 
   -0.49583E+07         0.78368E+06         0.00000E+00
    0.78368E+06        -0.80580E+07         0.00000E+00
    0.00000E+00         0.00000E+00        -0.84518E+07
 
   -0.59536E+07         0.15959E+07         0.00000E+00
    0.15959E+07        -0.78021E+07         0.00000E+00
    0.00000E+00         0.00000E+00        -0.85979E+07
 
   -0.69118E+07         0.25561E+07         0.00000E+00
    0.25561E+07        -0.75118E+07         0.00000E+00
    0.00000E+00         0.00000E+00        -0.87288E+07
 
   -0.78079E+07         0.36727E+07         0.00000E+00
    0.36727E+07        -0.71975E+07         0.00000E+00
    0.00000E+00         0.00000E+00        -0.88417E+07
 
   -0.86050E+07         0.49486E+07         0.00000E+00
    0.49486E+07        -0.68796E+07         0.00000E+00
    0.00000E+00         0.00000E+00        -0.89334E+07
 
    0.19818E+07        -0.23828E+06         0.00000E+00
   -0.23828E+06        -0.10618E+08         0.00000E+00
    0.00000E+00         0.00000E+00        -0.75400E+07
 
    0.12650E+07        -0.61558E+06         0.00000E+00
   -0.61558E+06        -0.10629E+08         0.00000E+00
    0.00000E+00         0.00000E+00        -0.76944E+07
 
    0.55284E+06        -0.88223E+06         0.00000E+00
   -0.88223E+06        -0.10646E+08         0.00000E+00
    0.00000E+00         0.00000E+00        -0.78477E+07
 
   -0.17068E+06        -0.10540E+07         0.00000E+00
   -0.10540E+07        -0.10654E+08         0.00000E+00
    0.00000E+00         0.00000E+00        -0.80004E+07
 
   -0.92486E+06        -0.11314E+07         0.00000E+00
   -0.11314E+07        -0.10638E+08         0.00000E+00
    0.00000E+00         0.00000E+00        -0.81531E+07
 
   -0.17221E+07        -0.11028E+07         0.00000E+00
   -0.11028E+07        -0.10585E+08         0.00000E+00
    0.00000E+00         0.00000E+00        -0.83061E+07
 
   -0.25624E+07        -0.95270E+06         0.00000E+00
   -0.95270E+06        -0.10493E+08         0.00000E+00
    0.00000E+00         0.00000E+00        -0.84587E+07
 
   -0.34351E+07        -0.66918E+06         0.00000E+00
   -0.66918E+06        -0.10364E+08         0.00000E+00
    0.00000E+00         0.00000E+00        -0.86095E+07
 
   -0.43245E+07        -0.24665E+06         0.00000E+00
   -0.24665E+06        -0.10204E+08         0.00000E+00
    0.00000E+00         0.00000E+00        -0.87564E+07
 
   -0.52153E+07         0.31565E+06         0.00000E+00
    0.31565E+06        -0.10017E+08         0.00000E+00
    0.00000E+00         0.00000E+00        -0.88971E+07
 
   -0.60940E+07         0.10173E+07         0.00000E+00
    0.10173E+07        -0.98036E+07         0.00000E+00
    0.00000E+00         0.00000E+00        -0.90293E+07
 
   -0.69470E+07         0.18588E+07         0.00000E+00
    0.18588E+07        -0.95655E+07         0.00000E+00
    0.00000E+00         0.00000E+00        -0.91504E+07
 
   -0.77578E+07         0.28420E+07         0.00000E+00
    0.28420E+07        -0.93073E+07         0.00000E+00
    0.00000E+00         0.00000E+00        -0.92584E+07
 
   -0.85040E+07         0.39676E+07         0.00000E+00
    0.39676E+07        -0.90389E+07         0.00000E+00
    0.00000E+00         0.00000E+00        -0.93506E+07
 
   -0.91573E+07         0.52309E+07         0.00000E+00
    0.52309E+07        -0.87761E+07         0.00000E+00
    0.00000E+00         0.00000E+00        -0.94247E+07
 
   -0.33711E+06        -0.23980E+06         0.00000E+00
   -0.23980E+06        -0.12488E+08         0.00000E+00
    0.00000E+00         0.00000E+00        -0.83813E+07
 
   -0.92882E+06        -0.62091E+06         0.00000E+00
   -0.62091E+06        -0.12486E+08         0.00000E+00
    0.00000E+00         0.00000E+00        -0.85075E+07
 
   -0.15346E+07        -0.88423E+06         0.00000E+00
   -0.88423E+06        -0.12479E+08         0.00000E+00
    0.00000E+00         0.00000E+00        -0.86346E+07
 
   -0.21585E+07        -0.10400E+07         0.00000E+00
   -0.10400E+07        -0.12463E+08         0.00000E+00
    0.00000E+00         0.00000E+00        -0.87620E+07
 
   -0.28086E+07        -0.10893E+07         0.00000E+00
   -0.10893E+07        -0.12427E+08         0.00000E+00
    0.00000E+00         0.00000E+00        -0.88896E+07
 
   -0.34906E+07        -0.10261E+07         0.00000E+00
   -0.10261E+07        -0.12363E+08         0.00000E+00
    0.00000E+00         0.00000E+00        -0.90171E+07
 
   -0.42038E+07        -0.84118E+06         0.00000E+00
   -0.84118E+06        -0.12268E+08         0.00000E+00
    0.00000E+00         0.00000E+00        -0.91437E+07
 
   -0.49416E+07        -0.52635E+06         0.00000E+00
   -0.52635E+06        -0.12144E+08         0.00000E+00
    0.00000E+00         0.00000E+00        -0.92682E+07
 
   -0.56930E+07        -0.76484E+05         0.00000E+00
   -0.76484E+05        -0.11992E+08         0.00000E+00
    0.00000E+00         0.00000E+00        -0.93890E+07
 
   -0.64455E+07         0.51032E+06         0.00000E+00
    0.51032E+06        -0.11817E+08         0.00000E+00
    0.00000E+00         0.00000E+00        -0.95044E+07
 
   -0.71860E+07         0.12341E+07         0.00000E+00
    0.12341E+07        -0.11621E+08         0.00000E+00
    0.00000E+00         0.00000E+00        -0.96125E+07
 
   -0.79009E+07         0.20941E+07         0.00000E+00
    0.20941E+07        -0.11408E+08         0.00000E+00
    0.00000E+00         0.00000E+00        -0.97112E+07
 
   -0.85740E+07         0.30885E+07         0.00000E+00
    0.30885E+07        -0.11185E+08         0.00000E+00
    0.00000E+00         0.00000E+00        -0.97986E+07
 
   -0.91864E+07         0.42135E+07         0.00000E+00
    0.42135E+07        -0.10959E+08         0.00000E+00
    0.00000E+00         0.00000E+00        -0.98728E+07
 
   -0.97161E+07         0.54606E+07         0.00000E+00
    0.54606E+07        -0.10744E+08         0.00000E+00
    0.00000E+00         0.00000E+00        -0.99319E+07
 
   -0.26358E+07        -0.23520E+06         0.00000E+00
   -0.23520E+06        -0.14342E+08         0.00000E+00
    0.00000E+00         0.00000E+00        -0.92156E+07
 
   -0.31023E+07        -0.61063E+06         0.00000E+00
   -0.61063E+06        -0.14331E+08         0.00000E+00
    0.00000E+00         0.00000E+00        -0.93147E+07
 
   -0.35939E+07        -0.86629E+06         0.00000E+00
   -0.86629E+06        -0.14312E+08         0.00000E+00
    0.00000E+00         0.00000E+00        -0.94159E+07
 
   -0.41081E+07        -0.10077E+07         0.00000E+00
   -0.10077E+07        -0.14281E+08         0.00000E+00
    0.00000E+00         0.00000E+00        -0.95182E+07
 
   -0.46462E+07        -0.10355E+07         0.00000E+00
   -0.10355E+07        -0.14234E+08         0.00000E+00
    0.00000E+00         0.00000E+00        -0.96211E+07
 
   -0.52097E+07        -0.94605E+06         0.00000E+00
   -0.94605E+06        -0.14166E+08         0.00000E+00
    0.00000E+00         0.00000E+00        -0.97237E+07
 
   -0.57970E+07        -0.73366E+06         0.00000E+00
   -0.73366E+06        -0.14075E+08         0.00000E+00
    0.00000E+00         0.00000E+00        -0.98255E+07
 
   -0.64031E+07        -0.39288E+06         0.00000E+00
   -0.39288E+06        -0.13960E+08         0.00000E+00
    0.00000E+00         0.00000E+00        -0.99254E+07
 
   -0.70198E+07         0.80070E+05         0.00000E+00
    0.80070E+05        -0.13823E+08         0.00000E+00
    0.00000E+00         0.00000E+00        -0.10022E+08
 
   -0.76369E+07         0.68672E+06         0.00000E+00
    0.68672E+06        -0.13667E+08         0.00000E+00
    0.00000E+00         0.00000E+00        -0.10114E+08
 
   -0.82429E+07         0.14266E+07         0.00000E+00
    0.14266E+07        -0.13495E+08         0.00000E+00
    0.00000E+00         0.00000E+00        -0.10200E+08
 
   -0.88252E+07         0.22977E+07         0.00000E+00
    0.22977E+07        -0.13312E+08         0.00000E+00
    0.00000E+00         0.00000E+00        -0.10278E+08
 
   -0.93697E+07         0.32961E+07         0.00000E+00
    0.32961E+07        -0.13124E+08         0.00000E+00
    0.00000E+00         0.00000E+00        -0.10347E+08
 
   -0.98605E+07         0.44153E+07         0.00000E+00
    0.44153E+07        -0.12939E+08         0.00000E+00
    0.00000E+00         0.00000E+00        -0.10405E+08
 
   -0.10281E+08         0.56450E+07         0.00000E+00
    0.56450E+07        -0.12767E+08         0.00000E+00
    0.00000E+00         0.00000E+00        -0.10451E+08
 
   -0.49062E+07        -0.22741E+06         0.00000E+00
   -0.22741E+06        -0.16179E+08         0.00000E+00
    0.00000E+00         0.00000E+00        -0.10042E+08
 
   -0.52504E+07        -0.59213E+06         0.00000E+00
   -0.59213E+06        -0.16165E+08         0.00000E+00
    0.00000E+00         0.00000E+00        -0.10115E+08
 
   -0.56250E+07        -0.83815E+06         0.00000E+00
   -0.83815E+06        -0.16140E+08         0.00000E+00
    0.00000E+00         0.00000E+00        -0.10191E+08
 
   -0.60238E+07        -0.96701E+06         0.00000E+00
   -0.96701E+06        -0.16104E+08         0.00000E+00
    0.00000E+00         0.00000E+00        -0.10269E+08
 
   -0.64449E+07        -0.97807E+06         0.00000E+00
   -0.97807E+06        -0.16055E+08         0.00000E+00
    0.00000E+00         0.00000E+00        -0.10348E+08
 
   -0.68872E+07        -0.86865E+06         0.00000E+00
   -0.86865E+06        -0.15990E+08         0.00000E+00
    0.00000E+00         0.00000E+00        -0.10426E+08
 
   -0.73487E+07        -0.63507E+06         0.00000E+00
   -0.63507E+06        -0.15907E+08         0.00000E+00
    0.00000E+00         0.00000E+00        -0.10504E+08
 
   -0.78251E+07        -0.27383E+06         0.00000E+00
   -0.27383E+06        -0.15806E+08         0.00000E+00
    0.00000E+00         0.00000E+00        -0.10581E+08
 
   -0.83099E+07         0.21740E+06         0.00000E+00
    0.21740E+06        -0.15688E+08         0.00000E+00
    0.00000E+00         0.00000E+00        -0.10655E+08
 
   -0.87950E+07         0.83921E+06         0.00000E+00
    0.83921E+06        -0.15555E+08         0.00000E+00
    0.00000E+00         0.00000E+00        -0.10725E+08
 
   -0.92709E+07         0.15903E+07         0.00000E+00
    0.15903E+07        -0.15411E+08         0.00000E+00
    0.00000E+00         0.00000E+00        -0.10791E+08
 
   -0.97265E+07         0.24675E+07         0.00000E+00
    0.24675E+07        -0.15261E+08         0.00000E+00
    0.00000E+00         0.00000E+00        -0.10850E+08
 
   -0.10150E+08         0.34656E+07         0.00000E+00
    0.34656E+07        -0.15109E+08         0.00000E+00
    0.00000E+00         0.00000E+00        -0.10902E+08
 
   -0.10529E+08         0.45764E+07         0.00000E+00
    0.45764E+07        -0.14962E+08         0.00000E+00
    0.00000E+00         0.00000E+00        -0.10946E+08
 
   -0.10850E+08         0.57891E+07         0.00000E+00
    0.57891E+07        -0.14829E+08         0.00000E+00
    0.00000E+00         0.00000E+00        -0.10980E+08
 
   -0.71449E+07        -0.21876E+06         0.00000E+00
   -0.21876E+06        -0.18001E+08         0.00000E+00
    0.00000E+00         0.00000E+00        -0.10858E+08
 
   -0.73716E+07        -0.57122E+06         0.00000E+00
   -0.57122E+06        -0.17986E+08         0.00000E+00
    0.00000E+00         0.00000E+00        -0.10908E+08
 
   -0.76287E+07        -0.80749E+06         0.00000E+00
   -0.80749E+06        -0.17961E+08         0.00000E+00
    0.00000E+00         0.00000E+00        -0.10960E+08
 
   -0.79094E+07        -0.92573E+06         0.00000E+00
   -0.92573E+06        -0.17927E+08         0.00000E+00
    0.00000E+00         0.00000E+00        -0.11014E+08
 
   -0.82104E+07        -0.92390E+06         0.00000E+00
   -0.92390E+06        -0.17883E+08         0.00000E+00
    0.00000E+00         0.00000E+00        -0.11069E+08
 
   -0.85296E+07        -0.79954E+06         0.00000E+00
   -0.79954E+06        -0.17826E+08         0.00000E+00
    0.00000E+00         0.00000E+00        -0.11125E+08
 
   -0.88650E+07        -0.55005E+06         0.00000E+00
   -0.55005E+06        -0.17757E+08         0.00000E+00
    0.00000E+00         0.00000E+00        -0.11180E+08
 
   -0.92129E+07        -0.17332E+06         0.00000E+00
   -0.17332E+06        -0.17673E+08         0.00000E+00
    0.00000E+00         0.00000E+00        -0.11234E+08
 
   -0.95683E+07         0.33165E+06         0.00000E+00
    0.33165E+06        -0.17578E+08         0.00000E+00
    0.00000E+00         0.00000E+00        -0.11287E+08
 
   -0.99249E+07         0.96445E+06         0.00000E+00
    0.96445E+06        -0.17472E+08         0.00000E+00
    0.00000E+00         0.00000E+00        -0.11336E+08
 
   -0.10275E+08         0.17229E+07         0.00000E+00
    0.17229E+07        -0.17358E+08         0.00000E+00
    0.00000E+00         0.00000E+00        -0.11383E+08
 
   -0.10609E+08         0.26028E+07         0.00000E+00
    0.26028E+07        -0.17241E+08         0.00000E+00
    0.00000E+00         0.00000E+00        -0.11425E+08
 
   -0.10919E+08         0.35979E+07         0.00000E+00
    0.35979E+07        -0.17125E+08         0.00000E+00
    0.00000E+00         0.00000E+00        -0.11462E+08
 
   -0.11193E+08         0.46995E+07         0.00000E+00
    0.46995E+07        -0.17015E+08         0.00000E+00
    0.00000E+00         0.00000E+00        -0.11492E+08
 
   -0.11423E+08         0.58963E+07         0.00000E+00
    0.58963E+07        -0.16918E+08         0.00000E+00
    0.00000E+00         0.00000E+00        -0.11515E+08
 
   -0.93526E+07        -0.21100E+06         0.00000E+00
   -0.21100E+06        -0.19807E+08         0.00000E+00
    0.00000E+00         0.00000E+00        -0.11667E+08
 
   -0.94666E+07        -0.55239E+06         0.00000E+00
   -0.55239E+06        -0.19795E+08         0.00000E+00
    0.00000E+00         0.00000E+00        -0.11693E+08
 
   -0.96071E+07        -0.78031E+06         0.00000E+00
   -0.78031E+06        -0.19775E+08         0.00000E+00
    0.00000E+00         0.00000E+00        -0.11723E+08
 
   -0.97684E+07        -0.89022E+06         0.00000E+00
   -0.89022E+06        -0.19748E+08         0.00000E+00
    0.00000E+00         0.00000E+00        -0.11754E+08
 
   -0.99474E+07        -0.87884E+06         0.00000E+00
   -0.87884E+06        -0.19713E+08         0.00000E+00
    0.00000E+00         0.00000E+00        -0.11786E+08
 
   -0.10142E+08        -0.74360E+06         0.00000E+00
   -0.74360E+06        -0.19670E+08         0.00000E+00
    0.00000E+00         0.00000E+00        -0.11819E+08
 
   -0.10351E+08        -0.48256E+06         0.00000E+00
   -0.48256E+06        -0.19618E+08         0.00000E+00
    0.00000E+00         0.00000E+00        -0.11852E+08
 
   -0.10572E+08        -0.94627E+05         0.00000E+00
   -0.94627E+05        -0.19556E+08         0.00000E+00
    0.00000E+00         0.00000E+00        -0.11884E+08
 
   -0.10800E+08         0.42018E+06         0.00000E+00
    0.42018E+06        -0.19485E+08         0.00000E+00
    0.00000E+00         0.00000E+00        -0.11916E+08
 
   -0.11031E+08         0.10604E+07         0.00000E+00
    0.10604E+07        -0.19407E+08         0.00000E+00
    0.00000E+00         0.00000E+00        -0.11947E+08
 
   -0.11259E+08         0.18231E+07         0.00000E+00
    0.18231E+07        -0.19325E+08         0.00000E+00
    0.00000E+00         0.00000E+00        -0.11975E+08
 
   -0.11477E+08         0.27033E+07         0.00000E+00
    0.27033E+07        -0.19241E+08         0.00000E+00
    0.00000E+00         0.00000E+00        -0.12001E+08
 
   -0.11678E+08         0.36942E+07         0.00000E+00
    0.36942E+07        -0.19160E+08         0.00000E+00
    0.00000E+00         0.00000E+00        -0.12023E+08
 
   -0.11853E+08         0.47866E+07         0.00000E+00
    0.47866E+07        -0.19086E+08         0.00000E+00
    0.00000E+00         0.00000E+00        -0.12041E+08
 
   -0.11997E+08         0.59692E+07         0.00000E+00
    0.59692E+07        -0.19023E+08         0.00000E+00
    0.00000E+00         0.00000E+00        -0.12054E+08
 
   -0.11533E+08        -0.20544E+06         0.00000E+00
   -0.20544E+06        -0.21597E+08         0.00000E+00
    0.00000E+00         0.00000E+00        -0.12466E+08
 
   -0.11538E+08        -0.53896E+06         0.00000E+00
   -0.53896E+06        -0.21590E+08         0.00000E+00
    0.00000E+00         0.00000E+00        -0.12472E+08
 
   -0.11563E+08        -0.76108E+06         0.00000E+00
   -0.76108E+06        -0.21578E+08         0.00000E+00
    0.00000E+00         0.00000E+00        -0.12479E+08
 
   -0.11604E+08        -0.86531E+06         0.00000E+00
   -0.86531E+06        -0.21562E+08         0.00000E+00
    0.00000E+00         0.00000E+00        -0.12488E+08
 
   -0.11660E+08        -0.84740E+06         0.00000E+00
   -0.84740E+06        -0.21542E+08         0.00000E+00
    0.00000E+00         0.00000E+00        -0.12497E+08
 
   -0.11730E+08        -0.70468E+06         0.00000E+00
   -0.70468E+06        -0.21516E+08         0.00000E+00
    0.00000E+00         0.00000E+00        -0.12508E+08
 
   -0.11812E+08        -0.43567E+06         0.00000E+00
   -0.43567E+06        -0.21483E+08         0.00000E+00
    0.00000E+00         0.00000E+00        -0.12520E+08
 
   -0.11906E+08        -0.40065E+05         0.00000E+00
   -0.40065E+05        -0.21445E+08         0.00000E+00
    0.00000E+00         0.00000E+00        -0.12531E+08
 
   -0.12008E+08         0.48126E+06         0.00000E+00
    0.48126E+06        -0.21400E+08         0.00000E+00
    0.00000E+00         0.00000E+00        -0.12543E+08
 
   -0.12116E+08         0.11261E+07         0.00000E+00
    0.11261E+07        -0.21352E+08         0.00000E+00
    0.00000E+00         0.00000E+00        -0.12555E+08
 
   -0.12226E+08         0.18906E+07         0.00000E+00
    0.18906E+07        -0.21301E+08         0.00000E+00
    0.00000E+00         0.00000E+00        -0.12566E+08
 
   -0.12331E+08         0.27695E+07         0.00000E+00
    0.27695E+07        -0.21251E+08         0.00000E+00
    0.00000E+00         0.00000E+00        -0.12576E+08
 
   -0.12427E+08         0.37555E+07         0.00000E+00
    0.37555E+07        -0.21204E+08         0.00000E+00
    0.00000E+00         0.00000E+00        -0.12584E+08
 
   -0.12509E+08         0.48392E+07         0.00000E+00
    0.48392E+07        -0.21164E+08         0.00000E+00
    0.00000E+00         0.00000E+00        -0.12590E+08
 
   -0.12570E+08         0.60093E+07         0.00000E+00
    0.60093E+07        -0.21134E+08         0.00000E+00
    0.00000E+00         0.00000E+00        -0.12594E+08
 
   -0.13690E+08        -0.20296E+06         0.00000E+00
   -0.20296E+06        -0.23373E+08         0.00000E+00
    0.00000E+00         0.00000E+00        -0.13260E+08
 
   -0.13589E+08        -0.53327E+06         0.00000E+00
   -0.53327E+06        -0.23372E+08         0.00000E+00
    0.00000E+00         0.00000E+00        -0.13244E+08
 
   -0.13500E+08        -0.75301E+06         0.00000E+00
   -0.75301E+06        -0.23371E+08         0.00000E+00
    0.00000E+00         0.00000E+00        -0.13230E+08
 
   -0.13420E+08        -0.85446E+06         0.00000E+00
   -0.85446E+06        -0.23368E+08         0.00000E+00
    0.00000E+00         0.00000E+00        -0.13216E+08
 
   -0.13352E+08        -0.83282E+06         0.00000E+00
   -0.83282E+06        -0.23364E+08         0.00000E+00
    0.00000E+00         0.00000E+00        -0.13204E+08
 
   -0.13295E+08        -0.68547E+06         0.00000E+00
   -0.68547E+06        -0.23358E+08         0.00000E+00
    0.00000E+00         0.00000E+00        -0.13193E+08
 
   -0.13251E+08        -0.41142E+06         0.00000E+00
   -0.41142E+06        -0.23347E+08         0.00000E+00
    0.00000E+00         0.00000E+00        -0.13183E+08
 
   -0.13219E+08        -0.11032E+05         0.00000E+00
   -0.11032E+05        -0.23333E+08         0.00000E+00
    0.00000E+00         0.00000E+00        -0.13174E+08
 
   -0.13198E+08         0.51408E+06         0.00000E+00
    0.51408E+06        -0.23316E+08         0.00000E+00
    0.00000E+00         0.00000E+00        -0.13167E+08
 
   -0.13185E+08         0.11611E+07         0.00000E+00
    0.11611E+07        -0.23297E+08         0.00000E+00
    0.00000E+00         0.00000E+00        -0.13160E+08
 
   -0.13178E+08         0.19256E+07         0.00000E+00
    0.19256E+07        -0.23278E+08         0.00000E+00
    0.00000E+00         0.00000E+00        -0.13154E+08
 
   -0.13174E+08         0.28020E+07         0.00000E+00
    0.28020E+07        -0.23260E+08         0.00000E+00
    0.00000E+00         0.00000E+00        -0.13149E+08
 
   -0.13169E+08         0.37828E+07         0.00000E+00
    0.37828E+07        -0.23247E+08         0.00000E+00
    0.00000E+00         0.00000E+00        -0.13144E+08
 
   -0.13159E+08         0.48585E+07         0.00000E+00
    0.48585E+07        -0.23240E+08         0.00000E+00
    0.00000E+00         0.00000E+00        -0.13139E+08
 
   -0.13142E+08         0.60181E+07         0.00000E+00
    0.60181E+07        -0.23242E+08         0.00000E+00
    0.00000E+00         0.00000E+00        -0.13134E+08
 
   -0.15833E+08        -0.20416E+06         0.00000E+00
   -0.20416E+06        -0.25134E+08         0.00000E+00
    0.00000E+00         0.00000E+00        -0.14047E+08
 
   -0.15626E+08        -0.53686E+06         0.00000E+00
   -0.53686E+06        -0.25140E+08         0.00000E+00
    0.00000E+00         0.00000E+00        -0.14011E+08
 
   -0.15421E+08        -0.75817E+06         0.00000E+00
   -0.75817E+06        -0.25151E+08         0.00000E+00
    0.00000E+00         0.00000E+00        -0.13975E+08
 
   -0.15220E+08        -0.85983E+06         0.00000E+00
   -0.85983E+06        -0.25164E+08         0.00000E+00
    0.00000E+00         0.00000E+00        -0.13940E+08
 
   -0.15027E+08        -0.83701E+06         0.00000E+00
   -0.83701E+06        -0.25178E+08         0.00000E+00
    0.00000E+00         0.00000E+00        -0.13906E+08
 
   -0.14843E+08        -0.68743E+06         0.00000E+00
   -0.68743E+06        -0.25192E+08         0.00000E+00
    0.00000E+00         0.00000E+00        -0.13873E+08
 
   -0.14672E+08        -0.41073E+06         0.00000E+00
   -0.41073E+06        -0.25204E+08         0.00000E+00
    0.00000E+00         0.00000E+00        -0.13842E+08
 
   -0.14515E+08        -0.79436E+04         0.00000E+00
   -0.79436E+04        -0.25214E+08         0.00000E+00
    0.00000E+00         0.00000E+00        -0.13812E+08
 
   -0.14370E+08         0.51866E+06         0.00000E+00
    0.51866E+06        -0.25224E+08         0.00000E+00
    0.00000E+00         0.00000E+00        -0.13785E+08
 
   -0.14239E+08         0.11657E+07         0.00000E+00
    0.11657E+07        -0.25234E+08         0.00000E+00
    0.00000E+00         0.00000E+00        -0.13760E+08
 
   -0.14118E+08         0.19287E+07         0.00000E+00
    0.19287E+07        -0.25245E+08         0.00000E+00
    0.00000E+00         0.00000E+00        -0.13738E+08
 
   -0.14006E+08         0.28016E+07         0.00000E+00
    0.28016E+07        -0.25260E+08         0.00000E+00
    0.00000E+00         0.00000E+00        -0.13718E+08
 
   -0.13902E+08         0.37770E+07         0.00000E+00
    0.37770E+07        -0.25279E+08         0.00000E+00
    0.00000E+00         0.00000E+00        -0.13700E+08
 
   -0.13804E+08         0.48457E+07         0.00000E+00
    0.48457E+07        -0.25305E+08         0.00000E+00
    0.00000E+00         0.00000E+00        -0.13684E+08
 
   -0.13710E+08         0.59966E+07         0.00000E+00
    0.59966E+07        -0.25337E+08         0.00000E+00
    0.00000E+00         0.00000E+00        -0.13670E+08
 
   -0.17968E+08        -0.20939E+06         0.00000E+00
   -0.20939E+06        -0.26882E+08         0.00000E+00
    0.00000E+00         0.00000E+00        -0.14831E+08
 
   -0.17655E+08        -0.55057E+06         0.00000E+00
   -0.55057E+06        -0.26896E+08         0.00000E+00
    0.00000E+00         0.00000E+00        -0.14774E+08
 
   -0.17332E+08        -0.77759E+06         0.00000E+00
   -0.77759E+06        -0.26919E+08         0.00000E+00
    0.00000E+00         0.00000E+00        -0.14716E+08
 
   -0.17007E+08        -0.88236E+06         0.00000E+00
   -0.88236E+06        -0.26948E+08         0.00000E+00
    0.00000E+00         0.00000E+00        -0.14659E+08
 
   -0.16687E+08        -0.86059E+06         0.00000E+00
   -0.86059E+06        -0.26980E+08         0.00000E+00
    0.00000E+00         0.00000E+00        -0.14602E+08
 
   -0.16376E+08        -0.71076E+06         0.00000E+00
   -0.71076E+06        -0.27014E+08         0.00000E+00
    0.00000E+00         0.00000E+00        -0.14547E+08
 
   -0.16078E+08        -0.43333E+06         0.00000E+00
   -0.43333E+06        -0.27048E+08         0.00000E+00
    0.00000E+00         0.00000E+00        -0.14495E+08
 
   -0.15796E+08        -0.30165E+05         0.00000E+00
   -0.30165E+05        -0.27082E+08         0.00000E+00
    0.00000E+00         0.00000E+00        -0.14445E+08
 
   -0.15530E+08         0.49587E+06         0.00000E+00
    0.49587E+06        -0.27117E+08         0.00000E+00
    0.00000E+00         0.00000E+00        -0.14398E+08
 
   -0.15280E+08         0.11411E+07         0.00000E+00
    0.11411E+07        -0.27155E+08         0.00000E+00
    0.00000E+00         0.00000E+00        -0.14355E+08
 
   -0.15047E+08         0.19007E+07         0.00000E+00
    0.19007E+07        -0.27195E+08         0.00000E+00
    0.00000E+00         0.00000E+00        -0.14316E+08
 
   -0.14830E+08         0.27691E+07         0.00000E+00
    0.27691E+07        -0.27241E+08         0.00000E+00
    0.00000E+00         0.00000E+00        -0.14281E+08
 
   -0.14628E+08         0.37390E+07         0.00000E+00
    0.37390E+07        -0.27292E+08         0.00000E+00
    0.00000E+00         0.00000E+00        -0.14251E+08
 
   -0.14442E+08         0.48014E+07         0.00000E+00
    0.48014E+07        -0.27349E+08         0.00000E+00
    0.00000E+00         0.00000E+00        -0.14224E+08
 
   -0.14273E+08         0.59455E+07         0.00000E+00
    0.59455E+07        -0.27412E+08         0.00000E+00
    0.00000E+00         0.00000E+00        -0.14202E+08
 
   -0.20103E+08        -0.21876E+06         0.00000E+00
   -0.21876E+06        -0.28618E+08         0.00000E+00
    0.00000E+00         0.00000E+00        -0.15613E+08
 
   -0.19679E+08        -0.57460E+06         0.00000E+00
   -0.57460E+06        -0.28638E+08         0.00000E+00
    0.00000E+00         0.00000E+00        -0.15534E+08
 
   -0.19236E+08        -0.81135E+06         0.00000E+00
   -0.81135E+06        -0.28674E+08         0.00000E+00
    0.00000E+00         0.00000E+00        -0.15454E+08
 
   -0.18785E+08        -0.92182E+06         0.00000E+00
   -0.92182E+06        -0.28718E+08         0.00000E+00
    0.00000E+00         0.00000E+00        -0.15373E+08
 
   -0.18336E+08        -0.90288E+06         0.00000E+00
   -0.90288E+06        -0.28767E+08         0.00000E+00
    0.00000E+00         0.00000E+00        -0.15294E+08
 
   -0.17896E+08        -0.75427E+06         0.00000E+00
   -0.75427E+06        -0.28819E+08         0.00000E+00
    0.00000E+00         0.00000E+00        -0.15216E+08
 
   -0.17472E+08        -0.47768E+06         0.00000E+00
   -0.47768E+06        -0.28873E+08         0.00000E+00
    0.00000E+00         0.00000E+00        -0.15142E+08
 
   -0.17065E+08        -0.75918E+05         0.00000E+00
   -0.75918E+05        -0.28929E+08         0.00000E+00
    0.00000E+00         0.00000E+00        -0.15071E+08
 
   -0.16679E+08         0.44754E+06         0.00000E+00
    0.44754E+06        -0.28987E+08         0.00000E+00
    0.00000E+00         0.00000E+00        -0.15005E+08
 
   -0.16313E+08         0.10887E+07         0.00000E+00
    0.10887E+07        -0.29050E+08         0.00000E+00
    0.00000E+00         0.00000E+00        -0.14944E+08
 
   -0.15969E+08         0.18432E+07         0.00000E+00
    0.18432E+07        -0.29118E+08         0.00000E+00
    0.00000E+00         0.00000E+00        -0.14888E+08
 
   -0.15646E+08         0.27056E+07         0.00000E+00
    0.27056E+07        -0.29194E+08         0.00000E+00
    0.00000E+00         0.00000E+00        -0.14838E+08
 
   -0.15347E+08         0.36694E+07         0.00000E+00
    0.36694E+07        -0.29276E+08         0.00000E+00
    0.00000E+00         0.00000E+00        -0.14795E+08
 
   -0.15074E+08         0.47261E+07         0.00000E+00
    0.47261E+07        -0.29364E+08         0.00000E+00
    0.00000E+00         0.00000E+00        -0.14757E+08
 
   -0.14829E+08         0.58652E+07         0.00000E+00
    0.58652E+07        -0.29457E+08         0.00000E+00
    0.00000E+00         0.00000E+00        -0.14727E+08
 
   -0.22248E+08        -0.23221E+06         0.00000E+00
   -0.23221E+06        -0.30341E+08         0.00000E+00
    0.00000E+00         0.00000E+00        -0.16394E+08
 
   -0.21707E+08        -0.60861E+06         0.00000E+00
   -0.60861E+06        -0.30369E+08         0.00000E+00
    0.00000E+00         0.00000E+00        -0.16292E+08
 
   -0.21137E+08        -0.85863E+06         0.00000E+00
   -0.85863E+06        -0.30415E+08         0.00000E+00
    0.00000E+00         0.00000E+00        -0.16188E+08
 
   -0.20555E+08        -0.97676E+06         0.00000E+00
   -0.97676E+06        -0.30473E+08         0.00000E+00
    0.00000E+00         0.00000E+00        -0.16084E+08
 
   -0.19975E+08        -0.96178E+06         0.00000E+00
   -0.96178E+06        -0.30537E+08         0.00000E+00
    0.00000E+00         0.00000E+00        -0.15980E+08
 
   -0.19406E+08        -0.81536E+06         0.00000E+00
   -0.81536E+06        -0.30605E+08         0.00000E+00
    0.00000E+00         0.00000E+00        -0.15879E+08
 
   -0.18855E+08        -0.54082E+06         0.00000E+00
   -0.54082E+06        -0.30674E+08         0.00000E+00
    0.00000E+00         0.00000E+00        -0.15782E+08
 
   -0.18326E+08        -0.14215E+06         0.00000E+00
   -0.14215E+06        -0.30747E+08         0.00000E+00
    0.00000E+00         0.00000E+00        -0.15690E+08
 
   -0.17820E+08         0.37653E+06         0.00000E+00
    0.37653E+06        -0.30825E+08         0.00000E+00
    0.00000E+00         0.00000E+00        -0.15603E+08
 
   -0.17340E+08         0.10113E+07         0.00000E+00
    0.10113E+07        -0.30911E+08         0.00000E+00
    0.00000E+00         0.00000E+00        -0.15524E+08
 
   -0.16885E+08         0.17580E+07         0.00000E+00
    0.17580E+07        -0.31004E+08         0.00000E+00
    0.00000E+00         0.00000E+00        -0.15451E+08
 
   -0.16458E+08         0.26123E+07         0.00000E+00
    0.26123E+07        -0.31107E+08         0.00000E+00
    0.00000E+00         0.00000E+00        -0.15386E+08
 
   -0.16061E+08         0.35687E+07         0.00000E+00
    0.35687E+07        -0.31219E+08         0.00000E+00
    0.00000E+00         0.00000E+00        -0.15330E+08
 
   -0.15698E+08         0.46197E+07         0.00000E+00
    0.46197E+07        -0.31339E+08         0.00000E+00
    0.00000E+00         0.00000E+00        -0.15282E+08
 
   -0.15376E+08         0.57554E+07         0.00000E+00
    0.57554E+07        -0.31462E+08         0.00000E+00
    0.00000E+00         0.00000E+00        -0.15242E+08
 
   -0.24410E+08        -0.24941E+06         0.00000E+00
   -0.24941E+06        -0.32054E+08         0.00000E+00
    0.00000E+00         0.00000E+00        -0.17176E+08
 
   -0.23742E+08        -0.65173E+06         0.00000E+00
   -0.65173E+06        -0.32087E+08         0.00000E+00
    0.00000E+00         0.00000E+00        -0.17050E+08
 
   -0.23038E+08        -0.91769E+06         0.00000E+00
   -0.91769E+06        -0.32143E+08         0.00000E+00
    0.00000E+00         0.00000E+00        -0.16920E+08
 
   -0.22320E+08        -0.10445E+07         0.00000E+00
   -0.10445E+07        -0.32212E+08         0.00000E+00
    0.00000E+00         0.00000E+00        -0.16790E+08
 
   -0.21606E+08        -0.10337E+07         0.00000E+00
   -0.10337E+07        -0.32286E+08         0.00000E+00
    0.00000E+00         0.00000E+00        -0.16661E+08
 
   -0.20907E+08        -0.88983E+06         0.00000E+00
   -0.88983E+06        -0.32364E+08         0.00000E+00
    0.00000E+00         0.00000E+00        -0.16535E+08
 
   -0.20230E+08        -0.61824E+06         0.00000E+00
   -0.61824E+06        -0.32445E+08         0.00000E+00
    0.00000E+00         0.00000E+00        -0.16414E+08
 
   -0.19580E+08        -0.22442E+06         0.00000E+00
   -0.22442E+06        -0.32531E+08         0.00000E+00
    0.00000E+00         0.00000E+00        -0.16300E+08
 
   -0.18958E+08         0.28689E+06         0.00000E+00
    0.28689E+06        -0.32623E+08         0.00000E+00
    0.00000E+00         0.00000E+00        -0.16193E+08
 
   -0.18364E+08         0.91188E+06         0.00000E+00
    0.91188E+06        -0.32726E+08         0.00000E+00
    0.00000E+00         0.00000E+00        -0.16094E+08
 
   -0.17800E+08         0.16474E+07         0.00000E+00
    0.16474E+07        -0.32842E+08         0.00000E+00
    0.00000E+00         0.00000E+00        -0.16005E+08
 
   -0.17267E+08         0.24905E+07         0.00000E+00
    0.24905E+07        -0.32971E+08         0.00000E+00
    0.00000E+00         0.00000E+00        -0.15924E+08
 
   -0.16771E+08         0.34372E+07         0.00000E+00
    0.34372E+07        -0.33113E+08         0.00000E+00
    0.00000E+00         0.00000E+00        -0.15854E+08
 
   -0.16316E+08         0.44816E+07         0.00000E+00
    0.44816E+07        -0.33264E+08         0.00000E+00
    0.00000E+00         0.00000E+00        -0.15795E+08
 
   -0.15913E+08         0.56150E+07         0.00000E+00
    0.56150E+07        -0.33419E+08         0.00000E+00
    0.00000E+00         0.00000E+00        -0.15746E+08
 
   -0.26597E+08        -0.27007E+06         0.00000E+00
   -0.27007E+06        -0.33755E+08         0.00000E+00
    0.00000E+00         0.00000E+00        -0.17962E+08
 
   -0.25789E+08        -0.70236E+06         0.00000E+00
   -0.70236E+06        -0.33794E+08         0.00000E+00
    0.00000E+00         0.00000E+00        -0.17808E+08
 
   -0.24941E+08        -0.98570E+06         0.00000E+00
   -0.98570E+06        -0.33857E+08         0.00000E+00
    0.00000E+00         0.00000E+00        -0.17649E+08
 
   -0.24081E+08        -0.11209E+07         0.00000E+00
   -0.11209E+07        -0.33932E+08         0.00000E+00
    0.00000E+00         0.00000E+00        -0.17491E+08
 
   -0.23229E+08        -0.11135E+07         0.00000E+00
   -0.11135E+07        -0.34012E+08         0.00000E+00
    0.00000E+00         0.00000E+00        -0.17335E+08
 
   -0.22400E+08        -0.97170E+06         0.00000E+00
   -0.97170E+06        -0.34094E+08         0.00000E+00
    0.00000E+00         0.00000E+00        -0.17183E+08
 
   -0.21600E+08        -0.70369E+06         0.00000E+00
   -0.70369E+06        -0.34179E+08         0.00000E+00
    0.00000E+00         0.00000E+00        -0.17038E+08
 
   -0.20832E+08        -0.31670E+06         0.00000E+00
   -0.31670E+06        -0.34269E+08         0.00000E+00
    0.00000E+00         0.00000E+00        -0.16901E+08
 
   -0.20096E+08         0.18393E+06         0.00000E+00
    0.18393E+06        -0.34370E+08         0.00000E+00
    0.00000E+00         0.00000E+00        -0.16773E+08
 
   -0.19391E+08         0.79485E+06         0.00000E+00
    0.79485E+06        -0.34486E+08         0.00000E+00
    0.00000E+00         0.00000E+00        -0.16655E+08
 
   -0.18718E+08         0.15143E+07         0.00000E+00
    0.15143E+07        -0.34620E+08         0.00000E+00
    0.00000E+00         0.00000E+00        -0.16547E+08
 
   -0.18079E+08         0.23414E+07         0.00000E+00
    0.23414E+07        -0.34773E+08         0.00000E+00
    0.00000E+00         0.00000E+00        -0.16451E+08
 
   -0.17480E+08         0.32747E+07         0.00000E+00
    0.32747E+07        -0.34943E+08         0.00000E+00
    0.00000E+00         0.00000E+00        -0.16366E+08
 
   -0.16929E+08         0.43106E+07         0.00000E+00
    0.43106E+07        -0.35127E+08         0.00000E+00
    0.00000E+00         0.00000E+00        -0.16295E+08
 
   -0.16439E+08         0.54421E+07         0.00000E+00
    0.54421E+07        -0.35316E+08         0.00000E+00
    0.00000E+00         0.00000E+00        -0.16237E+08
 
   -0.28814E+08        -0.29362E+06         0.00000E+00
   -0.29362E+06        -0.35448E+08         0.00000E+00
    0.00000E+00         0.00000E+00        -0.18752E+08
 
   -0.27850E+08        -0.75856E+06         0.00000E+00
   -0.75856E+06        -0.35490E+08         0.00000E+00
    0.00000E+00         0.00000E+00        -0.18566E+08
 
   -0.26846E+08        -0.10587E+07         0.00000E+00
   -0.10587E+07        -0.35556E+08         0.00000E+00
    0.00000E+00         0.00000E+00        -0.18376E+08
 
   -0.25837E+08        -0.12002E+07         0.00000E+00
   -0.12002E+07        -0.35632E+08         0.00000E+00
    0.00000E+00         0.00000E+00        -0.18187E+08
 
   -0.24845E+08        -0.11939E+07         0.00000E+00
   -0.11939E+07        -0.35710E+08         0.00000E+00
    0.00000E+00         0.00000E+00        -0.18002E+08
 
   -0.23886E+08        -0.10529E+07         0.00000E+00
   -0.10529E+07        -0.35787E+08         0.00000E+00
    0.00000E+00         0.00000E+00        -0.17823E+08
 
   -0.22966E+08        -0.78900E+06         0.00000E+00
   -0.78900E+06        -0.35867E+08         0.00000E+00
    0.00000E+00         0.00000E+00        -0.17652E+08
 
   -0.22084E+08        -0.41129E+06         0.00000E+00
   -0.41129E+06        -0.35954E+08         0.00000E+00
    0.00000E+00         0.00000E+00        -0.17491E+08
 
   -0.21239E+08         0.74350E+05         0.00000E+00
    0.74350E+05        -0.36055E+08         0.00000E+00
    0.00000E+00         0.00000E+00        -0.17341E+08
 
   -0.20428E+08         0.66540E+06         0.00000E+00
    0.66540E+06        -0.36177E+08         0.00000E+00
    0.00000E+00         0.00000E+00        -0.17203E+08
 
   -0.19648E+08         0.13621E+07         0.00000E+00
    0.13621E+07        -0.36324E+08         0.00000E+00
    0.00000E+00         0.00000E+00        -0.17077E+08
 
   -0.18901E+08         0.21664E+07         0.00000E+00
    0.21664E+07        -0.36498E+08         0.00000E+00
    0.00000E+00         0.00000E+00        -0.16964E+08
 
   -0.18194E+08         0.30804E+07         0.00000E+00
    0.30804E+07        -0.36697E+08         0.00000E+00
    0.00000E+00         0.00000E+00        -0.16864E+08
 
   -0.17539E+08         0.41042E+07         0.00000E+00
    0.41042E+07        -0.36916E+08         0.00000E+00
    0.00000E+00         0.00000E+00        -0.16780E+08
 
   -0.16954E+08         0.52335E+07         0.00000E+00
    0.52335E+07        -0.37143E+08         0.00000E+00
    0.00000E+00         0.00000E+00        -0.16711E+08
 
   -0.31067E+08        -0.31941E+06         0.00000E+00
   -0.31941E+06        -0.37131E+08         0.00000E+00
    0.00000E+00         0.00000E+00        -0.19548E+08
 
   -0.29926E+08        -0.81768E+06         0.00000E+00
   -0.81768E+06        -0.37175E+08         0.00000E+00
    0.00000E+00         0.00000E+00        -0.19325E+08
 
   -0.28752E+08        -0.11315E+07         0.00000E+00
   -0.11315E+07        -0.37240E+08         0.00000E+00
    0.00000E+00         0.00000E+00        -0.19100E+08
 
   -0.27585E+08        -0.12745E+07         0.00000E+00
   -0.12745E+07        -0.37310E+08         0.00000E+00
    0.00000E+00         0.00000E+00        -0.18877E+08
 
   -0.26451E+08        -0.12654E+07         0.00000E+00
   -0.12654E+07        -0.37375E+08         0.00000E+00
    0.00000E+00         0.00000E+00        -0.18660E+08
 
   -0.25366E+08        -0.11232E+07         0.00000E+00
   -0.11232E+07        -0.37437E+08         0.00000E+00
    0.00000E+00         0.00000E+00        -0.18452E+08
 
   -0.24331E+08        -0.86393E+06         0.00000E+00
   -0.86393E+06        -0.37499E+08         0.00000E+00
    0.00000E+00         0.00000E+00        -0.18254E+08
 
   -0.23343E+08        -0.49876E+06         0.00000E+00
   -0.49876E+06        -0.37572E+08         0.00000E+00
    0.00000E+00         0.00000E+00        -0.18069E+08
 
   -0.22396E+08        -0.33776E+05         0.00000E+00
   -0.33776E+05        -0.37664E+08         0.00000E+00
    0.00000E+00         0.00000E+00        -0.17897E+08
 
   -0.21482E+08         0.52974E+06         0.00000E+00
    0.52974E+06        -0.37784E+08         0.00000E+00
    0.00000E+00         0.00000E+00        -0.17738E+08
 
   -0.20596E+08         0.11946E+07         0.00000E+00
    0.11946E+07        -0.37938E+08         0.00000E+00
    0.00000E+00         0.00000E+00        -0.17593E+08
 
   -0.19739E+08         0.19667E+07         0.00000E+00
    0.19667E+07        -0.38131E+08         0.00000E+00
    0.00000E+00         0.00000E+00        -0.17462E+08
 
   -0.18919E+08         0.28529E+07         0.00000E+00
    0.28529E+07        -0.38360E+08         0.00000E+00
    0.00000E+00         0.00000E+00        -0.17347E+08
 
   -0.18150E+08         0.38586E+07         0.00000E+00
    0.38586E+07        -0.38616E+08         0.00000E+00
    0.00000E+00         0.00000E+00        -0.17248E+08
 
   -0.17455E+08         0.49842E+07         0.00000E+00
    0.49842E+07        -0.38887E+08         0.00000E+00
    0.00000E+00         0.00000E+00        -0.17166E+08
 
   -0.33358E+08        -0.34666E+06         0.00000E+00
   -0.34666E+06        -0.38807E+08         0.00000E+00
    0.00000E+00         0.00000E+00        -0.20349E+08
 
   -0.32016E+08        -0.87597E+06         0.00000E+00
   -0.87597E+06        -0.38850E+08         0.00000E+00
    0.00000E+00         0.00000E+00        -0.20085E+08
 
   -0.30653E+08        -0.11967E+07         0.00000E+00
   -0.11967E+07        -0.38908E+08         0.00000E+00
    0.00000E+00         0.00000E+00        -0.19820E+08
 
   -0.29321E+08        -0.13334E+07         0.00000E+00
   -0.13334E+07        -0.38960E+08         0.00000E+00
    0.00000E+00         0.00000E+00        -0.19559E+08
 
   -0.28046E+08        -0.13155E+07         0.00000E+00
   -0.13155E+07        -0.39000E+08         0.00000E+00
    0.00000E+00         0.00000E+00        -0.19307E+08
 
   -0.26839E+08        -0.11697E+07         0.00000E+00
   -0.11697E+07        -0.39031E+08         0.00000E+00
    0.00000E+00         0.00000E+00        -0.19068E+08
 
   -0.25698E+08        -0.91624E+06         0.00000E+00
   -0.91624E+06        -0.39064E+08         0.00000E+00
    0.00000E+00         0.00000E+00        -0.18844E+08
 
   -0.24614E+08        -0.56811E+06         0.00000E+00
   -0.56811E+06        -0.39109E+08         0.00000E+00
    0.00000E+00         0.00000E+00        -0.18634E+08
 
   -0.23573E+08        -0.13113E+06         0.00000E+00
   -0.13113E+06        -0.39181E+08         0.00000E+00
    0.00000E+00         0.00000E+00        -0.18439E+08
 
   -0.22563E+08         0.39507E+06         0.00000E+00
    0.39507E+06        -0.39291E+08         0.00000E+00
    0.00000E+00         0.00000E+00        -0.18260E+08
 
   -0.21576E+08         0.10164E+07         0.00000E+00
    0.10164E+07        -0.39447E+08         0.00000E+00
    0.00000E+00         0.00000E+00        -0.18095E+08
 
   -0.20608E+08         0.17435E+07         0.00000E+00
    0.17435E+07        -0.39655E+08         0.00000E+00
    0.00000E+00         0.00000E+00        -0.17945E+08
 
   -0.19665E+08         0.25897E+07         0.00000E+00
    0.25897E+07        -0.39914E+08         0.00000E+00
    0.00000E+00         0.00000E+00        -0.17812E+08
 
   -0.18768E+08         0.35683E+07         0.00000E+00
    0.35683E+07        -0.40214E+08         0.00000E+00
    0.00000E+00         0.00000E+00        -0.17697E+08
 
   -0.17946E+08         0.46864E+07         0.00000E+00
    0.46864E+07        -0.40535E+08         0.00000E+00
    0.00000E+00         0.00000E+00        -0.17601E+08
 
   -0.35688E+08        -0.37436E+06         0.00000E+00
   -0.37436E+06        -0.40476E+08         0.00000E+00
    0.00000E+00         0.00000E+00        -0.21158E+08
 
   -0.34112E+08        -0.92826E+06         0.00000E+00
   -0.92826E+06        -0.40515E+08         0.00000E+00
    0.00000E+00         0.00000E+00        -0.20844E+08
 
   -0.32541E+08        -0.12438E+07         0.00000E+00
   -0.12438E+07        -0.40555E+08         0.00000E+00
    0.00000E+00         0.00000E+00        -0.20532E+08
 
   -0.31036E+08        -0.13626E+07         0.00000E+00
   -0.13626E+07        -0.40576E+08         0.00000E+00
    0.00000E+00         0.00000E+00        -0.20229E+08
 
   -0.29624E+08        -0.13286E+07         0.00000E+00
   -0.13286E+07        -0.40573E+08         0.00000E+00
    0.00000E+00         0.00000E+00        -0.19941E+08
 
   -0.28307E+08        -0.11771E+07         0.00000E+00
   -0.11771E+07        -0.40557E+08         0.00000E+00
    0.00000E+00         0.00000E+00        -0.19670E+08
 
   -0.27073E+08        -0.93218E+06         0.00000E+00
   -0.93218E+06        -0.40544E+08         0.00000E+00
    0.00000E+00         0.00000E+00        -0.19418E+08
 
   -0.25905E+08        -0.60740E+06         0.00000E+00
   -0.60740E+06        -0.40550E+08         0.00000E+00
    0.00000E+00         0.00000E+00        -0.19184E+08
 
   -0.24782E+08        -0.20767E+06         0.00000E+00
   -0.20767E+06        -0.40590E+08         0.00000E+00
    0.00000E+00         0.00000E+00        -0.18967E+08
 
   -0.23686E+08         0.26933E+06         0.00000E+00
    0.26933E+06        -0.40680E+08         0.00000E+00
    0.00000E+00         0.00000E+00        -0.18767E+08
 
   -0.22602E+08         0.83268E+06         0.00000E+00
    0.83268E+06        -0.40832E+08         0.00000E+00
    0.00000E+00         0.00000E+00        -0.18582E+08
 
   -0.21521E+08         0.14982E+07         0.00000E+00
    0.14982E+07        -0.41052E+08         0.00000E+00
    0.00000E+00         0.00000E+00        -0.18413E+08
 
   -0.20448E+08         0.22877E+07         0.00000E+00
    0.22877E+07        -0.41341E+08         0.00000E+00
    0.00000E+00         0.00000E+00        -0.18260E+08
 
   -0.19403E+08         0.32251E+07         0.00000E+00
    0.32251E+07        -0.41690E+08         0.00000E+00
    0.00000E+00         0.00000E+00        -0.18125E+08
 
   -0.18426E+08         0.43292E+07         0.00000E+00
    0.43292E+07        -0.42074E+08         0.00000E+00
    0.00000E+00         0.00000E+00        -0.18012E+08
 
   -0.38056E+08        -0.40117E+06         0.00000E+00
   -0.40117E+06        -0.42139E+08         0.00000E+00
    0.00000E+00         0.00000E+00        -0.21972E+08
 
   -0.36201E+08        -0.96642E+06         0.00000E+00
   -0.96642E+06        -0.42167E+08         0.00000E+00
    0.00000E+00         0.00000E+00        -0.21599E+08
 
   -0.34401E+08        -0.12573E+07         0.00000E+00
   -0.12573E+07        -0.42175E+08         0.00000E+00
    0.00000E+00         0.00000E+00        -0.21233E+08
 
   -0.32722E+08        -0.13428E+07         0.00000E+00
   -0.13428E+07        -0.42143E+08         0.00000E+00
    0.00000E+00         0.00000E+00        -0.20883E+08
 
   -0.31184E+08        -0.12854E+07         0.00000E+00
   -0.12854E+07        -0.42075E+08         0.00000E+00
    0.00000E+00         0.00000E+00        -0.20556E+08
 
   -0.29772E+08        -0.11286E+07         0.00000E+00
   -0.11286E+07        -0.41994E+08         0.00000E+00
    0.00000E+00         0.00000E+00        -0.20254E+08
 
   -0.28462E+08        -0.89781E+06         0.00000E+00
   -0.89781E+06        -0.41920E+08         0.00000E+00
    0.00000E+00         0.00000E+00        -0.19974E+08
 
   -0.27226E+08        -0.60507E+06         0.00000E+00
   -0.60507E+06        -0.41874E+08         0.00000E+00
    0.00000E+00         0.00000E+00        -0.19717E+08
 
   -0.26036E+08        -0.25360E+06         0.00000E+00
   -0.25360E+06        -0.41874E+08         0.00000E+00
    0.00000E+00         0.00000E+00        -0.19479E+08
 
   -0.24865E+08         0.16076E+06         0.00000E+00
    0.16076E+06        -0.41936E+08         0.00000E+00
    0.00000E+00         0.00000E+00        -0.19258E+08
 
   -0.23692E+08         0.64957E+06         0.00000E+00
    0.64957E+06        -0.42074E+08         0.00000E+00
    0.00000E+00         0.00000E+00        -0.19054E+08
 
   -0.22501E+08         0.12333E+07         0.00000E+00
    0.12333E+07        -0.42301E+08         0.00000E+00
    0.00000E+00         0.00000E+00        -0.18864E+08
 
   -0.21287E+08         0.19430E+07         0.00000E+00
    0.19430E+07        -0.42621E+08         0.00000E+00
    0.00000E+00         0.00000E+00        -0.18690E+08
 
   -0.20069E+08         0.28182E+07         0.00000E+00
    0.28182E+07        -0.43028E+08         0.00000E+00
    0.00000E+00         0.00000E+00        -0.18533E+08
 
   -0.18900E+08         0.38964E+07         0.00000E+00
    0.38964E+07        -0.43491E+08         0.00000E+00
    0.00000E+00         0.00000E+00        -0.18397E+08
 
   -0.40451E+08        -0.42491E+06         0.00000E+00
   -0.42491E+06        -0.43797E+08         0.00000E+00
    0.00000E+00         0.00000E+00        -0.22792E+08
 
   -0.38262E+08        -0.97601E+06         0.00000E+00
   -0.97601E+06        -0.43803E+08         0.00000E+00
    0.00000E+00         0.00000E+00        -0.22345E+08
 
   -0.36212E+08        -0.12123E+07         0.00000E+00
   -0.12123E+07        -0.43752E+08         0.00000E+00
    0.00000E+00         0.00000E+00        -0.21915E+08
 
   -0.34369E+08        -0.12472E+07         0.00000E+00
   -0.12472E+07        -0.43634E+08         0.00000E+00
    0.00000E+00         0.00000E+00        -0.21515E+08
 
   -0.32725E+08        -0.11640E+07         0.00000E+00
   -0.11640E+07        -0.43477E+08         0.00000E+00
    0.00000E+00         0.00000E+00        -0.21149E+08
 
   -0.31241E+08        -0.10083E+07         0.00000E+00
   -0.10083E+07        -0.43311E+08         0.00000E+00
    0.00000E+00         0.00000E+00        -0.20815E+08
 
   -0.29875E+08        -0.80157E+06         0.00000E+00
   -0.80157E+06        -0.43165E+08         0.00000E+00
    0.00000E+00         0.00000E+00        -0.20511E+08
 
   -0.28589E+08        -0.55224E+06         0.00000E+00
   -0.55224E+06        -0.43060E+08         0.00000E+00
    0.00000E+00         0.00000E+00        -0.20232E+08
 
   -0.27347E+08        -0.26118E+06         0.00000E+00
   -0.26118E+06        -0.43013E+08         0.00000E+00
    0.00000E+00         0.00000E+00        -0.19974E+08
 
   -0.26116E+08         0.76951E+05         0.00000E+00
    0.76951E+05        -0.43041E+08         0.00000E+00
    0.00000E+00         0.00000E+00        -0.19736E+08
 
   -0.24867E+08         0.47440E+06         0.00000E+00
    0.47440E+06        -0.43159E+08         0.00000E+00
    0.00000E+00         0.00000E+00        -0.19512E+08
 
   -0.23571E+08         0.95350E+06         0.00000E+00
    0.95350E+06        -0.43385E+08         0.00000E+00
    0.00000E+00         0.00000E+00        -0.19302E+08
 
   -0.22210E+08         0.15532E+07         0.00000E+00
    0.15532E+07        -0.43733E+08         0.00000E+00
    0.00000E+00         0.00000E+00        -0.19104E+08
 
   -0.20792E+08         0.23334E+07         0.00000E+00
    0.23334E+07        -0.44205E+08         0.00000E+00
    0.00000E+00         0.00000E+00        -0.18920E+08
 
   -0.19376E+08         0.33643E+07         0.00000E+00
    0.33643E+07        -0.44769E+08         0.00000E+00
    0.00000E+00         0.00000E+00        -0.18756E+08
 
   -0.42853E+08        -0.44043E+06         0.00000E+00
   -0.44043E+06        -0.45447E+08         0.00000E+00
    0.00000E+00         0.00000E+00        -0.23611E+08
 
   -0.40253E+08        -0.92714E+06         0.00000E+00
   -0.92714E+06        -0.45404E+08         0.00000E+00
    0.00000E+00         0.00000E+00        -0.23069E+08
 
   -0.37950E+08        -0.10675E+07         0.00000E+00
   -0.10675E+07        -0.45245E+08         0.00000E+00
    0.00000E+00         0.00000E+00        -0.22565E+08
 
   -0.35974E+08        -0.10436E+07         0.00000E+00
   -0.10436E+07        -0.45000E+08         0.00000E+00
    0.00000E+00         0.00000E+00        -0.22113E+08
 
   -0.34258E+08        -0.94523E+06         0.00000E+00
   -0.94523E+06        -0.44729E+08         0.00000E+00
    0.00000E+00         0.00000E+00        -0.21710E+08
 
   -0.32728E+08        -0.80587E+06         0.00000E+00
   -0.80587E+06        -0.44471E+08         0.00000E+00
    0.00000E+00         0.00000E+00        -0.21349E+08
 
   -0.31326E+08        -0.63815E+06         0.00000E+00
   -0.63815E+06        -0.44250E+08         0.00000E+00
    0.00000E+00         0.00000E+00        -0.21023E+08
 
   -0.30007E+08        -0.44564E+06         0.00000E+00
   -0.44564E+06        -0.44086E+08         0.00000E+00
    0.00000E+00         0.00000E+00        -0.20726E+08
 
   -0.28729E+08        -0.22703E+06         0.00000E+00
   -0.22703E+06        -0.43992E+08         0.00000E+00
    0.00000E+00         0.00000E+00        -0.20453E+08
 
   -0.27454E+08         0.22974E+05         0.00000E+00
    0.22974E+05        -0.43984E+08         0.00000E+00
    0.00000E+00         0.00000E+00        -0.20199E+08
 
   -0.26146E+08         0.31491E+06         0.00000E+00
    0.31491E+06        -0.44077E+08         0.00000E+00
    0.00000E+00         0.00000E+00        -0.19959E+08
 
   -0.24762E+08         0.66841E+06         0.00000E+00
    0.66841E+06        -0.44293E+08         0.00000E+00
    0.00000E+00         0.00000E+00        -0.19729E+08
 
   -0.23259E+08         0.11215E+07         0.00000E+00
    0.11215E+07        -0.44656E+08         0.00000E+00
    0.00000E+00         0.00000E+00        -0.19506E+08
 
   -0.21612E+08         0.17553E+07         0.00000E+00
    0.17553E+07        -0.45196E+08         0.00000E+00
    0.00000E+00         0.00000E+00        -0.19290E+08
 
   -0.19871E+08         0.26970E+07         0.00000E+00
    0.26970E+07        -0.45891E+08         0.00000E+00
    0.00000E+00         0.00000E+00        -0.19087E+08
 
   -0.45211E+08        -0.42950E+06         0.00000E+00
   -0.42950E+06        -0.47081E+08         0.00000E+00
    0.00000E+00         0.00000E+00        -0.24417E+08
 
   -0.42111E+08        -0.74784E+06         0.00000E+00
   -0.74784E+06        -0.46909E+08         0.00000E+00
    0.00000E+00         0.00000E+00        -0.23746E+08
 
   -0.39605E+08        -0.76464E+06         0.00000E+00
   -0.76464E+06        -0.46554E+08         0.00000E+00
    0.00000E+00         0.00000E+00        -0.23163E+08
 
   -0.37556E+08        -0.70750E+06         0.00000E+00
   -0.70750E+06        -0.46154E+08         0.00000E+00
    0.00000E+00         0.00000E+00        -0.22665E+08
 
   -0.35804E+08        -0.62303E+06         0.00000E+00
   -0.62303E+06        -0.45769E+08         0.00000E+00
    0.00000E+00         0.00000E+00        -0.22233E+08
 
   -0.34251E+08        -0.52358E+06         0.00000E+00
   -0.52358E+06        -0.45426E+08         0.00000E+00
    0.00000E+00         0.00000E+00        -0.21851E+08
 
   -0.32831E+08        -0.41266E+06         0.00000E+00
   -0.41266E+06        -0.45143E+08         0.00000E+00
    0.00000E+00         0.00000E+00        -0.21509E+08
 
   -0.31493E+08        -0.29032E+06         0.00000E+00
   -0.29032E+06        -0.44930E+08         0.00000E+00
    0.00000E+00         0.00000E+00        -0.21200E+08
 
   -0.30193E+08        -0.15453E+06         0.00000E+00
   -0.15453E+06        -0.44798E+08         0.00000E+00
    0.00000E+00         0.00000E+00        -0.20915E+08
 
   -0.28891E+08        -0.12912E+04         0.00000E+00
   -0.12912E+04        -0.44759E+08         0.00000E+00
    0.00000E+00         0.00000E+00        -0.20649E+08
 
   -0.27542E+08         0.17625E+06         0.00000E+00
    0.17625E+06        -0.44829E+08         0.00000E+00
    0.00000E+00         0.00000E+00        -0.20397E+08
 
   -0.26096E+08         0.39084E+06         0.00000E+00
    0.39084E+06        -0.45027E+08         0.00000E+00
    0.00000E+00         0.00000E+00        -0.20151E+08
 
   -0.24484E+08         0.66864E+06         0.00000E+00
    0.66864E+06        -0.45387E+08         0.00000E+00
    0.00000E+00         0.00000E+00        -0.19906E+08
 
   -0.22601E+08         0.10760E+07         0.00000E+00
    0.10760E+07        -0.45963E+08         0.00000E+00
    0.00000E+00         0.00000E+00        -0.19650E+08
 
   -0.20424E+08         0.18333E+07         0.00000E+00
    0.18333E+07        -0.46833E+08         0.00000E+00
    0.00000E+00         0.00000E+00        -0.19395E+08
 
   -0.47375E+08        -0.27202E+06         0.00000E+00
   -0.27202E+06        -0.48555E+08         0.00000E+00
    0.00000E+00         0.00000E+00        -0.25153E+08
 
   -0.43792E+08        -0.30988E+06         0.00000E+00
   -0.30988E+06        -0.48059E+08         0.00000E+00
    0.00000E+00         0.00000E+00        -0.24319E+08
 
   -0.41225E+08        -0.28292E+06         0.00000E+00
   -0.28292E+06        -0.47506E+08         0.00000E+00
    0.00000E+00         0.00000E+00        -0.23683E+08
 
   -0.39154E+08        -0.25231E+06         0.00000E+00
   -0.25231E+06        -0.46988E+08         0.00000E+00
    0.00000E+00         0.00000E+00        -0.23158E+08
 
   -0.37391E+08        -0.21831E+06         0.00000E+00
   -0.21831E+06        -0.46528E+08         0.00000E+00
    0.00000E+00         0.00000E+00        -0.22710E+08
 
   -0.35831E+08        -0.18190E+06         0.00000E+00
   -0.18190E+06        -0.46135E+08         0.00000E+00
    0.00000E+00         0.00000E+00        -0.22317E+08
 
   -0.34405E+08        -0.14291E+06         0.00000E+00
   -0.14291E+06        -0.45815E+08         0.00000E+00
    0.00000E+00         0.00000E+00        -0.21967E+08
 
   -0.33059E+08        -0.10086E+06         0.00000E+00
   -0.10086E+06        -0.45575E+08         0.00000E+00
    0.00000E+00         0.00000E+00        -0.21650E+08
 
   -0.31749E+08        -0.54787E+05         0.00000E+00
   -0.54787E+05        -0.45421E+08         0.00000E+00
    0.00000E+00         0.00000E+00        -0.21360E+08
 
   -0.30433E+08        -0.32108E+04         0.00000E+00
   -0.32108E+04        -0.45365E+08         0.00000E+00
    0.00000E+00         0.00000E+00        -0.21088E+08
 
   -0.29065E+08         0.56232E+05         0.00000E+00
    0.56232E+05        -0.45420E+08         0.00000E+00
    0.00000E+00         0.00000E+00        -0.20829E+08
 
   -0.27587E+08         0.12776E+06         0.00000E+00
    0.12776E+06        -0.45605E+08         0.00000E+00
    0.00000E+00         0.00000E+00        -0.20575E+08
 
   -0.25916E+08         0.22055E+06         0.00000E+00
    0.22055E+06        -0.45954E+08         0.00000E+00
    0.00000E+00         0.00000E+00        -0.20316E+08
 
   -0.23905E+08         0.35559E+06         0.00000E+00
    0.35559E+06        -0.46530E+08         0.00000E+00
    0.00000E+00         0.00000E+00        -0.20035E+08
 
   -0.21133E+08         0.67130E+06         0.00000E+00
    0.67130E+06        -0.47509E+08         0.00000E+00
    0.00000E+00         0.00000E+00        -0.19681E+08
 
TENSORS stresstot double 
   -0.46840E+08         0.21438E+06         0.00000E+00
    0.21438E+06        -0.59176E+08         0.00000E+00
    0.00000E+00         0.00000E+00        -0.60835E+08
 
   -0.46640E+08         0.20865E+06         0.00000E+00
    0.20865E+06        -0.58685E+08         0.00000E+00
    0.00000E+00         0.00000E+00        -0.60578E+08
 
   -0.46786E+08        -0.28896E+05         0.00000E+00
   -0.28896E+05        -0.58604E+08         0.00000E+00
    0.00000E+00         0.00000E+00        -0.60973E+08
 
   -0.47392E+08        -0.25513E+06         0.00000E+00
   -0.25513E+06        -0.59146E+08         0.00000E+00
    0.00000E+00         0.00000E+00        -0.62115E+08
 
   -0.48543E+08        -0.38560E+06         0.00000E+00
   -0.38560E+06        -0.60021E+08         0.00000E+00
    0.00000E+00         0.00000E+00        -0.64265E+08
 
   -0.50709E+08        -0.57470E+06         0.00000E+00
   -0.57470E+06        -0.60980E+08         0.00000E+00
    0.00000E+00         0.00000E+00        -0.65998E+08
 
   -0.53076E+08        -0.44733E+06         0.00000E+00
   -0.44733E+06        -0.61894E+08         0.00000E+00
    0.00000E+00         0.00000E+00        -0.66658E+08
 
   -0.54794E+08        -0.31006E+06         0.00000E+00
   -0.31006E+06        -0.62596E+08         0.00000E+00
    0.00000E+00         0.00000E+00        -0.67145E+08
 
   -0.56308E+08        -0.20461E+06         0.00000E+00
   -0.20461E+06        -0.63085E+08         0.00000E+00
    0.00000E+00         0.00000E+00        -0.67547E+08
 
   -0.57758E+08        -0.11176E+06         0.00000E+00
   -0.11176E+06        -0.63388E+08         0.00000E+00
    0.00000E+00         0.00000E+00        -0.67898E+08
 
   -0.59233E+08        -0.20832E+05         0.00000E+00
   -0.20832E+05        -0.63512E+08         0.00000E+00
    0.00000E+00         0.00000E+00        -0.68218E+08
 
   -0.60815E+08         0.77549E+05         0.00000E+00
    0.77549E+05        -0.63451E+08         0.00000E+00
    0.00000E+00         0.00000E+00        -0.68520E+08
 
   -0.62612E+08         0.19689E+06         0.00000E+00
    0.19689E+06        -0.63173E+08         0.00000E+00
    0.00000E+00         0.00000E+00        -0.68821E+08
 
   -0.64804E+08         0.36410E+06         0.00000E+00
    0.36410E+06        -0.62611E+08         0.00000E+00
    0.00000E+00         0.00000E+00        -0.69144E+08
 
   -0.67905E+08         0.75134E+06         0.00000E+00
    0.75134E+06        -0.61552E+08         0.00000E+00
    0.00000E+00         0.00000E+00        -0.69547E+08
 
   -0.46506E+08         0.42497E+06         0.00000E+00
    0.42497E+06        -0.60067E+08         0.00000E+00
    0.00000E+00         0.00000E+00        -0.61347E+08
 
   -0.46802E+08         0.36560E+06         0.00000E+00
    0.36560E+06        -0.60457E+08         0.00000E+00
    0.00000E+00         0.00000E+00        -0.61903E+08
 
   -0.47124E+08        -0.46118E+05         0.00000E+00
   -0.46118E+05        -0.60751E+08         0.00000E+00
    0.00000E+00         0.00000E+00        -0.62652E+08
 
   -0.47586E+08        -0.54637E+06         0.00000E+00
   -0.54637E+06        -0.60682E+08         0.00000E+00
    0.00000E+00         0.00000E+00        -0.63749E+08
 
   -0.48967E+08        -0.94876E+06         0.00000E+00
   -0.94876E+06        -0.60628E+08         0.00000E+00
    0.00000E+00         0.00000E+00        -0.64369E+08
 
   -0.50821E+08        -0.12331E+07         0.00000E+00
   -0.12331E+07        -0.60855E+08         0.00000E+00
    0.00000E+00         0.00000E+00        -0.64790E+08
 
   -0.52852E+08        -0.10899E+07         0.00000E+00
   -0.10899E+07        -0.61240E+08         0.00000E+00
    0.00000E+00         0.00000E+00        -0.65277E+08
 
   -0.54595E+08        -0.81577E+06         0.00000E+00
   -0.81577E+06        -0.61654E+08         0.00000E+00
    0.00000E+00         0.00000E+00        -0.65711E+08
 
   -0.56129E+08        -0.55152E+06         0.00000E+00
   -0.55152E+06        -0.61990E+08         0.00000E+00
    0.00000E+00         0.00000E+00        -0.66087E+08
 
   -0.57584E+08        -0.29738E+06         0.00000E+00
   -0.29738E+06        -0.62202E+08         0.00000E+00
    0.00000E+00         0.00000E+00        -0.66421E+08
 
   -0.59050E+08        -0.36886E+05         0.00000E+00
   -0.36886E+05        -0.62267E+08         0.00000E+00
    0.00000E+00         0.00000E+00        -0.66726E+08
 
   -0.60604E+08         0.25204E+06         0.00000E+00
    0.25204E+06        -0.62164E+08         0.00000E+00
    0.00000E+00         0.00000E+00        -0.67015E+08
 
   -0.62337E+08         0.60567E+06         0.00000E+00
    0.60567E+06        -0.61858E+08         0.00000E+00
    0.00000E+00         0.00000E+00        -0.67297E+08
 
   -0.64378E+08         0.11081E+07         0.00000E+00
    0.11081E+07        -0.61284E+08         0.00000E+00
    0.00000E+00         0.00000E+00        -0.67587E+08
 
   -0.66752E+08         0.20325E+07         0.00000E+00
    0.20325E+07        -0.60357E+08         0.00000E+00
    0.00000E+00         0.00000E+00        -0.67871E+08
 
   -0.46139E+08         0.67366E+05         0.00000E+00
    0.67366E+05        -0.60669E+08         0.00000E+00
    0.00000E+00         0.00000E+00        -0.62067E+08
 
   -0.46849E+08         0.13419E+06         0.00000E+00
    0.13419E+06        -0.60991E+08         0.00000E+00
    0.00000E+00         0.00000E+00        -0.62740E+08
 
   -0.47636E+08        -0.14422E+06         0.00000E+00
   -0.14422E+06        -0.60896E+08         0.00000E+00
    0.00000E+00         0.00000E+00        -0.62950E+08
 
   -0.48222E+08        -0.58531E+06         0.00000E+00
   -0.58531E+06        -0.60826E+08         0.00000E+00
    0.00000E+00         0.00000E+00        -0.63060E+08
 
   -0.49332E+08        -0.10891E+07         0.00000E+00
   -0.10891E+07        -0.60870E+08         0.00000E+00
    0.00000E+00         0.00000E+00        -0.63297E+08
 
   -0.50925E+08        -0.13476E+07         0.00000E+00
   -0.13476E+07        -0.60917E+08         0.00000E+00
    0.00000E+00         0.00000E+00        -0.63630E+08
 
   -0.52651E+08        -0.13207E+07         0.00000E+00
   -0.13207E+07        -0.60969E+08         0.00000E+00
    0.00000E+00         0.00000E+00        -0.63989E+08
 
   -0.54306E+08        -0.10783E+07         0.00000E+00
   -0.10783E+07        -0.61094E+08         0.00000E+00
    0.00000E+00         0.00000E+00        -0.64348E+08
 
   -0.55824E+08        -0.75120E+06         0.00000E+00
   -0.75120E+06        -0.61230E+08         0.00000E+00
    0.00000E+00         0.00000E+00        -0.64680E+08
 
   -0.57266E+08        -0.38821E+06         0.00000E+00
   -0.38821E+06        -0.61309E+08         0.00000E+00
    0.00000E+00         0.00000E+00        -0.64985E+08
 
   -0.58701E+08         0.11449E+05         0.00000E+00
    0.11449E+05        -0.61284E+08         0.00000E+00
    0.00000E+00         0.00000E+00        -0.65266E+08
 
   -0.60194E+08         0.47069E+06         0.00000E+00
    0.47069E+06        -0.61121E+08         0.00000E+00
    0.00000E+00         0.00000E+00        -0.65530E+08
 
   -0.61806E+08         0.10376E+07         0.00000E+00
    0.10376E+07        -0.60784E+08         0.00000E+00
    0.00000E+00         0.00000E+00        -0.65782E+08
 
   -0.63569E+08         0.18127E+07         0.00000E+00
    0.18127E+07        -0.60239E+08         0.00000E+00
    0.00000E+00         0.00000E+00        -0.66022E+08
 
   -0.65418E+08         0.29516E+07         0.00000E+00
    0.29516E+07        -0.59515E+08         0.00000E+00
    0.00000E+00         0.00000E+00        -0.66243E+08
 
   -0.46000E+08        -0.13412E+06         0.00000E+00
   -0.13412E+06        -0.60153E+08         0.00000E+00
    0.00000E+00         0.00000E+00        -0.61318E+08
 
   -0.47122E+08        -0.19356E+06         0.00000E+00
   -0.19356E+06        -0.60189E+08         0.00000E+00
    0.00000E+00         0.00000E+00        -0.61516E+08
 
   -0.47917E+08        -0.36308E+06         0.00000E+00
   -0.36308E+06        -0.60475E+08         0.00000E+00
    0.00000E+00         0.00000E+00        -0.61741E+08
 
   -0.48684E+08        -0.69740E+06         0.00000E+00
   -0.69740E+06        -0.60711E+08         0.00000E+00
    0.00000E+00         0.00000E+00        -0.61949E+08
 
   -0.49706E+08        -0.10953E+07         0.00000E+00
   -0.10953E+07        -0.60791E+08         0.00000E+00
    0.00000E+00         0.00000E+00        -0.62175E+08
 
   -0.51040E+08        -0.13311E+07         0.00000E+00
   -0.13311E+07        -0.60770E+08         0.00000E+00
    0.00000E+00         0.00000E+00        -0.62443E+08
 
   -0.52526E+08        -0.13326E+07         0.00000E+00
   -0.13326E+07        -0.60731E+08         0.00000E+00
    0.00000E+00         0.00000E+00        -0.62735E+08
 
   -0.54019E+08        -0.11330E+07         0.00000E+00
   -0.11330E+07        -0.60704E+08         0.00000E+00
    0.00000E+00         0.00000E+00        -0.63031E+08
 
   -0.55457E+08        -0.79533E+06         0.00000E+00
   -0.79533E+06        -0.60689E+08         0.00000E+00
    0.00000E+00         0.00000E+00        -0.63317E+08
 
   -0.56843E+08        -0.36840E+06         0.00000E+00
   -0.36840E+06        -0.60646E+08         0.00000E+00
    0.00000E+00         0.00000E+00        -0.63586E+08
 
   -0.58214E+08         0.13535E+06         0.00000E+00
    0.13535E+06        -0.60533E+08         0.00000E+00
    0.00000E+00         0.00000E+00        -0.63837E+08
 
   -0.59612E+08         0.73239E+06         0.00000E+00
    0.73239E+06        -0.60317E+08         0.00000E+00
    0.00000E+00         0.00000E+00        -0.64071E+08
 
   -0.61063E+08         0.14663E+07         0.00000E+00
    0.14663E+07        -0.59970E+08         0.00000E+00
    0.00000E+00         0.00000E+00        -0.64289E+08
 
   -0.62559E+08         0.24082E+07         0.00000E+00
    0.24082E+07        -0.59489E+08         0.00000E+00
    0.00000E+00         0.00000E+00        -0.64489E+08
 
   -0.64028E+08         0.36400E+07         0.00000E+00
    0.36400E+07        -0.58912E+08         0.00000E+00
    0.00000E+00         0.00000E+00        -0.64662E+08
 
   -0.46234E+08        -0.16793E+06         0.00000E+00
   -0.16793E+06        -0.60037E+08         0.00000E+00
    0.00000E+00         0.00000E+00        -0.60131E+08
 
   -0.47274E+08        -0.40572E+06         0.00000E+00
   -0.40572E+06        -0.60108E+08         0.00000E+00
    0.00000E+00         0.00000E+00        -0.60362E+08
 
   -0.48156E+08        -0.61116E+06         0.00000E+00
   -0.61116E+06        -0.60290E+08         0.00000E+00
    0.00000E+00         0.00000E+00        -0.60583E+08
 
   -0.49010E+08        -0.86355E+06         0.00000E+00
   -0.86355E+06        -0.60465E+08         0.00000E+00
    0.00000E+00         0.00000E+00        -0.60796E+08
 
   -0.49986E+08        -0.11220E+07         0.00000E+00
   -0.11220E+07        -0.60556E+08         0.00000E+00
    0.00000E+00         0.00000E+00        -0.61015E+08
 
   -0.51140E+08        -0.12806E+07         0.00000E+00
   -0.12806E+07        -0.60545E+08         0.00000E+00
    0.00000E+00         0.00000E+00        -0.61248E+08
 
   -0.52421E+08        -0.12656E+07         0.00000E+00
   -0.12656E+07        -0.60474E+08         0.00000E+00
    0.00000E+00         0.00000E+00        -0.61494E+08
 
   -0.53745E+08        -0.10709E+07         0.00000E+00
   -0.10709E+07        -0.60384E+08         0.00000E+00
    0.00000E+00         0.00000E+00        -0.61743E+08
 
   -0.55058E+08        -0.72508E+06         0.00000E+00
   -0.72508E+06        -0.60283E+08         0.00000E+00
    0.00000E+00         0.00000E+00        -0.61987E+08
 
   -0.56348E+08        -0.25682E+06         0.00000E+00
   -0.25682E+06        -0.60156E+08         0.00000E+00
    0.00000E+00         0.00000E+00        -0.62219E+08
 
   -0.57622E+08         0.32156E+06         0.00000E+00
    0.32156E+06        -0.59980E+08         0.00000E+00
    0.00000E+00         0.00000E+00        -0.62438E+08
 
   -0.58897E+08         0.10196E+07         0.00000E+00
    0.10196E+07        -0.59730E+08         0.00000E+00
    0.00000E+00         0.00000E+00        -0.62641E+08
 
   -0.60179E+08         0.18666E+07         0.00000E+00
    0.18666E+07        -0.59393E+08         0.00000E+00
    0.00000E+00         0.00000E+00        -0.62827E+08
 
   -0.61444E+08         0.29052E+07         0.00000E+00
    0.29052E+07        -0.58973E+08         0.00000E+00
    0.00000E+00         0.00000E+00        -0.62993E+08
 
   -0.62631E+08         0.41756E+07         0.00000E+00
    0.41756E+07        -0.58505E+08         0.00000E+00
    0.00000E+00         0.00000E+00        -0.63132E+08
 
   -0.46571E+08        -0.20534E+06         0.00000E+00
   -0.20534E+06        -0.60009E+08         0.00000E+00
    0.00000E+00         0.00000E+00        -0.59036E+08
 
   -0.47517E+08        -0.51907E+06         0.00000E+00
   -0.51907E+06        -0.60073E+08         0.00000E+00
    0.00000E+00         0.00000E+00        -0.59247E+08
 
   -0.48383E+08        -0.76529E+06         0.00000E+00
   -0.76529E+06        -0.60175E+08         0.00000E+00
    0.00000E+00         0.00000E+00        -0.59449E+08
 
   -0.49240E+08        -0.97908E+06         0.00000E+00
   -0.97908E+06        -0.60277E+08         0.00000E+00
    0.00000E+00         0.00000E+00        -0.59648E+08
 
   -0.50161E+08        -0.11501E+07         0.00000E+00
   -0.11501E+07        -0.60329E+08         0.00000E+00
    0.00000E+00         0.00000E+00        -0.59848E+08
 
   -0.51186E+08        -0.12289E+07         0.00000E+00
   -0.12289E+07        -0.60311E+08         0.00000E+00
    0.00000E+00         0.00000E+00        -0.60054E+08
 
   -0.52299E+08        -0.11698E+07         0.00000E+00
   -0.11698E+07        -0.60232E+08         0.00000E+00
    0.00000E+00         0.00000E+00        -0.60264E+08
 
   -0.53462E+08        -0.95434E+06         0.00000E+00
   -0.95434E+06        -0.60115E+08         0.00000E+00
    0.00000E+00         0.00000E+00        -0.60475E+08
 
   -0.54636E+08        -0.58883E+06         0.00000E+00
   -0.58883E+06        -0.59972E+08         0.00000E+00
    0.00000E+00         0.00000E+00        -0.60682E+08
 
   -0.55802E+08        -0.86484E+05         0.00000E+00
   -0.86484E+05        -0.59801E+08         0.00000E+00
    0.00000E+00         0.00000E+00        -0.60882E+08
 
   -0.56954E+08         0.54567E+06         0.00000E+00
    0.54567E+06        -0.59590E+08         0.00000E+00
    0.00000E+00         0.00000E+00        -0.61069E+08
 
   -0.58093E+08         0.13126E+07         0.00000E+00
    0.13126E+07        -0.59329E+08         0.00000E+00
    0.00000E+00         0.00000E+00        -0.61242E+08
 
   -0.59208E+08         0.22307E+07         0.00000E+00
    0.22307E+07        -0.59011E+08         0.00000E+00
    0.00000E+00         0.00000E+00        -0.61399E+08
 
   -0.60275E+08         0.33219E+07         0.00000E+00
    0.33219E+07        -0.58647E+08         0.00000E+00
    0.00000E+00         0.00000E+00        -0.61536E+08
 
   -0.61245E+08         0.46026E+07         0.00000E+00
    0.46026E+07        -0.58263E+08         0.00000E+00
    0.00000E+00         0.00000E+00        -0.61649E+08
 
   -0.46970E+08        -0.22745E+06         0.00000E+00
   -0.22745E+06        -0.60007E+08         0.00000E+00
    0.00000E+00         0.00000E+00        -0.57971E+08
 
   -0.47807E+08        -0.58570E+06         0.00000E+00
   -0.58570E+06        -0.60038E+08         0.00000E+00
    0.00000E+00         0.00000E+00        -0.58154E+08
 
   -0.48610E+08        -0.84778E+06         0.00000E+00
   -0.84778E+06        -0.60091E+08         0.00000E+00
    0.00000E+00         0.00000E+00        -0.58333E+08
 
   -0.49415E+08        -0.10382E+07         0.00000E+00
   -0.10382E+07        -0.60138E+08         0.00000E+00
    0.00000E+00         0.00000E+00        -0.58510E+08
 
   -0.50261E+08        -0.11537E+07         0.00000E+00
   -0.11537E+07        -0.60151E+08         0.00000E+00
    0.00000E+00         0.00000E+00        -0.58687E+08
 
   -0.51171E+08        -0.11711E+07         0.00000E+00
   -0.11711E+07        -0.60115E+08         0.00000E+00
    0.00000E+00         0.00000E+00        -0.58866E+08
 
   -0.52143E+08        -0.10636E+07         0.00000E+00
   -0.10636E+07        -0.60028E+08         0.00000E+00
    0.00000E+00         0.00000E+00        -0.59046E+08
 
   -0.53156E+08        -0.81494E+06         0.00000E+00
   -0.81494E+06        -0.59901E+08         0.00000E+00
    0.00000E+00         0.00000E+00        -0.59225E+08
 
   -0.54186E+08        -0.42196E+06         0.00000E+00
   -0.42196E+06        -0.59743E+08         0.00000E+00
    0.00000E+00         0.00000E+00        -0.59401E+08
 
   -0.55216E+08         0.11184E+06         0.00000E+00
    0.11184E+06        -0.59554E+08         0.00000E+00
    0.00000E+00         0.00000E+00        -0.59569E+08
 
   -0.56234E+08         0.78368E+06         0.00000E+00
    0.78368E+06        -0.59334E+08         0.00000E+00
    0.00000E+00         0.00000E+00        -0.59728E+08
 
   -0.57229E+08         0.15959E+07         0.00000E+00
    0.15959E+07        -0.59078E+08         0.00000E+00
    0.00000E+00         0.00000E+00        -0.59874E+08
 
   -0.58188E+08         0.25561E+07         0.00000E+00
    0.25561E+07        -0.58788E+08         0.00000E+00
    0.00000E+00         0.00000E+00        -0.60005E+08
 
   -0.59084E+08         0.36727E+07         0.00000E+00
    0.36727E+07        -0.58473E+08         0.00000E+00
    0.00000E+00         0.00000E+00        -0.60117E+08
 
   -0.59881E+08         0.49486E+07         0.00000E+00
    0.49486E+07        -0.58155E+08         0.00000E+00
    0.00000E+00         0.00000E+00        -0.60209E+08
 
   -0.47403E+08        -0.23828E+06         0.00000E+00
   -0.23828E+06        -0.60002E+08         0.00000E+00
    0.00000E+00         0.00000E+00        -0.56924E+08
 
   -0.48119E+08        -0.61558E+06         0.00000E+00
   -0.61558E+06        -0.60014E+08         0.00000E+00
    0.00000E+00         0.00000E+00        -0.57079E+08
 
   -0.48832E+08        -0.88223E+06         0.00000E+00
   -0.88223E+06        -0.60030E+08         0.00000E+00
    0.00000E+00         0.00000E+00        -0.57232E+08
 
   -0.49555E+08        -0.10540E+07         0.00000E+00
   -0.10540E+07        -0.60039E+08         0.00000E+00
    0.00000E+00         0.00000E+00        -0.57385E+08
 
   -0.50309E+08        -0.11314E+07         0.00000E+00
   -0.11314E+07        -0.60022E+08         0.00000E+00
    0.00000E+00         0.00000E+00        -0.57537E+08
 
   -0.51106E+08        -0.11028E+07         0.00000E+00
   -0.11028E+07        -0.59969E+08         0.00000E+00
    0.00000E+00         0.00000E+00        -0.57690E+08
 
   -0.51946E+08        -0.95270E+06         0.00000E+00
   -0.95270E+06        -0.59877E+08         0.00000E+00
    0.00000E+00         0.00000E+00        -0.57843E+08
 
   -0.52819E+08        -0.66918E+06         0.00000E+00
   -0.66918E+06        -0.59748E+08         0.00000E+00
    0.00000E+00         0.00000E+00        -0.57993E+08
 
   -0.53708E+08        -0.24665E+06         0.00000E+00
   -0.24665E+06        -0.59588E+08         0.00000E+00
    0.00000E+00         0.00000E+00        -0.58140E+08
 
   -0.54599E+08         0.31565E+06         0.00000E+00
    0.31565E+06        -0.59401E+08         0.00000E+00
    0.00000E+00         0.00000E+00        -0.58281E+08
 
   -0.55477E+08         0.10173E+07         0.00000E+00
    0.10173E+07        -0.59187E+08         0.00000E+00
    0.00000E+00         0.00000E+00        -0.58413E+08
 
   -0.56330E+08         0.18588E+07         0.00000E+00
    0.18588E+07        -0.58949E+08         0.00000E+00
    0.00000E+00         0.00000E+00        -0.58534E+08
 
   -0.57141E+08         0.28420E+07         0.00000E+00
    0.28420E+07        -0.58691E+08         0.00000E+00
    0.00000E+00         0.00000E+00        -0.58642E+08
 
   -0.57887E+08         0.39676E+07         0.00000E+00
    0.39676E+07        -0.58422E+08         0.00000E+00
    0.00000E+00         0.00000E+00        -0.58734E+08
 
   -0.58540E+08         0.52309E+07         0.00000E+00
    0.52309E+07        -0.58159E+08         0.00000E+00
    0.00000E+00         0.00000E+00        -0.58808E+08
 
   -0.47848E+08        -0.23980E+06         0.00000E+00
   -0.23980E+06        -0.59999E+08         0.00000E+00
    0.00000E+00         0.00000E+00        -0.55892E+08
 
   -0.48439E+08        -0.62091E+06         0.00000E+00
   -0.62091E+06        -0.59996E+08         0.00000E+00
    0.00000E+00         0.00000E+00        -0.56018E+08
 
   -0.49045E+08        -0.88423E+06         0.00000E+00
   -0.88423E+06        -0.59990E+08         0.00000E+00
    0.00000E+00         0.00000E+00        -0.56145E+08
 
   -0.49669E+08        -0.10400E+07         0.00000E+00
   -0.10400E+07        -0.59973E+08         0.00000E+00
    0.00000E+00         0.00000E+00        -0.56272E+08
 
   -0.50319E+08        -0.10893E+07         0.00000E+00
   -0.10893E+07        -0.59937E+08         0.00000E+00
    0.00000E+00         0.00000E+00        -0.56400E+08
 
   -0.51001E+08        -0.10261E+07         0.00000E+00
   -0.10261E+07        -0.59873E+08         0.00000E+00
    0.00000E+00         0.00000E+00        -0.56527E+08
 
   -0.51714E+08        -0.84118E+06         0.00000E+00
   -0.84118E+06        -0.59778E+08         0.00000E+00
    0.00000E+00         0.00000E+00        -0.56654E+08
 
   -0.52451E+08        -0.52635E+06         0.00000E+00
   -0.52635E+06        -0.59654E+08         0.00000E+00
    0.00000E+00         0.00000E+00        -0.56778E+08
 
   -0.53203E+08        -0.76484E+05         0.00000E+00
   -0.76484E+05        -0.59502E+08         0.00000E+00
    0.00000E+00         0.00000E+00        -0.56899E+08
 
   -0.53955E+08         0.51032E+06         0.00000E+00
    0.51032E+06        -0.59327E+08         0.00000E+00
    0.00000E+00         0.00000E+00        -0.57014E+08
 
   -0.54695E+08         0.12341E+07         0.00000E+00
    0.12341E+07        -0.59131E+08         0.00000E+00
    0.00000E+00         0.00000E+00        -0.57122E+08
 
   -0.55410E+08         0.20941E+07         0.00000E+00
    0.20941E+07        -0.58918E+08         0.00000E+00
    0.00000E+00         0.00000E+00        -0.57221E+08
 
   -0.56083E+08         0.30885E+07         0.00000E+00
    0.30885E+07        -0.58694E+08         0.00000E+00
    0.00000E+00         0.00000E+00        -0.57308E+08
 
   -0.56696E+08         0.42135E+07         0.00000E+00
    0.42135E+07        -0.58469E+08         0.00000E+00
    0.00000E+00         0.00000E+00        -0.57382E+08
 
   -0.57225E+08         0.54606E+07         0.00000E+00
    0.54606E+07        -0.58253E+08         0.00000E+00
    0.00000E+00         0.00000E+00        -0.57441E+08
 
   -0.48291E+08        -0.23520E+06         0.00000E+00
   -0.23520E+06        -0.59997E+08         0.00000E+00
    0.00000E+00         0.00000E+00        -0.54870E+08
 
   -0.48757E+08        -0.61063E+06         0.00000E+00
   -0.61063E+06        -0.59986E+08         0.00000E+00
    0.00000E+00         0.00000E+00        -0.54969E+08
 
   -0.49249E+08        -0.86629E+06         0.00000E+00
   -0.86629E+06        -0.59966E+08         0.00000E+00
    0.00000E+00         0.00000E+00        -0.55071E+08
 
   -0.49763E+08        -0.10077E+07         0.00000E+00
   -0.10077E+07        -0.59936E+08         0.00000E+00
    0.00000E+00         0.00000E+00        -0.55173E+08
 
   -0.50301E+08        -0.10355E+07         0.00000E+00
   -0.10355E+07        -0.59889E+08         0.00000E+00
    0.00000E+00         0.00000E+00        -0.55275E+08
 
   -0.50864E+08        -0.94605E+06         0.00000E+00
   -0.94605E+06        -0.59821E+08         0.00000E+00
    0.00000E+00         0.00000E+00        -0.55378E+08
 
   -0.51451E+08        -0.73366E+06         0.00000E+00
   -0.73366E+06        -0.59729E+08         0.00000E+00
    0.00000E+00         0.00000E+00        -0.55480E+08
 
   -0.52057E+08        -0.39288E+06         0.00000E+00
   -0.39288E+06        -0.59614E+08         0.00000E+00
    0.00000E+00         0.00000E+00        -0.55579E+08
 
   -0.52674E+08         0.80070E+05         0.00000E+00
    0.80070E+05        -0.59477E+08         0.00000E+00
    0.00000E+00         0.00000E+00        -0.55676E+08
 
   -0.53291E+08         0.68672E+06         0.00000E+00
    0.68672E+06        -0.59320E+08         0.00000E+00
    0.00000E+00         0.00000E+00        -0.55768E+08
 
   -0.53896E+08         0.14266E+07         0.00000E+00
    0.14266E+07        -0.59148E+08         0.00000E+00
    0.00000E+00         0.00000E+00        -0.55854E+08
 
   -0.54479E+08         0.22977E+07         0.00000E+00
    0.22977E+07        -0.58965E+08         0.00000E+00
    0.00000E+00         0.00000E+00        -0.55932E+08
 
   -0.55023E+08         0.32961E+07         0.00000E+00
    0.32961E+07        -0.58777E+08         0.00000E+00
    0.00000E+00         0.00000E+00        -0.56001E+08
 
   -0.55514E+08         0.44153E+07         0.00000E+00
    0.44153E+07        -0.58592E+08         0.00000E+00
    0.00000E+00         0.00000E+00        -0.56059E+08
 
   -0.55934E+08         0.56450E+07         0.00000E+00
    0.56450E+07        -0.58420E+08         0.00000E+00
    0.00000E+00         0.00000E+00        -0.56105E+08
 
   -0.48723E+08        -0.22741E+06         0.00000E+00
   -0.22741E+06        -0.59996E+08         0.00000E+00
    0.00000E+00         0.00000E+00        -0.53858E+08
 
   -0.49067E+08        -0.59213E+06         0.00000E+00
   -0.59213E+06        -0.59981E+08         0.00000E+00
    0.00000E+00         0.00000E+00        -0.53931E+08
 
   -0.49441E+08        -0.83815E+06         0.00000E+00
   -0.83815E+06        -0.59956E+08         0.00000E+00
    0.00000E+00         0.00000E+00        -0.54008E+08
 
   -0.49840E+08        -0.96701E+06         0.00000E+00
   -0.96701E+06        -0.59920E+08         0.00000E+00
    0.00000E+00         0.00000E+00        -0.54085E+08
 
   -0.50261E+08        -0.97807E+06         0.00000E+00
   -0.97807E+06        -0.59871E+08         0.00000E+00
    0.00000E+00         0.00000E+00        -0.54164E+08
 
   -0.50703E+08        -0.86865E+06         0.00000E+00
   -0.86865E+06        -0.59806E+08         0.00000E+00
    0.00000E+00         0.00000E+00        -0.54242E+08
 
   -0.51164E+08        -0.63507E+06         0.00000E+00
   -0.63507E+06        -0.59723E+08         0.00000E+00
    0.00000E+00         0.00000E+00        -0.54320E+08
 
   -0.51641E+08        -0.27383E+06         0.00000E+00
   -0.27383E+06        -0.59621E+08         0.00000E+00
    0.00000E+00         0.00000E+00        -0.54396E+08
 
   -0.52125E+08         0.21740E+06         0.00000E+00
    0.21740E+06        -0.59503E+08         0.00000E+00
    0.00000E+00         0.00000E+00        -0.54470E+08
 
   -0.52610E+08         0.83921E+06         0.00000E+00
    0.83921E+06        -0.59370E+08         0.00000E+00
    0.00000E+00         0.00000E+00        -0.54540E+08
 
   -0.53086E+08         0.15903E+07         0.00000E+00
    0.15903E+07        -0.59226E+08         0.00000E+00
    0.00000E+00         0.00000E+00        -0.54606E+08
 
   -0.53541E+08         0.24675E+07         0.00000E+00
    0.24675E+07        -0.59076E+08         0.00000E+00
    0.00000E+00         0.00000E+00        -0.54665E+08
 
   -0.53965E+08         0.34656E+07         0.00000E+00
    0.34656E+07        -0.58924E+08         0.00000E+00
    0.00000E+00         0.00000E+00        -0.54717E+08
 
   -0.54344E+08         0.45764E+07         0.00000E+00
    0.45764E+07        -0.58777E+08         0.00000E+00
    0.00000E+00         0.00000E+00        -0.54761E+08
 
   -0.54665E+08         0.57891E+07         0.00000E+00
    0.57891E+07        -0.58643E+08         0.00000E+00
    0.00000E+00         0.00000E+00        -0.54795E+08
 
   -0.49140E+08        -0.21876E+06         0.00000E+00
   -0.21876E+06        -0.59996E+08         0.00000E+00
    0.00000E+00         0.00000E+00        -0.52854E+08
 
   -0.49367E+08        -0.57122E+06         0.00000E+00
   -0.57122E+06        -0.59981E+08         0.00000E+00
    0.00000E+00         0.00000E+00        -0.52903E+08
 
   -0.49624E+08        -0.80749E+06         0.00000E+00
   -0.80749E+06        -0.59956E+08         0.00000E+00
    0.00000E+00         0.00000E+00        -0.52955E+08
 
   -0.49904E+08        -0.92573E+06         0.00000E+00
   -0.92573E+06        -0.59922E+08         0.00000E+00
    0.00000E+00         0.00000E+00        -0.53009E+08
 
   -0.50205E+08        -0.92390E+06         0.00000E+00
   -0.92390E+06        -0.59878E+08         0.00000E+00
    0.00000E+00         0.00000E+00        -0.53064E+08
 
   -0.50524E+08        -0.79954E+06         0.00000E+00
   -0.79954E+06        -0.59821E+08         0.00000E+00
    0.00000E+00         0.00000E+00        -0.53119E+08
 
   -0.50859E+08        -0.55005E+06         0.00000E+00
   -0.55005E+06        -0.59751E+08         0.00000E+00
    0.00000E+00         0.00000E+00        -0.53174E+08
 
   -0.51207E+08        -0.17332E+06         0.00000E+00
   -0.17332E+06        -0.59668E+08         0.00000E+00
    0.00000E+00         0.00000E+00        -0.53228E+08
 
   -0.51562E+08         0.33165E+06         0.00000E+00
    0.33165E+06        -0.59572E+08         0.00000E+00
    0.00000E+00         0.00000E+00        -0.53281E+08
 
   -0.51919E+08         0.96445E+06         0.00000E+00
    0.96445E+06        -0.59465E+08         0.00000E+00
    0.00000E+00         0.00000E+00        -0.53330E+08
 
   -0.52269E+08         0.17229E+07         0.00000E+00
    0.17229E+07        -0.59352E+08         0.00000E+00
    0.00000E+00         0.00000E+00        -0.53377E+08
 
   -0.52603E+08         0.26028E+07         0.00000E+00
    0.26028E+07        -0.59234E+08         0.00000E+00
    0.00000E+00         0.00000E+00        -0.53418E+08
 
   -0.52912E+08         0.35979E+07         0.00000E+00
    0.35979E+07        -0.59118E+08         0.00000E+00
    0.00000E+00         0.00000E+00        -0.53455E+08
 
   -0.53187E+08         0.46995E+07         0.00000E+00
    0.46995E+07        -0.59009E+08         0.00000E+00
    0.00000E+00         0.00000E+00        -0.53485E+08
 
   -0.53416E+08         0.58963E+07         0.00000E+00
    0.58963E+07        -0.58911E+08         0.00000E+00
    0.00000E+00         0.00000E+00        -0.53509E+08
 
   -0.49543E+08        -0.21100E+06         0.00000E+00
   -0.21100E+06        -0.59997E+08         0.00000E+00
    0.00000E+00         0.00000E+00        -0.51857E+08
 
   -0.49657E+08        -0.55239E+06         0.00000E+00
   -0.55239E+06        -0.59985E+08         0.00000E+00
    0.00000E+00         0.00000E+00        -0.51883E+08
 
   -0.49797E+08        -0.78031E+06         0.00000E+00
   -0.78031E+06        -0.59965E+08         0.00000E+00
    0.00000E+00         0.00000E+00        -0.51913E+08
 
   -0.49958E+08        -0.89022E+06         0.00000E+00
   -0.89022E+06        -0.59938E+08         0.00000E+00
    0.00000E+00         0.00000E+00        -0.51943E+08
 
   -0.50137E+08        -0.87884E+06         0.00000E+00
   -0.87884E+06        -0.59903E+08         0.00000E+00
    0.00000E+00         0.00000E+00        -0.51976E+08
 
   -0.50332E+08        -0.74360E+06         0.00000E+00
   -0.74360E+06        -0.59860E+08         0.00000E+00
    0.00000E+00         0.00000E+00        -0.52008E+08
 
   -0.50541E+08        -0.48256E+06         0.00000E+00
   -0.48256E+06        -0.59807E+08         0.00000E+00
    0.00000E+00         0.00000E+00        -0.52041E+08
 
   -0.50761E+08        -0.94627E+05         0.00000E+00
   -0.94627E+05        -0.59745E+08         0.00000E+00
    0.00000E+00         0.00000E+00        -0.52074E+08
 
   -0.50989E+08         0.42018E+06         0.00000E+00
    0.42018E+06        -0.59674E+08         0.00000E+00
    0.00000E+00         0.00000E+00        -0.52105E+08
 
   -0.51220E+08         0.10604E+07         0.00000E+00
    0.10604E+07        -0.59596E+08         0.00000E+00
    0.00000E+00         0.00000E+00        -0.52136E+08
 
   -0.51447E+08         0.18231E+07         0.00000E+00
    0.18231E+07        -0.59513E+08         0.00000E+00
    0.00000E+00         0.00000E+00        -0.52164E+08
 
   -0.51665E+08         0.27033E+07         0.00000E+00
    0.27033E+07        -0.59430E+08         0.00000E+00
    0.00000E+00         0.00000E+00        -0.52189E+08
 
   -0.51866E+08         0.36942E+07         0.00000E+00
    0.36942E+07        -0.59349E+08         0.00000E+00
    0.00000E+00         0.00000E+00        -0.52211E+08
 
   -0.52042E+08         0.47866E+07         0.00000E+00
    0.47866E+07        -0.59274E+08         0.00000E+00
    0.00000E+00         0.00000E+00        -0.52229E+08
 
   -0.52185E+08         0.59692E+07         0.00000E+00
    0.59692E+07        -0.59211E+08         0.00000E+00
    0.00000E+00         0.00000E+00        -0.52242E+08
 
   -0.49933E+08        -0.20544E+06         0.00000E+00
   -0.20544E+06        -0.59998E+08         0.00000E+00
    0.00000E+00         0.00000E+00        -0.50867E+08
 
   -0.49939E+08        -0.53896E+06         0.00000E+00
   -0.53896E+06        -0.59991E+08         0.00000E+00
    0.00000E+00         0.00000E+00        -0.50873E+08
 
   -0.49964E+08        -0.76108E+06         0.00000E+00
   -0.76108E+06        -0.59979E+08         0.00000E+00
    0.00000E+00         0.00000E+00        -0.50880E+08
 
   -0.50005E+08        -0.86531E+06         0.00000E+00
   -0.86531E+06        -0.59963E+08         0.00000E+00
    0.00000E+00         0.00000E+00        -0.50888E+08
 
   -0.50060E+08        -0.84740E+06         0.00000E+00
   -0.84740E+06        -0.59942E+08         0.00000E+00
    0.00000E+00         0.00000E+00        -0.50898E+08
 
   -0.50130E+08        -0.70468E+06         0.00000E+00
   -0.70468E+06        -0.59916E+08         0.00000E+00
    0.00000E+00         0.00000E+00        -0.50908E+08
 
   -0.50212E+08        -0.43567E+06         0.00000E+00
   -0.43567E+06        -0.59883E+08         0.00000E+00
    0.00000E+00         0.00000E+00        -0.50920E+08
 
   -0.50306E+08        -0.40065E+05         0.00000E+00
   -0.40065E+05        -0.59844E+08         0.00000E+00
    0.00000E+00         0.00000E+00        -0.50931E+08
 
   -0.50408E+08         0.48126E+06         0.00000E+00
    0.48126E+06        -0.59800E+08         0.00000E+00
    0.00000E+00         0.00000E+00        -0.50943E+08
 
   -0.50516E+08         0.11261E+07         0.00000E+00
    0.11261E+07        -0.59751E+08         0.00000E+00
    0.00000E+00         0.00000E+00        -0.50955E+08
 
   -0.50625E+08         0.18906E+07         0.00000E+00
    0.18906E+07        -0.59700E+08         0.00000E+00
    0.00000E+00         0.00000E+00        -0.50965E+08
 
   -0.50730E+08         0.27695E+07         0.00000E+00
    0.27695E+07        -0.59650E+08         0.00000E+00
    0.00000E+00         0.00000E+00        -0.50975E+08
 
   -0.50827E+08         0.37555E+07         0.00000E+00
    0.37555E+07        -0.59603E+08         0.00000E+00
    0.00000E+00         0.00000E+00        -0.50983E+08
 
   -0.50908E+08         0.48392E+07         0.00000E+00
    0.48392E+07        -0.59563E+08         0.00000E+00
    0.00000E+00         0.00000E+00        -0.50989E+08
 
   -0.50970E+08         0.60093E+07         0.00000E+00
    0.60093E+07        -0.59533E+08         0.00000E+00
    0.00000E+00         0.00000E+00        -0.50993E+08
 
   -0.50317E+08        -0.20296E+06         0.00000E+00
   -0.20296E+06        -0.59999E+08         0.00000E+00
    0.00000E+00         0.00000E+00        -0.49886E+08
 
   -0.50216E+08        -0.53327E+06         0.00000E+00
   -0.53327E+06        -0.59998E+08         0.00000E+00
    0.00000E+00         0.00000E+00        -0.49871E+08
 
   -0.50126E+08        -0.75301E+06         0.00000E+00
   -0.75301E+06        -0.59997E+08         0.00000E+00
    0.00000E+00         0.00000E+00        -0.49856E+08
 
   -0.50047E+08        -0.85446E+06         0.00000E+00
   -0.85446E+06        -0.59995E+08         0.00000E+00
    0.00000E+00         0.00000E+00        -0.49843E+08
 
   -0.49978E+08        -0.83282E+06         0.00000E+00
   -0.83282E+06        -0.59991E+08         0.00000E+00
    0.00000E+00         0.00000E+00        -0.49830E+08
 
   -0.49922E+08        -0.68547E+06         0.00000E+00
   -0.68547E+06        -0.59984E+08         0.00000E+00
    0.00000E+00         0.00000E+00        -0.49819E+08
 
   -0.49877E+08        -0.41142E+06         0.00000E+00
   -0.41142E+06        -0.59973E+08         0.00000E+00
    0.00000E+00         0.00000E+00        -0.49809E+08
 
   -0.49845E+08        -0.11032E+05         0.00000E+00
   -0.11032E+05        -0.59959E+08         0.00000E+00
    0.00000E+00         0.00000E+00        -0.49800E+08
 
   -0.49823E+08         0.51408E+06         0.00000E+00
    0.51408E+06        -0.59941E+08         0.00000E+00
    0.00000E+00         0.00000E+00        -0.49792E+08
 
   -0.49810E+08         0.11611E+07         0.00000E+00
    0.11611E+07        -0.59922E+08         0.00000E+00
    0.00000E+00         0.00000E+00        -0.49785E+08
 
   -0.49803E+08         0.19256E+07         0.00000E+00
    0.19256E+07        -0.59903E+08         0.00000E+00
    0.00000E+00         0.00000E+00        -0.49779E+08
 
   -0.49799E+08         0.28020E+07         0.00000E+00
    0.28020E+07        -0.59885E+08         0.00000E+00
    0.00000E+00         0.00000E+00        -0.49774E+08
 
   -0.49794E+08         0.37828E+07         0.00000E+00
    0.37828E+07        -0.59872E+08         0.00000E+00
    0.00000E+00         0.00000E+00        -0.49769E+08
 
   -0.49784E+08         0.48585E+07         0.00000E+00
    0.48585E+07        -0.59865E+08         0.00000E+00
    0.00000E+00         0.00000E+00        -0.49764E+08
 
   -0.49767E+08         0.60181E+07         0.00000E+00
    0.60181E+07        -0.59867E+08         0.00000E+00
    0.00000E+00         0.00000E+00        -0.49759E+08
 
   -0.50699E+08        -0.20416E+06         0.00000E+00
   -0.20416E+06        -0.60001E+08         0.00000E+00
    0.00000E+00         0.00000E+00        -0.48914E+08
 
   -0.50493E+08        -0.53686E+06         0.00000E+00
   -0.53686E+06        -0.60007E+08         0.00000E+00
    0.00000E+00         0.00000E+00        -0.48878E+08
 
   -0.50288E+08        -0.75817E+06         0.00000E+00
   -0.75817E+06        -0.60018E+08         0.00000E+00
    0.00000E+00         0.00000E+00        -0.48842E+08
 
   -0.50087E+08        -0.85983E+06         0.00000E+00
   -0.85983E+06        -0.60031E+08         0.00000E+00
    0.00000E+00         0.00000E+00        -0.48806E+08
 
   -0.49893E+08        -0.83701E+06         0.00000E+00
   -0.83701E+06        -0.60045E+08         0.00000E+00
    0.00000E+00         0.00000E+00        -0.48772E+08
 
   -0.49710E+08        -0.68743E+06         0.00000E+00
   -0.68743E+06        -0.60058E+08         0.00000E+00
    0.00000E+00         0.00000E+00        -0.48739E+08
 
   -0.49538E+08        -0.41073E+06         0.00000E+00
   -0.41073E+06        -0.60070E+08         0.00000E+00
    0.00000E+00         0.00000E+00        -0.48708E+08
 
   -0.49381E+08        -0.79436E+04         0.00000E+00
   -0.79436E+04        -0.60080E+08         0.00000E+00
    0.00000E+00         0.00000E+00        -0.48678E+08
 
   -0.49236E+08         0.51866E+06         0.00000E+00
    0.51866E+06        -0.60090E+08         0.00000E+00
    0.00000E+00         0.00000E+00        -0.48651E+08
 
   -0.49104E+08         0.11657E+07         0.00000E+00
    0.11657E+07        -0.60099E+08         0.00000E+00
    0.00000E+00         0.00000E+00        -0.48626E+08
 
   -0.48983E+08         0.19287E+07         0.00000E+00
    0.19287E+07        -0.60111E+08         0.00000E+00
    0.00000E+00         0.00000E+00        -0.48603E+08
 
   -0.48871E+08         0.28016E+07         0.00000E+00
    0.28016E+07        -0.60125E+08         0.00000E+00
    0.00000E+00         0.00000E+00        -0.48583E+08
 
   -0.48767E+08         0.37770E+07         0.00000E+00
    0.37770E+07        -0.60145E+08         0.00000E+00
    0.00000E+00         0.00000E+00        -0.48565E+08
 
   -0.48669E+08         0.48457E+07         0.00000E+00
    0.48457E+07        -0.60170E+08         0.00000E+00
    0.00000E+00         0.00000E+00        -0.48549E+08
 
   -0.48575E+08         0.59966E+07         0.00000E+00
    0.59966E+07        -0.60202E+08         0.00000E+00
    0.00000E+00         0.00000E+00        -0.48535E+08
 
   -0.51088E+08        -0.20939E+06         0.00000E+00
   -0.20939E+06        -0.60003E+08         0.00000E+00
    0.00000E+00         0.00000E+00        -0.47951E+08
 
   -0.50775E+08        -0.55057E+06         0.00000E+00
   -0.55057E+06        -0.60016E+08         0.00000E+00
    0.00000E+00         0.00000E+00        -0.47894E+08
 
   -0.50452E+08        -0.77759E+06         0.00000E+00
   -0.77759E+06        -0.60039E+08         0.00000E+00
    0.00000E+00         0.00000E+00        -0.47837E+08
 
   -0.50127E+08        -0.88236E+06         0.00000E+00
   -0.88236E+06        -0.60068E+08         0.00000E+00
    0.00000E+00         0.00000E+00        -0.47779E+08
 
   -0.49807E+08        -0.86059E+06         0.00000E+00
   -0.86059E+06        -0.60100E+08         0.00000E+00
    0.00000E+00         0.00000E+00        -0.47722E+08
 
   -0.49496E+08        -0.71076E+06         0.00000E+00
   -0.71076E+06        -0.60134E+08         0.00000E+00
    0.00000E+00         0.00000E+00        -0.47667E+08
 
   -0.49198E+08        -0.43333E+06         0.00000E+00
   -0.43333E+06        -0.60167E+08         0.00000E+00
    0.00000E+00         0.00000E+00        -0.47614E+08
 
   -0.48916E+08        -0.30165E+05         0.00000E+00
   -0.30165E+05        -0.60201E+08         0.00000E+00
    0.00000E+00         0.00000E+00        -0.47564E+08
 
   -0.48649E+08         0.49587E+06         0.00000E+00
    0.49587E+06        -0.60236E+08         0.00000E+00
    0.00000E+00         0.00000E+00        -0.47518E+08
 
   -0.48400E+08         0.11411E+07         0.00000E+00
    0.11411E+07        -0.60274E+08         0.00000E+00
    0.00000E+00         0.00000E+00        -0.47475E+08
 
   -0.48166E+08         0.19007E+07         0.00000E+00
    0.19007E+07        -0.60314E+08         0.00000E+00
    0.00000E+00         0.00000E+00        -0.47435E+08
 
   -0.47949E+08         0.27691E+07         0.00000E+00
    0.27691E+07        -0.60360E+08         0.00000E+00
    0.00000E+00         0.00000E+00        -0.47400E+08
 
   -0.47747E+08         0.37390E+07         0.00000E+00
    0.37390E+07        -0.60411E+08         0.00000E+00
    0.00000E+00         0.00000E+00        -0.47369E+08
 
   -0.47561E+08         0.48014E+07         0.00000E+00
    0.48014E+07        -0.60468E+08         0.00000E+00
    0.00000E+00         0.00000E+00        -0.47343E+08
 
   -0.47392E+08         0.59455E+07         0.00000E+00
    0.59455E+07        -0.60531E+08         0.00000E+00
    0.00000E+00         0.00000E+00        -0.47321E+08
 
   -0.51490E+08        -0.21876E+06         0.00000E+00
   -0.21876E+06        -0.60005E+08         0.00000E+00
    0.00000E+00         0.00000E+00        -0.46999E+08
 
   -0.51066E+08        -0.57460E+06         0.00000E+00
   -0.57460E+06        -0.60025E+08         0.00000E+00
    0.00000E+00         0.00000E+00        -0.46921E+08
 
   -0.50623E+08        -0.81135E+06         0.00000E+00
   -0.81135E+06        -0.60060E+08         0.00000E+00
    0.00000E+00         0.00000E+00        -0.46841E+08
 
   -0.50171E+08        -0.92182E+06         0.00000E+00
   -0.92182E+06        -0.60105E+08         0.00000E+00
    0.00000E+00         0.00000E+00        -0.46760E+08
 
   -0.49722E+08        -0.90288E+06         0.00000E+00
   -0.90288E+06        -0.60154E+08         0.00000E+00
    0.00000E+00         0.00000E+00        -0.46680E+08
 
   -0.49283E+08        -0.75427E+06         0.00000E+00
   -0.75427E+06        -0.60206E+08         0.00000E+00
    0.00000E+00         0.00000E+00        -0.46603E+08
 
   -0.48858E+08        -0.47768E+06         0.00000E+00
   -0.47768E+06        -0.60259E+08         0.00000E+00
    0.00000E+00         0.00000E+00        -0.46528E+08
 
   -0.48451E+08        -0.75918E+05         0.00000E+00
   -0.75918E+05        -0.60315E+08         0.00000E+00
    0.00000E+00         0.00000E+00        -0.46457E+08
 
   -0.48065E+08         0.44754E+06         0.00000E+00
    0.44754E+06        -0.60373E+08         0.00000E+00
    0.00000E+00         0.00000E+00        -0.46391E+08
 
   -0.47699E+08         0.10887E+07         0.00000E+00
    0.10887E+07        -0.60435E+08         0.00000E+00
    0.00000E+00         0.00000E+00        -0.46329E+08
 
   -0.47354E+08         0.18432E+07         0.00000E+00
    0.18432E+07        -0.60504E+08         0.00000E+00
    0.00000E+00         0.00000E+00        -0.46273E+08
 
   -0.47031E+08         0.27056E+07         0.00000E+00
    0.27056E+07        -0.60579E+08         0.00000E+00
    0.00000E+00         0.00000E+00        -0.46224E+08
 
   -0.46732E+08         0.36694E+07         0.00000E+00
    0.36694E+07        -0.60661E+08         0.00000E+00
    0.00000E+00         0.00000E+00        -0.46180E+08
 
   -0.46459E+08         0.47261E+07         0.00000E+00
    0.47261E+07        -0.60749E+08         0.00000E+00
    0.00000E+00         0.00000E+00        -0.46143E+08
 
   -0.46214E+08         0.58652E+07         0.00000E+00
    0.58652E+07        -0.60842E+08         0.00000E+00
    0.00000E+00         0.00000E+00        -0.46112E+08
 
   -0.51914E+08        -0.23221E+06         0.00000E+00
   -0.23221E+06        -0.60007E+08         0.00000E+00
    0.00000E+00         0.00000E+00        -0.46059E+08
 
   -0.51372E+08        -0.60861E+06         0.00000E+00
   -0.60861E+06        -0.60034E+08         0.00000E+00
    0.00000E+00         0.00000E+00        -0.45958E+08
 
   -0.50802E+08        -0.85863E+06         0.00000E+00
   -0.85863E+06        -0.60080E+08         0.00000E+00
    0.00000E+00         0.00000E+00        -0.45853E+08
 
   -0.50220E+08        -0.97676E+06         0.00000E+00
   -0.97676E+06        -0.60138E+08         0.00000E+00
    0.00000E+00         0.00000E+00        -0.45749E+08
 
   -0.49640E+08        -0.96178E+06         0.00000E+00
   -0.96178E+06        -0.60202E+08         0.00000E+00
    0.00000E+00         0.00000E+00        -0.45645E+08
 
   -0.49071E+08        -0.81536E+06         0.00000E+00
   -0.81536E+06        -0.60269E+08         0.00000E+00
    0.00000E+00         0.00000E+00        -0.45544E+08
 
   -0.48520E+08        -0.54082E+06         0.00000E+00
   -0.54082E+06        -0.60339E+08         0.00000E+00
    0.00000E+00         0.00000E+00        -0.45446E+08
 
   -0.47990E+08        -0.14215E+06         0.00000E+00
   -0.14215E+06        -0.60412E+08         0.00000E+00
    0.00000E+00         0.00000E+00        -0.45354E+08
 
   -0.47485E+08         0.37653E+06         0.00000E+00
    0.37653E+06        -0.60490E+08         0.00000E+00
    0.00000E+00         0.00000E+00        -0.45268E+08
 
   -0.47004E+08         0.10113E+07         0.00000E+00
    0.10113E+07        -0.60575E+08         0.00000E+00
    0.00000E+00         0.00000E+00        -0.45188E+08
 
   -0.46549E+08         0.17580E+07         0.00000E+00
    0.17580E+07        -0.60668E+08         0.00000E+00
    0.00000E+00         0.00000E+00        -0.45115E+08
 
   -0.46121E+08         0.26123E+07         0.00000E+00
    0.26123E+07        -0.60771E+08         0.00000E+00
    0.00000E+00         0.00000E+00        -0.45050E+08
 
   -0.45724E+08         0.35687E+07         0.00000E+00
    0.35687E+07        -0.60883E+08         0.00000E+00
    0.00000E+00         0.00000E+00        -0.44993E+08
 
   -0.45362E+08         0.46197E+07         0.00000E+00
    0.46197E+07        -0.61002E+08         0.00000E+00
    0.00000E+00         0.00000E+00        -0.44945E+08
 
   -0.45039E+08         0.57554E+07         0.00000E+00
    0.57554E+07        -0.61126E+08         0.00000E+00
    0.00000E+00         0.00000E+00        -0.44906E+08
 
   -0.52365E+08        -0.24941E+06         0.00000E+00
   -0.24941E+06        -0.60008E+08         0.00000E+00
    0.00000E+00         0.00000E+00        -0.45131E+08
 
   -0.51696E+08        -0.65173E+06         0.00000E+00
   -0.65173E+06        -0.60042E+08         0.00000E+00
    0.00000E+00         0.00000E+00        -0.45005E+08
 
   -0.50992E+08        -0.91769E+06         0.00000E+00
   -0.91769E+06        -0.60098E+08         0.00000E+00
    0.00000E+00         0.00000E+00        -0.44875E+08
 
   -0.50275E+08        -0.10445E+07         0.00000E+00
   -0.10445E+07        -0.60166E+08         0.00000E+00
    0.00000E+00         0.00000E+00        -0.44744E+08
 
   -0.49560E+08        -0.10337E+07         0.00000E+00
   -0.10337E+07        -0.60241E+08         0.00000E+00
    0.00000E+00         0.00000E+00        -0.44615E+08
 
   -0.48861E+08        -0.88983E+06         0.00000E+00
   -0.88983E+06        -0.60319E+08         0.00000E+00
    0.00000E+00         0.00000E+00        -0.44489E+08
 
   -0.48184E+08        -0.61824E+06         0.00000E+00
   -0.61824E+06        -0.60399E+08         0.00000E+00
    0.00000E+00         0.00000E+00        -0.44368E+08
 
   -0.47534E+08        -0.22442E+06         0.00000E+00
   -0.22442E+06        -0.60484E+08         0.00000E+00
    0.00000E+00         0.00000E+00        -0.44254E+08
 
   -0.46912E+08         0.28689E+06         0.00000E+00
    0.28689E+06        -0.60577E+08         0.00000E+00
    0.00000E+00         0.00000E+00        -0.44147E+08
 
   -0.46318E+08         0.91188E+06         0.00000E+00
    0.91188E+06        -0.60680E+08         0.00000E+00
    0.00000E+00         0.00000E+00        -0.44048E+08
 
   -0.45753E+08         0.16474E+07         0.00000E+00
    0.16474E+07        -0.60795E+08         0.00000E+00
    0.00000E+00         0.00000E+00        -0.43958E+08
 
   -0.45220E+08         0.24905E+07         0.00000E+00
    0.24905E+07        -0.60924E+08         0.00000E+00
    0.00000E+00         0.00000E+00        -0.43878E+08
 
   -0.44724E+08         0.34372E+07         0.00000E+00
    0.34372E+07        -0.61066E+08         0.00000E+00
    0.00000E+00         0.00000E+00        -0.43807E+08
 
   -0.44269E+08         0.44816E+07         0.00000E+00
    0.44816E+07        -0.61217E+08         0.00000E+00
    0.00000E+00         0.00000E+00        -0.43748E+08
 
   -0.43866E+08         0.56150E+07         0.00000E+00
    0.56150E+07        -0.61372E+08         0.00000E+00
    0.00000E+00         0.00000E+00        -0.43699E+08
 
   -0.52851E+08        -0.27007E+06         0.00000E+00
   -0.27007E+06        -0.60010E+08         0.00000E+00
    0.00000E+00         0.00000E+00        -0.44216E+08
 
   -0.52043E+08        -0.70236E+06         0.00000E+00
   -0.70236E+06        -0.60048E+08         0.00000E+00
    0.00000E+00         0.00000E+00        -0.44062E+08
 
   -0.51195E+08        -0.98570E+06         0.00000E+00
   -0.98570E+06        -0.60111E+08         0.00000E+00
    0.00000E+00         0.00000E+00        -0.43904E+08
 
   -0.50335E+08        -0.11209E+07         0.00000E+00
   -0.11209E+07        -0.60186E+08         0.00000E+00
    0.00000E+00         0.00000E+00        -0.43745E+08
 
   -0.49483E+08        -0.11135E+07         0.00000E+00
   -0.11135E+07        -0.60266E+08         0.00000E+00
    0.00000E+00         0.00000E+00        -0.43589E+08
 
   -0.48654E+08        -0.97170E+06         0.00000E+00
   -0.97170E+06        -0.60348E+08         0.00000E+00
    0.00000E+00         0.00000E+00        -0.43437E+08
 
   -0.47853E+08        -0.70369E+06         0.00000E+00
   -0.70369E+06        -0.60432E+08         0.00000E+00
    0.00000E+00         0.00000E+00        -0.43292E+08
 
   -0.47085E+08        -0.31670E+06         0.00000E+00
   -0.31670E+06        -0.60523E+08         0.00000E+00
    0.00000E+00         0.00000E+00        -0.43154E+08
 
   -0.46349E+08         0.18393E+06         0.00000E+00
    0.18393E+06        -0.60624E+08         0.00000E+00
    0.00000E+00         0.00000E+00        -0.43026E+08
 
   -0.45644E+08         0.79485E+06         0.00000E+00
    0.79485E+06        -0.60739E+08         0.00000E+00
    0.00000E+00         0.00000E+00        -0.42908E+08
 
   -0.44971E+08         0.15143E+07         0.00000E+00
    0.15143E+07        -0.60873E+08         0.00000E+00
    0.00000E+00         0.00000E+00        -0.42800E+08
 
   -0.44332E+08         0.23414E+07         0.00000E+00
    0.23414E+07        -0.61025E+08         0.00000E+00
    0.00000E+00         0.00000E+00        -0.42703E+08
 
   -0.43733E+08         0.32747E+07         0.00000E+00
    0.32747E+07        -0.61196E+08         0.00000E+00
    0.00000E+00         0.00000E+00        -0.42619E+08
 
   -0.43182E+08         0.43106E+07         0.00000E+00
    0.43106E+07        -0.61379E+08         0.00000E+00
    0.00000E+00         0.00000E+00        -0.42547E+08
 
   -0.42692E+08         0.54421E+07         0.00000E+00
    0.54421E+07        -0.61569E+08         0.00000E+00
    0.00000E+00         0.00000E+00        -0.42489E+08
 
   -0.53377E+08        -0.29362E+06         0.00000E+00
   -0.29362E+06        -0.60011E+08         0.00000E+00
    0.00000E+00         0.00000E+00        -0.43315E+08
 
   -0.52413E+08        -0.75856E+06         0.00000E+00
   -0.75856E+06        -0.60053E+08         0.00000E+00
    0.00000E+00         0.00000E+00        -0.43129E+08
 
   -0.51409E+08        -0.10587E+07         0.00000E+00
   -0.10587E+07        -0.60119E+08         0.00000E+00
    0.00000E+00         0.00000E+00        -0.42939E+08
 
   -0.50400E+08        -0.12002E+07         0.00000E+00
   -0.12002E+07        -0.60195E+08         0.00000E+00
    0.00000E+00         0.00000E+00        -0.42750E+08
 
   -0.49408E+08        -0.11939E+07         0.00000E+00
   -0.11939E+07        -0.60273E+08         0.00000E+00
    0.00000E+00         0.00000E+00        -0.42565E+08
 
   -0.48449E+08        -0.10529E+07         0.00000E+00
   -0.10529E+07        -0.60350E+08         0.00000E+00
    0.00000E+00         0.00000E+00        -0.42385E+08
 
   -0.47528E+08        -0.78900E+06         0.00000E+00
   -0.78900E+06        -0.60429E+08         0.00000E+00
    0.00000E+00         0.00000E+00        -0.42214E+08
 
   -0.46647E+08        -0.41129E+06         0.00000E+00
   -0.41129E+06        -0.60516E+08         0.00000E+00
    0.00000E+00         0.00000E+00        -0.42053E+08
 
   -0.45802E+08         0.74350E+05         0.00000E+00
    0.74350E+05        -0.60617E+08         0.00000E+00
    0.00000E+00         0.00000E+00        -0.41903E+08
 
   -0.44990E+08         0.66540E+06         0.00000E+00
    0.66540E+06        -0.60739E+08         0.00000E+00
    0.00000E+00         0.00000E+00        -0.41765E+08
 
   -0.44209E+08         0.13621E+07         0.00000E+00
    0.13621E+07        -0.60885E+08         0.00000E+00
    0.00000E+00         0.00000E+00        -0.41639E+08
 
   -0.43462E+08         0.21664E+07         0.00000E+00
    0.21664E+07        -0.61060E+08         0.00000E+00
    0.00000E+00         0.00000E+00        -0.41525E+08
 
   -0.42755E+08         0.30804E+07         0.00000E+00
    0.30804E+07        -0.61259E+08         0.00000E+00
    0.00000E+00         0.00000E+00        -0.41426E+08
 
   -0.42100E+08         0.41042E+07         0.00000E+00
    0.41042E+07        -0.61477E+08         0.00000E+00
    0.00000E+00         0.00000E+00        -0.41341E+08
 
   -0.41515E+08         0.52335E+07         0.00000E+00
    0.52335E+07        -0.61704E+08         0.00000E+00
    0.00000E+00         0.00000E+00        -0.41272E+08
 
   -0.53947E+08        -0.31941E+06         0.00000E+00
   -0.31941E+06        -0.60012E+08         0.00000E+00
    0.00000E+00         0.00000E+00        -0.42428E+08
 
   -0.52807E+08        -0.81768E+06         0.00000E+00
   -0.81768E+06        -0.60056E+08         0.00000E+00
    0.00000E+00         0.00000E+00        -0.42206E+08
 
   -0.51632E+08        -0.11315E+07         0.00000E+00
   -0.11315E+07        -0.60121E+08         0.00000E+00
    0.00000E+00         0.00000E+00        -0.41981E+08
 
   -0.50465E+08        -0.12745E+07         0.00000E+00
   -0.12745E+07        -0.60190E+08         0.00000E+00
    0.00000E+00         0.00000E+00        -0.41757E+08
 
   -0.49331E+08        -0.12654E+07         0.00000E+00
   -0.12654E+07        -0.60255E+08         0.00000E+00
    0.00000E+00         0.00000E+00        -0.41540E+08
 
   -0.48246E+08        -0.11232E+07         0.00000E+00
   -0.11232E+07        -0.60316E+08         0.00000E+00
    0.00000E+00         0.00000E+00        -0.41332E+08
 
   -0.47211E+08        -0.86393E+06         0.00000E+00
   -0.86393E+06        -0.60379E+08         0.00000E+00
    0.00000E+00         0.00000E+00        -0.41134E+08
 
   -0.46223E+08        -0.49876E+06         0.00000E+00
   -0.49876E+06        -0.60451E+08         0.00000E+00
    0.00000E+00         0.00000E+00        -0.40949E+08
 
   -0.45275E+08        -0.33776E+05         0.00000E+00
   -0.33776E+05        -0.60543E+08         0.00000E+00
    0.00000E+00         0.00000E+00        -0.40776E+08
 
   -0.44361E+08         0.52974E+06         0.00000E+00
    0.52974E+06        -0.60663E+08         0.00000E+00
    0.00000E+00         0.00000E+00        -0.40617E+08
 
   -0.43475E+08         0.11946E+07         0.00000E+00
    0.11946E+07        -0.60817E+08         0.00000E+00
    0.00000E+00         0.00000E+00        -0.40472E+08
 
   -0.42618E+08         0.19667E+07         0.00000E+00
    0.19667E+07        -0.61010E+08         0.00000E+00
    0.00000E+00         0.00000E+00        -0.40341E+08
 
   -0.41798E+08         0.28529E+07         0.00000E+00
    0.28529E+07        -0.61239E+08         0.00000E+00
    0.00000E+00         0.00000E+00        -0.40226E+08
 
   -0.41028E+08         0.38586E+07         0.00000E+00
    0.38586E+07        -0.61495E+08         0.00000E+00
    0.00000E+00         0.00000E+00        -0.40126E+08
 
   -0.40334E+08         0.49842E+07         0.00000E+00
    0.49842E+07        -0.61765E+08         0.00000E+00
    0.00000E+00         0.00000E+00        -0.40045E+08
 
   -0.54563E+08        -0.34666E+06         0.00000E+00
   -0.34666E+06        -0.60012E+08         0.00000E+00
    0.00000E+00         0.00000E+00        -0.41554E+08
 
   -0.53221E+08        -0.87597E+06         0.00000E+00
   -0.87597E+06        -0.60055E+08         0.00000E+00
    0.00000E+00         0.00000E+00        -0.41290E+08
 
   -0.51858E+08        -0.11967E+07         0.00000E+00
   -0.11967E+07        -0.60113E+08         0.00000E+00
    0.00000E+00         0.00000E+00        -0.41025E+08
 
   -0.50525E+08        -0.13334E+07         0.00000E+00
   -0.13334E+07        -0.60165E+08         0.00000E+00
    0.00000E+00         0.00000E+00        -0.40764E+08
 
   -0.49250E+08        -0.13155E+07         0.00000E+00
   -0.13155E+07        -0.60205E+08         0.00000E+00
    0.00000E+00         0.00000E+00        -0.40512E+08
 
   -0.48044E+08        -0.11697E+07         0.00000E+00
   -0.11697E+07        -0.60236E+08         0.00000E+00
    0.00000E+00         0.00000E+00        -0.40273E+08
 
   -0.46903E+08        -0.91624E+06         0.00000E+00
   -0.91624E+06        -0.60268E+08         0.00000E+00
    0.00000E+00         0.00000E+00        -0.40048E+08
 
   -0.45818E+08        -0.56811E+06         0.00000E+00
   -0.56811E+06        -0.60313E+08         0.00000E+00
    0.00000E+00         0.00000E+00        -0.39838E+08
 
   -0.44777E+08        -0.13113E+06         0.00000E+00
   -0.13113E+06        -0.60385E+08         0.00000E+00
    0.00000E+00         0.00000E+00        -0.39643E+08
 
   -0.43767E+08         0.39507E+06         0.00000E+00
    0.39507E+06        -0.60494E+08         0.00000E+00
    0.00000E+00         0.00000E+00        -0.39463E+08
 
   -0.42780E+08         0.10164E+07         0.00000E+00
    0.10164E+07        -0.60651E+08         0.00000E+00
    0.00000E+00         0.00000E+00        -0.39299E+08
 
   -0.41811E+08         0.17435E+07         0.00000E+00
    0.17435E+07        -0.60859E+08         0.00000E+00
    0.00000E+00         0.00000E+00        -0.39149E+08
 
   -0.40869E+08         0.25897E+07         0.00000E+00
    0.25897E+07        -0.61118E+08         0.00000E+00
    0.00000E+00         0.00000E+00        -0.39016E+08
 
   -0.39971E+08         0.35683E+07         0.00000E+00
    0.35683E+07        -0.61417E+08         0.00000E+00
    0.00000E+00         0.00000E+00        -0.38900E+08
 
   -0.39149E+08         0.46864E+07         0.00000E+00
    0.46864E+07        -0.61738E+08         0.00000E+00
    0.00000E+00         0.00000E+00        -0.38804E+08
 
   -0.55224E+08        -0.37436E+06         0.00000E+00
   -0.37436E+06        -0.60012E+08         0.00000E+00
    0.00000E+00         0.00000E+00        -0.40694E+08
 
   -0.53648E+08        -0.92826E+06         0.00000E+00
   -0.92826E+06        -0.60051E+08         0.00000E+00
    0.00000E+00         0.00000E+00        -0.40380E+08
 
   -0.52077E+08        -0.12438E+07         0.00000E+00
   -0.12438E+07        -0.60091E+08         0.00000E+00
    0.00000E+00         0.00000E+00        -0.40068E+08
 
   -0.50572E+08        -0.13626E+07         0.00000E+00
   -0.13626E+07        -0.60111E+08         0.00000E+00
    0.00000E+00         0.00000E+00        -0.39765E+08
 
   -0.49160E+08        -0.13286E+07         0.00000E+00
   -0.13286E+07        -0.60109E+08         0.00000E+00
    0.00000E+00         0.00000E+00        -0.39476E+08
 
   -0.47842E+08        -0.11771E+07         0.00000E+00
   -0.11771E+07        -0.60093E+08         0.00000E+00
    0.00000E+00         0.00000E+00        -0.39206E+08
 
   -0.46609E+08        -0.93218E+06         0.00000E+00
   -0.93218E+06        -0.60079E+08         0.00000E+00
    0.00000E+00         0.00000E+00        -0.38953E+08
 
   -0.45440E+08        -0.60740E+06         0.00000E+00
   -0.60740E+06        -0.60085E+08         0.00000E+00
    0.00000E+00         0.00000E+00        -0.38719E+08
 
   -0.44317E+08        -0.20767E+06         0.00000E+00
   -0.20767E+06        -0.60125E+08         0.00000E+00
    0.00000E+00         0.00000E+00        -0.38502E+08
 
   -0.43221E+08         0.26933E+06         0.00000E+00
    0.26933E+06        -0.60215E+08         0.00000E+00
    0.00000E+00         0.00000E+00        -0.38301E+08
 
   -0.42137E+08         0.83268E+06         0.00000E+00
    0.83268E+06        -0.60366E+08         0.00000E+00
    0.00000E+00         0.00000E+00        -0.38117E+08
 
   -0.41056E+08         0.14982E+07         0.00000E+00
    0.14982E+07        -0.60586E+08         0.00000E+00
    0.00000E+00         0.00000E+00        -0.37947E+08
 
   -0.39983E+08         0.22877E+07         0.00000E+00
    0.22877E+07        -0.60876E+08         0.00000E+00
    0.00000E+00         0.00000E+00        -0.37794E+08
 
   -0.38937E+08         0.32251E+07         0.00000E+00
    0.32251E+07        -0.61225E+08         0.00000E+00
    0.00000E+00         0.00000E+00        -0.37660E+08
 
   -0.37960E+08         0.43292E+07         0.00000E+00
    0.43292E+07        -0.61609E+08         0.00000E+00
    0.00000E+00         0.00000E+00        -0.37546E+08
 
   -0.55928E+08        -0.40117E+06         0.00000E+00
   -0.40117E+06        -0.60012E+08         0.00000E+00
    0.00000E+00         0.00000E+00        -0.39845E+08
 
   -0.54073E+08        -0.96642E+06         0.00000E+00
   -0.96642E+06        -0.60040E+08         0.00000E+00
    0.00000E+00         0.00000E+00        -0.39472E+08
 
   -0.52273E+08        -0.12573E+07         0.00000E+00
   -0.12573E+07        -0.60048E+08         0.00000E+00
    0.00000E+00         0.00000E+00        -0.39105E+08
 
   -0.50595E+08        -0.13428E+07         0.00000E+00
   -0.13428E+07        -0.60015E+08         0.00000E+00
    0.00000E+00         0.00000E+00        -0.38755E+08
 
   -0.49056E+08        -0.12854E+07         0.00000E+00
   -0.12854E+07        -0.59947E+08         0.00000E+00
    0.00000E+00         0.00000E+00        -0.38428E+08
 
   -0.47644E+08        -0.11286E+07         0.00000E+00
   -0.11286E+07        -0.59865E+08         0.00000E+00
    0.00000E+00         0.00000E+00        -0.38125E+08
 
   -0.46334E+08        -0.89781E+06         0.00000E+00
   -0.89781E+06        -0.59791E+08         0.00000E+00
    0.00000E+00         0.00000E+00        -0.37846E+08
 
   -0.45098E+08        -0.60507E+06         0.00000E+00
   -0.60507E+06        -0.59745E+08         0.00000E+00
    0.00000E+00         0.00000E+00        -0.37588E+08
 
   -0.43907E+08        -0.25360E+06         0.00000E+00
   -0.25360E+06        -0.59745E+08         0.00000E+00
    0.00000E+00         0.00000E+00        -0.37350E+08
 
   -0.42737E+08         0.16076E+06         0.00000E+00
    0.16076E+06        -0.59807E+08         0.00000E+00
    0.00000E+00         0.00000E+00        -0.37130E+08
 
   -0.41564E+08         0.64957E+06         0.00000E+00
    0.64957E+06        -0.59945E+08         0.00000E+00
    0.00000E+00         0.00000E+00        -0.36925E+08
 
   -0.40372E+08         0.12333E+07         0.00000E+00
    0.12333E+07        -0.60172E+08         0.00000E+00
    0.00000E+00         0.00000E+00        -0.36735E+08
 
   -0.39158E+08         0.19430E+07         0.00000E+00
    0.19430E+07        -0.60492E+08         0.00000E+00
    0.00000E+00         0.00000E+00        -0.36561E+08
 
   -0.37940E+08         0.28182E+07         0.00000E+00
    0.28182E+07        -0.60899E+08         0.00000E+00
    0.00000E+00         0.00000E+00        -0.36404E+08
 
   -0.36771E+08         0.38964E+07         0.00000E+00
    0.38964E+07        -0.61362E+08         0.00000E+00
    0.00000E+00         0.00000E+00        -0.36268E+08
 
   -0.56664E+08        -0.42491E+06         0.00000E+00
   -0.42491E+06        -0.60010E+08         0.00000E+00
    0.00000E+00         0.00000E+00        -0.39005E+08
 
   -0.54475E+08        -0.97601E+06         0.00000E+00
   -0.97601E+06        -0.60016E+08         0.00000E+00
    0.00000E+00         0.00000E+00        -0.38558E+08
 
   -0.52425E+08        -0.12123E+07         0.00000E+00
   -0.12123E+07        -0.59965E+08         0.00000E+00
    0.00000E+00         0.00000E+00        -0.38128E+08
 
   -0.50582E+08        -0.12472E+07         0.00000E+00
   -0.12472E+07        -0.59847E+08         0.00000E+00
    0.00000E+00         0.00000E+00        -0.37728E+08
 
   -0.48938E+08        -0.11640E+07         0.00000E+00
   -0.11640E+07        -0.59689E+08         0.00000E+00
    0.00000E+00         0.00000E+00        -0.37361E+08
 
   -0.47454E+08        -0.10083E+07         0.00000E+00
   -0.10083E+07        -0.59524E+08         0.00000E+00
    0.00000E+00         0.00000E+00        -0.37027E+08
 
   -0.46088E+08        -0.80157E+06         0.00000E+00
   -0.80157E+06        -0.59378E+08         0.00000E+00
    0.00000E+00         0.00000E+00        -0.36723E+08
 
   -0.44801E+08        -0.55224E+06         0.00000E+00
   -0.55224E+06        -0.59273E+08         0.00000E+00
    0.00000E+00         0.00000E+00        -0.36444E+08
 
   -0.43559E+08        -0.26118E+06         0.00000E+00
   -0.26118E+06        -0.59225E+08         0.00000E+00
    0.00000E+00         0.00000E+00        -0.36187E+08
 
   -0.42328E+08         0.76951E+05         0.00000E+00
    0.76951E+05        -0.59253E+08         0.00000E+00
    0.00000E+00         0.00000E+00        -0.35948E+08
 
   -0.41079E+08         0.47440E+06         0.00000E+00
    0.47440E+06        -0.59371E+08         0.00000E+00
    0.00000E+00         0.00000E+00        -0.35724E+08
 
   -0.39783E+08         0.95350E+06         0.00000E+00
    0.95350E+06        -0.59597E+08         0.00000E+00
    0.00000E+00         0.00000E+00        -0.35514E+08
 
   -0.38422E+08         0.15532E+07         0.00000E+00
    0.15532E+07        -0.59945E+08         0.00000E+00
    0.00000E+00         0.00000E+00        -0.35316E+08
 
   -0.37004E+08         0.23334E+07         0.00000E+00
    0.23334E+07        -0.60416E+08         0.00000E+00
    0.00000E+00         0.00000E+00        -0.35132E+08
 
   -0.35588E+08         0.33643E+07         0.00000E+00
    0.33643E+07        -0.60981E+08         0.00000E+00
    0.00000E+00         0.00000E+00        -0.34968E+08
 
   -0.57410E+08        -0.44043E+06         0.00000E+00
   -0.44043E+06        -0.60004E+08         0.00000E+00
    0.00000E+00         0.00000E+00        -0.38168E+08
 
   -0.54810E+08        -0.92714E+06         0.00000E+00
   -0.92714E+06        -0.59961E+08         0.00000E+00
    0.00000E+00         0.00000E+00        -0.37626E+08
 
   -0.52507E+08        -0.10675E+07         0.00000E+00
   -0.10675E+07        -0.59802E+08         0.00000E+00
    0.00000E+00         0.00000E+00        -0.37122E+08
 
   -0.50531E+08        -0.10436E+07         0.00000E+00
   -0.10436E+07        -0.59557E+08         0.00000E+00
    0.00000E+00         0.00000E+00        -0.36670E+08
 
   -0.48815E+08        -0.94523E+06         0.00000E+00
   -0.94523E+06        -0.59286E+08         0.00000E+00
    0.00000E+00         0.00000E+00        -0.36267E+08
 
   -0.47285E+08        -0.80587E+06         0.00000E+00
   -0.80587E+06        -0.59027E+08         0.00000E+00
    0.00000E+00         0.00000E+00        -0.35906E+08
 
   -0.45883E+08        -0.63815E+06         0.00000E+00
   -0.63815E+06        -0.58807E+08         0.00000E+00
    0.00000E+00         0.00000E+00        -0.35580E+08
 
   -0.44563E+08        -0.44564E+06         0.00000E+00
   -0.44564E+06        -0.58642E+08         0.00000E+00
    0.00000E+00         0.00000E+00        -0.35283E+08
 
   -0.43285E+08        -0.22703E+06         0.00000E+00
   -0.22703E+06        -0.58549E+08         0.00000E+00
    0.00000E+00         0.00000E+00        -0.35010E+08
 
   -0.42011E+08         0.22974E+05         0.00000E+00
    0.22974E+05        -0.58540E+08         0.00000E+00
    0.00000E+00         0.00000E+00        -0.34755E+08
 
   -0.40702E+08         0.31491E+06         0.00000E+00
    0.31491E+06        -0.58634E+08         0.00000E+00
    0.00000E+00         0.00000E+00        -0.34515E+08
 
   -0.39318E+08         0.66841E+06         0.00000E+00
    0.66841E+06        -0.58849E+08         0.00000E+00
    0.00000E+00         0.00000E+00        -0.34285E+08
 
   -0.37815E+08         0.11215E+07         0.00000E+00
    0.11215E+07        -0.59212E+08         0.00000E+00
    0.00000E+00         0.00000E+00        -0.34062E+08
 
   -0.36168E+08         0.17553E+07         0.00000E+00
    0.17553E+07        -0.59752E+08         0.00000E+00
    0.00000E+00         0.00000E+00        -0.33846E+08
 
   -0.34427E+08         0.26970E+07         0.00000E+00
    0.26970E+07        -0.60447E+08         0.00000E+00
    0.00000E+00         0.00000E+00        -0.33643E+08
 
   -0.58114E+08        -0.42950E+06         0.00000E+00
   -0.42950E+06        -0.59984E+08         0.00000E+00
    0.00000E+00         0.00000E+00        -0.37320E+08
 
   -0.55014E+08        -0.74784E+06         0.00000E+00
   -0.74784E+06        -0.59812E+08         0.00000E+00
    0.00000E+00         0.00000E+00        -0.36650E+08
 
   -0.52508E+08        -0.76464E+06         0.00000E+00
   -0.76464E+06        -0.59458E+08         0.00000E+00
    0.00000E+00         0.00000E+00        -0.36066E+08
 
   -0.50459E+08        -0.70750E+06         0.00000E+00
   -0.70750E+06        -0.59057E+08         0.00000E+00
    0.00000E+00         0.00000E+00        -0.35568E+08
 
   -0.48707E+08        -0.62303E+06         0.00000E+00
   -0.62303E+06        -0.58672E+08         0.00000E+00
    0.00000E+00         0.00000E+00        -0.35136E+08
 
   -0.47154E+08        -0.52358E+06         0.00000E+00
   -0.52358E+06        -0.58329E+08         0.00000E+00
    0.00000E+00         0.00000E+00        -0.34754E+08
 
   -0.45734E+08        -0.41266E+06         0.00000E+00
   -0.41266E+06        -0.58046E+08         0.00000E+00
    0.00000E+00         0.00000E+00        -0.34412E+08
 
   -0.44396E+08        -0.29032E+06         0.00000E+00
   -0.29032E+06        -0.57833E+08         0.00000E+00
    0.00000E+00         0.00000E+00        -0.34103E+08
 
   -0.43096E+08        -0.15453E+06         0.00000E+00
   -0.15453E+06        -0.57701E+08         0.00000E+00
    0.00000E+00         0.00000E+00        -0.33818E+08
 
   -0.41794E+08        -0.12912E+04         0.00000E+00
   -0.12912E+04        -0.57662E+08         0.00000E+00
    0.00000E+00         0.00000E+00        -0.33552E+08
 
   -0.40445E+08         0.17625E+06         0.00000E+00
    0.17625E+06        -0.57732E+08         0.00000E+00
    0.00000E+00         0.00000E+00        -0.33300E+08
 
   -0.38999E+08         0.39084E+06         0.00000E+00
    0.39084E+06        -0.57930E+08         0.00000E+00
    0.00000E+00         0.00000E+00        -0.33054E+08
 
   -0.37387E+08         0.66864E+06         0.00000E+00
    0.66864E+06        -0.58290E+08         0.00000E+00
    0.00000E+00         0.00000E+00        -0.32809E+08
 
   -0.35504E+08         0.10760E+07         0.00000E+00
    0.10760E+07        -0.58866E+08         0.00000E+00
    0.00000E+00         0.00000E+00        -0.32553E+08
 
   -0.33326E+08         0.18333E+07         0.00000E+00
    0.18333E+07        -0.59736E+08         0.00000E+00
    0.00000E+00         0.00000E+00        -0.32298E+08
 
   -0.58626E+08        -0.27202E+06         0.00000E+00
   -0.27202E+06        -0.59806E+08         0.00000E+00
    0.00000E+00         0.00000E+00        -0.36404E+08
 
   -0.55043E+08        -0.30988E+06         0.00000E+00
   -0.30988E+06        -0.59310E+08         0.00000E+00
    0.00000E+00         0.00000E+00        -0.35570E+08
 
   -0.52476E+08        -0.28292E+06         0.00000E+00
   -0.28292E+06        -0.58757E+08         0.00000E+00
    0.00000E+00         0.00000E+00        -0.34934E+08
 
   -0.50405E+08        -0.25231E+06         0.00000E+00
   -0.25231E+06        -0.58239E+08         0.00000E+00
    0.00000E+00         0.00000E+00        -0.34409E+08
 
   -0.48642E+08        -0.21831E+06         0.00000E+00
   -0.21831E+06        -0.57779E+08         0.00000E+00
    0.00000E+00         0.00000E+00        -0.33960E+08
 
   -0.47082E+08        -0.18190E+06         0.00000E+00
   -0.18190E+06        -0.57386E+08         0.00000E+00
    0.00000E+00         0.00000E+00        -0.33568E+08
 
   -0.45655E+08        -0.14291E+06         0.00000E+00
   -0.14291E+06        -0.57066E+08         0.00000E+00
    0.00000E+00         0.00000E+00        -0.33218E+08
 
   -0.44310E+08        -0.10086E+06         0.00000E+00
   -0.10086E+06        -0.56825E+08         0.00000E+00
    0.00000E+00         0.00000E+00        -0.32901E+08
 
   -0.43000E+08        -0.54787E+05         0.00000E+00
   -0.54787E+05        -0.56672E+08         0.00000E+00
    0.00000E+00         0.00000E+00        -0.32611E+08
 
   -0.41684E+08        -0.32108E+04         0.00000E+00
   -0.32108E+04        -0.56616E+08         0.00000E+00
    0.00000E+00         0.00000E+00        -0.32339E+08
 
   -0.40316E+08         0.56232E+05         0.00000E+00
    0.56232E+05        -0.56671E+08         0.00000E+00
    0.00000E+00         0.00000E+00        -0.32080E+08
 
   -0.38838E+08         0.12776E+06         0.00000E+00
    0.12776E+06        -0.56856E+08         0.00000E+00
    0.00000E+00         0.00000E+00        -0.31826E+08
 
   -0.37167E+08         0.22055E+06         0.00000E+00
    0.22055E+06        -0.57205E+08         0.00000E+00
    0.00000E+00         0.00000E+00        -0.31567E+08
 
   -0.35156E+08         0.35559E+06         0.00000E+00
    0.35559E+06        -0.57781E+08         0.00000E+00
    0.00000E+00         0.00000E+00        -0.31285E+08
 
   -0.32384E+08         0.67130E+06         0.00000E+00
    0.67130E+06        -0.58760E+08         0.00000E+00
    0.00000E+00         0.00000E+00        -0.30932E+08
 
SCALARS stressS double 
LOOKUP_TABLE default
  -55617012.8342772     
  -55301015.0594653     
  -55454527.3625857     
  -56217716.8487064     
  -57609710.3842479     
  -59229068.4696182     
  -60542649.3609121     
  -61511470.2671289     
  -62313584.1848286     
  -63014857.1209551     
  -63654332.7629030     
  -64261985.5064132     
  -64869025.7592280     
  -65519553.7189788     
  -66334723.7420181     
  -55973549.0919773     
  -56387615.0904108     
  -56842026.7571115     
  -57339021.6096133     
  -57988076.7433029     
  -58821970.3868063     
  -59789669.2937761     
  -60653645.0521573     
  -61401764.8648842     
  -62068889.2115141     
  -62681177.4650009     
  -63261209.5735527     
  -63830730.3699679     
  -64416616.3324992     
  -64993240.9578720     
  -56291505.5611137     
  -56860012.8131109     
  -57160709.2745978     
  -57369590.4989021     
  -57833202.4193205     
  -58490535.4648994     
  -59203396.5722092     
  -59916021.2520174     
  -60578289.3436811     
  -61186314.7867497     
  -61750254.2742743     
  -62281661.7241536     
  -62790941.0689239     
  -63277023.3111937     
  -63725291.7913900     
  -55823764.4180467     
  -56275666.2953143     
  -56711112.2792014     
  -57114818.4249937     
  -57557325.4658299     
  -58084391.1984980     
  -58664131.1842998     
  -59251504.2207480     
  -59820789.5477693     
  -60358000.0876957     
  -60861354.0211100     
  -61333205.4333964     
  -61774043.1619063     
  -62178963.5391627     
  -62533981.6474866     
  -55467283.8138288     
  -55914714.3067878     
  -56343280.0282626     
  -56756898.0034112     
  -57185682.4367942     
  -57644350.8174048     
  -58129609.7910410     
  -58623832.0597666     
  -59109196.2458516     
  -59574459.3748482     
  -60013493.1720874     
  -60423079.1309374     
  -60799609.2165325     
  -61136400.4543339     
  -61422631.8786957     
  -55205405.1427220     
  -55612502.3097695     
  -56002156.4203193     
  -56388167.2607347     
  -56779491.3122487     
  -57183279.7735236     
  -57598363.9788332     
  -58017284.1278354     
  -58430109.0921335     
  -58828047.4370075     
  -59204604.8693769     
  -59554603.4783002     
  -59872803.0512175     
  -60152628.6595575     
  -60385593.5298693     
  -54982950.8236459     
  -55332952.1654170     
  -55677937.1357746     
  -56020820.1270743     
  -56366526.8323592     
  -56717335.5842254     
  -57072397.6291394     
  -57427514.5040194     
  -57776626.3838054     
  -58113370.1771543     
  -58431949.3751619     
  -58727022.0897324     
  -58993266.0161288     
  -59224795.5199814     
  -59415043.1394135     
  -54776464.7231317     
  -55070614.4386930     
  -55364618.8311216     
  -55659428.1214385     
  -55956104.1746343     
  -56255096.8388333     
  -56555150.0836355     
  -56853324.6434297     
  -57145434.6012202     
  -57426733.0344938     
  -57692374.4452095     
  -57937638.1486728     
  -58157731.3392366     
  -58347708.9639630     
  -58502518.1890682     
  -54579500.7230936     
  -54817868.2065274     
  -55060019.7096466     
  -55304861.0389914     
  -55551873.5471860     
  -55800277.4827046     
  -56048589.0118986     
  -56294380.0817856     
  -56534490.1984145     
  -56765210.3233797     
  -56982640.8518345     
  -57182819.2782095     
  -57361712.2767799     
  -57515343.7060860     
  -57639828.6713493     
  -54385957.9519484     
  -54570779.9238319     
  -54761799.9411013     
  -54956984.5165425     
  -55154903.5835503     
  -55354219.5723607     
  -55553303.4138545     
  -55750073.5859086     
  -55941996.8001862     
  -56126160.1227490     
  -56299438.7894823     
  -56458566.5138893     
  -56600336.9372979     
  -56721593.1294373     
  -56819409.5470839     
  -54192224.0296267     
  -54326569.3960936     
  -54468313.7130061     
  -54615099.1633961     
  -54765172.6037896     
  -54917004.7182309     
  -55069015.7153299     
  -55219428.5422328     
  -55366160.2098367     
  -55506959.7743703     
  -55639340.3718532     
  -55760780.9832340     
  -55868688.9532407     
  -55960611.8516560     
  -56034392.8355125     
  -53996546.0322360     
  -54083699.8583082     
  -54178410.6237077     
  -54278460.6971662     
  -54382159.8317851     
  -54488078.6064336     
  -54594841.5695189     
  -54700979.5946085     
  -54804908.1551723     
  -54904856.2011232     
  -54998962.5967670     
  -55085285.1074578     
  -55161901.2631207     
  -55226898.9385405     
  -55278567.7572700     
  -53798685.0166913     
  -53841640.0326079     
  -53891482.1761842     
  -53946443.2168559     
  -54005173.2834565     
  -54066553.8126593     
  -54129543.7005274     
  -54193077.9379520     
  -54255996.1935412     
  -54317050.5575161     
  -54374887.5448739     
  -54428081.8938816     
  -54475252.5138715     
  -54515080.8040847     
  -54546221.8983561     
  -53599537.6777616     
  -53600671.4998711     
  -53607399.4571080     
  -53618611.1952245     
  -53633489.9432305     
  -53651384.8380854     
  -53671701.3481703     
  -53693817.8909628     
  -53717041.2949170     
  -53740587.1043747     
  -53763607.7550006     
  -53785197.9032538     
  -53804378.2098554     
  -53820235.0108514     
  -53831975.0892264     
  -53400821.9180186     
  -53361684.5320113     
  -53326418.6286451     
  -53294708.0996222     
  -53266405.6090060     
  -53241441.3969928     
  -53219743.7284161     
  -53201183.7178819     
  -53185543.3159678     
  -53172508.4107605     
  -53161674.4523372     
  -53152578.0822807     
  -53144740.6376158     
  -53137630.2109077     
  -53130781.1428661     
  -53204808.4447973     
  -53125991.6773071     
  -53049062.1203272     
  -52974599.9193039     
  -52903222.2621607     
  -52835517.2373420     
  -52771990.7334593     
  -52713035.2231879     
  -52658916.4355673     
  -52609775.8208536     
  -52565649.3752651     
  -52526493.7233233     
  -52492204.3716834     
  -52462655.6546295     
  -52437629.1032856     
  -53014121.8590610     
  -52895146.5690960     
  -52775990.9498226     
  -52658189.9675638     
  -52543195.5892859     
  -52432304.4235116     
  -52326632.2838670     
  -52227104.1519089     
  -52134460.3414162     
  -52049277.7988765     
  -51972000.3941575     
  -51902968.9894972     
  -51842448.9518905     
  -51790632.7143028     
  -51747653.3178755     
  -52831503.7189794     
  -52670802.2637907     
  -52507871.3972774     
  -52345309.4898320     
  -52185449.5073280     
  -52030331.1692825     
  -51881690.5721528     
  -51740968.8125139     
  -51609346.4350355     
  -51487790.8060026     
  -51377107.2658368     
  -51277986.4868435     
  -51191040.8059088     
  -51116828.4214896     
  -51055840.5184164     
  -52659887.8591747     
  -52454527.7763095     
  -52245213.6739151     
  -52035574.8932844     
  -51828862.6188427     
  -51627882.0923508     
  -51434963.2053205     
  -51252015.5281222     
  -51080593.3471426     
  -50921980.6097232     
  -50777278.5536097     
  -50647485.5820806     
  -50533557.6772071     
  -50436434.7497128     
  -50357019.8321301     
  -52501540.2645634     
  -52247619.3545671     
  -51988196.7090639     
  -51728222.3705570     
  -51471947.1930019     
  -51222898.9987783     
  -50983965.6879455     
  -50757425.9267420     
  -50545091.8935454     
  -50348449.9932963     
  -50168804.9744959     
  -50007406.0007451     
  -49865536.5784704     
  -49744549.8888962     
  -49645841.0994399     
  -52359098.9792394     
  -52050935.4820120     
  -51736491.2993982     
  -51422012.1526814     
  -51112701.8981642     
  -50812886.7426781     
  -50525856.5010786     
  -50254122.0247899     
  -49999575.7594797     
  -49763735.2019579     
  -49547970.4693548     
  -49353695.1312134     
  -49182495.1288850     
  -49036179.9881188     
  -48916745.4650176     
  -52234416.4414295     
  -51865059.1655786     
  -51489306.7653613     
  -51114965.3979633     
  -50748488.3050903     
  -50394741.7812518     
  -50057332.2651163     
  -49738730.8093112     
  -49440643.0274286     
  -49164368.0149105     
  -48911142.2401420     
  -48682414.7594517     
  -48480030.4786285     
  -48306305.1948004     
  -48163978.1135957     
  -52128979.5760870     
  -51689369.0827898     
  -51244548.8566941     
  -50804066.5474789     
  -50375600.9023765     
  -49964560.3701782     
  -49574524.3890243     
  -49207552.7408334     
  -48864787.3426973     
  -48546966.2828216     
  -48254911.0935979     
  -47989910.3174303     
  -47753986.1420126     
  -47550011.9970634     
  -47381657.2422824     
  -52043183.4540034     
  -51522069.9768471     
  -50998542.7170291     
  -50484570.9107225     
  -49988935.3589346     
  -49517382.4189315     
  -49072866.0674915     
  -48656537.7304107     
  -48268465.5614541     
  -47908386.4966374     
  -47576317.0014132     
  -47273086.7520499     
  -47000731.9602055     
  -46762718.6181086     
  -46563908.0060629     
  -51976811.9299185     
  -51359440.0944852     
  -50745343.3040524     
  -50149397.4371375     
  -49581500.3810202     
  -49046836.5127333     
  -48546952.9047046     
  -48081291.0988837     
  -47648221.5357483     
  -47245951.4360917     
  -46873195.2573249     
  -46529834.5307378     
  -46217609.2178237     
  -45940553.7443983     
  -45705083.5098319     
  -51928105.3892856     
  -51194829.9706713     
  -50475252.0061863     
  -49788192.1325838     
  -49143711.8621143     
  -48544866.9596238     
  -47990465.6217396     
  -47477130.9059949     
  -47000873.4637031     
  -46557775.6916111     
  -46144606.8002347     
  -45759651.0025387     
  -45403654.4142954     
  -45081023.6378427     
  -44800133.8516075     
  -51892697.8750886     
  -51015891.8924248     
  -50172474.6316446     
  -49385590.4851733     
  -48662732.1428690     
  -48001701.7699724     
  -47396242.6397729     
  -46839236.7415853     
  -46323676.9878355     
  -45843001.9625474     
  -45391466.2099945     
  -44964555.0918616     
  -44560918.8800395     
  -44184115.4064884     
  -43845277.5103123     
  -51860578.0786078     
  -50798888.7660851     
  -49810388.3363840     
  -48919321.8986854     
  -48122398.3487823     
  -47405886.0152464     
  -46756615.9991423     
  -46162916.5688880     
  -45614477.2021444     
  -45102036.1652520     
  -44616836.3200989     
  -44150673.8942950     
  -43696255.4175743     
  -43255135.0262674     
  -42838911.5885475     
  -51805962.7502902     
  -50492010.2874395     
  -49343952.6276433     
  -48361710.0302236     
  -47504843.9246514     
  -46745831.9754062     
  -46064154.7359807     
  -45443870.0263155     
  -44871786.4211193     
  -44336120.7240063     
  -43825486.5671347     
  -43327650.9251908     
  -42828377.8576328     
  -42307543.5647477     
  -41786798.5178974     
  -51611866.2642653     
  -49974266.3678354     
  -48722387.3730487     
  -47684510.0709811     
  -46793914.0078049     
  -46011887.9429050     
  -45313027.8197952     
  -44678790.5445805     
  -44094320.2945089     
  -43546495.5779172     
  -43022280.1469840     
  -42506755.2083973     
  -41979547.5407664     
  -41407229.9943894     
  -40691983.5302306     
SCALARS 2waySource double 
LOOKUP_TABLE default
  0.000000000000000E+000
  0.000000000000000E+000
  0.000000000000000E+000
  0.000000000000000E+000
  0.000000000000000E+000
  0.000000000000000E+000
  0.000000000000000E+000
  0.000000000000000E+000
  0.000000000000000E+000
  0.000000000000000E+000
  0.000000000000000E+000
  0.000000000000000E+000
  0.000000000000000E+000
  0.000000000000000E+000
  0.000000000000000E+000
  0.000000000000000E+000
  0.000000000000000E+000
  0.000000000000000E+000
  0.000000000000000E+000
  0.000000000000000E+000
  0.000000000000000E+000
  0.000000000000000E+000
  0.000000000000000E+000
  0.000000000000000E+000
  0.000000000000000E+000
  0.000000000000000E+000
  0.000000000000000E+000
  0.000000000000000E+000
  0.000000000000000E+000
  0.000000000000000E+000
  0.000000000000000E+000
  0.000000000000000E+000
  0.000000000000000E+000
  0.000000000000000E+000
  0.000000000000000E+000
  0.000000000000000E+000
  0.000000000000000E+000
  0.000000000000000E+000
  0.000000000000000E+000
  0.000000000000000E+000
  0.000000000000000E+000
  0.000000000000000E+000
  0.000000000000000E+000
  0.000000000000000E+000
  0.000000000000000E+000
  0.000000000000000E+000
  0.000000000000000E+000
  0.000000000000000E+000
  0.000000000000000E+000
  0.000000000000000E+000
  0.000000000000000E+000
  0.000000000000000E+000
  0.000000000000000E+000
  0.000000000000000E+000
  0.000000000000000E+000
  0.000000000000000E+000
  0.000000000000000E+000
  0.000000000000000E+000
  0.000000000000000E+000
  0.000000000000000E+000
  0.000000000000000E+000
  0.000000000000000E+000
  0.000000000000000E+000
  0.000000000000000E+000
  0.000000000000000E+000
  0.000000000000000E+000
  0.000000000000000E+000
  0.000000000000000E+000
  0.000000000000000E+000
  0.000000000000000E+000
  0.000000000000000E+000
  0.000000000000000E+000
  0.000000000000000E+000
  0.000000000000000E+000
  0.000000000000000E+000
  0.000000000000000E+000
  0.000000000000000E+000
  0.000000000000000E+000
  0.000000000000000E+000
  0.000000000000000E+000
  0.000000000000000E+000
  0.000000000000000E+000
  0.000000000000000E+000
  0.000000000000000E+000
  0.000000000000000E+000
  0.000000000000000E+000
  0.000000000000000E+000
  0.000000000000000E+000
  0.000000000000000E+000
  0.000000000000000E+000
  0.000000000000000E+000
  0.000000000000000E+000
  0.000000000000000E+000
  0.000000000000000E+000
  0.000000000000000E+000
  0.000000000000000E+000
  0.000000000000000E+000
  0.000000000000000E+000
  0.000000000000000E+000
  0.000000000000000E+000
  0.000000000000000E+000
  0.000000000000000E+000
  0.000000000000000E+000
  0.000000000000000E+000
  0.000000000000000E+000
  0.000000000000000E+000
  0.000000000000000E+000
  0.000000000000000E+000
  0.000000000000000E+000
  0.000000000000000E+000
  0.000000000000000E+000
  0.000000000000000E+000
  0.000000000000000E+000
  0.000000000000000E+000
  0.000000000000000E+000
  0.000000000000000E+000
  0.000000000000000E+000
  0.000000000000000E+000
  0.000000000000000E+000
  0.000000000000000E+000
  0.000000000000000E+000
  0.000000000000000E+000
  0.000000000000000E+000
  0.000000000000000E+000
  0.000000000000000E+000
  0.000000000000000E+000
  0.000000000000000E+000
  0.000000000000000E+000
  0.000000000000000E+000
  0.000000000000000E+000
  0.000000000000000E+000
  0.000000000000000E+000
  0.000000000000000E+000
  0.000000000000000E+000
  0.000000000000000E+000
  0.000000000000000E+000
  0.000000000000000E+000
  0.000000000000000E+000
  0.000000000000000E+000
  0.000000000000000E+000
  0.000000000000000E+000
  0.000000000000000E+000
  0.000000000000000E+000
  0.000000000000000E+000
  0.000000000000000E+000
  0.000000000000000E+000
  0.000000000000000E+000
  0.000000000000000E+000
  0.000000000000000E+000
  0.000000000000000E+000
  0.000000000000000E+000
  0.000000000000000E+000
  0.000000000000000E+000
  0.000000000000000E+000
  0.000000000000000E+000
  0.000000000000000E+000
  0.000000000000000E+000
  0.000000000000000E+000
  0.000000000000000E+000
  0.000000000000000E+000
  0.000000000000000E+000
  0.000000000000000E+000
  0.000000000000000E+000
  0.000000000000000E+000
  0.000000000000000E+000
  0.000000000000000E+000
  0.000000000000000E+000
  0.000000000000000E+000
  0.000000000000000E+000
  0.000000000000000E+000
  0.000000000000000E+000
  0.000000000000000E+000
  0.000000000000000E+000
  0.000000000000000E+000
  0.000000000000000E+000
  0.000000000000000E+000
  0.000000000000000E+000
  0.000000000000000E+000
  0.000000000000000E+000
  0.000000000000000E+000
  0.000000000000000E+000
  0.000000000000000E+000
  0.000000000000000E+000
  0.000000000000000E+000
  0.000000000000000E+000
  0.000000000000000E+000
  0.000000000000000E+000
  0.000000000000000E+000
  0.000000000000000E+000
  0.000000000000000E+000
  0.000000000000000E+000
  0.000000000000000E+000
  0.000000000000000E+000
  0.000000000000000E+000
  0.000000000000000E+000
  0.000000000000000E+000
  0.000000000000000E+000
  0.000000000000000E+000
  0.000000000000000E+000
  0.000000000000000E+000
  0.000000000000000E+000
  0.000000000000000E+000
  0.000000000000000E+000
  0.000000000000000E+000
  0.000000000000000E+000
  0.000000000000000E+000
  0.000000000000000E+000
  0.000000000000000E+000
  0.000000000000000E+000
  0.000000000000000E+000
  0.000000000000000E+000
  0.000000000000000E+000
  0.000000000000000E+000
  0.000000000000000E+000
  0.000000000000000E+000
  0.000000000000000E+000
  0.000000000000000E+000
  0.000000000000000E+000
  0.000000000000000E+000
  0.000000000000000E+000
  0.000000000000000E+000
  0.000000000000000E+000
  0.000000000000000E+000
  0.000000000000000E+000
  0.000000000000000E+000
  0.000000000000000E+000
  0.000000000000000E+000
  0.000000000000000E+000
  0.000000000000000E+000
  0.000000000000000E+000
  0.000000000000000E+000
  0.000000000000000E+000
  0.000000000000000E+000
  0.000000000000000E+000
  0.000000000000000E+000
  0.000000000000000E+000
  0.000000000000000E+000
  0.000000000000000E+000
  0.000000000000000E+000
  0.000000000000000E+000
  0.000000000000000E+000
  0.000000000000000E+000
  0.000000000000000E+000
  0.000000000000000E+000
  0.000000000000000E+000
  0.000000000000000E+000
  0.000000000000000E+000
  0.000000000000000E+000
  0.000000000000000E+000
  0.000000000000000E+000
  0.000000000000000E+000
  0.000000000000000E+000
  0.000000000000000E+000
  0.000000000000000E+000
  0.000000000000000E+000
  0.000000000000000E+000
  0.000000000000000E+000
  0.000000000000000E+000
  0.000000000000000E+000
  0.000000000000000E+000
  0.000000000000000E+000
  0.000000000000000E+000
  0.000000000000000E+000
  0.000000000000000E+000
  0.000000000000000E+000
  0.000000000000000E+000
  0.000000000000000E+000
  0.000000000000000E+000
  0.000000000000000E+000
  0.000000000000000E+000
  0.000000000000000E+000
  0.000000000000000E+000
  0.000000000000000E+000
  0.000000000000000E+000
  0.000000000000000E+000
  0.000000000000000E+000
  0.000000000000000E+000
  0.000000000000000E+000
  0.000000000000000E+000
  0.000000000000000E+000
  0.000000000000000E+000
  0.000000000000000E+000
  0.000000000000000E+000
  0.000000000000000E+000
  0.000000000000000E+000
  0.000000000000000E+000
  0.000000000000000E+000
  0.000000000000000E+000
  0.000000000000000E+000
  0.000000000000000E+000
  0.000000000000000E+000
  0.000000000000000E+000
  0.000000000000000E+000
  0.000000000000000E+000
  0.000000000000000E+000
  0.000000000000000E+000
  0.000000000000000E+000
  0.000000000000000E+000
  0.000000000000000E+000
  0.000000000000000E+000
  0.000000000000000E+000
  0.000000000000000E+000
  0.000000000000000E+000
  0.000000000000000E+000
  0.000000000000000E+000
  0.000000000000000E+000
  0.000000000000000E+000
  0.000000000000000E+000
  0.000000000000000E+000
  0.000000000000000E+000
  0.000000000000000E+000
  0.000000000000000E+000
  0.000000000000000E+000
  0.000000000000000E+000
  0.000000000000000E+000
  0.000000000000000E+000
  0.000000000000000E+000
  0.000000000000000E+000
  0.000000000000000E+000
  0.000000000000000E+000
  0.000000000000000E+000
  0.000000000000000E+000
  0.000000000000000E+000
  0.000000000000000E+000
  0.000000000000000E+000
  0.000000000000000E+000
  0.000000000000000E+000
  0.000000000000000E+000
  0.000000000000000E+000
  0.000000000000000E+000
  0.000000000000000E+000
  0.000000000000000E+000
  0.000000000000000E+000
  0.000000000000000E+000
  0.000000000000000E+000
  0.000000000000000E+000
  0.000000000000000E+000
  0.000000000000000E+000
  0.000000000000000E+000
  0.000000000000000E+000
  0.000000000000000E+000
  0.000000000000000E+000
  0.000000000000000E+000
  0.000000000000000E+000
  0.000000000000000E+000
  0.000000000000000E+000
  0.000000000000000E+000
  0.000000000000000E+000
  0.000000000000000E+000
  0.000000000000000E+000
  0.000000000000000E+000
  0.000000000000000E+000
  0.000000000000000E+000
  0.000000000000000E+000
  0.000000000000000E+000
  0.000000000000000E+000
  0.000000000000000E+000
  0.000000000000000E+000
  0.000000000000000E+000
  0.000000000000000E+000
  0.000000000000000E+000
  0.000000000000000E+000
  0.000000000000000E+000
  0.000000000000000E+000
  0.000000000000000E+000
  0.000000000000000E+000
  0.000000000000000E+000
  0.000000000000000E+000
  0.000000000000000E+000
  0.000000000000000E+000
  0.000000000000000E+000
  0.000000000000000E+000
  0.000000000000000E+000
  0.000000000000000E+000
  0.000000000000000E+000
  0.000000000000000E+000
  0.000000000000000E+000
  0.000000000000000E+000
  0.000000000000000E+000
  0.000000000000000E+000
  0.000000000000000E+000
  0.000000000000000E+000
  0.000000000000000E+000
  0.000000000000000E+000
  0.000000000000000E+000
  0.000000000000000E+000
  0.000000000000000E+000
  0.000000000000000E+000
  0.000000000000000E+000
  0.000000000000000E+000
  0.000000000000000E+000
  0.000000000000000E+000
  0.000000000000000E+000
  0.000000000000000E+000
  0.000000000000000E+000
  0.000000000000000E+000
  0.000000000000000E+000
  0.000000000000000E+000
  0.000000000000000E+000
  0.000000000000000E+000
  0.000000000000000E+000
  0.000000000000000E+000
  0.000000000000000E+000
  0.000000000000000E+000
  0.000000000000000E+000
  0.000000000000000E+000
  0.000000000000000E+000
  0.000000000000000E+000
  0.000000000000000E+000
  0.000000000000000E+000
  0.000000000000000E+000
  0.000000000000000E+000
  0.000000000000000E+000
  0.000000000000000E+000
  0.000000000000000E+000
  0.000000000000000E+000
  0.000000000000000E+000
  0.000000000000000E+000
  0.000000000000000E+000
  0.000000000000000E+000
  0.000000000000000E+000
  0.000000000000000E+000
  0.000000000000000E+000
  0.000000000000000E+000
  0.000000000000000E+000
  0.000000000000000E+000
  0.000000000000000E+000
  0.000000000000000E+000
  0.000000000000000E+000
  0.000000000000000E+000
  0.000000000000000E+000
  0.000000000000000E+000
  0.000000000000000E+000
  0.000000000000000E+000
  0.000000000000000E+000
  0.000000000000000E+000
  0.000000000000000E+000
  0.000000000000000E+000
  0.000000000000000E+000
  0.000000000000000E+000
  0.000000000000000E+000
  0.000000000000000E+000
  0.000000000000000E+000
  0.000000000000000E+000
  0.000000000000000E+000
  0.000000000000000E+000
  0.000000000000000E+000
  0.000000000000000E+000
  0.000000000000000E+000
  0.000000000000000E+000
SCALARS poroP double 
LOOKUP_TABLE default
  6.151668331657273E-005
  5.349744284398873E-005
  4.187068095511324E-005
  3.021911160181383E-005
  2.108323905415481E-005
  1.729265371029036E-005
  1.727237483326811E-005
  1.725081919672612E-005
  1.722820320239415E-005
  1.720452472843193E-005
  1.717955789162498E-005
  1.715321016426914E-005
  1.712546860012096E-005
  1.709632276041599E-005
  1.706575897210809E-005
  4.246835305993428E-005
  3.262065602803978E-005
  2.416095486143212E-005
  1.865646902944245E-005
  1.731118783831514E-005
  1.729226355783280E-005
  1.727195391016373E-005
  1.725038801669596E-005
  1.722776292715092E-005
  1.720415436308756E-005
  1.717931746840328E-005
  1.715311430507237E-005
  1.712555331901253E-005
  1.709661988143557E-005
  1.706629799876583E-005
  2.344535700731061E-005
  1.799496705674921E-005
  1.734388629073728E-005
  1.732806679870847E-005
  1.731053753092270E-005
  1.729149007635114E-005
  1.727111855365050E-005
  1.724954934408012E-005
  1.722695015829400E-005
  1.720345471768321E-005
  1.717883533015436E-005
  1.715292228623890E-005
  1.712572584743878E-005
  1.709722155936374E-005
  1.706738287464734E-005
  1.799349209679336E-005
  1.735773728690729E-005
  1.734344566641892E-005
  1.732733675804085E-005
  1.730958911624792E-005
  1.729036820708732E-005
  1.726991171870312E-005
  1.724835202117344E-005
  1.722580510978376E-005
  1.720244450678374E-005
  1.717812727798572E-005
  1.715265568928932E-005
  1.712600507807946E-005
  1.709814360320233E-005
  1.706902610724897E-005
  1.736990754816108E-005
  1.735742822784409E-005
  1.734287940042776E-005
  1.732644384980885E-005
  1.730838783618279E-005
  1.728895945143569E-005
  1.726839951586070E-005
  1.724688041810484E-005
  1.722435586023820E-005
  1.720111440111307E-005
  1.717722588347818E-005
  1.715235910337497E-005
  1.712642892718475E-005
  1.709940902589684E-005
  1.707124482723416E-005
  1.736921845545797E-005
  1.735662234145666E-005
  1.734193841949831E-005
  1.732532375023509E-005
  1.730700985767843E-005
  1.728736948654173E-005
  1.726674012610582E-005
  1.724524322395457E-005
  1.722274381101964E-005
  1.719959393106883E-005
  1.717616722721923E-005
  1.715205999138953E-005
  1.712702826100112E-005
  1.710105120135221E-005
  1.707406299937566E-005
  1.736763076256014E-005
  1.735502649742503E-005
  1.734034851328452E-005
  1.732375207602773E-005
  1.730543471190364E-005
  1.728567856233720E-005
  1.726496741920848E-005
  1.724353198861543E-005
  1.722117646217011E-005
  1.719810853295710E-005
  1.717504641619952E-005
  1.715178814665585E-005
  1.712782604955116E-005
  1.710309927176037E-005
  1.707750902792610E-005
  1.736480618307362E-005
  1.735233330735930E-005
  1.733783708627322E-005
  1.732147835479757E-005
  1.730344108951366E-005
  1.728390054321584E-005
  1.726314601611702E-005
  1.724175765390464E-005
  1.721981230199785E-005
  1.719696968373199E-005
  1.717405572293755E-005
  1.715159640898680E-005
  1.712887399734930E-005
  1.710557891445271E-005
  1.708160954773978E-005
  1.736039070141961E-005
  1.734822406953827E-005
  1.733411234304748E-005
  1.731822318948688E-005
  1.730071521184799E-005
  1.728173680675340E-005
  1.726132620730017E-005
  1.724009231346917E-005
  1.721868744758844E-005
  1.719649110489210E-005
  1.717368932353533E-005
  1.715164840486780E-005
  1.713018796417375E-005
  1.710850535453424E-005
  1.708638914037910E-005
  1.735401851837357E-005
  1.734235968969152E-005
  1.732886289859877E-005
  1.731368981595886E-005
  1.729698745995760E-005
  1.727886726644530E-005
  1.725939932987745E-005
  1.723880457359589E-005
  1.721784653855943E-005
  1.719662214561858E-005
  1.717452088838352E-005
  1.715249637591895E-005
  1.713182763911728E-005
  1.711188448848374E-005
  1.709185913385276E-005
  1.734531285690903E-005
  1.733438510029401E-005
  1.732176864447194E-005
  1.730760441724674E-005
  1.729202755656337E-005
  1.727514061816710E-005
  1.725703203251075E-005
  1.723760775214933E-005
  1.721734092605409E-005
  1.719713122530440E-005
  1.717649046195502E-005
  1.715506451495501E-005
  1.713442299049413E-005
  1.711569125551363E-005
  1.709800569384470E-005
  1.733384961554622E-005
  1.732394196501223E-005
  1.731252688778230E-005
  1.729972498053600E-005
  1.728564490600171E-005
  1.727037486848504E-005
  1.725394209740804E-005
  1.723631799956457E-005
  1.721747886241896E-005
  1.719814315018383E-005
  1.717892742885681E-005
  1.715928582566129E-005
  1.713922534275784E-005
  1.712057250728738E-005
  1.710476536312922E-005
  1.731921753036719E-005
  1.731068111934241E-005
  1.730085833486447E-005
  1.728983026140984E-005
  1.727766013135206E-005
  1.726439217848985E-005
  1.725003793598461E-005
  1.723457265094024E-005
  1.721790870097790E-005
  1.720009134979392E-005
  1.718195820854783E-005
  1.716401535485506E-005
  1.714590410715851E-005
  1.712795133973796E-005
  1.711301194341621E-005
  1.730104697026503E-005
  1.729428902976868E-005
  1.728650833101197E-005
  1.727771662142699E-005
  1.726791580913261E-005
  1.725709494978245E-005
  1.724522707579871E-005
  1.723225637008859E-005
  1.721811194109028E-005
  1.720276318337670E-005
  1.718636021564638E-005
  1.716964312071867E-005
  1.715326814575306E-005
  1.713755531955967E-005
  1.712362934316507E-005
  1.727903857857719E-005
  1.727450762829497E-005
  1.726925244765388E-005
  1.726320095463759E-005
  1.725627326004052E-005
  1.724838699099033E-005
  1.723945180270954E-005
  1.722936842190466E-005
  1.721805503473784E-005
  1.720548630245287E-005
  1.719175949769736E-005
  1.717719618899154E-005
  1.716255785357165E-005
  1.714866284783026E-005
  1.713538741974819E-005
  1.725298680953177E-005
  1.725113391301355E-005
  1.724890328727447E-005
  1.724612275624285E-005
  1.724260097058751E-005
  1.723816620124317E-005
  1.723264904370980E-005
  1.722589017175555E-005
  1.721777927922725E-005
  1.720829502357142E-005
  1.719754473969150E-005
  1.718577833846093E-005
  1.717338131823949E-005
  1.716072179619296E-005
  1.714774376420659E-005
  1.722277890096480E-005
  1.722401578513409E-005
  1.722533314639705E-005
  1.722636244968056E-005
  1.722676870939260E-005
  1.722628519231443E-005
  1.722464858358852E-005
  1.722163854820078E-005
  1.721712057289644E-005
  1.721106389740171E-005
  1.720353390416382E-005
  1.719465878097410E-005
  1.718456015309241E-005
  1.717330663911914E-005
  1.716100249019234E-005
  1.718828752999698E-005
  1.719311740230228E-005
  1.719856122781738E-005
  1.720385842094163E-005
  1.720861007660761E-005
  1.721246596895007E-005
  1.721508313514386E-005
  1.721619431551657E-005
  1.721563357182982E-005
  1.721332173213610E-005
  1.720923730221044E-005
  1.720337716367195E-005
  1.719572420561954E-005
  1.718628887080904E-005
  1.717515647255732E-005
  1.715054497119021E-005
  1.715884269342120E-005
  1.716867806212265E-005
  1.717852301495811E-005
  1.718782446899229E-005
  1.719622448259849E-005
  1.720335858387314E-005
  1.720891952226336E-005
  1.721266813117719E-005
  1.721443562414287E-005
  1.721409521335000E-005
  1.721154221321626E-005
  1.720669576106273E-005
  1.719952864200515E-005
  1.719010171962895E-005
  1.711308887130070E-005
  1.712315678050252E-005
  1.713599252725762E-005
  1.715013958505809E-005
  1.716392968905975E-005
  1.717688685177325E-005
  1.718868636971690E-005
  1.719896724291567E-005
  1.720738742616605E-005
  1.721364600189777E-005
  1.721748648236209E-005
  1.721870766351127E-005
  1.721717789583422E-005
  1.721284689292250E-005
  1.720576581109240E-005
  1.707497251981304E-005
  1.708743439558244E-005
  1.710190809745190E-005
  1.711877382670395E-005
  1.713648888758952E-005
  1.715375600605130E-005
  1.717022364373505E-005
  1.718544022432710E-005
  1.719892030247275E-005
  1.721016928347178E-005
  1.721875672528084E-005
  1.722436523796008E-005
  1.722680829715202E-005
  1.722602601354734E-005
  1.722206575244818E-005
  1.703483395848225E-005
  1.705020864674627E-005
  1.706669397036032E-005
  1.708500387608439E-005
  1.710539004132316E-005
  1.712641365775150E-005
  1.714727400065888E-005
  1.716749761439690E-005
  1.718637147262674E-005
  1.720313956212122E-005
  1.721713490628686E-005
  1.722788209040123E-005
  1.723512336666146E-005
  1.723878056760533E-005
  1.723888950236504E-005
  1.699399408153828E-005
  1.701137757382661E-005
  1.702972455427228E-005
  1.704908595516387E-005
  1.707086716696088E-005
  1.709466268495561E-005
  1.711940019437864E-005
  1.714442421390326E-005
  1.716881997852012E-005
  1.719154895073921E-005
  1.721165842317291E-005
  1.722844941274888E-005
  1.724153010456841E-005
  1.725074774306234E-005
  1.725609662348292E-005
  1.695512293836246E-005
  1.697218112593623E-005
  1.699110836922086E-005
  1.701107040783982E-005
  1.703320630601676E-005
  1.705868300697076E-005
  1.708653400808346E-005
  1.711572988185476E-005
  1.714536035976558E-005
  1.717422348478512E-005
  1.720111592935558E-005
  1.722503288731577E-005
  1.724527376156680E-005
  1.726146710242340E-005
  1.727351770956204E-005
  1.691818416693939E-005
  1.693384272762212E-005
  1.695155458704188E-005
  1.697129815352897E-005
  1.699332814906495E-005
  1.701931890588477E-005
  1.704905655896006E-005
  1.708131337716682E-005
  1.711526328736624E-005
  1.714993116544383E-005
  1.718409713399281E-005
  1.721633713472709E-005
  1.724534928413329E-005
  1.727031187849382E-005
  1.729092234635387E-005
  1.688212007329634E-005
  1.689598978872570E-005
  1.691171680958588E-005
  1.693055769705298E-005
  1.695245437478766E-005
  1.697796920325545E-005
  1.700791808566953E-005
  1.704163689598166E-005
  1.707839690471204E-005
  1.711787448843667E-005
  1.715919863327525E-005
  1.720069226682778E-005
  1.724028481512404E-005
  1.727633174791264E-005
  1.730796216627402E-005
  1.684649920774991E-005
  1.685789989739231E-005
  1.687170360103138E-005
  1.688976049902247E-005
  1.691149527981028E-005
  1.693607657360234E-005
  1.696457075950192E-005
  1.699781165736140E-005
  1.703576943228614E-005
  1.707833739795576E-005
  1.712534705998853E-005
  1.717592373529152E-005
  1.722785996335454E-005
  1.727800678472200E-005
  1.732411562083091E-005
  1.681103425743315E-005
  1.681961638948536E-005
  1.683232066509099E-005
  1.684962214102807E-005
  1.687080727638783E-005
  1.689442891120334E-005
  1.692082872490229E-005
  1.695197661364221E-005
  1.698916398774660E-005
  1.703270353106080E-005
  1.708292556516043E-005
  1.714038072185327E-005
  1.720475713473101E-005
  1.727262449923960E-005
  1.733839104961829E-005
  1.677472321296133E-005
  1.678273164855121E-005
  1.679528029383840E-005
  1.681069930533397E-005
  1.682974185743654E-005
  1.685195013868169E-005
  1.687720144638991E-005
  1.690654334106781E-005
  1.694154605644108E-005
  1.698395719423363E-005
  1.703469226137223E-005
  1.709529242774814E-005
  1.716800379142891E-005
  1.725410968556755E-005
  1.734841926948959E-005
  1.674223229449198E-005
  1.674900217865936E-005
  1.675917198758510E-005
  1.677234847008001E-005
  1.678819709968681E-005
  1.680829949380219E-005
  1.683299169468708E-005
  1.686194621060494E-005
  1.689578496208762E-005
  1.693599248869722E-005
  1.698521170392248E-005
  1.704592028965537E-005
  1.712110503777190E-005
  1.721677814352317E-005
  1.734466384322242E-005
SCALARS elementIsPlast double 
LOOKUP_TABLE default
   1.00000000000000     
   1.00000000000000     
   1.00000000000000     
   1.00000000000000     
   1.00000000000000     
  0.000000000000000E+000
  0.000000000000000E+000
  0.000000000000000E+000
  0.000000000000000E+000
  0.000000000000000E+000
  0.000000000000000E+000
  0.000000000000000E+000
  0.000000000000000E+000
  0.000000000000000E+000
  0.000000000000000E+000
   1.00000000000000     
   1.00000000000000     
   1.00000000000000     
   1.00000000000000     
  0.000000000000000E+000
  0.000000000000000E+000
  0.000000000000000E+000
  0.000000000000000E+000
  0.000000000000000E+000
  0.000000000000000E+000
  0.000000000000000E+000
  0.000000000000000E+000
  0.000000000000000E+000
  0.000000000000000E+000
  0.000000000000000E+000
   1.00000000000000     
   1.00000000000000     
  0.000000000000000E+000
  0.000000000000000E+000
  0.000000000000000E+000
  0.000000000000000E+000
  0.000000000000000E+000
  0.000000000000000E+000
  0.000000000000000E+000
  0.000000000000000E+000
  0.000000000000000E+000
  0.000000000000000E+000
  0.000000000000000E+000
  0.000000000000000E+000
  0.000000000000000E+000
   1.00000000000000     
  0.000000000000000E+000
  0.000000000000000E+000
  0.000000000000000E+000
  0.000000000000000E+000
  0.000000000000000E+000
  0.000000000000000E+000
  0.000000000000000E+000
  0.000000000000000E+000
  0.000000000000000E+000
  0.000000000000000E+000
  0.000000000000000E+000
  0.000000000000000E+000
  0.000000000000000E+000
  0.000000000000000E+000
  0.000000000000000E+000
  0.000000000000000E+000
  0.000000000000000E+000
  0.000000000000000E+000
  0.000000000000000E+000
  0.000000000000000E+000
  0.000000000000000E+000
  0.000000000000000E+000
  0.000000000000000E+000
  0.000000000000000E+000
  0.000000000000000E+000
  0.000000000000000E+000
  0.000000000000000E+000
  0.000000000000000E+000
  0.000000000000000E+000
  0.000000000000000E+000
  0.000000000000000E+000
  0.000000000000000E+000
  0.000000000000000E+000
  0.000000000000000E+000
  0.000000000000000E+000
  0.000000000000000E+000
  0.000000000000000E+000
  0.000000000000000E+000
  0.000000000000000E+000
  0.000000000000000E+000
  0.000000000000000E+000
  0.000000000000000E+000
  0.000000000000000E+000
  0.000000000000000E+000
  0.000000000000000E+000
  0.000000000000000E+000
  0.000000000000000E+000
  0.000000000000000E+000
  0.000000000000000E+000
  0.000000000000000E+000
  0.000000000000000E+000
  0.000000000000000E+000
  0.000000000000000E+000
  0.000000000000000E+000
  0.000000000000000E+000
  0.000000000000000E+000
  0.000000000000000E+000
  0.000000000000000E+000
  0.000000000000000E+000
  0.000000000000000E+000
  0.000000000000000E+000
  0.000000000000000E+000
  0.000000000000000E+000
  0.000000000000000E+000
  0.000000000000000E+000
  0.000000000000000E+000
  0.000000000000000E+000
  0.000000000000000E+000
  0.000000000000000E+000
  0.000000000000000E+000
  0.000000000000000E+000
  0.000000000000000E+000
  0.000000000000000E+000
  0.000000000000000E+000
  0.000000000000000E+000
  0.000000000000000E+000
  0.000000000000000E+000
  0.000000000000000E+000
  0.000000000000000E+000
  0.000000000000000E+000
  0.000000000000000E+000
  0.000000000000000E+000
  0.000000000000000E+000
  0.000000000000000E+000
  0.000000000000000E+000
  0.000000000000000E+000
  0.000000000000000E+000
  0.000000000000000E+000
  0.000000000000000E+000
  0.000000000000000E+000
  0.000000000000000E+000
  0.000000000000000E+000
  0.000000000000000E+000
  0.000000000000000E+000
  0.000000000000000E+000
  0.000000000000000E+000
  0.000000000000000E+000
  0.000000000000000E+000
  0.000000000000000E+000
  0.000000000000000E+000
  0.000000000000000E+000
  0.000000000000000E+000
  0.000000000000000E+000
  0.000000000000000E+000
  0.000000000000000E+000
  0.000000000000000E+000
  0.000000000000000E+000
  0.000000000000000E+000
  0.000000000000000E+000
  0.000000000000000E+000
  0.000000000000000E+000
  0.000000000000000E+000
  0.000000000000000E+000
  0.000000000000000E+000
  0.000000000000000E+000
  0.000000000000000E+000
  0.000000000000000E+000
  0.000000000000000E+000
  0.000000000000000E+000
  0.000000000000000E+000
  0.000000000000000E+000
  0.000000000000000E+000
  0.000000000000000E+000
  0.000000000000000E+000
  0.000000000000000E+000
  0.000000000000000E+000
  0.000000000000000E+000
  0.000000000000000E+000
  0.000000000000000E+000
  0.000000000000000E+000
  0.000000000000000E+000
  0.000000000000000E+000
  0.000000000000000E+000
  0.000000000000000E+000
  0.000000000000000E+000
  0.000000000000000E+000
  0.000000000000000E+000
  0.000000000000000E+000
  0.000000000000000E+000
  0.000000000000000E+000
  0.000000000000000E+000
  0.000000000000000E+000
  0.000000000000000E+000
  0.000000000000000E+000
  0.000000000000000E+000
  0.000000000000000E+000
  0.000000000000000E+000
  0.000000000000000E+000
  0.000000000000000E+000
  0.000000000000000E+000
  0.000000000000000E+000
  0.000000000000000E+000
  0.000000000000000E+000
  0.000000000000000E+000
  0.000000000000000E+000
  0.000000000000000E+000
  0.000000000000000E+000
  0.000000000000000E+000
  0.000000000000000E+000
  0.000000000000000E+000
  0.000000000000000E+000
  0.000000000000000E+000
  0.000000000000000E+000
  0.000000000000000E+000
  0.000000000000000E+000
  0.000000000000000E+000
  0.000000000000000E+000
  0.000000000000000E+000
  0.000000000000000E+000
  0.000000000000000E+000
  0.000000000000000E+000
  0.000000000000000E+000
  0.000000000000000E+000
  0.000000000000000E+000
  0.000000000000000E+000
  0.000000000000000E+000
  0.000000000000000E+000
  0.000000000000000E+000
  0.000000000000000E+000
  0.000000000000000E+000
  0.000000000000000E+000
  0.000000000000000E+000
  0.000000000000000E+000
  0.000000000000000E+000
  0.000000000000000E+000
  0.000000000000000E+000
  0.000000000000000E+000
  0.000000000000000E+000
  0.000000000000000E+000
  0.000000000000000E+000
  0.000000000000000E+000
  0.000000000000000E+000
  0.000000000000000E+000
  0.000000000000000E+000
  0.000000000000000E+000
  0.000000000000000E+000
  0.000000000000000E+000
  0.000000000000000E+000
  0.000000000000000E+000
  0.000000000000000E+000
  0.000000000000000E+000
  0.000000000000000E+000
  0.000000000000000E+000
  0.000000000000000E+000
  0.000000000000000E+000
  0.000000000000000E+000
  0.000000000000000E+000
  0.000000000000000E+000
  0.000000000000000E+000
  0.000000000000000E+000
  0.000000000000000E+000
  0.000000000000000E+000
  0.000000000000000E+000
  0.000000000000000E+000
  0.000000000000000E+000
  0.000000000000000E+000
  0.000000000000000E+000
  0.000000000000000E+000
  0.000000000000000E+000
  0.000000000000000E+000
  0.000000000000000E+000
  0.000000000000000E+000
  0.000000000000000E+000
  0.000000000000000E+000
  0.000000000000000E+000
  0.000000000000000E+000
  0.000000000000000E+000
  0.000000000000000E+000
  0.000000000000000E+000
  0.000000000000000E+000
  0.000000000000000E+000
  0.000000000000000E+000
  0.000000000000000E+000
  0.000000000000000E+000
  0.000000000000000E+000
  0.000000000000000E+000
  0.000000000000000E+000
  0.000000000000000E+000
  0.000000000000000E+000
  0.000000000000000E+000
  0.000000000000000E+000
  0.000000000000000E+000
  0.000000000000000E+000
  0.000000000000000E+000
  0.000000000000000E+000
  0.000000000000000E+000
  0.000000000000000E+000
  0.000000000000000E+000
  0.000000000000000E+000
  0.000000000000000E+000
  0.000000000000000E+000
  0.000000000000000E+000
  0.000000000000000E+000
  0.000000000000000E+000
  0.000000000000000E+000
  0.000000000000000E+000
  0.000000000000000E+000
  0.000000000000000E+000
  0.000000000000000E+000
  0.000000000000000E+000
  0.000000000000000E+000
  0.000000000000000E+000
  0.000000000000000E+000
  0.000000000000000E+000
  0.000000000000000E+000
  0.000000000000000E+000
  0.000000000000000E+000
  0.000000000000000E+000
  0.000000000000000E+000
  0.000000000000000E+000
  0.000000000000000E+000
  0.000000000000000E+000
  0.000000000000000E+000
  0.000000000000000E+000
  0.000000000000000E+000
  0.000000000000000E+000
  0.000000000000000E+000
  0.000000000000000E+000
  0.000000000000000E+000
  0.000000000000000E+000
  0.000000000000000E+000
  0.000000000000000E+000
  0.000000000000000E+000
  0.000000000000000E+000
  0.000000000000000E+000
  0.000000000000000E+000
  0.000000000000000E+000
  0.000000000000000E+000
  0.000000000000000E+000
  0.000000000000000E+000
  0.000000000000000E+000
  0.000000000000000E+000
  0.000000000000000E+000
  0.000000000000000E+000
  0.000000000000000E+000
  0.000000000000000E+000
  0.000000000000000E+000
  0.000000000000000E+000
  0.000000000000000E+000
  0.000000000000000E+000
  0.000000000000000E+000
  0.000000000000000E+000
  0.000000000000000E+000
  0.000000000000000E+000
  0.000000000000000E+000
  0.000000000000000E+000
  0.000000000000000E+000
  0.000000000000000E+000
  0.000000000000000E+000
  0.000000000000000E+000
  0.000000000000000E+000
  0.000000000000000E+000
  0.000000000000000E+000
  0.000000000000000E+000
  0.000000000000000E+000
  0.000000000000000E+000
  0.000000000000000E+000
  0.000000000000000E+000
  0.000000000000000E+000
  0.000000000000000E+000
  0.000000000000000E+000
  0.000000000000000E+000
  0.000000000000000E+000
  0.000000000000000E+000
  0.000000000000000E+000
  0.000000000000000E+000
  0.000000000000000E+000
  0.000000000000000E+000
  0.000000000000000E+000
  0.000000000000000E+000
  0.000000000000000E+000
  0.000000000000000E+000
  0.000000000000000E+000
  0.000000000000000E+000
  0.000000000000000E+000
  0.000000000000000E+000
  0.000000000000000E+000
  0.000000000000000E+000
  0.000000000000000E+000
  0.000000000000000E+000
  0.000000000000000E+000
  0.000000000000000E+000
  0.000000000000000E+000
  0.000000000000000E+000
  0.000000000000000E+000
  0.000000000000000E+000
  0.000000000000000E+000
  0.000000000000000E+000
  0.000000000000000E+000
  0.000000000000000E+000
  0.000000000000000E+000
  0.000000000000000E+000
  0.000000000000000E+000
  0.000000000000000E+000
  0.000000000000000E+000
  0.000000000000000E+000
  0.000000000000000E+000
  0.000000000000000E+000
  0.000000000000000E+000
  0.000000000000000E+000
  0.000000000000000E+000
  0.000000000000000E+000
  0.000000000000000E+000
  0.000000000000000E+000
  0.000000000000000E+000
  0.000000000000000E+000
  0.000000000000000E+000
  0.000000000000000E+000
  0.000000000000000E+000
  0.000000000000000E+000
  0.000000000000000E+000
  0.000000000000000E+000
  0.000000000000000E+000
  0.000000000000000E+000
  0.000000000000000E+000
  0.000000000000000E+000
  0.000000000000000E+000
  0.000000000000000E+000
  0.000000000000000E+000
  0.000000000000000E+000
  0.000000000000000E+000
  0.000000000000000E+000
  0.000000000000000E+000
  0.000000000000000E+000
  0.000000000000000E+000
  0.000000000000000E+000
  0.000000000000000E+000
  0.000000000000000E+000
  0.000000000000000E+000
  0.000000000000000E+000
  0.000000000000000E+000
  0.000000000000000E+000
  0.000000000000000E+000
  0.000000000000000E+000
  0.000000000000000E+000
  0.000000000000000E+000
  0.000000000000000E+000
  0.000000000000000E+000
  0.000000000000000E+000
  0.000000000000000E+000
  0.000000000000000E+000
  0.000000000000000E+000
  0.000000000000000E+000
  0.000000000000000E+000
SCALARS poroL double 
LOOKUP_TABLE default
  0.156118568912449     
  0.156112982458541     
  0.156100178216763     
  0.156082660044121     
  0.156062820953854     
  0.156046578281324     
  0.156036457947008     
  0.156028988135015     
  0.156022799377540     
  0.156017384979323     
  0.156012444348332     
  0.156007746780823     
  0.156003052120794     
  0.155998021004948     
  0.155991721151562     
  0.156081332158403     
  0.156068300084439     
  0.156056346080597     
  0.156047020062907     
  0.156040683988872     
  0.156034252869187     
  0.156026791374305     
  0.156020126580155     
  0.156014351872621     
  0.156009199079556     
  0.156004466659064     
  0.155999980711077     
  0.155995573890350     
  0.155991039318167     
  0.155986574010307     
  0.156044564674926     
  0.156034741170470     
  0.156031777346784     
  0.156030155469957     
  0.156026572734682     
  0.156021498532608     
  0.156015996046669     
  0.156010494310938     
  0.156005378940823     
  0.156000679872029     
  0.155996318669805     
  0.155992206215043     
  0.155988262415777     
  0.155984495416142     
  0.155981017632176     
  0.156027562326554     
  0.156023450362881     
  0.156020086602290     
  0.156016965367311     
  0.156013544142837     
  0.156009471088743     
  0.156004991706783     
  0.156000452589794     
  0.155996051670762     
  0.155991896660598     
  0.155988001063377     
  0.155984346518686     
  0.155980929200498     
  0.155977786785254     
  0.155975026840002     
  0.156014683476310     
  0.156011229121688     
  0.156007917798780     
  0.156004719612099     
  0.156001403172985     
  0.155997855511070     
  0.155994102211108     
  0.155990279048626     
  0.155986523057799     
  0.155982920988859     
  0.155979520021456     
  0.155976344554232     
  0.155973422241957     
  0.155970804476310     
  0.155968574484577     
  0.156001849254754     
  0.155998704957792     
  0.155995692628450     
  0.155992706331594     
  0.155989677431487     
  0.155986551307745     
  0.155983337305896     
  0.155980092948299     
  0.155976894503183     
  0.155973809948862     
  0.155970889609043     
  0.155968172905760     
  0.155965699910249     
  0.155963521201328     
  0.155961702040232     
  0.155988858215101     
  0.155986153032044     
  0.155983484167459     
  0.155980829424879     
  0.155978151156349     
  0.155975432151420     
  0.155972679451362     
  0.155969925608733     
  0.155967217063067     
  0.155964602984500     
  0.155962128691778     
  0.155959835087531     
  0.155957762624636     
  0.155955956546933     
  0.155954467317241     
  0.155975887900603     
  0.155973612423129     
  0.155971335791368     
  0.155969050929317     
  0.155966749907354     
  0.155964429484106     
  0.155962099648473     
  0.155959783624255     
  0.155957513717901     
  0.155955326130632     
  0.155953258985963     
  0.155951349147893     
  0.155949632795147     
  0.155948147691675     
  0.155946932644533     
  0.155962984575885     
  0.155961138463967     
  0.155959261014238     
  0.155957360885792     
  0.155955442287469     
  0.155953511416903     
  0.155951579771462     
  0.155949666678213     
  0.155947797138447     
  0.155945999097488     
  0.155944302771401     
  0.155942740040141     
  0.155941341783158     
  0.155940137820211     
  0.155939157862446     
  0.155950191417118     
  0.155948757681676     
  0.155947274123193     
  0.155945756619486     
  0.155944216381804     
  0.155942663866574     
  0.155941111725632     
  0.155939576237969     
  0.155938077697110     
  0.155936638647770     
  0.155935282554922     
  0.155934035535298     
  0.155932923569729     
  0.155931970349577     
  0.155931197608178     
  0.155937532041776     
  0.155936487309711     
  0.155935383652945     
  0.155934239421095     
  0.155933068299780     
  0.155931882214445     
  0.155930693460001     
  0.155929515662534     
  0.155928365365599     
  0.155927260828614     
  0.155926220735770     
  0.155925264166343     
  0.155924412672789     
  0.155923686282875     
  0.155923100759303     
  0.155925015326937     
  0.155924334624545     
  0.155923593957046     
  0.155922810572297     
  0.155921997645377     
  0.155921166320491     
  0.155920327261989     
  0.155919491795659     
  0.155918672136893     
  0.155917882675326     
  0.155917138389093     
  0.155916453715313     
  0.155915843489478     
  0.155915324284096     
  0.155914910727653     
  0.155912638144377     
  0.155912298805910     
  0.155911904873845     
  0.155911470096404     
  0.155911004984045     
  0.155910518246389     
  0.155910017961673     
  0.155909512352835     
  0.155909010310318     
  0.155908521528291     
  0.155908057302496     
  0.155907629146261     
  0.155907247365174     
  0.155906922466058     
  0.155906667681405     
  0.155900388317843     
  0.155900372463106     
  0.155900312225109     
  0.155900216219316     
  0.155900090792965     
  0.155899941002869     
  0.155899771454375     
  0.155899586929512     
  0.155899392743116     
  0.155899194949535     
  0.155899000266163     
  0.155898816441424     
  0.155898651705364     
  0.155898513442443     
  0.155898408910418     
  0.155888247089006     
  0.155888543243873     
  0.155888808566965     
  0.155889045478184     
  0.155889255092485     
  0.155889437925065     
  0.155889594496710     
  0.155889725756567     
  0.155889833354350     
  0.155889919732115     
  0.155889988146878     
  0.155890042528700     
  0.155890087361261     
  0.155890127590145     
  0.155890166704017     
  0.155876191224538     
  0.155876795286751     
  0.155877384129269     
  0.155877953176382     
  0.155878497550037     
  0.155879012615544     
  0.155879494371436     
  0.155879939696495     
  0.155880346490657     
  0.155880713695635     
  0.155881041189543     
  0.155881329599856     
  0.155881580155618     
  0.155881794226664     
  0.155881973467234     
  0.155864194564224     
  0.155865110629685     
  0.155866027839265     
  0.155866934075903     
  0.155867817896493     
  0.155868669121183     
  0.155869478962802     
  0.155870240142706     
  0.155870946885640     
  0.155871594773482     
  0.155872180504385     
  0.155872701627884     
  0.155873156263537     
  0.155873543034277     
  0.155873861050232     
  0.155852229755343     
  0.155853470384144     
  0.155854728453355     
  0.155855983274734     
  0.155857216564952     
  0.155858412344679     
  0.155859556975553     
  0.155860639161406     
  0.155861649708428     
  0.155862581145981     
  0.155863427303920     
  0.155864182908856     
  0.155864843272025     
  0.155865404144239     
  0.155865861861569     
  0.155840268866546     
  0.155841856489021     
  0.155843475741582     
  0.155845097240027     
  0.155846695484976     
  0.155848248601289     
  0.155849738361232     
  0.155851149824196     
  0.155852470847011     
  0.155853691432842     
  0.155854803028842     
  0.155855797891881     
  0.155856668625391     
  0.155857408006075     
  0.155858009177664     
  0.155828291369642     
  0.155830254303134     
  0.155832262001543     
  0.155834274996274     
  0.155836258985035     
  0.155838186417115     
  0.155840034811820     
  0.155841786334357     
  0.155843426753137     
  0.155844944379905     
  0.155846328964904     
  0.155847570738257     
  0.155848659732511     
  0.155849585522291     
  0.155850337456562     
  0.155816269169412     
  0.155818651741900     
  0.155821084314108     
  0.155823519292138     
  0.155825915171227     
  0.155828237438850     
  0.155830460495144     
  0.155832564626859     
  0.155834534839064     
  0.155836359008013     
  0.155838026204820     
  0.155839525277091     
  0.155840843875317     
  0.155841968054416     
  0.155842882540789     
  0.155804179596065     
  0.155807035796122     
  0.155809941974325     
  0.155812838873380     
  0.155815677175723     
  0.155818418073607     
  0.155821033081134     
  0.155823502766602     
  0.155825813341201     
  0.155827954096223     
  0.155829914891229     
  0.155831684140674     
  0.155833247430902     
  0.155834586904682     
  0.155835681559849     
  0.155792005290916     
  0.155795403902406     
  0.155798843227326     
  0.155802249957022     
  0.155805566504700     
  0.155808750925971     
  0.155811774668795     
  0.155814621279143     
  0.155817281097934     
  0.155819747444734     
  0.155822013081200     
  0.155824067430159     
  0.155825894579071     
  0.155827472307459     
  0.155828772419319     
  0.155779738479172     
  0.155783763705570     
  0.155787809047502     
  0.155791781692957     
  0.155795615315634     
  0.155799266943781     
  0.155802712938660     
  0.155805943454196     
  0.155808957089509     
  0.155811754696100     
  0.155814334972817     
  0.155816690562804     
  0.155818805135339     
  0.155820651694151     
  0.155822192788889     
  0.155767373235736     
  0.155772137507978     
  0.155776878328798     
  0.155781481351206     
  0.155785870774997     
  0.155790008456193     
  0.155793882325103     
  0.155797495483075     
  0.155800859665454     
  0.155803987710763     
  0.155806888310704     
  0.155809560977958     
  0.155811991057056     
  0.155814146729978     
  0.155815978389220     
  0.155754914359574     
  0.155760568410457     
  0.155766118658912     
  0.155771421704172     
  0.155776400175465     
  0.155781031184580     
  0.155785324751090     
  0.155789306211773     
  0.155793005543462     
  0.155796452573614     
  0.155799671299431     
  0.155802673261732     
  0.155805450677556     
  0.155807968043539     
  0.155810160114774     
  0.155742387215975     
  0.155749142889963     
  0.155755643866769     
  0.155761714090980     
  0.155767295429391     
  0.155772404000425     
  0.155777089023544     
  0.155781406101514     
  0.155785409115647     
  0.155789148440436     
  0.155792668112389     
  0.155796001997193     
  0.155799158290584     
  0.155802106511867     
  0.155804758832237     
  0.155729860650940     
  0.155738035715380     
  0.155745651699059     
  0.155752522707671     
  0.155758673403652     
  0.155764207993457     
  0.155769228130480     
  0.155773825574073     
  0.155778080931735     
  0.155782065763672     
  0.155785847766433     
  0.155789490602033     
  0.155793050073172     
  0.155796510822988     
  0.155799778099442     
  0.155717524051416     
  0.155727639099817     
  0.155736482445359     
  0.155744053137831     
  0.155750663022584     
  0.155756523361061     
  0.155761791876280     
  0.155766592249834     
  0.155771027525457     
  0.155775190091275     
  0.155779168450684     
  0.155783058245901     
  0.155786971232740     
  0.155791063502929     
  0.155795163375958     
  0.155706274018588     
  0.155718877592845     
  0.155728517443311     
  0.155736514135109     
  0.155743380571079     
  0.155749416113069     
  0.155754816513301     
  0.155759724083619     
  0.155764253721532     
  0.155768507846039     
  0.155772589378662     
  0.155776615556712     
  0.155780746083971     
  0.155785244103355     
  0.155790873813979     
