# vtk DataFile Version 3.0
vtk output
ASCII
DATASET UNSTRUCTURED_GRID
POINTS       496 double 
  0.00000000E+00  3.00000000E+02  0.00000000E+00
  0.00000000E+00  2.80000000E+02  0.00000000E+00
  0.00000000E+00  2.60000000E+02  0.00000000E+00
  0.00000000E+00  2.40000000E+02  0.00000000E+00
  0.00000000E+00  2.20000000E+02  0.00000000E+00
  0.00000000E+00  2.00000000E+02  0.00000000E+00
  0.00000000E+00  1.80000000E+02  0.00000000E+00
  0.00000000E+00  1.60000000E+02  0.00000000E+00
  0.00000000E+00  1.40000000E+02  0.00000000E+00
  0.00000000E+00  1.20000000E+02  0.00000000E+00
  0.00000000E+00  1.00000000E+02  0.00000000E+00
  0.00000000E+00  8.00000000E+01  0.00000000E+00
  0.00000000E+00  6.00000000E+01  0.00000000E+00
  0.00000000E+00  4.00000000E+01  0.00000000E+00
  0.00000000E+00  2.00000000E+01  0.00000000E+00
  0.00000000E+00  4.99600361E-14  0.00000000E+00
  2.00000000E+01  3.00000000E+02  0.00000000E+00
  2.00000000E+01  2.80000000E+02  0.00000000E+00
  2.00000000E+01  2.60000000E+02  0.00000000E+00
  2.00000000E+01  2.40000000E+02  0.00000000E+00
  2.00000000E+01  2.20000000E+02  0.00000000E+00
  2.00000000E+01  2.00000000E+02  0.00000000E+00
  2.00000000E+01  1.80000000E+02  0.00000000E+00
  2.00000000E+01  1.60000000E+02  0.00000000E+00
  2.00000000E+01  1.40000000E+02  0.00000000E+00
  2.00000000E+01  1.20000000E+02  0.00000000E+00
  2.00000000E+01  1.00000000E+02  0.00000000E+00
  2.00000000E+01  8.00000000E+01  0.00000000E+00
  2.00000000E+01  6.00000000E+01  0.00000000E+00
  2.00000000E+01  4.00000000E+01  0.00000000E+00
  2.00000000E+01  2.00000000E+01  0.00000000E+00
  2.00000000E+01  4.99600361E-14  0.00000000E+00
  4.00000000E+01  3.00000000E+02  0.00000000E+00
  4.00000000E+01  2.80000000E+02  0.00000000E+00
  4.00000000E+01  2.60000000E+02  0.00000000E+00
  4.00000000E+01  2.40000000E+02  0.00000000E+00
  4.00000000E+01  2.20000000E+02  0.00000000E+00
  4.00000000E+01  2.00000000E+02  0.00000000E+00
  4.00000000E+01  1.80000000E+02  0.00000000E+00
  4.00000000E+01  1.60000000E+02  0.00000000E+00
  4.00000000E+01  1.40000000E+02  0.00000000E+00
  4.00000000E+01  1.20000000E+02  0.00000000E+00
  4.00000000E+01  1.00000000E+02  0.00000000E+00
  4.00000000E+01  8.00000000E+01  0.00000000E+00
  4.00000000E+01  6.00000000E+01  0.00000000E+00
  4.00000000E+01  4.00000000E+01  0.00000000E+00
  4.00000000E+01  2.00000000E+01  0.00000000E+00
  4.00000000E+01  4.99600361E-14  0.00000000E+00
  6.00000000E+01  3.00000000E+02  0.00000000E+00
  6.00000000E+01  2.80000000E+02  0.00000000E+00
  6.00000000E+01  2.60000000E+02  0.00000000E+00
  6.00000000E+01  2.40000000E+02  0.00000000E+00
  6.00000000E+01  2.20000000E+02  0.00000000E+00
  6.00000000E+01  2.00000000E+02  0.00000000E+00
  6.00000000E+01  1.80000000E+02  0.00000000E+00
  6.00000000E+01  1.60000000E+02  0.00000000E+00
  6.00000000E+01  1.40000000E+02  0.00000000E+00
  6.00000000E+01  1.20000000E+02  0.00000000E+00
  6.00000000E+01  1.00000000E+02  0.00000000E+00
  6.00000000E+01  8.00000000E+01  0.00000000E+00
  6.00000000E+01  6.00000000E+01  0.00000000E+00
  6.00000000E+01  4.00000000E+01  0.00000000E+00
  6.00000000E+01  2.00000000E+01  0.00000000E+00
  6.00000000E+01  4.99600361E-14  0.00000000E+00
  8.00000000E+01  3.00000000E+02  0.00000000E+00
  8.00000000E+01  2.80000000E+02  0.00000000E+00
  8.00000000E+01  2.60000000E+02  0.00000000E+00
  8.00000000E+01  2.40000000E+02  0.00000000E+00
  8.00000000E+01  2.20000000E+02  0.00000000E+00
  8.00000000E+01  2.00000000E+02  0.00000000E+00
  8.00000000E+01  1.80000000E+02  0.00000000E+00
  8.00000000E+01  1.60000000E+02  0.00000000E+00
  8.00000000E+01  1.40000000E+02  0.00000000E+00
  8.00000000E+01  1.20000000E+02  0.00000000E+00
  8.00000000E+01  1.00000000E+02  0.00000000E+00
  8.00000000E+01  8.00000000E+01  0.00000000E+00
  8.00000000E+01  6.00000000E+01  0.00000000E+00
  8.00000000E+01  4.00000000E+01  0.00000000E+00
  8.00000000E+01  2.00000000E+01  0.00000000E+00
  8.00000000E+01  4.99600361E-14  0.00000000E+00
  1.00000000E+02  3.00000000E+02  0.00000000E+00
  1.00000000E+02  2.80000000E+02  0.00000000E+00
  1.00000000E+02  2.60000000E+02  0.00000000E+00
  1.00000000E+02  2.40000000E+02  0.00000000E+00
  1.00000000E+02  2.20000000E+02  0.00000000E+00
  1.00000000E+02  2.00000000E+02  0.00000000E+00
  1.00000000E+02  1.80000000E+02  0.00000000E+00
  1.00000000E+02  1.60000000E+02  0.00000000E+00
  1.00000000E+02  1.40000000E+02  0.00000000E+00
  1.00000000E+02  1.20000000E+02  0.00000000E+00
  1.00000000E+02  1.00000000E+02  0.00000000E+00
  1.00000000E+02  8.00000000E+01  0.00000000E+00
  1.00000000E+02  6.00000000E+01  0.00000000E+00
  1.00000000E+02  4.00000000E+01  0.00000000E+00
  1.00000000E+02  2.00000000E+01  0.00000000E+00
  1.00000000E+02  4.99600361E-14  0.00000000E+00
  1.20000000E+02  3.00000000E+02  0.00000000E+00
  1.20000000E+02  2.80000000E+02  0.00000000E+00
  1.20000000E+02  2.60000000E+02  0.00000000E+00
  1.20000000E+02  2.40000000E+02  0.00000000E+00
  1.20000000E+02  2.20000000E+02  0.00000000E+00
  1.20000000E+02  2.00000000E+02  0.00000000E+00
  1.20000000E+02  1.80000000E+02  0.00000000E+00
  1.20000000E+02  1.60000000E+02  0.00000000E+00
  1.20000000E+02  1.40000000E+02  0.00000000E+00
  1.20000000E+02  1.20000000E+02  0.00000000E+00
  1.20000000E+02  1.00000000E+02  0.00000000E+00
  1.20000000E+02  8.00000000E+01  0.00000000E+00
  1.20000000E+02  6.00000000E+01  0.00000000E+00
  1.20000000E+02  4.00000000E+01  0.00000000E+00
  1.20000000E+02  2.00000000E+01  0.00000000E+00
  1.20000000E+02  4.99600361E-14  0.00000000E+00
  1.40000000E+02  3.00000000E+02  0.00000000E+00
  1.40000000E+02  2.80000000E+02  0.00000000E+00
  1.40000000E+02  2.60000000E+02  0.00000000E+00
  1.40000000E+02  2.40000000E+02  0.00000000E+00
  1.40000000E+02  2.20000000E+02  0.00000000E+00
  1.40000000E+02  2.00000000E+02  0.00000000E+00
  1.40000000E+02  1.80000000E+02  0.00000000E+00
  1.40000000E+02  1.60000000E+02  0.00000000E+00
  1.40000000E+02  1.40000000E+02  0.00000000E+00
  1.40000000E+02  1.20000000E+02  0.00000000E+00
  1.40000000E+02  1.00000000E+02  0.00000000E+00
  1.40000000E+02  8.00000000E+01  0.00000000E+00
  1.40000000E+02  6.00000000E+01  0.00000000E+00
  1.40000000E+02  4.00000000E+01  0.00000000E+00
  1.40000000E+02  2.00000000E+01  0.00000000E+00
  1.40000000E+02  4.99600361E-14  0.00000000E+00
  1.60000000E+02  3.00000000E+02  0.00000000E+00
  1.60000000E+02  2.80000000E+02  0.00000000E+00
  1.60000000E+02  2.60000000E+02  0.00000000E+00
  1.60000000E+02  2.40000000E+02  0.00000000E+00
  1.60000000E+02  2.20000000E+02  0.00000000E+00
  1.60000000E+02  2.00000000E+02  0.00000000E+00
  1.60000000E+02  1.80000000E+02  0.00000000E+00
  1.60000000E+02  1.60000000E+02  0.00000000E+00
  1.60000000E+02  1.40000000E+02  0.00000000E+00
  1.60000000E+02  1.20000000E+02  0.00000000E+00
  1.60000000E+02  1.00000000E+02  0.00000000E+00
  1.60000000E+02  8.00000000E+01  0.00000000E+00
  1.60000000E+02  6.00000000E+01  0.00000000E+00
  1.60000000E+02  4.00000000E+01  0.00000000E+00
  1.60000000E+02  2.00000000E+01  0.00000000E+00
  1.60000000E+02  4.99600361E-14  0.00000000E+00
  1.80000000E+02  3.00000000E+02  0.00000000E+00
  1.80000000E+02  2.80000000E+02  0.00000000E+00
  1.80000000E+02  2.60000000E+02  0.00000000E+00
  1.80000000E+02  2.40000000E+02  0.00000000E+00
  1.80000000E+02  2.20000000E+02  0.00000000E+00
  1.80000000E+02  2.00000000E+02  0.00000000E+00
  1.80000000E+02  1.80000000E+02  0.00000000E+00
  1.80000000E+02  1.60000000E+02  0.00000000E+00
  1.80000000E+02  1.40000000E+02  0.00000000E+00
  1.80000000E+02  1.20000000E+02  0.00000000E+00
  1.80000000E+02  1.00000000E+02  0.00000000E+00
  1.80000000E+02  8.00000000E+01  0.00000000E+00
  1.80000000E+02  6.00000000E+01  0.00000000E+00
  1.80000000E+02  4.00000000E+01  0.00000000E+00
  1.80000000E+02  2.00000000E+01  0.00000000E+00
  1.80000000E+02  4.99600361E-14  0.00000000E+00
  2.00000000E+02  3.00000000E+02  0.00000000E+00
  2.00000000E+02  2.80000000E+02  0.00000000E+00
  2.00000000E+02  2.60000000E+02  0.00000000E+00
  2.00000000E+02  2.40000000E+02  0.00000000E+00
  2.00000000E+02  2.20000000E+02  0.00000000E+00
  2.00000000E+02  2.00000000E+02  0.00000000E+00
  2.00000000E+02  1.80000000E+02  0.00000000E+00
  2.00000000E+02  1.60000000E+02  0.00000000E+00
  2.00000000E+02  1.40000000E+02  0.00000000E+00
  2.00000000E+02  1.20000000E+02  0.00000000E+00
  2.00000000E+02  1.00000000E+02  0.00000000E+00
  2.00000000E+02  8.00000000E+01  0.00000000E+00
  2.00000000E+02  6.00000000E+01  0.00000000E+00
  2.00000000E+02  4.00000000E+01  0.00000000E+00
  2.00000000E+02  2.00000000E+01  0.00000000E+00
  2.00000000E+02  4.99600361E-14  0.00000000E+00
  2.20000000E+02  3.00000000E+02  0.00000000E+00
  2.20000000E+02  2.80000000E+02  0.00000000E+00
  2.20000000E+02  2.60000000E+02  0.00000000E+00
  2.20000000E+02  2.40000000E+02  0.00000000E+00
  2.20000000E+02  2.20000000E+02  0.00000000E+00
  2.20000000E+02  2.00000000E+02  0.00000000E+00
  2.20000000E+02  1.80000000E+02  0.00000000E+00
  2.20000000E+02  1.60000000E+02  0.00000000E+00
  2.20000000E+02  1.40000000E+02  0.00000000E+00
  2.20000000E+02  1.20000000E+02  0.00000000E+00
  2.20000000E+02  1.00000000E+02  0.00000000E+00
  2.20000000E+02  8.00000000E+01  0.00000000E+00
  2.20000000E+02  6.00000000E+01  0.00000000E+00
  2.20000000E+02  4.00000000E+01  0.00000000E+00
  2.20000000E+02  2.00000000E+01  0.00000000E+00
  2.20000000E+02  4.99600361E-14  0.00000000E+00
  2.40000000E+02  3.00000000E+02  0.00000000E+00
  2.40000000E+02  2.80000000E+02  0.00000000E+00
  2.40000000E+02  2.60000000E+02  0.00000000E+00
  2.40000000E+02  2.40000000E+02  0.00000000E+00
  2.40000000E+02  2.20000000E+02  0.00000000E+00
  2.40000000E+02  2.00000000E+02  0.00000000E+00
  2.40000000E+02  1.80000000E+02  0.00000000E+00
  2.40000000E+02  1.60000000E+02  0.00000000E+00
  2.40000000E+02  1.40000000E+02  0.00000000E+00
  2.40000000E+02  1.20000000E+02  0.00000000E+00
  2.40000000E+02  1.00000000E+02  0.00000000E+00
  2.40000000E+02  8.00000000E+01  0.00000000E+00
  2.40000000E+02  6.00000000E+01  0.00000000E+00
  2.40000000E+02  4.00000000E+01  0.00000000E+00
  2.40000000E+02  2.00000000E+01  0.00000000E+00
  2.40000000E+02  4.99600361E-14  0.00000000E+00
  2.60000000E+02  3.00000000E+02  0.00000000E+00
  2.60000000E+02  2.80000000E+02  0.00000000E+00
  2.60000000E+02  2.60000000E+02  0.00000000E+00
  2.60000000E+02  2.40000000E+02  0.00000000E+00
  2.60000000E+02  2.20000000E+02  0.00000000E+00
  2.60000000E+02  2.00000000E+02  0.00000000E+00
  2.60000000E+02  1.80000000E+02  0.00000000E+00
  2.60000000E+02  1.60000000E+02  0.00000000E+00
  2.60000000E+02  1.40000000E+02  0.00000000E+00
  2.60000000E+02  1.20000000E+02  0.00000000E+00
  2.60000000E+02  1.00000000E+02  0.00000000E+00
  2.60000000E+02  8.00000000E+01  0.00000000E+00
  2.60000000E+02  6.00000000E+01  0.00000000E+00
  2.60000000E+02  4.00000000E+01  0.00000000E+00
  2.60000000E+02  2.00000000E+01  0.00000000E+00
  2.60000000E+02  4.99600361E-14  0.00000000E+00
  2.80000000E+02  3.00000000E+02  0.00000000E+00
  2.80000000E+02  2.80000000E+02  0.00000000E+00
  2.80000000E+02  2.60000000E+02  0.00000000E+00
  2.80000000E+02  2.40000000E+02  0.00000000E+00
  2.80000000E+02  2.20000000E+02  0.00000000E+00
  2.80000000E+02  2.00000000E+02  0.00000000E+00
  2.80000000E+02  1.80000000E+02  0.00000000E+00
  2.80000000E+02  1.60000000E+02  0.00000000E+00
  2.80000000E+02  1.40000000E+02  0.00000000E+00
  2.80000000E+02  1.20000000E+02  0.00000000E+00
  2.80000000E+02  1.00000000E+02  0.00000000E+00
  2.80000000E+02  8.00000000E+01  0.00000000E+00
  2.80000000E+02  6.00000000E+01  0.00000000E+00
  2.80000000E+02  4.00000000E+01  0.00000000E+00
  2.80000000E+02  2.00000000E+01  0.00000000E+00
  2.80000000E+02  4.99600361E-14  0.00000000E+00
  3.00000000E+02  3.00000000E+02  0.00000000E+00
  3.00000000E+02  2.80000000E+02  0.00000000E+00
  3.00000000E+02  2.60000000E+02  0.00000000E+00
  3.00000000E+02  2.40000000E+02  0.00000000E+00
  3.00000000E+02  2.20000000E+02  0.00000000E+00
  3.00000000E+02  2.00000000E+02  0.00000000E+00
  3.00000000E+02  1.80000000E+02  0.00000000E+00
  3.00000000E+02  1.60000000E+02  0.00000000E+00
  3.00000000E+02  1.40000000E+02  0.00000000E+00
  3.00000000E+02  1.20000000E+02  0.00000000E+00
  3.00000000E+02  1.00000000E+02  0.00000000E+00
  3.00000000E+02  8.00000000E+01  0.00000000E+00
  3.00000000E+02  6.00000000E+01  0.00000000E+00
  3.00000000E+02  4.00000000E+01  0.00000000E+00
  3.00000000E+02  2.00000000E+01  0.00000000E+00
  3.00000000E+02  4.99600361E-14  0.00000000E+00
  3.20000000E+02  3.00000000E+02  0.00000000E+00
  3.20000000E+02  2.80000000E+02  0.00000000E+00
  3.20000000E+02  2.60000000E+02  0.00000000E+00
  3.20000000E+02  2.40000000E+02  0.00000000E+00
  3.20000000E+02  2.20000000E+02  0.00000000E+00
  3.20000000E+02  2.00000000E+02  0.00000000E+00
  3.20000000E+02  1.80000000E+02  0.00000000E+00
  3.20000000E+02  1.60000000E+02  0.00000000E+00
  3.20000000E+02  1.40000000E+02  0.00000000E+00
  3.20000000E+02  1.20000000E+02  0.00000000E+00
  3.20000000E+02  1.00000000E+02  0.00000000E+00
  3.20000000E+02  8.00000000E+01  0.00000000E+00
  3.20000000E+02  6.00000000E+01  0.00000000E+00
  3.20000000E+02  4.00000000E+01  0.00000000E+00
  3.20000000E+02  2.00000000E+01  0.00000000E+00
  3.20000000E+02  4.99600361E-14  0.00000000E+00
  3.40000000E+02  3.00000000E+02  0.00000000E+00
  3.40000000E+02  2.80000000E+02  0.00000000E+00
  3.40000000E+02  2.60000000E+02  0.00000000E+00
  3.40000000E+02  2.40000000E+02  0.00000000E+00
  3.40000000E+02  2.20000000E+02  0.00000000E+00
  3.40000000E+02  2.00000000E+02  0.00000000E+00
  3.40000000E+02  1.80000000E+02  0.00000000E+00
  3.40000000E+02  1.60000000E+02  0.00000000E+00
  3.40000000E+02  1.40000000E+02  0.00000000E+00
  3.40000000E+02  1.20000000E+02  0.00000000E+00
  3.40000000E+02  1.00000000E+02  0.00000000E+00
  3.40000000E+02  8.00000000E+01  0.00000000E+00
  3.40000000E+02  6.00000000E+01  0.00000000E+00
  3.40000000E+02  4.00000000E+01  0.00000000E+00
  3.40000000E+02  2.00000000E+01  0.00000000E+00
  3.40000000E+02  4.99600361E-14  0.00000000E+00
  3.60000000E+02  3.00000000E+02  0.00000000E+00
  3.60000000E+02  2.80000000E+02  0.00000000E+00
  3.60000000E+02  2.60000000E+02  0.00000000E+00
  3.60000000E+02  2.40000000E+02  0.00000000E+00
  3.60000000E+02  2.20000000E+02  0.00000000E+00
  3.60000000E+02  2.00000000E+02  0.00000000E+00
  3.60000000E+02  1.80000000E+02  0.00000000E+00
  3.60000000E+02  1.60000000E+02  0.00000000E+00
  3.60000000E+02  1.40000000E+02  0.00000000E+00
  3.60000000E+02  1.20000000E+02  0.00000000E+00
  3.60000000E+02  1.00000000E+02  0.00000000E+00
  3.60000000E+02  8.00000000E+01  0.00000000E+00
  3.60000000E+02  6.00000000E+01  0.00000000E+00
  3.60000000E+02  4.00000000E+01  0.00000000E+00
  3.60000000E+02  2.00000000E+01  0.00000000E+00
  3.60000000E+02  4.99600361E-14  0.00000000E+00
  3.80000000E+02  3.00000000E+02  0.00000000E+00
  3.80000000E+02  2.80000000E+02  0.00000000E+00
  3.80000000E+02  2.60000000E+02  0.00000000E+00
  3.80000000E+02  2.40000000E+02  0.00000000E+00
  3.80000000E+02  2.20000000E+02  0.00000000E+00
  3.80000000E+02  2.00000000E+02  0.00000000E+00
  3.80000000E+02  1.80000000E+02  0.00000000E+00
  3.80000000E+02  1.60000000E+02  0.00000000E+00
  3.80000000E+02  1.40000000E+02  0.00000000E+00
  3.80000000E+02  1.20000000E+02  0.00000000E+00
  3.80000000E+02  1.00000000E+02  0.00000000E+00
  3.80000000E+02  8.00000000E+01  0.00000000E+00
  3.80000000E+02  6.00000000E+01  0.00000000E+00
  3.80000000E+02  4.00000000E+01  0.00000000E+00
  3.80000000E+02  2.00000000E+01  0.00000000E+00
  3.80000000E+02  4.99600361E-14  0.00000000E+00
  4.00000000E+02  3.00000000E+02  0.00000000E+00
  4.00000000E+02  2.80000000E+02  0.00000000E+00
  4.00000000E+02  2.60000000E+02  0.00000000E+00
  4.00000000E+02  2.40000000E+02  0.00000000E+00
  4.00000000E+02  2.20000000E+02  0.00000000E+00
  4.00000000E+02  2.00000000E+02  0.00000000E+00
  4.00000000E+02  1.80000000E+02  0.00000000E+00
  4.00000000E+02  1.60000000E+02  0.00000000E+00
  4.00000000E+02  1.40000000E+02  0.00000000E+00
  4.00000000E+02  1.20000000E+02  0.00000000E+00
  4.00000000E+02  1.00000000E+02  0.00000000E+00
  4.00000000E+02  8.00000000E+01  0.00000000E+00
  4.00000000E+02  6.00000000E+01  0.00000000E+00
  4.00000000E+02  4.00000000E+01  0.00000000E+00
  4.00000000E+02  2.00000000E+01  0.00000000E+00
  4.00000000E+02  4.99600361E-14  0.00000000E+00
  4.20000000E+02  3.00000000E+02  0.00000000E+00
  4.20000000E+02  2.80000000E+02  0.00000000E+00
  4.20000000E+02  2.60000000E+02  0.00000000E+00
  4.20000000E+02  2.40000000E+02  0.00000000E+00
  4.20000000E+02  2.20000000E+02  0.00000000E+00
  4.20000000E+02  2.00000000E+02  0.00000000E+00
  4.20000000E+02  1.80000000E+02  0.00000000E+00
  4.20000000E+02  1.60000000E+02  0.00000000E+00
  4.20000000E+02  1.40000000E+02  0.00000000E+00
  4.20000000E+02  1.20000000E+02  0.00000000E+00
  4.20000000E+02  1.00000000E+02  0.00000000E+00
  4.20000000E+02  8.00000000E+01  0.00000000E+00
  4.20000000E+02  6.00000000E+01  0.00000000E+00
  4.20000000E+02  4.00000000E+01  0.00000000E+00
  4.20000000E+02  2.00000000E+01  0.00000000E+00
  4.20000000E+02  4.99600361E-14  0.00000000E+00
  4.40000000E+02  3.00000000E+02  0.00000000E+00
  4.40000000E+02  2.80000000E+02  0.00000000E+00
  4.40000000E+02  2.60000000E+02  0.00000000E+00
  4.40000000E+02  2.40000000E+02  0.00000000E+00
  4.40000000E+02  2.20000000E+02  0.00000000E+00
  4.40000000E+02  2.00000000E+02  0.00000000E+00
  4.40000000E+02  1.80000000E+02  0.00000000E+00
  4.40000000E+02  1.60000000E+02  0.00000000E+00
  4.40000000E+02  1.40000000E+02  0.00000000E+00
  4.40000000E+02  1.20000000E+02  0.00000000E+00
  4.40000000E+02  1.00000000E+02  0.00000000E+00
  4.40000000E+02  8.00000000E+01  0.00000000E+00
  4.40000000E+02  6.00000000E+01  0.00000000E+00
  4.40000000E+02  4.00000000E+01  0.00000000E+00
  4.40000000E+02  2.00000000E+01  0.00000000E+00
  4.40000000E+02  4.99600361E-14  0.00000000E+00
  4.60000000E+02  3.00000000E+02  0.00000000E+00
  4.60000000E+02  2.80000000E+02  0.00000000E+00
  4.60000000E+02  2.60000000E+02  0.00000000E+00
  4.60000000E+02  2.40000000E+02  0.00000000E+00
  4.60000000E+02  2.20000000E+02  0.00000000E+00
  4.60000000E+02  2.00000000E+02  0.00000000E+00
  4.60000000E+02  1.80000000E+02  0.00000000E+00
  4.60000000E+02  1.60000000E+02  0.00000000E+00
  4.60000000E+02  1.40000000E+02  0.00000000E+00
  4.60000000E+02  1.20000000E+02  0.00000000E+00
  4.60000000E+02  1.00000000E+02  0.00000000E+00
  4.60000000E+02  8.00000000E+01  0.00000000E+00
  4.60000000E+02  6.00000000E+01  0.00000000E+00
  4.60000000E+02  4.00000000E+01  0.00000000E+00
  4.60000000E+02  2.00000000E+01  0.00000000E+00
  4.60000000E+02  4.99600361E-14  0.00000000E+00
  4.80000000E+02  3.00000000E+02  0.00000000E+00
  4.80000000E+02  2.80000000E+02  0.00000000E+00
  4.80000000E+02  2.60000000E+02  0.00000000E+00
  4.80000000E+02  2.40000000E+02  0.00000000E+00
  4.80000000E+02  2.20000000E+02  0.00000000E+00
  4.80000000E+02  2.00000000E+02  0.00000000E+00
  4.80000000E+02  1.80000000E+02  0.00000000E+00
  4.80000000E+02  1.60000000E+02  0.00000000E+00
  4.80000000E+02  1.40000000E+02  0.00000000E+00
  4.80000000E+02  1.20000000E+02  0.00000000E+00
  4.80000000E+02  1.00000000E+02  0.00000000E+00
  4.80000000E+02  8.00000000E+01  0.00000000E+00
  4.80000000E+02  6.00000000E+01  0.00000000E+00
  4.80000000E+02  4.00000000E+01  0.00000000E+00
  4.80000000E+02  2.00000000E+01  0.00000000E+00
  4.80000000E+02  4.99600361E-14  0.00000000E+00
  5.00000000E+02  3.00000000E+02  0.00000000E+00
  5.00000000E+02  2.80000000E+02  0.00000000E+00
  5.00000000E+02  2.60000000E+02  0.00000000E+00
  5.00000000E+02  2.40000000E+02  0.00000000E+00
  5.00000000E+02  2.20000000E+02  0.00000000E+00
  5.00000000E+02  2.00000000E+02  0.00000000E+00
  5.00000000E+02  1.80000000E+02  0.00000000E+00
  5.00000000E+02  1.60000000E+02  0.00000000E+00
  5.00000000E+02  1.40000000E+02  0.00000000E+00
  5.00000000E+02  1.20000000E+02  0.00000000E+00
  5.00000000E+02  1.00000000E+02  0.00000000E+00
  5.00000000E+02  8.00000000E+01  0.00000000E+00
  5.00000000E+02  6.00000000E+01  0.00000000E+00
  5.00000000E+02  4.00000000E+01  0.00000000E+00
  5.00000000E+02  2.00000000E+01  0.00000000E+00
  5.00000000E+02  4.99600361E-14  0.00000000E+00
  5.20000000E+02  3.00000000E+02  0.00000000E+00
  5.20000000E+02  2.80000000E+02  0.00000000E+00
  5.20000000E+02  2.60000000E+02  0.00000000E+00
  5.20000000E+02  2.40000000E+02  0.00000000E+00
  5.20000000E+02  2.20000000E+02  0.00000000E+00
  5.20000000E+02  2.00000000E+02  0.00000000E+00
  5.20000000E+02  1.80000000E+02  0.00000000E+00
  5.20000000E+02  1.60000000E+02  0.00000000E+00
  5.20000000E+02  1.40000000E+02  0.00000000E+00
  5.20000000E+02  1.20000000E+02  0.00000000E+00
  5.20000000E+02  1.00000000E+02  0.00000000E+00
  5.20000000E+02  8.00000000E+01  0.00000000E+00
  5.20000000E+02  6.00000000E+01  0.00000000E+00
  5.20000000E+02  4.00000000E+01  0.00000000E+00
  5.20000000E+02  2.00000000E+01  0.00000000E+00
  5.20000000E+02  4.99600361E-14  0.00000000E+00
  5.40000000E+02  3.00000000E+02  0.00000000E+00
  5.40000000E+02  2.80000000E+02  0.00000000E+00
  5.40000000E+02  2.60000000E+02  0.00000000E+00
  5.40000000E+02  2.40000000E+02  0.00000000E+00
  5.40000000E+02  2.20000000E+02  0.00000000E+00
  5.40000000E+02  2.00000000E+02  0.00000000E+00
  5.40000000E+02  1.80000000E+02  0.00000000E+00
  5.40000000E+02  1.60000000E+02  0.00000000E+00
  5.40000000E+02  1.40000000E+02  0.00000000E+00
  5.40000000E+02  1.20000000E+02  0.00000000E+00
  5.40000000E+02  1.00000000E+02  0.00000000E+00
  5.40000000E+02  8.00000000E+01  0.00000000E+00
  5.40000000E+02  6.00000000E+01  0.00000000E+00
  5.40000000E+02  4.00000000E+01  0.00000000E+00
  5.40000000E+02  2.00000000E+01  0.00000000E+00
  5.40000000E+02  4.99600361E-14  0.00000000E+00
  5.60000000E+02  3.00000000E+02  0.00000000E+00
  5.60000000E+02  2.80000000E+02  0.00000000E+00
  5.60000000E+02  2.60000000E+02  0.00000000E+00
  5.60000000E+02  2.40000000E+02  0.00000000E+00
  5.60000000E+02  2.20000000E+02  0.00000000E+00
  5.60000000E+02  2.00000000E+02  0.00000000E+00
  5.60000000E+02  1.80000000E+02  0.00000000E+00
  5.60000000E+02  1.60000000E+02  0.00000000E+00
  5.60000000E+02  1.40000000E+02  0.00000000E+00
  5.60000000E+02  1.20000000E+02  0.00000000E+00
  5.60000000E+02  1.00000000E+02  0.00000000E+00
  5.60000000E+02  8.00000000E+01  0.00000000E+00
  5.60000000E+02  6.00000000E+01  0.00000000E+00
  5.60000000E+02  4.00000000E+01  0.00000000E+00
  5.60000000E+02  2.00000000E+01  0.00000000E+00
  5.60000000E+02  4.99600361E-14  0.00000000E+00
  5.80000000E+02  3.00000000E+02  0.00000000E+00
  5.80000000E+02  2.80000000E+02  0.00000000E+00
  5.80000000E+02  2.60000000E+02  0.00000000E+00
  5.80000000E+02  2.40000000E+02  0.00000000E+00
  5.80000000E+02  2.20000000E+02  0.00000000E+00
  5.80000000E+02  2.00000000E+02  0.00000000E+00
  5.80000000E+02  1.80000000E+02  0.00000000E+00
  5.80000000E+02  1.60000000E+02  0.00000000E+00
  5.80000000E+02  1.40000000E+02  0.00000000E+00
  5.80000000E+02  1.20000000E+02  0.00000000E+00
  5.80000000E+02  1.00000000E+02  0.00000000E+00
  5.80000000E+02  8.00000000E+01  0.00000000E+00
  5.80000000E+02  6.00000000E+01  0.00000000E+00
  5.80000000E+02  4.00000000E+01  0.00000000E+00
  5.80000000E+02  2.00000000E+01  0.00000000E+00
  5.80000000E+02  4.99600361E-14  0.00000000E+00
  6.00000000E+02  3.00000000E+02  0.00000000E+00
  6.00000000E+02  2.80000000E+02  0.00000000E+00
  6.00000000E+02  2.60000000E+02  0.00000000E+00
  6.00000000E+02  2.40000000E+02  0.00000000E+00
  6.00000000E+02  2.20000000E+02  0.00000000E+00
  6.00000000E+02  2.00000000E+02  0.00000000E+00
  6.00000000E+02  1.80000000E+02  0.00000000E+00
  6.00000000E+02  1.60000000E+02  0.00000000E+00
  6.00000000E+02  1.40000000E+02  0.00000000E+00
  6.00000000E+02  1.20000000E+02  0.00000000E+00
  6.00000000E+02  1.00000000E+02  0.00000000E+00
  6.00000000E+02  8.00000000E+01  0.00000000E+00
  6.00000000E+02  6.00000000E+01  0.00000000E+00
  6.00000000E+02  4.00000000E+01  0.00000000E+00
  6.00000000E+02  2.00000000E+01  0.00000000E+00
  6.00000000E+02  4.99600361E-14  0.00000000E+00
CELLS       450      2250
         4           0           1          17          16
         4           1           2          18          17
         4           2           3          19          18
         4           3           4          20          19
         4           4           5          21          20
         4           5           6          22          21
         4           6           7          23          22
         4           7           8          24          23
         4           8           9          25          24
         4           9          10          26          25
         4          10          11          27          26
         4          11          12          28          27
         4          12          13          29          28
         4          13          14          30          29
         4          14          15          31          30
         4          16          17          33          32
         4          17          18          34          33
         4          18          19          35          34
         4          19          20          36          35
         4          20          21          37          36
         4          21          22          38          37
         4          22          23          39          38
         4          23          24          40          39
         4          24          25          41          40
         4          25          26          42          41
         4          26          27          43          42
         4          27          28          44          43
         4          28          29          45          44
         4          29          30          46          45
         4          30          31          47          46
         4          32          33          49          48
         4          33          34          50          49
         4          34          35          51          50
         4          35          36          52          51
         4          36          37          53          52
         4          37          38          54          53
         4          38          39          55          54
         4          39          40          56          55
         4          40          41          57          56
         4          41          42          58          57
         4          42          43          59          58
         4          43          44          60          59
         4          44          45          61          60
         4          45          46          62          61
         4          46          47          63          62
         4          48          49          65          64
         4          49          50          66          65
         4          50          51          67          66
         4          51          52          68          67
         4          52          53          69          68
         4          53          54          70          69
         4          54          55          71          70
         4          55          56          72          71
         4          56          57          73          72
         4          57          58          74          73
         4          58          59          75          74
         4          59          60          76          75
         4          60          61          77          76
         4          61          62          78          77
         4          62          63          79          78
         4          64          65          81          80
         4          65          66          82          81
         4          66          67          83          82
         4          67          68          84          83
         4          68          69          85          84
         4          69          70          86          85
         4          70          71          87          86
         4          71          72          88          87
         4          72          73          89          88
         4          73          74          90          89
         4          74          75          91          90
         4          75          76          92          91
         4          76          77          93          92
         4          77          78          94          93
         4          78          79          95          94
         4          80          81          97          96
         4          81          82          98          97
         4          82          83          99          98
         4          83          84         100          99
         4          84          85         101         100
         4          85          86         102         101
         4          86          87         103         102
         4          87          88         104         103
         4          88          89         105         104
         4          89          90         106         105
         4          90          91         107         106
         4          91          92         108         107
         4          92          93         109         108
         4          93          94         110         109
         4          94          95         111         110
         4          96          97         113         112
         4          97          98         114         113
         4          98          99         115         114
         4          99         100         116         115
         4         100         101         117         116
         4         101         102         118         117
         4         102         103         119         118
         4         103         104         120         119
         4         104         105         121         120
         4         105         106         122         121
         4         106         107         123         122
         4         107         108         124         123
         4         108         109         125         124
         4         109         110         126         125
         4         110         111         127         126
         4         112         113         129         128
         4         113         114         130         129
         4         114         115         131         130
         4         115         116         132         131
         4         116         117         133         132
         4         117         118         134         133
         4         118         119         135         134
         4         119         120         136         135
         4         120         121         137         136
         4         121         122         138         137
         4         122         123         139         138
         4         123         124         140         139
         4         124         125         141         140
         4         125         126         142         141
         4         126         127         143         142
         4         128         129         145         144
         4         129         130         146         145
         4         130         131         147         146
         4         131         132         148         147
         4         132         133         149         148
         4         133         134         150         149
         4         134         135         151         150
         4         135         136         152         151
         4         136         137         153         152
         4         137         138         154         153
         4         138         139         155         154
         4         139         140         156         155
         4         140         141         157         156
         4         141         142         158         157
         4         142         143         159         158
         4         144         145         161         160
         4         145         146         162         161
         4         146         147         163         162
         4         147         148         164         163
         4         148         149         165         164
         4         149         150         166         165
         4         150         151         167         166
         4         151         152         168         167
         4         152         153         169         168
         4         153         154         170         169
         4         154         155         171         170
         4         155         156         172         171
         4         156         157         173         172
         4         157         158         174         173
         4         158         159         175         174
         4         160         161         177         176
         4         161         162         178         177
         4         162         163         179         178
         4         163         164         180         179
         4         164         165         181         180
         4         165         166         182         181
         4         166         167         183         182
         4         167         168         184         183
         4         168         169         185         184
         4         169         170         186         185
         4         170         171         187         186
         4         171         172         188         187
         4         172         173         189         188
         4         173         174         190         189
         4         174         175         191         190
         4         176         177         193         192
         4         177         178         194         193
         4         178         179         195         194
         4         179         180         196         195
         4         180         181         197         196
         4         181         182         198         197
         4         182         183         199         198
         4         183         184         200         199
         4         184         185         201         200
         4         185         186         202         201
         4         186         187         203         202
         4         187         188         204         203
         4         188         189         205         204
         4         189         190         206         205
         4         190         191         207         206
         4         192         193         209         208
         4         193         194         210         209
         4         194         195         211         210
         4         195         196         212         211
         4         196         197         213         212
         4         197         198         214         213
         4         198         199         215         214
         4         199         200         216         215
         4         200         201         217         216
         4         201         202         218         217
         4         202         203         219         218
         4         203         204         220         219
         4         204         205         221         220
         4         205         206         222         221
         4         206         207         223         222
         4         208         209         225         224
         4         209         210         226         225
         4         210         211         227         226
         4         211         212         228         227
         4         212         213         229         228
         4         213         214         230         229
         4         214         215         231         230
         4         215         216         232         231
         4         216         217         233         232
         4         217         218         234         233
         4         218         219         235         234
         4         219         220         236         235
         4         220         221         237         236
         4         221         222         238         237
         4         222         223         239         238
         4         224         225         241         240
         4         225         226         242         241
         4         226         227         243         242
         4         227         228         244         243
         4         228         229         245         244
         4         229         230         246         245
         4         230         231         247         246
         4         231         232         248         247
         4         232         233         249         248
         4         233         234         250         249
         4         234         235         251         250
         4         235         236         252         251
         4         236         237         253         252
         4         237         238         254         253
         4         238         239         255         254
         4         240         241         257         256
         4         241         242         258         257
         4         242         243         259         258
         4         243         244         260         259
         4         244         245         261         260
         4         245         246         262         261
         4         246         247         263         262
         4         247         248         264         263
         4         248         249         265         264
         4         249         250         266         265
         4         250         251         267         266
         4         251         252         268         267
         4         252         253         269         268
         4         253         254         270         269
         4         254         255         271         270
         4         256         257         273         272
         4         257         258         274         273
         4         258         259         275         274
         4         259         260         276         275
         4         260         261         277         276
         4         261         262         278         277
         4         262         263         279         278
         4         263         264         280         279
         4         264         265         281         280
         4         265         266         282         281
         4         266         267         283         282
         4         267         268         284         283
         4         268         269         285         284
         4         269         270         286         285
         4         270         271         287         286
         4         272         273         289         288
         4         273         274         290         289
         4         274         275         291         290
         4         275         276         292         291
         4         276         277         293         292
         4         277         278         294         293
         4         278         279         295         294
         4         279         280         296         295
         4         280         281         297         296
         4         281         282         298         297
         4         282         283         299         298
         4         283         284         300         299
         4         284         285         301         300
         4         285         286         302         301
         4         286         287         303         302
         4         288         289         305         304
         4         289         290         306         305
         4         290         291         307         306
         4         291         292         308         307
         4         292         293         309         308
         4         293         294         310         309
         4         294         295         311         310
         4         295         296         312         311
         4         296         297         313         312
         4         297         298         314         313
         4         298         299         315         314
         4         299         300         316         315
         4         300         301         317         316
         4         301         302         318         317
         4         302         303         319         318
         4         304         305         321         320
         4         305         306         322         321
         4         306         307         323         322
         4         307         308         324         323
         4         308         309         325         324
         4         309         310         326         325
         4         310         311         327         326
         4         311         312         328         327
         4         312         313         329         328
         4         313         314         330         329
         4         314         315         331         330
         4         315         316         332         331
         4         316         317         333         332
         4         317         318         334         333
         4         318         319         335         334
         4         320         321         337         336
         4         321         322         338         337
         4         322         323         339         338
         4         323         324         340         339
         4         324         325         341         340
         4         325         326         342         341
         4         326         327         343         342
         4         327         328         344         343
         4         328         329         345         344
         4         329         330         346         345
         4         330         331         347         346
         4         331         332         348         347
         4         332         333         349         348
         4         333         334         350         349
         4         334         335         351         350
         4         336         337         353         352
         4         337         338         354         353
         4         338         339         355         354
         4         339         340         356         355
         4         340         341         357         356
         4         341         342         358         357
         4         342         343         359         358
         4         343         344         360         359
         4         344         345         361         360
         4         345         346         362         361
         4         346         347         363         362
         4         347         348         364         363
         4         348         349         365         364
         4         349         350         366         365
         4         350         351         367         366
         4         352         353         369         368
         4         353         354         370         369
         4         354         355         371         370
         4         355         356         372         371
         4         356         357         373         372
         4         357         358         374         373
         4         358         359         375         374
         4         359         360         376         375
         4         360         361         377         376
         4         361         362         378         377
         4         362         363         379         378
         4         363         364         380         379
         4         364         365         381         380
         4         365         366         382         381
         4         366         367         383         382
         4         368         369         385         384
         4         369         370         386         385
         4         370         371         387         386
         4         371         372         388         387
         4         372         373         389         388
         4         373         374         390         389
         4         374         375         391         390
         4         375         376         392         391
         4         376         377         393         392
         4         377         378         394         393
         4         378         379         395         394
         4         379         380         396         395
         4         380         381         397         396
         4         381         382         398         397
         4         382         383         399         398
         4         384         385         401         400
         4         385         386         402         401
         4         386         387         403         402
         4         387         388         404         403
         4         388         389         405         404
         4         389         390         406         405
         4         390         391         407         406
         4         391         392         408         407
         4         392         393         409         408
         4         393         394         410         409
         4         394         395         411         410
         4         395         396         412         411
         4         396         397         413         412
         4         397         398         414         413
         4         398         399         415         414
         4         400         401         417         416
         4         401         402         418         417
         4         402         403         419         418
         4         403         404         420         419
         4         404         405         421         420
         4         405         406         422         421
         4         406         407         423         422
         4         407         408         424         423
         4         408         409         425         424
         4         409         410         426         425
         4         410         411         427         426
         4         411         412         428         427
         4         412         413         429         428
         4         413         414         430         429
         4         414         415         431         430
         4         416         417         433         432
         4         417         418         434         433
         4         418         419         435         434
         4         419         420         436         435
         4         420         421         437         436
         4         421         422         438         437
         4         422         423         439         438
         4         423         424         440         439
         4         424         425         441         440
         4         425         426         442         441
         4         426         427         443         442
         4         427         428         444         443
         4         428         429         445         444
         4         429         430         446         445
         4         430         431         447         446
         4         432         433         449         448
         4         433         434         450         449
         4         434         435         451         450
         4         435         436         452         451
         4         436         437         453         452
         4         437         438         454         453
         4         438         439         455         454
         4         439         440         456         455
         4         440         441         457         456
         4         441         442         458         457
         4         442         443         459         458
         4         443         444         460         459
         4         444         445         461         460
         4         445         446         462         461
         4         446         447         463         462
         4         448         449         465         464
         4         449         450         466         465
         4         450         451         467         466
         4         451         452         468         467
         4         452         453         469         468
         4         453         454         470         469
         4         454         455         471         470
         4         455         456         472         471
         4         456         457         473         472
         4         457         458         474         473
         4         458         459         475         474
         4         459         460         476         475
         4         460         461         477         476
         4         461         462         478         477
         4         462         463         479         478
         4         464         465         481         480
         4         465         466         482         481
         4         466         467         483         482
         4         467         468         484         483
         4         468         469         485         484
         4         469         470         486         485
         4         470         471         487         486
         4         471         472         488         487
         4         472         473         489         488
         4         473         474         490         489
         4         474         475         491         490
         4         475         476         492         491
         4         476         477         493         492
         4         477         478         494         493
         4         478         479         495         494
CELL_TYPES        450
9
9
9
9
9
9
9
9
9
9
9
9
9
9
9
9
9
9
9
9
9
9
9
9
9
9
9
9
9
9
9
9
9
9
9
9
9
9
9
9
9
9
9
9
9
9
9
9
9
9
9
9
9
9
9
9
9
9
9
9
9
9
9
9
9
9
9
9
9
9
9
9
9
9
9
9
9
9
9
9
9
9
9
9
9
9
9
9
9
9
9
9
9
9
9
9
9
9
9
9
9
9
9
9
9
9
9
9
9
9
9
9
9
9
9
9
9
9
9
9
9
9
9
9
9
9
9
9
9
9
9
9
9
9
9
9
9
9
9
9
9
9
9
9
9
9
9
9
9
9
9
9
9
9
9
9
9
9
9
9
9
9
9
9
9
9
9
9
9
9
9
9
9
9
9
9
9
9
9
9
9
9
9
9
9
9
9
9
9
9
9
9
9
9
9
9
9
9
9
9
9
9
9
9
9
9
9
9
9
9
9
9
9
9
9
9
9
9
9
9
9
9
9
9
9
9
9
9
9
9
9
9
9
9
9
9
9
9
9
9
9
9
9
9
9
9
9
9
9
9
9
9
9
9
9
9
9
9
9
9
9
9
9
9
9
9
9
9
9
9
9
9
9
9
9
9
9
9
9
9
9
9
9
9
9
9
9
9
9
9
9
9
9
9
9
9
9
9
9
9
9
9
9
9
9
9
9
9
9
9
9
9
9
9
9
9
9
9
9
9
9
9
9
9
9
9
9
9
9
9
9
9
9
9
9
9
9
9
9
9
9
9
9
9
9
9
9
9
9
9
9
9
9
9
9
9
9
9
9
9
9
9
9
9
9
9
9
9
9
9
9
9
9
9
9
9
9
9
9
9
9
9
9
9
9
9
9
9
9
9
9
9
9
9
9
9
9
9
9
9
9
9
9
9
9
9
9
9
9
9
9
9
9
9
9
9
9
9
9
9
9
9
9
9
9
9
9
9
9
9
9
9
9
9
9
9
9
9
9
9
9
9
9
9
9
9
9
9
9
9
POINT_DATA       496
SCALARS p double 
LOOKUP_TABLE default
   15851790.0044655     
   15851790.0250278     
   15851790.0820744     
   15851790.1667457     
   15851790.2710164     
   15851790.3876800     
   15851790.5103303     
   15851790.6333402     
   15851790.7518391     
   15851790.8616994     
   15851790.9595258     
   15851791.0426219     
   15851791.1089173     
   15851791.1569483     
   15851791.1858812     
   15851791.1955081     
   15849670.4382230     
   15849670.4586845     
   15849670.5154400     
   15849670.5996552     
   15849670.7033352     
   15849670.8193071     
   15849670.9411987     
   15849671.0634176     
   15849671.1811267     
   15849671.2902278     
   15849671.3873464     
   15849671.4698081     
   15849671.5355734     
   15849671.5832068     
   15849671.6118939     
   15849671.6214376     
   15843312.5657329     
   15843312.5858841     
   15843312.6417397     
   15843312.7245439     
   15843312.8263999     
   15843312.9402388     
   15843313.0597938     
   15843313.1795781     
   15843313.2948581     
   15843313.4016247     
   15843313.4965778     
   15843313.5771044     
   15843313.6412515     
   15843313.6876723     
   15843313.7156069     
   15843313.7248961     
   15832718.8657821     
   15832718.8853779     
   15832718.9396375     
   15832719.0199523     
   15832719.1185952     
   15832719.2286850     
   15832719.3441437     
   15832719.4596696     
   15832719.5707080     
   15832719.6734069     
   15832719.7645985     
   15832719.8417895     
   15832719.9031515     
   15832719.9474740     
   15832719.9741092     
   15832719.9829589     
   15817893.4699106     
   15817893.4886517     
   15817893.5404588     
   15817893.6169762     
   15817893.7107554     
   15817893.8151947     
   15817893.9244987     
   15817894.0336421     
   15817894.1383436     
   15817894.2349911     
   15817894.3206005     
   15817894.3928635     
   15817894.4501351     
   15817894.4913797     
   15817894.5161022     
   15817894.5243015     
   15798842.1626249     
   15798842.1801472     
   15798842.2284673     
   15798842.2995883     
   15798842.3864730     
   15798842.4829440     
   15798842.5836108     
   15798842.6838396     
   15798842.7797179     
   15798842.8679742     
   15798842.9459041     
   15798843.0114217     
   15798843.0631010     
   15798843.1001293     
   15798843.1222303     
   15798843.1295447     
   15775572.3817876     
   15775572.3976415     
   15775572.4411994     
   15775572.5049792     
   15775572.5824987     
   15775572.6681784     
   15775572.7572098     
   15775572.8454733     
   15775572.9295351     
   15775573.0066009     
   15775573.0743787     
   15775573.1310488     
   15775573.1754383     
   15775573.2069935     
   15775573.2256553     
   15775573.2317873     
   15748093.2190900     
   15748093.2327237     
   15748093.2699664     
   15748093.3240493     
   15748093.3892375     
   15748093.4607184     
   15748093.5344833     
   15748093.6071353     
   15748093.6758221     
   15748093.7383557     
   15748093.7930163     
   15748093.8383846     
   15748093.8735417     
   15748093.8981796     
   15748093.9125143     
   15748093.9171598     
   15716415.4206398     
   15716415.4313891     
   15716415.4604461     
   15716415.5020130     
   15716415.5513521     
   15716415.6046211     
   15716415.6587920     
   15716415.7114473     
   15716415.7605747     
   15716415.8046365     
   15716415.8426580     
   15716415.8738604     
   15716415.8975613     
   15716415.9136655     
   15716415.9226761     
   15716415.9254946     
   15680551.3876882     
   15680551.3947357     
   15680551.4133785     
   15680551.4391277     
   15680551.4684873     
   15680551.4988683     
   15680551.5284242     
   15680551.5559431     
   15680551.5805966     
   15680551.6017165     
   15680551.6190493     
   15680551.6326263     
   15680551.6423279     
   15680551.6481470     
   15680551.6507371     
   15680551.6513608     
   15640515.1772751     
   15640515.1797307     
   15640515.1854426     
   15640515.1915510     
   15640515.1961596     
   15640515.1982676     
   15640515.1975442     
   15640515.1942084     
   15640515.1887917     
   15640515.1818305     
   15640515.1738705     
   15640515.1658189     
   15640515.1584814     
   15640515.1520837     
   15640515.1471597     
   15640515.1451929     
   15596322.5036173     
   15596322.5004097     
   15596322.4902287     
   15596322.4723120     
   15596322.4467633     
   15596322.4145485     
   15596322.3772144     
   15596322.3366214     
   15596322.2948963     
   15596322.2541272     
   15596322.2160034     
   15596322.1820618     
   15596322.1540046     
   15596322.1330599     
   15596322.1195552     
   15596322.1146681     
   15547990.7384288     
   15547990.7284617     
   15547990.6991948     
   15547990.6523862     
   15547990.5907157     
   15547990.5175630     
   15547990.4366926     
   15547990.3520238     
   15547990.2674147     
   15547990.1866045     
   15547990.1128751     
   15547990.0487296     
   15547989.9963270     
   15547989.9577601     
   15547989.9341917     
   15547989.9261944     
   15495538.9124687     
   15495538.8945249     
   15495538.8427229     
   15495538.7618567     
   15495538.6577517     
   15495538.5366605     
   15495538.4049795     
   15495538.2689948     
   15495538.1346709     
   15495538.0074763     
   15495537.8923137     
   15495537.7932683     
   15495537.7132906     
   15495537.6545517     
   15495537.6189770     
   15495537.6072152     
   15438987.7166725     
   15438987.6893932     
   15438987.6114485     
   15438987.4913262     
   15438987.3383972     
   15438987.1622475     
   15438986.9723422     
   15438986.7777163     
   15438986.5867388     
   15438986.4069380     
   15438986.2448586     
   15438986.1059603     
   15438985.9945382     
   15438985.9135614     
   15438985.8649327     
   15438985.8488992     
   15378359.5032385     
   15378359.4654098     
   15378359.3579628     
   15378359.1935642     
   15378358.9856090     
   15378358.7474905     
   15378358.4921489     
   15378358.2317468     
   15378357.9773930     
   15378357.7389386     
   15378357.5248362     
   15378357.3420433     
   15378357.1959187     
   15378357.0902538     
   15378357.0270157     
   15378357.0061132     
   15313678.2880235     
   15313678.2384601     
   15313678.0983514     
   15313677.8851373     
   15313677.6165736     
   15313677.3101955     
   15313676.9828037     
   15313676.6500493     
   15313676.3261068     
   15313676.0234367     
   15313675.7526172     
   15313675.5221931     
   15313675.3386055     
   15313675.2061594     
   15313675.1269505     
   15313675.1007781     
   15244969.7506636     
   15244969.6886497     
   15244969.5136938     
   15244969.2482038     
   15244968.9146133     
   15244968.5348321     
   15244968.1298661     
   15244967.7192059     
   15244967.3203531     
   15244966.9486810     
   15244966.6171862     
   15244966.3361270     
   15244966.1129238     
   15244965.9522308     
   15244965.8561777     
   15244965.8244307     
   15172261.2374699     
   15172261.1626434     
   15172260.9518953     
   15172260.6324206     
   15172260.2311814     
   15172259.7747434     
   15172259.2884428     
   15172258.7957238     
   15172258.3179889     
   15172257.8741066     
   15172257.4795604     
   15172257.1462345     
   15172256.8824280     
   15172256.6930414     
   15172256.5799304     
   15172256.5424967     
   15095581.7622557     
   15095581.6754524     
   15095581.4300596     
   15095581.0569783     
   15095580.5879866     
   15095580.0543232     
   15095579.4857614     
   15095578.9101409     
   15095578.3528980     
   15095577.8361824     
   15095577.3780743     
   15095576.9921838     
   15095576.6876320     
   15095576.4694192     
   15095576.3391330     
   15095576.2959850     
   15014962.0158069     
   15014961.9164792     
   15014961.6368643     
   15014961.2127603     
   15014960.6790825     
   15014960.0712582     
   15014959.4233988     
   15014958.7674007     
   15014958.1328776     
   15014957.5453661     
   15014957.0255326     
   15014956.5886562     
   15014956.2446591     
   15014955.9986544     
   15014955.8519625     
   15014955.8034113     
   14930434.3576026     
   14930434.2470034     
   14930433.9358084     
   14930433.4644200     
   14930432.8720995     
   14930432.1972541     
   14930431.4774809     
   14930430.7488091     
   14930430.0441110     
   14930429.3919010     
   14930428.8152664     
   14930428.3312031     
   14930427.9505923     
   14930427.6788367     
   14930427.5170423     
   14930427.4635495     
   14842032.8215446     
   14842032.7010953     
   14842032.3626160     
   14842031.8510046     
   14842031.2095179     
   14842030.4797063     
   14842029.7021487     
   14842028.9153819     
   14842028.1540839     
   14842027.4485920     
   14842026.8239015     
   14842026.2988866     
   14842025.8859216     
   14842025.5912390     
   14842025.4160309     
   14842025.3581742     
   14749793.1179912     
   14749792.9901419     
   14749792.6303868     
   14749792.0877669     
   14749791.4108771     
   14749790.6448696     
   14749789.8317243     
   14749789.0099489     
   14749788.2137792     
   14749787.4730831     
   14749786.8136902     
   14749786.2566238     
   14749785.8168566     
   14749785.5026033     
   14749785.3158870     
   14749785.2543187     
   14653752.6416503     
   14653752.5071888     
   14653752.1319918     
   14653751.5713453     
   14653750.8782649     
   14653750.1014485     
   14653749.2831219     
   14653748.4589413     
   14653747.6587854     
   14653746.9088794     
   14653746.2339270     
   14653745.6570571     
   14653745.1974430     
   14653744.8673688     
   14653744.6711161     
   14653744.6064917     
   14553950.4711152     
   14553950.3321542     
   14553949.9486108     
   14553949.3846592     
   14553948.6993953     
   14553947.9442958     
   14553947.1595089     
   14553946.3737960     
   14553945.6089264     
   14553944.8844002     
   14553944.2207178     
   14553943.6415640     
   14553943.1715117     
   14553942.8299239     
   14553942.6260271     
   14553942.5589247     
   14450427.3686939     
   14450427.2279016     
   14450426.8452962     
   14450426.2976807     
   14450425.6523405     
   14450424.9603962     
   14450424.2541990     
   14450423.5522393     
   14450422.8669818     
   14450422.2097414     
   14450421.5942836     
   14450421.0399548     
   14450420.5741981     
   14450420.2266799     
   14450420.0168022     
   14450419.9477086     
   14343225.7832070     
   14343225.6436503     
   14343225.2762049     
   14343224.7756144     
   14343224.2146536     
   14343223.6346074     
   14343223.0534069     
   14343222.4798294     
   14343221.9185795     
   14343221.3741222     
   14343220.8527429     
   14343220.3649658     
   14343219.9308547     
   14343219.5878263     
   14343219.3738312     
   14343219.3025230     
   14232389.8555823     
   14232389.7235389     
   14232389.3957040     
   14232388.9925502     
   14232388.5750922     
   14232388.1559120     
   14232387.7408317     
   14232387.3331028     
   14232386.9343553     
   14232386.5447381     
   14232386.1647171     
   14232385.7970550     
   14232385.4487102     
   14232385.1379065     
   14232384.9229943     
   14232384.8507845     
   14117965.4266295     
   14117965.3104489     
   14117965.0817223     
   14117964.8566193     
   14117964.6335569     
   14117964.4140658     
   14117964.1974428     
   14117963.9841899     
   14117963.7753999     
   14117963.5715349     
   14117963.3717187     
   14117963.1742629     
   14117962.9782601     
   14117962.7844166     
   14117962.5955797     
   14117962.5029134     
   14000000.0000000     
   14000000.0000000     
   14000000.0000000     
   14000000.0000000     
   14000000.0000000     
   14000000.0000000     
   14000000.0000000     
   14000000.0000000     
   14000000.0000000     
   14000000.0000000     
   14000000.0000000     
   14000000.0000000     
   14000000.0000000     
   14000000.0000000     
   14000000.0000000     
   14000000.0000000     
VECTORS u double 
    0.00000E+00        -0.55584E-01         0.00000E+00
    0.00000E+00        -0.51853E-01         0.00000E+00
    0.00000E+00        -0.48126E-01         0.00000E+00
    0.00000E+00        -0.44402E-01         0.00000E+00
    0.00000E+00        -0.40682E-01         0.00000E+00
    0.00000E+00        -0.36966E-01         0.00000E+00
    0.00000E+00        -0.33253E-01         0.00000E+00
    0.00000E+00        -0.29544E-01         0.00000E+00
    0.00000E+00        -0.25839E-01         0.00000E+00
    0.00000E+00        -0.22138E-01         0.00000E+00
    0.00000E+00        -0.18440E-01         0.00000E+00
    0.00000E+00        -0.14745E-01         0.00000E+00
    0.00000E+00        -0.11054E-01         0.00000E+00
    0.00000E+00        -0.73659E-02         0.00000E+00
    0.00000E+00        -0.36813E-02         0.00000E+00
    0.00000E+00         0.00000E+00         0.00000E+00
    0.68296E-04        -0.55587E-01         0.00000E+00
    0.62800E-04        -0.51855E-01         0.00000E+00
    0.57372E-04        -0.48128E-01         0.00000E+00
    0.52021E-04        -0.44404E-01         0.00000E+00
    0.46764E-04        -0.40684E-01         0.00000E+00
    0.41619E-04        -0.36968E-01         0.00000E+00
    0.36607E-04        -0.33255E-01         0.00000E+00
    0.31745E-04        -0.29546E-01         0.00000E+00
    0.27057E-04        -0.25841E-01         0.00000E+00
    0.22571E-04        -0.22139E-01         0.00000E+00
    0.18281E-04        -0.18441E-01         0.00000E+00
    0.14190E-04        -0.14746E-01         0.00000E+00
    0.10308E-04        -0.11054E-01         0.00000E+00
    0.66444E-05        -0.73664E-02         0.00000E+00
    0.32060E-05        -0.36816E-02         0.00000E+00
    0.00000E+00         0.00000E+00         0.00000E+00
    0.13637E-03        -0.55595E-01         0.00000E+00
    0.12538E-03        -0.51863E-01         0.00000E+00
    0.11453E-03        -0.48135E-01         0.00000E+00
    0.10384E-03        -0.44411E-01         0.00000E+00
    0.93330E-04        -0.40691E-01         0.00000E+00
    0.83049E-04        -0.36974E-01         0.00000E+00
    0.73036E-04        -0.33261E-01         0.00000E+00
    0.63328E-04        -0.29551E-01         0.00000E+00
    0.53966E-04        -0.25845E-01         0.00000E+00
    0.45007E-04        -0.22143E-01         0.00000E+00
    0.36450E-04        -0.18444E-01         0.00000E+00
    0.28290E-04        -0.14749E-01         0.00000E+00
    0.20549E-04        -0.11057E-01         0.00000E+00
    0.13243E-04        -0.73679E-02         0.00000E+00
    0.63894E-05        -0.36823E-02         0.00000E+00
    0.00000E+00         0.00000E+00         0.00000E+00
    0.20401E-03        -0.55609E-01         0.00000E+00
    0.18752E-03        -0.51876E-01         0.00000E+00
    0.17126E-03        -0.48148E-01         0.00000E+00
    0.15523E-03        -0.44423E-01         0.00000E+00
    0.13950E-03        -0.40702E-01         0.00000E+00
    0.12410E-03        -0.36984E-01         0.00000E+00
    0.10911E-03        -0.33270E-01         0.00000E+00
    0.94584E-04        -0.29560E-01         0.00000E+00
    0.80579E-04        -0.25853E-01         0.00000E+00
    0.67181E-04        -0.22150E-01         0.00000E+00
    0.54396E-04        -0.18450E-01         0.00000E+00
    0.42209E-04        -0.14753E-01         0.00000E+00
    0.30653E-04        -0.11060E-01         0.00000E+00
    0.19752E-04        -0.73703E-02         0.00000E+00
    0.95283E-05        -0.36836E-02         0.00000E+00
    0.00000E+00         0.00000E+00         0.00000E+00
    0.27096E-03        -0.55628E-01         0.00000E+00
    0.24900E-03        -0.51895E-01         0.00000E+00
    0.22733E-03        -0.48165E-01         0.00000E+00
    0.20600E-03        -0.44439E-01         0.00000E+00
    0.18506E-03        -0.40717E-01         0.00000E+00
    0.16458E-03        -0.36999E-01         0.00000E+00
    0.14465E-03        -0.33283E-01         0.00000E+00
    0.12535E-03        -0.29572E-01         0.00000E+00
    0.10675E-03        -0.25864E-01         0.00000E+00
    0.88966E-04        -0.22159E-01         0.00000E+00
    0.72011E-04        -0.18458E-01         0.00000E+00
    0.55860E-04        -0.14760E-01         0.00000E+00
    0.40556E-04        -0.11065E-01         0.00000E+00
    0.26128E-04        -0.73738E-02         0.00000E+00
    0.12602E-04        -0.36854E-02         0.00000E+00
    0.00000E+00         0.00000E+00         0.00000E+00
    0.33695E-03        -0.55653E-01         0.00000E+00
    0.30955E-03        -0.51918E-01         0.00000E+00
    0.28253E-03        -0.48188E-01         0.00000E+00
    0.25592E-03        -0.44461E-01         0.00000E+00
    0.22981E-03        -0.40737E-01         0.00000E+00
    0.20430E-03        -0.37017E-01         0.00000E+00
    0.17948E-03        -0.33300E-01         0.00000E+00
    0.15548E-03        -0.29587E-01         0.00000E+00
    0.13235E-03        -0.25878E-01         0.00000E+00
    0.11024E-03        -0.22171E-01         0.00000E+00
    0.89187E-04        -0.18468E-01         0.00000E+00
    0.69161E-04        -0.14769E-01         0.00000E+00
    0.50196E-04        -0.11072E-01         0.00000E+00
    0.32330E-04        -0.73782E-02         0.00000E+00
    0.15590E-04        -0.36876E-02         0.00000E+00
    0.00000E+00         0.00000E+00         0.00000E+00
    0.40169E-03        -0.55683E-01         0.00000E+00
    0.36890E-03        -0.51947E-01         0.00000E+00
    0.33657E-03        -0.48215E-01         0.00000E+00
    0.30476E-03        -0.44487E-01         0.00000E+00
    0.27355E-03        -0.40761E-01         0.00000E+00
    0.24307E-03        -0.37040E-01         0.00000E+00
    0.21344E-03        -0.33321E-01         0.00000E+00
    0.18481E-03        -0.29606E-01         0.00000E+00
    0.15725E-03        -0.25895E-01         0.00000E+00
    0.13088E-03        -0.22186E-01         0.00000E+00
    0.10582E-03        -0.18481E-01         0.00000E+00
    0.82030E-04        -0.14779E-01         0.00000E+00
    0.59516E-04        -0.11080E-01         0.00000E+00
    0.38321E-04        -0.73836E-02         0.00000E+00
    0.18476E-04        -0.36904E-02         0.00000E+00
    0.00000E+00         0.00000E+00         0.00000E+00
    0.46482E-03        -0.55719E-01         0.00000E+00
    0.42672E-03        -0.51982E-01         0.00000E+00
    0.38918E-03        -0.48248E-01         0.00000E+00
    0.35226E-03        -0.44517E-01         0.00000E+00
    0.31605E-03        -0.40790E-01         0.00000E+00
    0.28070E-03        -0.37066E-01         0.00000E+00
    0.24636E-03        -0.33346E-01         0.00000E+00
    0.21320E-03        -0.29629E-01         0.00000E+00
    0.18131E-03        -0.25915E-01         0.00000E+00
    0.15079E-03        -0.22204E-01         0.00000E+00
    0.12183E-03        -0.18496E-01         0.00000E+00
    0.94397E-04        -0.14791E-01         0.00000E+00
    0.68462E-04        -0.11089E-01         0.00000E+00
    0.44069E-04        -0.73900E-02         0.00000E+00
    0.21243E-04        -0.36937E-02         0.00000E+00
    0.00000E+00         0.00000E+00         0.00000E+00
    0.52595E-03        -0.55760E-01         0.00000E+00
    0.48264E-03        -0.52021E-01         0.00000E+00
    0.44001E-03        -0.48285E-01         0.00000E+00
    0.39811E-03        -0.44553E-01         0.00000E+00
    0.35706E-03        -0.40824E-01         0.00000E+00
    0.31698E-03        -0.37098E-01         0.00000E+00
    0.27806E-03        -0.33375E-01         0.00000E+00
    0.24050E-03        -0.29655E-01         0.00000E+00
    0.20443E-03        -0.25938E-01         0.00000E+00
    0.16991E-03        -0.22224E-01         0.00000E+00
    0.13714E-03        -0.18513E-01         0.00000E+00
    0.10619E-03        -0.14805E-01         0.00000E+00
    0.76988E-04        -0.11100E-01         0.00000E+00
    0.49543E-04        -0.73974E-02         0.00000E+00
    0.23879E-04        -0.36974E-02         0.00000E+00
    0.00000E+00         0.00000E+00         0.00000E+00
    0.58463E-03        -0.55806E-01         0.00000E+00
    0.53626E-03        -0.52065E-01         0.00000E+00
    0.48870E-03        -0.48328E-01         0.00000E+00
    0.44201E-03        -0.44593E-01         0.00000E+00
    0.39629E-03        -0.40861E-01         0.00000E+00
    0.35168E-03        -0.37133E-01         0.00000E+00
    0.30838E-03        -0.33407E-01         0.00000E+00
    0.26658E-03        -0.29685E-01         0.00000E+00
    0.22648E-03        -0.25965E-01         0.00000E+00
    0.18816E-03        -0.22248E-01         0.00000E+00
    0.15172E-03        -0.18533E-01         0.00000E+00
    0.11736E-03        -0.14821E-01         0.00000E+00
    0.85050E-04        -0.11112E-01         0.00000E+00
    0.54716E-04        -0.74058E-02         0.00000E+00
    0.26370E-04        -0.37017E-02         0.00000E+00
    0.00000E+00         0.00000E+00         0.00000E+00
    0.64036E-03        -0.55857E-01         0.00000E+00
    0.58712E-03        -0.52115E-01         0.00000E+00
    0.53484E-03        -0.48375E-01         0.00000E+00
    0.48357E-03        -0.44638E-01         0.00000E+00
    0.43343E-03        -0.40904E-01         0.00000E+00
    0.38454E-03        -0.37173E-01         0.00000E+00
    0.33710E-03        -0.33444E-01         0.00000E+00
    0.29130E-03        -0.29718E-01         0.00000E+00
    0.24737E-03        -0.25995E-01         0.00000E+00
    0.20544E-03        -0.22274E-01         0.00000E+00
    0.16557E-03        -0.18555E-01         0.00000E+00
    0.12792E-03        -0.14840E-01         0.00000E+00
    0.92613E-04        -0.11126E-01         0.00000E+00
    0.59564E-04        -0.74151E-02         0.00000E+00
    0.28704E-04        -0.37064E-02         0.00000E+00
    0.00000E+00         0.00000E+00         0.00000E+00
    0.69256E-03        -0.55914E-01         0.00000E+00
    0.63471E-03        -0.52169E-01         0.00000E+00
    0.57798E-03        -0.48427E-01         0.00000E+00
    0.52242E-03        -0.44687E-01         0.00000E+00
    0.46814E-03        -0.40951E-01         0.00000E+00
    0.41528E-03        -0.37216E-01         0.00000E+00
    0.36401E-03        -0.33485E-01         0.00000E+00
    0.31452E-03        -0.29755E-01         0.00000E+00
    0.26702E-03        -0.26028E-01         0.00000E+00
    0.22170E-03        -0.22303E-01         0.00000E+00
    0.17865E-03        -0.18580E-01         0.00000E+00
    0.13794E-03        -0.14860E-01         0.00000E+00
    0.99717E-04        -0.11141E-01         0.00000E+00
    0.64063E-04        -0.74254E-02         0.00000E+00
    0.30866E-04        -0.37116E-02         0.00000E+00
    0.00000E+00         0.00000E+00         0.00000E+00
    0.74058E-03        -0.55974E-01         0.00000E+00
    0.67843E-03        -0.52227E-01         0.00000E+00
    0.61759E-03        -0.48483E-01         0.00000E+00
    0.55810E-03        -0.44741E-01         0.00000E+00
    0.50006E-03        -0.41002E-01         0.00000E+00
    0.44359E-03        -0.37264E-01         0.00000E+00
    0.38886E-03        -0.33529E-01         0.00000E+00
    0.33604E-03        -0.29796E-01         0.00000E+00
    0.28532E-03        -0.26064E-01         0.00000E+00
    0.23688E-03        -0.22335E-01         0.00000E+00
    0.19089E-03        -0.18607E-01         0.00000E+00
    0.14739E-03        -0.14881E-01         0.00000E+00
    0.10648E-03        -0.11158E-01         0.00000E+00
    0.68273E-04        -0.74366E-02         0.00000E+00
    0.32827E-04        -0.37173E-02         0.00000E+00
    0.00000E+00         0.00000E+00         0.00000E+00
    0.78371E-03        -0.56039E-01         0.00000E+00
    0.71765E-03        -0.52290E-01         0.00000E+00
    0.65312E-03        -0.48544E-01         0.00000E+00
    0.59014E-03        -0.44800E-01         0.00000E+00
    0.52878E-03        -0.41057E-01         0.00000E+00
    0.46915E-03        -0.37316E-01         0.00000E+00
    0.41140E-03        -0.33577E-01         0.00000E+00
    0.35568E-03        -0.29840E-01         0.00000E+00
    0.30214E-03        -0.26103E-01         0.00000E+00
    0.25096E-03        -0.22369E-01         0.00000E+00
    0.20229E-03        -0.18636E-01         0.00000E+00
    0.15626E-03        -0.14905E-01         0.00000E+00
    0.11292E-03        -0.11176E-01         0.00000E+00
    0.72349E-04        -0.74488E-02         0.00000E+00
    0.34661E-04        -0.37234E-02         0.00000E+00
    0.00000E+00         0.00000E+00         0.00000E+00
    0.82116E-03        -0.56108E-01         0.00000E+00
    0.75166E-03        -0.52357E-01         0.00000E+00
    0.68395E-03        -0.48609E-01         0.00000E+00
    0.61800E-03        -0.44862E-01         0.00000E+00
    0.55386E-03        -0.41116E-01         0.00000E+00
    0.49161E-03        -0.37372E-01         0.00000E+00
    0.43135E-03        -0.33629E-01         0.00000E+00
    0.37321E-03        -0.29887E-01         0.00000E+00
    0.31733E-03        -0.26146E-01         0.00000E+00
    0.26384E-03        -0.22406E-01         0.00000E+00
    0.21288E-03        -0.18668E-01         0.00000E+00
    0.16456E-03        -0.14931E-01         0.00000E+00
    0.11901E-03        -0.11196E-01         0.00000E+00
    0.76299E-04        -0.74620E-02         0.00000E+00
    0.36549E-04        -0.37301E-02         0.00000E+00
    0.00000E+00         0.00000E+00         0.00000E+00
    0.85208E-03        -0.56180E-01         0.00000E+00
    0.77971E-03        -0.52428E-01         0.00000E+00
    0.70941E-03        -0.48677E-01         0.00000E+00
    0.64112E-03        -0.44928E-01         0.00000E+00
    0.57484E-03        -0.41179E-01         0.00000E+00
    0.51058E-03        -0.37431E-01         0.00000E+00
    0.44842E-03        -0.33684E-01         0.00000E+00
    0.38844E-03        -0.29937E-01         0.00000E+00
    0.33074E-03        -0.26191E-01         0.00000E+00
    0.27542E-03        -0.22446E-01         0.00000E+00
    0.22260E-03        -0.18702E-01         0.00000E+00
    0.17237E-03        -0.14958E-01         0.00000E+00
    0.12486E-03        -0.11217E-01         0.00000E+00
    0.80191E-04        -0.74760E-02         0.00000E+00
    0.38515E-04        -0.37371E-02         0.00000E+00
    0.00000E+00         0.00000E+00         0.00000E+00
    0.87556E-03        -0.56255E-01         0.00000E+00
    0.80098E-03        -0.52501E-01         0.00000E+00
    0.72880E-03        -0.48749E-01         0.00000E+00
    0.65889E-03        -0.44996E-01         0.00000E+00
    0.59118E-03        -0.41245E-01         0.00000E+00
    0.52565E-03        -0.37493E-01         0.00000E+00
    0.46228E-03        -0.33742E-01         0.00000E+00
    0.40112E-03        -0.29990E-01         0.00000E+00
    0.34221E-03        -0.26239E-01         0.00000E+00
    0.28560E-03        -0.22488E-01         0.00000E+00
    0.23138E-03        -0.18737E-01         0.00000E+00
    0.17964E-03        -0.14987E-01         0.00000E+00
    0.13049E-03        -0.11238E-01         0.00000E+00
    0.84069E-04        -0.74907E-02         0.00000E+00
    0.40521E-04        -0.37445E-02         0.00000E+00
    0.00000E+00         0.00000E+00         0.00000E+00
    0.89066E-03        -0.56332E-01         0.00000E+00
    0.81463E-03        -0.52577E-01         0.00000E+00
    0.74135E-03        -0.48822E-01         0.00000E+00
    0.67064E-03        -0.45068E-01         0.00000E+00
    0.60234E-03        -0.41313E-01         0.00000E+00
    0.53635E-03        -0.37558E-01         0.00000E+00
    0.47258E-03        -0.33802E-01         0.00000E+00
    0.41098E-03        -0.30045E-01         0.00000E+00
    0.35154E-03        -0.26289E-01         0.00000E+00
    0.29426E-03        -0.22532E-01         0.00000E+00
    0.23917E-03        -0.18774E-01         0.00000E+00
    0.18634E-03        -0.15018E-01         0.00000E+00
    0.13588E-03        -0.11261E-01         0.00000E+00
    0.87898E-04        -0.75061E-02         0.00000E+00
    0.42553E-04        -0.37522E-02         0.00000E+00
    0.00000E+00         0.00000E+00         0.00000E+00
    0.89642E-03        -0.56410E-01         0.00000E+00
    0.81978E-03        -0.52654E-01         0.00000E+00
    0.74631E-03        -0.48898E-01         0.00000E+00
    0.67571E-03        -0.45141E-01         0.00000E+00
    0.60774E-03        -0.41383E-01         0.00000E+00
    0.54219E-03        -0.37624E-01         0.00000E+00
    0.47889E-03        -0.33864E-01         0.00000E+00
    0.41769E-03        -0.30102E-01         0.00000E+00
    0.35848E-03        -0.26340E-01         0.00000E+00
    0.30120E-03        -0.22577E-01         0.00000E+00
    0.24582E-03        -0.18813E-01         0.00000E+00
    0.19237E-03        -0.15049E-01         0.00000E+00
    0.14093E-03        -0.11285E-01         0.00000E+00
    0.91617E-04        -0.75221E-02         0.00000E+00
    0.44582E-04        -0.37603E-02         0.00000E+00
    0.00000E+00         0.00000E+00         0.00000E+00
    0.89193E-03        -0.56488E-01         0.00000E+00
    0.81557E-03        -0.52731E-01         0.00000E+00
    0.74287E-03        -0.48974E-01         0.00000E+00
    0.67338E-03        -0.45214E-01         0.00000E+00
    0.60673E-03        -0.41454E-01         0.00000E+00
    0.54262E-03        -0.37691E-01         0.00000E+00
    0.48074E-03        -0.33927E-01         0.00000E+00
    0.42085E-03        -0.30160E-01         0.00000E+00
    0.36271E-03        -0.26392E-01         0.00000E+00
    0.30616E-03        -0.22623E-01         0.00000E+00
    0.25112E-03        -0.18852E-01         0.00000E+00
    0.19755E-03        -0.15081E-01         0.00000E+00
    0.14552E-03        -0.11310E-01         0.00000E+00
    0.95134E-04        -0.75386E-02         0.00000E+00
    0.46558E-04        -0.37686E-02         0.00000E+00
    0.00000E+00         0.00000E+00         0.00000E+00
    0.87657E-03        -0.56566E-01         0.00000E+00
    0.80134E-03        -0.52809E-01         0.00000E+00
    0.73032E-03        -0.49049E-01         0.00000E+00
    0.66295E-03        -0.45288E-01         0.00000E+00
    0.59866E-03        -0.41525E-01         0.00000E+00
    0.53700E-03        -0.37759E-01         0.00000E+00
    0.47757E-03        -0.33990E-01         0.00000E+00
    0.41995E-03        -0.30219E-01         0.00000E+00
    0.36378E-03        -0.26445E-01         0.00000E+00
    0.30878E-03        -0.22669E-01         0.00000E+00
    0.25477E-03        -0.18892E-01         0.00000E+00
    0.20165E-03        -0.15114E-01         0.00000E+00
    0.14946E-03        -0.11335E-01         0.00000E+00
    0.98311E-04        -0.75555E-02         0.00000E+00
    0.48408E-04        -0.37771E-02         0.00000E+00
    0.00000E+00         0.00000E+00         0.00000E+00
    0.84957E-03        -0.56643E-01         0.00000E+00
    0.77650E-03        -0.52884E-01         0.00000E+00
    0.70806E-03        -0.49124E-01         0.00000E+00
    0.64373E-03        -0.45360E-01         0.00000E+00
    0.58283E-03        -0.41594E-01         0.00000E+00
    0.52467E-03        -0.37825E-01         0.00000E+00
    0.46871E-03        -0.34052E-01         0.00000E+00
    0.41438E-03        -0.30277E-01         0.00000E+00
    0.36115E-03        -0.26498E-01         0.00000E+00
    0.30857E-03        -0.22716E-01         0.00000E+00
    0.25634E-03        -0.18932E-01         0.00000E+00
    0.20430E-03        -0.15146E-01         0.00000E+00
    0.15246E-03        -0.11360E-01         0.00000E+00
    0.10095E-03        -0.75727E-02         0.00000E+00
    0.50028E-04        -0.37859E-02         0.00000E+00
    0.00000E+00         0.00000E+00         0.00000E+00
    0.81019E-03        -0.56717E-01         0.00000E+00
    0.74032E-03        -0.52958E-01         0.00000E+00
    0.67550E-03        -0.49196E-01         0.00000E+00
    0.61513E-03        -0.45430E-01         0.00000E+00
    0.55855E-03        -0.41662E-01         0.00000E+00
    0.50491E-03        -0.37889E-01         0.00000E+00
    0.45344E-03        -0.34113E-01         0.00000E+00
    0.40342E-03        -0.30333E-01         0.00000E+00
    0.35410E-03        -0.26549E-01         0.00000E+00
    0.30486E-03        -0.22762E-01         0.00000E+00
    0.25525E-03        -0.18972E-01         0.00000E+00
    0.20501E-03        -0.15179E-01         0.00000E+00
    0.15414E-03        -0.11385E-01         0.00000E+00
    0.10279E-03        -0.75901E-02         0.00000E+00
    0.51279E-04        -0.37948E-02         0.00000E+00
    0.00000E+00         0.00000E+00         0.00000E+00
    0.75785E-03        -0.56788E-01         0.00000E+00
    0.69221E-03        -0.53028E-01         0.00000E+00
    0.63204E-03        -0.49264E-01         0.00000E+00
    0.57659E-03        -0.45497E-01         0.00000E+00
    0.52522E-03        -0.41725E-01         0.00000E+00
    0.47702E-03        -0.37950E-01         0.00000E+00
    0.43098E-03        -0.34170E-01         0.00000E+00
    0.38619E-03        -0.30386E-01         0.00000E+00
    0.34172E-03        -0.26598E-01         0.00000E+00
    0.29676E-03        -0.22806E-01         0.00000E+00
    0.25068E-03        -0.19010E-01         0.00000E+00
    0.20311E-03        -0.15211E-01         0.00000E+00
    0.15398E-03        -0.11410E-01         0.00000E+00
    0.10347E-03        -0.76076E-02         0.00000E+00
    0.51979E-04        -0.38039E-02         0.00000E+00
    0.00000E+00         0.00000E+00         0.00000E+00
    0.69224E-03        -0.56855E-01         0.00000E+00
    0.63174E-03        -0.53093E-01         0.00000E+00
    0.57717E-03        -0.49328E-01         0.00000E+00
    0.52762E-03        -0.45558E-01         0.00000E+00
    0.48231E-03        -0.41784E-01         0.00000E+00
    0.44032E-03        -0.38006E-01         0.00000E+00
    0.40050E-03        -0.34223E-01         0.00000E+00
    0.36172E-03        -0.30435E-01         0.00000E+00
    0.32293E-03        -0.26643E-01         0.00000E+00
    0.28314E-03        -0.22847E-01         0.00000E+00
    0.24157E-03        -0.19047E-01         0.00000E+00
    0.19767E-03        -0.15242E-01         0.00000E+00
    0.15127E-03        -0.11435E-01         0.00000E+00
    0.10252E-03        -0.76250E-02         0.00000E+00
    0.51891E-04        -0.38131E-02         0.00000E+00
    0.00000E+00         0.00000E+00         0.00000E+00
    0.61297E-03        -0.56916E-01         0.00000E+00
    0.55865E-03        -0.53153E-01         0.00000E+00
    0.51059E-03        -0.49386E-01         0.00000E+00
    0.46784E-03        -0.45614E-01         0.00000E+00
    0.42938E-03        -0.41837E-01         0.00000E+00
    0.39423E-03        -0.38055E-01         0.00000E+00
    0.36116E-03        -0.34269E-01         0.00000E+00
    0.32892E-03        -0.30479E-01         0.00000E+00
    0.29640E-03        -0.26684E-01         0.00000E+00
    0.26257E-03        -0.22884E-01         0.00000E+00
    0.22651E-03        -0.19080E-01         0.00000E+00
    0.18748E-03        -0.15272E-01         0.00000E+00
    0.14507E-03        -0.11459E-01         0.00000E+00
    0.99324E-04        -0.76422E-02         0.00000E+00
    0.50710E-04        -0.38223E-02         0.00000E+00
    0.00000E+00         0.00000E+00         0.00000E+00
    0.51968E-03        -0.56970E-01         0.00000E+00
    0.47267E-03        -0.53206E-01         0.00000E+00
    0.43214E-03        -0.49437E-01         0.00000E+00
    0.39705E-03        -0.45662E-01         0.00000E+00
    0.36613E-03        -0.41882E-01         0.00000E+00
    0.33821E-03        -0.38098E-01         0.00000E+00
    0.31211E-03        -0.34309E-01         0.00000E+00
    0.28664E-03        -0.30516E-01         0.00000E+00
    0.26073E-03        -0.26719E-01         0.00000E+00
    0.23343E-03        -0.22917E-01         0.00000E+00
    0.20380E-03        -0.19110E-01         0.00000E+00
    0.17094E-03        -0.15299E-01         0.00000E+00
    0.13412E-03        -0.11481E-01         0.00000E+00
    0.93028E-04        -0.76589E-02         0.00000E+00
    0.48023E-04        -0.38315E-02         0.00000E+00
    0.00000E+00         0.00000E+00         0.00000E+00
    0.41203E-03        -0.57017E-01         0.00000E+00
    0.37361E-03        -0.53251E-01         0.00000E+00
    0.34176E-03        -0.49479E-01         0.00000E+00
    0.31516E-03        -0.45701E-01         0.00000E+00
    0.29225E-03        -0.41919E-01         0.00000E+00
    0.27169E-03        -0.38131E-01         0.00000E+00
    0.25246E-03        -0.34340E-01         0.00000E+00
    0.23369E-03        -0.30545E-01         0.00000E+00
    0.21448E-03        -0.26746E-01         0.00000E+00
    0.19403E-03        -0.22943E-01         0.00000E+00
    0.17152E-03        -0.19135E-01         0.00000E+00
    0.14605E-03        -0.15322E-01         0.00000E+00
    0.11663E-03        -0.11502E-01         0.00000E+00
    0.82414E-04        -0.76748E-02         0.00000E+00
    0.43240E-04        -0.38407E-02         0.00000E+00
    0.00000E+00         0.00000E+00         0.00000E+00
    0.28970E-03        -0.57054E-01         0.00000E+00
    0.26148E-03        -0.53286E-01         0.00000E+00
    0.23960E-03        -0.49512E-01         0.00000E+00
    0.22209E-03        -0.45731E-01         0.00000E+00
    0.20724E-03        -0.41945E-01         0.00000E+00
    0.19388E-03        -0.38156E-01         0.00000E+00
    0.18129E-03        -0.34363E-01         0.00000E+00
    0.16895E-03        -0.30566E-01         0.00000E+00
    0.15632E-03        -0.26766E-01         0.00000E+00
    0.14282E-03        -0.22963E-01         0.00000E+00
    0.12780E-03        -0.19154E-01         0.00000E+00
    0.11056E-03        -0.15340E-01         0.00000E+00
    0.90188E-04        -0.11518E-01         0.00000E+00
    0.65554E-04        -0.76889E-02         0.00000E+00
    0.35414E-04        -0.38494E-02         0.00000E+00
    0.00000E+00         0.00000E+00         0.00000E+00
    0.15235E-03        -0.57081E-01         0.00000E+00
    0.13665E-03        -0.53310E-01         0.00000E+00
    0.12594E-03        -0.49532E-01         0.00000E+00
    0.11742E-03        -0.45749E-01         0.00000E+00
    0.11021E-03        -0.41961E-01         0.00000E+00
    0.10373E-03        -0.38170E-01         0.00000E+00
    0.97526E-04        -0.34376E-01         0.00000E+00
    0.91413E-04        -0.30579E-01         0.00000E+00
    0.85147E-04        -0.26778E-01         0.00000E+00
    0.78467E-04        -0.22974E-01         0.00000E+00
    0.71031E-04        -0.19165E-01         0.00000E+00
    0.62384E-04        -0.15351E-01         0.00000E+00
    0.52056E-04        -0.11530E-01         0.00000E+00
    0.39255E-04        -0.76993E-02         0.00000E+00
    0.22633E-04        -0.38572E-02         0.00000E+00
    0.00000E+00         0.00000E+00         0.00000E+00
    0.00000E+00        -0.57093E-01         0.00000E+00
    0.00000E+00        -0.53319E-01         0.00000E+00
    0.00000E+00        -0.49539E-01         0.00000E+00
    0.00000E+00        -0.45755E-01         0.00000E+00
    0.00000E+00        -0.41966E-01         0.00000E+00
    0.00000E+00        -0.38175E-01         0.00000E+00
    0.00000E+00        -0.34381E-01         0.00000E+00
    0.00000E+00        -0.30583E-01         0.00000E+00
    0.00000E+00        -0.26782E-01         0.00000E+00
    0.00000E+00        -0.22978E-01         0.00000E+00
    0.00000E+00        -0.19169E-01         0.00000E+00
    0.00000E+00        -0.15355E-01         0.00000E+00
    0.00000E+00        -0.11533E-01         0.00000E+00
    0.00000E+00        -0.77032E-02         0.00000E+00
    0.00000E+00        -0.38608E-02         0.00000E+00
    0.00000E+00         0.00000E+00         0.00000E+00
CELL_DATA        450
VECTORS vDarcy double 
    0.12081E-08         0.11691E-13         0.00000E+00
    0.12081E-08         0.32431E-13         0.00000E+00
    0.12081E-08         0.48129E-13         0.00000E+00
    0.12081E-08         0.59262E-13         0.00000E+00
    0.12081E-08         0.66296E-13         0.00000E+00
    0.12081E-08         0.69689E-13         0.00000E+00
    0.12081E-08         0.69885E-13         0.00000E+00
    0.12081E-08         0.67314E-13         0.00000E+00
    0.12081E-08         0.62399E-13         0.00000E+00
    0.12081E-08         0.55555E-13         0.00000E+00
    0.12081E-08         0.47180E-13         0.00000E+00
    0.12081E-08         0.37634E-13         0.00000E+00
    0.12081E-08         0.27262E-13         0.00000E+00
    0.12081E-08         0.16420E-13         0.00000E+00
    0.12081E-08         0.54631E-14         0.00000E+00
    0.36237E-08         0.11574E-13         0.00000E+00
    0.36237E-08         0.32092E-13         0.00000E+00
    0.36237E-08         0.47597E-13         0.00000E+00
    0.36237E-08         0.58573E-13         0.00000E+00
    0.36237E-08         0.65491E-13         0.00000E+00
    0.36237E-08         0.68807E-13         0.00000E+00
    0.36237E-08         0.68965E-13         0.00000E+00
    0.36237E-08         0.66396E-13         0.00000E+00
    0.36237E-08         0.61517E-13         0.00000E+00
    0.36237E-08         0.54736E-13         0.00000E+00
    0.36237E-08         0.46448E-13         0.00000E+00
    0.36237E-08         0.37022E-13         0.00000E+00
    0.36237E-08         0.26803E-13         0.00000E+00
    0.36237E-08         0.16136E-13         0.00000E+00
    0.36237E-08         0.53669E-14         0.00000E+00
    0.60380E-08         0.11327E-13         0.00000E+00
    0.60380E-08         0.31381E-13         0.00000E+00
    0.60380E-08         0.46485E-13         0.00000E+00
    0.60379E-08         0.57138E-13         0.00000E+00
    0.60379E-08         0.63815E-13         0.00000E+00
    0.60379E-08         0.66973E-13         0.00000E+00
    0.60379E-08         0.67058E-13         0.00000E+00
    0.60379E-08         0.64495E-13         0.00000E+00
    0.60379E-08         0.59693E-13         0.00000E+00
    0.60379E-08         0.53047E-13         0.00000E+00
    0.60379E-08         0.44946E-13         0.00000E+00
    0.60379E-08         0.35767E-13         0.00000E+00
    0.60379E-08         0.25860E-13         0.00000E+00
    0.60379E-08         0.15551E-13         0.00000E+00
    0.60379E-08         0.51691E-14         0.00000E+00
    0.84499E-08         0.10925E-13         0.00000E+00
    0.84498E-08         0.30227E-13         0.00000E+00
    0.84498E-08         0.44694E-13         0.00000E+00
    0.84498E-08         0.54836E-13         0.00000E+00
    0.84498E-08         0.61136E-13         0.00000E+00
    0.84498E-08         0.64052E-13         0.00000E+00
    0.84498E-08         0.64025E-13         0.00000E+00
    0.84498E-08         0.61481E-13         0.00000E+00
    0.84498E-08         0.56809E-13         0.00000E+00
    0.84498E-08         0.50384E-13         0.00000E+00
    0.84498E-08         0.42591E-13         0.00000E+00
    0.84498E-08         0.33808E-13         0.00000E+00
    0.84498E-08         0.24384E-13         0.00000E+00
    0.84498E-08         0.14636E-13         0.00000E+00
    0.84498E-08         0.48585E-14         0.00000E+00
    0.10858E-07         0.10334E-13         0.00000E+00
    0.10858E-07         0.28534E-13         0.00000E+00
    0.10858E-07         0.42074E-13         0.00000E+00
    0.10858E-07         0.51485E-13         0.00000E+00
    0.10858E-07         0.57255E-13         0.00000E+00
    0.10858E-07         0.59837E-13         0.00000E+00
    0.10858E-07         0.59666E-13         0.00000E+00
    0.10858E-07         0.57160E-13         0.00000E+00
    0.10858E-07         0.52693E-13         0.00000E+00
    0.10858E-07         0.46605E-13         0.00000E+00
    0.10858E-07         0.39264E-13         0.00000E+00
    0.10858E-07         0.31048E-13         0.00000E+00
    0.10858E-07         0.22306E-13         0.00000E+00
    0.10858E-07         0.13343E-13         0.00000E+00
    0.10858E-07         0.44210E-14         0.00000E+00
    0.13263E-07         0.95115E-14         0.00000E+00
    0.13263E-07         0.26183E-13         0.00000E+00
    0.13263E-07         0.38444E-13         0.00000E+00
    0.13263E-07         0.46851E-13         0.00000E+00
    0.13263E-07         0.51908E-13         0.00000E+00
    0.13263E-07         0.54059E-13         0.00000E+00
    0.13263E-07         0.53715E-13         0.00000E+00
    0.13263E-07         0.51278E-13         0.00000E+00
    0.13263E-07         0.47112E-13         0.00000E+00
    0.13263E-07         0.41523E-13         0.00000E+00
    0.13263E-07         0.34820E-13         0.00000E+00
    0.13263E-07         0.27377E-13         0.00000E+00
    0.13263E-07         0.19544E-13         0.00000E+00
    0.13263E-07         0.11616E-13         0.00000E+00
    0.13263E-07         0.38319E-14         0.00000E+00
    0.15662E-07         0.84033E-14         0.00000E+00
    0.15662E-07         0.23026E-13         0.00000E+00
    0.15662E-07         0.33588E-13         0.00000E+00
    0.15662E-07         0.40668E-13         0.00000E+00
    0.15662E-07         0.44787E-13         0.00000E+00
    0.15662E-07         0.46393E-13         0.00000E+00
    0.15662E-07         0.45857E-13         0.00000E+00
    0.15662E-07         0.43529E-13         0.00000E+00
    0.15662E-07         0.39782E-13         0.00000E+00
    0.15662E-07         0.34892E-13         0.00000E+00
    0.15662E-07         0.29078E-13         0.00000E+00
    0.15662E-07         0.22669E-13         0.00000E+00
    0.15662E-07         0.16013E-13         0.00000E+00
    0.15662E-07         0.94030E-14         0.00000E+00
    0.15662E-07         0.30713E-14         0.00000E+00
    0.18055E-07         0.69486E-14         0.00000E+00
    0.18055E-07         0.18894E-13         0.00000E+00
    0.18055E-07         0.27258E-13         0.00000E+00
    0.18055E-07         0.32637E-13         0.00000E+00
    0.18055E-07         0.35550E-13         0.00000E+00
    0.18055E-07         0.36458E-13         0.00000E+00
    0.18055E-07         0.35709E-13         0.00000E+00
    0.18055E-07         0.33574E-13         0.00000E+00
    0.18055E-07         0.30377E-13         0.00000E+00
    0.18055E-07         0.26412E-13         0.00000E+00
    0.18055E-07         0.21820E-13         0.00000E+00
    0.18055E-07         0.16773E-13         0.00000E+00
    0.18055E-07         0.11610E-13         0.00000E+00
    0.18055E-07         0.66527E-14         0.00000E+00
    0.18055E-07         0.21270E-14         0.00000E+00
    0.20441E-07         0.50716E-14         0.00000E+00
    0.20441E-07         0.13593E-13         0.00000E+00
    0.20441E-07         0.19183E-13         0.00000E+00
    0.20441E-07         0.22427E-13         0.00000E+00
    0.20441E-07         0.23838E-13         0.00000E+00
    0.20440E-07         0.23860E-13         0.00000E+00
    0.20440E-07         0.22847E-13         0.00000E+00
    0.20440E-07         0.21025E-13         0.00000E+00
    0.20440E-07         0.18575E-13         0.00000E+00
    0.20440E-07         0.15774E-13         0.00000E+00
    0.20440E-07         0.12761E-13         0.00000E+00
    0.20440E-07         0.95187E-14         0.00000E+00
    0.20440E-07         0.62475E-14         0.00000E+00
    0.20440E-07         0.33058E-14         0.00000E+00
    0.20440E-07         0.98091E-15         0.00000E+00
    0.22818E-07         0.27081E-14         0.00000E+00
    0.22818E-07         0.69404E-14         0.00000E+00
    0.22818E-07         0.90785E-14         0.00000E+00
    0.22818E-07         0.96799E-14         0.00000E+00
    0.22818E-07         0.92584E-14         0.00000E+00
    0.22818E-07         0.82164E-14         0.00000E+00
    0.22818E-07         0.68914E-14         0.00000E+00
    0.22818E-07         0.54819E-14         0.00000E+00
    0.22818E-07         0.40348E-14         0.00000E+00
    0.22818E-07         0.26710E-14         0.00000E+00
    0.22818E-07         0.15746E-14         0.00000E+00
    0.22818E-07         0.67371E-15         0.00000E+00
    0.22818E-07        -0.16489E-15         0.00000E+00
    0.22818E-07        -0.66509E-15         0.00000E+00
    0.22818E-07        -0.38273E-15         0.00000E+00
    0.25187E-07        -0.21429E-15         0.00000E+00
    0.25187E-07        -0.12736E-14         0.00000E+00
    0.25187E-07        -0.33650E-14         0.00000E+00
    0.25187E-07        -0.59673E-14         0.00000E+00
    0.25187E-07        -0.85795E-14         0.00000E+00
    0.25187E-07        -0.10845E-13         0.00000E+00
    0.25187E-07        -0.12518E-13         0.00000E+00
    0.25187E-07        -0.13434E-13         0.00000E+00
    0.25187E-07        -0.13602E-13         0.00000E+00
    0.25187E-07        -0.13132E-13         0.00000E+00
    0.25187E-07        -0.11967E-13         0.00000E+00
    0.25187E-07        -0.10086E-13         0.00000E+00
    0.25187E-07        -0.77917E-14         0.00000E+00
    0.25187E-07        -0.52515E-14         0.00000E+00
    0.25187E-07        -0.19531E-14         0.00000E+00
    0.27546E-07        -0.37544E-14         0.00000E+00
    0.27546E-07        -0.11241E-13         0.00000E+00
    0.27546E-07        -0.18445E-13         0.00000E+00
    0.27546E-07        -0.24855E-13         0.00000E+00
    0.27546E-07        -0.30026E-13         0.00000E+00
    0.27546E-07        -0.33684E-13         0.00000E+00
    0.27546E-07        -0.35695E-13         0.00000E+00
    0.27546E-07        -0.36001E-13         0.00000E+00
    0.27546E-07        -0.34646E-13         0.00000E+00
    0.27546E-07        -0.31874E-13         0.00000E+00
    0.27546E-07        -0.27951E-13         0.00000E+00
    0.27546E-07        -0.22928E-13         0.00000E+00
    0.27546E-07        -0.16959E-13         0.00000E+00
    0.27546E-07        -0.10564E-13         0.00000E+00
    0.27546E-07        -0.36716E-14         0.00000E+00
    0.29894E-07        -0.79537E-14         0.00000E+00
    0.29894E-07        -0.23102E-13         0.00000E+00
    0.29894E-07        -0.36383E-13         0.00000E+00
    0.29894E-07        -0.47240E-13         0.00000E+00
    0.29894E-07        -0.55353E-13         0.00000E+00
    0.29894E-07        -0.60569E-13         0.00000E+00
    0.29894E-07        -0.62878E-13         0.00000E+00
    0.29894E-07        -0.62388E-13         0.00000E+00
    0.29894E-07        -0.59274E-13         0.00000E+00
    0.29894E-07        -0.53827E-13         0.00000E+00
    0.29894E-07        -0.46503E-13         0.00000E+00
    0.29894E-07        -0.37723E-13         0.00000E+00
    0.29894E-07        -0.27728E-13         0.00000E+00
    0.29894E-07        -0.16853E-13         0.00000E+00
    0.29894E-07        -0.56306E-14         0.00000E+00
    0.32230E-07        -0.12887E-13         0.00000E+00
    0.32230E-07        -0.36973E-13         0.00000E+00
    0.32230E-07        -0.57274E-13         0.00000E+00
    0.32230E-07        -0.73245E-13         0.00000E+00
    0.32230E-07        -0.84702E-13         0.00000E+00
    0.32230E-07        -0.91640E-13         0.00000E+00
    0.32230E-07        -0.94211E-13         0.00000E+00
    0.32230E-07        -0.92698E-13         0.00000E+00
    0.32230E-07        -0.87481E-13         0.00000E+00
    0.32230E-07        -0.79003E-13         0.00000E+00
    0.32230E-07        -0.67804E-13         0.00000E+00
    0.32230E-07        -0.54541E-13         0.00000E+00
    0.32230E-07        -0.39813E-13         0.00000E+00
    0.32230E-07        -0.23995E-13         0.00000E+00
    0.32230E-07        -0.79205E-14         0.00000E+00
    0.34553E-07        -0.18553E-13         0.00000E+00
    0.34553E-07        -0.52829E-13         0.00000E+00
    0.34553E-07        -0.81077E-13         0.00000E+00
    0.34553E-07        -0.10284E-12         0.00000E+00
    0.34553E-07        -0.11805E-12         0.00000E+00
    0.34553E-07        -0.12688E-12         0.00000E+00
    0.34553E-07        -0.12966E-12         0.00000E+00
    0.34553E-07        -0.12690E-12         0.00000E+00
    0.34553E-07        -0.11918E-12         0.00000E+00
    0.34553E-07        -0.10720E-12         0.00000E+00
    0.34553E-07        -0.91668E-13         0.00000E+00
    0.34553E-07        -0.73390E-13         0.00000E+00
    0.34553E-07        -0.53185E-13         0.00000E+00
    0.34553E-07        -0.31877E-13         0.00000E+00
    0.34553E-07        -0.10525E-13         0.00000E+00
    0.36863E-07        -0.24903E-13         0.00000E+00
    0.36863E-07        -0.70543E-13         0.00000E+00
    0.36863E-07        -0.10760E-12         0.00000E+00
    0.36863E-07        -0.13579E-12         0.00000E+00
    0.36863E-07        -0.15516E-12         0.00000E+00
    0.36863E-07        -0.16605E-12         0.00000E+00
    0.36863E-07        -0.16902E-12         0.00000E+00
    0.36863E-07        -0.16479E-12         0.00000E+00
    0.36863E-07        -0.15420E-12         0.00000E+00
    0.36863E-07        -0.13818E-12         0.00000E+00
    0.36863E-07        -0.11775E-12         0.00000E+00
    0.36863E-07        -0.93953E-13         0.00000E+00
    0.36863E-07        -0.67851E-13         0.00000E+00
    0.36863E-07        -0.40591E-13         0.00000E+00
    0.36863E-07        -0.13414E-13         0.00000E+00
    0.39158E-07        -0.31794E-13         0.00000E+00
    0.39158E-07        -0.89779E-13         0.00000E+00
    0.39158E-07        -0.13641E-12         0.00000E+00
    0.39158E-07        -0.17159E-12         0.00000E+00
    0.39158E-07        -0.19552E-12         0.00000E+00
    0.39158E-07        -0.20869E-12         0.00000E+00
    0.39158E-07        -0.21184E-12         0.00000E+00
    0.39158E-07        -0.20596E-12         0.00000E+00
    0.39158E-07        -0.19216E-12         0.00000E+00
    0.39158E-07        -0.17163E-12         0.00000E+00
    0.39158E-07        -0.14575E-12         0.00000E+00
    0.39158E-07        -0.11592E-12         0.00000E+00
    0.39158E-07        -0.83530E-13         0.00000E+00
    0.39158E-07        -0.49941E-13         0.00000E+00
    0.39158E-07        -0.16504E-13         0.00000E+00
    0.41437E-07        -0.38993E-13         0.00000E+00
    0.41437E-07        -0.10991E-12         0.00000E+00
    0.41437E-07        -0.16669E-12         0.00000E+00
    0.41437E-07        -0.20939E-12         0.00000E+00
    0.41437E-07        -0.23828E-12         0.00000E+00
    0.41437E-07        -0.25397E-12         0.00000E+00
    0.41437E-07        -0.25742E-12         0.00000E+00
    0.41437E-07        -0.24978E-12         0.00000E+00
    0.41437E-07        -0.23239E-12         0.00000E+00
    0.41437E-07        -0.20688E-12         0.00000E+00
    0.41437E-07        -0.17507E-12         0.00000E+00
    0.41437E-07        -0.13877E-12         0.00000E+00
    0.41437E-07        -0.99755E-13         0.00000E+00
    0.41437E-07        -0.59601E-13         0.00000E+00
    0.41437E-07        -0.19713E-13         0.00000E+00
    0.43699E-07        -0.46056E-13         0.00000E+00
    0.43699E-07        -0.12998E-12         0.00000E+00
    0.43699E-07        -0.19734E-12         0.00000E+00
    0.43699E-07        -0.24797E-12         0.00000E+00
    0.43699E-07        -0.28213E-12         0.00000E+00
    0.43699E-07        -0.30058E-12         0.00000E+00
    0.43699E-07        -0.30442E-12         0.00000E+00
    0.43699E-07        -0.29491E-12         0.00000E+00
    0.43699E-07        -0.27372E-12         0.00000E+00
    0.43699E-07        -0.24296E-12         0.00000E+00
    0.43699E-07        -0.20494E-12         0.00000E+00
    0.43699E-07        -0.16195E-12         0.00000E+00
    0.43699E-07        -0.11614E-12         0.00000E+00
    0.43699E-07        -0.69355E-13         0.00000E+00
    0.43699E-07        -0.22961E-13         0.00000E+00
    0.45944E-07        -0.53037E-13         0.00000E+00
    0.45944E-07        -0.14960E-12         0.00000E+00
    0.45944E-07        -0.22715E-12         0.00000E+00
    0.45944E-07        -0.28570E-12         0.00000E+00
    0.45944E-07        -0.32526E-12         0.00000E+00
    0.45944E-07        -0.34661E-12         0.00000E+00
    0.45944E-07        -0.35094E-12         0.00000E+00
    0.45944E-07        -0.33959E-12         0.00000E+00
    0.45944E-07        -0.31464E-12         0.00000E+00
    0.45944E-07        -0.27866E-12         0.00000E+00
    0.45944E-07        -0.23444E-12         0.00000E+00
    0.45944E-07        -0.18480E-12         0.00000E+00
    0.45944E-07        -0.13228E-12         0.00000E+00
    0.45944E-07        -0.78923E-13         0.00000E+00
    0.45944E-07        -0.26129E-13         0.00000E+00
    0.48170E-07        -0.59816E-13         0.00000E+00
    0.48170E-07        -0.16834E-12         0.00000E+00
    0.48171E-07        -0.25516E-12         0.00000E+00
    0.48171E-07        -0.32084E-12         0.00000E+00
    0.48171E-07        -0.36548E-12         0.00000E+00
    0.48171E-07        -0.38969E-12         0.00000E+00
    0.48171E-07        -0.39455E-12         0.00000E+00
    0.48171E-07        -0.38160E-12         0.00000E+00
    0.48171E-07        -0.35325E-12         0.00000E+00
    0.48171E-07        -0.31243E-12         0.00000E+00
    0.48171E-07        -0.26241E-12         0.00000E+00
    0.48171E-07        -0.20647E-12         0.00000E+00
    0.48171E-07        -0.14753E-12         0.00000E+00
    0.48171E-07        -0.87900E-13         0.00000E+00
    0.48171E-07        -0.29076E-13         0.00000E+00
    0.50377E-07        -0.65834E-13         0.00000E+00
    0.50377E-07        -0.18511E-12         0.00000E+00
    0.50377E-07        -0.28009E-12         0.00000E+00
    0.50378E-07        -0.35156E-12         0.00000E+00
    0.50378E-07        -0.40024E-12         0.00000E+00
    0.50378E-07        -0.42664E-12         0.00000E+00
    0.50378E-07        -0.43180E-12         0.00000E+00
    0.50378E-07        -0.41772E-12         0.00000E+00
    0.50378E-07        -0.38686E-12         0.00000E+00
    0.50378E-07        -0.34230E-12         0.00000E+00
    0.50378E-07        -0.28752E-12         0.00000E+00
    0.50378E-07        -0.22612E-12         0.00000E+00
    0.50378E-07        -0.16140E-12         0.00000E+00
    0.50378E-07        -0.96024E-13         0.00000E+00
    0.50378E-07        -0.31728E-13         0.00000E+00
    0.52564E-07        -0.70748E-13         0.00000E+00
    0.52564E-07        -0.19895E-12         0.00000E+00
    0.52564E-07        -0.30038E-12         0.00000E+00
    0.52564E-07        -0.37565E-12         0.00000E+00
    0.52564E-07        -0.42621E-12         0.00000E+00
    0.52564E-07        -0.45324E-12         0.00000E+00
    0.52564E-07        -0.45833E-12         0.00000E+00
    0.52564E-07        -0.44377E-12         0.00000E+00
    0.52564E-07        -0.41207E-12         0.00000E+00
    0.52565E-07        -0.36588E-12         0.00000E+00
    0.52565E-07        -0.30832E-12         0.00000E+00
    0.52565E-07        -0.24297E-12         0.00000E+00
    0.52565E-07        -0.17351E-12         0.00000E+00
    0.52565E-07        -0.10312E-12         0.00000E+00
    0.52565E-07        -0.34028E-13         0.00000E+00
    0.54729E-07        -0.74739E-13         0.00000E+00
    0.54729E-07        -0.20941E-12         0.00000E+00
    0.54729E-07        -0.31435E-12         0.00000E+00
    0.54729E-07        -0.39034E-12         0.00000E+00
    0.54729E-07        -0.43959E-12         0.00000E+00
    0.54729E-07        -0.46485E-12         0.00000E+00
    0.54729E-07        -0.46898E-12         0.00000E+00
    0.54730E-07        -0.45484E-12         0.00000E+00
    0.54730E-07        -0.42472E-12         0.00000E+00
    0.54730E-07        -0.38020E-12         0.00000E+00
    0.54730E-07        -0.32309E-12         0.00000E+00
    0.54730E-07        -0.25626E-12         0.00000E+00
    0.54730E-07        -0.18359E-12         0.00000E+00
    0.54730E-07        -0.10912E-12         0.00000E+00
    0.54730E-07        -0.35956E-13         0.00000E+00
    0.56871E-07        -0.77904E-13         0.00000E+00
    0.56871E-07        -0.21618E-12         0.00000E+00
    0.56872E-07        -0.32042E-12         0.00000E+00
    0.56872E-07        -0.39272E-12         0.00000E+00
    0.56872E-07        -0.43648E-12         0.00000E+00
    0.56872E-07        -0.45677E-12         0.00000E+00
    0.56872E-07        -0.45870E-12         0.00000E+00
    0.56872E-07        -0.44592E-12         0.00000E+00
    0.56872E-07        -0.42010E-12         0.00000E+00
    0.56872E-07        -0.38141E-12         0.00000E+00
    0.56873E-07        -0.32938E-12         0.00000E+00
    0.56873E-07        -0.26489E-12         0.00000E+00
    0.56873E-07        -0.19137E-12         0.00000E+00
    0.56873E-07        -0.11401E-12         0.00000E+00
    0.56873E-07        -0.37533E-13         0.00000E+00
    0.58991E-07        -0.79706E-13         0.00000E+00
    0.58991E-07        -0.21829E-12         0.00000E+00
    0.58991E-07        -0.31670E-12         0.00000E+00
    0.58991E-07        -0.37911E-12         0.00000E+00
    0.58991E-07        -0.41229E-12         0.00000E+00
    0.58991E-07        -0.42481E-12         0.00000E+00
    0.58992E-07        -0.42387E-12         0.00000E+00
    0.58992E-07        -0.41317E-12         0.00000E+00
    0.58992E-07        -0.39370E-12         0.00000E+00
    0.58992E-07        -0.36446E-12         0.00000E+00
    0.58992E-07        -0.32296E-12         0.00000E+00
    0.58992E-07        -0.26663E-12         0.00000E+00
    0.58992E-07        -0.19634E-12         0.00000E+00
    0.58992E-07        -0.11789E-12         0.00000E+00
    0.58992E-07        -0.38805E-13         0.00000E+00
    0.61085E-07        -0.79874E-13         0.00000E+00
    0.61086E-07        -0.21370E-12         0.00000E+00
    0.61086E-07        -0.29865E-12         0.00000E+00
    0.61086E-07        -0.34369E-12         0.00000E+00
    0.61086E-07        -0.36241E-12         0.00000E+00
    0.61087E-07        -0.36680E-12         0.00000E+00
    0.61087E-07        -0.36342E-12         0.00000E+00
    0.61087E-07        -0.35515E-12         0.00000E+00
    0.61087E-07        -0.34239E-12         0.00000E+00
    0.61087E-07        -0.32391E-12         0.00000E+00
    0.61087E-07        -0.29692E-12         0.00000E+00
    0.61087E-07        -0.25639E-12         0.00000E+00
    0.61087E-07        -0.19675E-12         0.00000E+00
    0.61087E-07        -0.12077E-12         0.00000E+00
    0.61087E-07        -0.40003E-13         0.00000E+00
    0.63155E-07        -0.77380E-13         0.00000E+00
    0.63155E-07        -0.19809E-12         0.00000E+00
    0.63156E-07        -0.25748E-12         0.00000E+00
    0.63156E-07        -0.27876E-12         0.00000E+00
    0.63156E-07        -0.28469E-12         0.00000E+00
    0.63156E-07        -0.28385E-12         0.00000E+00
    0.63157E-07        -0.27959E-12         0.00000E+00
    0.63157E-07        -0.27352E-12         0.00000E+00
    0.63157E-07        -0.26613E-12         0.00000E+00
    0.63157E-07        -0.25682E-12         0.00000E+00
    0.63157E-07        -0.24373E-12         0.00000E+00
    0.63157E-07        -0.22293E-12         0.00000E+00
    0.63157E-07        -0.18629E-12         0.00000E+00
    0.63157E-07        -0.12220E-12         0.00000E+00
    0.63157E-07        -0.40891E-13         0.00000E+00
    0.65199E-07        -0.70718E-13         0.00000E+00
    0.65199E-07        -0.15856E-12         0.00000E+00
    0.65199E-07        -0.17899E-12         0.00000E+00
    0.65200E-07        -0.18249E-12         0.00000E+00
    0.65200E-07        -0.18196E-12         0.00000E+00
    0.65200E-07        -0.17998E-12         0.00000E+00
    0.65200E-07        -0.17692E-12         0.00000E+00
    0.65200E-07        -0.17309E-12         0.00000E+00
    0.65200E-07        -0.16909E-12         0.00000E+00
    0.65201E-07        -0.16520E-12         0.00000E+00
    0.65201E-07        -0.16101E-12         0.00000E+00
    0.65201E-07        -0.15509E-12         0.00000E+00
    0.65201E-07        -0.14378E-12         0.00000E+00
    0.65201E-07        -0.11503E-12         0.00000E+00
    0.65201E-07        -0.46975E-13         0.00000E+00
    0.67215E-07        -0.33099E-13         0.00000E+00
    0.67215E-07        -0.65163E-13         0.00000E+00
    0.67216E-07        -0.64131E-13         0.00000E+00
    0.67216E-07        -0.63550E-13         0.00000E+00
    0.67216E-07        -0.62533E-13         0.00000E+00
    0.67216E-07        -0.61716E-13         0.00000E+00
    0.67217E-07        -0.60756E-13         0.00000E+00
    0.67217E-07        -0.59485E-13         0.00000E+00
    0.67217E-07        -0.58082E-13         0.00000E+00
    0.67217E-07        -0.56929E-13         0.00000E+00
    0.67217E-07        -0.56256E-13         0.00000E+00
    0.67217E-07        -0.55843E-13         0.00000E+00
    0.67217E-07        -0.55228E-13         0.00000E+00
    0.67217E-07        -0.53801E-13         0.00000E+00
    0.67217E-07        -0.26402E-13         0.00000E+00
POINT_DATA        496
VECTORS vDarcyNodal double 
    0.12081E-08         0.11720E-13         0.00000E+00
    0.12081E-08         0.22117E-13         0.00000E+00
    0.12081E-08         0.40387E-13         0.00000E+00
    0.12081E-08         0.53844E-13         0.00000E+00
    0.12081E-08         0.62961E-13         0.00000E+00
    0.12081E-08         0.68199E-13         0.00000E+00
    0.12081E-08         0.70008E-13         0.00000E+00
    0.12081E-08         0.68824E-13         0.00000E+00
    0.12081E-08         0.65077E-13         0.00000E+00
    0.12081E-08         0.59186E-13         0.00000E+00
    0.12081E-08         0.51559E-13         0.00000E+00
    0.12081E-08         0.42573E-13         0.00000E+00
    0.12081E-08         0.32580E-13         0.00000E+00
    0.12081E-08         0.21933E-13         0.00000E+00
    0.12081E-08         0.10989E-13         0.00000E+00
    0.12081E-08         0.54868E-14         0.00000E+00
    0.24159E-08         0.11662E-13         0.00000E+00
    0.24159E-08         0.22005E-13         0.00000E+00
    0.24159E-08         0.40174E-13         0.00000E+00
    0.24159E-08         0.53546E-13         0.00000E+00
    0.24159E-08         0.62596E-13         0.00000E+00
    0.24159E-08         0.67786E-13         0.00000E+00
    0.24159E-08         0.69566E-13         0.00000E+00
    0.24159E-08         0.68374E-13         0.00000E+00
    0.24159E-08         0.64636E-13         0.00000E+00
    0.24159E-08         0.58768E-13         0.00000E+00
    0.24159E-08         0.51176E-13         0.00000E+00
    0.24159E-08         0.42241E-13         0.00000E+00
    0.24159E-08         0.32316E-13         0.00000E+00
    0.24159E-08         0.21749E-13         0.00000E+00
    0.24159E-08         0.10895E-13         0.00000E+00
    0.24159E-08         0.54394E-14         0.00000E+00
    0.48309E-08         0.11485E-13         0.00000E+00
    0.48309E-08         0.21660E-13         0.00000E+00
    0.48308E-08         0.39515E-13         0.00000E+00
    0.48308E-08         0.52624E-13         0.00000E+00
    0.48308E-08         0.61468E-13         0.00000E+00
    0.48308E-08         0.66512E-13         0.00000E+00
    0.48308E-08         0.68206E-13         0.00000E+00
    0.48308E-08         0.66988E-13         0.00000E+00
    0.48308E-08         0.63278E-13         0.00000E+00
    0.48308E-08         0.57485E-13         0.00000E+00
    0.48308E-08         0.50007E-13         0.00000E+00
    0.48308E-08         0.41228E-13         0.00000E+00
    0.48308E-08         0.31509E-13         0.00000E+00
    0.48308E-08         0.21189E-13         0.00000E+00
    0.48308E-08         0.10608E-13         0.00000E+00
    0.48308E-08         0.52944E-14         0.00000E+00
    0.72439E-08         0.11169E-13         0.00000E+00
    0.72439E-08         0.21047E-13         0.00000E+00
    0.72439E-08         0.38351E-13         0.00000E+00
    0.72439E-08         0.50999E-13         0.00000E+00
    0.72439E-08         0.59484E-13         0.00000E+00
    0.72439E-08         0.64276E-13         0.00000E+00
    0.72439E-08         0.65825E-13         0.00000E+00
    0.72438E-08         0.64565E-13         0.00000E+00
    0.72438E-08         0.60910E-13         0.00000E+00
    0.72438E-08         0.55254E-13         0.00000E+00
    0.72438E-08         0.47985E-13         0.00000E+00
    0.72438E-08         0.39484E-13         0.00000E+00
    0.72438E-08         0.30117E-13         0.00000E+00
    0.72438E-08         0.20221E-13         0.00000E+00
    0.72438E-08         0.10112E-13         0.00000E+00
    0.72438E-08         0.50439E-14         0.00000E+00
    0.96541E-08         0.10682E-13         0.00000E+00
    0.96541E-08         0.20105E-13         0.00000E+00
    0.96541E-08         0.36570E-13         0.00000E+00
    0.96541E-08         0.48531E-13         0.00000E+00
    0.96541E-08         0.56488E-13         0.00000E+00
    0.96541E-08         0.60912E-13         0.00000E+00
    0.96541E-08         0.62252E-13         0.00000E+00
    0.96540E-08         0.60941E-13         0.00000E+00
    0.96540E-08         0.57379E-13         0.00000E+00
    0.96540E-08         0.51939E-13         0.00000E+00
    0.96540E-08         0.44990E-13         0.00000E+00
    0.96540E-08         0.36914E-13         0.00000E+00
    0.96540E-08         0.28075E-13         0.00000E+00
    0.96540E-08         0.18799E-13         0.00000E+00
    0.96540E-08         0.93819E-14         0.00000E+00
    0.96540E-08         0.46732E-14         0.00000E+00
    0.12061E-07         0.99870E-14         0.00000E+00
    0.12061E-07         0.18764E-13         0.00000E+00
    0.12061E-07         0.34038E-13         0.00000E+00
    0.12061E-07         0.45028E-13         0.00000E+00
    0.12061E-07         0.52252E-13         0.00000E+00
    0.12060E-07         0.56179E-13         0.00000E+00
    0.12060E-07         0.57250E-13         0.00000E+00
    0.12060E-07         0.55886E-13         0.00000E+00
    0.12060E-07         0.52474E-13         0.00000E+00
    0.12060E-07         0.47359E-13         0.00000E+00
    0.12060E-07         0.40879E-13         0.00000E+00
    0.12060E-07         0.33398E-13         0.00000E+00
    0.12060E-07         0.25279E-13         0.00000E+00
    0.12060E-07         0.16850E-13         0.00000E+00
    0.12060E-07         0.83826E-14         0.00000E+00
    0.12060E-07         0.41688E-14         0.00000E+00
    0.14462E-07         0.90360E-14         0.00000E+00
    0.14462E-07         0.16931E-13         0.00000E+00
    0.14462E-07         0.30589E-13         0.00000E+00
    0.14462E-07         0.40267E-13         0.00000E+00
    0.14462E-07         0.46508E-13         0.00000E+00
    0.14462E-07         0.49788E-13         0.00000E+00
    0.14462E-07         0.50524E-13         0.00000E+00
    0.14462E-07         0.49108E-13         0.00000E+00
    0.14462E-07         0.45917E-13         0.00000E+00
    0.14462E-07         0.41277E-13         0.00000E+00
    0.14462E-07         0.35464E-13         0.00000E+00
    0.14462E-07         0.28799E-13         0.00000E+00
    0.14462E-07         0.21642E-13         0.00000E+00
    0.14462E-07         0.14310E-13         0.00000E+00
    0.14462E-07         0.70655E-14         0.00000E+00
    0.14462E-07         0.34949E-14         0.00000E+00
    0.16858E-07         0.77706E-14         0.00000E+00
    0.16858E-07         0.14499E-13         0.00000E+00
    0.16858E-07         0.26026E-13         0.00000E+00
    0.16858E-07         0.33989E-13         0.00000E+00
    0.16858E-07         0.38947E-13         0.00000E+00
    0.16858E-07         0.41391E-13         0.00000E+00
    0.16858E-07         0.41725E-13         0.00000E+00
    0.16858E-07         0.40278E-13         0.00000E+00
    0.16858E-07         0.37394E-13         0.00000E+00
    0.16858E-07         0.33397E-13         0.00000E+00
    0.16858E-07         0.28505E-13         0.00000E+00
    0.16858E-07         0.22947E-13         0.00000E+00
    0.16858E-07         0.17040E-13         0.00000E+00
    0.16858E-07         0.11106E-13         0.00000E+00
    0.16858E-07         0.54088E-14         0.00000E+00
    0.16858E-07         0.26477E-14         0.00000E+00
    0.19248E-07         0.61266E-14         0.00000E+00
    0.19248E-07         0.11344E-13         0.00000E+00
    0.19248E-07         0.20126E-13         0.00000E+00
    0.19248E-07         0.25906E-13         0.00000E+00
    0.19248E-07         0.29240E-13         0.00000E+00
    0.19248E-07         0.30617E-13         0.00000E+00
    0.19248E-07         0.30442E-13         0.00000E+00
    0.19248E-07         0.29005E-13         0.00000E+00
    0.19248E-07         0.26556E-13         0.00000E+00
    0.19248E-07         0.23391E-13         0.00000E+00
    0.19247E-07         0.19727E-13         0.00000E+00
    0.19247E-07         0.15646E-13         0.00000E+00
    0.19247E-07         0.11343E-13         0.00000E+00
    0.19247E-07         0.71570E-14         0.00000E+00
    0.19247E-07         0.33709E-14         0.00000E+00
    0.19247E-07         0.16064E-14         0.00000E+00
    0.21630E-07         0.40167E-14         0.00000E+00
    0.21630E-07         0.73210E-14         0.00000E+00
    0.21629E-07         0.12650E-13         0.00000E+00
    0.21629E-07         0.15704E-13         0.00000E+00
    0.21629E-07         0.17024E-13         0.00000E+00
    0.21629E-07         0.17080E-13         0.00000E+00
    0.21629E-07         0.16265E-13         0.00000E+00
    0.21629E-07         0.14868E-13         0.00000E+00
    0.21629E-07         0.13044E-13         0.00000E+00
    0.21629E-07         0.10958E-13         0.00000E+00
    0.21629E-07         0.88083E-14         0.00000E+00
    0.21629E-07         0.66337E-14         0.00000E+00
    0.21629E-07         0.44229E-14         0.00000E+00
    0.21629E-07         0.23964E-14         0.00000E+00
    0.21629E-07         0.91584E-15         0.00000E+00
    0.21629E-07         0.35547E-15         0.00000E+00
    0.24003E-07         0.13996E-14         0.00000E+00
    0.24003E-07         0.23275E-14         0.00000E+00
    0.24003E-07         0.33684E-14         0.00000E+00
    0.24003E-07         0.30540E-14         0.00000E+00
    0.24003E-07         0.19140E-14         0.00000E+00
    0.24003E-07         0.39458E-15         0.00000E+00
    0.24003E-07        -0.11567E-14         0.00000E+00
    0.24003E-07        -0.24942E-14         0.00000E+00
    0.24003E-07        -0.35273E-14         0.00000E+00
    0.24003E-07        -0.42520E-14         0.00000E+00
    0.24003E-07        -0.45628E-14         0.00000E+00
    0.24003E-07        -0.43854E-14         0.00000E+00
    0.24003E-07        -0.39141E-14         0.00000E+00
    0.24003E-07        -0.32263E-14         0.00000E+00
    0.24003E-07        -0.19636E-14         0.00000E+00
    0.24003E-07        -0.11209E-14         0.00000E+00
    0.26367E-07        -0.18282E-14         0.00000E+00
    0.26367E-07        -0.38153E-14         0.00000E+00
    0.26367E-07        -0.80069E-14         0.00000E+00
    0.26367E-07        -0.12386E-13         0.00000E+00
    0.26366E-07        -0.16461E-13         0.00000E+00
    0.26366E-07        -0.19819E-13         0.00000E+00
    0.26366E-07        -0.22207E-13         0.00000E+00
    0.26366E-07        -0.23458E-13         0.00000E+00
    0.26366E-07        -0.23508E-13         0.00000E+00
    0.26366E-07        -0.22482E-13         0.00000E+00
    0.26366E-07        -0.20536E-13         0.00000E+00
    0.26366E-07        -0.17667E-13         0.00000E+00
    0.26366E-07        -0.13964E-13         0.00000E+00
    0.26366E-07        -0.98169E-14         0.00000E+00
    0.26366E-07        -0.52410E-14         0.00000E+00
    0.26366E-07        -0.27853E-14         0.00000E+00
    0.28720E-07        -0.56806E-14         0.00000E+00
    0.28720E-07        -0.11180E-13         0.00000E+00
    0.28720E-07        -0.21679E-13         0.00000E+00
    0.28720E-07        -0.30913E-13         0.00000E+00
    0.28720E-07        -0.38420E-13         0.00000E+00
    0.28720E-07        -0.43891E-13         0.00000E+00
    0.28720E-07        -0.47173E-13         0.00000E+00
    0.28720E-07        -0.48238E-13         0.00000E+00
    0.28720E-07        -0.47138E-13         0.00000E+00
    0.28720E-07        -0.44038E-13         0.00000E+00
    0.28720E-07        -0.39289E-13         0.00000E+00
    0.28720E-07        -0.33212E-13         0.00000E+00
    0.28720E-07        -0.25923E-13         0.00000E+00
    0.28720E-07        -0.17706E-13         0.00000E+00
    0.28720E-07        -0.89950E-14         0.00000E+00
    0.28720E-07        -0.45579E-14         0.00000E+00
    0.31062E-07        -0.10227E-13         0.00000E+00
    0.31062E-07        -0.19875E-13         0.00000E+00
    0.31062E-07        -0.37806E-13         0.00000E+00
    0.31062E-07        -0.52710E-13         0.00000E+00
    0.31062E-07        -0.64173E-13         0.00000E+00
    0.31062E-07        -0.72031E-13         0.00000E+00
    0.31062E-07        -0.76275E-13         0.00000E+00
    0.31062E-07        -0.77028E-13         0.00000E+00
    0.31062E-07        -0.74523E-13         0.00000E+00
    0.31062E-07        -0.69062E-13         0.00000E+00
    0.31062E-07        -0.61041E-13         0.00000E+00
    0.31062E-07        -0.51015E-13         0.00000E+00
    0.31062E-07        -0.39529E-13         0.00000E+00
    0.31062E-07        -0.26876E-13         0.00000E+00
    0.31062E-07        -0.13489E-13         0.00000E+00
    0.31062E-07        -0.67033E-14         0.00000E+00
    0.33392E-07        -0.15547E-13         0.00000E+00
    0.33392E-07        -0.29985E-13         0.00000E+00
    0.33392E-07        -0.56441E-13         0.00000E+00
    0.33392E-07        -0.77809E-13         0.00000E+00
    0.33392E-07        -0.93774E-13         0.00000E+00
    0.33392E-07        -0.10431E-12         0.00000E+00
    0.33392E-07        -0.10958E-12         0.00000E+00
    0.33392E-07        -0.10988E-12         0.00000E+00
    0.33392E-07        -0.10566E-12         0.00000E+00
    0.33392E-07        -0.97422E-13         0.00000E+00
    0.33392E-07        -0.85766E-13         0.00000E+00
    0.33392E-07        -0.71331E-13         0.00000E+00
    0.33392E-07        -0.54826E-13         0.00000E+00
    0.33392E-07        -0.36932E-13         0.00000E+00
    0.33392E-07        -0.18426E-13         0.00000E+00
    0.33392E-07        -0.91377E-14         0.00000E+00
    0.35708E-07        -0.21559E-13         0.00000E+00
    0.35708E-07        -0.41398E-13         0.00000E+00
    0.35708E-07        -0.77465E-13         0.00000E+00
    0.35708E-07        -0.10611E-12         0.00000E+00
    0.35708E-07        -0.12711E-12         0.00000E+00
    0.35708E-07        -0.14062E-12         0.00000E+00
    0.35708E-07        -0.14696E-12         0.00000E+00
    0.35708E-07        -0.14668E-12         0.00000E+00
    0.35708E-07        -0.14043E-12         0.00000E+00
    0.35708E-07        -0.12896E-12         0.00000E+00
    0.35708E-07        -0.11310E-12         0.00000E+00
    0.35708E-07        -0.93727E-13         0.00000E+00
    0.35708E-07        -0.71749E-13         0.00000E+00
    0.35708E-07        -0.48130E-13         0.00000E+00
    0.35708E-07        -0.23976E-13         0.00000E+00
    0.35708E-07        -0.11913E-13         0.00000E+00
    0.38010E-07        -0.28247E-13         0.00000E+00
    0.38010E-07        -0.54048E-13         0.00000E+00
    0.38010E-07        -0.10068E-12         0.00000E+00
    0.38010E-07        -0.13729E-12         0.00000E+00
    0.38010E-07        -0.16383E-12         0.00000E+00
    0.38010E-07        -0.18060E-12         0.00000E+00
    0.38010E-07        -0.18811E-12         0.00000E+00
    0.38010E-07        -0.18713E-12         0.00000E+00
    0.38010E-07        -0.17856E-12         0.00000E+00
    0.38010E-07        -0.16342E-12         0.00000E+00
    0.38010E-07        -0.14283E-12         0.00000E+00
    0.38010E-07        -0.11797E-12         0.00000E+00
    0.38010E-07        -0.90055E-13         0.00000E+00
    0.38010E-07        -0.60312E-13         0.00000E+00
    0.38010E-07        -0.30029E-13         0.00000E+00
    0.38010E-07        -0.14916E-13         0.00000E+00
    0.40297E-07        -0.35342E-13         0.00000E+00
    0.40297E-07        -0.67525E-13         0.00000E+00
    0.40297E-07        -0.12551E-12         0.00000E+00
    0.40297E-07        -0.17071E-12         0.00000E+00
    0.40297E-07        -0.20328E-12         0.00000E+00
    0.40297E-07        -0.22362E-12         0.00000E+00
    0.40297E-07        -0.23241E-12         0.00000E+00
    0.40297E-07        -0.23067E-12         0.00000E+00
    0.40297E-07        -0.21956E-12         0.00000E+00
    0.40297E-07        -0.20037E-12         0.00000E+00
    0.40297E-07        -0.17455E-12         0.00000E+00
    0.40297E-07        -0.14369E-12         0.00000E+00
    0.40297E-07        -0.10939E-12         0.00000E+00
    0.40297E-07        -0.73160E-13         0.00000E+00
    0.40297E-07        -0.36417E-13         0.00000E+00
    0.40297E-07        -0.18093E-13         0.00000E+00
    0.42568E-07        -0.42644E-13         0.00000E+00
    0.42568E-07        -0.81374E-13         0.00000E+00
    0.42568E-07        -0.15109E-12         0.00000E+00
    0.42568E-07        -0.20537E-12         0.00000E+00
    0.42568E-07        -0.24439E-12         0.00000E+00
    0.42568E-07        -0.26863E-12         0.00000E+00
    0.42568E-07        -0.27897E-12         0.00000E+00
    0.42568E-07        -0.27653E-12         0.00000E+00
    0.42568E-07        -0.26261E-12         0.00000E+00
    0.42568E-07        -0.23891E-12         0.00000E+00
    0.42568E-07        -0.20741E-12         0.00000E+00
    0.42568E-07        -0.17015E-12         0.00000E+00
    0.42568E-07        -0.12914E-12         0.00000E+00
    0.42568E-07        -0.86196E-13         0.00000E+00
    0.42568E-07        -0.42897E-13         0.00000E+00
    0.42568E-07        -0.21333E-13         0.00000E+00
    0.44822E-07        -0.49468E-13         0.00000E+00
    0.44822E-07        -0.94658E-13         0.00000E+00
    0.44822E-07        -0.17623E-12         0.00000E+00
    0.44822E-07        -0.23994E-12         0.00000E+00
    0.44822E-07        -0.28570E-12         0.00000E+00
    0.44822E-07        -0.31407E-12         0.00000E+00
    0.44822E-07        -0.32603E-12         0.00000E+00
    0.44822E-07        -0.32280E-12         0.00000E+00
    0.44822E-07        -0.30602E-12         0.00000E+00
    0.44822E-07        -0.27777E-12         0.00000E+00
    0.44822E-07        -0.24049E-12         0.00000E+00
    0.44822E-07        -0.19674E-12         0.00000E+00
    0.44822E-07        -0.14896E-12         0.00000E+00
    0.44822E-07        -0.99303E-13         0.00000E+00
    0.44822E-07        -0.49419E-13         0.00000E+00
    0.44822E-07        -0.24590E-13         0.00000E+00
    0.47057E-07        -0.56605E-13         0.00000E+00
    0.47057E-07        -0.10798E-12         0.00000E+00
    0.47057E-07        -0.20052E-12         0.00000E+00
    0.47057E-07        -0.27291E-12         0.00000E+00
    0.47057E-07        -0.32526E-12         0.00000E+00
    0.47057E-07        -0.35780E-12         0.00000E+00
    0.47058E-07        -0.37152E-12         0.00000E+00
    0.47058E-07        -0.36772E-12         0.00000E+00
    0.47058E-07        -0.34821E-12         0.00000E+00
    0.47058E-07        -0.31553E-12         0.00000E+00
    0.47058E-07        -0.27261E-12         0.00000E+00
    0.47058E-07        -0.22250E-12         0.00000E+00
    0.47058E-07        -0.16812E-12         0.00000E+00
    0.47058E-07        -0.11190E-12         0.00000E+00
    0.47058E-07        -0.55633E-13         0.00000E+00
    0.47058E-07        -0.27668E-13         0.00000E+00
    0.49274E-07        -0.63028E-13         0.00000E+00
    0.49274E-07        -0.12018E-12         0.00000E+00
    0.49274E-07        -0.22299E-12         0.00000E+00
    0.49274E-07        -0.30309E-12         0.00000E+00
    0.49274E-07        -0.36106E-12         0.00000E+00
    0.49274E-07        -0.39738E-12         0.00000E+00
    0.49274E-07        -0.41272E-12         0.00000E+00
    0.49274E-07        -0.40842E-12         0.00000E+00
    0.49274E-07        -0.38664E-12         0.00000E+00
    0.49274E-07        -0.35015E-12         0.00000E+00
    0.49274E-07        -0.30223E-12         0.00000E+00
    0.49274E-07        -0.24638E-12         0.00000E+00
    0.49275E-07        -0.18588E-12         0.00000E+00
    0.49275E-07        -0.12354E-12         0.00000E+00
    0.49275E-07        -0.61344E-13         0.00000E+00
    0.49275E-07        -0.30484E-13         0.00000E+00
    0.51470E-07        -0.68640E-13         0.00000E+00
    0.51471E-07        -0.13076E-12         0.00000E+00
    0.51471E-07        -0.24222E-12         0.00000E+00
    0.51471E-07        -0.32856E-12         0.00000E+00
    0.51471E-07        -0.39073E-12         0.00000E+00
    0.51471E-07        -0.42950E-12         0.00000E+00
    0.51471E-07        -0.44573E-12         0.00000E+00
    0.51471E-07        -0.44110E-12         0.00000E+00
    0.51471E-07        -0.41794E-12         0.00000E+00
    0.51471E-07        -0.37902E-12         0.00000E+00
    0.51471E-07        -0.32759E-12         0.00000E+00
    0.51471E-07        -0.26726E-12         0.00000E+00
    0.51471E-07        -0.20163E-12         0.00000E+00
    0.51471E-07        -0.13389E-12         0.00000E+00
    0.51471E-07        -0.66408E-13         0.00000E+00
    0.51471E-07        -0.32971E-13         0.00000E+00
    0.53646E-07        -0.72856E-13         0.00000E+00
    0.53646E-07        -0.13893E-12         0.00000E+00
    0.53646E-07        -0.25711E-12         0.00000E+00
    0.53646E-07        -0.34747E-12         0.00000E+00
    0.53647E-07        -0.41112E-12         0.00000E+00
    0.53647E-07        -0.44995E-12         0.00000E+00
    0.53647E-07        -0.46584E-12         0.00000E+00
    0.53647E-07        -0.46100E-12         0.00000E+00
    0.53647E-07        -0.43790E-12         0.00000E+00
    0.53647E-07        -0.39893E-12         0.00000E+00
    0.53647E-07        -0.34661E-12         0.00000E+00
    0.53647E-07        -0.28403E-12         0.00000E+00
    0.53647E-07        -0.21484E-12         0.00000E+00
    0.53647E-07        -0.14274E-12         0.00000E+00
    0.53647E-07        -0.70744E-13         0.00000E+00
    0.53647E-07        -0.35086E-13         0.00000E+00
    0.55800E-07        -0.76622E-13         0.00000E+00
    0.55800E-07        -0.14521E-12         0.00000E+00
    0.55800E-07        -0.26664E-12         0.00000E+00
    0.55800E-07        -0.35722E-12         0.00000E+00
    0.55800E-07        -0.41881E-12         0.00000E+00
    0.55801E-07        -0.45450E-12         0.00000E+00
    0.55801E-07        -0.46799E-12         0.00000E+00
    0.55801E-07        -0.46282E-12         0.00000E+00
    0.55801E-07        -0.44166E-12         0.00000E+00
    0.55801E-07        -0.40598E-12         0.00000E+00
    0.55801E-07        -0.35668E-12         0.00000E+00
    0.55801E-07        -0.29532E-12         0.00000E+00
    0.55801E-07        -0.22500E-12         0.00000E+00
    0.55801E-07        -0.14997E-12         0.00000E+00
    0.55801E-07        -0.74331E-13         0.00000E+00
    0.55801E-07        -0.36827E-13         0.00000E+00
    0.57931E-07        -0.79185E-13         0.00000E+00
    0.57931E-07        -0.14887E-12         0.00000E+00
    0.57931E-07        -0.26996E-12         0.00000E+00
    0.57931E-07        -0.35593E-12         0.00000E+00
    0.57931E-07        -0.41039E-12         0.00000E+00
    0.57932E-07        -0.43875E-12         0.00000E+00
    0.57932E-07        -0.44747E-12         0.00000E+00
    0.57932E-07        -0.44180E-12         0.00000E+00
    0.57932E-07        -0.42436E-12         0.00000E+00
    0.57932E-07        -0.39553E-12         0.00000E+00
    0.57932E-07        -0.35412E-12         0.00000E+00
    0.57932E-07        -0.29895E-12         0.00000E+00
    0.57932E-07        -0.23126E-12         0.00000E+00
    0.57932E-07        -0.15542E-12         0.00000E+00
    0.57932E-07        -0.77215E-13         0.00000E+00
    0.57932E-07        -0.38238E-13         0.00000E+00
    0.60038E-07        -0.80227E-13         0.00000E+00
    0.60038E-07        -0.14912E-12         0.00000E+00
    0.60038E-07        -0.26503E-12         0.00000E+00
    0.60039E-07        -0.33989E-12         0.00000E+00
    0.60039E-07        -0.38101E-12         0.00000E+00
    0.60039E-07        -0.39835E-12         0.00000E+00
    0.60039E-07        -0.40121E-12         0.00000E+00
    0.60039E-07        -0.39524E-12         0.00000E+00
    0.60039E-07        -0.38250E-12         0.00000E+00
    0.60039E-07        -0.36262E-12         0.00000E+00
    0.60040E-07        -0.33330E-12         0.00000E+00
    0.60040E-07        -0.29064E-12         0.00000E+00
    0.60040E-07        -0.23172E-12         0.00000E+00
    0.60040E-07        -0.15881E-12         0.00000E+00
    0.60040E-07        -0.79485E-13         0.00000E+00
    0.60040E-07        -0.39373E-13         0.00000E+00
    0.62120E-07        -0.79521E-13         0.00000E+00
    0.62120E-07        -0.14445E-12         0.00000E+00
    0.62121E-07        -0.24731E-12         0.00000E+00
    0.62121E-07        -0.30245E-12         0.00000E+00
    0.62121E-07        -0.32509E-12         0.00000E+00
    0.62121E-07        -0.33085E-12         0.00000E+00
    0.62122E-07        -0.32901E-12         0.00000E+00
    0.62122E-07        -0.32333E-12         0.00000E+00
    0.62122E-07        -0.31503E-12         0.00000E+00
    0.62122E-07        -0.30367E-12         0.00000E+00
    0.62122E-07        -0.28753E-12         0.00000E+00
    0.62122E-07        -0.26266E-12         0.00000E+00
    0.62122E-07        -0.22142E-12         0.00000E+00
    0.62122E-07        -0.15871E-12         0.00000E+00
    0.62122E-07        -0.81288E-13         0.00000E+00
    0.62122E-07        -0.40634E-13         0.00000E+00
    0.64177E-07        -0.75238E-13         0.00000E+00
    0.64177E-07        -0.13102E-12         0.00000E+00
    0.64177E-07        -0.20826E-12         0.00000E+00
    0.64178E-07        -0.23380E-12         0.00000E+00
    0.64178E-07        -0.23836E-12         0.00000E+00
    0.64178E-07        -0.23769E-12         0.00000E+00
    0.64178E-07        -0.23443E-12         0.00000E+00
    0.64178E-07        -0.22977E-12         0.00000E+00
    0.64179E-07        -0.22461E-12         0.00000E+00
    0.64179E-07        -0.21928E-12         0.00000E+00
    0.64179E-07        -0.21302E-12         0.00000E+00
    0.64179E-07        -0.20400E-12         0.00000E+00
    0.64179E-07        -0.18780E-12         0.00000E+00
    0.64179E-07        -0.14978E-12         0.00000E+00
    0.64179E-07        -0.81805E-13         0.00000E+00
    0.64179E-07        -0.41147E-13         0.00000E+00
    0.66207E-07        -0.66199E-13         0.00000E+00
    0.66207E-07        -0.98263E-13         0.00000E+00
    0.66207E-07        -0.12930E-12         0.00000E+00
    0.66208E-07        -0.12768E-12         0.00000E+00
    0.66208E-07        -0.12608E-12         0.00000E+00
    0.66208E-07        -0.12425E-12         0.00000E+00
    0.66208E-07        -0.12247E-12         0.00000E+00
    0.66208E-07        -0.12024E-12         0.00000E+00
    0.66209E-07        -0.11757E-12         0.00000E+00
    0.66209E-07        -0.11501E-12         0.00000E+00
    0.66209E-07        -0.11319E-12         0.00000E+00
    0.66209E-07        -0.11210E-12         0.00000E+00
    0.66209E-07        -0.11107E-12         0.00000E+00
    0.66209E-07        -0.10903E-12         0.00000E+00
    0.66209E-07        -0.80203E-13         0.00000E+00
    0.66209E-07        -0.52803E-13         0.00000E+00
    0.67215E-07         0.00000E+00         0.00000E+00
    0.67215E-07         0.00000E+00         0.00000E+00
    0.67215E-07         0.00000E+00         0.00000E+00
    0.67216E-07         0.00000E+00         0.00000E+00
    0.67216E-07        -0.66333E-21         0.00000E+00
    0.67216E-07         0.00000E+00         0.00000E+00
    0.67216E-07         0.00000E+00         0.00000E+00
    0.67217E-07         0.00000E+00         0.00000E+00
    0.67217E-07         0.00000E+00         0.00000E+00
    0.67217E-07         0.00000E+00         0.00000E+00
    0.67217E-07        -0.66335E-21         0.00000E+00
    0.67217E-07         0.00000E+00         0.00000E+00
    0.67217E-07        -0.66336E-21         0.00000E+00
    0.67217E-07        -0.66335E-21         0.00000E+00
    0.67217E-07         0.66336E-21         0.00000E+00
    0.67217E-07         0.00000E+00         0.00000E+00
CELL_DATA        450
TENSORS stressef double 
   -0.16061E+08         0.17182E+03         0.00000E+00
    0.17182E+03        -0.44149E+08         0.00000E+00
    0.00000E+00         0.00000E+00        -0.16481E+08
 
   -0.16076E+08         0.52164E+03         0.00000E+00
    0.52164E+03        -0.44148E+08         0.00000E+00
    0.00000E+00         0.00000E+00        -0.16465E+08
 
   -0.16090E+08         0.87502E+03         0.00000E+00
    0.87502E+03        -0.44147E+08         0.00000E+00
    0.00000E+00         0.00000E+00        -0.16448E+08
 
   -0.16104E+08         0.12295E+04         0.00000E+00
    0.12295E+04        -0.44145E+08         0.00000E+00
    0.00000E+00         0.00000E+00        -0.16432E+08
 
   -0.16118E+08         0.15840E+04         0.00000E+00
    0.15840E+04        -0.44142E+08         0.00000E+00
    0.00000E+00         0.00000E+00        -0.16414E+08
 
   -0.16131E+08         0.19384E+04         0.00000E+00
    0.19384E+04        -0.44139E+08         0.00000E+00
    0.00000E+00         0.00000E+00        -0.16396E+08
 
   -0.16144E+08         0.22930E+04         0.00000E+00
    0.22930E+04        -0.44134E+08         0.00000E+00
    0.00000E+00         0.00000E+00        -0.16378E+08
 
   -0.16156E+08         0.26492E+04         0.00000E+00
    0.26492E+04        -0.44129E+08         0.00000E+00
    0.00000E+00         0.00000E+00        -0.16360E+08
 
   -0.16167E+08         0.30094E+04         0.00000E+00
    0.30094E+04        -0.44124E+08         0.00000E+00
    0.00000E+00         0.00000E+00        -0.16341E+08
 
   -0.16178E+08         0.33744E+04         0.00000E+00
    0.33744E+04        -0.44117E+08         0.00000E+00
    0.00000E+00         0.00000E+00        -0.16322E+08
 
   -0.16187E+08         0.37465E+04         0.00000E+00
    0.37465E+04        -0.44110E+08         0.00000E+00
    0.00000E+00         0.00000E+00        -0.16302E+08
 
   -0.16196E+08         0.41263E+04         0.00000E+00
    0.41263E+04        -0.44102E+08         0.00000E+00
    0.00000E+00         0.00000E+00        -0.16283E+08
 
   -0.16204E+08         0.45158E+04         0.00000E+00
    0.45158E+04        -0.44094E+08         0.00000E+00
    0.00000E+00         0.00000E+00        -0.16264E+08
 
   -0.16210E+08         0.49149E+04         0.00000E+00
    0.49149E+04        -0.44084E+08         0.00000E+00
    0.00000E+00         0.00000E+00        -0.16245E+08
 
   -0.16215E+08         0.53236E+04         0.00000E+00
    0.53236E+04        -0.44074E+08         0.00000E+00
    0.00000E+00         0.00000E+00        -0.16226E+08
 
   -0.16065E+08         0.51116E+03         0.00000E+00
    0.51116E+03        -0.44153E+08         0.00000E+00
    0.00000E+00         0.00000E+00        -0.16483E+08
 
   -0.16080E+08         0.15532E+04         0.00000E+00
    0.15532E+04        -0.44153E+08         0.00000E+00
    0.00000E+00         0.00000E+00        -0.16467E+08
 
   -0.16094E+08         0.26060E+04         0.00000E+00
    0.26060E+04        -0.44151E+08         0.00000E+00
    0.00000E+00         0.00000E+00        -0.16451E+08
 
   -0.16108E+08         0.36637E+04         0.00000E+00
    0.36637E+04        -0.44149E+08         0.00000E+00
    0.00000E+00         0.00000E+00        -0.16434E+08
 
   -0.16121E+08         0.47229E+04         0.00000E+00
    0.47229E+04        -0.44146E+08         0.00000E+00
    0.00000E+00         0.00000E+00        -0.16416E+08
 
   -0.16134E+08         0.57822E+04         0.00000E+00
    0.57822E+04        -0.44143E+08         0.00000E+00
    0.00000E+00         0.00000E+00        -0.16399E+08
 
   -0.16147E+08         0.68434E+04         0.00000E+00
    0.68434E+04        -0.44139E+08         0.00000E+00
    0.00000E+00         0.00000E+00        -0.16381E+08
 
   -0.16159E+08         0.79103E+04         0.00000E+00
    0.79103E+04        -0.44134E+08         0.00000E+00
    0.00000E+00         0.00000E+00        -0.16362E+08
 
   -0.16171E+08         0.89881E+04         0.00000E+00
    0.89881E+04        -0.44128E+08         0.00000E+00
    0.00000E+00         0.00000E+00        -0.16343E+08
 
   -0.16181E+08         0.10083E+05         0.00000E+00
    0.10083E+05        -0.44122E+08         0.00000E+00
    0.00000E+00         0.00000E+00        -0.16324E+08
 
   -0.16191E+08         0.11200E+05         0.00000E+00
    0.11200E+05        -0.44115E+08         0.00000E+00
    0.00000E+00         0.00000E+00        -0.16305E+08
 
   -0.16200E+08         0.12342E+05         0.00000E+00
    0.12342E+05        -0.44107E+08         0.00000E+00
    0.00000E+00         0.00000E+00        -0.16286E+08
 
   -0.16207E+08         0.13511E+05         0.00000E+00
    0.13511E+05        -0.44099E+08         0.00000E+00
    0.00000E+00         0.00000E+00        -0.16267E+08
 
   -0.16213E+08         0.14708E+05         0.00000E+00
    0.14708E+05        -0.44090E+08         0.00000E+00
    0.00000E+00         0.00000E+00        -0.16248E+08
 
   -0.16218E+08         0.15935E+05         0.00000E+00
    0.15935E+05        -0.44079E+08         0.00000E+00
    0.00000E+00         0.00000E+00        -0.16229E+08
 
   -0.16072E+08         0.83741E+03         0.00000E+00
    0.83741E+03        -0.44162E+08         0.00000E+00
    0.00000E+00         0.00000E+00        -0.16487E+08
 
   -0.16087E+08         0.25474E+04         0.00000E+00
    0.25474E+04        -0.44161E+08         0.00000E+00
    0.00000E+00         0.00000E+00        -0.16471E+08
 
   -0.16101E+08         0.42799E+04         0.00000E+00
    0.42799E+04        -0.44160E+08         0.00000E+00
    0.00000E+00         0.00000E+00        -0.16455E+08
 
   -0.16115E+08         0.60240E+04         0.00000E+00
    0.60240E+04        -0.44158E+08         0.00000E+00
    0.00000E+00         0.00000E+00        -0.16438E+08
 
   -0.16128E+08         0.77736E+04         0.00000E+00
    0.77736E+04        -0.44155E+08         0.00000E+00
    0.00000E+00         0.00000E+00        -0.16421E+08
 
   -0.16142E+08         0.95269E+04         0.00000E+00
    0.95269E+04        -0.44152E+08         0.00000E+00
    0.00000E+00         0.00000E+00        -0.16403E+08
 
   -0.16154E+08         0.11286E+05         0.00000E+00
    0.11286E+05        -0.44148E+08         0.00000E+00
    0.00000E+00         0.00000E+00        -0.16385E+08
 
   -0.16166E+08         0.13059E+05         0.00000E+00
    0.13059E+05        -0.44143E+08         0.00000E+00
    0.00000E+00         0.00000E+00        -0.16367E+08
 
   -0.16178E+08         0.14848E+05         0.00000E+00
    0.14848E+05        -0.44138E+08         0.00000E+00
    0.00000E+00         0.00000E+00        -0.16349E+08
 
   -0.16188E+08         0.16671E+05         0.00000E+00
    0.16671E+05        -0.44132E+08         0.00000E+00
    0.00000E+00         0.00000E+00        -0.16330E+08
 
   -0.16198E+08         0.18537E+05         0.00000E+00
    0.18537E+05        -0.44125E+08         0.00000E+00
    0.00000E+00         0.00000E+00        -0.16311E+08
 
   -0.16207E+08         0.20444E+05         0.00000E+00
    0.20444E+05        -0.44117E+08         0.00000E+00
    0.00000E+00         0.00000E+00        -0.16292E+08
 
   -0.16214E+08         0.22394E+05         0.00000E+00
    0.22394E+05        -0.44109E+08         0.00000E+00
    0.00000E+00         0.00000E+00        -0.16273E+08
 
   -0.16220E+08         0.24393E+05         0.00000E+00
    0.24393E+05        -0.44100E+08         0.00000E+00
    0.00000E+00         0.00000E+00        -0.16255E+08
 
   -0.16225E+08         0.26440E+05         0.00000E+00
    0.26440E+05        -0.44090E+08         0.00000E+00
    0.00000E+00         0.00000E+00        -0.16236E+08
 
   -0.16083E+08         0.11389E+04         0.00000E+00
    0.11389E+04        -0.44174E+08         0.00000E+00
    0.00000E+00         0.00000E+00        -0.16492E+08
 
   -0.16097E+08         0.34812E+04         0.00000E+00
    0.34812E+04        -0.44174E+08         0.00000E+00
    0.00000E+00         0.00000E+00        -0.16477E+08
 
   -0.16112E+08         0.58571E+04         0.00000E+00
    0.58571E+04        -0.44173E+08         0.00000E+00
    0.00000E+00         0.00000E+00        -0.16461E+08
 
   -0.16125E+08         0.82583E+04         0.00000E+00
    0.82583E+04        -0.44171E+08         0.00000E+00
    0.00000E+00         0.00000E+00        -0.16444E+08
 
   -0.16139E+08         0.10676E+05         0.00000E+00
    0.10676E+05        -0.44168E+08         0.00000E+00
    0.00000E+00         0.00000E+00        -0.16427E+08
 
   -0.16152E+08         0.13106E+05         0.00000E+00
    0.13106E+05        -0.44165E+08         0.00000E+00
    0.00000E+00         0.00000E+00        -0.16410E+08
 
   -0.16165E+08         0.15549E+05         0.00000E+00
    0.15549E+05        -0.44161E+08         0.00000E+00
    0.00000E+00         0.00000E+00        -0.16393E+08
 
   -0.16177E+08         0.18015E+05         0.00000E+00
    0.18015E+05        -0.44157E+08         0.00000E+00
    0.00000E+00         0.00000E+00        -0.16375E+08
 
   -0.16188E+08         0.20512E+05         0.00000E+00
    0.20512E+05        -0.44152E+08         0.00000E+00
    0.00000E+00         0.00000E+00        -0.16356E+08
 
   -0.16199E+08         0.23062E+05         0.00000E+00
    0.23062E+05        -0.44146E+08         0.00000E+00
    0.00000E+00         0.00000E+00        -0.16338E+08
 
   -0.16208E+08         0.25681E+05         0.00000E+00
    0.25681E+05        -0.44139E+08         0.00000E+00
    0.00000E+00         0.00000E+00        -0.16320E+08
 
   -0.16217E+08         0.28356E+05         0.00000E+00
    0.28356E+05        -0.44132E+08         0.00000E+00
    0.00000E+00         0.00000E+00        -0.16301E+08
 
   -0.16224E+08         0.31094E+05         0.00000E+00
    0.31094E+05        -0.44124E+08         0.00000E+00
    0.00000E+00         0.00000E+00        -0.16283E+08
 
   -0.16230E+08         0.33899E+05         0.00000E+00
    0.33899E+05        -0.44115E+08         0.00000E+00
    0.00000E+00         0.00000E+00        -0.16264E+08
 
   -0.16235E+08         0.36772E+05         0.00000E+00
    0.36772E+05        -0.44105E+08         0.00000E+00
    0.00000E+00         0.00000E+00        -0.16246E+08
 
   -0.16097E+08         0.14064E+04         0.00000E+00
    0.14064E+04        -0.44191E+08         0.00000E+00
    0.00000E+00         0.00000E+00        -0.16500E+08
 
   -0.16112E+08         0.43240E+04         0.00000E+00
    0.43240E+04        -0.44191E+08         0.00000E+00
    0.00000E+00         0.00000E+00        -0.16485E+08
 
   -0.16126E+08         0.72990E+04         0.00000E+00
    0.72990E+04        -0.44190E+08         0.00000E+00
    0.00000E+00         0.00000E+00        -0.16469E+08
 
   -0.16140E+08         0.10313E+05         0.00000E+00
    0.10313E+05        -0.44188E+08         0.00000E+00
    0.00000E+00         0.00000E+00        -0.16453E+08
 
   -0.16153E+08         0.13364E+05         0.00000E+00
    0.13364E+05        -0.44186E+08         0.00000E+00
    0.00000E+00         0.00000E+00        -0.16436E+08
 
   -0.16166E+08         0.16445E+05         0.00000E+00
    0.16445E+05        -0.44183E+08         0.00000E+00
    0.00000E+00         0.00000E+00        -0.16419E+08
 
   -0.16179E+08         0.19556E+05         0.00000E+00
    0.19556E+05        -0.44180E+08         0.00000E+00
    0.00000E+00         0.00000E+00        -0.16402E+08
 
   -0.16191E+08         0.22704E+05         0.00000E+00
    0.22704E+05        -0.44175E+08         0.00000E+00
    0.00000E+00         0.00000E+00        -0.16385E+08
 
   -0.16202E+08         0.25903E+05         0.00000E+00
    0.25903E+05        -0.44171E+08         0.00000E+00
    0.00000E+00         0.00000E+00        -0.16367E+08
 
   -0.16213E+08         0.29183E+05         0.00000E+00
    0.29183E+05        -0.44165E+08         0.00000E+00
    0.00000E+00         0.00000E+00        -0.16349E+08
 
   -0.16222E+08         0.32558E+05         0.00000E+00
    0.32558E+05        -0.44159E+08         0.00000E+00
    0.00000E+00         0.00000E+00        -0.16331E+08
 
   -0.16231E+08         0.36006E+05         0.00000E+00
    0.36006E+05        -0.44152E+08         0.00000E+00
    0.00000E+00         0.00000E+00        -0.16313E+08
 
   -0.16238E+08         0.39541E+05         0.00000E+00
    0.39541E+05        -0.44144E+08         0.00000E+00
    0.00000E+00         0.00000E+00        -0.16295E+08
 
   -0.16244E+08         0.43164E+05         0.00000E+00
    0.43164E+05        -0.44135E+08         0.00000E+00
    0.00000E+00         0.00000E+00        -0.16277E+08
 
   -0.16249E+08         0.46871E+05         0.00000E+00
    0.46871E+05        -0.44125E+08         0.00000E+00
    0.00000E+00         0.00000E+00        -0.16259E+08
 
   -0.16115E+08         0.16289E+04         0.00000E+00
    0.16289E+04        -0.44213E+08         0.00000E+00
    0.00000E+00         0.00000E+00        -0.16510E+08
 
   -0.16130E+08         0.50451E+04         0.00000E+00
    0.50451E+04        -0.44212E+08         0.00000E+00
    0.00000E+00         0.00000E+00        -0.16495E+08
 
   -0.16144E+08         0.85561E+04         0.00000E+00
    0.85561E+04        -0.44211E+08         0.00000E+00
    0.00000E+00         0.00000E+00        -0.16479E+08
 
   -0.16157E+08         0.12135E+05         0.00000E+00
    0.12135E+05        -0.44210E+08         0.00000E+00
    0.00000E+00         0.00000E+00        -0.16463E+08
 
   -0.16171E+08         0.15771E+05         0.00000E+00
    0.15771E+05        -0.44208E+08         0.00000E+00
    0.00000E+00         0.00000E+00        -0.16447E+08
 
   -0.16184E+08         0.19469E+05         0.00000E+00
    0.19469E+05        -0.44205E+08         0.00000E+00
    0.00000E+00         0.00000E+00        -0.16431E+08
 
   -0.16197E+08         0.23226E+05         0.00000E+00
    0.23226E+05        -0.44202E+08         0.00000E+00
    0.00000E+00         0.00000E+00        -0.16414E+08
 
   -0.16209E+08         0.27047E+05         0.00000E+00
    0.27047E+05        -0.44199E+08         0.00000E+00
    0.00000E+00         0.00000E+00        -0.16397E+08
 
   -0.16220E+08         0.30952E+05         0.00000E+00
    0.30952E+05        -0.44194E+08         0.00000E+00
    0.00000E+00         0.00000E+00        -0.16380E+08
 
   -0.16230E+08         0.34962E+05         0.00000E+00
    0.34962E+05        -0.44189E+08         0.00000E+00
    0.00000E+00         0.00000E+00        -0.16363E+08
 
   -0.16240E+08         0.39088E+05         0.00000E+00
    0.39088E+05        -0.44183E+08         0.00000E+00
    0.00000E+00         0.00000E+00        -0.16345E+08
 
   -0.16248E+08         0.43328E+05         0.00000E+00
    0.43328E+05        -0.44176E+08         0.00000E+00
    0.00000E+00         0.00000E+00        -0.16328E+08
 
   -0.16255E+08         0.47676E+05         0.00000E+00
    0.47676E+05        -0.44169E+08         0.00000E+00
    0.00000E+00         0.00000E+00        -0.16311E+08
 
   -0.16261E+08         0.52129E+05         0.00000E+00
    0.52129E+05        -0.44160E+08         0.00000E+00
    0.00000E+00         0.00000E+00        -0.16293E+08
 
   -0.16266E+08         0.56681E+05         0.00000E+00
    0.56681E+05        -0.44151E+08         0.00000E+00
    0.00000E+00         0.00000E+00        -0.16276E+08
 
   -0.16137E+08         0.17956E+04         0.00000E+00
    0.17956E+04        -0.44238E+08         0.00000E+00
    0.00000E+00         0.00000E+00        -0.16521E+08
 
   -0.16151E+08         0.56127E+04         0.00000E+00
    0.56127E+04        -0.44238E+08         0.00000E+00
    0.00000E+00         0.00000E+00        -0.16506E+08
 
   -0.16165E+08         0.95778E+04         0.00000E+00
    0.95778E+04        -0.44237E+08         0.00000E+00
    0.00000E+00         0.00000E+00        -0.16491E+08
 
   -0.16179E+08         0.13657E+05         0.00000E+00
    0.13657E+05        -0.44236E+08         0.00000E+00
    0.00000E+00         0.00000E+00        -0.16476E+08
 
   -0.16192E+08         0.17833E+05         0.00000E+00
    0.17833E+05        -0.44234E+08         0.00000E+00
    0.00000E+00         0.00000E+00        -0.16460E+08
 
   -0.16205E+08         0.22101E+05         0.00000E+00
    0.22101E+05        -0.44232E+08         0.00000E+00
    0.00000E+00         0.00000E+00        -0.16445E+08
 
   -0.16218E+08         0.26477E+05         0.00000E+00
    0.26477E+05        -0.44230E+08         0.00000E+00
    0.00000E+00         0.00000E+00        -0.16429E+08
 
   -0.16230E+08         0.30972E+05         0.00000E+00
    0.30972E+05        -0.44226E+08         0.00000E+00
    0.00000E+00         0.00000E+00        -0.16412E+08
 
   -0.16241E+08         0.35578E+05         0.00000E+00
    0.35578E+05        -0.44222E+08         0.00000E+00
    0.00000E+00         0.00000E+00        -0.16396E+08
 
   -0.16251E+08         0.40320E+05         0.00000E+00
    0.40320E+05        -0.44217E+08         0.00000E+00
    0.00000E+00         0.00000E+00        -0.16379E+08
 
   -0.16260E+08         0.45209E+05         0.00000E+00
    0.45209E+05        -0.44212E+08         0.00000E+00
    0.00000E+00         0.00000E+00        -0.16363E+08
 
   -0.16269E+08         0.50261E+05         0.00000E+00
    0.50261E+05        -0.44206E+08         0.00000E+00
    0.00000E+00         0.00000E+00        -0.16346E+08
 
   -0.16276E+08         0.55442E+05         0.00000E+00
    0.55442E+05        -0.44199E+08         0.00000E+00
    0.00000E+00         0.00000E+00        -0.16329E+08
 
   -0.16282E+08         0.60745E+05         0.00000E+00
    0.60745E+05        -0.44191E+08         0.00000E+00
    0.00000E+00         0.00000E+00        -0.16313E+08
 
   -0.16286E+08         0.66161E+05         0.00000E+00
    0.66161E+05        -0.44182E+08         0.00000E+00
    0.00000E+00         0.00000E+00        -0.16296E+08
 
   -0.16163E+08         0.18974E+04         0.00000E+00
    0.18974E+04        -0.44268E+08         0.00000E+00
    0.00000E+00         0.00000E+00        -0.16534E+08
 
   -0.16177E+08         0.59944E+04         0.00000E+00
    0.59944E+04        -0.44267E+08         0.00000E+00
    0.00000E+00         0.00000E+00        -0.16520E+08
 
   -0.16191E+08         0.10310E+05         0.00000E+00
    0.10310E+05        -0.44267E+08         0.00000E+00
    0.00000E+00         0.00000E+00        -0.16505E+08
 
   -0.16204E+08         0.14809E+05         0.00000E+00
    0.14809E+05        -0.44266E+08         0.00000E+00
    0.00000E+00         0.00000E+00        -0.16490E+08
 
   -0.16218E+08         0.19465E+05         0.00000E+00
    0.19465E+05        -0.44265E+08         0.00000E+00
    0.00000E+00         0.00000E+00        -0.16475E+08
 
   -0.16230E+08         0.24269E+05         0.00000E+00
    0.24269E+05        -0.44264E+08         0.00000E+00
    0.00000E+00         0.00000E+00        -0.16461E+08
 
   -0.16243E+08         0.29233E+05         0.00000E+00
    0.29233E+05        -0.44261E+08         0.00000E+00
    0.00000E+00         0.00000E+00        -0.16445E+08
 
   -0.16254E+08         0.34385E+05         0.00000E+00
    0.34385E+05        -0.44259E+08         0.00000E+00
    0.00000E+00         0.00000E+00        -0.16430E+08
 
   -0.16265E+08         0.39713E+05         0.00000E+00
    0.39713E+05        -0.44255E+08         0.00000E+00
    0.00000E+00         0.00000E+00        -0.16415E+08
 
   -0.16275E+08         0.45181E+05         0.00000E+00
    0.45181E+05        -0.44251E+08         0.00000E+00
    0.00000E+00         0.00000E+00        -0.16399E+08
 
   -0.16285E+08         0.50869E+05         0.00000E+00
    0.50869E+05        -0.44246E+08         0.00000E+00
    0.00000E+00         0.00000E+00        -0.16383E+08
 
   -0.16293E+08         0.56751E+05         0.00000E+00
    0.56751E+05        -0.44240E+08         0.00000E+00
    0.00000E+00         0.00000E+00        -0.16367E+08
 
   -0.16300E+08         0.62788E+05         0.00000E+00
    0.62788E+05        -0.44233E+08         0.00000E+00
    0.00000E+00         0.00000E+00        -0.16351E+08
 
   -0.16305E+08         0.68973E+05         0.00000E+00
    0.68973E+05        -0.44226E+08         0.00000E+00
    0.00000E+00         0.00000E+00        -0.16335E+08
 
   -0.16310E+08         0.75279E+05         0.00000E+00
    0.75279E+05        -0.44217E+08         0.00000E+00
    0.00000E+00         0.00000E+00        -0.16319E+08
 
   -0.16192E+08         0.19179E+04         0.00000E+00
    0.19179E+04        -0.44301E+08         0.00000E+00
    0.00000E+00         0.00000E+00        -0.16549E+08
 
   -0.16206E+08         0.61617E+04         0.00000E+00
    0.61617E+04        -0.44301E+08         0.00000E+00
    0.00000E+00         0.00000E+00        -0.16535E+08
 
   -0.16220E+08         0.10700E+05         0.00000E+00
    0.10700E+05        -0.44301E+08         0.00000E+00
    0.00000E+00         0.00000E+00        -0.16521E+08
 
   -0.16233E+08         0.15520E+05         0.00000E+00
    0.15520E+05        -0.44301E+08         0.00000E+00
    0.00000E+00         0.00000E+00        -0.16507E+08
 
   -0.16246E+08         0.20587E+05         0.00000E+00
    0.20587E+05        -0.44300E+08         0.00000E+00
    0.00000E+00         0.00000E+00        -0.16493E+08
 
   -0.16259E+08         0.25886E+05         0.00000E+00
    0.25886E+05        -0.44299E+08         0.00000E+00
    0.00000E+00         0.00000E+00        -0.16479E+08
 
   -0.16271E+08         0.31415E+05         0.00000E+00
    0.31415E+05        -0.44298E+08         0.00000E+00
    0.00000E+00         0.00000E+00        -0.16465E+08
 
   -0.16283E+08         0.37207E+05         0.00000E+00
    0.37207E+05        -0.44296E+08         0.00000E+00
    0.00000E+00         0.00000E+00        -0.16450E+08
 
   -0.16293E+08         0.43246E+05         0.00000E+00
    0.43246E+05        -0.44293E+08         0.00000E+00
    0.00000E+00         0.00000E+00        -0.16436E+08
 
   -0.16303E+08         0.49515E+05         0.00000E+00
    0.49515E+05        -0.44289E+08         0.00000E+00
    0.00000E+00         0.00000E+00        -0.16421E+08
 
   -0.16312E+08         0.56011E+05         0.00000E+00
    0.56011E+05        -0.44285E+08         0.00000E+00
    0.00000E+00         0.00000E+00        -0.16407E+08
 
   -0.16320E+08         0.62738E+05         0.00000E+00
    0.62738E+05        -0.44279E+08         0.00000E+00
    0.00000E+00         0.00000E+00        -0.16392E+08
 
   -0.16327E+08         0.69686E+05         0.00000E+00
    0.69686E+05        -0.44273E+08         0.00000E+00
    0.00000E+00         0.00000E+00        -0.16377E+08
 
   -0.16332E+08         0.76785E+05         0.00000E+00
    0.76785E+05        -0.44266E+08         0.00000E+00
    0.00000E+00         0.00000E+00        -0.16361E+08
 
   -0.16337E+08         0.84014E+05         0.00000E+00
    0.84014E+05        -0.44258E+08         0.00000E+00
    0.00000E+00         0.00000E+00        -0.16346E+08
 
   -0.16226E+08         0.18422E+04         0.00000E+00
    0.18422E+04        -0.44339E+08         0.00000E+00
    0.00000E+00         0.00000E+00        -0.16564E+08
 
   -0.16240E+08         0.60722E+04         0.00000E+00
    0.60722E+04        -0.44339E+08         0.00000E+00
    0.00000E+00         0.00000E+00        -0.16551E+08
 
   -0.16253E+08         0.10704E+05         0.00000E+00
    0.10704E+05        -0.44340E+08         0.00000E+00
    0.00000E+00         0.00000E+00        -0.16538E+08
 
   -0.16266E+08         0.15726E+05         0.00000E+00
    0.15726E+05        -0.44340E+08         0.00000E+00
    0.00000E+00         0.00000E+00        -0.16525E+08
 
   -0.16279E+08         0.21124E+05         0.00000E+00
    0.21124E+05        -0.44340E+08         0.00000E+00
    0.00000E+00         0.00000E+00        -0.16512E+08
 
   -0.16291E+08         0.26870E+05         0.00000E+00
    0.26870E+05        -0.44339E+08         0.00000E+00
    0.00000E+00         0.00000E+00        -0.16499E+08
 
   -0.16303E+08         0.32948E+05         0.00000E+00
    0.32948E+05        -0.44339E+08         0.00000E+00
    0.00000E+00         0.00000E+00        -0.16486E+08
 
   -0.16314E+08         0.39351E+05         0.00000E+00
    0.39351E+05        -0.44337E+08         0.00000E+00
    0.00000E+00         0.00000E+00        -0.16473E+08
 
   -0.16325E+08         0.46118E+05         0.00000E+00
    0.46118E+05        -0.44335E+08         0.00000E+00
    0.00000E+00         0.00000E+00        -0.16460E+08
 
   -0.16334E+08         0.53221E+05         0.00000E+00
    0.53221E+05        -0.44332E+08         0.00000E+00
    0.00000E+00         0.00000E+00        -0.16447E+08
 
   -0.16343E+08         0.60569E+05         0.00000E+00
    0.60569E+05        -0.44328E+08         0.00000E+00
    0.00000E+00         0.00000E+00        -0.16433E+08
 
   -0.16351E+08         0.68215E+05         0.00000E+00
    0.68215E+05        -0.44324E+08         0.00000E+00
    0.00000E+00         0.00000E+00        -0.16419E+08
 
   -0.16357E+08         0.76098E+05         0.00000E+00
    0.76098E+05        -0.44318E+08         0.00000E+00
    0.00000E+00         0.00000E+00        -0.16405E+08
 
   -0.16363E+08         0.84166E+05         0.00000E+00
    0.84166E+05        -0.44311E+08         0.00000E+00
    0.00000E+00         0.00000E+00        -0.16390E+08
 
   -0.16367E+08         0.92365E+05         0.00000E+00
    0.92365E+05        -0.44304E+08         0.00000E+00
    0.00000E+00         0.00000E+00        -0.16376E+08
 
   -0.16265E+08         0.16574E+04         0.00000E+00
    0.16574E+04        -0.44381E+08         0.00000E+00
    0.00000E+00         0.00000E+00        -0.16581E+08
 
   -0.16277E+08         0.56860E+04         0.00000E+00
    0.56860E+04        -0.44382E+08         0.00000E+00
    0.00000E+00         0.00000E+00        -0.16569E+08
 
   -0.16290E+08         0.10266E+05         0.00000E+00
    0.10266E+05        -0.44382E+08         0.00000E+00
    0.00000E+00         0.00000E+00        -0.16557E+08
 
   -0.16303E+08         0.15373E+05         0.00000E+00
    0.15373E+05        -0.44383E+08         0.00000E+00
    0.00000E+00         0.00000E+00        -0.16545E+08
 
   -0.16315E+08         0.21006E+05         0.00000E+00
    0.21006E+05        -0.44384E+08         0.00000E+00
    0.00000E+00         0.00000E+00        -0.16533E+08
 
   -0.16327E+08         0.27138E+05         0.00000E+00
    0.27138E+05        -0.44384E+08         0.00000E+00
    0.00000E+00         0.00000E+00        -0.16522E+08
 
   -0.16339E+08         0.33736E+05         0.00000E+00
    0.33736E+05        -0.44384E+08         0.00000E+00
    0.00000E+00         0.00000E+00        -0.16510E+08
 
   -0.16350E+08         0.40776E+05         0.00000E+00
    0.40776E+05        -0.44383E+08         0.00000E+00
    0.00000E+00         0.00000E+00        -0.16499E+08
 
   -0.16360E+08         0.48269E+05         0.00000E+00
    0.48269E+05        -0.44382E+08         0.00000E+00
    0.00000E+00         0.00000E+00        -0.16487E+08
 
   -0.16369E+08         0.56194E+05         0.00000E+00
    0.56194E+05        -0.44380E+08         0.00000E+00
    0.00000E+00         0.00000E+00        -0.16475E+08
 
   -0.16377E+08         0.64515E+05         0.00000E+00
    0.64515E+05        -0.44377E+08         0.00000E+00
    0.00000E+00         0.00000E+00        -0.16462E+08
 
   -0.16385E+08         0.73117E+05         0.00000E+00
    0.73117E+05        -0.44373E+08         0.00000E+00
    0.00000E+00         0.00000E+00        -0.16450E+08
 
   -0.16391E+08         0.82016E+05         0.00000E+00
    0.82016E+05        -0.44368E+08         0.00000E+00
    0.00000E+00         0.00000E+00        -0.16436E+08
 
   -0.16396E+08         0.91119E+05         0.00000E+00
    0.91119E+05        -0.44361E+08         0.00000E+00
    0.00000E+00         0.00000E+00        -0.16423E+08
 
   -0.16400E+08         0.10034E+06         0.00000E+00
    0.10034E+06        -0.44354E+08         0.00000E+00
    0.00000E+00         0.00000E+00        -0.16409E+08
 
   -0.16307E+08         0.13515E+04         0.00000E+00
    0.13515E+04        -0.44428E+08         0.00000E+00
    0.00000E+00         0.00000E+00        -0.16599E+08
 
   -0.16319E+08         0.49721E+04         0.00000E+00
    0.49721E+04        -0.44428E+08         0.00000E+00
    0.00000E+00         0.00000E+00        -0.16588E+08
 
   -0.16332E+08         0.93304E+04         0.00000E+00
    0.93304E+04        -0.44429E+08         0.00000E+00
    0.00000E+00         0.00000E+00        -0.16577E+08
 
   -0.16344E+08         0.14403E+05         0.00000E+00
    0.14403E+05        -0.44431E+08         0.00000E+00
    0.00000E+00         0.00000E+00        -0.16566E+08
 
   -0.16355E+08         0.20171E+05         0.00000E+00
    0.20171E+05        -0.44432E+08         0.00000E+00
    0.00000E+00         0.00000E+00        -0.16556E+08
 
   -0.16367E+08         0.26622E+05         0.00000E+00
    0.26622E+05        -0.44433E+08         0.00000E+00
    0.00000E+00         0.00000E+00        -0.16546E+08
 
   -0.16378E+08         0.33715E+05         0.00000E+00
    0.33715E+05        -0.44434E+08         0.00000E+00
    0.00000E+00         0.00000E+00        -0.16536E+08
 
   -0.16388E+08         0.41410E+05         0.00000E+00
    0.41410E+05        -0.44434E+08         0.00000E+00
    0.00000E+00         0.00000E+00        -0.16526E+08
 
   -0.16398E+08         0.49648E+05         0.00000E+00
    0.49648E+05        -0.44434E+08         0.00000E+00
    0.00000E+00         0.00000E+00        -0.16516E+08
 
   -0.16407E+08         0.58436E+05         0.00000E+00
    0.58436E+05        -0.44432E+08         0.00000E+00
    0.00000E+00         0.00000E+00        -0.16506E+08
 
   -0.16415E+08         0.67723E+05         0.00000E+00
    0.67723E+05        -0.44430E+08         0.00000E+00
    0.00000E+00         0.00000E+00        -0.16495E+08
 
   -0.16422E+08         0.77421E+05         0.00000E+00
    0.77421E+05        -0.44426E+08         0.00000E+00
    0.00000E+00         0.00000E+00        -0.16483E+08
 
   -0.16428E+08         0.87410E+05         0.00000E+00
    0.87410E+05        -0.44422E+08         0.00000E+00
    0.00000E+00         0.00000E+00        -0.16471E+08
 
   -0.16433E+08         0.97649E+05         0.00000E+00
    0.97649E+05        -0.44416E+08         0.00000E+00
    0.00000E+00         0.00000E+00        -0.16458E+08
 
   -0.16437E+08         0.10797E+06         0.00000E+00
    0.10797E+06        -0.44409E+08         0.00000E+00
    0.00000E+00         0.00000E+00        -0.16445E+08
 
   -0.16355E+08         0.91497E+03         0.00000E+00
    0.91497E+03        -0.44478E+08         0.00000E+00
    0.00000E+00         0.00000E+00        -0.16618E+08
 
   -0.16366E+08         0.39056E+04         0.00000E+00
    0.39056E+04        -0.44479E+08         0.00000E+00
    0.00000E+00         0.00000E+00        -0.16607E+08
 
   -0.16377E+08         0.78602E+04         0.00000E+00
    0.78602E+04        -0.44481E+08         0.00000E+00
    0.00000E+00         0.00000E+00        -0.16598E+08
 
   -0.16389E+08         0.12758E+05         0.00000E+00
    0.12758E+05        -0.44482E+08         0.00000E+00
    0.00000E+00         0.00000E+00        -0.16589E+08
 
   -0.16400E+08         0.18573E+05         0.00000E+00
    0.18573E+05        -0.44485E+08         0.00000E+00
    0.00000E+00         0.00000E+00        -0.16581E+08
 
   -0.16410E+08         0.25279E+05         0.00000E+00
    0.25279E+05        -0.44487E+08         0.00000E+00
    0.00000E+00         0.00000E+00        -0.16573E+08
 
   -0.16421E+08         0.32834E+05         0.00000E+00
    0.32834E+05        -0.44488E+08         0.00000E+00
    0.00000E+00         0.00000E+00        -0.16565E+08
 
   -0.16430E+08         0.41169E+05         0.00000E+00
    0.41169E+05        -0.44489E+08         0.00000E+00
    0.00000E+00         0.00000E+00        -0.16556E+08
 
   -0.16439E+08         0.50227E+05         0.00000E+00
    0.50227E+05        -0.44489E+08         0.00000E+00
    0.00000E+00         0.00000E+00        -0.16548E+08
 
   -0.16447E+08         0.59922E+05         0.00000E+00
    0.59922E+05        -0.44489E+08         0.00000E+00
    0.00000E+00         0.00000E+00        -0.16539E+08
 
   -0.16455E+08         0.70215E+05         0.00000E+00
    0.70215E+05        -0.44487E+08         0.00000E+00
    0.00000E+00         0.00000E+00        -0.16530E+08
 
   -0.16462E+08         0.81035E+05         0.00000E+00
    0.81035E+05        -0.44485E+08         0.00000E+00
    0.00000E+00         0.00000E+00        -0.16519E+08
 
   -0.16467E+08         0.92252E+05         0.00000E+00
    0.92252E+05        -0.44481E+08         0.00000E+00
    0.00000E+00         0.00000E+00        -0.16508E+08
 
   -0.16472E+08         0.10373E+06         0.00000E+00
    0.10373E+06        -0.44476E+08         0.00000E+00
    0.00000E+00         0.00000E+00        -0.16497E+08
 
   -0.16476E+08         0.11536E+06         0.00000E+00
    0.11536E+06        -0.44469E+08         0.00000E+00
    0.00000E+00         0.00000E+00        -0.16484E+08
 
   -0.16407E+08         0.34259E+03         0.00000E+00
    0.34259E+03        -0.44533E+08         0.00000E+00
    0.00000E+00         0.00000E+00        -0.16637E+08
 
   -0.16417E+08         0.24703E+04         0.00000E+00
    0.24703E+04        -0.44534E+08         0.00000E+00
    0.00000E+00         0.00000E+00        -0.16628E+08
 
   -0.16428E+08         0.58311E+04         0.00000E+00
    0.58311E+04        -0.44536E+08         0.00000E+00
    0.00000E+00         0.00000E+00        -0.16620E+08
 
   -0.16438E+08         0.10407E+05         0.00000E+00
    0.10407E+05        -0.44538E+08         0.00000E+00
    0.00000E+00         0.00000E+00        -0.16613E+08
 
   -0.16448E+08         0.16170E+05         0.00000E+00
    0.16170E+05        -0.44541E+08         0.00000E+00
    0.00000E+00         0.00000E+00        -0.16607E+08
 
   -0.16458E+08         0.23072E+05         0.00000E+00
    0.23072E+05        -0.44544E+08         0.00000E+00
    0.00000E+00         0.00000E+00        -0.16601E+08
 
   -0.16467E+08         0.31057E+05         0.00000E+00
    0.31057E+05        -0.44547E+08         0.00000E+00
    0.00000E+00         0.00000E+00        -0.16595E+08
 
   -0.16476E+08         0.40040E+05         0.00000E+00
    0.40040E+05        -0.44548E+08         0.00000E+00
    0.00000E+00         0.00000E+00        -0.16589E+08
 
   -0.16484E+08         0.49927E+05         0.00000E+00
    0.49927E+05        -0.44550E+08         0.00000E+00
    0.00000E+00         0.00000E+00        -0.16582E+08
 
   -0.16491E+08         0.60621E+05         0.00000E+00
    0.60621E+05        -0.44550E+08         0.00000E+00
    0.00000E+00         0.00000E+00        -0.16575E+08
 
   -0.16498E+08         0.72014E+05         0.00000E+00
    0.72014E+05        -0.44549E+08         0.00000E+00
    0.00000E+00         0.00000E+00        -0.16567E+08
 
   -0.16504E+08         0.84009E+05         0.00000E+00
    0.84009E+05        -0.44547E+08         0.00000E+00
    0.00000E+00         0.00000E+00        -0.16559E+08
 
   -0.16510E+08         0.96503E+05         0.00000E+00
    0.96503E+05        -0.44544E+08         0.00000E+00
    0.00000E+00         0.00000E+00        -0.16549E+08
 
   -0.16514E+08         0.10933E+06         0.00000E+00
    0.10933E+06        -0.44539E+08         0.00000E+00
    0.00000E+00         0.00000E+00        -0.16538E+08
 
   -0.16518E+08         0.12228E+06         0.00000E+00
    0.12228E+06        -0.44533E+08         0.00000E+00
    0.00000E+00         0.00000E+00        -0.16526E+08
 
   -0.16465E+08        -0.36520E+03         0.00000E+00
   -0.36520E+03        -0.44591E+08         0.00000E+00
    0.00000E+00         0.00000E+00        -0.16656E+08
 
   -0.16474E+08         0.66408E+03         0.00000E+00
    0.66408E+03        -0.44593E+08         0.00000E+00
    0.00000E+00         0.00000E+00        -0.16649E+08
 
   -0.16483E+08         0.32396E+04         0.00000E+00
    0.32396E+04        -0.44595E+08         0.00000E+00
    0.00000E+00         0.00000E+00        -0.16643E+08
 
   -0.16491E+08         0.73476E+04         0.00000E+00
    0.73476E+04        -0.44598E+08         0.00000E+00
    0.00000E+00         0.00000E+00        -0.16638E+08
 
   -0.16500E+08         0.12949E+05         0.00000E+00
    0.12949E+05        -0.44602E+08         0.00000E+00
    0.00000E+00         0.00000E+00        -0.16634E+08
 
   -0.16509E+08         0.19981E+05         0.00000E+00
    0.19981E+05        -0.44606E+08         0.00000E+00
    0.00000E+00         0.00000E+00        -0.16631E+08
 
   -0.16517E+08         0.28365E+05         0.00000E+00
    0.28365E+05        -0.44609E+08         0.00000E+00
    0.00000E+00         0.00000E+00        -0.16627E+08
 
   -0.16524E+08         0.38000E+05         0.00000E+00
    0.38000E+05        -0.44612E+08         0.00000E+00
    0.00000E+00         0.00000E+00        -0.16623E+08
 
   -0.16532E+08         0.48758E+05         0.00000E+00
    0.48758E+05        -0.44614E+08         0.00000E+00
    0.00000E+00         0.00000E+00        -0.16619E+08
 
   -0.16538E+08         0.60497E+05         0.00000E+00
    0.60497E+05        -0.44615E+08         0.00000E+00
    0.00000E+00         0.00000E+00        -0.16614E+08
 
   -0.16545E+08         0.73084E+05         0.00000E+00
    0.73084E+05        -0.44615E+08         0.00000E+00
    0.00000E+00         0.00000E+00        -0.16608E+08
 
   -0.16550E+08         0.86370E+05         0.00000E+00
    0.86370E+05        -0.44614E+08         0.00000E+00
    0.00000E+00         0.00000E+00        -0.16600E+08
 
   -0.16555E+08         0.10020E+06         0.00000E+00
    0.10020E+06        -0.44611E+08         0.00000E+00
    0.00000E+00         0.00000E+00        -0.16592E+08
 
   -0.16560E+08         0.11436E+06         0.00000E+00
    0.11436E+06        -0.44607E+08         0.00000E+00
    0.00000E+00         0.00000E+00        -0.16582E+08
 
   -0.16563E+08         0.12867E+06         0.00000E+00
    0.12867E+06        -0.44601E+08         0.00000E+00
    0.00000E+00         0.00000E+00        -0.16571E+08
 
   -0.16528E+08        -0.12000E+04         0.00000E+00
   -0.12000E+04        -0.44654E+08         0.00000E+00
    0.00000E+00         0.00000E+00        -0.16675E+08
 
   -0.16535E+08        -0.14952E+04         0.00000E+00
   -0.14952E+04        -0.44656E+08         0.00000E+00
    0.00000E+00         0.00000E+00        -0.16670E+08
 
   -0.16542E+08         0.10970E+03         0.00000E+00
    0.10970E+03        -0.44658E+08         0.00000E+00
    0.00000E+00         0.00000E+00        -0.16666E+08
 
   -0.16549E+08         0.36004E+04         0.00000E+00
    0.36004E+04        -0.44662E+08         0.00000E+00
    0.00000E+00         0.00000E+00        -0.16664E+08
 
   -0.16557E+08         0.89275E+04         0.00000E+00
    0.89275E+04        -0.44667E+08         0.00000E+00
    0.00000E+00         0.00000E+00        -0.16663E+08
 
   -0.16563E+08         0.16017E+05         0.00000E+00
    0.16017E+05        -0.44671E+08         0.00000E+00
    0.00000E+00         0.00000E+00        -0.16662E+08
 
   -0.16570E+08         0.24764E+05         0.00000E+00
    0.24764E+05        -0.44675E+08         0.00000E+00
    0.00000E+00         0.00000E+00        -0.16661E+08
 
   -0.16577E+08         0.35041E+05         0.00000E+00
    0.35041E+05        -0.44679E+08         0.00000E+00
    0.00000E+00         0.00000E+00        -0.16659E+08
 
   -0.16583E+08         0.46693E+05         0.00000E+00
    0.46693E+05        -0.44682E+08         0.00000E+00
    0.00000E+00         0.00000E+00        -0.16657E+08
 
   -0.16588E+08         0.59544E+05         0.00000E+00
    0.59544E+05        -0.44684E+08         0.00000E+00
    0.00000E+00         0.00000E+00        -0.16654E+08
 
   -0.16594E+08         0.73398E+05         0.00000E+00
    0.73398E+05        -0.44685E+08         0.00000E+00
    0.00000E+00         0.00000E+00        -0.16650E+08
 
   -0.16599E+08         0.88051E+05         0.00000E+00
    0.88051E+05        -0.44684E+08         0.00000E+00
    0.00000E+00         0.00000E+00        -0.16645E+08
 
   -0.16603E+08         0.10329E+06         0.00000E+00
    0.10329E+06        -0.44682E+08         0.00000E+00
    0.00000E+00         0.00000E+00        -0.16637E+08
 
   -0.16607E+08         0.11893E+06         0.00000E+00
    0.11893E+06        -0.44679E+08         0.00000E+00
    0.00000E+00         0.00000E+00        -0.16629E+08
 
   -0.16611E+08         0.13475E+06         0.00000E+00
    0.13475E+06        -0.44674E+08         0.00000E+00
    0.00000E+00         0.00000E+00        -0.16618E+08
 
   -0.16597E+08        -0.21442E+04         0.00000E+00
   -0.21442E+04        -0.44721E+08         0.00000E+00
    0.00000E+00         0.00000E+00        -0.16694E+08
 
   -0.16602E+08        -0.39645E+04         0.00000E+00
   -0.39645E+04        -0.44722E+08         0.00000E+00
    0.00000E+00         0.00000E+00        -0.16691E+08
 
   -0.16607E+08        -0.34987E+04         0.00000E+00
   -0.34987E+04        -0.44726E+08         0.00000E+00
    0.00000E+00         0.00000E+00        -0.16690E+08
 
   -0.16612E+08        -0.77915E+03         0.00000E+00
   -0.77915E+03        -0.44730E+08         0.00000E+00
    0.00000E+00         0.00000E+00        -0.16691E+08
 
   -0.16617E+08         0.41514E+04         0.00000E+00
    0.41514E+04        -0.44735E+08         0.00000E+00
    0.00000E+00         0.00000E+00        -0.16692E+08
 
   -0.16622E+08         0.11212E+05         0.00000E+00
    0.11212E+05        -0.44740E+08         0.00000E+00
    0.00000E+00         0.00000E+00        -0.16694E+08
 
   -0.16627E+08         0.20279E+05         0.00000E+00
    0.20279E+05        -0.44745E+08         0.00000E+00
    0.00000E+00         0.00000E+00        -0.16696E+08
 
   -0.16632E+08         0.31187E+05         0.00000E+00
    0.31187E+05        -0.44750E+08         0.00000E+00
    0.00000E+00         0.00000E+00        -0.16697E+08
 
   -0.16637E+08         0.43746E+05         0.00000E+00
    0.43746E+05        -0.44754E+08         0.00000E+00
    0.00000E+00         0.00000E+00        -0.16698E+08
 
   -0.16641E+08         0.57735E+05         0.00000E+00
    0.57735E+05        -0.44757E+08         0.00000E+00
    0.00000E+00         0.00000E+00        -0.16697E+08
 
   -0.16645E+08         0.72911E+05         0.00000E+00
    0.72911E+05        -0.44758E+08         0.00000E+00
    0.00000E+00         0.00000E+00        -0.16695E+08
 
   -0.16650E+08         0.89017E+05         0.00000E+00
    0.89017E+05        -0.44759E+08         0.00000E+00
    0.00000E+00         0.00000E+00        -0.16691E+08
 
   -0.16654E+08         0.10581E+06         0.00000E+00
    0.10581E+06        -0.44757E+08         0.00000E+00
    0.00000E+00         0.00000E+00        -0.16685E+08
 
   -0.16657E+08         0.12306E+06         0.00000E+00
    0.12306E+06        -0.44754E+08         0.00000E+00
    0.00000E+00         0.00000E+00        -0.16678E+08
 
   -0.16661E+08         0.14055E+06         0.00000E+00
    0.14055E+06        -0.44749E+08         0.00000E+00
    0.00000E+00         0.00000E+00        -0.16668E+08
 
   -0.16671E+08        -0.31771E+04         0.00000E+00
   -0.31771E+04        -0.44791E+08         0.00000E+00
    0.00000E+00         0.00000E+00        -0.16712E+08
 
   -0.16674E+08        -0.66600E+04         0.00000E+00
   -0.66600E+04        -0.44793E+08         0.00000E+00
    0.00000E+00         0.00000E+00        -0.16712E+08
 
   -0.16677E+08        -0.74940E+04         0.00000E+00
   -0.74940E+04        -0.44797E+08         0.00000E+00
    0.00000E+00         0.00000E+00        -0.16714E+08
 
   -0.16679E+08        -0.56949E+04         0.00000E+00
   -0.56949E+04        -0.44802E+08         0.00000E+00
    0.00000E+00         0.00000E+00        -0.16717E+08
 
   -0.16682E+08        -0.12883E+04         0.00000E+00
   -0.12883E+04        -0.44807E+08         0.00000E+00
    0.00000E+00         0.00000E+00        -0.16722E+08
 
   -0.16685E+08         0.56412E+04         0.00000E+00
    0.56412E+04        -0.44813E+08         0.00000E+00
    0.00000E+00         0.00000E+00        -0.16727E+08
 
   -0.16688E+08         0.14955E+05         0.00000E+00
    0.14955E+05        -0.44819E+08         0.00000E+00
    0.00000E+00         0.00000E+00        -0.16732E+08
 
   -0.16691E+08         0.26464E+05         0.00000E+00
    0.26464E+05        -0.44824E+08         0.00000E+00
    0.00000E+00         0.00000E+00        -0.16736E+08
 
   -0.16694E+08         0.39932E+05         0.00000E+00
    0.39932E+05        -0.44829E+08         0.00000E+00
    0.00000E+00         0.00000E+00        -0.16740E+08
 
   -0.16697E+08         0.55087E+05         0.00000E+00
    0.55087E+05        -0.44833E+08         0.00000E+00
    0.00000E+00         0.00000E+00        -0.16741E+08
 
   -0.16700E+08         0.71635E+05         0.00000E+00
    0.71635E+05        -0.44835E+08         0.00000E+00
    0.00000E+00         0.00000E+00        -0.16741E+08
 
   -0.16703E+08         0.89280E+05         0.00000E+00
    0.89280E+05        -0.44836E+08         0.00000E+00
    0.00000E+00         0.00000E+00        -0.16740E+08
 
   -0.16706E+08         0.10773E+06         0.00000E+00
    0.10773E+06        -0.44835E+08         0.00000E+00
    0.00000E+00         0.00000E+00        -0.16735E+08
 
   -0.16710E+08         0.12673E+06         0.00000E+00
    0.12673E+06        -0.44833E+08         0.00000E+00
    0.00000E+00         0.00000E+00        -0.16729E+08
 
   -0.16713E+08         0.14602E+06         0.00000E+00
    0.14602E+06        -0.44828E+08         0.00000E+00
    0.00000E+00         0.00000E+00        -0.16720E+08
 
   -0.16752E+08        -0.42470E+04         0.00000E+00
   -0.42470E+04        -0.44866E+08         0.00000E+00
    0.00000E+00         0.00000E+00        -0.16730E+08
 
   -0.16752E+08        -0.94983E+04         0.00000E+00
   -0.94983E+04        -0.44868E+08         0.00000E+00
    0.00000E+00         0.00000E+00        -0.16733E+08
 
   -0.16751E+08        -0.11745E+05         0.00000E+00
   -0.11745E+05        -0.44872E+08         0.00000E+00
    0.00000E+00         0.00000E+00        -0.16738E+08
 
   -0.16751E+08        -0.10987E+05         0.00000E+00
   -0.10987E+05        -0.44877E+08         0.00000E+00
    0.00000E+00         0.00000E+00        -0.16744E+08
 
   -0.16751E+08        -0.72413E+04         0.00000E+00
   -0.72413E+04        -0.44882E+08         0.00000E+00
    0.00000E+00         0.00000E+00        -0.16752E+08
 
   -0.16751E+08        -0.57240E+03         0.00000E+00
   -0.57240E+03        -0.44889E+08         0.00000E+00
    0.00000E+00         0.00000E+00        -0.16760E+08
 
   -0.16752E+08         0.88872E+04         0.00000E+00
    0.88872E+04        -0.44895E+08         0.00000E+00
    0.00000E+00         0.00000E+00        -0.16768E+08
 
   -0.16752E+08         0.20928E+05         0.00000E+00
    0.20928E+05        -0.44901E+08         0.00000E+00
    0.00000E+00         0.00000E+00        -0.16776E+08
 
   -0.16753E+08         0.35278E+05         0.00000E+00
    0.35278E+05        -0.44907E+08         0.00000E+00
    0.00000E+00         0.00000E+00        -0.16782E+08
 
   -0.16755E+08         0.51612E+05         0.00000E+00
    0.51612E+05        -0.44912E+08         0.00000E+00
    0.00000E+00         0.00000E+00        -0.16787E+08
 
   -0.16757E+08         0.69581E+05         0.00000E+00
    0.69581E+05        -0.44915E+08         0.00000E+00
    0.00000E+00         0.00000E+00        -0.16789E+08
 
   -0.16759E+08         0.88834E+05         0.00000E+00
    0.88834E+05        -0.44916E+08         0.00000E+00
    0.00000E+00         0.00000E+00        -0.16789E+08
 
   -0.16762E+08         0.10903E+06         0.00000E+00
    0.10903E+06        -0.44916E+08         0.00000E+00
    0.00000E+00         0.00000E+00        -0.16787E+08
 
   -0.16765E+08         0.12987E+06         0.00000E+00
    0.12987E+06        -0.44914E+08         0.00000E+00
    0.00000E+00         0.00000E+00        -0.16782E+08
 
   -0.16768E+08         0.15109E+06         0.00000E+00
    0.15109E+06        -0.44911E+08         0.00000E+00
    0.00000E+00         0.00000E+00        -0.16774E+08
 
   -0.16838E+08        -0.52359E+04         0.00000E+00
   -0.52359E+04        -0.44945E+08         0.00000E+00
    0.00000E+00         0.00000E+00        -0.16747E+08
 
   -0.16835E+08        -0.12378E+05         0.00000E+00
   -0.12378E+05        -0.44947E+08         0.00000E+00
    0.00000E+00         0.00000E+00        -0.16753E+08
 
   -0.16831E+08        -0.16094E+05         0.00000E+00
   -0.16094E+05        -0.44950E+08         0.00000E+00
    0.00000E+00         0.00000E+00        -0.16761E+08
 
   -0.16828E+08        -0.16455E+05         0.00000E+00
   -0.16455E+05        -0.44955E+08         0.00000E+00
    0.00000E+00         0.00000E+00        -0.16771E+08
 
   -0.16825E+08        -0.13500E+05         0.00000E+00
   -0.13500E+05        -0.44961E+08         0.00000E+00
    0.00000E+00         0.00000E+00        -0.16782E+08
 
   -0.16822E+08        -0.72375E+04         0.00000E+00
   -0.72375E+04        -0.44968E+08         0.00000E+00
    0.00000E+00         0.00000E+00        -0.16793E+08
 
   -0.16819E+08         0.22268E+04         0.00000E+00
    0.22268E+04        -0.44974E+08         0.00000E+00
    0.00000E+00         0.00000E+00        -0.16805E+08
 
   -0.16818E+08         0.14690E+05         0.00000E+00
    0.14690E+05        -0.44981E+08         0.00000E+00
    0.00000E+00         0.00000E+00        -0.16816E+08
 
   -0.16816E+08         0.29853E+05         0.00000E+00
    0.29853E+05        -0.44987E+08         0.00000E+00
    0.00000E+00         0.00000E+00        -0.16825E+08
 
   -0.16816E+08         0.47340E+05         0.00000E+00
    0.47340E+05        -0.44993E+08         0.00000E+00
    0.00000E+00         0.00000E+00        -0.16833E+08
 
   -0.16816E+08         0.66739E+05         0.00000E+00
    0.66739E+05        -0.44997E+08         0.00000E+00
    0.00000E+00         0.00000E+00        -0.16838E+08
 
   -0.16817E+08         0.87631E+05         0.00000E+00
    0.87631E+05        -0.44999E+08         0.00000E+00
    0.00000E+00         0.00000E+00        -0.16840E+08
 
   -0.16819E+08         0.10962E+06         0.00000E+00
    0.10962E+06        -0.45000E+08         0.00000E+00
    0.00000E+00         0.00000E+00        -0.16840E+08
 
   -0.16821E+08         0.13238E+06         0.00000E+00
    0.13238E+06        -0.44999E+08         0.00000E+00
    0.00000E+00         0.00000E+00        -0.16836E+08
 
   -0.16824E+08         0.15561E+06         0.00000E+00
    0.15561E+06        -0.44996E+08         0.00000E+00
    0.00000E+00         0.00000E+00        -0.16830E+08
 
   -0.16931E+08        -0.61824E+04         0.00000E+00
   -0.61824E+04        -0.45027E+08         0.00000E+00
    0.00000E+00         0.00000E+00        -0.16764E+08
 
   -0.16924E+08        -0.15010E+05         0.00000E+00
   -0.15010E+05        -0.45029E+08         0.00000E+00
    0.00000E+00         0.00000E+00        -0.16773E+08
 
   -0.16917E+08        -0.20284E+05         0.00000E+00
   -0.20284E+05        -0.45032E+08         0.00000E+00
    0.00000E+00         0.00000E+00        -0.16784E+08
 
   -0.16910E+08        -0.21891E+05         0.00000E+00
   -0.21891E+05        -0.45037E+08         0.00000E+00
    0.00000E+00         0.00000E+00        -0.16797E+08
 
   -0.16903E+08        -0.19804E+05         0.00000E+00
   -0.19804E+05        -0.45043E+08         0.00000E+00
    0.00000E+00         0.00000E+00        -0.16811E+08
 
   -0.16897E+08        -0.14087E+05         0.00000E+00
   -0.14087E+05        -0.45049E+08         0.00000E+00
    0.00000E+00         0.00000E+00        -0.16826E+08
 
   -0.16891E+08        -0.47831E+04         0.00000E+00
   -0.47831E+04        -0.45056E+08         0.00000E+00
    0.00000E+00         0.00000E+00        -0.16841E+08
 
   -0.16886E+08         0.79397E+04         0.00000E+00
    0.79397E+04        -0.45063E+08         0.00000E+00
    0.00000E+00         0.00000E+00        -0.16855E+08
 
   -0.16882E+08         0.23777E+05         0.00000E+00
    0.23777E+05        -0.45070E+08         0.00000E+00
    0.00000E+00         0.00000E+00        -0.16868E+08
 
   -0.16879E+08         0.42315E+05         0.00000E+00
    0.42315E+05        -0.45076E+08         0.00000E+00
    0.00000E+00         0.00000E+00        -0.16878E+08
 
   -0.16878E+08         0.63076E+05         0.00000E+00
    0.63076E+05        -0.45080E+08         0.00000E+00
    0.00000E+00         0.00000E+00        -0.16886E+08
 
   -0.16877E+08         0.85574E+05         0.00000E+00
    0.85574E+05        -0.45084E+08         0.00000E+00
    0.00000E+00         0.00000E+00        -0.16891E+08
 
   -0.16878E+08         0.10936E+06         0.00000E+00
    0.10936E+06        -0.45086E+08         0.00000E+00
    0.00000E+00         0.00000E+00        -0.16893E+08
 
   -0.16880E+08         0.13405E+06         0.00000E+00
    0.13405E+06        -0.45085E+08         0.00000E+00
    0.00000E+00         0.00000E+00        -0.16892E+08
 
   -0.16882E+08         0.15935E+06         0.00000E+00
    0.15935E+06        -0.45083E+08         0.00000E+00
    0.00000E+00         0.00000E+00        -0.16887E+08
 
   -0.17028E+08        -0.70239E+04         0.00000E+00
   -0.70239E+04        -0.45114E+08         0.00000E+00
    0.00000E+00         0.00000E+00        -0.16781E+08
 
   -0.17018E+08        -0.17370E+05         0.00000E+00
   -0.17370E+05        -0.45115E+08         0.00000E+00
    0.00000E+00         0.00000E+00        -0.16793E+08
 
   -0.17007E+08        -0.24071E+05         0.00000E+00
   -0.24071E+05        -0.45118E+08         0.00000E+00
    0.00000E+00         0.00000E+00        -0.16807E+08
 
   -0.16997E+08        -0.26910E+05         0.00000E+00
   -0.26910E+05        -0.45122E+08         0.00000E+00
    0.00000E+00         0.00000E+00        -0.16823E+08
 
   -0.16986E+08        -0.25799E+05         0.00000E+00
   -0.25799E+05        -0.45127E+08         0.00000E+00
    0.00000E+00         0.00000E+00        -0.16840E+08
 
   -0.16976E+08        -0.20735E+05         0.00000E+00
   -0.20735E+05        -0.45133E+08         0.00000E+00
    0.00000E+00         0.00000E+00        -0.16858E+08
 
   -0.16967E+08        -0.11761E+05         0.00000E+00
   -0.11761E+05        -0.45140E+08         0.00000E+00
    0.00000E+00         0.00000E+00        -0.16875E+08
 
   -0.16958E+08         0.98844E+03         0.00000E+00
    0.98844E+03        -0.45147E+08         0.00000E+00
    0.00000E+00         0.00000E+00        -0.16893E+08
 
   -0.16951E+08         0.17245E+05         0.00000E+00
    0.17245E+05        -0.45153E+08         0.00000E+00
    0.00000E+00         0.00000E+00        -0.16909E+08
 
   -0.16946E+08         0.36596E+05         0.00000E+00
    0.36596E+05        -0.45160E+08         0.00000E+00
    0.00000E+00         0.00000E+00        -0.16923E+08
 
   -0.16942E+08         0.58527E+05         0.00000E+00
    0.58527E+05        -0.45165E+08         0.00000E+00
    0.00000E+00         0.00000E+00        -0.16934E+08
 
   -0.16940E+08         0.82496E+05         0.00000E+00
    0.82496E+05        -0.45170E+08         0.00000E+00
    0.00000E+00         0.00000E+00        -0.16942E+08
 
   -0.16939E+08         0.10800E+06         0.00000E+00
    0.10800E+06        -0.45173E+08         0.00000E+00
    0.00000E+00         0.00000E+00        -0.16947E+08
 
   -0.16940E+08         0.13460E+06         0.00000E+00
    0.13460E+06        -0.45174E+08         0.00000E+00
    0.00000E+00         0.00000E+00        -0.16948E+08
 
   -0.16942E+08         0.16198E+06         0.00000E+00
    0.16198E+06        -0.45173E+08         0.00000E+00
    0.00000E+00         0.00000E+00        -0.16945E+08
 
   -0.17132E+08        -0.77375E+04         0.00000E+00
   -0.77375E+04        -0.45204E+08         0.00000E+00
    0.00000E+00         0.00000E+00        -0.16798E+08
 
   -0.17117E+08        -0.19434E+05         0.00000E+00
   -0.19434E+05        -0.45205E+08         0.00000E+00
    0.00000E+00         0.00000E+00        -0.16813E+08
 
   -0.17103E+08        -0.27272E+05         0.00000E+00
   -0.27272E+05        -0.45208E+08         0.00000E+00
    0.00000E+00         0.00000E+00        -0.16830E+08
 
   -0.17088E+08        -0.31178E+05         0.00000E+00
   -0.31178E+05        -0.45211E+08         0.00000E+00
    0.00000E+00         0.00000E+00        -0.16848E+08
 
   -0.17074E+08        -0.30997E+05         0.00000E+00
   -0.30997E+05        -0.45215E+08         0.00000E+00
    0.00000E+00         0.00000E+00        -0.16868E+08
 
   -0.17060E+08        -0.26628E+05         0.00000E+00
   -0.26628E+05        -0.45220E+08         0.00000E+00
    0.00000E+00         0.00000E+00        -0.16888E+08
 
   -0.17046E+08        -0.18158E+05         0.00000E+00
   -0.18158E+05        -0.45226E+08         0.00000E+00
    0.00000E+00         0.00000E+00        -0.16909E+08
 
   -0.17034E+08        -0.56967E+04         0.00000E+00
   -0.56967E+04        -0.45232E+08         0.00000E+00
    0.00000E+00         0.00000E+00        -0.16929E+08
 
   -0.17023E+08         0.10556E+05         0.00000E+00
    0.10556E+05        -0.45238E+08         0.00000E+00
    0.00000E+00         0.00000E+00        -0.16948E+08
 
   -0.17015E+08         0.30270E+05         0.00000E+00
    0.30270E+05        -0.45245E+08         0.00000E+00
    0.00000E+00         0.00000E+00        -0.16965E+08
 
   -0.17009E+08         0.52983E+05         0.00000E+00
    0.52983E+05        -0.45251E+08         0.00000E+00
    0.00000E+00         0.00000E+00        -0.16980E+08
 
   -0.17005E+08         0.78139E+05         0.00000E+00
    0.78139E+05        -0.45257E+08         0.00000E+00
    0.00000E+00         0.00000E+00        -0.16991E+08
 
   -0.17003E+08         0.10517E+06         0.00000E+00
    0.10517E+06        -0.45261E+08         0.00000E+00
    0.00000E+00         0.00000E+00        -0.17000E+08
 
   -0.17003E+08         0.13360E+06         0.00000E+00
    0.13360E+06        -0.45264E+08         0.00000E+00
    0.00000E+00         0.00000E+00        -0.17004E+08
 
   -0.17004E+08         0.16305E+06         0.00000E+00
    0.16305E+06        -0.45265E+08         0.00000E+00
    0.00000E+00         0.00000E+00        -0.17005E+08
 
   -0.17240E+08        -0.83311E+04         0.00000E+00
   -0.83311E+04        -0.45298E+08         0.00000E+00
    0.00000E+00         0.00000E+00        -0.16815E+08
 
   -0.17222E+08        -0.21057E+05         0.00000E+00
   -0.21057E+05        -0.45299E+08         0.00000E+00
    0.00000E+00         0.00000E+00        -0.16833E+08
 
   -0.17203E+08        -0.29795E+05         0.00000E+00
   -0.29795E+05        -0.45301E+08         0.00000E+00
    0.00000E+00         0.00000E+00        -0.16853E+08
 
   -0.17185E+08        -0.34422E+05         0.00000E+00
   -0.34422E+05        -0.45303E+08         0.00000E+00
    0.00000E+00         0.00000E+00        -0.16874E+08
 
   -0.17166E+08        -0.34871E+05         0.00000E+00
   -0.34871E+05        -0.45306E+08         0.00000E+00
    0.00000E+00         0.00000E+00        -0.16896E+08
 
   -0.17148E+08        -0.31126E+05         0.00000E+00
   -0.31126E+05        -0.45309E+08         0.00000E+00
    0.00000E+00         0.00000E+00        -0.16918E+08
 
   -0.17130E+08        -0.23275E+05         0.00000E+00
   -0.23275E+05        -0.45313E+08         0.00000E+00
    0.00000E+00         0.00000E+00        -0.16940E+08
 
   -0.17114E+08        -0.11479E+05         0.00000E+00
   -0.11479E+05        -0.45317E+08         0.00000E+00
    0.00000E+00         0.00000E+00        -0.16962E+08
 
   -0.17100E+08         0.41516E+04         0.00000E+00
    0.41516E+04        -0.45323E+08         0.00000E+00
    0.00000E+00         0.00000E+00        -0.16983E+08
 
   -0.17088E+08         0.23499E+05         0.00000E+00
    0.23499E+05        -0.45329E+08         0.00000E+00
    0.00000E+00         0.00000E+00        -0.17004E+08
 
   -0.17078E+08         0.46315E+05         0.00000E+00
    0.46315E+05        -0.45337E+08         0.00000E+00
    0.00000E+00         0.00000E+00        -0.17022E+08
 
   -0.17072E+08         0.72147E+05         0.00000E+00
    0.72147E+05        -0.45344E+08         0.00000E+00
    0.00000E+00         0.00000E+00        -0.17038E+08
 
   -0.17068E+08         0.10040E+06         0.00000E+00
    0.10040E+06        -0.45350E+08         0.00000E+00
    0.00000E+00         0.00000E+00        -0.17051E+08
 
   -0.17067E+08         0.13048E+06         0.00000E+00
    0.13048E+06        -0.45356E+08         0.00000E+00
    0.00000E+00         0.00000E+00        -0.17060E+08
 
   -0.17067E+08         0.16193E+06         0.00000E+00
    0.16193E+06        -0.45360E+08         0.00000E+00
    0.00000E+00         0.00000E+00        -0.17066E+08
 
   -0.17353E+08        -0.87819E+04         0.00000E+00
   -0.87819E+04        -0.45396E+08         0.00000E+00
    0.00000E+00         0.00000E+00        -0.16833E+08
 
   -0.17331E+08        -0.22222E+05         0.00000E+00
   -0.22222E+05        -0.45397E+08         0.00000E+00
    0.00000E+00         0.00000E+00        -0.16854E+08
 
   -0.17308E+08        -0.31434E+05         0.00000E+00
   -0.31434E+05        -0.45398E+08         0.00000E+00
    0.00000E+00         0.00000E+00        -0.16877E+08
 
   -0.17285E+08        -0.36327E+05         0.00000E+00
   -0.36327E+05        -0.45399E+08         0.00000E+00
    0.00000E+00         0.00000E+00        -0.16900E+08
 
   -0.17263E+08        -0.36944E+05         0.00000E+00
   -0.36944E+05        -0.45400E+08         0.00000E+00
    0.00000E+00         0.00000E+00        -0.16924E+08
 
   -0.17240E+08        -0.33537E+05         0.00000E+00
   -0.33537E+05        -0.45401E+08         0.00000E+00
    0.00000E+00         0.00000E+00        -0.16947E+08
 
   -0.17219E+08        -0.26351E+05         0.00000E+00
   -0.26351E+05        -0.45402E+08         0.00000E+00
    0.00000E+00         0.00000E+00        -0.16969E+08
 
   -0.17199E+08        -0.15633E+05         0.00000E+00
   -0.15633E+05        -0.45404E+08         0.00000E+00
    0.00000E+00         0.00000E+00        -0.16992E+08
 
   -0.17180E+08        -0.13809E+04         0.00000E+00
   -0.13809E+04        -0.45408E+08         0.00000E+00
    0.00000E+00         0.00000E+00        -0.17015E+08
 
   -0.17165E+08         0.16597E+05         0.00000E+00
    0.16597E+05        -0.45414E+08         0.00000E+00
    0.00000E+00         0.00000E+00        -0.17038E+08
 
   -0.17152E+08         0.38466E+05         0.00000E+00
    0.38466E+05        -0.45421E+08         0.00000E+00
    0.00000E+00         0.00000E+00        -0.17060E+08
 
   -0.17143E+08         0.64113E+05         0.00000E+00
    0.64113E+05        -0.45430E+08         0.00000E+00
    0.00000E+00         0.00000E+00        -0.17082E+08
 
   -0.17137E+08         0.93032E+05         0.00000E+00
    0.93032E+05        -0.45440E+08         0.00000E+00
    0.00000E+00         0.00000E+00        -0.17100E+08
 
   -0.17133E+08         0.12449E+06         0.00000E+00
    0.12449E+06        -0.45448E+08         0.00000E+00
    0.00000E+00         0.00000E+00        -0.17116E+08
 
   -0.17132E+08         0.15783E+06         0.00000E+00
    0.15783E+06        -0.45456E+08         0.00000E+00
    0.00000E+00         0.00000E+00        -0.17127E+08
 
   -0.17470E+08        -0.91356E+04         0.00000E+00
   -0.91356E+04        -0.45498E+08         0.00000E+00
    0.00000E+00         0.00000E+00        -0.16851E+08
 
   -0.17444E+08        -0.22884E+05         0.00000E+00
   -0.22884E+05        -0.45498E+08         0.00000E+00
    0.00000E+00         0.00000E+00        -0.16877E+08
 
   -0.17417E+08        -0.31984E+05         0.00000E+00
   -0.31984E+05        -0.45499E+08         0.00000E+00
    0.00000E+00         0.00000E+00        -0.16903E+08
 
   -0.17390E+08        -0.36445E+05         0.00000E+00
   -0.36445E+05        -0.45498E+08         0.00000E+00
    0.00000E+00         0.00000E+00        -0.16928E+08
 
   -0.17363E+08        -0.36636E+05         0.00000E+00
   -0.36636E+05        -0.45496E+08         0.00000E+00
    0.00000E+00         0.00000E+00        -0.16951E+08
 
   -0.17337E+08        -0.33225E+05         0.00000E+00
   -0.33225E+05        -0.45494E+08         0.00000E+00
    0.00000E+00         0.00000E+00        -0.16974E+08
 
   -0.17312E+08        -0.26790E+05         0.00000E+00
   -0.26790E+05        -0.45493E+08         0.00000E+00
    0.00000E+00         0.00000E+00        -0.16996E+08
 
   -0.17289E+08        -0.17533E+05         0.00000E+00
   -0.17533E+05        -0.45492E+08         0.00000E+00
    0.00000E+00         0.00000E+00        -0.17018E+08
 
   -0.17267E+08        -0.53725E+04         0.00000E+00
   -0.53725E+04        -0.45494E+08         0.00000E+00
    0.00000E+00         0.00000E+00        -0.17042E+08
 
   -0.17248E+08         0.10139E+05         0.00000E+00
    0.10139E+05        -0.45498E+08         0.00000E+00
    0.00000E+00         0.00000E+00        -0.17066E+08
 
   -0.17231E+08         0.29651E+05         0.00000E+00
    0.29651E+05        -0.45506E+08         0.00000E+00
    0.00000E+00         0.00000E+00        -0.17093E+08
 
   -0.17217E+08         0.53727E+05         0.00000E+00
    0.53727E+05        -0.45516E+08         0.00000E+00
    0.00000E+00         0.00000E+00        -0.17120E+08
 
   -0.17208E+08         0.82326E+05         0.00000E+00
    0.82326E+05        -0.45528E+08         0.00000E+00
    0.00000E+00         0.00000E+00        -0.17146E+08
 
   -0.17202E+08         0.11466E+06         0.00000E+00
    0.11466E+06        -0.45541E+08         0.00000E+00
    0.00000E+00         0.00000E+00        -0.17169E+08
 
   -0.17198E+08         0.14969E+06         0.00000E+00
    0.14969E+06        -0.45553E+08         0.00000E+00
    0.00000E+00         0.00000E+00        -0.17189E+08
 
   -0.17592E+08        -0.94447E+04         0.00000E+00
   -0.94447E+04        -0.45603E+08         0.00000E+00
    0.00000E+00         0.00000E+00        -0.16871E+08
 
   -0.17561E+08        -0.22970E+05         0.00000E+00
   -0.22970E+05        -0.45604E+08         0.00000E+00
    0.00000E+00         0.00000E+00        -0.16901E+08
 
   -0.17529E+08        -0.31053E+05         0.00000E+00
   -0.31053E+05        -0.45602E+08         0.00000E+00
    0.00000E+00         0.00000E+00        -0.16929E+08
 
   -0.17497E+08        -0.34128E+05         0.00000E+00
   -0.34128E+05        -0.45599E+08         0.00000E+00
    0.00000E+00         0.00000E+00        -0.16955E+08
 
   -0.17466E+08        -0.33296E+05         0.00000E+00
   -0.33296E+05        -0.45595E+08         0.00000E+00
    0.00000E+00         0.00000E+00        -0.16979E+08
 
   -0.17437E+08        -0.29839E+05         0.00000E+00
   -0.29839E+05        -0.45589E+08         0.00000E+00
    0.00000E+00         0.00000E+00        -0.17000E+08
 
   -0.17410E+08        -0.24331E+05         0.00000E+00
   -0.24331E+05        -0.45585E+08         0.00000E+00
    0.00000E+00         0.00000E+00        -0.17020E+08
 
   -0.17384E+08        -0.16866E+05         0.00000E+00
   -0.16866E+05        -0.45582E+08         0.00000E+00
    0.00000E+00         0.00000E+00        -0.17041E+08
 
   -0.17360E+08        -0.72842E+04         0.00000E+00
   -0.72842E+04        -0.45581E+08         0.00000E+00
    0.00000E+00         0.00000E+00        -0.17064E+08
 
   -0.17337E+08         0.49133E+04         0.00000E+00
    0.49133E+04        -0.45583E+08         0.00000E+00
    0.00000E+00         0.00000E+00        -0.17090E+08
 
   -0.17316E+08         0.20641E+05         0.00000E+00
    0.20641E+05        -0.45590E+08         0.00000E+00
    0.00000E+00         0.00000E+00        -0.17119E+08
 
   -0.17297E+08         0.41139E+05         0.00000E+00
    0.41139E+05        -0.45600E+08         0.00000E+00
    0.00000E+00         0.00000E+00        -0.17151E+08
 
   -0.17283E+08         0.67541E+05         0.00000E+00
    0.67541E+05        -0.45616E+08         0.00000E+00
    0.00000E+00         0.00000E+00        -0.17186E+08
 
   -0.17273E+08         0.99679E+05         0.00000E+00
    0.99679E+05        -0.45634E+08         0.00000E+00
    0.00000E+00         0.00000E+00        -0.17220E+08
 
   -0.17267E+08         0.13605E+06         0.00000E+00
    0.13605E+06        -0.45652E+08         0.00000E+00
    0.00000E+00         0.00000E+00        -0.17250E+08
 
   -0.17717E+08        -0.97473E+04         0.00000E+00
   -0.97473E+04        -0.45712E+08         0.00000E+00
    0.00000E+00         0.00000E+00        -0.16893E+08
 
   -0.17680E+08        -0.22132E+05         0.00000E+00
   -0.22132E+05        -0.45712E+08         0.00000E+00
    0.00000E+00         0.00000E+00        -0.16927E+08
 
   -0.17642E+08        -0.27725E+05         0.00000E+00
   -0.27725E+05        -0.45708E+08         0.00000E+00
    0.00000E+00         0.00000E+00        -0.16958E+08
 
   -0.17606E+08        -0.28418E+05         0.00000E+00
   -0.28418E+05        -0.45701E+08         0.00000E+00
    0.00000E+00         0.00000E+00        -0.16983E+08
 
   -0.17573E+08        -0.26665E+05         0.00000E+00
   -0.26665E+05        -0.45693E+08         0.00000E+00
    0.00000E+00         0.00000E+00        -0.17004E+08
 
   -0.17542E+08        -0.23469E+05         0.00000E+00
   -0.23469E+05        -0.45685E+08         0.00000E+00
    0.00000E+00         0.00000E+00        -0.17023E+08
 
   -0.17513E+08        -0.19200E+05         0.00000E+00
   -0.19200E+05        -0.45678E+08         0.00000E+00
    0.00000E+00         0.00000E+00        -0.17041E+08
 
   -0.17486E+08        -0.13787E+05         0.00000E+00
   -0.13787E+05        -0.45673E+08         0.00000E+00
    0.00000E+00         0.00000E+00        -0.17061E+08
 
   -0.17460E+08        -0.69868E+04         0.00000E+00
   -0.69868E+04        -0.45670E+08         0.00000E+00
    0.00000E+00         0.00000E+00        -0.17083E+08
 
   -0.17434E+08         0.15733E+04         0.00000E+00
    0.15733E+04        -0.45671E+08         0.00000E+00
    0.00000E+00         0.00000E+00        -0.17108E+08
 
   -0.17409E+08         0.12658E+05         0.00000E+00
    0.12658E+05        -0.45675E+08         0.00000E+00
    0.00000E+00         0.00000E+00        -0.17138E+08
 
   -0.17385E+08         0.27613E+05         0.00000E+00
    0.27613E+05        -0.45685E+08         0.00000E+00
    0.00000E+00         0.00000E+00        -0.17175E+08
 
   -0.17364E+08         0.48563E+05         0.00000E+00
    0.48563E+05        -0.45701E+08         0.00000E+00
    0.00000E+00         0.00000E+00        -0.17217E+08
 
   -0.17348E+08         0.77901E+05         0.00000E+00
    0.77901E+05        -0.45725E+08         0.00000E+00
    0.00000E+00         0.00000E+00        -0.17264E+08
 
   -0.17337E+08         0.11476E+06         0.00000E+00
    0.11476E+06        -0.45752E+08         0.00000E+00
    0.00000E+00         0.00000E+00        -0.17311E+08
 
   -0.17845E+08        -0.10082E+05         0.00000E+00
   -0.10082E+05        -0.45825E+08         0.00000E+00
    0.00000E+00         0.00000E+00        -0.16917E+08
 
   -0.17800E+08        -0.19020E+05         0.00000E+00
   -0.19020E+05        -0.45823E+08         0.00000E+00
    0.00000E+00         0.00000E+00        -0.16956E+08
 
   -0.17756E+08        -0.19966E+05         0.00000E+00
   -0.19966E+05        -0.45814E+08         0.00000E+00
    0.00000E+00         0.00000E+00        -0.16985E+08
 
   -0.17718E+08        -0.18884E+05         0.00000E+00
   -0.18884E+05        -0.45803E+08         0.00000E+00
    0.00000E+00         0.00000E+00        -0.17007E+08
 
   -0.17683E+08        -0.17139E+05         0.00000E+00
   -0.17139E+05        -0.45792E+08         0.00000E+00
    0.00000E+00         0.00000E+00        -0.17025E+08
 
   -0.17652E+08        -0.14880E+05         0.00000E+00
   -0.14880E+05        -0.45782E+08         0.00000E+00
    0.00000E+00         0.00000E+00        -0.17042E+08
 
   -0.17622E+08        -0.12112E+05         0.00000E+00
   -0.12112E+05        -0.45773E+08         0.00000E+00
    0.00000E+00         0.00000E+00        -0.17059E+08
 
   -0.17594E+08        -0.88462E+04         0.00000E+00
   -0.88462E+04        -0.45767E+08         0.00000E+00
    0.00000E+00         0.00000E+00        -0.17078E+08
 
   -0.17566E+08        -0.48692E+04         0.00000E+00
   -0.48692E+04        -0.45763E+08         0.00000E+00
    0.00000E+00         0.00000E+00        -0.17099E+08
 
   -0.17539E+08         0.12984E+03         0.00000E+00
    0.12984E+03        -0.45761E+08         0.00000E+00
    0.00000E+00         0.00000E+00        -0.17124E+08
 
   -0.17511E+08         0.65572E+04         0.00000E+00
    0.65572E+04        -0.45764E+08         0.00000E+00
    0.00000E+00         0.00000E+00        -0.17154E+08
 
   -0.17483E+08         0.15216E+05         0.00000E+00
    0.15216E+05        -0.45772E+08         0.00000E+00
    0.00000E+00         0.00000E+00        -0.17192E+08
 
   -0.17455E+08         0.27784E+05         0.00000E+00
    0.27784E+05        -0.45787E+08         0.00000E+00
    0.00000E+00         0.00000E+00        -0.17239E+08
 
   -0.17428E+08         0.47956E+05         0.00000E+00
    0.47956E+05        -0.45812E+08         0.00000E+00
    0.00000E+00         0.00000E+00        -0.17298E+08
 
   -0.17410E+08         0.81917E+05         0.00000E+00
    0.81917E+05        -0.45852E+08         0.00000E+00
    0.00000E+00         0.00000E+00        -0.17368E+08
 
   -0.17976E+08        -0.98287E+04         0.00000E+00
   -0.98287E+04        -0.45943E+08         0.00000E+00
    0.00000E+00         0.00000E+00        -0.16946E+08
 
   -0.17917E+08        -0.85960E+04         0.00000E+00
   -0.85960E+04        -0.45928E+08         0.00000E+00
    0.00000E+00         0.00000E+00        -0.16981E+08
 
   -0.17872E+08        -0.73299E+04         0.00000E+00
   -0.73299E+04        -0.45914E+08         0.00000E+00
    0.00000E+00         0.00000E+00        -0.17005E+08
 
   -0.17833E+08        -0.65888E+04         0.00000E+00
   -0.65888E+04        -0.45901E+08         0.00000E+00
    0.00000E+00         0.00000E+00        -0.17025E+08
 
   -0.17798E+08        -0.58823E+04         0.00000E+00
   -0.58823E+04        -0.45889E+08         0.00000E+00
    0.00000E+00         0.00000E+00        -0.17042E+08
 
   -0.17766E+08        -0.50738E+04         0.00000E+00
   -0.50738E+04        -0.45878E+08         0.00000E+00
    0.00000E+00         0.00000E+00        -0.17058E+08
 
   -0.17736E+08        -0.41055E+04         0.00000E+00
   -0.41055E+04        -0.45869E+08         0.00000E+00
    0.00000E+00         0.00000E+00        -0.17075E+08
 
   -0.17707E+08        -0.30072E+04         0.00000E+00
   -0.30072E+04        -0.45862E+08         0.00000E+00
    0.00000E+00         0.00000E+00        -0.17093E+08
 
   -0.17679E+08        -0.17065E+04         0.00000E+00
   -0.17065E+04        -0.45858E+08         0.00000E+00
    0.00000E+00         0.00000E+00        -0.17113E+08
 
   -0.17651E+08        -0.82814E+02         0.00000E+00
   -0.82814E+02        -0.45856E+08         0.00000E+00
    0.00000E+00         0.00000E+00        -0.17138E+08
 
   -0.17623E+08         0.20058E+04         0.00000E+00
    0.20058E+04        -0.45858E+08         0.00000E+00
    0.00000E+00         0.00000E+00        -0.17168E+08
 
   -0.17593E+08         0.47793E+04         0.00000E+00
    0.47793E+04        -0.45865E+08         0.00000E+00
    0.00000E+00         0.00000E+00        -0.17206E+08
 
   -0.17560E+08         0.87434E+04         0.00000E+00
    0.87434E+04        -0.45879E+08         0.00000E+00
    0.00000E+00         0.00000E+00        -0.17255E+08
 
   -0.17525E+08         0.15416E+05         0.00000E+00
    0.15416E+05        -0.45902E+08         0.00000E+00
    0.00000E+00         0.00000E+00        -0.17321E+08
 
   -0.17485E+08         0.31003E+05         0.00000E+00
    0.31003E+05        -0.45941E+08         0.00000E+00
    0.00000E+00         0.00000E+00        -0.17412E+08
 
TENSORS stresstot double 
   -0.31912E+08         0.17182E+03         0.00000E+00
    0.17182E+03        -0.60000E+08         0.00000E+00
    0.00000E+00         0.00000E+00        -0.32331E+08
 
   -0.31927E+08         0.52164E+03         0.00000E+00
    0.52164E+03        -0.59999E+08         0.00000E+00
    0.00000E+00         0.00000E+00        -0.32316E+08
 
   -0.31941E+08         0.87502E+03         0.00000E+00
    0.87502E+03        -0.59998E+08         0.00000E+00
    0.00000E+00         0.00000E+00        -0.32299E+08
 
   -0.31955E+08         0.12295E+04         0.00000E+00
    0.12295E+04        -0.59996E+08         0.00000E+00
    0.00000E+00         0.00000E+00        -0.32282E+08
 
   -0.31969E+08         0.15840E+04         0.00000E+00
    0.15840E+04        -0.59993E+08         0.00000E+00
    0.00000E+00         0.00000E+00        -0.32265E+08
 
   -0.31982E+08         0.19384E+04         0.00000E+00
    0.19384E+04        -0.59989E+08         0.00000E+00
    0.00000E+00         0.00000E+00        -0.32247E+08
 
   -0.31994E+08         0.22930E+04         0.00000E+00
    0.22930E+04        -0.59985E+08         0.00000E+00
    0.00000E+00         0.00000E+00        -0.32229E+08
 
   -0.32006E+08         0.26492E+04         0.00000E+00
    0.26492E+04        -0.59980E+08         0.00000E+00
    0.00000E+00         0.00000E+00        -0.32210E+08
 
   -0.32018E+08         0.30094E+04         0.00000E+00
    0.30094E+04        -0.59975E+08         0.00000E+00
    0.00000E+00         0.00000E+00        -0.32191E+08
 
   -0.32028E+08         0.33744E+04         0.00000E+00
    0.33744E+04        -0.59968E+08         0.00000E+00
    0.00000E+00         0.00000E+00        -0.32172E+08
 
   -0.32038E+08         0.37465E+04         0.00000E+00
    0.37465E+04        -0.59961E+08         0.00000E+00
    0.00000E+00         0.00000E+00        -0.32153E+08
 
   -0.32047E+08         0.41263E+04         0.00000E+00
    0.41263E+04        -0.59953E+08         0.00000E+00
    0.00000E+00         0.00000E+00        -0.32134E+08
 
   -0.32054E+08         0.45158E+04         0.00000E+00
    0.45158E+04        -0.59945E+08         0.00000E+00
    0.00000E+00         0.00000E+00        -0.32115E+08
 
   -0.32060E+08         0.49149E+04         0.00000E+00
    0.49149E+04        -0.59935E+08         0.00000E+00
    0.00000E+00         0.00000E+00        -0.32096E+08
 
   -0.32065E+08         0.53236E+04         0.00000E+00
    0.53236E+04        -0.59925E+08         0.00000E+00
    0.00000E+00         0.00000E+00        -0.32077E+08
 
   -0.31912E+08         0.51116E+03         0.00000E+00
    0.51116E+03        -0.60000E+08         0.00000E+00
    0.00000E+00         0.00000E+00        -0.32329E+08
 
   -0.31926E+08         0.15532E+04         0.00000E+00
    0.15532E+04        -0.59999E+08         0.00000E+00
    0.00000E+00         0.00000E+00        -0.32313E+08
 
   -0.31940E+08         0.26060E+04         0.00000E+00
    0.26060E+04        -0.59998E+08         0.00000E+00
    0.00000E+00         0.00000E+00        -0.32297E+08
 
   -0.31954E+08         0.36637E+04         0.00000E+00
    0.36637E+04        -0.59996E+08         0.00000E+00
    0.00000E+00         0.00000E+00        -0.32280E+08
 
   -0.31968E+08         0.47229E+04         0.00000E+00
    0.47229E+04        -0.59993E+08         0.00000E+00
    0.00000E+00         0.00000E+00        -0.32263E+08
 
   -0.31981E+08         0.57822E+04         0.00000E+00
    0.57822E+04        -0.59990E+08         0.00000E+00
    0.00000E+00         0.00000E+00        -0.32245E+08
 
   -0.31994E+08         0.68434E+04         0.00000E+00
    0.68434E+04        -0.59985E+08         0.00000E+00
    0.00000E+00         0.00000E+00        -0.32227E+08
 
   -0.32006E+08         0.79103E+04         0.00000E+00
    0.79103E+04        -0.59981E+08         0.00000E+00
    0.00000E+00         0.00000E+00        -0.32209E+08
 
   -0.32017E+08         0.89881E+04         0.00000E+00
    0.89881E+04        -0.59975E+08         0.00000E+00
    0.00000E+00         0.00000E+00        -0.32190E+08
 
   -0.32028E+08         0.10083E+05         0.00000E+00
    0.10083E+05        -0.59969E+08         0.00000E+00
    0.00000E+00         0.00000E+00        -0.32171E+08
 
   -0.32037E+08         0.11200E+05         0.00000E+00
    0.11200E+05        -0.59962E+08         0.00000E+00
    0.00000E+00         0.00000E+00        -0.32152E+08
 
   -0.32046E+08         0.12342E+05         0.00000E+00
    0.12342E+05        -0.59954E+08         0.00000E+00
    0.00000E+00         0.00000E+00        -0.32133E+08
 
   -0.32054E+08         0.13511E+05         0.00000E+00
    0.13511E+05        -0.59945E+08         0.00000E+00
    0.00000E+00         0.00000E+00        -0.32114E+08
 
   -0.32060E+08         0.14708E+05         0.00000E+00
    0.14708E+05        -0.59936E+08         0.00000E+00
    0.00000E+00         0.00000E+00        -0.32095E+08
 
   -0.32064E+08         0.15935E+05         0.00000E+00
    0.15935E+05        -0.59926E+08         0.00000E+00
    0.00000E+00         0.00000E+00        -0.32076E+08
 
   -0.31910E+08         0.83741E+03         0.00000E+00
    0.83741E+03        -0.60000E+08         0.00000E+00
    0.00000E+00         0.00000E+00        -0.32325E+08
 
   -0.31925E+08         0.25474E+04         0.00000E+00
    0.25474E+04        -0.59999E+08         0.00000E+00
    0.00000E+00         0.00000E+00        -0.32309E+08
 
   -0.31939E+08         0.42799E+04         0.00000E+00
    0.42799E+04        -0.59998E+08         0.00000E+00
    0.00000E+00         0.00000E+00        -0.32293E+08
 
   -0.31953E+08         0.60240E+04         0.00000E+00
    0.60240E+04        -0.59996E+08         0.00000E+00
    0.00000E+00         0.00000E+00        -0.32276E+08
 
   -0.31966E+08         0.77736E+04         0.00000E+00
    0.77736E+04        -0.59993E+08         0.00000E+00
    0.00000E+00         0.00000E+00        -0.32259E+08
 
   -0.31980E+08         0.95269E+04         0.00000E+00
    0.95269E+04        -0.59990E+08         0.00000E+00
    0.00000E+00         0.00000E+00        -0.32241E+08
 
   -0.31992E+08         0.11286E+05         0.00000E+00
    0.11286E+05        -0.59986E+08         0.00000E+00
    0.00000E+00         0.00000E+00        -0.32223E+08
 
   -0.32004E+08         0.13059E+05         0.00000E+00
    0.13059E+05        -0.59981E+08         0.00000E+00
    0.00000E+00         0.00000E+00        -0.32205E+08
 
   -0.32016E+08         0.14848E+05         0.00000E+00
    0.14848E+05        -0.59976E+08         0.00000E+00
    0.00000E+00         0.00000E+00        -0.32187E+08
 
   -0.32026E+08         0.16671E+05         0.00000E+00
    0.16671E+05        -0.59970E+08         0.00000E+00
    0.00000E+00         0.00000E+00        -0.32168E+08
 
   -0.32036E+08         0.18537E+05         0.00000E+00
    0.18537E+05        -0.59963E+08         0.00000E+00
    0.00000E+00         0.00000E+00        -0.32149E+08
 
   -0.32045E+08         0.20444E+05         0.00000E+00
    0.20444E+05        -0.59955E+08         0.00000E+00
    0.00000E+00         0.00000E+00        -0.32130E+08
 
   -0.32052E+08         0.22394E+05         0.00000E+00
    0.22394E+05        -0.59947E+08         0.00000E+00
    0.00000E+00         0.00000E+00        -0.32111E+08
 
   -0.32058E+08         0.24393E+05         0.00000E+00
    0.24393E+05        -0.59938E+08         0.00000E+00
    0.00000E+00         0.00000E+00        -0.32093E+08
 
   -0.32063E+08         0.26440E+05         0.00000E+00
    0.26440E+05        -0.59928E+08         0.00000E+00
    0.00000E+00         0.00000E+00        -0.32074E+08
 
   -0.31908E+08         0.11389E+04         0.00000E+00
    0.11389E+04        -0.60000E+08         0.00000E+00
    0.00000E+00         0.00000E+00        -0.32318E+08
 
   -0.31923E+08         0.34812E+04         0.00000E+00
    0.34812E+04        -0.59999E+08         0.00000E+00
    0.00000E+00         0.00000E+00        -0.32302E+08
 
   -0.31937E+08         0.58571E+04         0.00000E+00
    0.58571E+04        -0.59998E+08         0.00000E+00
    0.00000E+00         0.00000E+00        -0.32286E+08
 
   -0.31951E+08         0.82583E+04         0.00000E+00
    0.82583E+04        -0.59996E+08         0.00000E+00
    0.00000E+00         0.00000E+00        -0.32270E+08
 
   -0.31964E+08         0.10676E+05         0.00000E+00
    0.10676E+05        -0.59994E+08         0.00000E+00
    0.00000E+00         0.00000E+00        -0.32253E+08
 
   -0.31977E+08         0.13106E+05         0.00000E+00
    0.13106E+05        -0.59991E+08         0.00000E+00
    0.00000E+00         0.00000E+00        -0.32235E+08
 
   -0.31990E+08         0.15549E+05         0.00000E+00
    0.15549E+05        -0.59987E+08         0.00000E+00
    0.00000E+00         0.00000E+00        -0.32218E+08
 
   -0.32002E+08         0.18015E+05         0.00000E+00
    0.18015E+05        -0.59982E+08         0.00000E+00
    0.00000E+00         0.00000E+00        -0.32200E+08
 
   -0.32013E+08         0.20512E+05         0.00000E+00
    0.20512E+05        -0.59977E+08         0.00000E+00
    0.00000E+00         0.00000E+00        -0.32182E+08
 
   -0.32024E+08         0.23062E+05         0.00000E+00
    0.23062E+05        -0.59971E+08         0.00000E+00
    0.00000E+00         0.00000E+00        -0.32163E+08
 
   -0.32034E+08         0.25681E+05         0.00000E+00
    0.25681E+05        -0.59965E+08         0.00000E+00
    0.00000E+00         0.00000E+00        -0.32145E+08
 
   -0.32042E+08         0.28356E+05         0.00000E+00
    0.28356E+05        -0.59957E+08         0.00000E+00
    0.00000E+00         0.00000E+00        -0.32126E+08
 
   -0.32050E+08         0.31094E+05         0.00000E+00
    0.31094E+05        -0.59949E+08         0.00000E+00
    0.00000E+00         0.00000E+00        -0.32108E+08
 
   -0.32056E+08         0.33899E+05         0.00000E+00
    0.33899E+05        -0.59940E+08         0.00000E+00
    0.00000E+00         0.00000E+00        -0.32090E+08
 
   -0.32060E+08         0.36772E+05         0.00000E+00
    0.36772E+05        -0.59930E+08         0.00000E+00
    0.00000E+00         0.00000E+00        -0.32071E+08
 
   -0.31906E+08         0.14064E+04         0.00000E+00
    0.14064E+04        -0.60000E+08         0.00000E+00
    0.00000E+00         0.00000E+00        -0.32309E+08
 
   -0.31920E+08         0.43240E+04         0.00000E+00
    0.43240E+04        -0.59999E+08         0.00000E+00
    0.00000E+00         0.00000E+00        -0.32293E+08
 
   -0.31934E+08         0.72990E+04         0.00000E+00
    0.72990E+04        -0.59998E+08         0.00000E+00
    0.00000E+00         0.00000E+00        -0.32277E+08
 
   -0.31948E+08         0.10313E+05         0.00000E+00
    0.10313E+05        -0.59997E+08         0.00000E+00
    0.00000E+00         0.00000E+00        -0.32261E+08
 
   -0.31962E+08         0.13364E+05         0.00000E+00
    0.13364E+05        -0.59994E+08         0.00000E+00
    0.00000E+00         0.00000E+00        -0.32245E+08
 
   -0.31975E+08         0.16445E+05         0.00000E+00
    0.16445E+05        -0.59991E+08         0.00000E+00
    0.00000E+00         0.00000E+00        -0.32228E+08
 
   -0.31987E+08         0.19556E+05         0.00000E+00
    0.19556E+05        -0.59988E+08         0.00000E+00
    0.00000E+00         0.00000E+00        -0.32210E+08
 
   -0.31999E+08         0.22704E+05         0.00000E+00
    0.22704E+05        -0.59984E+08         0.00000E+00
    0.00000E+00         0.00000E+00        -0.32193E+08
 
   -0.32011E+08         0.25903E+05         0.00000E+00
    0.25903E+05        -0.59979E+08         0.00000E+00
    0.00000E+00         0.00000E+00        -0.32175E+08
 
   -0.32021E+08         0.29183E+05         0.00000E+00
    0.29183E+05        -0.59973E+08         0.00000E+00
    0.00000E+00         0.00000E+00        -0.32157E+08
 
   -0.32031E+08         0.32558E+05         0.00000E+00
    0.32558E+05        -0.59967E+08         0.00000E+00
    0.00000E+00         0.00000E+00        -0.32139E+08
 
   -0.32039E+08         0.36006E+05         0.00000E+00
    0.36006E+05        -0.59960E+08         0.00000E+00
    0.00000E+00         0.00000E+00        -0.32121E+08
 
   -0.32046E+08         0.39541E+05         0.00000E+00
    0.39541E+05        -0.59952E+08         0.00000E+00
    0.00000E+00         0.00000E+00        -0.32103E+08
 
   -0.32052E+08         0.43164E+05         0.00000E+00
    0.43164E+05        -0.59943E+08         0.00000E+00
    0.00000E+00         0.00000E+00        -0.32086E+08
 
   -0.32057E+08         0.46871E+05         0.00000E+00
    0.46871E+05        -0.59934E+08         0.00000E+00
    0.00000E+00         0.00000E+00        -0.32068E+08
 
   -0.31902E+08         0.16289E+04         0.00000E+00
    0.16289E+04        -0.60000E+08         0.00000E+00
    0.00000E+00         0.00000E+00        -0.32297E+08
 
   -0.31917E+08         0.50451E+04         0.00000E+00
    0.50451E+04        -0.59999E+08         0.00000E+00
    0.00000E+00         0.00000E+00        -0.32282E+08
 
   -0.31931E+08         0.85561E+04         0.00000E+00
    0.85561E+04        -0.59998E+08         0.00000E+00
    0.00000E+00         0.00000E+00        -0.32266E+08
 
   -0.31945E+08         0.12135E+05         0.00000E+00
    0.12135E+05        -0.59997E+08         0.00000E+00
    0.00000E+00         0.00000E+00        -0.32251E+08
 
   -0.31958E+08         0.15771E+05         0.00000E+00
    0.15771E+05        -0.59995E+08         0.00000E+00
    0.00000E+00         0.00000E+00        -0.32234E+08
 
   -0.31971E+08         0.19469E+05         0.00000E+00
    0.19469E+05        -0.59993E+08         0.00000E+00
    0.00000E+00         0.00000E+00        -0.32218E+08
 
   -0.31984E+08         0.23226E+05         0.00000E+00
    0.23226E+05        -0.59989E+08         0.00000E+00
    0.00000E+00         0.00000E+00        -0.32201E+08
 
   -0.31996E+08         0.27047E+05         0.00000E+00
    0.27047E+05        -0.59986E+08         0.00000E+00
    0.00000E+00         0.00000E+00        -0.32184E+08
 
   -0.32007E+08         0.30952E+05         0.00000E+00
    0.30952E+05        -0.59981E+08         0.00000E+00
    0.00000E+00         0.00000E+00        -0.32167E+08
 
   -0.32017E+08         0.34962E+05         0.00000E+00
    0.34962E+05        -0.59976E+08         0.00000E+00
    0.00000E+00         0.00000E+00        -0.32150E+08
 
   -0.32027E+08         0.39088E+05         0.00000E+00
    0.39088E+05        -0.59970E+08         0.00000E+00
    0.00000E+00         0.00000E+00        -0.32133E+08
 
   -0.32035E+08         0.43328E+05         0.00000E+00
    0.43328E+05        -0.59963E+08         0.00000E+00
    0.00000E+00         0.00000E+00        -0.32115E+08
 
   -0.32042E+08         0.47676E+05         0.00000E+00
    0.47676E+05        -0.59956E+08         0.00000E+00
    0.00000E+00         0.00000E+00        -0.32098E+08
 
   -0.32048E+08         0.52129E+05         0.00000E+00
    0.52129E+05        -0.59947E+08         0.00000E+00
    0.00000E+00         0.00000E+00        -0.32081E+08
 
   -0.32053E+08         0.56681E+05         0.00000E+00
    0.56681E+05        -0.59938E+08         0.00000E+00
    0.00000E+00         0.00000E+00        -0.32063E+08
 
   -0.31899E+08         0.17956E+04         0.00000E+00
    0.17956E+04        -0.60000E+08         0.00000E+00
    0.00000E+00         0.00000E+00        -0.32283E+08
 
   -0.31913E+08         0.56127E+04         0.00000E+00
    0.56127E+04        -0.59999E+08         0.00000E+00
    0.00000E+00         0.00000E+00        -0.32268E+08
 
   -0.31927E+08         0.95778E+04         0.00000E+00
    0.95778E+04        -0.59999E+08         0.00000E+00
    0.00000E+00         0.00000E+00        -0.32253E+08
 
   -0.31941E+08         0.13657E+05         0.00000E+00
    0.13657E+05        -0.59998E+08         0.00000E+00
    0.00000E+00         0.00000E+00        -0.32238E+08
 
   -0.31954E+08         0.17833E+05         0.00000E+00
    0.17833E+05        -0.59996E+08         0.00000E+00
    0.00000E+00         0.00000E+00        -0.32222E+08
 
   -0.31967E+08         0.22101E+05         0.00000E+00
    0.22101E+05        -0.59994E+08         0.00000E+00
    0.00000E+00         0.00000E+00        -0.32206E+08
 
   -0.31980E+08         0.26477E+05         0.00000E+00
    0.26477E+05        -0.59991E+08         0.00000E+00
    0.00000E+00         0.00000E+00        -0.32190E+08
 
   -0.31992E+08         0.30972E+05         0.00000E+00
    0.30972E+05        -0.59988E+08         0.00000E+00
    0.00000E+00         0.00000E+00        -0.32174E+08
 
   -0.32003E+08         0.35578E+05         0.00000E+00
    0.35578E+05        -0.59984E+08         0.00000E+00
    0.00000E+00         0.00000E+00        -0.32158E+08
 
   -0.32013E+08         0.40320E+05         0.00000E+00
    0.40320E+05        -0.59979E+08         0.00000E+00
    0.00000E+00         0.00000E+00        -0.32141E+08
 
   -0.32022E+08         0.45209E+05         0.00000E+00
    0.45209E+05        -0.59974E+08         0.00000E+00
    0.00000E+00         0.00000E+00        -0.32125E+08
 
   -0.32031E+08         0.50261E+05         0.00000E+00
    0.50261E+05        -0.59967E+08         0.00000E+00
    0.00000E+00         0.00000E+00        -0.32108E+08
 
   -0.32038E+08         0.55442E+05         0.00000E+00
    0.55442E+05        -0.59960E+08         0.00000E+00
    0.00000E+00         0.00000E+00        -0.32091E+08
 
   -0.32043E+08         0.60745E+05         0.00000E+00
    0.60745E+05        -0.59952E+08         0.00000E+00
    0.00000E+00         0.00000E+00        -0.32075E+08
 
   -0.32048E+08         0.66161E+05         0.00000E+00
    0.66161E+05        -0.59944E+08         0.00000E+00
    0.00000E+00         0.00000E+00        -0.32058E+08
 
   -0.31895E+08         0.18974E+04         0.00000E+00
    0.18974E+04        -0.60000E+08         0.00000E+00
    0.00000E+00         0.00000E+00        -0.32266E+08
 
   -0.31909E+08         0.59944E+04         0.00000E+00
    0.59944E+04        -0.60000E+08         0.00000E+00
    0.00000E+00         0.00000E+00        -0.32252E+08
 
   -0.31923E+08         0.10310E+05         0.00000E+00
    0.10310E+05        -0.59999E+08         0.00000E+00
    0.00000E+00         0.00000E+00        -0.32237E+08
 
   -0.31936E+08         0.14809E+05         0.00000E+00
    0.14809E+05        -0.59999E+08         0.00000E+00
    0.00000E+00         0.00000E+00        -0.32223E+08
 
   -0.31950E+08         0.19465E+05         0.00000E+00
    0.19465E+05        -0.59997E+08         0.00000E+00
    0.00000E+00         0.00000E+00        -0.32208E+08
 
   -0.31963E+08         0.24269E+05         0.00000E+00
    0.24269E+05        -0.59996E+08         0.00000E+00
    0.00000E+00         0.00000E+00        -0.32193E+08
 
   -0.31975E+08         0.29233E+05         0.00000E+00
    0.29233E+05        -0.59994E+08         0.00000E+00
    0.00000E+00         0.00000E+00        -0.32178E+08
 
   -0.31987E+08         0.34385E+05         0.00000E+00
    0.34385E+05        -0.59991E+08         0.00000E+00
    0.00000E+00         0.00000E+00        -0.32162E+08
 
   -0.31998E+08         0.39713E+05         0.00000E+00
    0.39713E+05        -0.59987E+08         0.00000E+00
    0.00000E+00         0.00000E+00        -0.32147E+08
 
   -0.32008E+08         0.45181E+05         0.00000E+00
    0.45181E+05        -0.59983E+08         0.00000E+00
    0.00000E+00         0.00000E+00        -0.32131E+08
 
   -0.32017E+08         0.50869E+05         0.00000E+00
    0.50869E+05        -0.59978E+08         0.00000E+00
    0.00000E+00         0.00000E+00        -0.32115E+08
 
   -0.32025E+08         0.56751E+05         0.00000E+00
    0.56751E+05        -0.59972E+08         0.00000E+00
    0.00000E+00         0.00000E+00        -0.32100E+08
 
   -0.32032E+08         0.62788E+05         0.00000E+00
    0.62788E+05        -0.59966E+08         0.00000E+00
    0.00000E+00         0.00000E+00        -0.32084E+08
 
   -0.32038E+08         0.68973E+05         0.00000E+00
    0.68973E+05        -0.59958E+08         0.00000E+00
    0.00000E+00         0.00000E+00        -0.32068E+08
 
   -0.32042E+08         0.75279E+05         0.00000E+00
    0.75279E+05        -0.59950E+08         0.00000E+00
    0.00000E+00         0.00000E+00        -0.32052E+08
 
   -0.31891E+08         0.19179E+04         0.00000E+00
    0.19179E+04        -0.60000E+08         0.00000E+00
    0.00000E+00         0.00000E+00        -0.32247E+08
 
   -0.31905E+08         0.61617E+04         0.00000E+00
    0.61617E+04        -0.60000E+08         0.00000E+00
    0.00000E+00         0.00000E+00        -0.32233E+08
 
   -0.31918E+08         0.10700E+05         0.00000E+00
    0.10700E+05        -0.60000E+08         0.00000E+00
    0.00000E+00         0.00000E+00        -0.32219E+08
 
   -0.31932E+08         0.15520E+05         0.00000E+00
    0.15520E+05        -0.59999E+08         0.00000E+00
    0.00000E+00         0.00000E+00        -0.32205E+08
 
   -0.31945E+08         0.20587E+05         0.00000E+00
    0.20587E+05        -0.59999E+08         0.00000E+00
    0.00000E+00         0.00000E+00        -0.32191E+08
 
   -0.31957E+08         0.25886E+05         0.00000E+00
    0.25886E+05        -0.59998E+08         0.00000E+00
    0.00000E+00         0.00000E+00        -0.32177E+08
 
   -0.31970E+08         0.31415E+05         0.00000E+00
    0.31415E+05        -0.59996E+08         0.00000E+00
    0.00000E+00         0.00000E+00        -0.32163E+08
 
   -0.31981E+08         0.37207E+05         0.00000E+00
    0.37207E+05        -0.59994E+08         0.00000E+00
    0.00000E+00         0.00000E+00        -0.32149E+08
 
   -0.31992E+08         0.43246E+05         0.00000E+00
    0.43246E+05        -0.59991E+08         0.00000E+00
    0.00000E+00         0.00000E+00        -0.32134E+08
 
   -0.32002E+08         0.49515E+05         0.00000E+00
    0.49515E+05        -0.59988E+08         0.00000E+00
    0.00000E+00         0.00000E+00        -0.32120E+08
 
   -0.32011E+08         0.56011E+05         0.00000E+00
    0.56011E+05        -0.59983E+08         0.00000E+00
    0.00000E+00         0.00000E+00        -0.32105E+08
 
   -0.32019E+08         0.62738E+05         0.00000E+00
    0.62738E+05        -0.59978E+08         0.00000E+00
    0.00000E+00         0.00000E+00        -0.32090E+08
 
   -0.32025E+08         0.69686E+05         0.00000E+00
    0.69686E+05        -0.59972E+08         0.00000E+00
    0.00000E+00         0.00000E+00        -0.32075E+08
 
   -0.32031E+08         0.76785E+05         0.00000E+00
    0.76785E+05        -0.59965E+08         0.00000E+00
    0.00000E+00         0.00000E+00        -0.32060E+08
 
   -0.32035E+08         0.84014E+05         0.00000E+00
    0.84014E+05        -0.59957E+08         0.00000E+00
    0.00000E+00         0.00000E+00        -0.32045E+08
 
   -0.31887E+08         0.18422E+04         0.00000E+00
    0.18422E+04        -0.60000E+08         0.00000E+00
    0.00000E+00         0.00000E+00        -0.32225E+08
 
   -0.31900E+08         0.60722E+04         0.00000E+00
    0.60722E+04        -0.60000E+08         0.00000E+00
    0.00000E+00         0.00000E+00        -0.32212E+08
 
   -0.31913E+08         0.10704E+05         0.00000E+00
    0.10704E+05        -0.60000E+08         0.00000E+00
    0.00000E+00         0.00000E+00        -0.32198E+08
 
   -0.31927E+08         0.15726E+05         0.00000E+00
    0.15726E+05        -0.60000E+08         0.00000E+00
    0.00000E+00         0.00000E+00        -0.32185E+08
 
   -0.31939E+08         0.21124E+05         0.00000E+00
    0.21124E+05        -0.60000E+08         0.00000E+00
    0.00000E+00         0.00000E+00        -0.32173E+08
 
   -0.31952E+08         0.26870E+05         0.00000E+00
    0.26870E+05        -0.60000E+08         0.00000E+00
    0.00000E+00         0.00000E+00        -0.32160E+08
 
   -0.31964E+08         0.32948E+05         0.00000E+00
    0.32948E+05        -0.59999E+08         0.00000E+00
    0.00000E+00         0.00000E+00        -0.32147E+08
 
   -0.31975E+08         0.39351E+05         0.00000E+00
    0.39351E+05        -0.59998E+08         0.00000E+00
    0.00000E+00         0.00000E+00        -0.32134E+08
 
   -0.31985E+08         0.46118E+05         0.00000E+00
    0.46118E+05        -0.59996E+08         0.00000E+00
    0.00000E+00         0.00000E+00        -0.32121E+08
 
   -0.31995E+08         0.53221E+05         0.00000E+00
    0.53221E+05        -0.59993E+08         0.00000E+00
    0.00000E+00         0.00000E+00        -0.32107E+08
 
   -0.32004E+08         0.60569E+05         0.00000E+00
    0.60569E+05        -0.59989E+08         0.00000E+00
    0.00000E+00         0.00000E+00        -0.32094E+08
 
   -0.32011E+08         0.68215E+05         0.00000E+00
    0.68215E+05        -0.59984E+08         0.00000E+00
    0.00000E+00         0.00000E+00        -0.32080E+08
 
   -0.32018E+08         0.76098E+05         0.00000E+00
    0.76098E+05        -0.59979E+08         0.00000E+00
    0.00000E+00         0.00000E+00        -0.32065E+08
 
   -0.32023E+08         0.84166E+05         0.00000E+00
    0.84166E+05        -0.59972E+08         0.00000E+00
    0.00000E+00         0.00000E+00        -0.32051E+08
 
   -0.32027E+08         0.92365E+05         0.00000E+00
    0.92365E+05        -0.59964E+08         0.00000E+00
    0.00000E+00         0.00000E+00        -0.32036E+08
 
   -0.31883E+08         0.16574E+04         0.00000E+00
    0.16574E+04        -0.60000E+08         0.00000E+00
    0.00000E+00         0.00000E+00        -0.32200E+08
 
   -0.31896E+08         0.56860E+04         0.00000E+00
    0.56860E+04        -0.60000E+08         0.00000E+00
    0.00000E+00         0.00000E+00        -0.32187E+08
 
   -0.31909E+08         0.10266E+05         0.00000E+00
    0.10266E+05        -0.60001E+08         0.00000E+00
    0.00000E+00         0.00000E+00        -0.32175E+08
 
   -0.31921E+08         0.15373E+05         0.00000E+00
    0.15373E+05        -0.60002E+08         0.00000E+00
    0.00000E+00         0.00000E+00        -0.32163E+08
 
   -0.31934E+08         0.21006E+05         0.00000E+00
    0.21006E+05        -0.60002E+08         0.00000E+00
    0.00000E+00         0.00000E+00        -0.32152E+08
 
   -0.31946E+08         0.27138E+05         0.00000E+00
    0.27138E+05        -0.60003E+08         0.00000E+00
    0.00000E+00         0.00000E+00        -0.32140E+08
 
   -0.31957E+08         0.33736E+05         0.00000E+00
    0.33736E+05        -0.60002E+08         0.00000E+00
    0.00000E+00         0.00000E+00        -0.32129E+08
 
   -0.31968E+08         0.40776E+05         0.00000E+00
    0.40776E+05        -0.60002E+08         0.00000E+00
    0.00000E+00         0.00000E+00        -0.32117E+08
 
   -0.31978E+08         0.48269E+05         0.00000E+00
    0.48269E+05        -0.60000E+08         0.00000E+00
    0.00000E+00         0.00000E+00        -0.32105E+08
 
   -0.31987E+08         0.56194E+05         0.00000E+00
    0.56194E+05        -0.59998E+08         0.00000E+00
    0.00000E+00         0.00000E+00        -0.32093E+08
 
   -0.31996E+08         0.64515E+05         0.00000E+00
    0.64515E+05        -0.59995E+08         0.00000E+00
    0.00000E+00         0.00000E+00        -0.32081E+08
 
   -0.32003E+08         0.73117E+05         0.00000E+00
    0.73117E+05        -0.59991E+08         0.00000E+00
    0.00000E+00         0.00000E+00        -0.32068E+08
 
   -0.32009E+08         0.82016E+05         0.00000E+00
    0.82016E+05        -0.59986E+08         0.00000E+00
    0.00000E+00         0.00000E+00        -0.32055E+08
 
   -0.32015E+08         0.91119E+05         0.00000E+00
    0.91119E+05        -0.59980E+08         0.00000E+00
    0.00000E+00         0.00000E+00        -0.32041E+08
 
   -0.32019E+08         0.10034E+06         0.00000E+00
    0.10034E+06        -0.59973E+08         0.00000E+00
    0.00000E+00         0.00000E+00        -0.32027E+08
 
   -0.31879E+08         0.13515E+04         0.00000E+00
    0.13515E+04        -0.60000E+08         0.00000E+00
    0.00000E+00         0.00000E+00        -0.32171E+08
 
   -0.31892E+08         0.49721E+04         0.00000E+00
    0.49721E+04        -0.60000E+08         0.00000E+00
    0.00000E+00         0.00000E+00        -0.32160E+08
 
   -0.31904E+08         0.93304E+04         0.00000E+00
    0.93304E+04        -0.60002E+08         0.00000E+00
    0.00000E+00         0.00000E+00        -0.32149E+08
 
   -0.31916E+08         0.14403E+05         0.00000E+00
    0.14403E+05        -0.60003E+08         0.00000E+00
    0.00000E+00         0.00000E+00        -0.32138E+08
 
   -0.31928E+08         0.20171E+05         0.00000E+00
    0.20171E+05        -0.60004E+08         0.00000E+00
    0.00000E+00         0.00000E+00        -0.32128E+08
 
   -0.31939E+08         0.26622E+05         0.00000E+00
    0.26622E+05        -0.60005E+08         0.00000E+00
    0.00000E+00         0.00000E+00        -0.32118E+08
 
   -0.31950E+08         0.33715E+05         0.00000E+00
    0.33715E+05        -0.60006E+08         0.00000E+00
    0.00000E+00         0.00000E+00        -0.32108E+08
 
   -0.31960E+08         0.41410E+05         0.00000E+00
    0.41410E+05        -0.60006E+08         0.00000E+00
    0.00000E+00         0.00000E+00        -0.32099E+08
 
   -0.31970E+08         0.49648E+05         0.00000E+00
    0.49648E+05        -0.60006E+08         0.00000E+00
    0.00000E+00         0.00000E+00        -0.32088E+08
 
   -0.31979E+08         0.58436E+05         0.00000E+00
    0.58436E+05        -0.60004E+08         0.00000E+00
    0.00000E+00         0.00000E+00        -0.32078E+08
 
   -0.31987E+08         0.67723E+05         0.00000E+00
    0.67723E+05        -0.60002E+08         0.00000E+00
    0.00000E+00         0.00000E+00        -0.32067E+08
 
   -0.31994E+08         0.77421E+05         0.00000E+00
    0.77421E+05        -0.59999E+08         0.00000E+00
    0.00000E+00         0.00000E+00        -0.32055E+08
 
   -0.32000E+08         0.87410E+05         0.00000E+00
    0.87410E+05        -0.59994E+08         0.00000E+00
    0.00000E+00         0.00000E+00        -0.32043E+08
 
   -0.32005E+08         0.97649E+05         0.00000E+00
    0.97649E+05        -0.59988E+08         0.00000E+00
    0.00000E+00         0.00000E+00        -0.32031E+08
 
   -0.32009E+08         0.10797E+06         0.00000E+00
    0.10797E+06        -0.59981E+08         0.00000E+00
    0.00000E+00         0.00000E+00        -0.32017E+08
 
   -0.31877E+08         0.91497E+03         0.00000E+00
    0.91497E+03        -0.60000E+08         0.00000E+00
    0.00000E+00         0.00000E+00        -0.32139E+08
 
   -0.31888E+08         0.39056E+04         0.00000E+00
    0.39056E+04        -0.60001E+08         0.00000E+00
    0.00000E+00         0.00000E+00        -0.32129E+08
 
   -0.31899E+08         0.78602E+04         0.00000E+00
    0.78602E+04        -0.60002E+08         0.00000E+00
    0.00000E+00         0.00000E+00        -0.32120E+08
 
   -0.31910E+08         0.12758E+05         0.00000E+00
    0.12758E+05        -0.60004E+08         0.00000E+00
    0.00000E+00         0.00000E+00        -0.32111E+08
 
   -0.31921E+08         0.18573E+05         0.00000E+00
    0.18573E+05        -0.60006E+08         0.00000E+00
    0.00000E+00         0.00000E+00        -0.32102E+08
 
   -0.31932E+08         0.25279E+05         0.00000E+00
    0.25279E+05        -0.60008E+08         0.00000E+00
    0.00000E+00         0.00000E+00        -0.32094E+08
 
   -0.31942E+08         0.32834E+05         0.00000E+00
    0.32834E+05        -0.60010E+08         0.00000E+00
    0.00000E+00         0.00000E+00        -0.32086E+08
 
   -0.31952E+08         0.41169E+05         0.00000E+00
    0.41169E+05        -0.60011E+08         0.00000E+00
    0.00000E+00         0.00000E+00        -0.32078E+08
 
   -0.31961E+08         0.50227E+05         0.00000E+00
    0.50227E+05        -0.60011E+08         0.00000E+00
    0.00000E+00         0.00000E+00        -0.32070E+08
 
   -0.31969E+08         0.59922E+05         0.00000E+00
    0.59922E+05        -0.60011E+08         0.00000E+00
    0.00000E+00         0.00000E+00        -0.32061E+08
 
   -0.31977E+08         0.70215E+05         0.00000E+00
    0.70215E+05        -0.60009E+08         0.00000E+00
    0.00000E+00         0.00000E+00        -0.32051E+08
 
   -0.31983E+08         0.81035E+05         0.00000E+00
    0.81035E+05        -0.60006E+08         0.00000E+00
    0.00000E+00         0.00000E+00        -0.32041E+08
 
   -0.31989E+08         0.92252E+05         0.00000E+00
    0.92252E+05        -0.60002E+08         0.00000E+00
    0.00000E+00         0.00000E+00        -0.32030E+08
 
   -0.31994E+08         0.10373E+06         0.00000E+00
    0.10373E+06        -0.59997E+08         0.00000E+00
    0.00000E+00         0.00000E+00        -0.32019E+08
 
   -0.31998E+08         0.11536E+06         0.00000E+00
    0.11536E+06        -0.59991E+08         0.00000E+00
    0.00000E+00         0.00000E+00        -0.32006E+08
 
   -0.31874E+08         0.34259E+03         0.00000E+00
    0.34259E+03        -0.60000E+08         0.00000E+00
    0.00000E+00         0.00000E+00        -0.32104E+08
 
   -0.31885E+08         0.24703E+04         0.00000E+00
    0.24703E+04        -0.60001E+08         0.00000E+00
    0.00000E+00         0.00000E+00        -0.32095E+08
 
   -0.31895E+08         0.58311E+04         0.00000E+00
    0.58311E+04        -0.60003E+08         0.00000E+00
    0.00000E+00         0.00000E+00        -0.32087E+08
 
   -0.31905E+08         0.10407E+05         0.00000E+00
    0.10407E+05        -0.60006E+08         0.00000E+00
    0.00000E+00         0.00000E+00        -0.32080E+08
 
   -0.31915E+08         0.16170E+05         0.00000E+00
    0.16170E+05        -0.60008E+08         0.00000E+00
    0.00000E+00         0.00000E+00        -0.32074E+08
 
   -0.31925E+08         0.23072E+05         0.00000E+00
    0.23072E+05        -0.60011E+08         0.00000E+00
    0.00000E+00         0.00000E+00        -0.32068E+08
 
   -0.31934E+08         0.31057E+05         0.00000E+00
    0.31057E+05        -0.60014E+08         0.00000E+00
    0.00000E+00         0.00000E+00        -0.32062E+08
 
   -0.31943E+08         0.40040E+05         0.00000E+00
    0.40040E+05        -0.60016E+08         0.00000E+00
    0.00000E+00         0.00000E+00        -0.32056E+08
 
   -0.31951E+08         0.49927E+05         0.00000E+00
    0.49927E+05        -0.60017E+08         0.00000E+00
    0.00000E+00         0.00000E+00        -0.32050E+08
 
   -0.31959E+08         0.60621E+05         0.00000E+00
    0.60621E+05        -0.60017E+08         0.00000E+00
    0.00000E+00         0.00000E+00        -0.32042E+08
 
   -0.31966E+08         0.72014E+05         0.00000E+00
    0.72014E+05        -0.60016E+08         0.00000E+00
    0.00000E+00         0.00000E+00        -0.32035E+08
 
   -0.31972E+08         0.84009E+05         0.00000E+00
    0.84009E+05        -0.60014E+08         0.00000E+00
    0.00000E+00         0.00000E+00        -0.32026E+08
 
   -0.31977E+08         0.96503E+05         0.00000E+00
    0.96503E+05        -0.60011E+08         0.00000E+00
    0.00000E+00         0.00000E+00        -0.32016E+08
 
   -0.31982E+08         0.10933E+06         0.00000E+00
    0.10933E+06        -0.60006E+08         0.00000E+00
    0.00000E+00         0.00000E+00        -0.32005E+08
 
   -0.31986E+08         0.12228E+06         0.00000E+00
    0.12228E+06        -0.60000E+08         0.00000E+00
    0.00000E+00         0.00000E+00        -0.31994E+08
 
   -0.31874E+08        -0.36520E+03         0.00000E+00
   -0.36520E+03        -0.60000E+08         0.00000E+00
    0.00000E+00         0.00000E+00        -0.32064E+08
 
   -0.31882E+08         0.66408E+03         0.00000E+00
    0.66408E+03        -0.60001E+08         0.00000E+00
    0.00000E+00         0.00000E+00        -0.32057E+08
 
   -0.31891E+08         0.32396E+04         0.00000E+00
    0.32396E+04        -0.60004E+08         0.00000E+00
    0.00000E+00         0.00000E+00        -0.32052E+08
 
   -0.31900E+08         0.73476E+04         0.00000E+00
    0.73476E+04        -0.60007E+08         0.00000E+00
    0.00000E+00         0.00000E+00        -0.32047E+08
 
   -0.31909E+08         0.12949E+05         0.00000E+00
    0.12949E+05        -0.60011E+08         0.00000E+00
    0.00000E+00         0.00000E+00        -0.32043E+08
 
   -0.31917E+08         0.19981E+05         0.00000E+00
    0.19981E+05        -0.60014E+08         0.00000E+00
    0.00000E+00         0.00000E+00        -0.32039E+08
 
   -0.31925E+08         0.28365E+05         0.00000E+00
    0.28365E+05        -0.60018E+08         0.00000E+00
    0.00000E+00         0.00000E+00        -0.32036E+08
 
   -0.31933E+08         0.38000E+05         0.00000E+00
    0.38000E+05        -0.60021E+08         0.00000E+00
    0.00000E+00         0.00000E+00        -0.32032E+08
 
   -0.31940E+08         0.48758E+05         0.00000E+00
    0.48758E+05        -0.60023E+08         0.00000E+00
    0.00000E+00         0.00000E+00        -0.32027E+08
 
   -0.31947E+08         0.60497E+05         0.00000E+00
    0.60497E+05        -0.60024E+08         0.00000E+00
    0.00000E+00         0.00000E+00        -0.32022E+08
 
   -0.31953E+08         0.73084E+05         0.00000E+00
    0.73084E+05        -0.60024E+08         0.00000E+00
    0.00000E+00         0.00000E+00        -0.32016E+08
 
   -0.31959E+08         0.86370E+05         0.00000E+00
    0.86370E+05        -0.60022E+08         0.00000E+00
    0.00000E+00         0.00000E+00        -0.32009E+08
 
   -0.31964E+08         0.10020E+06         0.00000E+00
    0.10020E+06        -0.60020E+08         0.00000E+00
    0.00000E+00         0.00000E+00        -0.32001E+08
 
   -0.31968E+08         0.11436E+06         0.00000E+00
    0.11436E+06        -0.60016E+08         0.00000E+00
    0.00000E+00         0.00000E+00        -0.31991E+08
 
   -0.31972E+08         0.12867E+06         0.00000E+00
    0.12867E+06        -0.60010E+08         0.00000E+00
    0.00000E+00         0.00000E+00        -0.31980E+08
 
   -0.31874E+08        -0.12000E+04         0.00000E+00
   -0.12000E+04        -0.60000E+08         0.00000E+00
    0.00000E+00         0.00000E+00        -0.32021E+08
 
   -0.31881E+08        -0.14952E+04         0.00000E+00
   -0.14952E+04        -0.60002E+08         0.00000E+00
    0.00000E+00         0.00000E+00        -0.32016E+08
 
   -0.31888E+08         0.10970E+03         0.00000E+00
    0.10970E+03        -0.60005E+08         0.00000E+00
    0.00000E+00         0.00000E+00        -0.32012E+08
 
   -0.31896E+08         0.36004E+04         0.00000E+00
    0.36004E+04        -0.60008E+08         0.00000E+00
    0.00000E+00         0.00000E+00        -0.32010E+08
 
   -0.31903E+08         0.89275E+04         0.00000E+00
    0.89275E+04        -0.60013E+08         0.00000E+00
    0.00000E+00         0.00000E+00        -0.32009E+08
 
   -0.31909E+08         0.16017E+05         0.00000E+00
    0.16017E+05        -0.60017E+08         0.00000E+00
    0.00000E+00         0.00000E+00        -0.32008E+08
 
   -0.31916E+08         0.24764E+05         0.00000E+00
    0.24764E+05        -0.60021E+08         0.00000E+00
    0.00000E+00         0.00000E+00        -0.32007E+08
 
   -0.31923E+08         0.35041E+05         0.00000E+00
    0.35041E+05        -0.60025E+08         0.00000E+00
    0.00000E+00         0.00000E+00        -0.32005E+08
 
   -0.31929E+08         0.46693E+05         0.00000E+00
    0.46693E+05        -0.60028E+08         0.00000E+00
    0.00000E+00         0.00000E+00        -0.32003E+08
 
   -0.31934E+08         0.59544E+05         0.00000E+00
    0.59544E+05        -0.60030E+08         0.00000E+00
    0.00000E+00         0.00000E+00        -0.32000E+08
 
   -0.31940E+08         0.73398E+05         0.00000E+00
    0.73398E+05        -0.60031E+08         0.00000E+00
    0.00000E+00         0.00000E+00        -0.31996E+08
 
   -0.31945E+08         0.88051E+05         0.00000E+00
    0.88051E+05        -0.60030E+08         0.00000E+00
    0.00000E+00         0.00000E+00        -0.31991E+08
 
   -0.31949E+08         0.10329E+06         0.00000E+00
    0.10329E+06        -0.60028E+08         0.00000E+00
    0.00000E+00         0.00000E+00        -0.31983E+08
 
   -0.31953E+08         0.11893E+06         0.00000E+00
    0.11893E+06        -0.60025E+08         0.00000E+00
    0.00000E+00         0.00000E+00        -0.31975E+08
 
   -0.31957E+08         0.13475E+06         0.00000E+00
    0.13475E+06        -0.60020E+08         0.00000E+00
    0.00000E+00         0.00000E+00        -0.31964E+08
 
   -0.31876E+08        -0.21442E+04         0.00000E+00
   -0.21442E+04        -0.60000E+08         0.00000E+00
    0.00000E+00         0.00000E+00        -0.31973E+08
 
   -0.31881E+08        -0.39645E+04         0.00000E+00
   -0.39645E+04        -0.60002E+08         0.00000E+00
    0.00000E+00         0.00000E+00        -0.31970E+08
 
   -0.31886E+08        -0.34987E+04         0.00000E+00
   -0.34987E+04        -0.60005E+08         0.00000E+00
    0.00000E+00         0.00000E+00        -0.31969E+08
 
   -0.31891E+08        -0.77915E+03         0.00000E+00
   -0.77915E+03        -0.60009E+08         0.00000E+00
    0.00000E+00         0.00000E+00        -0.31970E+08
 
   -0.31896E+08         0.41514E+04         0.00000E+00
    0.41514E+04        -0.60014E+08         0.00000E+00
    0.00000E+00         0.00000E+00        -0.31971E+08
 
   -0.31901E+08         0.11212E+05         0.00000E+00
    0.11212E+05        -0.60020E+08         0.00000E+00
    0.00000E+00         0.00000E+00        -0.31973E+08
 
   -0.31906E+08         0.20279E+05         0.00000E+00
    0.20279E+05        -0.60025E+08         0.00000E+00
    0.00000E+00         0.00000E+00        -0.31975E+08
 
   -0.31911E+08         0.31187E+05         0.00000E+00
    0.31187E+05        -0.60029E+08         0.00000E+00
    0.00000E+00         0.00000E+00        -0.31977E+08
 
   -0.31916E+08         0.43746E+05         0.00000E+00
    0.43746E+05        -0.60033E+08         0.00000E+00
    0.00000E+00         0.00000E+00        -0.31977E+08
 
   -0.31920E+08         0.57735E+05         0.00000E+00
    0.57735E+05        -0.60036E+08         0.00000E+00
    0.00000E+00         0.00000E+00        -0.31976E+08
 
   -0.31925E+08         0.72911E+05         0.00000E+00
    0.72911E+05        -0.60038E+08         0.00000E+00
    0.00000E+00         0.00000E+00        -0.31974E+08
 
   -0.31929E+08         0.89017E+05         0.00000E+00
    0.89017E+05        -0.60038E+08         0.00000E+00
    0.00000E+00         0.00000E+00        -0.31970E+08
 
   -0.31933E+08         0.10581E+06         0.00000E+00
    0.10581E+06        -0.60036E+08         0.00000E+00
    0.00000E+00         0.00000E+00        -0.31965E+08
 
   -0.31937E+08         0.12306E+06         0.00000E+00
    0.12306E+06        -0.60033E+08         0.00000E+00
    0.00000E+00         0.00000E+00        -0.31957E+08
 
   -0.31940E+08         0.14055E+06         0.00000E+00
    0.14055E+06        -0.60029E+08         0.00000E+00
    0.00000E+00         0.00000E+00        -0.31948E+08
 
   -0.31880E+08        -0.31771E+04         0.00000E+00
   -0.31771E+04        -0.60000E+08         0.00000E+00
    0.00000E+00         0.00000E+00        -0.31920E+08
 
   -0.31883E+08        -0.66600E+04         0.00000E+00
   -0.66600E+04        -0.60002E+08         0.00000E+00
    0.00000E+00         0.00000E+00        -0.31921E+08
 
   -0.31885E+08        -0.74940E+04         0.00000E+00
   -0.74940E+04        -0.60005E+08         0.00000E+00
    0.00000E+00         0.00000E+00        -0.31923E+08
 
   -0.31888E+08        -0.56949E+04         0.00000E+00
   -0.56949E+04        -0.60010E+08         0.00000E+00
    0.00000E+00         0.00000E+00        -0.31926E+08
 
   -0.31891E+08        -0.12883E+04         0.00000E+00
   -0.12883E+04        -0.60016E+08         0.00000E+00
    0.00000E+00         0.00000E+00        -0.31931E+08
 
   -0.31893E+08         0.56412E+04         0.00000E+00
    0.56412E+04        -0.60022E+08         0.00000E+00
    0.00000E+00         0.00000E+00        -0.31936E+08
 
   -0.31896E+08         0.14955E+05         0.00000E+00
    0.14955E+05        -0.60027E+08         0.00000E+00
    0.00000E+00         0.00000E+00        -0.31940E+08
 
   -0.31899E+08         0.26464E+05         0.00000E+00
    0.26464E+05        -0.60033E+08         0.00000E+00
    0.00000E+00         0.00000E+00        -0.31945E+08
 
   -0.31902E+08         0.39932E+05         0.00000E+00
    0.39932E+05        -0.60038E+08         0.00000E+00
    0.00000E+00         0.00000E+00        -0.31948E+08
 
   -0.31905E+08         0.55087E+05         0.00000E+00
    0.55087E+05        -0.60041E+08         0.00000E+00
    0.00000E+00         0.00000E+00        -0.31950E+08
 
   -0.31908E+08         0.71635E+05         0.00000E+00
    0.71635E+05        -0.60044E+08         0.00000E+00
    0.00000E+00         0.00000E+00        -0.31950E+08
 
   -0.31912E+08         0.89280E+05         0.00000E+00
    0.89280E+05        -0.60045E+08         0.00000E+00
    0.00000E+00         0.00000E+00        -0.31948E+08
 
   -0.31915E+08         0.10773E+06         0.00000E+00
    0.10773E+06        -0.60044E+08         0.00000E+00
    0.00000E+00         0.00000E+00        -0.31944E+08
 
   -0.31919E+08         0.12673E+06         0.00000E+00
    0.12673E+06        -0.60041E+08         0.00000E+00
    0.00000E+00         0.00000E+00        -0.31938E+08
 
   -0.31922E+08         0.14602E+06         0.00000E+00
    0.14602E+06        -0.60037E+08         0.00000E+00
    0.00000E+00         0.00000E+00        -0.31929E+08
 
   -0.31886E+08        -0.42470E+04         0.00000E+00
   -0.42470E+04        -0.60000E+08         0.00000E+00
    0.00000E+00         0.00000E+00        -0.31864E+08
 
   -0.31885E+08        -0.94983E+04         0.00000E+00
   -0.94983E+04        -0.60002E+08         0.00000E+00
    0.00000E+00         0.00000E+00        -0.31867E+08
 
   -0.31885E+08        -0.11745E+05         0.00000E+00
   -0.11745E+05        -0.60006E+08         0.00000E+00
    0.00000E+00         0.00000E+00        -0.31872E+08
 
   -0.31885E+08        -0.10987E+05         0.00000E+00
   -0.10987E+05        -0.60011E+08         0.00000E+00
    0.00000E+00         0.00000E+00        -0.31878E+08
 
   -0.31885E+08        -0.72413E+04         0.00000E+00
   -0.72413E+04        -0.60016E+08         0.00000E+00
    0.00000E+00         0.00000E+00        -0.31886E+08
 
   -0.31885E+08        -0.57240E+03         0.00000E+00
   -0.57240E+03        -0.60023E+08         0.00000E+00
    0.00000E+00         0.00000E+00        -0.31894E+08
 
   -0.31886E+08         0.88872E+04         0.00000E+00
    0.88872E+04        -0.60029E+08         0.00000E+00
    0.00000E+00         0.00000E+00        -0.31902E+08
 
   -0.31886E+08         0.20928E+05         0.00000E+00
    0.20928E+05        -0.60035E+08         0.00000E+00
    0.00000E+00         0.00000E+00        -0.31910E+08
 
   -0.31887E+08         0.35278E+05         0.00000E+00
    0.35278E+05        -0.60041E+08         0.00000E+00
    0.00000E+00         0.00000E+00        -0.31916E+08
 
   -0.31889E+08         0.51612E+05         0.00000E+00
    0.51612E+05        -0.60045E+08         0.00000E+00
    0.00000E+00         0.00000E+00        -0.31921E+08
 
   -0.31891E+08         0.69581E+05         0.00000E+00
    0.69581E+05        -0.60049E+08         0.00000E+00
    0.00000E+00         0.00000E+00        -0.31923E+08
 
   -0.31893E+08         0.88834E+05         0.00000E+00
    0.88834E+05        -0.60050E+08         0.00000E+00
    0.00000E+00         0.00000E+00        -0.31923E+08
 
   -0.31895E+08         0.10903E+06         0.00000E+00
    0.10903E+06        -0.60050E+08         0.00000E+00
    0.00000E+00         0.00000E+00        -0.31921E+08
 
   -0.31898E+08         0.12987E+06         0.00000E+00
    0.12987E+06        -0.60048E+08         0.00000E+00
    0.00000E+00         0.00000E+00        -0.31916E+08
 
   -0.31902E+08         0.15109E+06         0.00000E+00
    0.15109E+06        -0.60045E+08         0.00000E+00
    0.00000E+00         0.00000E+00        -0.31908E+08
 
   -0.31894E+08        -0.52359E+04         0.00000E+00
   -0.52359E+04        -0.60000E+08         0.00000E+00
    0.00000E+00         0.00000E+00        -0.31802E+08
 
   -0.31890E+08        -0.12378E+05         0.00000E+00
   -0.12378E+05        -0.60002E+08         0.00000E+00
    0.00000E+00         0.00000E+00        -0.31808E+08
 
   -0.31887E+08        -0.16094E+05         0.00000E+00
   -0.16094E+05        -0.60006E+08         0.00000E+00
    0.00000E+00         0.00000E+00        -0.31816E+08
 
   -0.31883E+08        -0.16455E+05         0.00000E+00
   -0.16455E+05        -0.60010E+08         0.00000E+00
    0.00000E+00         0.00000E+00        -0.31826E+08
 
   -0.31880E+08        -0.13500E+05         0.00000E+00
   -0.13500E+05        -0.60016E+08         0.00000E+00
    0.00000E+00         0.00000E+00        -0.31837E+08
 
   -0.31877E+08        -0.72375E+04         0.00000E+00
   -0.72375E+04        -0.60023E+08         0.00000E+00
    0.00000E+00         0.00000E+00        -0.31848E+08
 
   -0.31875E+08         0.22268E+04         0.00000E+00
    0.22268E+04        -0.60030E+08         0.00000E+00
    0.00000E+00         0.00000E+00        -0.31860E+08
 
   -0.31873E+08         0.14690E+05         0.00000E+00
    0.14690E+05        -0.60037E+08         0.00000E+00
    0.00000E+00         0.00000E+00        -0.31871E+08
 
   -0.31872E+08         0.29853E+05         0.00000E+00
    0.29853E+05        -0.60043E+08         0.00000E+00
    0.00000E+00         0.00000E+00        -0.31880E+08
 
   -0.31871E+08         0.47340E+05         0.00000E+00
    0.47340E+05        -0.60048E+08         0.00000E+00
    0.00000E+00         0.00000E+00        -0.31888E+08
 
   -0.31871E+08         0.66739E+05         0.00000E+00
    0.66739E+05        -0.60052E+08         0.00000E+00
    0.00000E+00         0.00000E+00        -0.31893E+08
 
   -0.31872E+08         0.87631E+05         0.00000E+00
    0.87631E+05        -0.60054E+08         0.00000E+00
    0.00000E+00         0.00000E+00        -0.31895E+08
 
   -0.31874E+08         0.10962E+06         0.00000E+00
    0.10962E+06        -0.60055E+08         0.00000E+00
    0.00000E+00         0.00000E+00        -0.31895E+08
 
   -0.31876E+08         0.13238E+06         0.00000E+00
    0.13238E+06        -0.60054E+08         0.00000E+00
    0.00000E+00         0.00000E+00        -0.31892E+08
 
   -0.31879E+08         0.15561E+06         0.00000E+00
    0.15561E+06        -0.60051E+08         0.00000E+00
    0.00000E+00         0.00000E+00        -0.31885E+08
 
   -0.31903E+08        -0.61824E+04         0.00000E+00
   -0.61824E+04        -0.60000E+08         0.00000E+00
    0.00000E+00         0.00000E+00        -0.31737E+08
 
   -0.31896E+08        -0.15010E+05         0.00000E+00
   -0.15010E+05        -0.60002E+08         0.00000E+00
    0.00000E+00         0.00000E+00        -0.31746E+08
 
   -0.31889E+08        -0.20284E+05         0.00000E+00
   -0.20284E+05        -0.60005E+08         0.00000E+00
    0.00000E+00         0.00000E+00        -0.31757E+08
 
   -0.31883E+08        -0.21891E+05         0.00000E+00
   -0.21891E+05        -0.60010E+08         0.00000E+00
    0.00000E+00         0.00000E+00        -0.31770E+08
 
   -0.31876E+08        -0.19804E+05         0.00000E+00
   -0.19804E+05        -0.60015E+08         0.00000E+00
    0.00000E+00         0.00000E+00        -0.31784E+08
 
   -0.31870E+08        -0.14087E+05         0.00000E+00
   -0.14087E+05        -0.60022E+08         0.00000E+00
    0.00000E+00         0.00000E+00        -0.31798E+08
 
   -0.31864E+08        -0.47831E+04         0.00000E+00
   -0.47831E+04        -0.60029E+08         0.00000E+00
    0.00000E+00         0.00000E+00        -0.31813E+08
 
   -0.31859E+08         0.79397E+04         0.00000E+00
    0.79397E+04        -0.60036E+08         0.00000E+00
    0.00000E+00         0.00000E+00        -0.31828E+08
 
   -0.31855E+08         0.23777E+05         0.00000E+00
    0.23777E+05        -0.60042E+08         0.00000E+00
    0.00000E+00         0.00000E+00        -0.31840E+08
 
   -0.31852E+08         0.42315E+05         0.00000E+00
    0.42315E+05        -0.60048E+08         0.00000E+00
    0.00000E+00         0.00000E+00        -0.31851E+08
 
   -0.31850E+08         0.63076E+05         0.00000E+00
    0.63076E+05        -0.60053E+08         0.00000E+00
    0.00000E+00         0.00000E+00        -0.31859E+08
 
   -0.31850E+08         0.85574E+05         0.00000E+00
    0.85574E+05        -0.60057E+08         0.00000E+00
    0.00000E+00         0.00000E+00        -0.31864E+08
 
   -0.31851E+08         0.10936E+06         0.00000E+00
    0.10936E+06        -0.60058E+08         0.00000E+00
    0.00000E+00         0.00000E+00        -0.31866E+08
 
   -0.31852E+08         0.13405E+06         0.00000E+00
    0.13405E+06        -0.60058E+08         0.00000E+00
    0.00000E+00         0.00000E+00        -0.31864E+08
 
   -0.31855E+08         0.15935E+06         0.00000E+00
    0.15935E+06        -0.60056E+08         0.00000E+00
    0.00000E+00         0.00000E+00        -0.31860E+08
 
   -0.31915E+08        -0.70239E+04         0.00000E+00
   -0.70239E+04        -0.60000E+08         0.00000E+00
    0.00000E+00         0.00000E+00        -0.31667E+08
 
   -0.31904E+08        -0.17370E+05         0.00000E+00
   -0.17370E+05        -0.60002E+08         0.00000E+00
    0.00000E+00         0.00000E+00        -0.31679E+08
 
   -0.31894E+08        -0.24071E+05         0.00000E+00
   -0.24071E+05        -0.60004E+08         0.00000E+00
    0.00000E+00         0.00000E+00        -0.31693E+08
 
   -0.31883E+08        -0.26910E+05         0.00000E+00
   -0.26910E+05        -0.60008E+08         0.00000E+00
    0.00000E+00         0.00000E+00        -0.31709E+08
 
   -0.31872E+08        -0.25799E+05         0.00000E+00
   -0.25799E+05        -0.60014E+08         0.00000E+00
    0.00000E+00         0.00000E+00        -0.31726E+08
 
   -0.31862E+08        -0.20735E+05         0.00000E+00
   -0.20735E+05        -0.60020E+08         0.00000E+00
    0.00000E+00         0.00000E+00        -0.31744E+08
 
   -0.31853E+08        -0.11761E+05         0.00000E+00
   -0.11761E+05        -0.60026E+08         0.00000E+00
    0.00000E+00         0.00000E+00        -0.31762E+08
 
   -0.31844E+08         0.98844E+03         0.00000E+00
    0.98844E+03        -0.60033E+08         0.00000E+00
    0.00000E+00         0.00000E+00        -0.31779E+08
 
   -0.31837E+08         0.17245E+05         0.00000E+00
    0.17245E+05        -0.60040E+08         0.00000E+00
    0.00000E+00         0.00000E+00        -0.31795E+08
 
   -0.31832E+08         0.36596E+05         0.00000E+00
    0.36596E+05        -0.60046E+08         0.00000E+00
    0.00000E+00         0.00000E+00        -0.31809E+08
 
   -0.31828E+08         0.58527E+05         0.00000E+00
    0.58527E+05        -0.60052E+08         0.00000E+00
    0.00000E+00         0.00000E+00        -0.31820E+08
 
   -0.31826E+08         0.82496E+05         0.00000E+00
    0.82496E+05        -0.60056E+08         0.00000E+00
    0.00000E+00         0.00000E+00        -0.31828E+08
 
   -0.31826E+08         0.10800E+06         0.00000E+00
    0.10800E+06        -0.60059E+08         0.00000E+00
    0.00000E+00         0.00000E+00        -0.31833E+08
 
   -0.31826E+08         0.13460E+06         0.00000E+00
    0.13460E+06        -0.60060E+08         0.00000E+00
    0.00000E+00         0.00000E+00        -0.31834E+08
 
   -0.31828E+08         0.16198E+06         0.00000E+00
    0.16198E+06        -0.60060E+08         0.00000E+00
    0.00000E+00         0.00000E+00        -0.31832E+08
 
   -0.31928E+08        -0.77375E+04         0.00000E+00
   -0.77375E+04        -0.60000E+08         0.00000E+00
    0.00000E+00         0.00000E+00        -0.31593E+08
 
   -0.31913E+08        -0.19434E+05         0.00000E+00
   -0.19434E+05        -0.60001E+08         0.00000E+00
    0.00000E+00         0.00000E+00        -0.31609E+08
 
   -0.31899E+08        -0.27272E+05         0.00000E+00
   -0.27272E+05        -0.60004E+08         0.00000E+00
    0.00000E+00         0.00000E+00        -0.31626E+08
 
   -0.31884E+08        -0.31178E+05         0.00000E+00
   -0.31178E+05        -0.60007E+08         0.00000E+00
    0.00000E+00         0.00000E+00        -0.31644E+08
 
   -0.31870E+08        -0.30997E+05         0.00000E+00
   -0.30997E+05        -0.60011E+08         0.00000E+00
    0.00000E+00         0.00000E+00        -0.31664E+08
 
   -0.31856E+08        -0.26628E+05         0.00000E+00
   -0.26628E+05        -0.60016E+08         0.00000E+00
    0.00000E+00         0.00000E+00        -0.31684E+08
 
   -0.31842E+08        -0.18158E+05         0.00000E+00
   -0.18158E+05        -0.60021E+08         0.00000E+00
    0.00000E+00         0.00000E+00        -0.31705E+08
 
   -0.31830E+08        -0.56967E+04         0.00000E+00
   -0.56967E+04        -0.60027E+08         0.00000E+00
    0.00000E+00         0.00000E+00        -0.31725E+08
 
   -0.31819E+08         0.10556E+05         0.00000E+00
    0.10556E+05        -0.60034E+08         0.00000E+00
    0.00000E+00         0.00000E+00        -0.31744E+08
 
   -0.31811E+08         0.30270E+05         0.00000E+00
    0.30270E+05        -0.60041E+08         0.00000E+00
    0.00000E+00         0.00000E+00        -0.31761E+08
 
   -0.31805E+08         0.52983E+05         0.00000E+00
    0.52983E+05        -0.60047E+08         0.00000E+00
    0.00000E+00         0.00000E+00        -0.31775E+08
 
   -0.31801E+08         0.78139E+05         0.00000E+00
    0.78139E+05        -0.60053E+08         0.00000E+00
    0.00000E+00         0.00000E+00        -0.31787E+08
 
   -0.31799E+08         0.10517E+06         0.00000E+00
    0.10517E+06        -0.60057E+08         0.00000E+00
    0.00000E+00         0.00000E+00        -0.31795E+08
 
   -0.31798E+08         0.13360E+06         0.00000E+00
    0.13360E+06        -0.60060E+08         0.00000E+00
    0.00000E+00         0.00000E+00        -0.31800E+08
 
   -0.31800E+08         0.16305E+06         0.00000E+00
    0.16305E+06        -0.60061E+08         0.00000E+00
    0.00000E+00         0.00000E+00        -0.31801E+08
 
   -0.31942E+08        -0.83311E+04         0.00000E+00
   -0.83311E+04        -0.60000E+08         0.00000E+00
    0.00000E+00         0.00000E+00        -0.31517E+08
 
   -0.31924E+08        -0.21057E+05         0.00000E+00
   -0.21057E+05        -0.60001E+08         0.00000E+00
    0.00000E+00         0.00000E+00        -0.31535E+08
 
   -0.31905E+08        -0.29795E+05         0.00000E+00
   -0.29795E+05        -0.60003E+08         0.00000E+00
    0.00000E+00         0.00000E+00        -0.31555E+08
 
   -0.31887E+08        -0.34422E+05         0.00000E+00
   -0.34422E+05        -0.60005E+08         0.00000E+00
    0.00000E+00         0.00000E+00        -0.31576E+08
 
   -0.31868E+08        -0.34871E+05         0.00000E+00
   -0.34871E+05        -0.60008E+08         0.00000E+00
    0.00000E+00         0.00000E+00        -0.31598E+08
 
   -0.31849E+08        -0.31126E+05         0.00000E+00
   -0.31126E+05        -0.60011E+08         0.00000E+00
    0.00000E+00         0.00000E+00        -0.31620E+08
 
   -0.31832E+08        -0.23275E+05         0.00000E+00
   -0.23275E+05        -0.60015E+08         0.00000E+00
    0.00000E+00         0.00000E+00        -0.31642E+08
 
   -0.31816E+08        -0.11479E+05         0.00000E+00
   -0.11479E+05        -0.60019E+08         0.00000E+00
    0.00000E+00         0.00000E+00        -0.31664E+08
 
   -0.31801E+08         0.41516E+04         0.00000E+00
    0.41516E+04        -0.60025E+08         0.00000E+00
    0.00000E+00         0.00000E+00        -0.31685E+08
 
   -0.31789E+08         0.23499E+05         0.00000E+00
    0.23499E+05        -0.60031E+08         0.00000E+00
    0.00000E+00         0.00000E+00        -0.31705E+08
 
   -0.31780E+08         0.46315E+05         0.00000E+00
    0.46315E+05        -0.60038E+08         0.00000E+00
    0.00000E+00         0.00000E+00        -0.31724E+08
 
   -0.31774E+08         0.72147E+05         0.00000E+00
    0.72147E+05        -0.60046E+08         0.00000E+00
    0.00000E+00         0.00000E+00        -0.31740E+08
 
   -0.31770E+08         0.10040E+06         0.00000E+00
    0.10040E+06        -0.60052E+08         0.00000E+00
    0.00000E+00         0.00000E+00        -0.31753E+08
 
   -0.31769E+08         0.13048E+06         0.00000E+00
    0.13048E+06        -0.60058E+08         0.00000E+00
    0.00000E+00         0.00000E+00        -0.31762E+08
 
   -0.31769E+08         0.16193E+06         0.00000E+00
    0.16193E+06        -0.60061E+08         0.00000E+00
    0.00000E+00         0.00000E+00        -0.31767E+08
 
   -0.31957E+08        -0.87819E+04         0.00000E+00
   -0.87819E+04        -0.60000E+08         0.00000E+00
    0.00000E+00         0.00000E+00        -0.31436E+08
 
   -0.31935E+08        -0.22222E+05         0.00000E+00
   -0.22222E+05        -0.60001E+08         0.00000E+00
    0.00000E+00         0.00000E+00        -0.31458E+08
 
   -0.31912E+08        -0.31434E+05         0.00000E+00
   -0.31434E+05        -0.60002E+08         0.00000E+00
    0.00000E+00         0.00000E+00        -0.31481E+08
 
   -0.31889E+08        -0.36327E+05         0.00000E+00
   -0.36327E+05        -0.60003E+08         0.00000E+00
    0.00000E+00         0.00000E+00        -0.31504E+08
 
   -0.31866E+08        -0.36944E+05         0.00000E+00
   -0.36944E+05        -0.60004E+08         0.00000E+00
    0.00000E+00         0.00000E+00        -0.31528E+08
 
   -0.31844E+08        -0.33537E+05         0.00000E+00
   -0.33537E+05        -0.60005E+08         0.00000E+00
    0.00000E+00         0.00000E+00        -0.31551E+08
 
   -0.31822E+08        -0.26351E+05         0.00000E+00
   -0.26351E+05        -0.60006E+08         0.00000E+00
    0.00000E+00         0.00000E+00        -0.31573E+08
 
   -0.31802E+08        -0.15633E+05         0.00000E+00
   -0.15633E+05        -0.60008E+08         0.00000E+00
    0.00000E+00         0.00000E+00        -0.31596E+08
 
   -0.31784E+08        -0.13809E+04         0.00000E+00
   -0.13809E+04        -0.60012E+08         0.00000E+00
    0.00000E+00         0.00000E+00        -0.31619E+08
 
   -0.31769E+08         0.16597E+05         0.00000E+00
    0.16597E+05        -0.60018E+08         0.00000E+00
    0.00000E+00         0.00000E+00        -0.31642E+08
 
   -0.31756E+08         0.38466E+05         0.00000E+00
    0.38466E+05        -0.60025E+08         0.00000E+00
    0.00000E+00         0.00000E+00        -0.31664E+08
 
   -0.31747E+08         0.64113E+05         0.00000E+00
    0.64113E+05        -0.60034E+08         0.00000E+00
    0.00000E+00         0.00000E+00        -0.31685E+08
 
   -0.31740E+08         0.93032E+05         0.00000E+00
    0.93032E+05        -0.60044E+08         0.00000E+00
    0.00000E+00         0.00000E+00        -0.31704E+08
 
   -0.31737E+08         0.12449E+06         0.00000E+00
    0.12449E+06        -0.60052E+08         0.00000E+00
    0.00000E+00         0.00000E+00        -0.31719E+08
 
   -0.31736E+08         0.15783E+06         0.00000E+00
    0.15783E+06        -0.60059E+08         0.00000E+00
    0.00000E+00         0.00000E+00        -0.31731E+08
 
   -0.31973E+08        -0.91356E+04         0.00000E+00
   -0.91356E+04        -0.60000E+08         0.00000E+00
    0.00000E+00         0.00000E+00        -0.31354E+08
 
   -0.31946E+08        -0.22884E+05         0.00000E+00
   -0.22884E+05        -0.60001E+08         0.00000E+00
    0.00000E+00         0.00000E+00        -0.31379E+08
 
   -0.31919E+08        -0.31984E+05         0.00000E+00
   -0.31984E+05        -0.60001E+08         0.00000E+00
    0.00000E+00         0.00000E+00        -0.31405E+08
 
   -0.31892E+08        -0.36445E+05         0.00000E+00
   -0.36445E+05        -0.60000E+08         0.00000E+00
    0.00000E+00         0.00000E+00        -0.31430E+08
 
   -0.31865E+08        -0.36636E+05         0.00000E+00
   -0.36636E+05        -0.59999E+08         0.00000E+00
    0.00000E+00         0.00000E+00        -0.31454E+08
 
   -0.31839E+08        -0.33225E+05         0.00000E+00
   -0.33225E+05        -0.59997E+08         0.00000E+00
    0.00000E+00         0.00000E+00        -0.31476E+08
 
   -0.31814E+08        -0.26790E+05         0.00000E+00
   -0.26790E+05        -0.59995E+08         0.00000E+00
    0.00000E+00         0.00000E+00        -0.31498E+08
 
   -0.31791E+08        -0.17533E+05         0.00000E+00
   -0.17533E+05        -0.59995E+08         0.00000E+00
    0.00000E+00         0.00000E+00        -0.31521E+08
 
   -0.31769E+08        -0.53725E+04         0.00000E+00
   -0.53725E+04        -0.59996E+08         0.00000E+00
    0.00000E+00         0.00000E+00        -0.31544E+08
 
   -0.31750E+08         0.10139E+05         0.00000E+00
    0.10139E+05        -0.60000E+08         0.00000E+00
    0.00000E+00         0.00000E+00        -0.31569E+08
 
   -0.31733E+08         0.29651E+05         0.00000E+00
    0.29651E+05        -0.60008E+08         0.00000E+00
    0.00000E+00         0.00000E+00        -0.31595E+08
 
   -0.31719E+08         0.53727E+05         0.00000E+00
    0.53727E+05        -0.60018E+08         0.00000E+00
    0.00000E+00         0.00000E+00        -0.31622E+08
 
   -0.31710E+08         0.82326E+05         0.00000E+00
    0.82326E+05        -0.60031E+08         0.00000E+00
    0.00000E+00         0.00000E+00        -0.31648E+08
 
   -0.31704E+08         0.11466E+06         0.00000E+00
    0.11466E+06        -0.60043E+08         0.00000E+00
    0.00000E+00         0.00000E+00        -0.31671E+08
 
   -0.31701E+08         0.14969E+06         0.00000E+00
    0.14969E+06        -0.60055E+08         0.00000E+00
    0.00000E+00         0.00000E+00        -0.31691E+08
 
   -0.31989E+08        -0.94447E+04         0.00000E+00
   -0.94447E+04        -0.60000E+08         0.00000E+00
    0.00000E+00         0.00000E+00        -0.31268E+08
 
   -0.31958E+08        -0.22970E+05         0.00000E+00
   -0.22970E+05        -0.60000E+08         0.00000E+00
    0.00000E+00         0.00000E+00        -0.31298E+08
 
   -0.31926E+08        -0.31053E+05         0.00000E+00
   -0.31053E+05        -0.59999E+08         0.00000E+00
    0.00000E+00         0.00000E+00        -0.31326E+08
 
   -0.31894E+08        -0.34128E+05         0.00000E+00
   -0.34128E+05        -0.59996E+08         0.00000E+00
    0.00000E+00         0.00000E+00        -0.31352E+08
 
   -0.31863E+08        -0.33296E+05         0.00000E+00
   -0.33296E+05        -0.59991E+08         0.00000E+00
    0.00000E+00         0.00000E+00        -0.31375E+08
 
   -0.31834E+08        -0.29839E+05         0.00000E+00
   -0.29839E+05        -0.59986E+08         0.00000E+00
    0.00000E+00         0.00000E+00        -0.31397E+08
 
   -0.31807E+08        -0.24331E+05         0.00000E+00
   -0.24331E+05        -0.59982E+08         0.00000E+00
    0.00000E+00         0.00000E+00        -0.31417E+08
 
   -0.31781E+08        -0.16866E+05         0.00000E+00
   -0.16866E+05        -0.59979E+08         0.00000E+00
    0.00000E+00         0.00000E+00        -0.31438E+08
 
   -0.31757E+08        -0.72842E+04         0.00000E+00
   -0.72842E+04        -0.59978E+08         0.00000E+00
    0.00000E+00         0.00000E+00        -0.31461E+08
 
   -0.31734E+08         0.49133E+04         0.00000E+00
    0.49133E+04        -0.59980E+08         0.00000E+00
    0.00000E+00         0.00000E+00        -0.31486E+08
 
   -0.31713E+08         0.20641E+05         0.00000E+00
    0.20641E+05        -0.59987E+08         0.00000E+00
    0.00000E+00         0.00000E+00        -0.31515E+08
 
   -0.31694E+08         0.41139E+05         0.00000E+00
    0.41139E+05        -0.59997E+08         0.00000E+00
    0.00000E+00         0.00000E+00        -0.31548E+08
 
   -0.31680E+08         0.67541E+05         0.00000E+00
    0.67541E+05        -0.60013E+08         0.00000E+00
    0.00000E+00         0.00000E+00        -0.31582E+08
 
   -0.31670E+08         0.99679E+05         0.00000E+00
    0.99679E+05        -0.60031E+08         0.00000E+00
    0.00000E+00         0.00000E+00        -0.31616E+08
 
   -0.31664E+08         0.13605E+06         0.00000E+00
    0.13605E+06        -0.60049E+08         0.00000E+00
    0.00000E+00         0.00000E+00        -0.31647E+08
 
   -0.32005E+08        -0.97473E+04         0.00000E+00
   -0.97473E+04        -0.60000E+08         0.00000E+00
    0.00000E+00         0.00000E+00        -0.31181E+08
 
   -0.31968E+08        -0.22132E+05         0.00000E+00
   -0.22132E+05        -0.60000E+08         0.00000E+00
    0.00000E+00         0.00000E+00        -0.31215E+08
 
   -0.31930E+08        -0.27725E+05         0.00000E+00
   -0.27725E+05        -0.59996E+08         0.00000E+00
    0.00000E+00         0.00000E+00        -0.31246E+08
 
   -0.31894E+08        -0.28418E+05         0.00000E+00
   -0.28418E+05        -0.59989E+08         0.00000E+00
    0.00000E+00         0.00000E+00        -0.31271E+08
 
   -0.31861E+08        -0.26665E+05         0.00000E+00
   -0.26665E+05        -0.59981E+08         0.00000E+00
    0.00000E+00         0.00000E+00        -0.31291E+08
 
   -0.31830E+08        -0.23469E+05         0.00000E+00
   -0.23469E+05        -0.59973E+08         0.00000E+00
    0.00000E+00         0.00000E+00        -0.31311E+08
 
   -0.31801E+08        -0.19200E+05         0.00000E+00
   -0.19200E+05        -0.59966E+08         0.00000E+00
    0.00000E+00         0.00000E+00        -0.31329E+08
 
   -0.31774E+08        -0.13787E+05         0.00000E+00
   -0.13787E+05        -0.59961E+08         0.00000E+00
    0.00000E+00         0.00000E+00        -0.31349E+08
 
   -0.31747E+08        -0.69868E+04         0.00000E+00
   -0.69868E+04        -0.59958E+08         0.00000E+00
    0.00000E+00         0.00000E+00        -0.31371E+08
 
   -0.31722E+08         0.15733E+04         0.00000E+00
    0.15733E+04        -0.59959E+08         0.00000E+00
    0.00000E+00         0.00000E+00        -0.31396E+08
 
   -0.31697E+08         0.12658E+05         0.00000E+00
    0.12658E+05        -0.59963E+08         0.00000E+00
    0.00000E+00         0.00000E+00        -0.31426E+08
 
   -0.31673E+08         0.27613E+05         0.00000E+00
    0.27613E+05        -0.59973E+08         0.00000E+00
    0.00000E+00         0.00000E+00        -0.31462E+08
 
   -0.31652E+08         0.48563E+05         0.00000E+00
    0.48563E+05        -0.59989E+08         0.00000E+00
    0.00000E+00         0.00000E+00        -0.31505E+08
 
   -0.31635E+08         0.77901E+05         0.00000E+00
    0.77901E+05        -0.60013E+08         0.00000E+00
    0.00000E+00         0.00000E+00        -0.31552E+08
 
   -0.31625E+08         0.11476E+06         0.00000E+00
    0.11476E+06        -0.60040E+08         0.00000E+00
    0.00000E+00         0.00000E+00        -0.31599E+08
 
   -0.32021E+08        -0.10082E+05         0.00000E+00
   -0.10082E+05        -0.60000E+08         0.00000E+00
    0.00000E+00         0.00000E+00        -0.31092E+08
 
   -0.31975E+08        -0.19020E+05         0.00000E+00
   -0.19020E+05        -0.59998E+08         0.00000E+00
    0.00000E+00         0.00000E+00        -0.31131E+08
 
   -0.31932E+08        -0.19966E+05         0.00000E+00
   -0.19966E+05        -0.59989E+08         0.00000E+00
    0.00000E+00         0.00000E+00        -0.31160E+08
 
   -0.31893E+08        -0.18884E+05         0.00000E+00
   -0.18884E+05        -0.59978E+08         0.00000E+00
    0.00000E+00         0.00000E+00        -0.31182E+08
 
   -0.31858E+08        -0.17139E+05         0.00000E+00
   -0.17139E+05        -0.59967E+08         0.00000E+00
    0.00000E+00         0.00000E+00        -0.31200E+08
 
   -0.31827E+08        -0.14880E+05         0.00000E+00
   -0.14880E+05        -0.59957E+08         0.00000E+00
    0.00000E+00         0.00000E+00        -0.31217E+08
 
   -0.31797E+08        -0.12112E+05         0.00000E+00
   -0.12112E+05        -0.59948E+08         0.00000E+00
    0.00000E+00         0.00000E+00        -0.31235E+08
 
   -0.31769E+08        -0.88462E+04         0.00000E+00
   -0.88462E+04        -0.59942E+08         0.00000E+00
    0.00000E+00         0.00000E+00        -0.31253E+08
 
   -0.31741E+08        -0.48692E+04         0.00000E+00
   -0.48692E+04        -0.59938E+08         0.00000E+00
    0.00000E+00         0.00000E+00        -0.31274E+08
 
   -0.31714E+08         0.12984E+03         0.00000E+00
    0.12984E+03        -0.59937E+08         0.00000E+00
    0.00000E+00         0.00000E+00        -0.31299E+08
 
   -0.31687E+08         0.65572E+04         0.00000E+00
    0.65572E+04        -0.59939E+08         0.00000E+00
    0.00000E+00         0.00000E+00        -0.31329E+08
 
   -0.31659E+08         0.15216E+05         0.00000E+00
    0.15216E+05        -0.59947E+08         0.00000E+00
    0.00000E+00         0.00000E+00        -0.31367E+08
 
   -0.31630E+08         0.27784E+05         0.00000E+00
    0.27784E+05        -0.59962E+08         0.00000E+00
    0.00000E+00         0.00000E+00        -0.31414E+08
 
   -0.31603E+08         0.47956E+05         0.00000E+00
    0.47956E+05        -0.59987E+08         0.00000E+00
    0.00000E+00         0.00000E+00        -0.31474E+08
 
   -0.31585E+08         0.81917E+05         0.00000E+00
    0.81917E+05        -0.60027E+08         0.00000E+00
    0.00000E+00         0.00000E+00        -0.31544E+08
 
   -0.32035E+08        -0.98287E+04         0.00000E+00
   -0.98287E+04        -0.60002E+08         0.00000E+00
    0.00000E+00         0.00000E+00        -0.31005E+08
 
   -0.31976E+08        -0.85960E+04         0.00000E+00
   -0.85960E+04        -0.59987E+08         0.00000E+00
    0.00000E+00         0.00000E+00        -0.31040E+08
 
   -0.31931E+08        -0.73299E+04         0.00000E+00
   -0.73299E+04        -0.59973E+08         0.00000E+00
    0.00000E+00         0.00000E+00        -0.31064E+08
 
   -0.31892E+08        -0.65888E+04         0.00000E+00
   -0.65888E+04        -0.59960E+08         0.00000E+00
    0.00000E+00         0.00000E+00        -0.31084E+08
 
   -0.31857E+08        -0.58823E+04         0.00000E+00
   -0.58823E+04        -0.59948E+08         0.00000E+00
    0.00000E+00         0.00000E+00        -0.31101E+08
 
   -0.31825E+08        -0.50738E+04         0.00000E+00
   -0.50738E+04        -0.59937E+08         0.00000E+00
    0.00000E+00         0.00000E+00        -0.31117E+08
 
   -0.31795E+08        -0.41055E+04         0.00000E+00
   -0.41055E+04        -0.59928E+08         0.00000E+00
    0.00000E+00         0.00000E+00        -0.31134E+08
 
   -0.31766E+08        -0.30072E+04         0.00000E+00
   -0.30072E+04        -0.59921E+08         0.00000E+00
    0.00000E+00         0.00000E+00        -0.31152E+08
 
   -0.31738E+08        -0.17065E+04         0.00000E+00
   -0.17065E+04        -0.59917E+08         0.00000E+00
    0.00000E+00         0.00000E+00        -0.31172E+08
 
   -0.31710E+08        -0.82814E+02         0.00000E+00
   -0.82814E+02        -0.59915E+08         0.00000E+00
    0.00000E+00         0.00000E+00        -0.31197E+08
 
   -0.31682E+08         0.20058E+04         0.00000E+00
    0.20058E+04        -0.59917E+08         0.00000E+00
    0.00000E+00         0.00000E+00        -0.31227E+08
 
   -0.31652E+08         0.47793E+04         0.00000E+00
    0.47793E+04        -0.59924E+08         0.00000E+00
    0.00000E+00         0.00000E+00        -0.31265E+08
 
   -0.31619E+08         0.87434E+04         0.00000E+00
    0.87434E+04        -0.59938E+08         0.00000E+00
    0.00000E+00         0.00000E+00        -0.31314E+08
 
   -0.31584E+08         0.15416E+05         0.00000E+00
    0.15416E+05        -0.59961E+08         0.00000E+00
    0.00000E+00         0.00000E+00        -0.31380E+08
 
   -0.31544E+08         0.31003E+05         0.00000E+00
    0.31003E+05        -0.60000E+08         0.00000E+00
    0.00000E+00         0.00000E+00        -0.31471E+08
 
SCALARS stressS double 
LOOKUP_TABLE default
  -41414438.5728836     
  -41413790.9351141     
  -41412632.0365913     
  -41410954.7309079     
  -41408753.3158696     
  -41406022.2918387     
  -41402756.3009791     
  -41398944.5059419     
  -41394578.6357570     
  -41389643.4462282     
  -41384119.2367021     
  -41377984.4276027     
  -41371217.1812325     
  -41363791.9356767     
  -41355681.3273601     
  -41413457.9966337     
  -41412822.8363560     
  -41411689.9332173     
  -41410047.9837672     
  -41407889.4961978     
  -41405208.0174836     
  -41401996.5301923     
  -41398244.0735670     
  -41393938.7305384     
  -41389068.5167443     
  -41383605.3948785     
  -41377531.3304061     
  -41370823.0269897     
  -41363456.1836411     
  -41355403.1017047     
  -41411497.5179931     
  -41410894.4938725     
  -41409809.2406642     
  -41408236.8728687     
  -41406165.8511890     
  -41403584.5176500     
  -41400482.1990499     
  -41396846.4669509     
  -41392663.0497554     
  -41387917.9849155     
  -41382579.2617282     
  -41376626.8462541     
  -41370037.4091164     
  -41362786.4336264     
  -41354846.5839754     
  -41408547.8523886     
  -41407992.0246869     
  -41406992.6545687     
  -41405528.7072794     
  -41403589.4281795     
  -41401158.8754069     
  -41398222.4887057     
  -41394765.0517959     
  -41390763.3657193     
  -41386201.4958915     
  -41381048.1543622     
  -41375277.9659320     
  -41368865.6186268     
  -41361785.0344941     
  -41354010.6877831     
  -41404623.5966478     
  -41404128.3408118     
  -41403235.5556895     
  -41401924.4611322     
  -41400168.7801598     
  -41397950.2482398     
  -41395240.8460975     
  -41392021.1948010     
  -41388261.9915960     
  -41383937.8241896     
  -41379026.5156513     
  -41373494.8839378     
  -41367313.1396362     
  -41360453.6565682     
  -41352892.3270534     
  -41399723.6888286     
  -41399307.0890440     
  -41398556.5322774     
  -41397436.7732864     
  -41395916.2880751     
  -41393960.3050907     
  -41391540.7266067     
  -41388623.9692878     
  -41385168.1751661     
  -41381140.4876648     
  -41376528.8263421     
  -41371288.1748831     
  -41365383.3256043     
  -41358790.5301519     
  -41351485.2433844     
  -41393861.5493364     
  -41393528.5614940     
  -41392955.0069026     
  -41392075.6044045     
  -41390844.1355963     
  -41389216.5960863     
  -41387144.0963681     
  -41384588.4522784     
  -41381497.7636785     
  -41377828.2119023     
  -41373572.3254175     
  -41368662.2471003     
  -41363081.8834307     
  -41356794.7195785     
  -41349779.0398840     
  -41387047.3396657     
  -41386801.9433391     
  -41386435.5308297     
  -41385845.1428067     
  -41384960.5193295     
  -41383721.5985637     
  -41382066.2015232     
  -41379936.0603541     
  -41377277.7692270     
  -41374040.5206072     
  -41370159.7916454     
  -41365632.7668766     
  -41360409.7426057     
  -41354457.4176488     
  -41347757.3570084     
  -41379265.0990691     
  -41379162.4409300     
  -41379003.0547649     
  -41378751.7940086     
  -41378273.1879505     
  -41377483.9150224     
  -41376314.2751338     
  -41374673.5604878     
  -41372518.6956844     
  -41369748.0465752     
  -41366314.0808119     
  -41362202.8843911     
  -41357354.4325527     
  -41351763.8135348     
  -41345393.3080621     
  -41370520.7650366     
  -41370586.4057060     
  -41370697.1156208     
  -41370795.3295982     
  -41370779.8036277     
  -41370504.1493585     
  -41369864.7189476     
  -41368771.1041413     
  -41367155.1776753     
  -41364931.5041114     
  -41362029.3333119     
  -41358357.5835987     
  -41353918.4945548     
  -41348682.6963408     
  -41342650.0876514     
  -41360817.0296653     
  -41361070.7030944     
  -41361507.6617277     
  -41361998.0513241     
  -41362473.6409031     
  -41362765.4576204     
  -41362726.2395498     
  -41362255.4792611     
  -41361218.8848042     
  -41359571.2407268     
  -41357201.0870991     
  -41354065.3522561     
  -41350072.0009031     
  -41345188.7247630     
  -41339470.1633777     
  -41350163.3050112     
  -41350620.9305381     
  -41351408.0376328     
  -41352368.7242042     
  -41353350.0680318     
  -41354247.1210638     
  -41354857.7606303     
  -41355023.0144310     
  -41354639.8094016     
  -41353586.2862948     
  -41351789.6911939     
  -41349171.0903112     
  -41345687.5678550     
  -41341247.5535760     
  -41335796.5907276     
  -41338566.8876967     
  -41339239.3077609     
  -41340398.2221942     
  -41341853.5857096     
  -41343417.3887859     
  -41344913.5934271     
  -41346194.5920837     
  -41347053.7717072     
  -41347337.3982159     
  -41346930.8033159     
  -41345729.6163055     
  -41343628.6337100     
  -41340589.5127174     
  -41336602.7900083     
  -41331532.9285716     
  -41326036.6444414     
  -41326928.1797792     
  -41328466.8111610     
  -41330429.4815440     
  -41332592.8565106     
  -41334744.0354664     
  -41336684.6472493     
  -41338245.6920999     
  -41339217.4341852     
  -41339457.7700485     
  -41338857.8965184     
  -41337340.4794426     
  -41334793.9081612     
  -41331172.4770961     
  -41326512.5500976     
  -41312584.2405108     
  -41313686.0787732     
  -41315596.2505184     
  -41318057.6442984     
  -41320816.6977352     
  -41323628.6094711     
  -41326261.8019929     
  -41328506.6124360     
  -41330169.8227044     
  -41331069.5569665     
  -41331062.1646648     
  -41330055.4375861     
  -41328005.8646430     
  -41324858.1712888     
  -41320635.9746578     
  -41298217.5399807     
  -41299511.5578424     
  -41301760.8774118     
  -41304687.4651262     
  -41308013.5686433     
  -41311466.4082641     
  -41314784.1410901     
  -41317722.0946017     
  -41320068.6804756     
  -41321629.7934761     
  -41322247.4795675     
  -41321818.1004293     
  -41320260.9503958     
  -41317564.3579182     
  -41313681.6996822     
  -41282959.8903345     
  -41284397.3074156     
  -41286931.5297864     
  -41290259.5316977     
  -41294092.4409699     
  -41298135.3379626     
  -41302100.1423042     
  -41305717.6450293     
  -41308744.0282479     
  -41310969.7204761     
  -41312226.5835653     
  -41312386.9564215     
  -41311351.4758640     
  -41309083.4042047     
  -41305521.0948149     
  -41266792.4374699     
  -41268354.9165155     
  -41271083.4354321     
  -41274710.3388776     
  -41278944.9739104     
  -41283485.4956410     
  -41288029.1937472     
  -41292280.6929969     
  -41295967.6217529     
  -41298854.0808010     
  -41300747.2609190     
  -41301494.9935518     
  -41300980.4532672     
  -41299159.7630133     
  -41295960.7415200     
  -41249904.5033655     
  -41251389.7357117     
  -41254184.6723228     
  -41257965.2650370     
  -41262447.3824136     
  -41267347.5826004     
  -41272354.1988873     
  -41277153.8597653     
  -41281446.1471871     
  -41284963.4174595     
  -41287482.9901423     
  -41288830.6523375     
  -41288877.8710200     
  -41287551.7565059     
  -41284792.4758299     
  -41231951.1490034     
  -41233471.1922221     
  -41236186.2760853     
  -41239935.1019923     
  -41244484.5866747     
  -41249549.7814828     
  -41254848.1043997     
  -41260057.3890916     
  -41264857.1842860     
  -41268951.2749073     
  -41272088.2522633     
  -41274070.4009302     
  -41274750.5084467     
  -41274023.5148687     
  -41271828.7439727     
  -41213259.2070504     
  -41214543.3720540     
  -41217043.9079813     
  -41220617.8743695     
  -41224982.8810881     
  -41229970.8650573     
  -41235298.8012618     
  -41240687.4335296     
  -41245827.8020719     
  -41250413.1781747     
  -41254164.9929579     
  -41256851.3322656     
  -41258289.9015003     
  -41258337.9654811     
  -41256906.6431140     
  -41193790.5458876     
  -41194884.9033372     
  -41197014.5383210     
  -41200084.5119209     
  -41204009.6323582     
  -41208542.4339893     
  -41213523.6457544     
  -41218743.0798073     
  -41223963.6325800     
  -41228908.7240797     
  -41233279.4359587     
  -41236787.7668769     
  -41239184.8253689     
  -41240267.3258620     
  -41239888.1545027     
  -41173714.9194859     
  -41174431.7418689     
  -41176106.7755622     
  -41178504.1208382     
  -41181610.2714866     
  -41185257.2826437     
  -41189399.2257850     
  -41193968.3411393     
  -41198891.0375177     
  -41203992.7010077     
  -41208978.1841819     
  -41213475.9601406     
  -41217118.3200490     
  -41219595.5660130     
  -41220665.8471118     
  -41152769.5759931     
  -41153243.6997973     
  -41154304.3801007     
  -41155892.8573644     
  -41157820.3365415     
  -41160133.0212478     
  -41162859.6885217     
  -41166207.3446722     
  -41170342.9899496     
  -41175289.5793769     
  -41180824.0904215     
  -41186497.5444568     
  -41191757.4470394     
  -41196102.7064120     
  -41199154.7541544     
  -41131097.3845246     
  -41131259.5048799     
  -41131718.5549929     
  -41132171.4646300     
  -41132616.6303524     
  -41133083.6594020     
  -41133871.3889791     
  -41135465.5703550     
  -41138287.3605870     
  -41142627.3049929     
  -41148483.1729639     
  -41155430.0804944     
  -41162716.3604667     
  -41169535.7170520     
  -41175269.4198944     
  -41108765.4839908     
  -41108601.2640520     
  -41108251.5620397     
  -41107293.6393442     
  -41105731.6581152     
  -41103888.8608852     
  -41102420.4822250     
  -41101933.8884342     
  -41103038.9494615     
  -41106241.5501681     
  -41111869.9063602     
  -41119877.2238389     
  -41129512.8473585     
  -41139560.1526454     
  -41148907.0197302     
  -41085743.1350510     
  -41085245.5045323     
  -41083723.0923449     
  -41080747.1161377     
  -41076612.8346711     
  -41072306.0519073     
  -41068521.4464658     
  -41065946.0576518     
  -41065192.7652743     
  -41066828.0200077     
  -41071503.0988950     
  -41079744.9721193     
  -41091584.1145493     
  -41105629.1439741     
  -41119910.1536623     
  -41062104.8748207     
  -41060958.3910510     
  -41057388.4774280     
  -41051294.9189952     
  -41044436.0552534     
  -41037864.2382269     
  -41032182.4607602     
  -41027887.9869183     
  -41025458.3950885     
  -41025509.1496762     
  -41028715.3507210     
  -41036006.4037509     
  -41048505.6729418     
  -41066850.6063935     
  -41087865.2519853     
  -41037737.4145348     
  -41035002.5318470     
  -41026806.5302661     
  -41017570.2508807     
  -41008546.0063051     
  -41000344.6829714     
  -40993373.6575646     
  -40987994.6397687     
  -40984511.9538540     
  -40983349.1980604     
  -40985152.7499667     
  -40990944.9540443     
  -41002243.1359729     
  -41021410.3445989     
  -41051985.2664380     
  -41013765.2681319     
  -41001208.7648265     
  -40989428.5650018     
  -40978476.1706679     
  -40968544.5586110     
  -40959777.4312580     
  -40952339.6320490     
  -40946469.6923709     
  -40942537.7787778     
  -40940900.2181146     
  -40942134.7907394     
  -40947071.9684873     
  -40957090.3554835     
  -40974700.6931558     
  -41004907.0852039     
SCALARS 2waySource double 
LOOKUP_TABLE default
  0.000000000000000E+000
  0.000000000000000E+000
  0.000000000000000E+000
  0.000000000000000E+000
  0.000000000000000E+000
  0.000000000000000E+000
  0.000000000000000E+000
  0.000000000000000E+000
  0.000000000000000E+000
  0.000000000000000E+000
  0.000000000000000E+000
  0.000000000000000E+000
  0.000000000000000E+000
  0.000000000000000E+000
  0.000000000000000E+000
  0.000000000000000E+000
  0.000000000000000E+000
  0.000000000000000E+000
  0.000000000000000E+000
  0.000000000000000E+000
  0.000000000000000E+000
  0.000000000000000E+000
  0.000000000000000E+000
  0.000000000000000E+000
  0.000000000000000E+000
  0.000000000000000E+000
  0.000000000000000E+000
  0.000000000000000E+000
  0.000000000000000E+000
  0.000000000000000E+000
  0.000000000000000E+000
  0.000000000000000E+000
  0.000000000000000E+000
  0.000000000000000E+000
  0.000000000000000E+000
  0.000000000000000E+000
  0.000000000000000E+000
  0.000000000000000E+000
  0.000000000000000E+000
  0.000000000000000E+000
  0.000000000000000E+000
  0.000000000000000E+000
  0.000000000000000E+000
  0.000000000000000E+000
  0.000000000000000E+000
  0.000000000000000E+000
  0.000000000000000E+000
  0.000000000000000E+000
  0.000000000000000E+000
  0.000000000000000E+000
  0.000000000000000E+000
  0.000000000000000E+000
  0.000000000000000E+000
  0.000000000000000E+000
  0.000000000000000E+000
  0.000000000000000E+000
  0.000000000000000E+000
  0.000000000000000E+000
  0.000000000000000E+000
  0.000000000000000E+000
  0.000000000000000E+000
  0.000000000000000E+000
  0.000000000000000E+000
  0.000000000000000E+000
  0.000000000000000E+000
  0.000000000000000E+000
  0.000000000000000E+000
  0.000000000000000E+000
  0.000000000000000E+000
  0.000000000000000E+000
  0.000000000000000E+000
  0.000000000000000E+000
  0.000000000000000E+000
  0.000000000000000E+000
  0.000000000000000E+000
  0.000000000000000E+000
  0.000000000000000E+000
  0.000000000000000E+000
  0.000000000000000E+000
  0.000000000000000E+000
  0.000000000000000E+000
  0.000000000000000E+000
  0.000000000000000E+000
  0.000000000000000E+000
  0.000000000000000E+000
  0.000000000000000E+000
  0.000000000000000E+000
  0.000000000000000E+000
  0.000000000000000E+000
  0.000000000000000E+000
  0.000000000000000E+000
  0.000000000000000E+000
  0.000000000000000E+000
  0.000000000000000E+000
  0.000000000000000E+000
  0.000000000000000E+000
  0.000000000000000E+000
  0.000000000000000E+000
  0.000000000000000E+000
  0.000000000000000E+000
  0.000000000000000E+000
  0.000000000000000E+000
  0.000000000000000E+000
  0.000000000000000E+000
  0.000000000000000E+000
  0.000000000000000E+000
  0.000000000000000E+000
  0.000000000000000E+000
  0.000000000000000E+000
  0.000000000000000E+000
  0.000000000000000E+000
  0.000000000000000E+000
  0.000000000000000E+000
  0.000000000000000E+000
  0.000000000000000E+000
  0.000000000000000E+000
  0.000000000000000E+000
  0.000000000000000E+000
  0.000000000000000E+000
  0.000000000000000E+000
  0.000000000000000E+000
  0.000000000000000E+000
  0.000000000000000E+000
  0.000000000000000E+000
  0.000000000000000E+000
  0.000000000000000E+000
  0.000000000000000E+000
  0.000000000000000E+000
  0.000000000000000E+000
  0.000000000000000E+000
  0.000000000000000E+000
  0.000000000000000E+000
  0.000000000000000E+000
  0.000000000000000E+000
  0.000000000000000E+000
  0.000000000000000E+000
  0.000000000000000E+000
  0.000000000000000E+000
  0.000000000000000E+000
  0.000000000000000E+000
  0.000000000000000E+000
  0.000000000000000E+000
  0.000000000000000E+000
  0.000000000000000E+000
  0.000000000000000E+000
  0.000000000000000E+000
  0.000000000000000E+000
  0.000000000000000E+000
  0.000000000000000E+000
  0.000000000000000E+000
  0.000000000000000E+000
  0.000000000000000E+000
  0.000000000000000E+000
  0.000000000000000E+000
  0.000000000000000E+000
  0.000000000000000E+000
  0.000000000000000E+000
  0.000000000000000E+000
  0.000000000000000E+000
  0.000000000000000E+000
  0.000000000000000E+000
  0.000000000000000E+000
  0.000000000000000E+000
  0.000000000000000E+000
  0.000000000000000E+000
  0.000000000000000E+000
  0.000000000000000E+000
  0.000000000000000E+000
  0.000000000000000E+000
  0.000000000000000E+000
  0.000000000000000E+000
  0.000000000000000E+000
  0.000000000000000E+000
  0.000000000000000E+000
  0.000000000000000E+000
  0.000000000000000E+000
  0.000000000000000E+000
  0.000000000000000E+000
  0.000000000000000E+000
  0.000000000000000E+000
  0.000000000000000E+000
  0.000000000000000E+000
  0.000000000000000E+000
  0.000000000000000E+000
  0.000000000000000E+000
  0.000000000000000E+000
  0.000000000000000E+000
  0.000000000000000E+000
  0.000000000000000E+000
  0.000000000000000E+000
  0.000000000000000E+000
  0.000000000000000E+000
  0.000000000000000E+000
  0.000000000000000E+000
  0.000000000000000E+000
  0.000000000000000E+000
  0.000000000000000E+000
  0.000000000000000E+000
  0.000000000000000E+000
  0.000000000000000E+000
  0.000000000000000E+000
  0.000000000000000E+000
  0.000000000000000E+000
  0.000000000000000E+000
  0.000000000000000E+000
  0.000000000000000E+000
  0.000000000000000E+000
  0.000000000000000E+000
  0.000000000000000E+000
  0.000000000000000E+000
  0.000000000000000E+000
  0.000000000000000E+000
  0.000000000000000E+000
  0.000000000000000E+000
  0.000000000000000E+000
  0.000000000000000E+000
  0.000000000000000E+000
  0.000000000000000E+000
  0.000000000000000E+000
  0.000000000000000E+000
  0.000000000000000E+000
  0.000000000000000E+000
  0.000000000000000E+000
  0.000000000000000E+000
  0.000000000000000E+000
  0.000000000000000E+000
  0.000000000000000E+000
  0.000000000000000E+000
  0.000000000000000E+000
  0.000000000000000E+000
  0.000000000000000E+000
  0.000000000000000E+000
  0.000000000000000E+000
  0.000000000000000E+000
  0.000000000000000E+000
  0.000000000000000E+000
  0.000000000000000E+000
  0.000000000000000E+000
  0.000000000000000E+000
  0.000000000000000E+000
  0.000000000000000E+000
  0.000000000000000E+000
  0.000000000000000E+000
  0.000000000000000E+000
  0.000000000000000E+000
  0.000000000000000E+000
  0.000000000000000E+000
  0.000000000000000E+000
  0.000000000000000E+000
  0.000000000000000E+000
  0.000000000000000E+000
  0.000000000000000E+000
  0.000000000000000E+000
  0.000000000000000E+000
  0.000000000000000E+000
  0.000000000000000E+000
  0.000000000000000E+000
  0.000000000000000E+000
  0.000000000000000E+000
  0.000000000000000E+000
  0.000000000000000E+000
  0.000000000000000E+000
  0.000000000000000E+000
  0.000000000000000E+000
  0.000000000000000E+000
  0.000000000000000E+000
  0.000000000000000E+000
  0.000000000000000E+000
  0.000000000000000E+000
  0.000000000000000E+000
  0.000000000000000E+000
  0.000000000000000E+000
  0.000000000000000E+000
  0.000000000000000E+000
  0.000000000000000E+000
  0.000000000000000E+000
  0.000000000000000E+000
  0.000000000000000E+000
  0.000000000000000E+000
  0.000000000000000E+000
  0.000000000000000E+000
  0.000000000000000E+000
  0.000000000000000E+000
  0.000000000000000E+000
  0.000000000000000E+000
  0.000000000000000E+000
  0.000000000000000E+000
  0.000000000000000E+000
  0.000000000000000E+000
  0.000000000000000E+000
  0.000000000000000E+000
  0.000000000000000E+000
  0.000000000000000E+000
  0.000000000000000E+000
  0.000000000000000E+000
  0.000000000000000E+000
  0.000000000000000E+000
  0.000000000000000E+000
  0.000000000000000E+000
  0.000000000000000E+000
  0.000000000000000E+000
  0.000000000000000E+000
  0.000000000000000E+000
  0.000000000000000E+000
  0.000000000000000E+000
  0.000000000000000E+000
  0.000000000000000E+000
  0.000000000000000E+000
  0.000000000000000E+000
  0.000000000000000E+000
  0.000000000000000E+000
  0.000000000000000E+000
  0.000000000000000E+000
  0.000000000000000E+000
  0.000000000000000E+000
  0.000000000000000E+000
  0.000000000000000E+000
  0.000000000000000E+000
  0.000000000000000E+000
  0.000000000000000E+000
  0.000000000000000E+000
  0.000000000000000E+000
  0.000000000000000E+000
  0.000000000000000E+000
  0.000000000000000E+000
  0.000000000000000E+000
  0.000000000000000E+000
  0.000000000000000E+000
  0.000000000000000E+000
  0.000000000000000E+000
  0.000000000000000E+000
  0.000000000000000E+000
  0.000000000000000E+000
  0.000000000000000E+000
  0.000000000000000E+000
  0.000000000000000E+000
  0.000000000000000E+000
  0.000000000000000E+000
  0.000000000000000E+000
  0.000000000000000E+000
  0.000000000000000E+000
  0.000000000000000E+000
  0.000000000000000E+000
  0.000000000000000E+000
  0.000000000000000E+000
  0.000000000000000E+000
  0.000000000000000E+000
  0.000000000000000E+000
  0.000000000000000E+000
  0.000000000000000E+000
  0.000000000000000E+000
  0.000000000000000E+000
  0.000000000000000E+000
  0.000000000000000E+000
  0.000000000000000E+000
  0.000000000000000E+000
  0.000000000000000E+000
  0.000000000000000E+000
  0.000000000000000E+000
  0.000000000000000E+000
  0.000000000000000E+000
  0.000000000000000E+000
  0.000000000000000E+000
  0.000000000000000E+000
  0.000000000000000E+000
  0.000000000000000E+000
  0.000000000000000E+000
  0.000000000000000E+000
  0.000000000000000E+000
  0.000000000000000E+000
  0.000000000000000E+000
  0.000000000000000E+000
  0.000000000000000E+000
  0.000000000000000E+000
  0.000000000000000E+000
  0.000000000000000E+000
  0.000000000000000E+000
  0.000000000000000E+000
  0.000000000000000E+000
  0.000000000000000E+000
  0.000000000000000E+000
  0.000000000000000E+000
  0.000000000000000E+000
  0.000000000000000E+000
  0.000000000000000E+000
  0.000000000000000E+000
  0.000000000000000E+000
  0.000000000000000E+000
  0.000000000000000E+000
  0.000000000000000E+000
  0.000000000000000E+000
  0.000000000000000E+000
  0.000000000000000E+000
  0.000000000000000E+000
  0.000000000000000E+000
  0.000000000000000E+000
  0.000000000000000E+000
  0.000000000000000E+000
  0.000000000000000E+000
  0.000000000000000E+000
  0.000000000000000E+000
  0.000000000000000E+000
  0.000000000000000E+000
  0.000000000000000E+000
  0.000000000000000E+000
  0.000000000000000E+000
  0.000000000000000E+000
  0.000000000000000E+000
  0.000000000000000E+000
  0.000000000000000E+000
  0.000000000000000E+000
  0.000000000000000E+000
  0.000000000000000E+000
  0.000000000000000E+000
  0.000000000000000E+000
  0.000000000000000E+000
  0.000000000000000E+000
  0.000000000000000E+000
  0.000000000000000E+000
  0.000000000000000E+000
  0.000000000000000E+000
  0.000000000000000E+000
  0.000000000000000E+000
  0.000000000000000E+000
  0.000000000000000E+000
  0.000000000000000E+000
  0.000000000000000E+000
  0.000000000000000E+000
  0.000000000000000E+000
  0.000000000000000E+000
  0.000000000000000E+000
  0.000000000000000E+000
  0.000000000000000E+000
  0.000000000000000E+000
  0.000000000000000E+000
  0.000000000000000E+000
  0.000000000000000E+000
  0.000000000000000E+000
  0.000000000000000E+000
  0.000000000000000E+000
  0.000000000000000E+000
  0.000000000000000E+000
  0.000000000000000E+000
  0.000000000000000E+000
  0.000000000000000E+000
  0.000000000000000E+000
  0.000000000000000E+000
  0.000000000000000E+000
  0.000000000000000E+000
  0.000000000000000E+000
SCALARS poroP double 
LOOKUP_TABLE default
  1.337091398274625E-005
  1.327586408219734E-005
  1.318156873537983E-005
  1.308822980675322E-005
  1.299610859955181E-005
  1.290551841820255E-005
  1.281677157797202E-005
  1.273017822630800E-005
  1.264613144292587E-005
  1.256479283995271E-005
  1.248609127544909E-005
  1.241007573137085E-005
  1.233685512658831E-005
  1.226651534459684E-005
  1.219911744044127E-005
  1.337113621806854E-005
  1.327615856278181E-005
  1.318200002576061E-005
  1.308883478027098E-005
  1.299692401800579E-005
  1.290658348794307E-005
  1.281813045029382E-005
  1.273185972766971E-005
  1.264813911855579E-005
  1.256720462199359E-005
  1.248895884629679E-005
  1.241339501045178E-005
  1.234063845939231E-005
  1.227076801984631E-005
  1.220383696798385E-005
  1.337154684013034E-005
  1.327670989223783E-005
  1.318281643055037E-005
  1.309001549739103E-005
  1.299854285912614E-005
  1.290870973748887E-005
  1.282085280025500E-005
  1.273525213359412E-005
  1.265223456956166E-005
  1.257208231749062E-005
  1.249470300088650E-005
  1.242004416741064E-005
  1.234821730955031E-005
  1.227928356568789E-005
  1.221327761416677E-005
  1.337194180648850E-005
  1.327745112449860E-005
  1.318397198463442E-005
  1.309172021480534E-005
  1.300094508021256E-005
  1.291191061923719E-005
  1.282497819870574E-005
  1.274041503836491E-005
  1.265847826917101E-005
  1.257947001028284E-005
  1.250336386385713E-005
  1.243006485158751E-005
  1.235962626833951E-005
  1.229208290465435E-005
  1.222744091489881E-005
  1.337179667390923E-005
  1.327800210502958E-005
  1.318532357453992E-005
  1.309392130152455E-005
  1.300411073137782E-005
  1.291621369150456E-005
  1.283056546445429E-005
  1.274744725771922E-005
  1.266692502857326E-005
  1.258939303391960E-005
  1.251501324051132E-005
  1.244353126594531E-005
  1.237492064736527E-005
  1.230919369308182E-005
  1.224632619452211E-005
  1.337051758798739E-005
  1.327782780434704E-005
  1.318642936155672E-005
  1.309641881152109E-005
  1.300802846152026E-005
  1.292167739866107E-005
  1.283776246834263E-005
  1.275647318354884E-005
  1.267775106337977E-005
  1.260202604600288E-005
  1.252973522208145E-005
  1.246051516761636E-005
  1.239415420636329E-005
  1.233064693914479E-005
  1.226993018777833E-005
  1.336750326982848E-005
  1.327633511934785E-005
  1.318677929894706E-005
  1.309881055207360E-005
  1.301256275735716E-005
  1.292831797502385E-005
  1.284657858026232E-005
  1.276759682544770E-005
  1.269120297408406E-005
  1.261764538647376E-005
  1.254767523505029E-005
  1.248109146829279E-005
  1.241738185614955E-005
  1.235647385859125E-005
  1.229824420176699E-005
  1.336208838902171E-005
  1.327288642776288E-005
  1.318581575372669E-005
  1.310062545300372E-005
  1.301734350489902E-005
  1.293606565497385E-005
  1.285704300347631E-005
  1.278082951835900E-005
  1.270747504001804E-005
  1.263661629948616E-005
  1.256907546665956E-005
  1.250535475173435E-005
  1.244468054451653E-005
  1.238669599099349E-005
  1.233124734344807E-005
  1.335324198270587E-005
  1.326693543380371E-005
  1.318290900314610E-005
  1.310133191691418E-005
  1.302187220682425E-005
  1.294450578565753E-005
  1.286915417854297E-005
  1.279633492954181E-005
  1.272662325789311E-005
  1.265930100060614E-005
  1.259448653066054E-005
  1.253350365963364E-005
  1.247607968127379E-005
  1.242131076884196E-005
  1.236890160631919E-005
  1.334000550217327E-005
  1.325748208370405E-005
  1.317756849654971E-005
  1.310033647621421E-005
  1.302565754697767E-005
  1.295317167522651E-005
  1.288272368685091E-005
  1.281435968593093E-005
  1.274869188828315E-005
  1.268566954726017E-005
  1.262453057876243E-005
  1.256612360620976E-005
  1.251163592005815E-005
  1.246028879340646E-005
  1.241113668215060E-005
  1.332134539677682E-005
  1.324359022953079E-005
  1.316894650697180E-005
  1.309712758250234E-005
  1.302821751271865E-005
  1.296172650253536E-005
  1.289729634909952E-005
  1.283454638258378E-005
  1.277370695573124E-005
  1.271547724237535E-005
  1.265914959571677E-005
  1.260416753630735E-005
  1.255196927951656E-005
  1.250354315470550E-005
  1.245783419714020E-005
  1.329612567221070E-005
  1.322430355565160E-005
  1.315614193189082E-005
  1.309120152474875E-005
  1.302909804265120E-005
  1.296975669356770E-005
  1.291242117564103E-005
  1.285660256397712E-005
  1.280192696949313E-005
  1.274881366290474E-005
  1.269762028263536E-005
  1.264753144213127E-005
  1.259831628610765E-005
  1.255164646060509E-005
  1.250879497404469E-005
  1.326318833665953E-005
  1.319863500088902E-005
  1.313833726985113E-005
  1.308166943615586E-005
  1.302801034581178E-005
  1.297681916710061E-005
  1.292777687972395E-005
  1.287999079527687E-005
  1.283286770179822E-005
  1.278603902354500E-005
  1.273999895805801E-005
  1.269495084208943E-005
  1.265023792445523E-005
  1.260593750474987E-005
  1.256475586640462E-005
  1.322141030580269E-005
  1.316561140225776E-005
  1.311469966591880E-005
  1.306782234984490E-005
  1.302412204990557E-005
  1.298276838387575E-005
  1.294300951810586E-005
  1.290434663531610E-005
  1.286580240942201E-005
  1.282677267438978E-005
  1.278694708658020E-005
  1.274668902640171E-005
  1.270634190625010E-005
  1.266595180723089E-005
  1.262642712357704E-005
  1.316977067830566E-005
  1.312431871757151E-005
  1.308439964280158E-005
  1.304891932859934E-005
  1.301675455255501E-005
  1.298680673323609E-005
  1.295803301743392E-005
  1.292946757131808E-005
  1.290040249512310E-005
  1.287006439986780E-005
  1.283783966819907E-005
  1.280358028014939E-005
  1.276768901057665E-005
  1.273071538061477E-005
  1.269232209470306E-005
  1.310742296601942E-005
  1.307393601116494E-005
  1.304663910290812E-005
  1.302419719842401E-005
  1.300519297571098E-005
  1.298822652085844E-005
  1.297195165172170E-005
  1.295512305056367E-005
  1.293666011245753E-005
  1.291570173447283E-005
  1.289169652196398E-005
  1.286434941740824E-005
  1.283354088947184E-005
  1.279935777354075E-005
  1.276166973201554E-005
  1.303374853172002E-005
  1.301377481264760E-005
  1.300070869119810E-005
  1.299291235187159E-005
  1.298865694261641E-005
  1.298622862255780E-005
  1.298393331707970E-005
  1.298019976389160E-005
  1.297367533440108E-005
  1.296328307428357E-005
  1.294824064064989E-005
  1.292804012966958E-005
  1.290237807145338E-005
  1.287121880276289E-005
  1.283444454253942E-005
  1.294830063137649E-005
  1.294339831533006E-005
  1.294612827832039E-005
  1.295440080016235E-005
  1.296629150134515E-005
  1.297979024579347E-005
  1.299284150947468E-005
  1.300350991614254E-005
  1.301010426623191E-005
  1.301124803670083E-005
  1.300590923501357E-005
  1.299338511514966E-005
  1.297325910580355E-005
  1.294552496305290E-005
  1.291024190767366E-005
  1.285203262129236E-005
  1.286299926640828E-005
  1.288263678745392E-005
  1.290806251528975E-005
  1.293712516988506E-005
  1.296761909224307E-005
  1.299717029404481E-005
  1.302343569217333E-005
  1.304427928983469E-005
  1.305793604401759E-005
  1.306309513283698E-005
  1.305891796343128E-005
  1.304500733360145E-005
  1.302142297431495E-005
  1.298851859544929E-005
  1.274874426865865E-005
  1.277461670626028E-005
  1.281041075090137E-005
  1.285335120308938E-005
  1.290011071930660E-005
  1.294822583706467E-005
  1.299508036451467E-005
  1.303788668954020E-005
  1.307399342957013E-005
  1.310117138503612E-005
  1.311780309194219E-005
  1.312294796504338E-005
  1.311628698161112E-005
  1.309802525794262E-005
  1.306882512129386E-005
  1.263790884744302E-005
  1.267999334555307E-005
  1.273106667929286E-005
  1.279029321804536E-005
  1.285446295894691E-005
  1.292017342867137E-005
  1.298455719097235E-005
  1.304440284757943E-005
  1.309654541594181E-005
  1.313824838277639E-005
  1.316754354876093E-005
  1.318336309586435E-005
  1.318546796342538E-005
  1.317425849273834E-005
  1.315066924085921E-005
  1.251885862236798E-005
  1.257826752230650E-005
  1.264543313193947E-005
  1.271983260814843E-005
  1.280006192679123E-005
  1.288247964584232E-005
  1.296364926140832E-005
  1.304021518538728E-005
  1.310863990433748E-005
  1.316574716701286E-005
  1.320915012057053E-005
  1.323751777499011E-005
  1.325057099155293E-005
  1.324885535255046E-005
  1.323351496046159E-005
  1.239425995976857E-005
  1.247029821519133E-005
  1.255381590694201E-005
  1.264304714548943E-005
  1.273755204601085E-005
  1.283462245172966E-005
  1.293062236437497E-005
  1.302232268984376E-005
  1.310635181503805E-005
  1.317940357507950E-005
  1.323862739471774E-005
  1.328211886611079E-005
  1.330920482963882E-005
  1.332033981782498E-005
  1.331678885191023E-005
  1.226744643893921E-005
  1.235905608432106E-005
  1.245773550287257E-005
  1.256121001585400E-005
  1.266795248596492E-005
  1.277660419654008E-005
  1.288406652536090E-005
  1.298772502388401E-005
  1.308534811391983E-005
  1.317417642302706E-005
  1.325105153490126E-005
  1.331306584982686E-005
  1.335843266854603E-005
  1.338696328696538E-005
  1.339987310610430E-005
  1.213929174064843E-005
  1.224677152330113E-005
  1.235997527021724E-005
  1.247612218497191E-005
  1.259285924680281E-005
  1.270886184928790E-005
  1.282288605006014E-005
  1.293390623635165E-005
  1.304159212517651E-005
  1.314476834517971E-005
  1.324068324652390E-005
  1.332521478111911E-005
  1.339443448567656E-005
  1.344646151898288E-005
  1.348197825830641E-005
  1.200987234570866E-005
  1.213489946977705E-005
  1.226277670731759E-005
  1.239004673857133E-005
  1.251333295267624E-005
  1.263152799241298E-005
  1.274632083272548E-005
  1.285945646378354E-005
  1.297262126448788E-005
  1.308701593822679E-005
  1.320157452028097E-005
  1.331201190729801E-005
  1.341177431864759E-005
  1.349552454163883E-005
  1.356198246551230E-005
  1.188025443953546E-005
  1.202516835335900E-005
  1.216802284237209E-005
  1.230351649673369E-005
  1.242817961736647E-005
  1.254351707733969E-005
  1.265396481299855E-005
  1.276450653112298E-005
  1.287879964199366E-005
  1.299977137203080E-005
  1.312911999021656E-005
  1.326550297642353E-005
  1.340225475300772E-005
  1.352869032758540E-005
  1.363807863717254E-005
  1.175227385308787E-005
  1.192051584138349E-005
  1.207644520512679E-005
  1.221328789707987E-005
  1.233347976791861E-005
  1.244232991200375E-005
  1.254606400594152E-005
  1.265110541050825E-005
  1.276288775986513E-005
  1.288557100855951E-005
  1.302321524857632E-005
  1.317936664032498E-005
  1.335382115682099E-005
  1.353579115919987E-005
  1.370665365515057E-005
  1.162823182972463E-005
  1.182375130849523E-005
  1.198299310623469E-005
  1.211151218106074E-005
  1.222268004114486E-005
  1.232434658594942E-005
  1.242219707991179E-005
  1.252220614819664E-005
  1.262962537521603E-005
  1.275035516628691E-005
  1.288994619878468E-005
  1.305552873903395E-005
  1.325566933854059E-005
  1.349559280385009E-005
  1.375845602492450E-005
  1.151737856505581E-005
  1.172320325169263E-005
  1.186995356806114E-005
  1.198844481349136E-005
  1.209121603928303E-005
  1.218719527143047E-005
  1.228183765776807E-005
  1.237898883870030E-005
  1.248360636645729E-005
  1.260106704440649E-005
  1.273884894500553E-005
  1.290589225131445E-005
  1.311473111373466E-005
  1.338687489251936E-005
  1.375912154459910E-005
SCALARS elementIsPlast double 
LOOKUP_TABLE default
   1.00000000000000     
   1.00000000000000     
   1.00000000000000     
   1.00000000000000     
   1.00000000000000     
   1.00000000000000     
   1.00000000000000     
   1.00000000000000     
   1.00000000000000     
   1.00000000000000     
   1.00000000000000     
   1.00000000000000     
   1.00000000000000     
   1.00000000000000     
   1.00000000000000     
   1.00000000000000     
   1.00000000000000     
   1.00000000000000     
   1.00000000000000     
   1.00000000000000     
   1.00000000000000     
   1.00000000000000     
   1.00000000000000     
   1.00000000000000     
   1.00000000000000     
   1.00000000000000     
   1.00000000000000     
   1.00000000000000     
   1.00000000000000     
   1.00000000000000     
   1.00000000000000     
   1.00000000000000     
   1.00000000000000     
   1.00000000000000     
   1.00000000000000     
   1.00000000000000     
   1.00000000000000     
   1.00000000000000     
   1.00000000000000     
   1.00000000000000     
   1.00000000000000     
   1.00000000000000     
   1.00000000000000     
   1.00000000000000     
   1.00000000000000     
   1.00000000000000     
   1.00000000000000     
   1.00000000000000     
   1.00000000000000     
   1.00000000000000     
   1.00000000000000     
   1.00000000000000     
   1.00000000000000     
   1.00000000000000     
   1.00000000000000     
   1.00000000000000     
   1.00000000000000     
   1.00000000000000     
   1.00000000000000     
   1.00000000000000     
   1.00000000000000     
   1.00000000000000     
   1.00000000000000     
   1.00000000000000     
   1.00000000000000     
   1.00000000000000     
   1.00000000000000     
   1.00000000000000     
   1.00000000000000     
   1.00000000000000     
   1.00000000000000     
   1.00000000000000     
   1.00000000000000     
   1.00000000000000     
   1.00000000000000     
   1.00000000000000     
   1.00000000000000     
   1.00000000000000     
   1.00000000000000     
   1.00000000000000     
   1.00000000000000     
   1.00000000000000     
   1.00000000000000     
   1.00000000000000     
   1.00000000000000     
   1.00000000000000     
   1.00000000000000     
   1.00000000000000     
   1.00000000000000     
   1.00000000000000     
   1.00000000000000     
   1.00000000000000     
   1.00000000000000     
   1.00000000000000     
   1.00000000000000     
   1.00000000000000     
   1.00000000000000     
   1.00000000000000     
   1.00000000000000     
   1.00000000000000     
   1.00000000000000     
   1.00000000000000     
   1.00000000000000     
   1.00000000000000     
   1.00000000000000     
   1.00000000000000     
   1.00000000000000     
   1.00000000000000     
   1.00000000000000     
   1.00000000000000     
   1.00000000000000     
   1.00000000000000     
   1.00000000000000     
   1.00000000000000     
   1.00000000000000     
   1.00000000000000     
   1.00000000000000     
   1.00000000000000     
   1.00000000000000     
   1.00000000000000     
   1.00000000000000     
   1.00000000000000     
   1.00000000000000     
   1.00000000000000     
   1.00000000000000     
   1.00000000000000     
   1.00000000000000     
   1.00000000000000     
   1.00000000000000     
   1.00000000000000     
   1.00000000000000     
   1.00000000000000     
   1.00000000000000     
   1.00000000000000     
   1.00000000000000     
   1.00000000000000     
   1.00000000000000     
   1.00000000000000     
   1.00000000000000     
   1.00000000000000     
   1.00000000000000     
   1.00000000000000     
   1.00000000000000     
   1.00000000000000     
   1.00000000000000     
   1.00000000000000     
   1.00000000000000     
   1.00000000000000     
   1.00000000000000     
   1.00000000000000     
   1.00000000000000     
   1.00000000000000     
   1.00000000000000     
   1.00000000000000     
   1.00000000000000     
   1.00000000000000     
   1.00000000000000     
   1.00000000000000     
   1.00000000000000     
   1.00000000000000     
   1.00000000000000     
   1.00000000000000     
   1.00000000000000     
   1.00000000000000     
   1.00000000000000     
   1.00000000000000     
   1.00000000000000     
   1.00000000000000     
   1.00000000000000     
   1.00000000000000     
   1.00000000000000     
   1.00000000000000     
   1.00000000000000     
   1.00000000000000     
   1.00000000000000     
   1.00000000000000     
   1.00000000000000     
   1.00000000000000     
   1.00000000000000     
   1.00000000000000     
   1.00000000000000     
   1.00000000000000     
   1.00000000000000     
   1.00000000000000     
   1.00000000000000     
   1.00000000000000     
   1.00000000000000     
   1.00000000000000     
   1.00000000000000     
   1.00000000000000     
   1.00000000000000     
   1.00000000000000     
   1.00000000000000     
   1.00000000000000     
   1.00000000000000     
   1.00000000000000     
   1.00000000000000     
   1.00000000000000     
   1.00000000000000     
   1.00000000000000     
   1.00000000000000     
   1.00000000000000     
   1.00000000000000     
   1.00000000000000     
   1.00000000000000     
   1.00000000000000     
   1.00000000000000     
   1.00000000000000     
   1.00000000000000     
   1.00000000000000     
   1.00000000000000     
   1.00000000000000     
   1.00000000000000     
   1.00000000000000     
   1.00000000000000     
   1.00000000000000     
   1.00000000000000     
   1.00000000000000     
   1.00000000000000     
   1.00000000000000     
   1.00000000000000     
   1.00000000000000     
   1.00000000000000     
   1.00000000000000     
   1.00000000000000     
   1.00000000000000     
   1.00000000000000     
   1.00000000000000     
   1.00000000000000     
   1.00000000000000     
   1.00000000000000     
   1.00000000000000     
   1.00000000000000     
   1.00000000000000     
   1.00000000000000     
   1.00000000000000     
   1.00000000000000     
   1.00000000000000     
   1.00000000000000     
   1.00000000000000     
   1.00000000000000     
   1.00000000000000     
   1.00000000000000     
   1.00000000000000     
   1.00000000000000     
   1.00000000000000     
   1.00000000000000     
   1.00000000000000     
   1.00000000000000     
   1.00000000000000     
   1.00000000000000     
   1.00000000000000     
   1.00000000000000     
   1.00000000000000     
   1.00000000000000     
   1.00000000000000     
   1.00000000000000     
   1.00000000000000     
   1.00000000000000     
   1.00000000000000     
   1.00000000000000     
   1.00000000000000     
   1.00000000000000     
   1.00000000000000     
   1.00000000000000     
   1.00000000000000     
   1.00000000000000     
   1.00000000000000     
   1.00000000000000     
   1.00000000000000     
   1.00000000000000     
   1.00000000000000     
   1.00000000000000     
   1.00000000000000     
   1.00000000000000     
   1.00000000000000     
   1.00000000000000     
   1.00000000000000     
   1.00000000000000     
   1.00000000000000     
   1.00000000000000     
   1.00000000000000     
   1.00000000000000     
   1.00000000000000     
   1.00000000000000     
   1.00000000000000     
   1.00000000000000     
   1.00000000000000     
   1.00000000000000     
   1.00000000000000     
   1.00000000000000     
   1.00000000000000     
   1.00000000000000     
   1.00000000000000     
   1.00000000000000     
   1.00000000000000     
   1.00000000000000     
   1.00000000000000     
   1.00000000000000     
   1.00000000000000     
   1.00000000000000     
   1.00000000000000     
   1.00000000000000     
   1.00000000000000     
   1.00000000000000     
   1.00000000000000     
   1.00000000000000     
   1.00000000000000     
   1.00000000000000     
   1.00000000000000     
   1.00000000000000     
   1.00000000000000     
   1.00000000000000     
   1.00000000000000     
   1.00000000000000     
   1.00000000000000     
   1.00000000000000     
   1.00000000000000     
   1.00000000000000     
   1.00000000000000     
   1.00000000000000     
   1.00000000000000     
   1.00000000000000     
   1.00000000000000     
   1.00000000000000     
   1.00000000000000     
   1.00000000000000     
   1.00000000000000     
   1.00000000000000     
   1.00000000000000     
   1.00000000000000     
   1.00000000000000     
   1.00000000000000     
   1.00000000000000     
   1.00000000000000     
   1.00000000000000     
   1.00000000000000     
   1.00000000000000     
   1.00000000000000     
   1.00000000000000     
   1.00000000000000     
   1.00000000000000     
   1.00000000000000     
   1.00000000000000     
   1.00000000000000     
   1.00000000000000     
   1.00000000000000     
   1.00000000000000     
   1.00000000000000     
   1.00000000000000     
   1.00000000000000     
   1.00000000000000     
   1.00000000000000     
   1.00000000000000     
   1.00000000000000     
   1.00000000000000     
   1.00000000000000     
   1.00000000000000     
   1.00000000000000     
   1.00000000000000     
   1.00000000000000     
   1.00000000000000     
   1.00000000000000     
   1.00000000000000     
   1.00000000000000     
   1.00000000000000     
   1.00000000000000     
   1.00000000000000     
   1.00000000000000     
   1.00000000000000     
   1.00000000000000     
   1.00000000000000     
   1.00000000000000     
   1.00000000000000     
   1.00000000000000     
   1.00000000000000     
   1.00000000000000     
   1.00000000000000     
   1.00000000000000     
   1.00000000000000     
   1.00000000000000     
   1.00000000000000     
   1.00000000000000     
   1.00000000000000     
   1.00000000000000     
   1.00000000000000     
   1.00000000000000     
   1.00000000000000     
   1.00000000000000     
   1.00000000000000     
   1.00000000000000     
   1.00000000000000     
   1.00000000000000     
   1.00000000000000     
   1.00000000000000     
   1.00000000000000     
   1.00000000000000     
   1.00000000000000     
   1.00000000000000     
   1.00000000000000     
   1.00000000000000     
   1.00000000000000     
   1.00000000000000     
   1.00000000000000     
   1.00000000000000     
   1.00000000000000     
   1.00000000000000     
   1.00000000000000     
   1.00000000000000     
   1.00000000000000     
   1.00000000000000     
   1.00000000000000     
   1.00000000000000     
   1.00000000000000     
   1.00000000000000     
   1.00000000000000     
   1.00000000000000     
   1.00000000000000     
   1.00000000000000     
   1.00000000000000     
   1.00000000000000     
   1.00000000000000     
   1.00000000000000     
   1.00000000000000     
   1.00000000000000     
   1.00000000000000     
   1.00000000000000     
   1.00000000000000     
   1.00000000000000     
   1.00000000000000     
   1.00000000000000     
   1.00000000000000     
   1.00000000000000     
   1.00000000000000     
   1.00000000000000     
   1.00000000000000     
   1.00000000000000     
   1.00000000000000     
   1.00000000000000     
   1.00000000000000     
   1.00000000000000     
   1.00000000000000     
   1.00000000000000     
   1.00000000000000     
   1.00000000000000     
   1.00000000000000     
   1.00000000000000     
   1.00000000000000     
   1.00000000000000     
   1.00000000000000     
SCALARS poroL double 
LOOKUP_TABLE default
  0.155816727003665     
  0.155816636935891     
  0.155816551555692     
  0.155816471119840     
  0.155816395933442     
  0.155816326352055     
  0.155816262729163     
  0.155816205458238     
  0.155816154995947     
  0.155816111621136     
  0.155816075414184     
  0.155816046590052     
  0.155816025425626     
  0.155816012203412     
  0.155816007194951     
  0.155816702163260     
  0.155816612071748     
  0.155816526628388     
  0.155816446094240     
  0.155816370788065     
  0.155816301075201     
  0.155816237326841     
  0.155816179922083     
  0.155816129320360     
  0.155816085849831     
  0.155816049628753     
  0.155816020789053     
  0.155815999635267     
  0.155815986433143     
  0.155815981449020     
  0.155816652456130     
  0.155816562258118     
  0.155816476713283     
  0.155816396008186     
  0.155816320467300     
  0.155816250491473     
  0.155816186499429     
  0.155816128866820     
  0.155816078030226     
  0.155816034379234     
  0.155815998067680     
  0.155815969197203     
  0.155815948058739     
  0.155815934902009     
  0.155815929971964     
  0.155816577775076     
  0.155816487560269     
  0.155816401769098     
  0.155816320779132     
  0.155816244922312     
  0.155816174585256     
  0.155816110241289     
  0.155816052274644     
  0.155816001120874     
  0.155815957204645     
  0.155815920740215     
  0.155815891827783     
  0.155815870715341     
  0.155815857638272     
  0.155815852799081     
  0.155816477521510     
  0.155816387536864     
  0.155816301726387     
  0.155816220410089     
  0.155816144105490     
  0.155816073274871     
  0.155816008469005     
  0.155815950118135     
  0.155815898513595     
  0.155815854245097     
  0.155815817645179     
  0.155815788714692     
  0.155815767656313     
  0.155815754694854     
  0.155815749991548     
  0.155816351160601     
  0.155816261675672     
  0.155816176051179     
  0.155816094654735     
  0.155816017961092     
  0.155815946656767     
  0.155815881354706     
  0.155815822502725     
  0.155815770364300     
  0.155815725622093     
  0.155815688806102     
  0.155815659899170     
  0.155815638960443     
  0.155815626167198     
  0.155815621645064     
  0.155816198051412     
  0.155816109444918     
  0.155816024301439     
  0.155815943097827     
  0.155815866323446     
  0.155815794598814     
  0.155815728802347     
  0.155815669479996     
  0.155815616861235     
  0.155815571531473     
  0.155815534299341     
  0.155815505485757     
  0.155815484702280     
  0.155815472157253     
  0.155815467894447     
  0.155816017526745     
  0.155815930212622     
  0.155815845960817     
  0.155815765312367     
  0.155815688835675     
  0.155815617088471     
  0.155815550800130     
  0.155815490972814     
  0.155815438067160     
  0.155815392110715     
  0.155815354421969     
  0.155815325524782     
  0.155815305027876     
  0.155815292830561     
  0.155815288920901     
  0.155815808767441     
  0.155815723250696     
  0.155815640450534     
  0.155815560806503     
  0.155815485028691     
  0.155815413733921     
  0.155815347379859     
  0.155815287181788     
  0.155815234046267     
  0.155815188036927     
  0.155815149637771     
  0.155815120279638     
  0.155815100151550     
  0.155815088387463     
  0.155815084982218     
  0.155815570871039     
  0.155815487842758     
  0.155815407077664     
  0.155815329090278     
  0.155815254530907     
  0.155815184165571     
  0.155815118636380     
  0.155815058684884     
  0.155815005447354     
  0.155814959530240     
  0.155814920715691     
  0.155814890552962     
  0.155814870212118     
  0.155814859140356     
  0.155814856392920     
  0.155815302897786     
  0.155815223191275     
  0.155815145186300     
  0.155815069595085     
  0.155814997026536     
  0.155814928290651     
  0.155814864162017     
  0.155814805033109     
  0.155814752167303     
  0.155814706611594     
  0.155814668515729     
  0.155814637654558     
  0.155814616174268     
  0.155814605311718     
  0.155814603591645     
  0.155815003766539     
  0.155814928424125     
  0.155814854207631     
  0.155814781877035     
  0.155814712224384     
  0.155814645982197     
  0.155814583948983     
  0.155814526858705     
  0.155814475130365     
  0.155814430120633     
  0.155814392746811     
  0.155814362800711     
  0.155814340381613     
  0.155814327865557     
  0.155814326944458     
  0.155814672403189     
  0.155814602677181     
  0.155814533464323     
  0.155814465600821     
  0.155814399911783     
  0.155814337210556     
  0.155814278313600     
  0.155814223917596     
  0.155814174611939     
  0.155814130910150     
  0.155814094109308     
  0.155814065222028     
  0.155814043886523     
  0.155814030252900     
  0.155814028070044     
  0.155814307769220     
  0.155814245112016     
  0.155814182364017     
  0.155814120388356     
  0.155814060045644     
  0.155814002143258     
  0.155813947455355     
  0.155813896783173     
  0.155813850762792     
  0.155813809883196     
  0.155813774671030     
  0.155813746084583     
  0.155813725325836     
  0.155813712792468     
  0.155813709113161     
  0.155813908919549     
  0.155813854991427     
  0.155813800377820     
  0.155813745962466     
  0.155813692572712     
  0.155813640993149     
  0.155813591962375     
  0.155813546127425     
  0.155813504266763     
  0.155813467006107     
  0.155813434836897     
  0.155813408320450     
  0.155813388194272     
  0.155813375433093     
  0.155813369517957     
  0.155813475125534     
  0.155813431683951     
  0.155813387083382     
  0.155813342127622     
  0.155813297536024     
  0.155813254007097     
  0.155813212208945     
  0.155813172778448     
  0.155813136262697     
  0.155813103293784     
  0.155813074535413     
  0.155813050489796     
  0.155813031658254     
  0.155813018217425     
  0.155813010395621     
  0.155813005780079     
  0.155812974748485     
  0.155812942186819     
  0.155812908788386     
  0.155812875046582     
  0.155812841516326     
  0.155812808719688     
  0.155812777156371     
  0.155812747349384     
  0.155812719833959     
  0.155812695121206     
  0.155812673685292     
  0.155812655987122     
  0.155812642273658     
  0.155812632901329     
  0.155812500785419     
  0.155812483863028     
  0.155812465602518     
  0.155812445973244     
  0.155812425286809     
  0.155812403855141     
  0.155812381951429     
  0.155812359912572     
  0.155812338142678     
  0.155812317079953     
  0.155812297175649     
  0.155812278897622     
  0.155812262728005     
  0.155812248998096     
  0.155812238322363     
  0.155811959855360     
  0.155811959395953     
  0.155811957531753     
  0.155811953872993     
  0.155811948454244     
  0.155811941250386     
  0.155811932285072     
  0.155811921625957     
  0.155811909448121     
  0.155811896045463     
  0.155811881820201     
  0.155811867273923     
  0.155811852998196     
  0.155811839613466     
  0.155811827933700     
  0.155811389672680     
  0.155811403851110     
  0.155811418757352     
  0.155811432857220     
  0.155811444616577     
  0.155811453764123     
  0.155811459857613     
  0.155811462587857     
  0.155811461768680     
  0.155811457449626     
  0.155811449947275     
  0.155811439842022     
  0.155811427947302     
  0.155811415276411     
  0.155811402958419     
  0.155810787439056     
  0.155810819643822     
  0.155810851479406     
  0.155810883210008     
  0.155810913798142     
  0.155810941134408     
  0.155810964528753     
  0.155810982918154     
  0.155810995514466     
  0.155811001940816     
  0.155811002371989     
  0.155810997524223     
  0.155810988560784     
  0.155810976980002     
  0.155810964400132     
  0.155810153035437     
  0.155810204024509     
  0.155810254805171     
  0.155810305585203     
  0.155810355616214     
  0.155810403160647     
  0.155810446007455     
  0.155810482418153     
  0.155810510679344     
  0.155810529742520     
  0.155810539520362     
  0.155810540897389     
  0.155810535509078     
  0.155810525464775     
  0.155810513040224     
  0.155809488090638     
  0.155809558613055     
  0.155809629242502     
  0.155809700028061     
  0.155809770634083     
  0.155809839644621     
  0.155809903777280     
  0.155809960324476     
  0.155810006480929     
  0.155810040283874     
  0.155810061153272     
  0.155810070042746     
  0.155810069107746     
  0.155810061185129     
  0.155810049400306     
  0.155808798240579     
  0.155808886201201     
  0.155808976718005     
  0.155809067968706     
  0.155809159878812     
  0.155809250734535     
  0.155809337216198     
  0.155809415117260     
  0.155809480921758     
  0.155809531693946     
  0.155809565991150     
  0.155809584359600     
  0.155809589262661     
  0.155809584366232     
  0.155809573797781     
  0.155808083554075     
  0.155808189784793     
  0.155808299453764     
  0.155808412111945     
  0.155808525419058     
  0.155808637823101     
  0.155808745781664     
  0.155808844532811     
  0.155808930506776     
  0.155809000293399     
  0.155809051158365     
  0.155809082248138     
  0.155809095416456     
  0.155809094984839     
  0.155809086395149     
  0.155807343898238     
  0.155807470186581     
  0.155807600750223     
  0.155807735384194     
  0.155807870680306     
  0.155808003045059     
  0.155808129127392     
  0.155808246000403     
  0.155808350659288     
  0.155808440413455     
  0.155808511672349     
  0.155808560511007     
  0.155808586150113     
  0.155808592611251     
  0.155808587169140     
  0.155806580895753     
  0.155806729635613     
  0.155806884197507     
  0.155807042578950     
  0.155807199039470     
  0.155807347501106     
  0.155807487056263     
  0.155807617403814     
  0.155807737486773     
  0.155807845875124     
  0.155807939257406     
  0.155808012237633     
  0.155808057916025     
  0.155808076310768     
  0.155808075844072     
  0.155805796142135     
  0.155805973201370     
  0.155806156588533     
  0.155806340301132     
  0.155806513249690     
  0.155806672648435     
  0.155806820084706     
  0.155806958156792     
  0.155807088624666     
  0.155807210913966     
  0.155807323891742     
  0.155807423954961     
  0.155807502258491     
  0.155807543111538     
  0.155807552321813     
  0.155804993156172     
  0.155805209711662     
  0.155805431997348     
  0.155805631562285     
  0.155805812144952     
  0.155805976896156     
  0.155806128367513     
  0.155806269751279     
  0.155806403958088     
  0.155806533629898     
  0.155806659345252     
  0.155806780370243     
  0.155806893599734     
  0.155806986081386     
  0.155807013751807     
  0.155804172897151     
  0.155804475309661     
  0.155804712676026     
  0.155804915415597     
  0.155805094582988     
  0.155805258000822     
  0.155805409856222     
  0.155805552159974     
  0.155805687022197     
  0.155805817078719     
  0.155805945363143     
  0.155806074427402     
  0.155806206201000     
  0.155806342879907     
  0.155806482769156     
