# vtk DataFile Version 3.0
vtk output
ASCII
DATASET UNSTRUCTURED_GRID
POINTS       496 double 
  0.00000000E+00  3.00000000E+02  0.00000000E+00
  0.00000000E+00  2.80000000E+02  0.00000000E+00
  0.00000000E+00  2.60000000E+02  0.00000000E+00
  0.00000000E+00  2.40000000E+02  0.00000000E+00
  0.00000000E+00  2.20000000E+02  0.00000000E+00
  0.00000000E+00  2.00000000E+02  0.00000000E+00
  0.00000000E+00  1.80000000E+02  0.00000000E+00
  0.00000000E+00  1.60000000E+02  0.00000000E+00
  0.00000000E+00  1.40000000E+02  0.00000000E+00
  0.00000000E+00  1.20000000E+02  0.00000000E+00
  0.00000000E+00  1.00000000E+02  0.00000000E+00
  0.00000000E+00  8.00000000E+01  0.00000000E+00
  0.00000000E+00  6.00000000E+01  0.00000000E+00
  0.00000000E+00  4.00000000E+01  0.00000000E+00
  0.00000000E+00  2.00000000E+01  0.00000000E+00
  0.00000000E+00  4.99600361E-14  0.00000000E+00
  2.00000000E+01  3.00000000E+02  0.00000000E+00
  2.00000000E+01  2.80000000E+02  0.00000000E+00
  2.00000000E+01  2.60000000E+02  0.00000000E+00
  2.00000000E+01  2.40000000E+02  0.00000000E+00
  2.00000000E+01  2.20000000E+02  0.00000000E+00
  2.00000000E+01  2.00000000E+02  0.00000000E+00
  2.00000000E+01  1.80000000E+02  0.00000000E+00
  2.00000000E+01  1.60000000E+02  0.00000000E+00
  2.00000000E+01  1.40000000E+02  0.00000000E+00
  2.00000000E+01  1.20000000E+02  0.00000000E+00
  2.00000000E+01  1.00000000E+02  0.00000000E+00
  2.00000000E+01  8.00000000E+01  0.00000000E+00
  2.00000000E+01  6.00000000E+01  0.00000000E+00
  2.00000000E+01  4.00000000E+01  0.00000000E+00
  2.00000000E+01  2.00000000E+01  0.00000000E+00
  2.00000000E+01  4.99600361E-14  0.00000000E+00
  4.00000000E+01  3.00000000E+02  0.00000000E+00
  4.00000000E+01  2.80000000E+02  0.00000000E+00
  4.00000000E+01  2.60000000E+02  0.00000000E+00
  4.00000000E+01  2.40000000E+02  0.00000000E+00
  4.00000000E+01  2.20000000E+02  0.00000000E+00
  4.00000000E+01  2.00000000E+02  0.00000000E+00
  4.00000000E+01  1.80000000E+02  0.00000000E+00
  4.00000000E+01  1.60000000E+02  0.00000000E+00
  4.00000000E+01  1.40000000E+02  0.00000000E+00
  4.00000000E+01  1.20000000E+02  0.00000000E+00
  4.00000000E+01  1.00000000E+02  0.00000000E+00
  4.00000000E+01  8.00000000E+01  0.00000000E+00
  4.00000000E+01  6.00000000E+01  0.00000000E+00
  4.00000000E+01  4.00000000E+01  0.00000000E+00
  4.00000000E+01  2.00000000E+01  0.00000000E+00
  4.00000000E+01  4.99600361E-14  0.00000000E+00
  6.00000000E+01  3.00000000E+02  0.00000000E+00
  6.00000000E+01  2.80000000E+02  0.00000000E+00
  6.00000000E+01  2.60000000E+02  0.00000000E+00
  6.00000000E+01  2.40000000E+02  0.00000000E+00
  6.00000000E+01  2.20000000E+02  0.00000000E+00
  6.00000000E+01  2.00000000E+02  0.00000000E+00
  6.00000000E+01  1.80000000E+02  0.00000000E+00
  6.00000000E+01  1.60000000E+02  0.00000000E+00
  6.00000000E+01  1.40000000E+02  0.00000000E+00
  6.00000000E+01  1.20000000E+02  0.00000000E+00
  6.00000000E+01  1.00000000E+02  0.00000000E+00
  6.00000000E+01  8.00000000E+01  0.00000000E+00
  6.00000000E+01  6.00000000E+01  0.00000000E+00
  6.00000000E+01  4.00000000E+01  0.00000000E+00
  6.00000000E+01  2.00000000E+01  0.00000000E+00
  6.00000000E+01  4.99600361E-14  0.00000000E+00
  8.00000000E+01  3.00000000E+02  0.00000000E+00
  8.00000000E+01  2.80000000E+02  0.00000000E+00
  8.00000000E+01  2.60000000E+02  0.00000000E+00
  8.00000000E+01  2.40000000E+02  0.00000000E+00
  8.00000000E+01  2.20000000E+02  0.00000000E+00
  8.00000000E+01  2.00000000E+02  0.00000000E+00
  8.00000000E+01  1.80000000E+02  0.00000000E+00
  8.00000000E+01  1.60000000E+02  0.00000000E+00
  8.00000000E+01  1.40000000E+02  0.00000000E+00
  8.00000000E+01  1.20000000E+02  0.00000000E+00
  8.00000000E+01  1.00000000E+02  0.00000000E+00
  8.00000000E+01  8.00000000E+01  0.00000000E+00
  8.00000000E+01  6.00000000E+01  0.00000000E+00
  8.00000000E+01  4.00000000E+01  0.00000000E+00
  8.00000000E+01  2.00000000E+01  0.00000000E+00
  8.00000000E+01  4.99600361E-14  0.00000000E+00
  1.00000000E+02  3.00000000E+02  0.00000000E+00
  1.00000000E+02  2.80000000E+02  0.00000000E+00
  1.00000000E+02  2.60000000E+02  0.00000000E+00
  1.00000000E+02  2.40000000E+02  0.00000000E+00
  1.00000000E+02  2.20000000E+02  0.00000000E+00
  1.00000000E+02  2.00000000E+02  0.00000000E+00
  1.00000000E+02  1.80000000E+02  0.00000000E+00
  1.00000000E+02  1.60000000E+02  0.00000000E+00
  1.00000000E+02  1.40000000E+02  0.00000000E+00
  1.00000000E+02  1.20000000E+02  0.00000000E+00
  1.00000000E+02  1.00000000E+02  0.00000000E+00
  1.00000000E+02  8.00000000E+01  0.00000000E+00
  1.00000000E+02  6.00000000E+01  0.00000000E+00
  1.00000000E+02  4.00000000E+01  0.00000000E+00
  1.00000000E+02  2.00000000E+01  0.00000000E+00
  1.00000000E+02  4.99600361E-14  0.00000000E+00
  1.20000000E+02  3.00000000E+02  0.00000000E+00
  1.20000000E+02  2.80000000E+02  0.00000000E+00
  1.20000000E+02  2.60000000E+02  0.00000000E+00
  1.20000000E+02  2.40000000E+02  0.00000000E+00
  1.20000000E+02  2.20000000E+02  0.00000000E+00
  1.20000000E+02  2.00000000E+02  0.00000000E+00
  1.20000000E+02  1.80000000E+02  0.00000000E+00
  1.20000000E+02  1.60000000E+02  0.00000000E+00
  1.20000000E+02  1.40000000E+02  0.00000000E+00
  1.20000000E+02  1.20000000E+02  0.00000000E+00
  1.20000000E+02  1.00000000E+02  0.00000000E+00
  1.20000000E+02  8.00000000E+01  0.00000000E+00
  1.20000000E+02  6.00000000E+01  0.00000000E+00
  1.20000000E+02  4.00000000E+01  0.00000000E+00
  1.20000000E+02  2.00000000E+01  0.00000000E+00
  1.20000000E+02  4.99600361E-14  0.00000000E+00
  1.40000000E+02  3.00000000E+02  0.00000000E+00
  1.40000000E+02  2.80000000E+02  0.00000000E+00
  1.40000000E+02  2.60000000E+02  0.00000000E+00
  1.40000000E+02  2.40000000E+02  0.00000000E+00
  1.40000000E+02  2.20000000E+02  0.00000000E+00
  1.40000000E+02  2.00000000E+02  0.00000000E+00
  1.40000000E+02  1.80000000E+02  0.00000000E+00
  1.40000000E+02  1.60000000E+02  0.00000000E+00
  1.40000000E+02  1.40000000E+02  0.00000000E+00
  1.40000000E+02  1.20000000E+02  0.00000000E+00
  1.40000000E+02  1.00000000E+02  0.00000000E+00
  1.40000000E+02  8.00000000E+01  0.00000000E+00
  1.40000000E+02  6.00000000E+01  0.00000000E+00
  1.40000000E+02  4.00000000E+01  0.00000000E+00
  1.40000000E+02  2.00000000E+01  0.00000000E+00
  1.40000000E+02  4.99600361E-14  0.00000000E+00
  1.60000000E+02  3.00000000E+02  0.00000000E+00
  1.60000000E+02  2.80000000E+02  0.00000000E+00
  1.60000000E+02  2.60000000E+02  0.00000000E+00
  1.60000000E+02  2.40000000E+02  0.00000000E+00
  1.60000000E+02  2.20000000E+02  0.00000000E+00
  1.60000000E+02  2.00000000E+02  0.00000000E+00
  1.60000000E+02  1.80000000E+02  0.00000000E+00
  1.60000000E+02  1.60000000E+02  0.00000000E+00
  1.60000000E+02  1.40000000E+02  0.00000000E+00
  1.60000000E+02  1.20000000E+02  0.00000000E+00
  1.60000000E+02  1.00000000E+02  0.00000000E+00
  1.60000000E+02  8.00000000E+01  0.00000000E+00
  1.60000000E+02  6.00000000E+01  0.00000000E+00
  1.60000000E+02  4.00000000E+01  0.00000000E+00
  1.60000000E+02  2.00000000E+01  0.00000000E+00
  1.60000000E+02  4.99600361E-14  0.00000000E+00
  1.80000000E+02  3.00000000E+02  0.00000000E+00
  1.80000000E+02  2.80000000E+02  0.00000000E+00
  1.80000000E+02  2.60000000E+02  0.00000000E+00
  1.80000000E+02  2.40000000E+02  0.00000000E+00
  1.80000000E+02  2.20000000E+02  0.00000000E+00
  1.80000000E+02  2.00000000E+02  0.00000000E+00
  1.80000000E+02  1.80000000E+02  0.00000000E+00
  1.80000000E+02  1.60000000E+02  0.00000000E+00
  1.80000000E+02  1.40000000E+02  0.00000000E+00
  1.80000000E+02  1.20000000E+02  0.00000000E+00
  1.80000000E+02  1.00000000E+02  0.00000000E+00
  1.80000000E+02  8.00000000E+01  0.00000000E+00
  1.80000000E+02  6.00000000E+01  0.00000000E+00
  1.80000000E+02  4.00000000E+01  0.00000000E+00
  1.80000000E+02  2.00000000E+01  0.00000000E+00
  1.80000000E+02  4.99600361E-14  0.00000000E+00
  2.00000000E+02  3.00000000E+02  0.00000000E+00
  2.00000000E+02  2.80000000E+02  0.00000000E+00
  2.00000000E+02  2.60000000E+02  0.00000000E+00
  2.00000000E+02  2.40000000E+02  0.00000000E+00
  2.00000000E+02  2.20000000E+02  0.00000000E+00
  2.00000000E+02  2.00000000E+02  0.00000000E+00
  2.00000000E+02  1.80000000E+02  0.00000000E+00
  2.00000000E+02  1.60000000E+02  0.00000000E+00
  2.00000000E+02  1.40000000E+02  0.00000000E+00
  2.00000000E+02  1.20000000E+02  0.00000000E+00
  2.00000000E+02  1.00000000E+02  0.00000000E+00
  2.00000000E+02  8.00000000E+01  0.00000000E+00
  2.00000000E+02  6.00000000E+01  0.00000000E+00
  2.00000000E+02  4.00000000E+01  0.00000000E+00
  2.00000000E+02  2.00000000E+01  0.00000000E+00
  2.00000000E+02  4.99600361E-14  0.00000000E+00
  2.20000000E+02  3.00000000E+02  0.00000000E+00
  2.20000000E+02  2.80000000E+02  0.00000000E+00
  2.20000000E+02  2.60000000E+02  0.00000000E+00
  2.20000000E+02  2.40000000E+02  0.00000000E+00
  2.20000000E+02  2.20000000E+02  0.00000000E+00
  2.20000000E+02  2.00000000E+02  0.00000000E+00
  2.20000000E+02  1.80000000E+02  0.00000000E+00
  2.20000000E+02  1.60000000E+02  0.00000000E+00
  2.20000000E+02  1.40000000E+02  0.00000000E+00
  2.20000000E+02  1.20000000E+02  0.00000000E+00
  2.20000000E+02  1.00000000E+02  0.00000000E+00
  2.20000000E+02  8.00000000E+01  0.00000000E+00
  2.20000000E+02  6.00000000E+01  0.00000000E+00
  2.20000000E+02  4.00000000E+01  0.00000000E+00
  2.20000000E+02  2.00000000E+01  0.00000000E+00
  2.20000000E+02  4.99600361E-14  0.00000000E+00
  2.40000000E+02  3.00000000E+02  0.00000000E+00
  2.40000000E+02  2.80000000E+02  0.00000000E+00
  2.40000000E+02  2.60000000E+02  0.00000000E+00
  2.40000000E+02  2.40000000E+02  0.00000000E+00
  2.40000000E+02  2.20000000E+02  0.00000000E+00
  2.40000000E+02  2.00000000E+02  0.00000000E+00
  2.40000000E+02  1.80000000E+02  0.00000000E+00
  2.40000000E+02  1.60000000E+02  0.00000000E+00
  2.40000000E+02  1.40000000E+02  0.00000000E+00
  2.40000000E+02  1.20000000E+02  0.00000000E+00
  2.40000000E+02  1.00000000E+02  0.00000000E+00
  2.40000000E+02  8.00000000E+01  0.00000000E+00
  2.40000000E+02  6.00000000E+01  0.00000000E+00
  2.40000000E+02  4.00000000E+01  0.00000000E+00
  2.40000000E+02  2.00000000E+01  0.00000000E+00
  2.40000000E+02  4.99600361E-14  0.00000000E+00
  2.60000000E+02  3.00000000E+02  0.00000000E+00
  2.60000000E+02  2.80000000E+02  0.00000000E+00
  2.60000000E+02  2.60000000E+02  0.00000000E+00
  2.60000000E+02  2.40000000E+02  0.00000000E+00
  2.60000000E+02  2.20000000E+02  0.00000000E+00
  2.60000000E+02  2.00000000E+02  0.00000000E+00
  2.60000000E+02  1.80000000E+02  0.00000000E+00
  2.60000000E+02  1.60000000E+02  0.00000000E+00
  2.60000000E+02  1.40000000E+02  0.00000000E+00
  2.60000000E+02  1.20000000E+02  0.00000000E+00
  2.60000000E+02  1.00000000E+02  0.00000000E+00
  2.60000000E+02  8.00000000E+01  0.00000000E+00
  2.60000000E+02  6.00000000E+01  0.00000000E+00
  2.60000000E+02  4.00000000E+01  0.00000000E+00
  2.60000000E+02  2.00000000E+01  0.00000000E+00
  2.60000000E+02  4.99600361E-14  0.00000000E+00
  2.80000000E+02  3.00000000E+02  0.00000000E+00
  2.80000000E+02  2.80000000E+02  0.00000000E+00
  2.80000000E+02  2.60000000E+02  0.00000000E+00
  2.80000000E+02  2.40000000E+02  0.00000000E+00
  2.80000000E+02  2.20000000E+02  0.00000000E+00
  2.80000000E+02  2.00000000E+02  0.00000000E+00
  2.80000000E+02  1.80000000E+02  0.00000000E+00
  2.80000000E+02  1.60000000E+02  0.00000000E+00
  2.80000000E+02  1.40000000E+02  0.00000000E+00
  2.80000000E+02  1.20000000E+02  0.00000000E+00
  2.80000000E+02  1.00000000E+02  0.00000000E+00
  2.80000000E+02  8.00000000E+01  0.00000000E+00
  2.80000000E+02  6.00000000E+01  0.00000000E+00
  2.80000000E+02  4.00000000E+01  0.00000000E+00
  2.80000000E+02  2.00000000E+01  0.00000000E+00
  2.80000000E+02  4.99600361E-14  0.00000000E+00
  3.00000000E+02  3.00000000E+02  0.00000000E+00
  3.00000000E+02  2.80000000E+02  0.00000000E+00
  3.00000000E+02  2.60000000E+02  0.00000000E+00
  3.00000000E+02  2.40000000E+02  0.00000000E+00
  3.00000000E+02  2.20000000E+02  0.00000000E+00
  3.00000000E+02  2.00000000E+02  0.00000000E+00
  3.00000000E+02  1.80000000E+02  0.00000000E+00
  3.00000000E+02  1.60000000E+02  0.00000000E+00
  3.00000000E+02  1.40000000E+02  0.00000000E+00
  3.00000000E+02  1.20000000E+02  0.00000000E+00
  3.00000000E+02  1.00000000E+02  0.00000000E+00
  3.00000000E+02  8.00000000E+01  0.00000000E+00
  3.00000000E+02  6.00000000E+01  0.00000000E+00
  3.00000000E+02  4.00000000E+01  0.00000000E+00
  3.00000000E+02  2.00000000E+01  0.00000000E+00
  3.00000000E+02  4.99600361E-14  0.00000000E+00
  3.20000000E+02  3.00000000E+02  0.00000000E+00
  3.20000000E+02  2.80000000E+02  0.00000000E+00
  3.20000000E+02  2.60000000E+02  0.00000000E+00
  3.20000000E+02  2.40000000E+02  0.00000000E+00
  3.20000000E+02  2.20000000E+02  0.00000000E+00
  3.20000000E+02  2.00000000E+02  0.00000000E+00
  3.20000000E+02  1.80000000E+02  0.00000000E+00
  3.20000000E+02  1.60000000E+02  0.00000000E+00
  3.20000000E+02  1.40000000E+02  0.00000000E+00
  3.20000000E+02  1.20000000E+02  0.00000000E+00
  3.20000000E+02  1.00000000E+02  0.00000000E+00
  3.20000000E+02  8.00000000E+01  0.00000000E+00
  3.20000000E+02  6.00000000E+01  0.00000000E+00
  3.20000000E+02  4.00000000E+01  0.00000000E+00
  3.20000000E+02  2.00000000E+01  0.00000000E+00
  3.20000000E+02  4.99600361E-14  0.00000000E+00
  3.40000000E+02  3.00000000E+02  0.00000000E+00
  3.40000000E+02  2.80000000E+02  0.00000000E+00
  3.40000000E+02  2.60000000E+02  0.00000000E+00
  3.40000000E+02  2.40000000E+02  0.00000000E+00
  3.40000000E+02  2.20000000E+02  0.00000000E+00
  3.40000000E+02  2.00000000E+02  0.00000000E+00
  3.40000000E+02  1.80000000E+02  0.00000000E+00
  3.40000000E+02  1.60000000E+02  0.00000000E+00
  3.40000000E+02  1.40000000E+02  0.00000000E+00
  3.40000000E+02  1.20000000E+02  0.00000000E+00
  3.40000000E+02  1.00000000E+02  0.00000000E+00
  3.40000000E+02  8.00000000E+01  0.00000000E+00
  3.40000000E+02  6.00000000E+01  0.00000000E+00
  3.40000000E+02  4.00000000E+01  0.00000000E+00
  3.40000000E+02  2.00000000E+01  0.00000000E+00
  3.40000000E+02  4.99600361E-14  0.00000000E+00
  3.60000000E+02  3.00000000E+02  0.00000000E+00
  3.60000000E+02  2.80000000E+02  0.00000000E+00
  3.60000000E+02  2.60000000E+02  0.00000000E+00
  3.60000000E+02  2.40000000E+02  0.00000000E+00
  3.60000000E+02  2.20000000E+02  0.00000000E+00
  3.60000000E+02  2.00000000E+02  0.00000000E+00
  3.60000000E+02  1.80000000E+02  0.00000000E+00
  3.60000000E+02  1.60000000E+02  0.00000000E+00
  3.60000000E+02  1.40000000E+02  0.00000000E+00
  3.60000000E+02  1.20000000E+02  0.00000000E+00
  3.60000000E+02  1.00000000E+02  0.00000000E+00
  3.60000000E+02  8.00000000E+01  0.00000000E+00
  3.60000000E+02  6.00000000E+01  0.00000000E+00
  3.60000000E+02  4.00000000E+01  0.00000000E+00
  3.60000000E+02  2.00000000E+01  0.00000000E+00
  3.60000000E+02  4.99600361E-14  0.00000000E+00
  3.80000000E+02  3.00000000E+02  0.00000000E+00
  3.80000000E+02  2.80000000E+02  0.00000000E+00
  3.80000000E+02  2.60000000E+02  0.00000000E+00
  3.80000000E+02  2.40000000E+02  0.00000000E+00
  3.80000000E+02  2.20000000E+02  0.00000000E+00
  3.80000000E+02  2.00000000E+02  0.00000000E+00
  3.80000000E+02  1.80000000E+02  0.00000000E+00
  3.80000000E+02  1.60000000E+02  0.00000000E+00
  3.80000000E+02  1.40000000E+02  0.00000000E+00
  3.80000000E+02  1.20000000E+02  0.00000000E+00
  3.80000000E+02  1.00000000E+02  0.00000000E+00
  3.80000000E+02  8.00000000E+01  0.00000000E+00
  3.80000000E+02  6.00000000E+01  0.00000000E+00
  3.80000000E+02  4.00000000E+01  0.00000000E+00
  3.80000000E+02  2.00000000E+01  0.00000000E+00
  3.80000000E+02  4.99600361E-14  0.00000000E+00
  4.00000000E+02  3.00000000E+02  0.00000000E+00
  4.00000000E+02  2.80000000E+02  0.00000000E+00
  4.00000000E+02  2.60000000E+02  0.00000000E+00
  4.00000000E+02  2.40000000E+02  0.00000000E+00
  4.00000000E+02  2.20000000E+02  0.00000000E+00
  4.00000000E+02  2.00000000E+02  0.00000000E+00
  4.00000000E+02  1.80000000E+02  0.00000000E+00
  4.00000000E+02  1.60000000E+02  0.00000000E+00
  4.00000000E+02  1.40000000E+02  0.00000000E+00
  4.00000000E+02  1.20000000E+02  0.00000000E+00
  4.00000000E+02  1.00000000E+02  0.00000000E+00
  4.00000000E+02  8.00000000E+01  0.00000000E+00
  4.00000000E+02  6.00000000E+01  0.00000000E+00
  4.00000000E+02  4.00000000E+01  0.00000000E+00
  4.00000000E+02  2.00000000E+01  0.00000000E+00
  4.00000000E+02  4.99600361E-14  0.00000000E+00
  4.20000000E+02  3.00000000E+02  0.00000000E+00
  4.20000000E+02  2.80000000E+02  0.00000000E+00
  4.20000000E+02  2.60000000E+02  0.00000000E+00
  4.20000000E+02  2.40000000E+02  0.00000000E+00
  4.20000000E+02  2.20000000E+02  0.00000000E+00
  4.20000000E+02  2.00000000E+02  0.00000000E+00
  4.20000000E+02  1.80000000E+02  0.00000000E+00
  4.20000000E+02  1.60000000E+02  0.00000000E+00
  4.20000000E+02  1.40000000E+02  0.00000000E+00
  4.20000000E+02  1.20000000E+02  0.00000000E+00
  4.20000000E+02  1.00000000E+02  0.00000000E+00
  4.20000000E+02  8.00000000E+01  0.00000000E+00
  4.20000000E+02  6.00000000E+01  0.00000000E+00
  4.20000000E+02  4.00000000E+01  0.00000000E+00
  4.20000000E+02  2.00000000E+01  0.00000000E+00
  4.20000000E+02  4.99600361E-14  0.00000000E+00
  4.40000000E+02  3.00000000E+02  0.00000000E+00
  4.40000000E+02  2.80000000E+02  0.00000000E+00
  4.40000000E+02  2.60000000E+02  0.00000000E+00
  4.40000000E+02  2.40000000E+02  0.00000000E+00
  4.40000000E+02  2.20000000E+02  0.00000000E+00
  4.40000000E+02  2.00000000E+02  0.00000000E+00
  4.40000000E+02  1.80000000E+02  0.00000000E+00
  4.40000000E+02  1.60000000E+02  0.00000000E+00
  4.40000000E+02  1.40000000E+02  0.00000000E+00
  4.40000000E+02  1.20000000E+02  0.00000000E+00
  4.40000000E+02  1.00000000E+02  0.00000000E+00
  4.40000000E+02  8.00000000E+01  0.00000000E+00
  4.40000000E+02  6.00000000E+01  0.00000000E+00
  4.40000000E+02  4.00000000E+01  0.00000000E+00
  4.40000000E+02  2.00000000E+01  0.00000000E+00
  4.40000000E+02  4.99600361E-14  0.00000000E+00
  4.60000000E+02  3.00000000E+02  0.00000000E+00
  4.60000000E+02  2.80000000E+02  0.00000000E+00
  4.60000000E+02  2.60000000E+02  0.00000000E+00
  4.60000000E+02  2.40000000E+02  0.00000000E+00
  4.60000000E+02  2.20000000E+02  0.00000000E+00
  4.60000000E+02  2.00000000E+02  0.00000000E+00
  4.60000000E+02  1.80000000E+02  0.00000000E+00
  4.60000000E+02  1.60000000E+02  0.00000000E+00
  4.60000000E+02  1.40000000E+02  0.00000000E+00
  4.60000000E+02  1.20000000E+02  0.00000000E+00
  4.60000000E+02  1.00000000E+02  0.00000000E+00
  4.60000000E+02  8.00000000E+01  0.00000000E+00
  4.60000000E+02  6.00000000E+01  0.00000000E+00
  4.60000000E+02  4.00000000E+01  0.00000000E+00
  4.60000000E+02  2.00000000E+01  0.00000000E+00
  4.60000000E+02  4.99600361E-14  0.00000000E+00
  4.80000000E+02  3.00000000E+02  0.00000000E+00
  4.80000000E+02  2.80000000E+02  0.00000000E+00
  4.80000000E+02  2.60000000E+02  0.00000000E+00
  4.80000000E+02  2.40000000E+02  0.00000000E+00
  4.80000000E+02  2.20000000E+02  0.00000000E+00
  4.80000000E+02  2.00000000E+02  0.00000000E+00
  4.80000000E+02  1.80000000E+02  0.00000000E+00
  4.80000000E+02  1.60000000E+02  0.00000000E+00
  4.80000000E+02  1.40000000E+02  0.00000000E+00
  4.80000000E+02  1.20000000E+02  0.00000000E+00
  4.80000000E+02  1.00000000E+02  0.00000000E+00
  4.80000000E+02  8.00000000E+01  0.00000000E+00
  4.80000000E+02  6.00000000E+01  0.00000000E+00
  4.80000000E+02  4.00000000E+01  0.00000000E+00
  4.80000000E+02  2.00000000E+01  0.00000000E+00
  4.80000000E+02  4.99600361E-14  0.00000000E+00
  5.00000000E+02  3.00000000E+02  0.00000000E+00
  5.00000000E+02  2.80000000E+02  0.00000000E+00
  5.00000000E+02  2.60000000E+02  0.00000000E+00
  5.00000000E+02  2.40000000E+02  0.00000000E+00
  5.00000000E+02  2.20000000E+02  0.00000000E+00
  5.00000000E+02  2.00000000E+02  0.00000000E+00
  5.00000000E+02  1.80000000E+02  0.00000000E+00
  5.00000000E+02  1.60000000E+02  0.00000000E+00
  5.00000000E+02  1.40000000E+02  0.00000000E+00
  5.00000000E+02  1.20000000E+02  0.00000000E+00
  5.00000000E+02  1.00000000E+02  0.00000000E+00
  5.00000000E+02  8.00000000E+01  0.00000000E+00
  5.00000000E+02  6.00000000E+01  0.00000000E+00
  5.00000000E+02  4.00000000E+01  0.00000000E+00
  5.00000000E+02  2.00000000E+01  0.00000000E+00
  5.00000000E+02  4.99600361E-14  0.00000000E+00
  5.20000000E+02  3.00000000E+02  0.00000000E+00
  5.20000000E+02  2.80000000E+02  0.00000000E+00
  5.20000000E+02  2.60000000E+02  0.00000000E+00
  5.20000000E+02  2.40000000E+02  0.00000000E+00
  5.20000000E+02  2.20000000E+02  0.00000000E+00
  5.20000000E+02  2.00000000E+02  0.00000000E+00
  5.20000000E+02  1.80000000E+02  0.00000000E+00
  5.20000000E+02  1.60000000E+02  0.00000000E+00
  5.20000000E+02  1.40000000E+02  0.00000000E+00
  5.20000000E+02  1.20000000E+02  0.00000000E+00
  5.20000000E+02  1.00000000E+02  0.00000000E+00
  5.20000000E+02  8.00000000E+01  0.00000000E+00
  5.20000000E+02  6.00000000E+01  0.00000000E+00
  5.20000000E+02  4.00000000E+01  0.00000000E+00
  5.20000000E+02  2.00000000E+01  0.00000000E+00
  5.20000000E+02  4.99600361E-14  0.00000000E+00
  5.40000000E+02  3.00000000E+02  0.00000000E+00
  5.40000000E+02  2.80000000E+02  0.00000000E+00
  5.40000000E+02  2.60000000E+02  0.00000000E+00
  5.40000000E+02  2.40000000E+02  0.00000000E+00
  5.40000000E+02  2.20000000E+02  0.00000000E+00
  5.40000000E+02  2.00000000E+02  0.00000000E+00
  5.40000000E+02  1.80000000E+02  0.00000000E+00
  5.40000000E+02  1.60000000E+02  0.00000000E+00
  5.40000000E+02  1.40000000E+02  0.00000000E+00
  5.40000000E+02  1.20000000E+02  0.00000000E+00
  5.40000000E+02  1.00000000E+02  0.00000000E+00
  5.40000000E+02  8.00000000E+01  0.00000000E+00
  5.40000000E+02  6.00000000E+01  0.00000000E+00
  5.40000000E+02  4.00000000E+01  0.00000000E+00
  5.40000000E+02  2.00000000E+01  0.00000000E+00
  5.40000000E+02  4.99600361E-14  0.00000000E+00
  5.60000000E+02  3.00000000E+02  0.00000000E+00
  5.60000000E+02  2.80000000E+02  0.00000000E+00
  5.60000000E+02  2.60000000E+02  0.00000000E+00
  5.60000000E+02  2.40000000E+02  0.00000000E+00
  5.60000000E+02  2.20000000E+02  0.00000000E+00
  5.60000000E+02  2.00000000E+02  0.00000000E+00
  5.60000000E+02  1.80000000E+02  0.00000000E+00
  5.60000000E+02  1.60000000E+02  0.00000000E+00
  5.60000000E+02  1.40000000E+02  0.00000000E+00
  5.60000000E+02  1.20000000E+02  0.00000000E+00
  5.60000000E+02  1.00000000E+02  0.00000000E+00
  5.60000000E+02  8.00000000E+01  0.00000000E+00
  5.60000000E+02  6.00000000E+01  0.00000000E+00
  5.60000000E+02  4.00000000E+01  0.00000000E+00
  5.60000000E+02  2.00000000E+01  0.00000000E+00
  5.60000000E+02  4.99600361E-14  0.00000000E+00
  5.80000000E+02  3.00000000E+02  0.00000000E+00
  5.80000000E+02  2.80000000E+02  0.00000000E+00
  5.80000000E+02  2.60000000E+02  0.00000000E+00
  5.80000000E+02  2.40000000E+02  0.00000000E+00
  5.80000000E+02  2.20000000E+02  0.00000000E+00
  5.80000000E+02  2.00000000E+02  0.00000000E+00
  5.80000000E+02  1.80000000E+02  0.00000000E+00
  5.80000000E+02  1.60000000E+02  0.00000000E+00
  5.80000000E+02  1.40000000E+02  0.00000000E+00
  5.80000000E+02  1.20000000E+02  0.00000000E+00
  5.80000000E+02  1.00000000E+02  0.00000000E+00
  5.80000000E+02  8.00000000E+01  0.00000000E+00
  5.80000000E+02  6.00000000E+01  0.00000000E+00
  5.80000000E+02  4.00000000E+01  0.00000000E+00
  5.80000000E+02  2.00000000E+01  0.00000000E+00
  5.80000000E+02  4.99600361E-14  0.00000000E+00
  6.00000000E+02  3.00000000E+02  0.00000000E+00
  6.00000000E+02  2.80000000E+02  0.00000000E+00
  6.00000000E+02  2.60000000E+02  0.00000000E+00
  6.00000000E+02  2.40000000E+02  0.00000000E+00
  6.00000000E+02  2.20000000E+02  0.00000000E+00
  6.00000000E+02  2.00000000E+02  0.00000000E+00
  6.00000000E+02  1.80000000E+02  0.00000000E+00
  6.00000000E+02  1.60000000E+02  0.00000000E+00
  6.00000000E+02  1.40000000E+02  0.00000000E+00
  6.00000000E+02  1.20000000E+02  0.00000000E+00
  6.00000000E+02  1.00000000E+02  0.00000000E+00
  6.00000000E+02  8.00000000E+01  0.00000000E+00
  6.00000000E+02  6.00000000E+01  0.00000000E+00
  6.00000000E+02  4.00000000E+01  0.00000000E+00
  6.00000000E+02  2.00000000E+01  0.00000000E+00
  6.00000000E+02  4.99600361E-14  0.00000000E+00
CELLS       450      2250
         4           0           1          17          16
         4           1           2          18          17
         4           2           3          19          18
         4           3           4          20          19
         4           4           5          21          20
         4           5           6          22          21
         4           6           7          23          22
         4           7           8          24          23
         4           8           9          25          24
         4           9          10          26          25
         4          10          11          27          26
         4          11          12          28          27
         4          12          13          29          28
         4          13          14          30          29
         4          14          15          31          30
         4          16          17          33          32
         4          17          18          34          33
         4          18          19          35          34
         4          19          20          36          35
         4          20          21          37          36
         4          21          22          38          37
         4          22          23          39          38
         4          23          24          40          39
         4          24          25          41          40
         4          25          26          42          41
         4          26          27          43          42
         4          27          28          44          43
         4          28          29          45          44
         4          29          30          46          45
         4          30          31          47          46
         4          32          33          49          48
         4          33          34          50          49
         4          34          35          51          50
         4          35          36          52          51
         4          36          37          53          52
         4          37          38          54          53
         4          38          39          55          54
         4          39          40          56          55
         4          40          41          57          56
         4          41          42          58          57
         4          42          43          59          58
         4          43          44          60          59
         4          44          45          61          60
         4          45          46          62          61
         4          46          47          63          62
         4          48          49          65          64
         4          49          50          66          65
         4          50          51          67          66
         4          51          52          68          67
         4          52          53          69          68
         4          53          54          70          69
         4          54          55          71          70
         4          55          56          72          71
         4          56          57          73          72
         4          57          58          74          73
         4          58          59          75          74
         4          59          60          76          75
         4          60          61          77          76
         4          61          62          78          77
         4          62          63          79          78
         4          64          65          81          80
         4          65          66          82          81
         4          66          67          83          82
         4          67          68          84          83
         4          68          69          85          84
         4          69          70          86          85
         4          70          71          87          86
         4          71          72          88          87
         4          72          73          89          88
         4          73          74          90          89
         4          74          75          91          90
         4          75          76          92          91
         4          76          77          93          92
         4          77          78          94          93
         4          78          79          95          94
         4          80          81          97          96
         4          81          82          98          97
         4          82          83          99          98
         4          83          84         100          99
         4          84          85         101         100
         4          85          86         102         101
         4          86          87         103         102
         4          87          88         104         103
         4          88          89         105         104
         4          89          90         106         105
         4          90          91         107         106
         4          91          92         108         107
         4          92          93         109         108
         4          93          94         110         109
         4          94          95         111         110
         4          96          97         113         112
         4          97          98         114         113
         4          98          99         115         114
         4          99         100         116         115
         4         100         101         117         116
         4         101         102         118         117
         4         102         103         119         118
         4         103         104         120         119
         4         104         105         121         120
         4         105         106         122         121
         4         106         107         123         122
         4         107         108         124         123
         4         108         109         125         124
         4         109         110         126         125
         4         110         111         127         126
         4         112         113         129         128
         4         113         114         130         129
         4         114         115         131         130
         4         115         116         132         131
         4         116         117         133         132
         4         117         118         134         133
         4         118         119         135         134
         4         119         120         136         135
         4         120         121         137         136
         4         121         122         138         137
         4         122         123         139         138
         4         123         124         140         139
         4         124         125         141         140
         4         125         126         142         141
         4         126         127         143         142
         4         128         129         145         144
         4         129         130         146         145
         4         130         131         147         146
         4         131         132         148         147
         4         132         133         149         148
         4         133         134         150         149
         4         134         135         151         150
         4         135         136         152         151
         4         136         137         153         152
         4         137         138         154         153
         4         138         139         155         154
         4         139         140         156         155
         4         140         141         157         156
         4         141         142         158         157
         4         142         143         159         158
         4         144         145         161         160
         4         145         146         162         161
         4         146         147         163         162
         4         147         148         164         163
         4         148         149         165         164
         4         149         150         166         165
         4         150         151         167         166
         4         151         152         168         167
         4         152         153         169         168
         4         153         154         170         169
         4         154         155         171         170
         4         155         156         172         171
         4         156         157         173         172
         4         157         158         174         173
         4         158         159         175         174
         4         160         161         177         176
         4         161         162         178         177
         4         162         163         179         178
         4         163         164         180         179
         4         164         165         181         180
         4         165         166         182         181
         4         166         167         183         182
         4         167         168         184         183
         4         168         169         185         184
         4         169         170         186         185
         4         170         171         187         186
         4         171         172         188         187
         4         172         173         189         188
         4         173         174         190         189
         4         174         175         191         190
         4         176         177         193         192
         4         177         178         194         193
         4         178         179         195         194
         4         179         180         196         195
         4         180         181         197         196
         4         181         182         198         197
         4         182         183         199         198
         4         183         184         200         199
         4         184         185         201         200
         4         185         186         202         201
         4         186         187         203         202
         4         187         188         204         203
         4         188         189         205         204
         4         189         190         206         205
         4         190         191         207         206
         4         192         193         209         208
         4         193         194         210         209
         4         194         195         211         210
         4         195         196         212         211
         4         196         197         213         212
         4         197         198         214         213
         4         198         199         215         214
         4         199         200         216         215
         4         200         201         217         216
         4         201         202         218         217
         4         202         203         219         218
         4         203         204         220         219
         4         204         205         221         220
         4         205         206         222         221
         4         206         207         223         222
         4         208         209         225         224
         4         209         210         226         225
         4         210         211         227         226
         4         211         212         228         227
         4         212         213         229         228
         4         213         214         230         229
         4         214         215         231         230
         4         215         216         232         231
         4         216         217         233         232
         4         217         218         234         233
         4         218         219         235         234
         4         219         220         236         235
         4         220         221         237         236
         4         221         222         238         237
         4         222         223         239         238
         4         224         225         241         240
         4         225         226         242         241
         4         226         227         243         242
         4         227         228         244         243
         4         228         229         245         244
         4         229         230         246         245
         4         230         231         247         246
         4         231         232         248         247
         4         232         233         249         248
         4         233         234         250         249
         4         234         235         251         250
         4         235         236         252         251
         4         236         237         253         252
         4         237         238         254         253
         4         238         239         255         254
         4         240         241         257         256
         4         241         242         258         257
         4         242         243         259         258
         4         243         244         260         259
         4         244         245         261         260
         4         245         246         262         261
         4         246         247         263         262
         4         247         248         264         263
         4         248         249         265         264
         4         249         250         266         265
         4         250         251         267         266
         4         251         252         268         267
         4         252         253         269         268
         4         253         254         270         269
         4         254         255         271         270
         4         256         257         273         272
         4         257         258         274         273
         4         258         259         275         274
         4         259         260         276         275
         4         260         261         277         276
         4         261         262         278         277
         4         262         263         279         278
         4         263         264         280         279
         4         264         265         281         280
         4         265         266         282         281
         4         266         267         283         282
         4         267         268         284         283
         4         268         269         285         284
         4         269         270         286         285
         4         270         271         287         286
         4         272         273         289         288
         4         273         274         290         289
         4         274         275         291         290
         4         275         276         292         291
         4         276         277         293         292
         4         277         278         294         293
         4         278         279         295         294
         4         279         280         296         295
         4         280         281         297         296
         4         281         282         298         297
         4         282         283         299         298
         4         283         284         300         299
         4         284         285         301         300
         4         285         286         302         301
         4         286         287         303         302
         4         288         289         305         304
         4         289         290         306         305
         4         290         291         307         306
         4         291         292         308         307
         4         292         293         309         308
         4         293         294         310         309
         4         294         295         311         310
         4         295         296         312         311
         4         296         297         313         312
         4         297         298         314         313
         4         298         299         315         314
         4         299         300         316         315
         4         300         301         317         316
         4         301         302         318         317
         4         302         303         319         318
         4         304         305         321         320
         4         305         306         322         321
         4         306         307         323         322
         4         307         308         324         323
         4         308         309         325         324
         4         309         310         326         325
         4         310         311         327         326
         4         311         312         328         327
         4         312         313         329         328
         4         313         314         330         329
         4         314         315         331         330
         4         315         316         332         331
         4         316         317         333         332
         4         317         318         334         333
         4         318         319         335         334
         4         320         321         337         336
         4         321         322         338         337
         4         322         323         339         338
         4         323         324         340         339
         4         324         325         341         340
         4         325         326         342         341
         4         326         327         343         342
         4         327         328         344         343
         4         328         329         345         344
         4         329         330         346         345
         4         330         331         347         346
         4         331         332         348         347
         4         332         333         349         348
         4         333         334         350         349
         4         334         335         351         350
         4         336         337         353         352
         4         337         338         354         353
         4         338         339         355         354
         4         339         340         356         355
         4         340         341         357         356
         4         341         342         358         357
         4         342         343         359         358
         4         343         344         360         359
         4         344         345         361         360
         4         345         346         362         361
         4         346         347         363         362
         4         347         348         364         363
         4         348         349         365         364
         4         349         350         366         365
         4         350         351         367         366
         4         352         353         369         368
         4         353         354         370         369
         4         354         355         371         370
         4         355         356         372         371
         4         356         357         373         372
         4         357         358         374         373
         4         358         359         375         374
         4         359         360         376         375
         4         360         361         377         376
         4         361         362         378         377
         4         362         363         379         378
         4         363         364         380         379
         4         364         365         381         380
         4         365         366         382         381
         4         366         367         383         382
         4         368         369         385         384
         4         369         370         386         385
         4         370         371         387         386
         4         371         372         388         387
         4         372         373         389         388
         4         373         374         390         389
         4         374         375         391         390
         4         375         376         392         391
         4         376         377         393         392
         4         377         378         394         393
         4         378         379         395         394
         4         379         380         396         395
         4         380         381         397         396
         4         381         382         398         397
         4         382         383         399         398
         4         384         385         401         400
         4         385         386         402         401
         4         386         387         403         402
         4         387         388         404         403
         4         388         389         405         404
         4         389         390         406         405
         4         390         391         407         406
         4         391         392         408         407
         4         392         393         409         408
         4         393         394         410         409
         4         394         395         411         410
         4         395         396         412         411
         4         396         397         413         412
         4         397         398         414         413
         4         398         399         415         414
         4         400         401         417         416
         4         401         402         418         417
         4         402         403         419         418
         4         403         404         420         419
         4         404         405         421         420
         4         405         406         422         421
         4         406         407         423         422
         4         407         408         424         423
         4         408         409         425         424
         4         409         410         426         425
         4         410         411         427         426
         4         411         412         428         427
         4         412         413         429         428
         4         413         414         430         429
         4         414         415         431         430
         4         416         417         433         432
         4         417         418         434         433
         4         418         419         435         434
         4         419         420         436         435
         4         420         421         437         436
         4         421         422         438         437
         4         422         423         439         438
         4         423         424         440         439
         4         424         425         441         440
         4         425         426         442         441
         4         426         427         443         442
         4         427         428         444         443
         4         428         429         445         444
         4         429         430         446         445
         4         430         431         447         446
         4         432         433         449         448
         4         433         434         450         449
         4         434         435         451         450
         4         435         436         452         451
         4         436         437         453         452
         4         437         438         454         453
         4         438         439         455         454
         4         439         440         456         455
         4         440         441         457         456
         4         441         442         458         457
         4         442         443         459         458
         4         443         444         460         459
         4         444         445         461         460
         4         445         446         462         461
         4         446         447         463         462
         4         448         449         465         464
         4         449         450         466         465
         4         450         451         467         466
         4         451         452         468         467
         4         452         453         469         468
         4         453         454         470         469
         4         454         455         471         470
         4         455         456         472         471
         4         456         457         473         472
         4         457         458         474         473
         4         458         459         475         474
         4         459         460         476         475
         4         460         461         477         476
         4         461         462         478         477
         4         462         463         479         478
         4         464         465         481         480
         4         465         466         482         481
         4         466         467         483         482
         4         467         468         484         483
         4         468         469         485         484
         4         469         470         486         485
         4         470         471         487         486
         4         471         472         488         487
         4         472         473         489         488
         4         473         474         490         489
         4         474         475         491         490
         4         475         476         492         491
         4         476         477         493         492
         4         477         478         494         493
         4         478         479         495         494
CELL_TYPES        450
9
9
9
9
9
9
9
9
9
9
9
9
9
9
9
9
9
9
9
9
9
9
9
9
9
9
9
9
9
9
9
9
9
9
9
9
9
9
9
9
9
9
9
9
9
9
9
9
9
9
9
9
9
9
9
9
9
9
9
9
9
9
9
9
9
9
9
9
9
9
9
9
9
9
9
9
9
9
9
9
9
9
9
9
9
9
9
9
9
9
9
9
9
9
9
9
9
9
9
9
9
9
9
9
9
9
9
9
9
9
9
9
9
9
9
9
9
9
9
9
9
9
9
9
9
9
9
9
9
9
9
9
9
9
9
9
9
9
9
9
9
9
9
9
9
9
9
9
9
9
9
9
9
9
9
9
9
9
9
9
9
9
9
9
9
9
9
9
9
9
9
9
9
9
9
9
9
9
9
9
9
9
9
9
9
9
9
9
9
9
9
9
9
9
9
9
9
9
9
9
9
9
9
9
9
9
9
9
9
9
9
9
9
9
9
9
9
9
9
9
9
9
9
9
9
9
9
9
9
9
9
9
9
9
9
9
9
9
9
9
9
9
9
9
9
9
9
9
9
9
9
9
9
9
9
9
9
9
9
9
9
9
9
9
9
9
9
9
9
9
9
9
9
9
9
9
9
9
9
9
9
9
9
9
9
9
9
9
9
9
9
9
9
9
9
9
9
9
9
9
9
9
9
9
9
9
9
9
9
9
9
9
9
9
9
9
9
9
9
9
9
9
9
9
9
9
9
9
9
9
9
9
9
9
9
9
9
9
9
9
9
9
9
9
9
9
9
9
9
9
9
9
9
9
9
9
9
9
9
9
9
9
9
9
9
9
9
9
9
9
9
9
9
9
9
9
9
9
9
9
9
9
9
9
9
9
9
9
9
9
9
9
9
9
9
9
9
9
9
9
9
9
9
9
9
9
9
9
9
9
9
9
9
9
9
9
9
9
9
9
9
9
9
9
9
9
9
9
9
9
9
9
9
9
9
9
9
9
9
9
9
9
9
9
9
9
9
9
9
9
POINT_DATA       496
SCALARS p double 
LOOKUP_TABLE default
   12781945.5245421     
   12781937.1600397     
   12781915.2763507     
   12781882.9140057     
   12781842.9065091     
   12781797.8749201     
   12781750.2208977     
   12781702.1185015     
   12781655.5050373     
   12781612.0712239     
   12781573.2509334     
   12781540.2107306     
   12781513.8393909     
   12781494.7375270     
   12781483.2073884     
   12781479.2428295     
   12781342.5017797     
   12781334.1414109     
   12781312.2680361     
   12781279.9204640     
   12781239.9307907     
   12781194.9189231     
   12781147.2855608     
   12781099.2039378     
   12781052.6106176     
   12781009.1956268     
   12780970.3921846     
   12780937.3662609     
   12780911.0061450     
   12780891.9121613     
   12780880.3865976     
   12780876.4238471     
   12779533.8281149     
   12779525.4808138     
   12779503.6401493     
   12779471.3395377     
   12779431.4066341     
   12779386.4576834     
   12779338.8903162     
   12779290.8751124     
   12779244.3462490     
   12779200.9915328     
   12779162.2421003     
   12779129.2620280     
   12779102.9380537     
   12779083.8695542     
   12779072.3588578     
   12779068.4018999     
   12776520.6876634     
   12776512.3643711     
   12776490.5841258     
   12776458.3705977     
   12776418.5433163     
   12776373.7117374     
   12776326.2677359     
   12776278.3768792     
   12776231.9688323     
   12776188.7272295     
   12776150.0793222     
   12776117.1856749     
   12776090.9301322     
   12776071.9102219     
   12776060.4280920     
   12776056.4820051     
   12772305.0547901     
   12772296.7698060     
   12772275.0865726     
   12772243.0135067     
   12772203.3572274     
   12772158.7162357     
   12772111.4729961     
   12772063.7848167     
   12772017.5739277     
   12771974.5171330     
   12771936.0353867     
   12771903.2836004     
   12771877.1409364     
   12771858.2017818     
   12771846.7675256     
   12771842.8391889     
   12766889.6953917     
   12766881.4677416     
   12766859.9305983     
   12766828.0699741     
   12766788.6732279     
   12766744.3222664     
   12766697.3851205     
   12766650.0063465     
   12766604.0967032     
   12766561.3225337     
   12766523.0952479     
   12766490.5612572     
   12766464.5926554     
   12766445.7788781     
   12766434.4195023     
   12766430.5182662     
   12760278.1687388     
   12760270.0235588     
   12760248.6976875     
   12760217.1454280     
   12760178.1264772     
   12760134.1985833     
   12760087.7085448     
   12760040.7820674     
   12759995.3129833     
   12759952.9523176     
   12759915.0976523     
   12759882.8831866     
   12759857.1708372     
   12759838.5426598     
   12759827.2947996     
   12759823.4331021     
   12752474.8299354     
   12752466.7998547     
   12752445.7701363     
   12752414.6513779     
   12752376.1646570     
   12752332.8336094     
   12752286.9748153     
   12752240.6870720     
   12752195.8401177     
   12752154.0633461     
   12752116.7350155     
   12752084.9724092     
   12752059.6233476     
   12752041.2593929     
   12752030.1710168     
   12752026.3649260     
   12743484.8330665     
   12743476.9595604     
   12743456.3340658     
   12743425.8082312     
   12743388.0504870     
   12743345.5375455     
   12743300.5441864     
   12743255.1319429     
   12743211.1373127     
   12743170.1600860     
   12743133.5523504     
   12743102.4086905     
   12743077.5580516     
   12743059.5576806     
   12743048.6894950     
   12743044.9591535     
   12733314.1351309     
   12733306.4697921     
   12733286.3830332     
   12733256.6485140     
   12733219.8644034     
   12733178.4443678     
   12733134.6068198     
   12733090.3630625     
   12733047.5049917     
   12733007.5930019     
   12732971.9447126     
   12732941.6251037     
   12732917.4386056     
   12732899.9236478     
   12732889.3501104     
   12732885.7200507     
   12721969.5008769     
   12721962.1065256     
   12721942.7222684     
   12721914.0204286     
   12721878.5072360     
   12721838.5134569     
   12721796.1832386     
   12721753.4618073     
   12721712.0826886     
   12721673.5551503     
   12721639.1525448     
   12721609.9022220     
   12721586.5776497     
   12721569.6933448     
   12721559.5031677     
   12721556.0024628     
   12709458.5086883     
   12709451.4602072     
   12709432.9735648     
   12709405.5916737     
   12709371.7026942     
   12709333.5305595     
   12709293.1236415     
   12709252.3421483     
   12709212.8449201     
   12709176.0763559     
   12709143.2542348     
   12709115.3591916     
   12709093.1265922     
   12709077.0415170     
   12709067.3375135     
   12709063.9997154     
   12695789.5576951     
   12695782.9424320     
   12695765.5808614     
   12695739.8534448     
   12695707.9994548     
   12695672.1077623     
   12695634.1056549     
   12695595.7461501     
   12695558.5944495     
   12695524.0143050     
   12695493.1551498     
   12695466.9408752     
   12695446.0611086     
   12695430.9658030     
   12695421.8638912     
   12695418.7267005     
   12680971.8763122     
   12680965.7938527     
   12680949.8165789     
   12680926.1245481     
   12680896.7726523     
   12680863.6821548     
   12680828.6300983     
   12680793.2368466     
   12680758.9523369     
   12680727.0418655     
   12680698.5723673     
   12680674.4002011     
   12680655.1614123     
   12680641.2653585     
   12680632.8924980     
   12680629.9970991     
   12665015.5324364     
   12665010.0935143     
   12664995.7888197     
   12664974.5556178     
   12664948.2246331     
   12664918.5129113     
   12664887.0143691     
   12664855.1879970     
   12664824.3441717     
   12664795.6299317     
   12664770.0143048     
   12664748.2748295     
   12664730.9863351     
   12664718.5128907     
   12664711.0036989     
   12664708.3936847     
   12647931.4455638     
   12647926.7698689     
   12647914.4496387     
   12647896.1335557     
   12647873.3849617     
   12647847.6766390     
   12647820.3831429     
   12647792.7702699     
   12647765.9819068     
   12647741.0250884     
   12647718.7544399     
   12647699.8572527     
   12647684.8402880     
   12647674.0191592     
   12647667.5109535     
   12647665.2307698     
   12629731.4011232     
   12629727.6138036     
   12629717.6047525     
   12629702.6865333     
   12629684.1099190     
   12629663.0610546     
   12629640.6562414     
   12629617.9334868     
   12629595.8407297     
   12629575.2213836     
   12629556.7983158     
   12629541.1574927     
   12629528.7322974     
   12629519.7892026     
   12629514.4152811     
   12629512.5081395     
   12610428.0673781     
   12610425.2941380     
   12610417.9252898     
   12610406.8902340     
   12610393.0820962     
   12610377.3573818     
   12610360.5337494     
   12610343.3846769     
   12610326.6304300     
   12610310.9254773     
   12610296.8430436     
   12610284.8576817     
   12610275.3265662     
   12610268.4699389     
   12610264.3510669     
   12610262.8563246     
   12590035.0153467     
   12590033.3762031     
   12590028.9624797     
   12590022.2764363     
   12590013.8111859     
   12590004.0523164     
   12589993.4787901     
   12589982.5618494     
   12589971.7607499     
   12589961.5144209     
   12589952.2285653     
   12589944.2580213     
   12589937.8844226     
   12589933.2893799     
   12589930.5237213     
   12589929.4738074     
   12568566.7423516     
   12568566.3443079     
   12568565.1664548     
   12568563.2454526     
   12568560.6375873     
   12568557.4209374     
   12568553.6987695     
   12568549.6035946     
   12568545.3002478     
   12568540.9853486     
   12568536.8801117     
   12568533.2140168     
   12568530.1981483     
   12568527.9884850     
   12568526.6405691     
   12568526.0576399     
   12546038.7000827     
   12546039.6291162     
   12546041.9105274     
   12546045.0841681     
   12546048.7408002     
   12546052.5223941     
   12546056.1263444     
   12546059.3149242     
   12546061.9283829     
   12546063.8965674     
   12546065.2416806     
   12546066.0655244     
   12546066.5179884     
   12546066.7475568     
   12546066.8372146     
   12546066.7298294     
   12522467.3284609     
   12522469.6412115     
   12522475.5222918     
   12522483.9912373     
   12522494.1544116     
   12522505.2002285     
   12522516.4016250     
   12522527.1302151     
   12522536.8811052     
   12522545.3002412     
   12522552.2012185     
   12522557.5590690     
   12522561.4745165     
   12522564.1098062     
   12522565.6022236     
   12522565.9624059     
   12497870.0972072     
   12497873.8124997     
   12497883.3227201     
   12497897.1102108     
   12497913.7883243     
   12497932.0881554     
   12497950.8567747     
   12497969.0747487     
   12497985.8917044     
   12498000.6686753     
   12498013.0098281     
   12498022.7660917     
   12498029.9992399     
   12498034.9050317     
   12498037.7030306     
   12498038.5040988     
   12472265.5578837     
   12472270.6477493     
   12472283.6742434     
   12472302.5698999     
   12472325.4562293     
   12472350.6191667     
   12472376.5024502     
   12472401.7271058     
   12472425.1317085     
   12472445.8199070     
   12472463.2001014     
   12472477.0011306     
   12472487.2465885     
   12472494.1760415     
   12472498.1154253     
   12472499.3109533     
   12445673.4111082     
   12445679.7899402     
   12445696.0387495     
   12445719.5290608     
   12445747.9017392     
   12445779.0303198     
   12445811.0118950     
   12445842.1853072     
   12445871.1613856     
   12445896.8544183     
   12445918.5130296     
   12445935.7454750     
   12445948.5200951     
   12445957.1094492     
   12445961.9578759     
   12445963.4821245     
   12418114.5966986     
   12418122.1056957     
   12418141.0464859     
   12418168.2186324     
   12418200.8095121     
   12418236.3481493     
   12418272.6941563     
   12418308.0397373     
   12418340.9037551     
   12418370.1221034     
   12418394.8496579     
   12418414.5848484     
   12418429.2052486     
   12418438.9710258     
   12418444.4305243     
   12418446.2008879     
   12389611.4201148     
   12389619.8011277     
   12389640.5756960     
   12389669.9664978     
   12389704.7772966     
   12389742.3341002     
   12389780.4473582     
   12389817.3550661     
   12389851.6547224     
   12389882.2414295     
   12389908.2731533     
   12389929.1783143     
   12389944.7139545     
   12389955.0443226     
   12389960.7571904     
   12389962.6795864     
   12360187.7430638     
   12360196.5879668     
   12360217.8336692     
   12360247.1699350     
   12360281.2129552     
   12360317.3751987     
   12360353.6901705     
   12360388.6612012     
   12360421.1300246     
   12360450.1824663     
   12360475.0909941     
   12360495.2981314     
   12360510.4590567     
   12360520.5729463     
   12360526.1250449     
   12360528.1072875     
   12329869.3122366     
   12329877.9286723     
   12329897.4008202     
   12329923.1341198     
   12329952.1294348     
   12329982.3255342     
   12330012.2816333     
   12330040.9489839     
   12330067.5313363     
   12330091.3982770     
   12330112.0309843     
   12330128.9938657     
   12330141.9423124     
   12330150.7117881     
   12330155.6213856     
   12330157.5788360     
   12298684.3479445     
   12298691.4916980     
   12298704.9882694     
   12298721.7033401     
   12298739.8451618     
   12298758.3312874     
   12298776.4410941     
   12298793.6610301     
   12298809.6040532     
   12298823.9619421     
   12298836.4745844     
   12298846.9099300     
   12298855.0560505     
   12298860.7445062     
   12298863.9986152     
   12298866.1379427     
   12266666.6666667     
   12266666.6666667     
   12266666.6666667     
   12266666.6666667     
   12266666.6666667     
   12266666.6666667     
   12266666.6666667     
   12266666.6666667     
   12266666.6666667     
   12266666.6666667     
   12266666.6666667     
   12266666.6666667     
   12266666.6666667     
   12266666.6666667     
   12266666.6666667     
   12266666.6666667     
VECTORS u double 
    0.00000E+00        -0.60010E-01         0.00000E+00
    0.00000E+00        -0.56001E-01         0.00000E+00
    0.00000E+00        -0.51993E-01         0.00000E+00
    0.00000E+00        -0.47986E-01         0.00000E+00
    0.00000E+00        -0.43980E-01         0.00000E+00
    0.00000E+00        -0.39975E-01         0.00000E+00
    0.00000E+00        -0.35972E-01         0.00000E+00
    0.00000E+00        -0.31969E-01         0.00000E+00
    0.00000E+00        -0.27968E-01         0.00000E+00
    0.00000E+00        -0.23968E-01         0.00000E+00
    0.00000E+00        -0.19970E-01         0.00000E+00
    0.00000E+00        -0.15973E-01         0.00000E+00
    0.00000E+00        -0.11978E-01         0.00000E+00
    0.00000E+00        -0.79835E-02         0.00000E+00
    0.00000E+00        -0.39910E-02         0.00000E+00
    0.00000E+00         0.00000E+00         0.00000E+00
    0.24017E-04        -0.60011E-01         0.00000E+00
    0.22636E-04        -0.56002E-01         0.00000E+00
    0.21210E-04        -0.51994E-01         0.00000E+00
    0.19740E-04        -0.47987E-01         0.00000E+00
    0.18228E-04        -0.43981E-01         0.00000E+00
    0.16676E-04        -0.39976E-01         0.00000E+00
    0.15087E-04        -0.35972E-01         0.00000E+00
    0.13466E-04        -0.31970E-01         0.00000E+00
    0.11818E-04        -0.27969E-01         0.00000E+00
    0.10147E-04        -0.23969E-01         0.00000E+00
    0.84589E-05        -0.19970E-01         0.00000E+00
    0.67603E-05        -0.15973E-01         0.00000E+00
    0.50577E-05        -0.11978E-01         0.00000E+00
    0.33583E-05        -0.79837E-02         0.00000E+00
    0.16696E-05        -0.39911E-02         0.00000E+00
    0.00000E+00         0.00000E+00         0.00000E+00
    0.47943E-04        -0.60013E-01         0.00000E+00
    0.45185E-04        -0.56004E-01         0.00000E+00
    0.42336E-04        -0.51996E-01         0.00000E+00
    0.39400E-04        -0.47989E-01         0.00000E+00
    0.36379E-04        -0.43983E-01         0.00000E+00
    0.33280E-04        -0.39978E-01         0.00000E+00
    0.30108E-04        -0.35974E-01         0.00000E+00
    0.26872E-04        -0.31971E-01         0.00000E+00
    0.23582E-04        -0.27970E-01         0.00000E+00
    0.20246E-04        -0.23970E-01         0.00000E+00
    0.16878E-04        -0.19971E-01         0.00000E+00
    0.13488E-04        -0.15974E-01         0.00000E+00
    0.10091E-04        -0.11978E-01         0.00000E+00
    0.67001E-05        -0.79841E-02         0.00000E+00
    0.33311E-05        -0.39913E-02         0.00000E+00
    0.00000E+00         0.00000E+00         0.00000E+00
    0.71687E-04        -0.60017E-01         0.00000E+00
    0.67557E-04        -0.56007E-01         0.00000E+00
    0.63292E-04        -0.51999E-01         0.00000E+00
    0.58897E-04        -0.47992E-01         0.00000E+00
    0.54377E-04        -0.43985E-01         0.00000E+00
    0.49740E-04        -0.39980E-01         0.00000E+00
    0.44996E-04        -0.35976E-01         0.00000E+00
    0.40157E-04        -0.31973E-01         0.00000E+00
    0.35237E-04        -0.27972E-01         0.00000E+00
    0.30251E-04        -0.23972E-01         0.00000E+00
    0.25216E-04        -0.19973E-01         0.00000E+00
    0.20151E-04        -0.15975E-01         0.00000E+00
    0.15075E-04        -0.11979E-01         0.00000E+00
    0.10009E-04        -0.79847E-02         0.00000E+00
    0.49763E-05        -0.39916E-02         0.00000E+00
    0.00000E+00         0.00000E+00         0.00000E+00
    0.95154E-04        -0.60021E-01         0.00000E+00
    0.89659E-04        -0.56012E-01         0.00000E+00
    0.83989E-04        -0.52003E-01         0.00000E+00
    0.78147E-04        -0.47996E-01         0.00000E+00
    0.72142E-04        -0.43989E-01         0.00000E+00
    0.65982E-04        -0.39984E-01         0.00000E+00
    0.59683E-04        -0.35979E-01         0.00000E+00
    0.53259E-04        -0.31976E-01         0.00000E+00
    0.46729E-04        -0.27975E-01         0.00000E+00
    0.40114E-04        -0.23974E-01         0.00000E+00
    0.33436E-04        -0.19975E-01         0.00000E+00
    0.26718E-04        -0.15977E-01         0.00000E+00
    0.19988E-04        -0.11981E-01         0.00000E+00
    0.13271E-04        -0.79856E-02         0.00000E+00
    0.65977E-05        -0.39921E-02         0.00000E+00
    0.00000E+00         0.00000E+00         0.00000E+00
    0.11824E-03        -0.60027E-01         0.00000E+00
    0.11139E-03        -0.56018E-01         0.00000E+00
    0.10433E-03        -0.52009E-01         0.00000E+00
    0.97063E-04        -0.48001E-01         0.00000E+00
    0.89591E-04        -0.43994E-01         0.00000E+00
    0.81931E-04        -0.39988E-01         0.00000E+00
    0.74100E-04        -0.35984E-01         0.00000E+00
    0.66117E-04        -0.31980E-01         0.00000E+00
    0.58005E-04        -0.27978E-01         0.00000E+00
    0.49790E-04        -0.23977E-01         0.00000E+00
    0.41498E-04        -0.19978E-01         0.00000E+00
    0.33159E-04        -0.15979E-01         0.00000E+00
    0.24805E-04        -0.11982E-01         0.00000E+00
    0.16469E-04        -0.79868E-02         0.00000E+00
    0.81880E-05        -0.39927E-02         0.00000E+00
    0.00000E+00         0.00000E+00         0.00000E+00
    0.14084E-03        -0.60035E-01         0.00000E+00
    0.13266E-03        -0.56025E-01         0.00000E+00
    0.12423E-03        -0.52016E-01         0.00000E+00
    0.11555E-03        -0.48007E-01         0.00000E+00
    0.10664E-03        -0.44000E-01         0.00000E+00
    0.97508E-04        -0.39994E-01         0.00000E+00
    0.88176E-04        -0.35989E-01         0.00000E+00
    0.78668E-04        -0.31985E-01         0.00000E+00
    0.69010E-04        -0.27982E-01         0.00000E+00
    0.59231E-04        -0.23981E-01         0.00000E+00
    0.49364E-04        -0.19981E-01         0.00000E+00
    0.39444E-04        -0.15982E-01         0.00000E+00
    0.29506E-04        -0.11984E-01         0.00000E+00
    0.19591E-04        -0.79882E-02         0.00000E+00
    0.97405E-05        -0.39934E-02         0.00000E+00
    0.00000E+00         0.00000E+00         0.00000E+00
    0.16282E-03        -0.60043E-01         0.00000E+00
    0.15333E-03        -0.56033E-01         0.00000E+00
    0.14356E-03        -0.52024E-01         0.00000E+00
    0.13351E-03        -0.48015E-01         0.00000E+00
    0.12320E-03        -0.44007E-01         0.00000E+00
    0.11263E-03        -0.40001E-01         0.00000E+00
    0.10184E-03        -0.35995E-01         0.00000E+00
    0.90849E-04        -0.31991E-01         0.00000E+00
    0.79689E-04        -0.27988E-01         0.00000E+00
    0.68394E-04        -0.23986E-01         0.00000E+00
    0.57000E-04        -0.19985E-01         0.00000E+00
    0.45545E-04        -0.15985E-01         0.00000E+00
    0.34072E-04        -0.11987E-01         0.00000E+00
    0.22624E-04        -0.79900E-02         0.00000E+00
    0.11249E-04        -0.39943E-02         0.00000E+00
    0.00000E+00         0.00000E+00         0.00000E+00
    0.18407E-03        -0.60053E-01         0.00000E+00
    0.17330E-03        -0.56043E-01         0.00000E+00
    0.16222E-03        -0.52033E-01         0.00000E+00
    0.15084E-03        -0.48024E-01         0.00000E+00
    0.13916E-03        -0.44016E-01         0.00000E+00
    0.12721E-03        -0.40009E-01         0.00000E+00
    0.11501E-03        -0.36003E-01         0.00000E+00
    0.10260E-03        -0.31998E-01         0.00000E+00
    0.89990E-04        -0.27994E-01         0.00000E+00
    0.77234E-04        -0.23991E-01         0.00000E+00
    0.64369E-04        -0.19989E-01         0.00000E+00
    0.51437E-04        -0.15989E-01         0.00000E+00
    0.38483E-04        -0.11990E-01         0.00000E+00
    0.25556E-04        -0.79919E-02         0.00000E+00
    0.12710E-04        -0.39953E-02         0.00000E+00
    0.00000E+00         0.00000E+00         0.00000E+00
    0.20441E-03        -0.60065E-01         0.00000E+00
    0.19241E-03        -0.56053E-01         0.00000E+00
    0.18008E-03        -0.52043E-01         0.00000E+00
    0.16742E-03        -0.48034E-01         0.00000E+00
    0.15444E-03        -0.44025E-01         0.00000E+00
    0.14117E-03        -0.40017E-01         0.00000E+00
    0.12762E-03        -0.36011E-01         0.00000E+00
    0.11384E-03        -0.32005E-01         0.00000E+00
    0.99856E-04        -0.28000E-01         0.00000E+00
    0.85708E-04        -0.23997E-01         0.00000E+00
    0.71438E-04        -0.19995E-01         0.00000E+00
    0.57094E-04        -0.15993E-01         0.00000E+00
    0.42723E-04        -0.11993E-01         0.00000E+00
    0.28378E-04        -0.79942E-02         0.00000E+00
    0.14116E-04        -0.39965E-02         0.00000E+00
    0.00000E+00         0.00000E+00         0.00000E+00
    0.22370E-03        -0.60077E-01         0.00000E+00
    0.21052E-03        -0.56066E-01         0.00000E+00
    0.19699E-03        -0.52055E-01         0.00000E+00
    0.18312E-03        -0.48045E-01         0.00000E+00
    0.16891E-03        -0.44036E-01         0.00000E+00
    0.15439E-03        -0.40027E-01         0.00000E+00
    0.13958E-03        -0.36020E-01         0.00000E+00
    0.12452E-03        -0.32014E-01         0.00000E+00
    0.10923E-03        -0.28008E-01         0.00000E+00
    0.93771E-04        -0.24004E-01         0.00000E+00
    0.78175E-04        -0.20000E-01         0.00000E+00
    0.62493E-04        -0.15998E-01         0.00000E+00
    0.46776E-04        -0.11997E-01         0.00000E+00
    0.31080E-04        -0.79967E-02         0.00000E+00
    0.15466E-04        -0.39978E-02         0.00000E+00
    0.00000E+00         0.00000E+00         0.00000E+00
    0.24174E-03        -0.60091E-01         0.00000E+00
    0.22745E-03        -0.56079E-01         0.00000E+00
    0.21280E-03        -0.52068E-01         0.00000E+00
    0.19780E-03        -0.48057E-01         0.00000E+00
    0.18245E-03        -0.44047E-01         0.00000E+00
    0.16678E-03        -0.40038E-01         0.00000E+00
    0.15080E-03        -0.36030E-01         0.00000E+00
    0.13455E-03        -0.32023E-01         0.00000E+00
    0.11806E-03        -0.28017E-01         0.00000E+00
    0.10138E-03        -0.24011E-01         0.00000E+00
    0.84546E-04        -0.20007E-01         0.00000E+00
    0.67611E-04        -0.16003E-01         0.00000E+00
    0.50628E-04        -0.12001E-01         0.00000E+00
    0.33655E-04        -0.79996E-02         0.00000E+00
    0.16755E-04        -0.39992E-02         0.00000E+00
    0.00000E+00         0.00000E+00         0.00000E+00
    0.25832E-03        -0.60105E-01         0.00000E+00
    0.24300E-03        -0.56093E-01         0.00000E+00
    0.22734E-03        -0.52081E-01         0.00000E+00
    0.21131E-03        -0.48070E-01         0.00000E+00
    0.19494E-03        -0.44060E-01         0.00000E+00
    0.17822E-03        -0.40050E-01         0.00000E+00
    0.16119E-03        -0.36042E-01         0.00000E+00
    0.14386E-03        -0.32033E-01         0.00000E+00
    0.12628E-03        -0.28026E-01         0.00000E+00
    0.10849E-03        -0.24020E-01         0.00000E+00
    0.90519E-04        -0.20014E-01         0.00000E+00
    0.72427E-04        -0.16009E-01         0.00000E+00
    0.54265E-04        -0.12006E-01         0.00000E+00
    0.36095E-04        -0.80027E-02         0.00000E+00
    0.17982E-04        -0.40008E-02         0.00000E+00
    0.00000E+00         0.00000E+00         0.00000E+00
    0.27321E-03        -0.60121E-01         0.00000E+00
    0.25697E-03        -0.56108E-01         0.00000E+00
    0.24040E-03        -0.52096E-01         0.00000E+00
    0.22349E-03        -0.48085E-01         0.00000E+00
    0.20622E-03        -0.44074E-01         0.00000E+00
    0.18860E-03        -0.40064E-01         0.00000E+00
    0.17064E-03        -0.36054E-01         0.00000E+00
    0.15238E-03        -0.32045E-01         0.00000E+00
    0.13383E-03        -0.28036E-01         0.00000E+00
    0.11505E-03        -0.24029E-01         0.00000E+00
    0.96058E-04        -0.20022E-01         0.00000E+00
    0.76915E-04        -0.16016E-01         0.00000E+00
    0.57672E-04        -0.12010E-01         0.00000E+00
    0.38392E-04        -0.80061E-02         0.00000E+00
    0.19142E-04        -0.40026E-02         0.00000E+00
    0.00000E+00         0.00000E+00         0.00000E+00
    0.28614E-03        -0.60138E-01         0.00000E+00
    0.26912E-03        -0.56125E-01         0.00000E+00
    0.25180E-03        -0.52112E-01         0.00000E+00
    0.23414E-03        -0.48100E-01         0.00000E+00
    0.21613E-03        -0.44089E-01         0.00000E+00
    0.19777E-03        -0.40078E-01         0.00000E+00
    0.17905E-03        -0.36067E-01         0.00000E+00
    0.16000E-03        -0.32057E-01         0.00000E+00
    0.14064E-03        -0.28047E-01         0.00000E+00
    0.12100E-03        -0.24039E-01         0.00000E+00
    0.10112E-03        -0.20030E-01         0.00000E+00
    0.81050E-04        -0.16023E-01         0.00000E+00
    0.60834E-04        -0.12016E-01         0.00000E+00
    0.40539E-04        -0.80097E-02         0.00000E+00
    0.20234E-04        -0.40044E-02         0.00000E+00
    0.00000E+00         0.00000E+00         0.00000E+00
    0.29684E-03        -0.60155E-01         0.00000E+00
    0.27919E-03        -0.56142E-01         0.00000E+00
    0.26129E-03        -0.52129E-01         0.00000E+00
    0.24307E-03        -0.48116E-01         0.00000E+00
    0.22450E-03        -0.44104E-01         0.00000E+00
    0.20558E-03        -0.40093E-01         0.00000E+00
    0.18629E-03        -0.36081E-01         0.00000E+00
    0.16663E-03        -0.32070E-01         0.00000E+00
    0.14663E-03        -0.28059E-01         0.00000E+00
    0.12630E-03        -0.24049E-01         0.00000E+00
    0.10567E-03        -0.20039E-01         0.00000E+00
    0.84801E-04        -0.16030E-01         0.00000E+00
    0.63731E-04        -0.12022E-01         0.00000E+00
    0.42524E-04        -0.80137E-02         0.00000E+00
    0.21253E-04        -0.40064E-02         0.00000E+00
    0.00000E+00         0.00000E+00         0.00000E+00
    0.30500E-03        -0.60173E-01         0.00000E+00
    0.28691E-03        -0.56159E-01         0.00000E+00
    0.26862E-03        -0.52146E-01         0.00000E+00
    0.25004E-03        -0.48134E-01         0.00000E+00
    0.23114E-03        -0.44121E-01         0.00000E+00
    0.21188E-03        -0.40108E-01         0.00000E+00
    0.19222E-03        -0.36096E-01         0.00000E+00
    0.17216E-03        -0.32084E-01         0.00000E+00
    0.15170E-03        -0.28072E-01         0.00000E+00
    0.13085E-03        -0.24060E-01         0.00000E+00
    0.10965E-03        -0.20049E-01         0.00000E+00
    0.88130E-04        -0.16038E-01         0.00000E+00
    0.66338E-04        -0.12028E-01         0.00000E+00
    0.44335E-04        -0.80179E-02         0.00000E+00
    0.22195E-04        -0.40086E-02         0.00000E+00
    0.00000E+00         0.00000E+00         0.00000E+00
    0.31030E-03        -0.60191E-01         0.00000E+00
    0.29198E-03        -0.56178E-01         0.00000E+00
    0.27352E-03        -0.52164E-01         0.00000E+00
    0.25483E-03        -0.48151E-01         0.00000E+00
    0.23583E-03        -0.44138E-01         0.00000E+00
    0.21646E-03        -0.40125E-01         0.00000E+00
    0.19668E-03        -0.36112E-01         0.00000E+00
    0.17644E-03        -0.32098E-01         0.00000E+00
    0.15574E-03        -0.28085E-01         0.00000E+00
    0.13459E-03        -0.24072E-01         0.00000E+00
    0.11299E-03        -0.20059E-01         0.00000E+00
    0.90989E-04        -0.16047E-01         0.00000E+00
    0.68624E-04        -0.12034E-01         0.00000E+00
    0.45954E-04        -0.80224E-02         0.00000E+00
    0.23050E-04        -0.40109E-02         0.00000E+00
    0.00000E+00         0.00000E+00         0.00000E+00
    0.31241E-03        -0.60209E-01         0.00000E+00
    0.29410E-03        -0.56196E-01         0.00000E+00
    0.27573E-03        -0.52183E-01         0.00000E+00
    0.25718E-03        -0.48169E-01         0.00000E+00
    0.23834E-03        -0.44156E-01         0.00000E+00
    0.21913E-03        -0.40142E-01         0.00000E+00
    0.19947E-03        -0.36128E-01         0.00000E+00
    0.17932E-03        -0.32114E-01         0.00000E+00
    0.15862E-03        -0.28099E-01         0.00000E+00
    0.13739E-03        -0.24085E-01         0.00000E+00
    0.11561E-03        -0.20070E-01         0.00000E+00
    0.93316E-04        -0.16056E-01         0.00000E+00
    0.70545E-04        -0.12041E-01         0.00000E+00
    0.47353E-04        -0.80271E-02         0.00000E+00
    0.23809E-04        -0.40133E-02         0.00000E+00
    0.00000E+00         0.00000E+00         0.00000E+00
    0.31101E-03        -0.60228E-01         0.00000E+00
    0.29296E-03        -0.56215E-01         0.00000E+00
    0.27494E-03        -0.52201E-01         0.00000E+00
    0.25679E-03        -0.48188E-01         0.00000E+00
    0.23840E-03        -0.44174E-01         0.00000E+00
    0.21964E-03        -0.40159E-01         0.00000E+00
    0.20040E-03        -0.36144E-01         0.00000E+00
    0.18060E-03        -0.32129E-01         0.00000E+00
    0.16019E-03        -0.28113E-01         0.00000E+00
    0.13912E-03        -0.24097E-01         0.00000E+00
    0.11740E-03        -0.20081E-01         0.00000E+00
    0.95028E-04        -0.16065E-01         0.00000E+00
    0.72045E-04        -0.12048E-01         0.00000E+00
    0.48497E-04        -0.80321E-02         0.00000E+00
    0.24453E-04        -0.40159E-02         0.00000E+00
    0.00000E+00         0.00000E+00         0.00000E+00
    0.30579E-03        -0.60245E-01         0.00000E+00
    0.28827E-03        -0.56233E-01         0.00000E+00
    0.27086E-03        -0.52220E-01         0.00000E+00
    0.25340E-03        -0.48206E-01         0.00000E+00
    0.23574E-03        -0.44192E-01         0.00000E+00
    0.21772E-03        -0.40177E-01         0.00000E+00
    0.19920E-03        -0.36161E-01         0.00000E+00
    0.18007E-03        -0.32145E-01         0.00000E+00
    0.16023E-03        -0.28128E-01         0.00000E+00
    0.13962E-03        -0.24111E-01         0.00000E+00
    0.11822E-03        -0.20093E-01         0.00000E+00
    0.96021E-04        -0.16075E-01         0.00000E+00
    0.73045E-04        -0.12056E-01         0.00000E+00
    0.49335E-04        -0.80373E-02         0.00000E+00
    0.24958E-04        -0.40186E-02         0.00000E+00
    0.00000E+00         0.00000E+00         0.00000E+00
    0.29647E-03        -0.60263E-01         0.00000E+00
    0.27973E-03        -0.56250E-01         0.00000E+00
    0.26320E-03        -0.52238E-01         0.00000E+00
    0.24671E-03        -0.48224E-01         0.00000E+00
    0.23006E-03        -0.44209E-01         0.00000E+00
    0.21308E-03        -0.40194E-01         0.00000E+00
    0.19559E-03        -0.36178E-01         0.00000E+00
    0.17745E-03        -0.32161E-01         0.00000E+00
    0.15851E-03        -0.28143E-01         0.00000E+00
    0.13868E-03        -0.24124E-01         0.00000E+00
    0.11790E-03        -0.20105E-01         0.00000E+00
    0.96154E-04        -0.16084E-01         0.00000E+00
    0.73440E-04        -0.12064E-01         0.00000E+00
    0.49798E-04        -0.80427E-02         0.00000E+00
    0.25290E-04        -0.40214E-02         0.00000E+00
    0.00000E+00         0.00000E+00         0.00000E+00
    0.28280E-03        -0.60279E-01         0.00000E+00
    0.26710E-03        -0.56267E-01         0.00000E+00
    0.25171E-03        -0.52255E-01         0.00000E+00
    0.23643E-03        -0.48241E-01         0.00000E+00
    0.22106E-03        -0.44227E-01         0.00000E+00
    0.20541E-03        -0.40211E-01         0.00000E+00
    0.18926E-03        -0.36194E-01         0.00000E+00
    0.17243E-03        -0.32177E-01         0.00000E+00
    0.15473E-03        -0.28158E-01         0.00000E+00
    0.13603E-03        -0.24138E-01         0.00000E+00
    0.11622E-03        -0.20117E-01         0.00000E+00
    0.95240E-04        -0.16095E-01         0.00000E+00
    0.73090E-04        -0.12072E-01         0.00000E+00
    0.49791E-04        -0.80482E-02         0.00000E+00
    0.25400E-04        -0.40243E-02         0.00000E+00
    0.00000E+00         0.00000E+00         0.00000E+00
    0.26457E-03        -0.60295E-01         0.00000E+00
    0.25016E-03        -0.56283E-01         0.00000E+00
    0.23613E-03        -0.52271E-01         0.00000E+00
    0.22230E-03        -0.48257E-01         0.00000E+00
    0.20846E-03        -0.44243E-01         0.00000E+00
    0.19439E-03        -0.40227E-01         0.00000E+00
    0.17986E-03        -0.36210E-01         0.00000E+00
    0.16465E-03        -0.32192E-01         0.00000E+00
    0.14854E-03        -0.28172E-01         0.00000E+00
    0.13133E-03        -0.24151E-01         0.00000E+00
    0.11286E-03        -0.20128E-01         0.00000E+00
    0.93034E-04        -0.16105E-01         0.00000E+00
    0.71805E-04        -0.12080E-01         0.00000E+00
    0.49185E-04        -0.80539E-02         0.00000E+00
    0.25224E-04        -0.40272E-02         0.00000E+00
    0.00000E+00         0.00000E+00         0.00000E+00
    0.24164E-03        -0.60309E-01         0.00000E+00
    0.22872E-03        -0.56298E-01         0.00000E+00
    0.21627E-03        -0.52285E-01         0.00000E+00
    0.20409E-03        -0.48272E-01         0.00000E+00
    0.19197E-03        -0.44258E-01         0.00000E+00
    0.17970E-03        -0.40242E-01         0.00000E+00
    0.16704E-03        -0.36225E-01         0.00000E+00
    0.15373E-03        -0.32206E-01         0.00000E+00
    0.13953E-03        -0.28186E-01         0.00000E+00
    0.12418E-03        -0.24164E-01         0.00000E+00
    0.10746E-03        -0.20140E-01         0.00000E+00
    0.89210E-04        -0.16115E-01         0.00000E+00
    0.69334E-04        -0.12088E-01         0.00000E+00
    0.47811E-04        -0.80596E-02         0.00000E+00
    0.24676E-04        -0.40303E-02         0.00000E+00
    0.00000E+00         0.00000E+00         0.00000E+00
    0.21385E-03        -0.60321E-01         0.00000E+00
    0.20264E-03        -0.56310E-01         0.00000E+00
    0.19194E-03        -0.52299E-01         0.00000E+00
    0.18158E-03        -0.48286E-01         0.00000E+00
    0.17136E-03        -0.44271E-01         0.00000E+00
    0.16106E-03        -0.40255E-01         0.00000E+00
    0.15044E-03        -0.36238E-01         0.00000E+00
    0.13925E-03        -0.32219E-01         0.00000E+00
    0.12721E-03        -0.28198E-01         0.00000E+00
    0.11406E-03        -0.24175E-01         0.00000E+00
    0.99516E-04        -0.20151E-01         0.00000E+00
    0.83335E-04        -0.16124E-01         0.00000E+00
    0.65338E-04        -0.12096E-01         0.00000E+00
    0.45438E-04        -0.80653E-02         0.00000E+00
    0.23640E-04        -0.40334E-02         0.00000E+00
    0.00000E+00         0.00000E+00         0.00000E+00
    0.18114E-03        -0.60332E-01         0.00000E+00
    0.17180E-03        -0.56321E-01         0.00000E+00
    0.16302E-03        -0.52310E-01         0.00000E+00
    0.15463E-03        -0.48297E-01         0.00000E+00
    0.14643E-03        -0.44283E-01         0.00000E+00
    0.13822E-03        -0.40267E-01         0.00000E+00
    0.12975E-03        -0.36249E-01         0.00000E+00
    0.12079E-03        -0.32230E-01         0.00000E+00
    0.11110E-03        -0.28209E-01         0.00000E+00
    0.10041E-03        -0.24186E-01         0.00000E+00
    0.88432E-04        -0.20161E-01         0.00000E+00
    0.74844E-04        -0.16133E-01         0.00000E+00
    0.59353E-04        -0.12103E-01         0.00000E+00
    0.41748E-04        -0.80710E-02         0.00000E+00
    0.21953E-04        -0.40365E-02         0.00000E+00
    0.00000E+00         0.00000E+00         0.00000E+00
    0.14344E-03        -0.60340E-01         0.00000E+00
    0.13611E-03        -0.56331E-01         0.00000E+00
    0.12940E-03        -0.52319E-01         0.00000E+00
    0.12311E-03        -0.48306E-01         0.00000E+00
    0.11703E-03        -0.44292E-01         0.00000E+00
    0.11094E-03        -0.40276E-01         0.00000E+00
    0.10465E-03        -0.36258E-01         0.00000E+00
    0.97976E-04        -0.32239E-01         0.00000E+00
    0.90719E-04        -0.28218E-01         0.00000E+00
    0.82660E-04        -0.24194E-01         0.00000E+00
    0.73534E-04        -0.20169E-01         0.00000E+00
    0.63019E-04        -0.16141E-01         0.00000E+00
    0.50734E-04        -0.12110E-01         0.00000E+00
    0.36278E-04        -0.80764E-02         0.00000E+00
    0.19381E-04        -0.40396E-02         0.00000E+00
    0.00000E+00         0.00000E+00         0.00000E+00
    0.10072E-03        -0.60347E-01         0.00000E+00
    0.95537E-04        -0.56338E-01         0.00000E+00
    0.91029E-04        -0.52326E-01         0.00000E+00
    0.86937E-04        -0.48313E-01         0.00000E+00
    0.82981E-04        -0.44299E-01         0.00000E+00
    0.78995E-04        -0.40283E-01         0.00000E+00
    0.74856E-04        -0.36265E-01         0.00000E+00
    0.70445E-04        -0.32245E-01         0.00000E+00
    0.65635E-04        -0.28224E-01         0.00000E+00
    0.60271E-04        -0.24201E-01         0.00000E+00
    0.54162E-04        -0.20175E-01         0.00000E+00
    0.47054E-04        -0.16147E-01         0.00000E+00
    0.38594E-04        -0.12116E-01         0.00000E+00
    0.28302E-04        -0.80812E-02         0.00000E+00
    0.15552E-04        -0.40426E-02         0.00000E+00
    0.00000E+00         0.00000E+00         0.00000E+00
    0.52898E-04        -0.60352E-01         0.00000E+00
    0.50060E-04        -0.56342E-01         0.00000E+00
    0.47945E-04        -0.52331E-01         0.00000E+00
    0.45993E-04        -0.48318E-01         0.00000E+00
    0.44072E-04        -0.44303E-01         0.00000E+00
    0.42115E-04        -0.40287E-01         0.00000E+00
    0.40068E-04        -0.36269E-01         0.00000E+00
    0.37881E-04        -0.32249E-01         0.00000E+00
    0.35493E-04        -0.28228E-01         0.00000E+00
    0.32826E-04        -0.24205E-01         0.00000E+00
    0.29780E-04        -0.20179E-01         0.00000E+00
    0.26220E-04        -0.16151E-01         0.00000E+00
    0.21945E-04        -0.12120E-01         0.00000E+00
    0.16629E-04        -0.80849E-02         0.00000E+00
    0.97115E-05        -0.40453E-02         0.00000E+00
    0.00000E+00         0.00000E+00         0.00000E+00
    0.00000E+00        -0.60354E-01         0.00000E+00
    0.00000E+00        -0.56344E-01         0.00000E+00
    0.00000E+00        -0.52332E-01         0.00000E+00
    0.00000E+00        -0.48319E-01         0.00000E+00
    0.00000E+00        -0.44304E-01         0.00000E+00
    0.00000E+00        -0.40288E-01         0.00000E+00
    0.00000E+00        -0.36270E-01         0.00000E+00
    0.00000E+00        -0.32251E-01         0.00000E+00
    0.00000E+00        -0.28229E-01         0.00000E+00
    0.00000E+00        -0.24206E-01         0.00000E+00
    0.00000E+00        -0.20180E-01         0.00000E+00
    0.00000E+00        -0.16152E-01         0.00000E+00
    0.00000E+00        -0.12121E-01         0.00000E+00
    0.00000E+00        -0.80863E-02         0.00000E+00
    0.00000E+00        -0.40466E-02         0.00000E+00
    0.00000E+00         0.00000E+00         0.00000E+00
CELL_DATA        450
VECTORS vDarcy double 
    0.34345E-09        -0.47628E-11         0.00000E+00
    0.34345E-09        -0.12461E-10         0.00000E+00
    0.34344E-09        -0.18428E-10         0.00000E+00
    0.34343E-09        -0.22781E-10         0.00000E+00
    0.34342E-09        -0.25642E-10         0.00000E+00
    0.34341E-09        -0.27135E-10         0.00000E+00
    0.34340E-09        -0.27391E-10         0.00000E+00
    0.34338E-09        -0.26543E-10         0.00000E+00
    0.34337E-09        -0.24732E-10         0.00000E+00
    0.34336E-09        -0.22105E-10         0.00000E+00
    0.34335E-09        -0.18814E-10         0.00000E+00
    0.34335E-09        -0.15017E-10         0.00000E+00
    0.34334E-09        -0.10877E-10         0.00000E+00
    0.34334E-09        -0.65657E-11         0.00000E+00
    0.34334E-09        -0.22575E-11         0.00000E+00
    0.10301E-08        -0.47579E-11         0.00000E+00
    0.10301E-08        -0.12449E-10         0.00000E+00
    0.10301E-08        -0.18410E-10         0.00000E+00
    0.10301E-08        -0.22760E-10         0.00000E+00
    0.10300E-08        -0.25619E-10         0.00000E+00
    0.10300E-08        -0.27111E-10         0.00000E+00
    0.10300E-08        -0.27366E-10         0.00000E+00
    0.10299E-08        -0.26519E-10         0.00000E+00
    0.10299E-08        -0.24710E-10         0.00000E+00
    0.10298E-08        -0.22085E-10         0.00000E+00
    0.10298E-08        -0.18797E-10         0.00000E+00
    0.10298E-08        -0.15003E-10         0.00000E+00
    0.10298E-08        -0.10868E-10         0.00000E+00
    0.10298E-08        -0.65601E-11         0.00000E+00
    0.10298E-08        -0.22553E-11         0.00000E+00
    0.17161E-08        -0.47474E-11         0.00000E+00
    0.17161E-08        -0.12422E-10         0.00000E+00
    0.17161E-08        -0.18372E-10         0.00000E+00
    0.17160E-08        -0.22714E-10         0.00000E+00
    0.17159E-08        -0.25567E-10         0.00000E+00
    0.17159E-08        -0.27057E-10         0.00000E+00
    0.17158E-08        -0.27312E-10         0.00000E+00
    0.17157E-08        -0.26466E-10         0.00000E+00
    0.17157E-08        -0.24660E-10         0.00000E+00
    0.17156E-08        -0.22041E-10         0.00000E+00
    0.17156E-08        -0.18759E-10         0.00000E+00
    0.17155E-08        -0.14973E-10         0.00000E+00
    0.17155E-08        -0.10847E-10         0.00000E+00
    0.17155E-08        -0.65478E-11         0.00000E+00
    0.17154E-08        -0.22506E-11         0.00000E+00
    0.24010E-08        -0.47296E-11         0.00000E+00
    0.24010E-08        -0.12377E-10         0.00000E+00
    0.24009E-08        -0.18307E-10         0.00000E+00
    0.24008E-08        -0.22635E-10         0.00000E+00
    0.24007E-08        -0.25480E-10         0.00000E+00
    0.24006E-08        -0.26965E-10         0.00000E+00
    0.24005E-08        -0.27219E-10         0.00000E+00
    0.24004E-08        -0.26376E-10         0.00000E+00
    0.24003E-08        -0.24576E-10         0.00000E+00
    0.24002E-08        -0.21965E-10         0.00000E+00
    0.24001E-08        -0.18694E-10         0.00000E+00
    0.24000E-08        -0.14922E-10         0.00000E+00
    0.23999E-08        -0.10810E-10         0.00000E+00
    0.23999E-08        -0.65260E-11         0.00000E+00
    0.23999E-08        -0.22424E-11         0.00000E+00
    0.30843E-08        -0.47024E-11         0.00000E+00
    0.30842E-08        -0.12308E-10         0.00000E+00
    0.30841E-08        -0.18207E-10         0.00000E+00
    0.30840E-08        -0.22512E-10         0.00000E+00
    0.30838E-08        -0.25343E-10         0.00000E+00
    0.30837E-08        -0.26820E-10         0.00000E+00
    0.30835E-08        -0.27073E-10         0.00000E+00
    0.30833E-08        -0.26234E-10         0.00000E+00
    0.30832E-08        -0.24442E-10         0.00000E+00
    0.30830E-08        -0.21845E-10         0.00000E+00
    0.30829E-08        -0.18592E-10         0.00000E+00
    0.30828E-08        -0.14840E-10         0.00000E+00
    0.30827E-08        -0.10751E-10         0.00000E+00
    0.30826E-08        -0.64910E-11         0.00000E+00
    0.30826E-08        -0.22297E-11         0.00000E+00
    0.37656E-08        -0.46626E-11         0.00000E+00
    0.37655E-08        -0.12206E-10         0.00000E+00
    0.37653E-08        -0.18058E-10         0.00000E+00
    0.37651E-08        -0.22331E-10         0.00000E+00
    0.37649E-08        -0.25140E-10         0.00000E+00
    0.37647E-08        -0.26606E-10         0.00000E+00
    0.37644E-08        -0.26856E-10         0.00000E+00
    0.37642E-08        -0.26022E-10         0.00000E+00
    0.37639E-08        -0.24244E-10         0.00000E+00
    0.37637E-08        -0.21666E-10         0.00000E+00
    0.37635E-08        -0.18439E-10         0.00000E+00
    0.37633E-08        -0.14717E-10         0.00000E+00
    0.37632E-08        -0.10663E-10         0.00000E+00
    0.37631E-08        -0.64380E-11         0.00000E+00
    0.37631E-08        -0.22107E-11         0.00000E+00
    0.44444E-08        -0.46063E-11         0.00000E+00
    0.44442E-08        -0.12062E-10         0.00000E+00
    0.44440E-08        -0.17847E-10         0.00000E+00
    0.44438E-08        -0.22072E-10         0.00000E+00
    0.44434E-08        -0.24849E-10         0.00000E+00
    0.44431E-08        -0.26299E-10         0.00000E+00
    0.44427E-08        -0.26545E-10         0.00000E+00
    0.44424E-08        -0.25720E-10         0.00000E+00
    0.44420E-08        -0.23960E-10         0.00000E+00
    0.44417E-08        -0.21410E-10         0.00000E+00
    0.44414E-08        -0.18219E-10         0.00000E+00
    0.44412E-08        -0.14541E-10         0.00000E+00
    0.44410E-08        -0.10534E-10         0.00000E+00
    0.44409E-08        -0.63608E-11         0.00000E+00
    0.44408E-08        -0.21836E-11         0.00000E+00
    0.51202E-08        -0.45289E-11         0.00000E+00
    0.51200E-08        -0.11862E-10         0.00000E+00
    0.51198E-08        -0.17555E-10         0.00000E+00
    0.51194E-08        -0.21712E-10         0.00000E+00
    0.51189E-08        -0.24446E-10         0.00000E+00
    0.51185E-08        -0.25872E-10         0.00000E+00
    0.51180E-08        -0.26114E-10         0.00000E+00
    0.51175E-08        -0.25300E-10         0.00000E+00
    0.51170E-08        -0.23566E-10         0.00000E+00
    0.51166E-08        -0.21055E-10         0.00000E+00
    0.51162E-08        -0.17914E-10         0.00000E+00
    0.51159E-08        -0.14296E-10         0.00000E+00
    0.51156E-08        -0.10356E-10         0.00000E+00
    0.51154E-08        -0.62527E-11         0.00000E+00
    0.51154E-08        -0.21462E-11         0.00000E+00
    0.57926E-08        -0.44251E-11         0.00000E+00
    0.57924E-08        -0.11594E-10         0.00000E+00
    0.57921E-08        -0.17161E-10         0.00000E+00
    0.57915E-08        -0.21228E-10         0.00000E+00
    0.57910E-08        -0.23902E-10         0.00000E+00
    0.57903E-08        -0.25297E-10         0.00000E+00
    0.57897E-08        -0.25532E-10         0.00000E+00
    0.57890E-08        -0.24733E-10         0.00000E+00
    0.57884E-08        -0.23035E-10         0.00000E+00
    0.57878E-08        -0.20577E-10         0.00000E+00
    0.57873E-08        -0.17503E-10         0.00000E+00
    0.57869E-08        -0.13964E-10         0.00000E+00
    0.57865E-08        -0.10114E-10         0.00000E+00
    0.57863E-08        -0.61060E-11         0.00000E+00
    0.57862E-08        -0.20960E-11         0.00000E+00
    0.64612E-08        -0.42886E-11         0.00000E+00
    0.64610E-08        -0.11240E-10         0.00000E+00
    0.64605E-08        -0.16641E-10         0.00000E+00
    0.64598E-08        -0.20588E-10         0.00000E+00
    0.64590E-08        -0.23185E-10         0.00000E+00
    0.64582E-08        -0.24538E-10         0.00000E+00
    0.64573E-08        -0.24765E-10         0.00000E+00
    0.64565E-08        -0.23989E-10         0.00000E+00
    0.64557E-08        -0.22337E-10         0.00000E+00
    0.64549E-08        -0.19949E-10         0.00000E+00
    0.64542E-08        -0.16964E-10         0.00000E+00
    0.64537E-08        -0.13530E-10         0.00000E+00
    0.64533E-08        -0.97960E-11         0.00000E+00
    0.64530E-08        -0.59129E-11         0.00000E+00
    0.64528E-08        -0.20306E-11         0.00000E+00
    0.71255E-08        -0.41129E-11         0.00000E+00
    0.71251E-08        -0.10785E-10         0.00000E+00
    0.71245E-08        -0.15971E-10         0.00000E+00
    0.71237E-08        -0.19764E-10         0.00000E+00
    0.71227E-08        -0.22260E-10         0.00000E+00
    0.71216E-08        -0.23561E-10         0.00000E+00
    0.71205E-08        -0.23779E-10         0.00000E+00
    0.71194E-08        -0.23031E-10         0.00000E+00
    0.71184E-08        -0.21442E-10         0.00000E+00
    0.71174E-08        -0.19144E-10         0.00000E+00
    0.71166E-08        -0.16273E-10         0.00000E+00
    0.71159E-08        -0.12973E-10         0.00000E+00
    0.71154E-08        -0.93888E-11         0.00000E+00
    0.71150E-08        -0.56653E-11         0.00000E+00
    0.71148E-08        -0.19474E-11         0.00000E+00
    0.77850E-08        -0.38911E-11         0.00000E+00
    0.77845E-08        -0.10209E-10         0.00000E+00
    0.77837E-08        -0.15124E-10         0.00000E+00
    0.77827E-08        -0.18722E-10         0.00000E+00
    0.77815E-08        -0.21091E-10         0.00000E+00
    0.77801E-08        -0.22329E-10         0.00000E+00
    0.77787E-08        -0.22537E-10         0.00000E+00
    0.77774E-08        -0.21828E-10         0.00000E+00
    0.77761E-08        -0.20318E-10         0.00000E+00
    0.77749E-08        -0.18135E-10         0.00000E+00
    0.77739E-08        -0.15409E-10         0.00000E+00
    0.77730E-08        -0.12277E-10         0.00000E+00
    0.77723E-08        -0.88793E-11         0.00000E+00
    0.77719E-08        -0.53554E-11         0.00000E+00
    0.77717E-08        -0.18439E-11         0.00000E+00
    0.84392E-08        -0.36160E-11         0.00000E+00
    0.84386E-08        -0.94940E-11         0.00000E+00
    0.84377E-08        -0.14073E-10         0.00000E+00
    0.84364E-08        -0.17430E-10         0.00000E+00
    0.84349E-08        -0.19644E-10         0.00000E+00
    0.84332E-08        -0.20804E-10         0.00000E+00
    0.84315E-08        -0.21003E-10         0.00000E+00
    0.84299E-08        -0.20343E-10         0.00000E+00
    0.84283E-08        -0.18935E-10         0.00000E+00
    0.84269E-08        -0.16895E-10         0.00000E+00
    0.84256E-08        -0.14349E-10         0.00000E+00
    0.84245E-08        -0.11425E-10         0.00000E+00
    0.84237E-08        -0.82559E-11         0.00000E+00
    0.84232E-08        -0.49763E-11         0.00000E+00
    0.84229E-08        -0.17179E-11         0.00000E+00
    0.90877E-08        -0.32810E-11         0.00000E+00
    0.90870E-08        -0.86235E-11         0.00000E+00
    0.90858E-08        -0.12793E-10         0.00000E+00
    0.90843E-08        -0.15857E-10         0.00000E+00
    0.90824E-08        -0.17884E-10         0.00000E+00
    0.90805E-08        -0.18952E-10         0.00000E+00
    0.90784E-08        -0.19142E-10         0.00000E+00
    0.90764E-08        -0.18547E-10         0.00000E+00
    0.90745E-08        -0.17264E-10         0.00000E+00
    0.90728E-08        -0.15402E-10         0.00000E+00
    0.90713E-08        -0.13074E-10         0.00000E+00
    0.90701E-08        -0.10402E-10         0.00000E+00
    0.90691E-08        -0.75093E-11         0.00000E+00
    0.90684E-08        -0.45228E-11         0.00000E+00
    0.90681E-08        -0.15678E-11         0.00000E+00
    0.97299E-08        -0.28804E-11         0.00000E+00
    0.97291E-08        -0.75820E-11         0.00000E+00
    0.97277E-08        -0.11263E-10         0.00000E+00
    0.97259E-08        -0.13976E-10         0.00000E+00
    0.97237E-08        -0.15782E-10         0.00000E+00
    0.97214E-08        -0.16742E-10         0.00000E+00
    0.97190E-08        -0.16927E-10         0.00000E+00
    0.97166E-08        -0.16412E-10         0.00000E+00
    0.97144E-08        -0.15284E-10         0.00000E+00
    0.97124E-08        -0.13637E-10         0.00000E+00
    0.97106E-08        -0.11572E-10         0.00000E+00
    0.97092E-08        -0.91997E-11         0.00000E+00
    0.97080E-08        -0.66336E-11         0.00000E+00
    0.97073E-08        -0.39918E-11         0.00000E+00
    0.97069E-08        -0.13926E-11         0.00000E+00
    0.10365E-07        -0.24100E-11         0.00000E+00
    0.10365E-07        -0.63587E-11         0.00000E+00
    0.10363E-07        -0.94642E-11         0.00000E+00
    0.10361E-07        -0.11768E-10         0.00000E+00
    0.10358E-07        -0.13315E-10         0.00000E+00
    0.10356E-07        -0.14153E-10         0.00000E+00
    0.10353E-07        -0.14334E-10         0.00000E+00
    0.10350E-07        -0.13920E-10         0.00000E+00
    0.10347E-07        -0.12979E-10         0.00000E+00
    0.10345E-07        -0.11588E-10         0.00000E+00
    0.10343E-07        -0.98354E-11         0.00000E+00
    0.10341E-07        -0.78147E-11         0.00000E+00
    0.10340E-07        -0.56283E-11         0.00000E+00
    0.10339E-07        -0.33837E-11         0.00000E+00
    0.10339E-07        -0.11924E-11         0.00000E+00
    0.10994E-07        -0.18683E-11         0.00000E+00
    0.10993E-07        -0.49487E-11         0.00000E+00
    0.10991E-07        -0.73907E-11         0.00000E+00
    0.10988E-07        -0.92222E-11         0.00000E+00
    0.10986E-07        -0.10472E-10         0.00000E+00
    0.10982E-07        -0.11171E-10         0.00000E+00
    0.10979E-07        -0.11354E-10         0.00000E+00
    0.10976E-07        -0.11062E-10         0.00000E+00
    0.10973E-07        -0.10344E-10         0.00000E+00
    0.10971E-07        -0.92566E-11         0.00000E+00
    0.10968E-07        -0.78671E-11         0.00000E+00
    0.10966E-07        -0.62525E-11         0.00000E+00
    0.10965E-07        -0.44993E-11         0.00000E+00
    0.10964E-07        -0.27033E-11         0.00000E+00
    0.10964E-07        -0.96875E-12         0.00000E+00
    0.11614E-07        -0.12565E-11         0.00000E+00
    0.11613E-07        -0.33553E-11         0.00000E+00
    0.11611E-07        -0.50464E-11         0.00000E+00
    0.11608E-07        -0.63428E-11         0.00000E+00
    0.11605E-07        -0.72570E-11         0.00000E+00
    0.11602E-07        -0.78019E-11         0.00000E+00
    0.11598E-07        -0.79924E-11         0.00000E+00
    0.11595E-07        -0.78469E-11         0.00000E+00
    0.11591E-07        -0.73901E-11         0.00000E+00
    0.11588E-07        -0.66546E-11         0.00000E+00
    0.11586E-07        -0.56828E-11         0.00000E+00
    0.11584E-07        -0.45292E-11         0.00000E+00
    0.11582E-07        -0.32611E-11         0.00000E+00
    0.11581E-07        -0.19605E-11         0.00000E+00
    0.11581E-07        -0.72464E-12         0.00000E+00
    0.12227E-07        -0.58013E-12         0.00000E+00
    0.12225E-07        -0.15923E-11         0.00000E+00
    0.12223E-07        -0.24510E-11         0.00000E+00
    0.12220E-07        -0.31533E-11         0.00000E+00
    0.12217E-07        -0.36950E-11         0.00000E+00
    0.12213E-07        -0.40710E-11         0.00000E+00
    0.12209E-07        -0.42750E-11         0.00000E+00
    0.12205E-07        -0.43013E-11         0.00000E+00
    0.12201E-07        -0.41466E-11         0.00000E+00
    0.12198E-07        -0.38134E-11         0.00000E+00
    0.12196E-07        -0.33138E-11         0.00000E+00
    0.12193E-07        -0.26738E-11         0.00000E+00
    0.12192E-07        -0.19378E-11         0.00000E+00
    0.12191E-07        -0.11714E-11         0.00000E+00
    0.12190E-07        -0.46498E-12         0.00000E+00
    0.12830E-07         0.15121E-12         0.00000E+00
    0.12829E-07         0.31426E-12         0.00000E+00
    0.12826E-07         0.35671E-12         0.00000E+00
    0.12823E-07         0.29866E-12         0.00000E+00
    0.12819E-07         0.16088E-12         0.00000E+00
    0.12815E-07        -0.33665E-13         0.00000E+00
    0.12811E-07        -0.25817E-12         0.00000E+00
    0.12807E-07        -0.48123E-12         0.00000E+00
    0.12803E-07        -0.66827E-12         0.00000E+00
    0.12800E-07        -0.78600E-12         0.00000E+00
    0.12797E-07        -0.80938E-12         0.00000E+00
    0.12795E-07        -0.72998E-12         0.00000E+00
    0.12793E-07        -0.56387E-12         0.00000E+00
    0.12792E-07        -0.35831E-12         0.00000E+00
    0.12792E-07        -0.19658E-12         0.00000E+00
    0.13424E-07         0.92315E-12         0.00000E+00
    0.13423E-07         0.23244E-11         0.00000E+00
    0.13420E-07         0.33154E-11         0.00000E+00
    0.13417E-07         0.39354E-11         0.00000E+00
    0.13413E-07         0.42224E-11         0.00000E+00
    0.13409E-07         0.42161E-11         0.00000E+00
    0.13405E-07         0.39632E-11         0.00000E+00
    0.13400E-07         0.35210E-11         0.00000E+00
    0.13397E-07         0.29580E-11         0.00000E+00
    0.13393E-07         0.23482E-11         0.00000E+00
    0.13390E-07         0.17603E-11         0.00000E+00
    0.13388E-07         0.12438E-11         0.00000E+00
    0.13386E-07         0.81582E-12         0.00000E+00
    0.13385E-07         0.45052E-12         0.00000E+00
    0.13385E-07         0.71988E-13         0.00000E+00
    0.14009E-07         0.17166E-11         0.00000E+00
    0.14007E-07         0.43829E-11         0.00000E+00
    0.14005E-07         0.63379E-11         0.00000E+00
    0.14001E-07         0.76435E-11         0.00000E+00
    0.13997E-07         0.83567E-11         0.00000E+00
    0.13993E-07         0.85345E-11         0.00000E+00
    0.13989E-07         0.82430E-11         0.00000E+00
    0.13985E-07         0.75656E-11         0.00000E+00
    0.13981E-07         0.66055E-11         0.00000E+00
    0.13977E-07         0.54795E-11         0.00000E+00
    0.13975E-07         0.43040E-11         0.00000E+00
    0.13972E-07         0.31748E-11         0.00000E+00
    0.13971E-07         0.21475E-11         0.00000E+00
    0.13970E-07         0.12218E-11         0.00000E+00
    0.13969E-07         0.33069E-12         0.00000E+00
    0.14582E-07         0.25074E-11         0.00000E+00
    0.14581E-07         0.64177E-11         0.00000E+00
    0.14578E-07         0.93070E-11         0.00000E+00
    0.14575E-07         0.11267E-10         0.00000E+00
    0.14571E-07         0.12377E-10         0.00000E+00
    0.14567E-07         0.12715E-10         0.00000E+00
    0.14563E-07         0.12371E-10         0.00000E+00
    0.14560E-07         0.11454E-10         0.00000E+00
    0.14556E-07         0.10099E-10         0.00000E+00
    0.14553E-07         0.84636E-11         0.00000E+00
    0.14550E-07         0.67083E-11         0.00000E+00
    0.14548E-07         0.49773E-11         0.00000E+00
    0.14547E-07         0.33703E-11         0.00000E+00
    0.14546E-07         0.19186E-11         0.00000E+00
    0.14546E-07         0.56856E-12         0.00000E+00
    0.15145E-07         0.32659E-11         0.00000E+00
    0.15143E-07         0.83366E-11         0.00000E+00
    0.15141E-07         0.12070E-10         0.00000E+00
    0.15138E-07         0.14597E-10         0.00000E+00
    0.15135E-07         0.16030E-10         0.00000E+00
    0.15132E-07         0.16478E-10         0.00000E+00
    0.15128E-07         0.16060E-10         0.00000E+00
    0.15125E-07         0.14916E-10         0.00000E+00
    0.15122E-07         0.13208E-10         0.00000E+00
    0.15119E-07         0.11117E-10         0.00000E+00
    0.15117E-07         0.88373E-11         0.00000E+00
    0.15115E-07         0.65553E-11         0.00000E+00
    0.15114E-07         0.44192E-11         0.00000E+00
    0.15113E-07         0.25025E-11         0.00000E+00
    0.15113E-07         0.77450E-12         0.00000E+00
    0.15695E-07         0.39547E-11         0.00000E+00
    0.15694E-07         0.10021E-10         0.00000E+00
    0.15692E-07         0.14427E-10         0.00000E+00
    0.15690E-07         0.17360E-10         0.00000E+00
    0.15688E-07         0.18984E-10         0.00000E+00
    0.15685E-07         0.19457E-10         0.00000E+00
    0.15683E-07         0.18942E-10         0.00000E+00
    0.15680E-07         0.17610E-10         0.00000E+00
    0.15678E-07         0.15637E-10         0.00000E+00
    0.15676E-07         0.13209E-10         0.00000E+00
    0.15675E-07         0.10527E-10         0.00000E+00
    0.15674E-07         0.78011E-11         0.00000E+00
    0.15673E-07         0.52269E-11         0.00000E+00
    0.15672E-07         0.29353E-11         0.00000E+00
    0.15672E-07         0.93819E-12         0.00000E+00
    0.16233E-07         0.45249E-11         0.00000E+00
    0.16232E-07         0.11309E-10         0.00000E+00
    0.16231E-07         0.16107E-10         0.00000E+00
    0.16230E-07         0.19193E-10         0.00000E+00
    0.16229E-07         0.20815E-10         0.00000E+00
    0.16228E-07         0.21203E-10         0.00000E+00
    0.16227E-07         0.20575E-10         0.00000E+00
    0.16226E-07         0.19126E-10         0.00000E+00
    0.16225E-07         0.17030E-10         0.00000E+00
    0.16224E-07         0.14454E-10         0.00000E+00
    0.16224E-07         0.11573E-10         0.00000E+00
    0.16223E-07         0.85873E-11         0.00000E+00
    0.16223E-07         0.57227E-11         0.00000E+00
    0.16222E-07         0.31815E-11         0.00000E+00
    0.16222E-07         0.10516E-11         0.00000E+00
    0.16757E-07         0.49053E-11         0.00000E+00
    0.16757E-07         0.11966E-10         0.00000E+00
    0.16757E-07         0.16723E-10         0.00000E+00
    0.16757E-07         0.19607E-10         0.00000E+00
    0.16758E-07         0.20992E-10         0.00000E+00
    0.16759E-07         0.21194E-10         0.00000E+00
    0.16760E-07         0.20468E-10         0.00000E+00
    0.16761E-07         0.19013E-10         0.00000E+00
    0.16762E-07         0.16983E-10         0.00000E+00
    0.16763E-07         0.14506E-10         0.00000E+00
    0.16763E-07         0.11707E-10         0.00000E+00
    0.16763E-07         0.87412E-11         0.00000E+00
    0.16764E-07         0.58218E-11         0.00000E+00
    0.16764E-07         0.32078E-11         0.00000E+00
    0.16764E-07         0.11119E-11         0.00000E+00
    0.17267E-07         0.49723E-11         0.00000E+00
    0.17268E-07         0.11595E-10         0.00000E+00
    0.17269E-07         0.15682E-10         0.00000E+00
    0.17272E-07         0.17951E-10         0.00000E+00
    0.17275E-07         0.18896E-10         0.00000E+00
    0.17278E-07         0.18871E-10         0.00000E+00
    0.17282E-07         0.18122E-10         0.00000E+00
    0.17285E-07         0.16815E-10         0.00000E+00
    0.17289E-07         0.15069E-10         0.00000E+00
    0.17291E-07         0.12968E-10         0.00000E+00
    0.17293E-07         0.10585E-10         0.00000E+00
    0.17295E-07         0.80045E-11         0.00000E+00
    0.17296E-07         0.53773E-11         0.00000E+00
    0.17297E-07         0.29791E-11         0.00000E+00
    0.17297E-07         0.11219E-11         0.00000E+00
    0.17761E-07         0.44879E-11         0.00000E+00
    0.17763E-07         0.93881E-11         0.00000E+00
    0.17767E-07         0.12088E-10         0.00000E+00
    0.17773E-07         0.13423E-10         0.00000E+00
    0.17779E-07         0.13863E-10         0.00000E+00
    0.17786E-07         0.13687E-10         0.00000E+00
    0.17793E-07         0.13067E-10         0.00000E+00
    0.17799E-07         0.12110E-10         0.00000E+00
    0.17805E-07         0.10885E-10         0.00000E+00
    0.17810E-07         0.94385E-11         0.00000E+00
    0.17814E-07         0.78019E-11         0.00000E+00
    0.17817E-07         0.60069E-11         0.00000E+00
    0.17819E-07         0.41171E-11         0.00000E+00
    0.17821E-07         0.23247E-11         0.00000E+00
    0.17821E-07         0.11666E-11         0.00000E+00
    0.18237E-07         0.20342E-11         0.00000E+00
    0.18242E-07         0.38433E-11         0.00000E+00
    0.18251E-07         0.47598E-11         0.00000E+00
    0.18261E-07         0.51660E-11         0.00000E+00
    0.18271E-07         0.52641E-11         0.00000E+00
    0.18282E-07         0.51569E-11         0.00000E+00
    0.18292E-07         0.49035E-11         0.00000E+00
    0.18301E-07         0.45399E-11         0.00000E+00
    0.18310E-07         0.40885E-11         0.00000E+00
    0.18318E-07         0.35631E-11         0.00000E+00
    0.18324E-07         0.29716E-11         0.00000E+00
    0.18330E-07         0.23197E-11         0.00000E+00
    0.18334E-07         0.16198E-11         0.00000E+00
    0.18336E-07         0.92664E-12         0.00000E+00
    0.18338E-07         0.60920E-12         0.00000E+00
POINT_DATA        496
VECTORS vDarcyNodal double 
    0.34345E-09        -0.47640E-11         0.00000E+00
    0.34345E-09        -0.86139E-11         0.00000E+00
    0.34344E-09        -0.15448E-10         0.00000E+00
    0.34344E-09        -0.20609E-10         0.00000E+00
    0.34343E-09        -0.24217E-10         0.00000E+00
    0.34341E-09        -0.26395E-10         0.00000E+00
    0.34340E-09        -0.27269E-10         0.00000E+00
    0.34339E-09        -0.26973E-10         0.00000E+00
    0.34338E-09        -0.25643E-10         0.00000E+00
    0.34337E-09        -0.23424E-10         0.00000E+00
    0.34336E-09        -0.20464E-10         0.00000E+00
    0.34335E-09        -0.16919E-10         0.00000E+00
    0.34334E-09        -0.12950E-10         0.00000E+00
    0.34334E-09        -0.87232E-11         0.00000E+00
    0.34334E-09        -0.44125E-11         0.00000E+00
    0.34334E-09        -0.22580E-11         0.00000E+00
    0.68679E-09        -0.47617E-11         0.00000E+00
    0.68679E-09        -0.86098E-11         0.00000E+00
    0.68677E-09        -0.15441E-10         0.00000E+00
    0.68676E-09        -0.20600E-10         0.00000E+00
    0.68674E-09        -0.24206E-10         0.00000E+00
    0.68671E-09        -0.26383E-10         0.00000E+00
    0.68669E-09        -0.27257E-10         0.00000E+00
    0.68666E-09        -0.26961E-10         0.00000E+00
    0.68664E-09        -0.25632E-10         0.00000E+00
    0.68661E-09        -0.23414E-10         0.00000E+00
    0.68659E-09        -0.20455E-10         0.00000E+00
    0.68658E-09        -0.16912E-10         0.00000E+00
    0.68656E-09        -0.12944E-10         0.00000E+00
    0.68655E-09        -0.87197E-11         0.00000E+00
    0.68655E-09        -0.44107E-11         0.00000E+00
    0.68655E-09        -0.22570E-11         0.00000E+00
    0.13731E-08        -0.47542E-11         0.00000E+00
    0.13731E-08        -0.85968E-11         0.00000E+00
    0.13731E-08        -0.15418E-10         0.00000E+00
    0.13731E-08        -0.20570E-10         0.00000E+00
    0.13730E-08        -0.24172E-10         0.00000E+00
    0.13730E-08        -0.26346E-10         0.00000E+00
    0.13729E-08        -0.27220E-10         0.00000E+00
    0.13729E-08        -0.26924E-10         0.00000E+00
    0.13728E-08        -0.25597E-10         0.00000E+00
    0.13727E-08        -0.23381E-10         0.00000E+00
    0.13727E-08        -0.20427E-10         0.00000E+00
    0.13727E-08        -0.16888E-10         0.00000E+00
    0.13726E-08        -0.12927E-10         0.00000E+00
    0.13726E-08        -0.87082E-11         0.00000E+00
    0.13726E-08        -0.44048E-11         0.00000E+00
    0.13726E-08        -0.22537E-11         0.00000E+00
    0.20586E-08        -0.47405E-11         0.00000E+00
    0.20586E-08        -0.85727E-11         0.00000E+00
    0.20585E-08        -0.15376E-10         0.00000E+00
    0.20584E-08        -0.20515E-10         0.00000E+00
    0.20584E-08        -0.24109E-10         0.00000E+00
    0.20583E-08        -0.26278E-10         0.00000E+00
    0.20582E-08        -0.27149E-10         0.00000E+00
    0.20581E-08        -0.26854E-10         0.00000E+00
    0.20580E-08        -0.25530E-10         0.00000E+00
    0.20579E-08        -0.23320E-10         0.00000E+00
    0.20578E-08        -0.20373E-10         0.00000E+00
    0.20578E-08        -0.16844E-10         0.00000E+00
    0.20577E-08        -0.12893E-10         0.00000E+00
    0.20577E-08        -0.86862E-11         0.00000E+00
    0.20577E-08        -0.43936E-11         0.00000E+00
    0.20577E-08        -0.22475E-11         0.00000E+00
    0.27427E-08        -0.47187E-11         0.00000E+00
    0.27426E-08        -0.85342E-11         0.00000E+00
    0.27426E-08        -0.15308E-10         0.00000E+00
    0.27425E-08        -0.20427E-10         0.00000E+00
    0.27423E-08        -0.24006E-10         0.00000E+00
    0.27422E-08        -0.26166E-10         0.00000E+00
    0.27421E-08        -0.27034E-10         0.00000E+00
    0.27419E-08        -0.26740E-10         0.00000E+00
    0.27418E-08        -0.25421E-10         0.00000E+00
    0.27416E-08        -0.23220E-10         0.00000E+00
    0.27415E-08        -0.20285E-10         0.00000E+00
    0.27414E-08        -0.16772E-10         0.00000E+00
    0.27413E-08        -0.12838E-10         0.00000E+00
    0.27413E-08        -0.86496E-11         0.00000E+00
    0.27412E-08        -0.43749E-11         0.00000E+00
    0.27412E-08        -0.22374E-11         0.00000E+00
    0.34250E-08        -0.46861E-11         0.00000E+00
    0.34249E-08        -0.84763E-11         0.00000E+00
    0.34248E-08        -0.15206E-10         0.00000E+00
    0.34247E-08        -0.20292E-10         0.00000E+00
    0.34245E-08        -0.23849E-10         0.00000E+00
    0.34243E-08        -0.25997E-10         0.00000E+00
    0.34241E-08        -0.26859E-10         0.00000E+00
    0.34238E-08        -0.26566E-10         0.00000E+00
    0.34236E-08        -0.25255E-10         0.00000E+00
    0.34234E-08        -0.23067E-10         0.00000E+00
    0.34233E-08        -0.20151E-10         0.00000E+00
    0.34231E-08        -0.16660E-10         0.00000E+00
    0.34230E-08        -0.12753E-10         0.00000E+00
    0.34229E-08        -0.85925E-11         0.00000E+00
    0.34228E-08        -0.43458E-11         0.00000E+00
    0.34228E-08        -0.22219E-11         0.00000E+00
    0.41050E-08        -0.46391E-11         0.00000E+00
    0.41049E-08        -0.83926E-11         0.00000E+00
    0.41048E-08        -0.15058E-10         0.00000E+00
    0.41046E-08        -0.20097E-10         0.00000E+00
    0.41043E-08        -0.23621E-10         0.00000E+00
    0.41040E-08        -0.25749E-10         0.00000E+00
    0.41037E-08        -0.26603E-10         0.00000E+00
    0.41034E-08        -0.26312E-10         0.00000E+00
    0.41031E-08        -0.25012E-10         0.00000E+00
    0.41028E-08        -0.22843E-10         0.00000E+00
    0.41026E-08        -0.19954E-10         0.00000E+00
    0.41023E-08        -0.16496E-10         0.00000E+00
    0.41022E-08        -0.12627E-10         0.00000E+00
    0.41020E-08        -0.85079E-11         0.00000E+00
    0.41020E-08        -0.43028E-11         0.00000E+00
    0.41019E-08        -0.21994E-11         0.00000E+00
    0.47823E-08        -0.45735E-11         0.00000E+00
    0.47822E-08        -0.82755E-11         0.00000E+00
    0.47820E-08        -0.14851E-10         0.00000E+00
    0.47817E-08        -0.19822E-10         0.00000E+00
    0.47814E-08        -0.23300E-10         0.00000E+00
    0.47810E-08        -0.25399E-10         0.00000E+00
    0.47806E-08        -0.26241E-10         0.00000E+00
    0.47801E-08        -0.25953E-10         0.00000E+00
    0.47797E-08        -0.24668E-10         0.00000E+00
    0.47793E-08        -0.22527E-10         0.00000E+00
    0.47789E-08        -0.19675E-10         0.00000E+00
    0.47786E-08        -0.16264E-10         0.00000E+00
    0.47784E-08        -0.12448E-10         0.00000E+00
    0.47782E-08        -0.83873E-11         0.00000E+00
    0.47781E-08        -0.42416E-11         0.00000E+00
    0.47781E-08        -0.21677E-11         0.00000E+00
    0.54565E-08        -0.44843E-11         0.00000E+00
    0.54564E-08        -0.81158E-11         0.00000E+00
    0.54561E-08        -0.14567E-10         0.00000E+00
    0.54557E-08        -0.19445E-10         0.00000E+00
    0.54552E-08        -0.22859E-10         0.00000E+00
    0.54547E-08        -0.24920E-10         0.00000E+00
    0.54541E-08        -0.25745E-10         0.00000E+00
    0.54535E-08        -0.25461E-10         0.00000E+00
    0.54529E-08        -0.24198E-10         0.00000E+00
    0.54524E-08        -0.22094E-10         0.00000E+00
    0.54519E-08        -0.19294E-10         0.00000E+00
    0.54515E-08        -0.15946E-10         0.00000E+00
    0.54512E-08        -0.12203E-10         0.00000E+00
    0.54509E-08        -0.82210E-11         0.00000E+00
    0.54508E-08        -0.41573E-11         0.00000E+00
    0.54507E-08        -0.21246E-11         0.00000E+00
    0.61270E-08        -0.43658E-11         0.00000E+00
    0.61269E-08        -0.79031E-11         0.00000E+00
    0.61265E-08        -0.14188E-10         0.00000E+00
    0.61260E-08        -0.18943E-10         0.00000E+00
    0.61254E-08        -0.22270E-10         0.00000E+00
    0.61246E-08        -0.24279E-10         0.00000E+00
    0.61239E-08        -0.25083E-10         0.00000E+00
    0.61231E-08        -0.24804E-10         0.00000E+00
    0.61224E-08        -0.23571E-10         0.00000E+00
    0.61217E-08        -0.21518E-10         0.00000E+00
    0.61210E-08        -0.18786E-10         0.00000E+00
    0.61205E-08        -0.15522E-10         0.00000E+00
    0.61201E-08        -0.11875E-10         0.00000E+00
    0.61197E-08        -0.79989E-11         0.00000E+00
    0.61195E-08        -0.40448E-11         0.00000E+00
    0.61195E-08        -0.20675E-11         0.00000E+00
    0.67935E-08        -0.42114E-11         0.00000E+00
    0.67933E-08        -0.76258E-11         0.00000E+00
    0.67928E-08        -0.13694E-10         0.00000E+00
    0.67922E-08        -0.18287E-10         0.00000E+00
    0.67913E-08        -0.21502E-10         0.00000E+00
    0.67904E-08        -0.23444E-10         0.00000E+00
    0.67894E-08        -0.24220E-10         0.00000E+00
    0.67884E-08        -0.23950E-10         0.00000E+00
    0.67875E-08        -0.22755E-10         0.00000E+00
    0.67866E-08        -0.20769E-10         0.00000E+00
    0.67858E-08        -0.18127E-10         0.00000E+00
    0.67851E-08        -0.14972E-10         0.00000E+00
    0.67845E-08        -0.11450E-10         0.00000E+00
    0.67841E-08        -0.77101E-11         0.00000E+00
    0.67839E-08        -0.38988E-11         0.00000E+00
    0.67838E-08        -0.19938E-11         0.00000E+00
    0.74554E-08        -0.40144E-11         0.00000E+00
    0.74551E-08        -0.72717E-11         0.00000E+00
    0.74546E-08        -0.13062E-10         0.00000E+00
    0.74537E-08        -0.17448E-10         0.00000E+00
    0.74527E-08        -0.20521E-10         0.00000E+00
    0.74515E-08        -0.22377E-10         0.00000E+00
    0.74503E-08        -0.23120E-10         0.00000E+00
    0.74490E-08        -0.22861E-10         0.00000E+00
    0.74478E-08        -0.21718E-10         0.00000E+00
    0.74467E-08        -0.19818E-10         0.00000E+00
    0.74457E-08        -0.17291E-10         0.00000E+00
    0.74448E-08        -0.14275E-10         0.00000E+00
    0.74441E-08        -0.10912E-10         0.00000E+00
    0.74436E-08        -0.73440E-11         0.00000E+00
    0.74433E-08        -0.37139E-11         0.00000E+00
    0.74432E-08        -0.19010E-11         0.00000E+00
    0.81122E-08        -0.37677E-11         0.00000E+00
    0.81119E-08        -0.68280E-11         0.00000E+00
    0.81112E-08        -0.12271E-10         0.00000E+00
    0.81102E-08        -0.16398E-10         0.00000E+00
    0.81089E-08        -0.19292E-10         0.00000E+00
    0.81074E-08        -0.21043E-10         0.00000E+00
    0.81059E-08        -0.21746E-10         0.00000E+00
    0.81044E-08        -0.21504E-10         0.00000E+00
    0.81029E-08        -0.20427E-10         0.00000E+00
    0.81015E-08        -0.18635E-10         0.00000E+00
    0.81003E-08        -0.16253E-10         0.00000E+00
    0.80992E-08        -0.13411E-10         0.00000E+00
    0.80983E-08        -0.10245E-10         0.00000E+00
    0.80977E-08        -0.68907E-11         0.00000E+00
    0.80973E-08        -0.34854E-11         0.00000E+00
    0.80972E-08        -0.17868E-11         0.00000E+00
    0.87636E-08        -0.34642E-11         0.00000E+00
    0.87633E-08        -0.62820E-11         0.00000E+00
    0.87624E-08        -0.11297E-10         0.00000E+00
    0.87611E-08        -0.15105E-10         0.00000E+00
    0.87595E-08        -0.17782E-10         0.00000E+00
    0.87578E-08        -0.19405E-10         0.00000E+00
    0.87559E-08        -0.20061E-10         0.00000E+00
    0.87541E-08        -0.19842E-10         0.00000E+00
    0.87523E-08        -0.18850E-10         0.00000E+00
    0.87506E-08        -0.17195E-10         0.00000E+00
    0.87491E-08        -0.14991E-10         0.00000E+00
    0.87478E-08        -0.12362E-10         0.00000E+00
    0.87468E-08        -0.94359E-11         0.00000E+00
    0.87460E-08        -0.63416E-11         0.00000E+00
    0.87456E-08        -0.32089E-11         0.00000E+00
    0.87454E-08        -0.16491E-11         0.00000E+00
    0.94090E-08        -0.30977E-11         0.00000E+00
    0.94086E-08        -0.56224E-11         0.00000E+00
    0.94075E-08        -0.10120E-10         0.00000E+00
    0.94060E-08        -0.13545E-10         0.00000E+00
    0.94041E-08        -0.15959E-10         0.00000E+00
    0.94020E-08        -0.17431E-10         0.00000E+00
    0.93998E-08        -0.18033E-10         0.00000E+00
    0.93976E-08        -0.17847E-10         0.00000E+00
    0.93955E-08        -0.16960E-10         0.00000E+00
    0.93935E-08        -0.15472E-10         0.00000E+00
    0.93917E-08        -0.13485E-10         0.00000E+00
    0.93902E-08        -0.11114E-10         0.00000E+00
    0.93890E-08        -0.84754E-11         0.00000E+00
    0.93881E-08        -0.56905E-11         0.00000E+00
    0.93876E-08        -0.28817E-11         0.00000E+00
    0.93874E-08        -0.14865E-11         0.00000E+00
    0.10048E-07        -0.26630E-11         0.00000E+00
    0.10047E-07        -0.48400E-11         0.00000E+00
    0.10046E-07        -0.87243E-11         0.00000E+00
    0.10044E-07        -0.11694E-10         0.00000E+00
    0.10042E-07        -0.13799E-10         0.00000E+00
    0.10040E-07        -0.15093E-10         0.00000E+00
    0.10037E-07        -0.15636E-10         0.00000E+00
    0.10035E-07        -0.15492E-10         0.00000E+00
    0.10032E-07        -0.14736E-10         0.00000E+00
    0.10030E-07        -0.13449E-10         0.00000E+00
    0.10028E-07        -0.11723E-10         0.00000E+00
    0.10026E-07        -0.96578E-11         0.00000E+00
    0.10025E-07        -0.73579E-11         0.00000E+00
    0.10024E-07        -0.49349E-11         0.00000E+00
    0.10023E-07        -0.25027E-11         0.00000E+00
    0.10023E-07        -0.12987E-11         0.00000E+00
    0.10680E-07        -0.21570E-11         0.00000E+00
    0.10679E-07        -0.39288E-11         0.00000E+00
    0.10678E-07        -0.70986E-11         0.00000E+00
    0.10676E-07        -0.95383E-11         0.00000E+00
    0.10673E-07        -0.11284E-10         0.00000E+00
    0.10670E-07        -0.12374E-10         0.00000E+00
    0.10667E-07        -0.12851E-10         0.00000E+00
    0.10664E-07        -0.12762E-10         0.00000E+00
    0.10662E-07        -0.12163E-10         0.00000E+00
    0.10659E-07        -0.11118E-10         0.00000E+00
    0.10657E-07        -0.97004E-11         0.00000E+00
    0.10655E-07        -0.79924E-11         0.00000E+00
    0.10653E-07        -0.60851E-11         0.00000E+00
    0.10652E-07        -0.40771E-11         0.00000E+00
    0.10651E-07        -0.20734E-11         0.00000E+00
    0.10651E-07        -0.10862E-11         0.00000E+00
    0.11304E-07        -0.15795E-11         0.00000E+00
    0.11304E-07        -0.28882E-11         0.00000E+00
    0.11302E-07        -0.52409E-11         0.00000E+00
    0.11300E-07        -0.70746E-11         0.00000E+00
    0.11297E-07        -0.84101E-11         0.00000E+00
    0.11294E-07        -0.92688E-11         0.00000E+00
    0.11290E-07        -0.96744E-11         0.00000E+00
    0.11287E-07        -0.96546E-11         0.00000E+00
    0.11284E-07        -0.92434E-11         0.00000E+00
    0.11281E-07        -0.84826E-11         0.00000E+00
    0.11278E-07        -0.74233E-11         0.00000E+00
    0.11276E-07        -0.61272E-11         0.00000E+00
    0.11274E-07        -0.46667E-11         0.00000E+00
    0.11273E-07        -0.31255E-11         0.00000E+00
    0.11272E-07        -0.15986E-11         0.00000E+00
    0.11272E-07        -0.85131E-12         0.00000E+00
    0.11921E-07        -0.93356E-12         0.00000E+00
    0.11920E-07        -0.17237E-11         0.00000E+00
    0.11918E-07        -0.31609E-11         0.00000E+00
    0.11916E-07        -0.43146E-11         0.00000E+00
    0.11913E-07        -0.51897E-11         0.00000E+00
    0.11909E-07        -0.57900E-11         0.00000E+00
    0.11905E-07        -0.61198E-11         0.00000E+00
    0.11902E-07        -0.61846E-11         0.00000E+00
    0.11898E-07        -0.59937E-11         0.00000E+00
    0.11895E-07        -0.55622E-11         0.00000E+00
    0.11892E-07        -0.49141E-11         0.00000E+00
    0.11890E-07        -0.40848E-11         0.00000E+00
    0.11888E-07        -0.31235E-11         0.00000E+00
    0.11886E-07        -0.20961E-11         0.00000E+00
    0.11886E-07        -0.10866E-11         0.00000E+00
    0.11885E-07        -0.59797E-12         0.00000E+00
    0.12529E-07        -0.22670E-12         0.00000E+00
    0.12528E-07        -0.44877E-12         0.00000E+00
    0.12526E-07        -0.88246E-12         0.00000E+00
    0.12523E-07        -0.12897E-11         0.00000E+00
    0.12520E-07        -0.16586E-11         0.00000E+00
    0.12516E-07        -0.19760E-11         0.00000E+00
    0.12512E-07        -0.22261E-11         0.00000E+00
    0.12508E-07        -0.23916E-11         0.00000E+00
    0.12504E-07        -0.24542E-11         0.00000E+00
    0.12501E-07        -0.23978E-11         0.00000E+00
    0.12498E-07        -0.22130E-11         0.00000E+00
    0.12495E-07        -0.19028E-11         0.00000E+00
    0.12493E-07        -0.14881E-11         0.00000E+00
    0.12492E-07        -0.10131E-11         0.00000E+00
    0.12491E-07        -0.54984E-12         0.00000E+00
    0.12491E-07        -0.33200E-12         0.00000E+00
    0.13128E-07         0.52912E-12         0.00000E+00
    0.13127E-07         0.91423E-12         0.00000E+00
    0.13125E-07         0.15534E-11         0.00000E+00
    0.13122E-07         0.19450E-11         0.00000E+00
    0.13118E-07         0.21182E-11         0.00000E+00
    0.13114E-07         0.21032E-11         0.00000E+00
    0.13110E-07         0.19343E-11         0.00000E+00
    0.13106E-07         0.16522E-11         0.00000E+00
    0.13102E-07         0.13047E-11         0.00000E+00
    0.13098E-07         0.94352E-12         0.00000E+00
    0.13095E-07         0.61765E-12         0.00000E+00
    0.13092E-07         0.36345E-12         0.00000E+00
    0.13090E-07         0.19422E-12         0.00000E+00
    0.13089E-07         0.90905E-13         0.00000E+00
    0.13088E-07        -0.50482E-14         0.00000E+00
    0.13088E-07        -0.61160E-13         0.00000E+00
    0.13717E-07         0.13172E-11         0.00000E+00
    0.13716E-07         0.23333E-11         0.00000E+00
    0.13714E-07         0.40864E-11         0.00000E+00
    0.13711E-07         0.53058E-11         0.00000E+00
    0.13707E-07         0.60396E-11         0.00000E+00
    0.13703E-07         0.63353E-11         0.00000E+00
    0.13699E-07         0.62449E-11         0.00000E+00
    0.13695E-07         0.58319E-11         0.00000E+00
    0.13690E-07         0.51742E-11         0.00000E+00
    0.13687E-07         0.43627E-11         0.00000E+00
    0.13684E-07         0.34909E-11         0.00000E+00
    0.13681E-07         0.26407E-11         0.00000E+00
    0.13679E-07         0.18654E-11         0.00000E+00
    0.13678E-07         0.11754E-11         0.00000E+00
    0.13677E-07         0.52756E-12         0.00000E+00
    0.13677E-07         0.20514E-12         0.00000E+00
    0.14296E-07         0.21160E-11         0.00000E+00
    0.14295E-07         0.37662E-11         0.00000E+00
    0.14293E-07         0.66344E-11         0.00000E+00
    0.14290E-07         0.86756E-11         0.00000E+00
    0.14286E-07         0.99605E-11         0.00000E+00
    0.14282E-07         0.10556E-10         0.00000E+00
    0.14278E-07         0.10533E-10         0.00000E+00
    0.14274E-07         0.99768E-11         0.00000E+00
    0.14270E-07         0.89969E-11         0.00000E+00
    0.14267E-07         0.77223E-11         0.00000E+00
    0.14264E-07         0.62926E-11         0.00000E+00
    0.14261E-07         0.48380E-11         0.00000E+00
    0.14259E-07         0.34568E-11         0.00000E+00
    0.14258E-07         0.21938E-11         0.00000E+00
    0.14258E-07         0.10249E-11         0.00000E+00
    0.14257E-07         0.45623E-12         0.00000E+00
    0.14864E-07         0.28988E-11         0.00000E+00
    0.14863E-07         0.51589E-11         0.00000E+00
    0.14861E-07         0.90903E-11         0.00000E+00
    0.14858E-07         0.11898E-10         0.00000E+00
    0.14855E-07         0.13683E-10         0.00000E+00
    0.14851E-07         0.14536E-10         0.00000E+00
    0.14848E-07         0.14554E-10         0.00000E+00
    0.14844E-07         0.13848E-10         0.00000E+00
    0.14840E-07         0.12556E-10         0.00000E+00
    0.14837E-07         0.10841E-10         0.00000E+00
    0.14835E-07         0.88793E-11         0.00000E+00
    0.14833E-07         0.68476E-11         0.00000E+00
    0.14831E-07         0.48908E-11         0.00000E+00
    0.14830E-07         0.30951E-11         0.00000E+00
    0.14829E-07         0.14622E-11         0.00000E+00
    0.14829E-07         0.68089E-12         0.00000E+00
    0.15420E-07         0.36329E-11         0.00000E+00
    0.15420E-07         0.64435E-11         0.00000E+00
    0.15418E-07         0.11316E-10         0.00000E+00
    0.15416E-07         0.14769E-10         0.00000E+00
    0.15413E-07         0.16944E-10         0.00000E+00
    0.15410E-07         0.17972E-10         0.00000E+00
    0.15407E-07         0.17984E-10         0.00000E+00
    0.15404E-07         0.17128E-10         0.00000E+00
    0.15401E-07         0.15568E-10         0.00000E+00
    0.15399E-07         0.13484E-10         0.00000E+00
    0.15397E-07         0.11075E-10         0.00000E+00
    0.15395E-07         0.85450E-11         0.00000E+00
    0.15394E-07         0.60837E-11         0.00000E+00
    0.15393E-07         0.38266E-11         0.00000E+00
    0.15393E-07         0.18147E-11         0.00000E+00
    0.15392E-07         0.86811E-12         0.00000E+00
    0.15964E-07         0.42766E-11         0.00000E+00
    0.15964E-07         0.75319E-11         0.00000E+00
    0.15963E-07         0.13131E-10         0.00000E+00
    0.15961E-07         0.17018E-10         0.00000E+00
    0.15959E-07         0.19401E-10         0.00000E+00
    0.15957E-07         0.20470E-10         0.00000E+00
    0.15955E-07         0.20415E-10         0.00000E+00
    0.15954E-07         0.19424E-10         0.00000E+00
    0.15952E-07         0.17679E-10         0.00000E+00
    0.15951E-07         0.15362E-10         0.00000E+00
    0.15950E-07         0.12661E-10         0.00000E+00
    0.15949E-07         0.97832E-11         0.00000E+00
    0.15948E-07         0.69443E-11         0.00000E+00
    0.15947E-07         0.43356E-11         0.00000E+00
    0.15947E-07         0.20588E-11         0.00000E+00
    0.15947E-07         0.10083E-11         0.00000E+00
    0.16495E-07         0.47732E-11         0.00000E+00
    0.16495E-07         0.83024E-11         0.00000E+00
    0.16494E-07         0.14285E-10         0.00000E+00
    0.16494E-07         0.18282E-10         0.00000E+00
    0.16493E-07         0.20608E-10         0.00000E+00
    0.16493E-07         0.21548E-10         0.00000E+00
    0.16493E-07         0.21363E-10         0.00000E+00
    0.16493E-07         0.20277E-10         0.00000E+00
    0.16493E-07         0.18477E-10         0.00000E+00
    0.16493E-07         0.16123E-10         0.00000E+00
    0.16493E-07         0.13366E-10         0.00000E+00
    0.16493E-07         0.10377E-10         0.00000E+00
    0.16493E-07         0.73657E-11         0.00000E+00
    0.16493E-07         0.45685E-11         0.00000E+00
    0.16493E-07         0.21742E-11         0.00000E+00
    0.16493E-07         0.10949E-11         0.00000E+00
    0.17012E-07         0.50374E-11         0.00000E+00
    0.17012E-07         0.85686E-11         0.00000E+00
    0.17013E-07         0.14404E-10         0.00000E+00
    0.17014E-07         0.18048E-10         0.00000E+00
    0.17015E-07         0.19992E-10         0.00000E+00
    0.17017E-07         0.20639E-10         0.00000E+00
    0.17020E-07         0.20300E-10         0.00000E+00
    0.17022E-07         0.19204E-10         0.00000E+00
    0.17024E-07         0.17519E-10         0.00000E+00
    0.17026E-07         0.15366E-10         0.00000E+00
    0.17028E-07         0.12847E-10         0.00000E+00
    0.17029E-07         0.10071E-10         0.00000E+00
    0.17030E-07         0.71973E-11         0.00000E+00
    0.17030E-07         0.44611E-11         0.00000E+00
    0.17030E-07         0.21455E-11         0.00000E+00
    0.17030E-07         0.11289E-11         0.00000E+00
    0.17514E-07         0.49072E-11         0.00000E+00
    0.17514E-07         0.79985E-11         0.00000E+00
    0.17516E-07         0.12873E-10         0.00000E+00
    0.17520E-07         0.15585E-10         0.00000E+00
    0.17525E-07         0.16855E-10         0.00000E+00
    0.17530E-07         0.17129E-10         0.00000E+00
    0.17535E-07         0.16694E-10         0.00000E+00
    0.17540E-07         0.15733E-10         0.00000E+00
    0.17545E-07         0.14366E-10         0.00000E+00
    0.17549E-07         0.12672E-10         0.00000E+00
    0.17552E-07         0.10706E-10         0.00000E+00
    0.17555E-07         0.85176E-11         0.00000E+00
    0.17557E-07         0.61844E-11         0.00000E+00
    0.17558E-07         0.38953E-11         0.00000E+00
    0.17559E-07         0.19555E-11         0.00000E+00
    0.17559E-07         0.11148E-11         0.00000E+00
    0.17997E-07         0.40685E-11         0.00000E+00
    0.18000E-07         0.58775E-11         0.00000E+00
    0.18005E-07         0.86030E-11         0.00000E+00
    0.18013E-07         0.99258E-11         0.00000E+00
    0.18021E-07         0.10430E-10         0.00000E+00
    0.18030E-07         0.10421E-10         0.00000E+00
    0.18038E-07         0.10060E-10         0.00000E+00
    0.18046E-07         0.94435E-11         0.00000E+00
    0.18054E-07         0.86285E-11         0.00000E+00
    0.18061E-07         0.76516E-11         0.00000E+00
    0.18067E-07         0.65347E-11         0.00000E+00
    0.18072E-07         0.52913E-11         0.00000E+00
    0.18075E-07         0.39395E-11         0.00000E+00
    0.18078E-07         0.25465E-11         0.00000E+00
    0.18079E-07         0.15358E-11         0.00000E+00
    0.18080E-07         0.12184E-11         0.00000E+00
    0.18235E-07         0.00000E+00         0.00000E+00
    0.18239E-07         0.00000E+00         0.00000E+00
    0.18246E-07         0.00000E+00         0.00000E+00
    0.18256E-07         0.00000E+00         0.00000E+00
    0.18266E-07         0.00000E+00         0.00000E+00
    0.18277E-07         0.00000E+00         0.00000E+00
    0.18287E-07         0.00000E+00         0.00000E+00
    0.18297E-07         0.00000E+00         0.00000E+00
    0.18306E-07         0.00000E+00         0.00000E+00
    0.18314E-07         0.00000E+00         0.00000E+00
    0.18321E-07         0.00000E+00         0.00000E+00
    0.18327E-07         0.00000E+00         0.00000E+00
    0.18332E-07         0.00000E+00         0.00000E+00
    0.18335E-07         0.00000E+00         0.00000E+00
    0.18337E-07         0.00000E+00         0.00000E+00
    0.18338E-07         0.00000E+00         0.00000E+00
CELL_DATA        450
TENSORS stressef double 
   -0.18270E+08         0.83876E+02         0.00000E+00
    0.83876E+02        -0.47218E+08         0.00000E+00
    0.00000E+00         0.00000E+00        -0.18306E+08
 
   -0.18267E+08         0.25098E+03         0.00000E+00
    0.25098E+03        -0.47218E+08         0.00000E+00
    0.00000E+00         0.00000E+00        -0.18308E+08
 
   -0.18265E+08         0.41553E+03         0.00000E+00
    0.41553E+03        -0.47217E+08         0.00000E+00
    0.00000E+00         0.00000E+00        -0.18309E+08
 
   -0.18264E+08         0.57723E+03         0.00000E+00
    0.57723E+03        -0.47216E+08         0.00000E+00
    0.00000E+00         0.00000E+00        -0.18310E+08
 
   -0.18262E+08         0.73591E+03         0.00000E+00
    0.73591E+03        -0.47215E+08         0.00000E+00
    0.00000E+00         0.00000E+00        -0.18309E+08
 
   -0.18261E+08         0.89149E+03         0.00000E+00
    0.89149E+03        -0.47213E+08         0.00000E+00
    0.00000E+00         0.00000E+00        -0.18308E+08
 
   -0.18260E+08         0.10440E+04         0.00000E+00
    0.10440E+04        -0.47212E+08         0.00000E+00
    0.00000E+00         0.00000E+00        -0.18307E+08
 
   -0.18260E+08         0.11938E+04         0.00000E+00
    0.11938E+04        -0.47209E+08         0.00000E+00
    0.00000E+00         0.00000E+00        -0.18304E+08
 
   -0.18260E+08         0.13410E+04         0.00000E+00
    0.13410E+04        -0.47207E+08         0.00000E+00
    0.00000E+00         0.00000E+00        -0.18301E+08
 
   -0.18260E+08         0.14861E+04         0.00000E+00
    0.14861E+04        -0.47204E+08         0.00000E+00
    0.00000E+00         0.00000E+00        -0.18297E+08
 
   -0.18260E+08         0.16298E+04         0.00000E+00
    0.16298E+04        -0.47201E+08         0.00000E+00
    0.00000E+00         0.00000E+00        -0.18293E+08
 
   -0.18261E+08         0.17726E+04         0.00000E+00
    0.17726E+04        -0.47198E+08         0.00000E+00
    0.00000E+00         0.00000E+00        -0.18288E+08
 
   -0.18262E+08         0.19154E+04         0.00000E+00
    0.19154E+04        -0.47194E+08         0.00000E+00
    0.00000E+00         0.00000E+00        -0.18282E+08
 
   -0.18263E+08         0.20587E+04         0.00000E+00
    0.20587E+04        -0.47190E+08         0.00000E+00
    0.00000E+00         0.00000E+00        -0.18276E+08
 
   -0.18264E+08         0.22035E+04         0.00000E+00
    0.22035E+04        -0.47186E+08         0.00000E+00
    0.00000E+00         0.00000E+00        -0.18269E+08
 
   -0.18271E+08         0.25150E+03         0.00000E+00
    0.25150E+03        -0.47219E+08         0.00000E+00
    0.00000E+00         0.00000E+00        -0.18307E+08
 
   -0.18268E+08         0.75246E+03         0.00000E+00
    0.75246E+03        -0.47219E+08         0.00000E+00
    0.00000E+00         0.00000E+00        -0.18309E+08
 
   -0.18266E+08         0.12456E+04         0.00000E+00
    0.12456E+04        -0.47218E+08         0.00000E+00
    0.00000E+00         0.00000E+00        -0.18310E+08
 
   -0.18264E+08         0.17300E+04         0.00000E+00
    0.17300E+04        -0.47218E+08         0.00000E+00
    0.00000E+00         0.00000E+00        -0.18310E+08
 
   -0.18263E+08         0.22053E+04         0.00000E+00
    0.22053E+04        -0.47216E+08         0.00000E+00
    0.00000E+00         0.00000E+00        -0.18310E+08
 
   -0.18262E+08         0.26711E+04         0.00000E+00
    0.26711E+04        -0.47215E+08         0.00000E+00
    0.00000E+00         0.00000E+00        -0.18309E+08
 
   -0.18261E+08         0.31277E+04         0.00000E+00
    0.31277E+04        -0.47213E+08         0.00000E+00
    0.00000E+00         0.00000E+00        -0.18307E+08
 
   -0.18261E+08         0.35758E+04         0.00000E+00
    0.35758E+04        -0.47211E+08         0.00000E+00
    0.00000E+00         0.00000E+00        -0.18305E+08
 
   -0.18261E+08         0.40163E+04         0.00000E+00
    0.40163E+04        -0.47208E+08         0.00000E+00
    0.00000E+00         0.00000E+00        -0.18302E+08
 
   -0.18261E+08         0.44506E+04         0.00000E+00
    0.44506E+04        -0.47205E+08         0.00000E+00
    0.00000E+00         0.00000E+00        -0.18298E+08
 
   -0.18261E+08         0.48806E+04         0.00000E+00
    0.48806E+04        -0.47202E+08         0.00000E+00
    0.00000E+00         0.00000E+00        -0.18294E+08
 
   -0.18262E+08         0.53080E+04         0.00000E+00
    0.53080E+04        -0.47199E+08         0.00000E+00
    0.00000E+00         0.00000E+00        -0.18289E+08
 
   -0.18263E+08         0.57350E+04         0.00000E+00
    0.57350E+04        -0.47195E+08         0.00000E+00
    0.00000E+00         0.00000E+00        -0.18283E+08
 
   -0.18264E+08         0.61640E+04         0.00000E+00
    0.61640E+04        -0.47191E+08         0.00000E+00
    0.00000E+00         0.00000E+00        -0.18277E+08
 
   -0.18265E+08         0.65973E+04         0.00000E+00
    0.65973E+04        -0.47187E+08         0.00000E+00
    0.00000E+00         0.00000E+00        -0.18270E+08
 
   -0.18272E+08         0.41868E+03         0.00000E+00
    0.41868E+03        -0.47222E+08         0.00000E+00
    0.00000E+00         0.00000E+00        -0.18308E+08
 
   -0.18270E+08         0.12525E+04         0.00000E+00
    0.12525E+04        -0.47222E+08         0.00000E+00
    0.00000E+00         0.00000E+00        -0.18310E+08
 
   -0.18268E+08         0.20726E+04         0.00000E+00
    0.20726E+04        -0.47221E+08         0.00000E+00
    0.00000E+00         0.00000E+00        -0.18311E+08
 
   -0.18266E+08         0.28777E+04         0.00000E+00
    0.28777E+04        -0.47220E+08         0.00000E+00
    0.00000E+00         0.00000E+00        -0.18312E+08
 
   -0.18265E+08         0.36670E+04         0.00000E+00
    0.36670E+04        -0.47219E+08         0.00000E+00
    0.00000E+00         0.00000E+00        -0.18311E+08
 
   -0.18264E+08         0.44402E+04         0.00000E+00
    0.44402E+04        -0.47217E+08         0.00000E+00
    0.00000E+00         0.00000E+00        -0.18310E+08
 
   -0.18263E+08         0.51979E+04         0.00000E+00
    0.51979E+04        -0.47215E+08         0.00000E+00
    0.00000E+00         0.00000E+00        -0.18309E+08
 
   -0.18263E+08         0.59411E+04         0.00000E+00
    0.59411E+04        -0.47213E+08         0.00000E+00
    0.00000E+00         0.00000E+00        -0.18306E+08
 
   -0.18262E+08         0.66716E+04         0.00000E+00
    0.66716E+04        -0.47211E+08         0.00000E+00
    0.00000E+00         0.00000E+00        -0.18303E+08
 
   -0.18263E+08         0.73918E+04         0.00000E+00
    0.73918E+04        -0.47208E+08         0.00000E+00
    0.00000E+00         0.00000E+00        -0.18300E+08
 
   -0.18263E+08         0.81046E+04         0.00000E+00
    0.81046E+04        -0.47205E+08         0.00000E+00
    0.00000E+00         0.00000E+00        -0.18295E+08
 
   -0.18264E+08         0.88133E+04         0.00000E+00
    0.88133E+04        -0.47202E+08         0.00000E+00
    0.00000E+00         0.00000E+00        -0.18290E+08
 
   -0.18265E+08         0.95214E+04         0.00000E+00
    0.95214E+04        -0.47198E+08         0.00000E+00
    0.00000E+00         0.00000E+00        -0.18284E+08
 
   -0.18266E+08         0.10233E+05         0.00000E+00
    0.10233E+05        -0.47194E+08         0.00000E+00
    0.00000E+00         0.00000E+00        -0.18278E+08
 
   -0.18267E+08         0.10951E+05         0.00000E+00
    0.10951E+05        -0.47190E+08         0.00000E+00
    0.00000E+00         0.00000E+00        -0.18271E+08
 
   -0.18275E+08         0.58502E+03         0.00000E+00
    0.58502E+03        -0.47225E+08         0.00000E+00
    0.00000E+00         0.00000E+00        -0.18310E+08
 
   -0.18273E+08         0.17496E+04         0.00000E+00
    0.17496E+04        -0.47225E+08         0.00000E+00
    0.00000E+00         0.00000E+00        -0.18312E+08
 
   -0.18271E+08         0.28940E+04         0.00000E+00
    0.28940E+04        -0.47225E+08         0.00000E+00
    0.00000E+00         0.00000E+00        -0.18313E+08
 
   -0.18269E+08         0.40163E+04         0.00000E+00
    0.40163E+04        -0.47224E+08         0.00000E+00
    0.00000E+00         0.00000E+00        -0.18314E+08
 
   -0.18268E+08         0.51154E+04         0.00000E+00
    0.51154E+04        -0.47222E+08         0.00000E+00
    0.00000E+00         0.00000E+00        -0.18314E+08
 
   -0.18267E+08         0.61914E+04         0.00000E+00
    0.61914E+04        -0.47221E+08         0.00000E+00
    0.00000E+00         0.00000E+00        -0.18313E+08
 
   -0.18266E+08         0.72449E+04         0.00000E+00
    0.72449E+04        -0.47219E+08         0.00000E+00
    0.00000E+00         0.00000E+00        -0.18311E+08
 
   -0.18265E+08         0.82779E+04         0.00000E+00
    0.82779E+04        -0.47217E+08         0.00000E+00
    0.00000E+00         0.00000E+00        -0.18309E+08
 
   -0.18265E+08         0.92930E+04         0.00000E+00
    0.92930E+04        -0.47214E+08         0.00000E+00
    0.00000E+00         0.00000E+00        -0.18306E+08
 
   -0.18265E+08         0.10294E+05         0.00000E+00
    0.10294E+05        -0.47212E+08         0.00000E+00
    0.00000E+00         0.00000E+00        -0.18302E+08
 
   -0.18266E+08         0.11284E+05         0.00000E+00
    0.11284E+05        -0.47209E+08         0.00000E+00
    0.00000E+00         0.00000E+00        -0.18297E+08
 
   -0.18266E+08         0.12268E+05         0.00000E+00
    0.12268E+05        -0.47205E+08         0.00000E+00
    0.00000E+00         0.00000E+00        -0.18293E+08
 
   -0.18267E+08         0.13252E+05         0.00000E+00
    0.13252E+05        -0.47202E+08         0.00000E+00
    0.00000E+00         0.00000E+00        -0.18287E+08
 
   -0.18269E+08         0.14241E+05         0.00000E+00
    0.14241E+05        -0.47198E+08         0.00000E+00
    0.00000E+00         0.00000E+00        -0.18281E+08
 
   -0.18270E+08         0.15239E+05         0.00000E+00
    0.15239E+05        -0.47194E+08         0.00000E+00
    0.00000E+00         0.00000E+00        -0.18274E+08
 
   -0.18279E+08         0.74992E+03         0.00000E+00
    0.74992E+03        -0.47230E+08         0.00000E+00
    0.00000E+00         0.00000E+00        -0.18313E+08
 
   -0.18276E+08         0.22422E+04         0.00000E+00
    0.22422E+04        -0.47230E+08         0.00000E+00
    0.00000E+00         0.00000E+00        -0.18315E+08
 
   -0.18274E+08         0.37066E+04         0.00000E+00
    0.37066E+04        -0.47229E+08         0.00000E+00
    0.00000E+00         0.00000E+00        -0.18316E+08
 
   -0.18272E+08         0.51408E+04         0.00000E+00
    0.51408E+04        -0.47228E+08         0.00000E+00
    0.00000E+00         0.00000E+00        -0.18317E+08
 
   -0.18271E+08         0.65438E+04         0.00000E+00
    0.65438E+04        -0.47227E+08         0.00000E+00
    0.00000E+00         0.00000E+00        -0.18316E+08
 
   -0.18270E+08         0.79159E+04         0.00000E+00
    0.79159E+04        -0.47226E+08         0.00000E+00
    0.00000E+00         0.00000E+00        -0.18315E+08
 
   -0.18269E+08         0.92584E+04         0.00000E+00
    0.92584E+04        -0.47224E+08         0.00000E+00
    0.00000E+00         0.00000E+00        -0.18314E+08
 
   -0.18269E+08         0.10574E+05         0.00000E+00
    0.10574E+05        -0.47222E+08         0.00000E+00
    0.00000E+00         0.00000E+00        -0.18311E+08
 
   -0.18269E+08         0.11866E+05         0.00000E+00
    0.11866E+05        -0.47219E+08         0.00000E+00
    0.00000E+00         0.00000E+00        -0.18308E+08
 
   -0.18269E+08         0.13140E+05         0.00000E+00
    0.13140E+05        -0.47217E+08         0.00000E+00
    0.00000E+00         0.00000E+00        -0.18305E+08
 
   -0.18269E+08         0.14400E+05         0.00000E+00
    0.14400E+05        -0.47214E+08         0.00000E+00
    0.00000E+00         0.00000E+00        -0.18301E+08
 
   -0.18270E+08         0.15653E+05         0.00000E+00
    0.15653E+05        -0.47211E+08         0.00000E+00
    0.00000E+00         0.00000E+00        -0.18296E+08
 
   -0.18271E+08         0.16905E+05         0.00000E+00
    0.16905E+05        -0.47207E+08         0.00000E+00
    0.00000E+00         0.00000E+00        -0.18290E+08
 
   -0.18272E+08         0.18164E+05         0.00000E+00
    0.18164E+05        -0.47204E+08         0.00000E+00
    0.00000E+00         0.00000E+00        -0.18284E+08
 
   -0.18274E+08         0.19435E+05         0.00000E+00
    0.19435E+05        -0.47200E+08         0.00000E+00
    0.00000E+00         0.00000E+00        -0.18278E+08
 
   -0.18283E+08         0.91254E+03         0.00000E+00
    0.91254E+03        -0.47236E+08         0.00000E+00
    0.00000E+00         0.00000E+00        -0.18317E+08
 
   -0.18281E+08         0.27278E+04         0.00000E+00
    0.27278E+04        -0.47236E+08         0.00000E+00
    0.00000E+00         0.00000E+00        -0.18319E+08
 
   -0.18279E+08         0.45061E+04         0.00000E+00
    0.45061E+04        -0.47235E+08         0.00000E+00
    0.00000E+00         0.00000E+00        -0.18320E+08
 
   -0.18277E+08         0.62453E+04         0.00000E+00
    0.62453E+04        -0.47234E+08         0.00000E+00
    0.00000E+00         0.00000E+00        -0.18320E+08
 
   -0.18276E+08         0.79443E+04         0.00000E+00
    0.79443E+04        -0.47233E+08         0.00000E+00
    0.00000E+00         0.00000E+00        -0.18320E+08
 
   -0.18275E+08         0.96039E+04         0.00000E+00
    0.96039E+04        -0.47232E+08         0.00000E+00
    0.00000E+00         0.00000E+00        -0.18319E+08
 
   -0.18274E+08         0.11226E+05         0.00000E+00
    0.11226E+05        -0.47230E+08         0.00000E+00
    0.00000E+00         0.00000E+00        -0.18317E+08
 
   -0.18274E+08         0.12815E+05         0.00000E+00
    0.12815E+05        -0.47228E+08         0.00000E+00
    0.00000E+00         0.00000E+00        -0.18315E+08
 
   -0.18273E+08         0.14376E+05         0.00000E+00
    0.14376E+05        -0.47226E+08         0.00000E+00
    0.00000E+00         0.00000E+00        -0.18312E+08
 
   -0.18274E+08         0.15913E+05         0.00000E+00
    0.15913E+05        -0.47223E+08         0.00000E+00
    0.00000E+00         0.00000E+00        -0.18309E+08
 
   -0.18274E+08         0.17434E+05         0.00000E+00
    0.17434E+05        -0.47220E+08         0.00000E+00
    0.00000E+00         0.00000E+00        -0.18304E+08
 
   -0.18275E+08         0.18947E+05         0.00000E+00
    0.18947E+05        -0.47217E+08         0.00000E+00
    0.00000E+00         0.00000E+00        -0.18300E+08
 
   -0.18276E+08         0.20459E+05         0.00000E+00
    0.20459E+05        -0.47214E+08         0.00000E+00
    0.00000E+00         0.00000E+00        -0.18294E+08
 
   -0.18277E+08         0.21977E+05         0.00000E+00
    0.21977E+05        -0.47210E+08         0.00000E+00
    0.00000E+00         0.00000E+00        -0.18289E+08
 
   -0.18278E+08         0.23512E+05         0.00000E+00
    0.23512E+05        -0.47206E+08         0.00000E+00
    0.00000E+00         0.00000E+00        -0.18282E+08
 
   -0.18288E+08         0.10717E+04         0.00000E+00
    0.10717E+04        -0.47243E+08         0.00000E+00
    0.00000E+00         0.00000E+00        -0.18321E+08
 
   -0.18286E+08         0.32030E+04         0.00000E+00
    0.32030E+04        -0.47243E+08         0.00000E+00
    0.00000E+00         0.00000E+00        -0.18323E+08
 
   -0.18284E+08         0.52872E+04         0.00000E+00
    0.52872E+04        -0.47243E+08         0.00000E+00
    0.00000E+00         0.00000E+00        -0.18324E+08
 
   -0.18282E+08         0.73221E+04         0.00000E+00
    0.73221E+04        -0.47242E+08         0.00000E+00
    0.00000E+00         0.00000E+00        -0.18324E+08
 
   -0.18281E+08         0.93072E+04         0.00000E+00
    0.93072E+04        -0.47241E+08         0.00000E+00
    0.00000E+00         0.00000E+00        -0.18324E+08
 
   -0.18280E+08         0.11244E+05         0.00000E+00
    0.11244E+05        -0.47239E+08         0.00000E+00
    0.00000E+00         0.00000E+00        -0.18323E+08
 
   -0.18279E+08         0.13136E+05         0.00000E+00
    0.13136E+05        -0.47237E+08         0.00000E+00
    0.00000E+00         0.00000E+00        -0.18322E+08
 
   -0.18279E+08         0.14987E+05         0.00000E+00
    0.14987E+05        -0.47235E+08         0.00000E+00
    0.00000E+00         0.00000E+00        -0.18319E+08
 
   -0.18279E+08         0.16805E+05         0.00000E+00
    0.16805E+05        -0.47233E+08         0.00000E+00
    0.00000E+00         0.00000E+00        -0.18317E+08
 
   -0.18279E+08         0.18595E+05         0.00000E+00
    0.18595E+05        -0.47231E+08         0.00000E+00
    0.00000E+00         0.00000E+00        -0.18313E+08
 
   -0.18280E+08         0.20367E+05         0.00000E+00
    0.20367E+05        -0.47228E+08         0.00000E+00
    0.00000E+00         0.00000E+00        -0.18309E+08
 
   -0.18280E+08         0.22129E+05         0.00000E+00
    0.22129E+05        -0.47225E+08         0.00000E+00
    0.00000E+00         0.00000E+00        -0.18305E+08
 
   -0.18281E+08         0.23890E+05         0.00000E+00
    0.23890E+05        -0.47222E+08         0.00000E+00
    0.00000E+00         0.00000E+00        -0.18299E+08
 
   -0.18282E+08         0.25659E+05         0.00000E+00
    0.25659E+05        -0.47218E+08         0.00000E+00
    0.00000E+00         0.00000E+00        -0.18294E+08
 
   -0.18284E+08         0.27446E+05         0.00000E+00
    0.27446E+05        -0.47215E+08         0.00000E+00
    0.00000E+00         0.00000E+00        -0.18288E+08
 
   -0.18294E+08         0.12259E+04         0.00000E+00
    0.12259E+04        -0.47252E+08         0.00000E+00
    0.00000E+00         0.00000E+00        -0.18326E+08
 
   -0.18292E+08         0.36634E+04         0.00000E+00
    0.36634E+04        -0.47252E+08         0.00000E+00
    0.00000E+00         0.00000E+00        -0.18328E+08
 
   -0.18290E+08         0.60428E+04         0.00000E+00
    0.60428E+04        -0.47251E+08         0.00000E+00
    0.00000E+00         0.00000E+00        -0.18329E+08
 
   -0.18289E+08         0.83620E+04         0.00000E+00
    0.83620E+04        -0.47250E+08         0.00000E+00
    0.00000E+00         0.00000E+00        -0.18329E+08
 
   -0.18287E+08         0.10621E+05         0.00000E+00
    0.10621E+05        -0.47249E+08         0.00000E+00
    0.00000E+00         0.00000E+00        -0.18329E+08
 
   -0.18286E+08         0.12823E+05         0.00000E+00
    0.12823E+05        -0.47248E+08         0.00000E+00
    0.00000E+00         0.00000E+00        -0.18328E+08
 
   -0.18286E+08         0.14972E+05         0.00000E+00
    0.14972E+05        -0.47246E+08         0.00000E+00
    0.00000E+00         0.00000E+00        -0.18327E+08
 
   -0.18285E+08         0.17074E+05         0.00000E+00
    0.17074E+05        -0.47244E+08         0.00000E+00
    0.00000E+00         0.00000E+00        -0.18324E+08
 
   -0.18285E+08         0.19136E+05         0.00000E+00
    0.19136E+05        -0.47242E+08         0.00000E+00
    0.00000E+00         0.00000E+00        -0.18322E+08
 
   -0.18286E+08         0.21168E+05         0.00000E+00
    0.21168E+05        -0.47240E+08         0.00000E+00
    0.00000E+00         0.00000E+00        -0.18318E+08
 
   -0.18286E+08         0.23179E+05         0.00000E+00
    0.23179E+05        -0.47237E+08         0.00000E+00
    0.00000E+00         0.00000E+00        -0.18315E+08
 
   -0.18287E+08         0.25178E+05         0.00000E+00
    0.25178E+05        -0.47234E+08         0.00000E+00
    0.00000E+00         0.00000E+00        -0.18310E+08
 
   -0.18288E+08         0.27176E+05         0.00000E+00
    0.27176E+05        -0.47231E+08         0.00000E+00
    0.00000E+00         0.00000E+00        -0.18305E+08
 
   -0.18289E+08         0.29183E+05         0.00000E+00
    0.29183E+05        -0.47228E+08         0.00000E+00
    0.00000E+00         0.00000E+00        -0.18300E+08
 
   -0.18290E+08         0.31212E+05         0.00000E+00
    0.31212E+05        -0.47224E+08         0.00000E+00
    0.00000E+00         0.00000E+00        -0.18294E+08
 
   -0.18301E+08         0.13730E+04         0.00000E+00
    0.13730E+04        -0.47261E+08         0.00000E+00
    0.00000E+00         0.00000E+00        -0.18331E+08
 
   -0.18299E+08         0.41037E+04         0.00000E+00
    0.41037E+04        -0.47261E+08         0.00000E+00
    0.00000E+00         0.00000E+00        -0.18333E+08
 
   -0.18297E+08         0.67645E+04         0.00000E+00
    0.67645E+04        -0.47261E+08         0.00000E+00
    0.00000E+00         0.00000E+00        -0.18334E+08
 
   -0.18296E+08         0.93539E+04         0.00000E+00
    0.93539E+04        -0.47260E+08         0.00000E+00
    0.00000E+00         0.00000E+00        -0.18335E+08
 
   -0.18295E+08         0.11873E+05         0.00000E+00
    0.11873E+05        -0.47259E+08         0.00000E+00
    0.00000E+00         0.00000E+00        -0.18335E+08
 
   -0.18294E+08         0.14326E+05         0.00000E+00
    0.14326E+05        -0.47258E+08         0.00000E+00
    0.00000E+00         0.00000E+00        -0.18334E+08
 
   -0.18293E+08         0.16718E+05         0.00000E+00
    0.16718E+05        -0.47256E+08         0.00000E+00
    0.00000E+00         0.00000E+00        -0.18332E+08
 
   -0.18293E+08         0.19057E+05         0.00000E+00
    0.19057E+05        -0.47254E+08         0.00000E+00
    0.00000E+00         0.00000E+00        -0.18330E+08
 
   -0.18293E+08         0.21352E+05         0.00000E+00
    0.21352E+05        -0.47252E+08         0.00000E+00
    0.00000E+00         0.00000E+00        -0.18328E+08
 
   -0.18293E+08         0.23612E+05         0.00000E+00
    0.23612E+05        -0.47250E+08         0.00000E+00
    0.00000E+00         0.00000E+00        -0.18324E+08
 
   -0.18294E+08         0.25849E+05         0.00000E+00
    0.25849E+05        -0.47248E+08         0.00000E+00
    0.00000E+00         0.00000E+00        -0.18321E+08
 
   -0.18294E+08         0.28072E+05         0.00000E+00
    0.28072E+05        -0.47245E+08         0.00000E+00
    0.00000E+00         0.00000E+00        -0.18317E+08
 
   -0.18295E+08         0.30294E+05         0.00000E+00
    0.30294E+05        -0.47242E+08         0.00000E+00
    0.00000E+00         0.00000E+00        -0.18312E+08
 
   -0.18296E+08         0.32527E+05         0.00000E+00
    0.32527E+05        -0.47239E+08         0.00000E+00
    0.00000E+00         0.00000E+00        -0.18307E+08
 
   -0.18298E+08         0.34784E+05         0.00000E+00
    0.34784E+05        -0.47236E+08         0.00000E+00
    0.00000E+00         0.00000E+00        -0.18301E+08
 
   -0.18309E+08         0.15105E+04         0.00000E+00
    0.15105E+04        -0.47272E+08         0.00000E+00
    0.00000E+00         0.00000E+00        -0.18338E+08
 
   -0.18307E+08         0.45170E+04         0.00000E+00
    0.45170E+04        -0.47272E+08         0.00000E+00
    0.00000E+00         0.00000E+00        -0.18339E+08
 
   -0.18305E+08         0.74420E+04         0.00000E+00
    0.74420E+04        -0.47271E+08         0.00000E+00
    0.00000E+00         0.00000E+00        -0.18341E+08
 
   -0.18304E+08         0.10285E+05         0.00000E+00
    0.10285E+05        -0.47271E+08         0.00000E+00
    0.00000E+00         0.00000E+00        -0.18341E+08
 
   -0.18303E+08         0.13047E+05         0.00000E+00
    0.13047E+05        -0.47270E+08         0.00000E+00
    0.00000E+00         0.00000E+00        -0.18341E+08
 
   -0.18302E+08         0.15735E+05         0.00000E+00
    0.15735E+05        -0.47269E+08         0.00000E+00
    0.00000E+00         0.00000E+00        -0.18340E+08
 
   -0.18301E+08         0.18356E+05         0.00000E+00
    0.18356E+05        -0.47267E+08         0.00000E+00
    0.00000E+00         0.00000E+00        -0.18339E+08
 
   -0.18301E+08         0.20918E+05         0.00000E+00
    0.20918E+05        -0.47266E+08         0.00000E+00
    0.00000E+00         0.00000E+00        -0.18337E+08
 
   -0.18301E+08         0.23431E+05         0.00000E+00
    0.23431E+05        -0.47264E+08         0.00000E+00
    0.00000E+00         0.00000E+00        -0.18334E+08
 
   -0.18302E+08         0.25906E+05         0.00000E+00
    0.25906E+05        -0.47262E+08         0.00000E+00
    0.00000E+00         0.00000E+00        -0.18331E+08
 
   -0.18302E+08         0.28355E+05         0.00000E+00
    0.28355E+05        -0.47259E+08         0.00000E+00
    0.00000E+00         0.00000E+00        -0.18328E+08
 
   -0.18303E+08         0.30789E+05         0.00000E+00
    0.30789E+05        -0.47257E+08         0.00000E+00
    0.00000E+00         0.00000E+00        -0.18324E+08
 
   -0.18304E+08         0.33221E+05         0.00000E+00
    0.33221E+05        -0.47254E+08         0.00000E+00
    0.00000E+00         0.00000E+00        -0.18319E+08
 
   -0.18305E+08         0.35666E+05         0.00000E+00
    0.35666E+05        -0.47251E+08         0.00000E+00
    0.00000E+00         0.00000E+00        -0.18315E+08
 
   -0.18306E+08         0.38137E+05         0.00000E+00
    0.38137E+05        -0.47248E+08         0.00000E+00
    0.00000E+00         0.00000E+00        -0.18309E+08
 
   -0.18318E+08         0.16355E+04         0.00000E+00
    0.16355E+04        -0.47284E+08         0.00000E+00
    0.00000E+00         0.00000E+00        -0.18345E+08
 
   -0.18316E+08         0.48954E+04         0.00000E+00
    0.48954E+04        -0.47284E+08         0.00000E+00
    0.00000E+00         0.00000E+00        -0.18346E+08
 
   -0.18314E+08         0.80634E+04         0.00000E+00
    0.80634E+04        -0.47283E+08         0.00000E+00
    0.00000E+00         0.00000E+00        -0.18347E+08
 
   -0.18313E+08         0.11140E+05         0.00000E+00
    0.11140E+05        -0.47283E+08         0.00000E+00
    0.00000E+00         0.00000E+00        -0.18348E+08
 
   -0.18312E+08         0.14128E+05         0.00000E+00
    0.14128E+05        -0.47282E+08         0.00000E+00
    0.00000E+00         0.00000E+00        -0.18348E+08
 
   -0.18311E+08         0.17034E+05         0.00000E+00
    0.17034E+05        -0.47281E+08         0.00000E+00
    0.00000E+00         0.00000E+00        -0.18347E+08
 
   -0.18311E+08         0.19867E+05         0.00000E+00
    0.19867E+05        -0.47280E+08         0.00000E+00
    0.00000E+00         0.00000E+00        -0.18346E+08
 
   -0.18310E+08         0.22637E+05         0.00000E+00
    0.22637E+05        -0.47278E+08         0.00000E+00
    0.00000E+00         0.00000E+00        -0.18344E+08
 
   -0.18311E+08         0.25354E+05         0.00000E+00
    0.25354E+05        -0.47276E+08         0.00000E+00
    0.00000E+00         0.00000E+00        -0.18342E+08
 
   -0.18311E+08         0.28029E+05         0.00000E+00
    0.28029E+05        -0.47274E+08         0.00000E+00
    0.00000E+00         0.00000E+00        -0.18339E+08
 
   -0.18311E+08         0.30676E+05         0.00000E+00
    0.30676E+05        -0.47272E+08         0.00000E+00
    0.00000E+00         0.00000E+00        -0.18336E+08
 
   -0.18312E+08         0.33306E+05         0.00000E+00
    0.33306E+05        -0.47270E+08         0.00000E+00
    0.00000E+00         0.00000E+00        -0.18332E+08
 
   -0.18313E+08         0.35933E+05         0.00000E+00
    0.35933E+05        -0.47268E+08         0.00000E+00
    0.00000E+00         0.00000E+00        -0.18328E+08
 
   -0.18314E+08         0.38574E+05         0.00000E+00
    0.38574E+05        -0.47265E+08         0.00000E+00
    0.00000E+00         0.00000E+00        -0.18323E+08
 
   -0.18315E+08         0.41246E+05         0.00000E+00
    0.41246E+05        -0.47262E+08         0.00000E+00
    0.00000E+00         0.00000E+00        -0.18318E+08
 
   -0.18327E+08         0.17445E+04         0.00000E+00
    0.17445E+04        -0.47297E+08         0.00000E+00
    0.00000E+00         0.00000E+00        -0.18352E+08
 
   -0.18325E+08         0.52299E+04         0.00000E+00
    0.52299E+04        -0.47297E+08         0.00000E+00
    0.00000E+00         0.00000E+00        -0.18354E+08
 
   -0.18324E+08         0.86155E+04         0.00000E+00
    0.86155E+04        -0.47297E+08         0.00000E+00
    0.00000E+00         0.00000E+00        -0.18355E+08
 
   -0.18323E+08         0.11903E+05         0.00000E+00
    0.11903E+05        -0.47296E+08         0.00000E+00
    0.00000E+00         0.00000E+00        -0.18355E+08
 
   -0.18322E+08         0.15096E+05         0.00000E+00
    0.15096E+05        -0.47295E+08         0.00000E+00
    0.00000E+00         0.00000E+00        -0.18355E+08
 
   -0.18321E+08         0.18202E+05         0.00000E+00
    0.18202E+05        -0.47294E+08         0.00000E+00
    0.00000E+00         0.00000E+00        -0.18355E+08
 
   -0.18321E+08         0.21231E+05         0.00000E+00
    0.21231E+05        -0.47293E+08         0.00000E+00
    0.00000E+00         0.00000E+00        -0.18354E+08
 
   -0.18321E+08         0.24192E+05         0.00000E+00
    0.24192E+05        -0.47292E+08         0.00000E+00
    0.00000E+00         0.00000E+00        -0.18352E+08
 
   -0.18321E+08         0.27097E+05         0.00000E+00
    0.27097E+05        -0.47290E+08         0.00000E+00
    0.00000E+00         0.00000E+00        -0.18350E+08
 
   -0.18321E+08         0.29958E+05         0.00000E+00
    0.29958E+05        -0.47289E+08         0.00000E+00
    0.00000E+00         0.00000E+00        -0.18347E+08
 
   -0.18322E+08         0.32786E+05         0.00000E+00
    0.32786E+05        -0.47287E+08         0.00000E+00
    0.00000E+00         0.00000E+00        -0.18344E+08
 
   -0.18322E+08         0.35596E+05         0.00000E+00
    0.35596E+05        -0.47285E+08         0.00000E+00
    0.00000E+00         0.00000E+00        -0.18341E+08
 
   -0.18323E+08         0.38404E+05         0.00000E+00
    0.38404E+05        -0.47283E+08         0.00000E+00
    0.00000E+00         0.00000E+00        -0.18337E+08
 
   -0.18324E+08         0.41227E+05         0.00000E+00
    0.41227E+05        -0.47280E+08         0.00000E+00
    0.00000E+00         0.00000E+00        -0.18333E+08
 
   -0.18325E+08         0.44085E+05         0.00000E+00
    0.44085E+05        -0.47278E+08         0.00000E+00
    0.00000E+00         0.00000E+00        -0.18328E+08
 
   -0.18338E+08         0.18340E+04         0.00000E+00
    0.18340E+04        -0.47311E+08         0.00000E+00
    0.00000E+00         0.00000E+00        -0.18360E+08
 
   -0.18336E+08         0.55110E+04         0.00000E+00
    0.55110E+04        -0.47311E+08         0.00000E+00
    0.00000E+00         0.00000E+00        -0.18362E+08
 
   -0.18335E+08         0.90845E+04         0.00000E+00
    0.90845E+04        -0.47311E+08         0.00000E+00
    0.00000E+00         0.00000E+00        -0.18363E+08
 
   -0.18334E+08         0.12557E+05         0.00000E+00
    0.12557E+05        -0.47311E+08         0.00000E+00
    0.00000E+00         0.00000E+00        -0.18364E+08
 
   -0.18333E+08         0.15933E+05         0.00000E+00
    0.15933E+05        -0.47310E+08         0.00000E+00
    0.00000E+00         0.00000E+00        -0.18364E+08
 
   -0.18332E+08         0.19219E+05         0.00000E+00
    0.19219E+05        -0.47309E+08         0.00000E+00
    0.00000E+00         0.00000E+00        -0.18363E+08
 
   -0.18332E+08         0.22426E+05         0.00000E+00
    0.22426E+05        -0.47308E+08         0.00000E+00
    0.00000E+00         0.00000E+00        -0.18362E+08
 
   -0.18332E+08         0.25562E+05         0.00000E+00
    0.25562E+05        -0.47307E+08         0.00000E+00
    0.00000E+00         0.00000E+00        -0.18361E+08
 
   -0.18332E+08         0.28639E+05         0.00000E+00
    0.28639E+05        -0.47306E+08         0.00000E+00
    0.00000E+00         0.00000E+00        -0.18359E+08
 
   -0.18332E+08         0.31668E+05         0.00000E+00
    0.31668E+05        -0.47304E+08         0.00000E+00
    0.00000E+00         0.00000E+00        -0.18356E+08
 
   -0.18333E+08         0.34661E+05         0.00000E+00
    0.34661E+05        -0.47303E+08         0.00000E+00
    0.00000E+00         0.00000E+00        -0.18354E+08
 
   -0.18334E+08         0.37635E+05         0.00000E+00
    0.37635E+05        -0.47301E+08         0.00000E+00
    0.00000E+00         0.00000E+00        -0.18351E+08
 
   -0.18335E+08         0.40607E+05         0.00000E+00
    0.40607E+05        -0.47299E+08         0.00000E+00
    0.00000E+00         0.00000E+00        -0.18347E+08
 
   -0.18336E+08         0.43597E+05         0.00000E+00
    0.43597E+05        -0.47297E+08         0.00000E+00
    0.00000E+00         0.00000E+00        -0.18343E+08
 
   -0.18337E+08         0.46628E+05         0.00000E+00
    0.46628E+05        -0.47294E+08         0.00000E+00
    0.00000E+00         0.00000E+00        -0.18339E+08
 
   -0.18350E+08         0.19007E+04         0.00000E+00
    0.19007E+04        -0.47327E+08         0.00000E+00
    0.00000E+00         0.00000E+00        -0.18369E+08
 
   -0.18348E+08         0.57296E+04         0.00000E+00
    0.57296E+04        -0.47327E+08         0.00000E+00
    0.00000E+00         0.00000E+00        -0.18371E+08
 
   -0.18346E+08         0.94570E+04         0.00000E+00
    0.94570E+04        -0.47327E+08         0.00000E+00
    0.00000E+00         0.00000E+00        -0.18372E+08
 
   -0.18345E+08         0.13086E+05         0.00000E+00
    0.13086E+05        -0.47326E+08         0.00000E+00
    0.00000E+00         0.00000E+00        -0.18372E+08
 
   -0.18345E+08         0.16620E+05         0.00000E+00
    0.16620E+05        -0.47326E+08         0.00000E+00
    0.00000E+00         0.00000E+00        -0.18372E+08
 
   -0.18344E+08         0.20066E+05         0.00000E+00
    0.20066E+05        -0.47325E+08         0.00000E+00
    0.00000E+00         0.00000E+00        -0.18372E+08
 
   -0.18344E+08         0.23431E+05         0.00000E+00
    0.23431E+05        -0.47324E+08         0.00000E+00
    0.00000E+00         0.00000E+00        -0.18371E+08
 
   -0.18344E+08         0.26724E+05         0.00000E+00
    0.26724E+05        -0.47323E+08         0.00000E+00
    0.00000E+00         0.00000E+00        -0.18370E+08
 
   -0.18344E+08         0.29953E+05         0.00000E+00
    0.29953E+05        -0.47322E+08         0.00000E+00
    0.00000E+00         0.00000E+00        -0.18368E+08
 
   -0.18345E+08         0.33131E+05         0.00000E+00
    0.33131E+05        -0.47321E+08         0.00000E+00
    0.00000E+00         0.00000E+00        -0.18366E+08
 
   -0.18345E+08         0.36272E+05         0.00000E+00
    0.36272E+05        -0.47320E+08         0.00000E+00
    0.00000E+00         0.00000E+00        -0.18364E+08
 
   -0.18346E+08         0.39392E+05         0.00000E+00
    0.39392E+05        -0.47318E+08         0.00000E+00
    0.00000E+00         0.00000E+00        -0.18361E+08
 
   -0.18347E+08         0.42512E+05         0.00000E+00
    0.42512E+05        -0.47317E+08         0.00000E+00
    0.00000E+00         0.00000E+00        -0.18358E+08
 
   -0.18348E+08         0.45654E+05         0.00000E+00
    0.45654E+05        -0.47315E+08         0.00000E+00
    0.00000E+00         0.00000E+00        -0.18355E+08
 
   -0.18349E+08         0.48845E+05         0.00000E+00
    0.48845E+05        -0.47313E+08         0.00000E+00
    0.00000E+00         0.00000E+00        -0.18351E+08
 
   -0.18362E+08         0.19421E+04         0.00000E+00
    0.19421E+04        -0.47343E+08         0.00000E+00
    0.00000E+00         0.00000E+00        -0.18378E+08
 
   -0.18361E+08         0.58783E+04         0.00000E+00
    0.58783E+04        -0.47343E+08         0.00000E+00
    0.00000E+00         0.00000E+00        -0.18380E+08
 
   -0.18359E+08         0.97215E+04         0.00000E+00
    0.97215E+04        -0.47343E+08         0.00000E+00
    0.00000E+00         0.00000E+00        -0.18381E+08
 
   -0.18358E+08         0.13474E+05         0.00000E+00
    0.13474E+05        -0.47343E+08         0.00000E+00
    0.00000E+00         0.00000E+00        -0.18381E+08
 
   -0.18358E+08         0.17140E+05         0.00000E+00
    0.17140E+05        -0.47343E+08         0.00000E+00
    0.00000E+00         0.00000E+00        -0.18382E+08
 
   -0.18357E+08         0.20722E+05         0.00000E+00
    0.20722E+05        -0.47342E+08         0.00000E+00
    0.00000E+00         0.00000E+00        -0.18381E+08
 
   -0.18357E+08         0.24224E+05         0.00000E+00
    0.24224E+05        -0.47342E+08         0.00000E+00
    0.00000E+00         0.00000E+00        -0.18381E+08
 
   -0.18357E+08         0.27651E+05         0.00000E+00
    0.27651E+05        -0.47341E+08         0.00000E+00
    0.00000E+00         0.00000E+00        -0.18380E+08
 
   -0.18358E+08         0.31012E+05         0.00000E+00
    0.31012E+05        -0.47340E+08         0.00000E+00
    0.00000E+00         0.00000E+00        -0.18379E+08
 
   -0.18358E+08         0.34319E+05         0.00000E+00
    0.34319E+05        -0.47339E+08         0.00000E+00
    0.00000E+00         0.00000E+00        -0.18377E+08
 
   -0.18359E+08         0.37586E+05         0.00000E+00
    0.37586E+05        -0.47338E+08         0.00000E+00
    0.00000E+00         0.00000E+00        -0.18375E+08
 
   -0.18359E+08         0.40833E+05         0.00000E+00
    0.40833E+05        -0.47337E+08         0.00000E+00
    0.00000E+00         0.00000E+00        -0.18373E+08
 
   -0.18360E+08         0.44086E+05         0.00000E+00
    0.44086E+05        -0.47336E+08         0.00000E+00
    0.00000E+00         0.00000E+00        -0.18370E+08
 
   -0.18361E+08         0.47369E+05         0.00000E+00
    0.47369E+05        -0.47334E+08         0.00000E+00
    0.00000E+00         0.00000E+00        -0.18367E+08
 
   -0.18362E+08         0.50710E+05         0.00000E+00
    0.50710E+05        -0.47333E+08         0.00000E+00
    0.00000E+00         0.00000E+00        -0.18364E+08
 
   -0.18376E+08         0.19572E+04         0.00000E+00
    0.19572E+04        -0.47361E+08         0.00000E+00
    0.00000E+00         0.00000E+00        -0.18388E+08
 
   -0.18374E+08         0.59528E+04         0.00000E+00
    0.59528E+04        -0.47361E+08         0.00000E+00
    0.00000E+00         0.00000E+00        -0.18389E+08
 
   -0.18373E+08         0.98704E+04         0.00000E+00
    0.98704E+04        -0.47361E+08         0.00000E+00
    0.00000E+00         0.00000E+00        -0.18390E+08
 
   -0.18372E+08         0.13712E+05         0.00000E+00
    0.13712E+05        -0.47361E+08         0.00000E+00
    0.00000E+00         0.00000E+00        -0.18391E+08
 
   -0.18372E+08         0.17478E+05         0.00000E+00
    0.17478E+05        -0.47361E+08         0.00000E+00
    0.00000E+00         0.00000E+00        -0.18392E+08
 
   -0.18371E+08         0.21168E+05         0.00000E+00
    0.21168E+05        -0.47360E+08         0.00000E+00
    0.00000E+00         0.00000E+00        -0.18392E+08
 
   -0.18371E+08         0.24780E+05         0.00000E+00
    0.24780E+05        -0.47360E+08         0.00000E+00
    0.00000E+00         0.00000E+00        -0.18391E+08
 
   -0.18371E+08         0.28317E+05         0.00000E+00
    0.28317E+05        -0.47360E+08         0.00000E+00
    0.00000E+00         0.00000E+00        -0.18390E+08
 
   -0.18372E+08         0.31785E+05         0.00000E+00
    0.31785E+05        -0.47359E+08         0.00000E+00
    0.00000E+00         0.00000E+00        -0.18389E+08
 
   -0.18372E+08         0.35195E+05         0.00000E+00
    0.35195E+05        -0.47359E+08         0.00000E+00
    0.00000E+00         0.00000E+00        -0.18388E+08
 
   -0.18373E+08         0.38567E+05         0.00000E+00
    0.38567E+05        -0.47358E+08         0.00000E+00
    0.00000E+00         0.00000E+00        -0.18386E+08
 
   -0.18374E+08         0.41924E+05         0.00000E+00
    0.41924E+05        -0.47357E+08         0.00000E+00
    0.00000E+00         0.00000E+00        -0.18385E+08
 
   -0.18375E+08         0.45295E+05         0.00000E+00
    0.45295E+05        -0.47356E+08         0.00000E+00
    0.00000E+00         0.00000E+00        -0.18383E+08
 
   -0.18375E+08         0.48710E+05         0.00000E+00
    0.48710E+05        -0.47355E+08         0.00000E+00
    0.00000E+00         0.00000E+00        -0.18380E+08
 
   -0.18376E+08         0.52195E+05         0.00000E+00
    0.52195E+05        -0.47354E+08         0.00000E+00
    0.00000E+00         0.00000E+00        -0.18378E+08
 
   -0.18390E+08         0.19477E+04         0.00000E+00
    0.19477E+04        -0.47380E+08         0.00000E+00
    0.00000E+00         0.00000E+00        -0.18398E+08
 
   -0.18389E+08         0.59544E+04         0.00000E+00
    0.59544E+04        -0.47380E+08         0.00000E+00
    0.00000E+00         0.00000E+00        -0.18399E+08
 
   -0.18388E+08         0.99022E+04         0.00000E+00
    0.99022E+04        -0.47380E+08         0.00000E+00
    0.00000E+00         0.00000E+00        -0.18400E+08
 
   -0.18387E+08         0.13793E+05         0.00000E+00
    0.13793E+05        -0.47380E+08         0.00000E+00
    0.00000E+00         0.00000E+00        -0.18401E+08
 
   -0.18387E+08         0.17623E+05         0.00000E+00
    0.17623E+05        -0.47380E+08         0.00000E+00
    0.00000E+00         0.00000E+00        -0.18402E+08
 
   -0.18386E+08         0.21386E+05         0.00000E+00
    0.21386E+05        -0.47380E+08         0.00000E+00
    0.00000E+00         0.00000E+00        -0.18402E+08
 
   -0.18386E+08         0.25077E+05         0.00000E+00
    0.25077E+05        -0.47380E+08         0.00000E+00
    0.00000E+00         0.00000E+00        -0.18402E+08
 
   -0.18387E+08         0.28691E+05         0.00000E+00
    0.28691E+05        -0.47380E+08         0.00000E+00
    0.00000E+00         0.00000E+00        -0.18401E+08
 
   -0.18387E+08         0.32234E+05         0.00000E+00
    0.32234E+05        -0.47379E+08         0.00000E+00
    0.00000E+00         0.00000E+00        -0.18401E+08
 
   -0.18388E+08         0.35721E+05         0.00000E+00
    0.35721E+05        -0.47379E+08         0.00000E+00
    0.00000E+00         0.00000E+00        -0.18400E+08
 
   -0.18388E+08         0.39174E+05         0.00000E+00
    0.39174E+05        -0.47379E+08         0.00000E+00
    0.00000E+00         0.00000E+00        -0.18399E+08
 
   -0.18389E+08         0.42623E+05         0.00000E+00
    0.42623E+05        -0.47378E+08         0.00000E+00
    0.00000E+00         0.00000E+00        -0.18397E+08
 
   -0.18390E+08         0.46102E+05         0.00000E+00
    0.46102E+05        -0.47378E+08         0.00000E+00
    0.00000E+00         0.00000E+00        -0.18396E+08
 
   -0.18391E+08         0.49643E+05         0.00000E+00
    0.49643E+05        -0.47377E+08         0.00000E+00
    0.00000E+00         0.00000E+00        -0.18394E+08
 
   -0.18391E+08         0.53273E+05         0.00000E+00
    0.53273E+05        -0.47376E+08         0.00000E+00
    0.00000E+00         0.00000E+00        -0.18393E+08
 
   -0.18406E+08         0.19183E+04         0.00000E+00
    0.19183E+04        -0.47400E+08         0.00000E+00
    0.00000E+00         0.00000E+00        -0.18408E+08
 
   -0.18405E+08         0.58914E+04         0.00000E+00
    0.58914E+04        -0.47400E+08         0.00000E+00
    0.00000E+00         0.00000E+00        -0.18410E+08
 
   -0.18404E+08         0.98239E+04         0.00000E+00
    0.98239E+04        -0.47400E+08         0.00000E+00
    0.00000E+00         0.00000E+00        -0.18411E+08
 
   -0.18403E+08         0.13718E+05         0.00000E+00
    0.13718E+05        -0.47400E+08         0.00000E+00
    0.00000E+00         0.00000E+00        -0.18412E+08
 
   -0.18403E+08         0.17567E+05         0.00000E+00
    0.17567E+05        -0.47400E+08         0.00000E+00
    0.00000E+00         0.00000E+00        -0.18412E+08
 
   -0.18402E+08         0.21360E+05         0.00000E+00
    0.21360E+05        -0.47400E+08         0.00000E+00
    0.00000E+00         0.00000E+00        -0.18413E+08
 
   -0.18403E+08         0.25085E+05         0.00000E+00
    0.25085E+05        -0.47400E+08         0.00000E+00
    0.00000E+00         0.00000E+00        -0.18413E+08
 
   -0.18403E+08         0.28737E+05         0.00000E+00
    0.28737E+05        -0.47401E+08         0.00000E+00
    0.00000E+00         0.00000E+00        -0.18413E+08
 
   -0.18403E+08         0.32319E+05         0.00000E+00
    0.32319E+05        -0.47401E+08         0.00000E+00
    0.00000E+00         0.00000E+00        -0.18413E+08
 
   -0.18404E+08         0.35850E+05         0.00000E+00
    0.35850E+05        -0.47401E+08         0.00000E+00
    0.00000E+00         0.00000E+00        -0.18412E+08
 
   -0.18405E+08         0.39361E+05         0.00000E+00
    0.39361E+05        -0.47401E+08         0.00000E+00
    0.00000E+00         0.00000E+00        -0.18412E+08
 
   -0.18405E+08         0.42888E+05         0.00000E+00
    0.42888E+05        -0.47401E+08         0.00000E+00
    0.00000E+00         0.00000E+00        -0.18411E+08
 
   -0.18406E+08         0.46470E+05         0.00000E+00
    0.46470E+05        -0.47401E+08         0.00000E+00
    0.00000E+00         0.00000E+00        -0.18410E+08
 
   -0.18407E+08         0.50138E+05         0.00000E+00
    0.50138E+05        -0.47401E+08         0.00000E+00
    0.00000E+00         0.00000E+00        -0.18409E+08
 
   -0.18407E+08         0.53917E+05         0.00000E+00
    0.53917E+05        -0.47400E+08         0.00000E+00
    0.00000E+00         0.00000E+00        -0.18408E+08
 
   -0.18423E+08         0.18770E+04         0.00000E+00
    0.18770E+04        -0.47421E+08         0.00000E+00
    0.00000E+00         0.00000E+00        -0.18419E+08
 
   -0.18422E+08         0.57800E+04         0.00000E+00
    0.57800E+04        -0.47421E+08         0.00000E+00
    0.00000E+00         0.00000E+00        -0.18420E+08
 
   -0.18421E+08         0.96525E+04         0.00000E+00
    0.96525E+04        -0.47421E+08         0.00000E+00
    0.00000E+00         0.00000E+00        -0.18421E+08
 
   -0.18420E+08         0.13498E+05         0.00000E+00
    0.13498E+05        -0.47421E+08         0.00000E+00
    0.00000E+00         0.00000E+00        -0.18422E+08
 
   -0.18420E+08         0.17310E+05         0.00000E+00
    0.17310E+05        -0.47421E+08         0.00000E+00
    0.00000E+00         0.00000E+00        -0.18423E+08
 
   -0.18420E+08         0.21074E+05         0.00000E+00
    0.21074E+05        -0.47422E+08         0.00000E+00
    0.00000E+00         0.00000E+00        -0.18424E+08
 
   -0.18420E+08         0.24778E+05         0.00000E+00
    0.24778E+05        -0.47422E+08         0.00000E+00
    0.00000E+00         0.00000E+00        -0.18424E+08
 
   -0.18420E+08         0.28413E+05         0.00000E+00
    0.28413E+05        -0.47423E+08         0.00000E+00
    0.00000E+00         0.00000E+00        -0.18425E+08
 
   -0.18421E+08         0.31990E+05         0.00000E+00
    0.31990E+05        -0.47423E+08         0.00000E+00
    0.00000E+00         0.00000E+00        -0.18425E+08
 
   -0.18421E+08         0.35533E+05         0.00000E+00
    0.35533E+05        -0.47424E+08         0.00000E+00
    0.00000E+00         0.00000E+00        -0.18425E+08
 
   -0.18422E+08         0.39080E+05         0.00000E+00
    0.39080E+05        -0.47425E+08         0.00000E+00
    0.00000E+00         0.00000E+00        -0.18425E+08
 
   -0.18423E+08         0.42676E+05         0.00000E+00
    0.42676E+05        -0.47425E+08         0.00000E+00
    0.00000E+00         0.00000E+00        -0.18425E+08
 
   -0.18423E+08         0.46360E+05         0.00000E+00
    0.46360E+05        -0.47425E+08         0.00000E+00
    0.00000E+00         0.00000E+00        -0.18425E+08
 
   -0.18424E+08         0.50164E+05         0.00000E+00
    0.50164E+05        -0.47426E+08         0.00000E+00
    0.00000E+00         0.00000E+00        -0.18425E+08
 
   -0.18424E+08         0.54104E+05         0.00000E+00
    0.54104E+05        -0.47426E+08         0.00000E+00
    0.00000E+00         0.00000E+00        -0.18425E+08
 
   -0.18441E+08         0.18344E+04         0.00000E+00
    0.18344E+04        -0.47443E+08         0.00000E+00
    0.00000E+00         0.00000E+00        -0.18429E+08
 
   -0.18440E+08         0.56433E+04         0.00000E+00
    0.56433E+04        -0.47443E+08         0.00000E+00
    0.00000E+00         0.00000E+00        -0.18431E+08
 
   -0.18439E+08         0.94148E+04         0.00000E+00
    0.94148E+04        -0.47443E+08         0.00000E+00
    0.00000E+00         0.00000E+00        -0.18432E+08
 
   -0.18438E+08         0.13154E+05         0.00000E+00
    0.13154E+05        -0.47443E+08         0.00000E+00
    0.00000E+00         0.00000E+00        -0.18433E+08
 
   -0.18438E+08         0.16858E+05         0.00000E+00
    0.16858E+05        -0.47444E+08         0.00000E+00
    0.00000E+00         0.00000E+00        -0.18434E+08
 
   -0.18438E+08         0.20517E+05         0.00000E+00
    0.20517E+05        -0.47444E+08         0.00000E+00
    0.00000E+00         0.00000E+00        -0.18435E+08
 
   -0.18438E+08         0.24122E+05         0.00000E+00
    0.24122E+05        -0.47445E+08         0.00000E+00
    0.00000E+00         0.00000E+00        -0.18436E+08
 
   -0.18439E+08         0.27676E+05         0.00000E+00
    0.27676E+05        -0.47446E+08         0.00000E+00
    0.00000E+00         0.00000E+00        -0.18437E+08
 
   -0.18439E+08         0.31194E+05         0.00000E+00
    0.31194E+05        -0.47447E+08         0.00000E+00
    0.00000E+00         0.00000E+00        -0.18438E+08
 
   -0.18440E+08         0.34714E+05         0.00000E+00
    0.34714E+05        -0.47448E+08         0.00000E+00
    0.00000E+00         0.00000E+00        -0.18438E+08
 
   -0.18440E+08         0.38281E+05         0.00000E+00
    0.38281E+05        -0.47449E+08         0.00000E+00
    0.00000E+00         0.00000E+00        -0.18439E+08
 
   -0.18441E+08         0.41943E+05         0.00000E+00
    0.41943E+05        -0.47450E+08         0.00000E+00
    0.00000E+00         0.00000E+00        -0.18440E+08
 
   -0.18441E+08         0.45738E+05         0.00000E+00
    0.45738E+05        -0.47451E+08         0.00000E+00
    0.00000E+00         0.00000E+00        -0.18441E+08
 
   -0.18442E+08         0.49691E+05         0.00000E+00
    0.49691E+05        -0.47452E+08         0.00000E+00
    0.00000E+00         0.00000E+00        -0.18442E+08
 
   -0.18442E+08         0.53808E+05         0.00000E+00
    0.53808E+05        -0.47453E+08         0.00000E+00
    0.00000E+00         0.00000E+00        -0.18442E+08
 
   -0.18461E+08         0.18013E+04         0.00000E+00
    0.18013E+04        -0.47466E+08         0.00000E+00
    0.00000E+00         0.00000E+00        -0.18440E+08
 
   -0.18459E+08         0.55087E+04         0.00000E+00
    0.55087E+04        -0.47466E+08         0.00000E+00
    0.00000E+00         0.00000E+00        -0.18442E+08
 
   -0.18458E+08         0.91452E+04         0.00000E+00
    0.91452E+04        -0.47466E+08         0.00000E+00
    0.00000E+00         0.00000E+00        -0.18443E+08
 
   -0.18458E+08         0.12717E+05         0.00000E+00
    0.12717E+05        -0.47466E+08         0.00000E+00
    0.00000E+00         0.00000E+00        -0.18444E+08
 
   -0.18457E+08         0.16227E+05         0.00000E+00
    0.16227E+05        -0.47467E+08         0.00000E+00
    0.00000E+00         0.00000E+00        -0.18445E+08
 
   -0.18457E+08         0.19681E+05         0.00000E+00
    0.19681E+05        -0.47468E+08         0.00000E+00
    0.00000E+00         0.00000E+00        -0.18446E+08
 
   -0.18458E+08         0.23090E+05         0.00000E+00
    0.23090E+05        -0.47469E+08         0.00000E+00
    0.00000E+00         0.00000E+00        -0.18448E+08
 
   -0.18458E+08         0.26475E+05         0.00000E+00
    0.26475E+05        -0.47470E+08         0.00000E+00
    0.00000E+00         0.00000E+00        -0.18449E+08
 
   -0.18459E+08         0.29877E+05         0.00000E+00
    0.29877E+05        -0.47472E+08         0.00000E+00
    0.00000E+00         0.00000E+00        -0.18451E+08
 
   -0.18459E+08         0.33341E+05         0.00000E+00
    0.33341E+05        -0.47473E+08         0.00000E+00
    0.00000E+00         0.00000E+00        -0.18452E+08
 
   -0.18460E+08         0.36918E+05         0.00000E+00
    0.36918E+05        -0.47475E+08         0.00000E+00
    0.00000E+00         0.00000E+00        -0.18454E+08
 
   -0.18460E+08         0.40650E+05         0.00000E+00
    0.40650E+05        -0.47477E+08         0.00000E+00
    0.00000E+00         0.00000E+00        -0.18456E+08
 
   -0.18460E+08         0.44569E+05         0.00000E+00
    0.44569E+05        -0.47478E+08         0.00000E+00
    0.00000E+00         0.00000E+00        -0.18457E+08
 
   -0.18461E+08         0.48687E+05         0.00000E+00
    0.48687E+05        -0.47480E+08         0.00000E+00
    0.00000E+00         0.00000E+00        -0.18459E+08
 
   -0.18461E+08         0.53002E+05         0.00000E+00
    0.53002E+05        -0.47481E+08         0.00000E+00
    0.00000E+00         0.00000E+00        -0.18460E+08
 
   -0.18481E+08         0.17870E+04         0.00000E+00
    0.17870E+04        -0.47490E+08         0.00000E+00
    0.00000E+00         0.00000E+00        -0.18452E+08
 
   -0.18480E+08         0.54033E+04         0.00000E+00
    0.54033E+04        -0.47490E+08         0.00000E+00
    0.00000E+00         0.00000E+00        -0.18453E+08
 
   -0.18479E+08         0.88774E+04         0.00000E+00
    0.88774E+04        -0.47490E+08         0.00000E+00
    0.00000E+00         0.00000E+00        -0.18454E+08
 
   -0.18478E+08         0.12217E+05         0.00000E+00
    0.12217E+05        -0.47490E+08         0.00000E+00
    0.00000E+00         0.00000E+00        -0.18455E+08
 
   -0.18478E+08         0.15437E+05         0.00000E+00
    0.15437E+05        -0.47491E+08         0.00000E+00
    0.00000E+00         0.00000E+00        -0.18456E+08
 
   -0.18478E+08         0.18566E+05         0.00000E+00
    0.18566E+05        -0.47492E+08         0.00000E+00
    0.00000E+00         0.00000E+00        -0.18458E+08
 
   -0.18478E+08         0.21656E+05         0.00000E+00
    0.21656E+05        -0.47493E+08         0.00000E+00
    0.00000E+00         0.00000E+00        -0.18459E+08
 
   -0.18479E+08         0.24775E+05         0.00000E+00
    0.24775E+05        -0.47495E+08         0.00000E+00
    0.00000E+00         0.00000E+00        -0.18461E+08
 
   -0.18479E+08         0.27993E+05         0.00000E+00
    0.27993E+05        -0.47497E+08         0.00000E+00
    0.00000E+00         0.00000E+00        -0.18464E+08
 
   -0.18480E+08         0.31370E+05         0.00000E+00
    0.31370E+05        -0.47499E+08         0.00000E+00
    0.00000E+00         0.00000E+00        -0.18466E+08
 
   -0.18480E+08         0.34950E+05         0.00000E+00
    0.34950E+05        -0.47502E+08         0.00000E+00
    0.00000E+00         0.00000E+00        -0.18469E+08
 
   -0.18480E+08         0.38761E+05         0.00000E+00
    0.38761E+05        -0.47504E+08         0.00000E+00
    0.00000E+00         0.00000E+00        -0.18472E+08
 
   -0.18480E+08         0.42816E+05         0.00000E+00
    0.42816E+05        -0.47506E+08         0.00000E+00
    0.00000E+00         0.00000E+00        -0.18474E+08
 
   -0.18480E+08         0.47118E+05         0.00000E+00
    0.47118E+05        -0.47508E+08         0.00000E+00
    0.00000E+00         0.00000E+00        -0.18477E+08
 
   -0.18480E+08         0.51651E+05         0.00000E+00
    0.51651E+05        -0.47510E+08         0.00000E+00
    0.00000E+00         0.00000E+00        -0.18479E+08
 
   -0.18502E+08         0.18004E+04         0.00000E+00
    0.18004E+04        -0.47515E+08         0.00000E+00
    0.00000E+00         0.00000E+00        -0.18463E+08
 
   -0.18501E+08         0.53445E+04         0.00000E+00
    0.53445E+04        -0.47515E+08         0.00000E+00
    0.00000E+00         0.00000E+00        -0.18464E+08
 
   -0.18501E+08         0.86341E+04         0.00000E+00
    0.86341E+04        -0.47515E+08         0.00000E+00
    0.00000E+00         0.00000E+00        -0.18465E+08
 
   -0.18500E+08         0.11676E+05         0.00000E+00
    0.11676E+05        -0.47515E+08         0.00000E+00
    0.00000E+00         0.00000E+00        -0.18466E+08
 
   -0.18500E+08         0.14499E+05         0.00000E+00
    0.14499E+05        -0.47516E+08         0.00000E+00
    0.00000E+00         0.00000E+00        -0.18467E+08
 
   -0.18500E+08         0.17176E+05         0.00000E+00
    0.17176E+05        -0.47517E+08         0.00000E+00
    0.00000E+00         0.00000E+00        -0.18469E+08
 
   -0.18501E+08         0.19819E+05         0.00000E+00
    0.19819E+05        -0.47519E+08         0.00000E+00
    0.00000E+00         0.00000E+00        -0.18471E+08
 
   -0.18501E+08         0.22564E+05         0.00000E+00
    0.22564E+05        -0.47521E+08         0.00000E+00
    0.00000E+00         0.00000E+00        -0.18473E+08
 
   -0.18501E+08         0.25527E+05         0.00000E+00
    0.25527E+05        -0.47524E+08         0.00000E+00
    0.00000E+00         0.00000E+00        -0.18477E+08
 
   -0.18501E+08         0.28779E+05         0.00000E+00
    0.28779E+05        -0.47527E+08         0.00000E+00
    0.00000E+00         0.00000E+00        -0.18480E+08
 
   -0.18501E+08         0.32348E+05         0.00000E+00
    0.32348E+05        -0.47530E+08         0.00000E+00
    0.00000E+00         0.00000E+00        -0.18484E+08
 
   -0.18501E+08         0.36237E+05         0.00000E+00
    0.36237E+05        -0.47532E+08         0.00000E+00
    0.00000E+00         0.00000E+00        -0.18488E+08
 
   -0.18501E+08         0.40439E+05         0.00000E+00
    0.40439E+05        -0.47535E+08         0.00000E+00
    0.00000E+00         0.00000E+00        -0.18492E+08
 
   -0.18501E+08         0.44937E+05         0.00000E+00
    0.44937E+05        -0.47538E+08         0.00000E+00
    0.00000E+00         0.00000E+00        -0.18495E+08
 
   -0.18501E+08         0.49705E+05         0.00000E+00
    0.49705E+05        -0.47540E+08         0.00000E+00
    0.00000E+00         0.00000E+00        -0.18499E+08
 
   -0.18525E+08         0.18482E+04         0.00000E+00
    0.18482E+04        -0.47541E+08         0.00000E+00
    0.00000E+00         0.00000E+00        -0.18475E+08
 
   -0.18524E+08         0.53328E+04         0.00000E+00
    0.53328E+04        -0.47541E+08         0.00000E+00
    0.00000E+00         0.00000E+00        -0.18476E+08
 
   -0.18524E+08         0.84143E+04         0.00000E+00
    0.84143E+04        -0.47541E+08         0.00000E+00
    0.00000E+00         0.00000E+00        -0.18476E+08
 
   -0.18524E+08         0.11085E+05         0.00000E+00
    0.11085E+05        -0.47541E+08         0.00000E+00
    0.00000E+00         0.00000E+00        -0.18477E+08
 
   -0.18524E+08         0.13406E+05         0.00000E+00
    0.13406E+05        -0.47542E+08         0.00000E+00
    0.00000E+00         0.00000E+00        -0.18478E+08
 
   -0.18524E+08         0.15514E+05         0.00000E+00
    0.15514E+05        -0.47544E+08         0.00000E+00
    0.00000E+00         0.00000E+00        -0.18480E+08
 
   -0.18524E+08         0.17607E+05         0.00000E+00
    0.17607E+05        -0.47546E+08         0.00000E+00
    0.00000E+00         0.00000E+00        -0.18482E+08
 
   -0.18524E+08         0.19889E+05         0.00000E+00
    0.19889E+05        -0.47548E+08         0.00000E+00
    0.00000E+00         0.00000E+00        -0.18486E+08
 
   -0.18524E+08         0.22518E+05         0.00000E+00
    0.22518E+05        -0.47551E+08         0.00000E+00
    0.00000E+00         0.00000E+00        -0.18490E+08
 
   -0.18524E+08         0.25580E+05         0.00000E+00
    0.25580E+05        -0.47555E+08         0.00000E+00
    0.00000E+00         0.00000E+00        -0.18494E+08
 
   -0.18524E+08         0.29096E+05         0.00000E+00
    0.29096E+05        -0.47558E+08         0.00000E+00
    0.00000E+00         0.00000E+00        -0.18499E+08
 
   -0.18523E+08         0.33042E+05         0.00000E+00
    0.33042E+05        -0.47562E+08         0.00000E+00
    0.00000E+00         0.00000E+00        -0.18504E+08
 
   -0.18523E+08         0.37383E+05         0.00000E+00
    0.37383E+05        -0.47565E+08         0.00000E+00
    0.00000E+00         0.00000E+00        -0.18510E+08
 
   -0.18522E+08         0.42080E+05         0.00000E+00
    0.42080E+05        -0.47569E+08         0.00000E+00
    0.00000E+00         0.00000E+00        -0.18515E+08
 
   -0.18522E+08         0.47097E+05         0.00000E+00
    0.47097E+05        -0.47572E+08         0.00000E+00
    0.00000E+00         0.00000E+00        -0.18519E+08
 
   -0.18548E+08         0.19186E+04         0.00000E+00
    0.19186E+04        -0.47568E+08         0.00000E+00
    0.00000E+00         0.00000E+00        -0.18488E+08
 
   -0.18548E+08         0.53593E+04         0.00000E+00
    0.53593E+04        -0.47568E+08         0.00000E+00
    0.00000E+00         0.00000E+00        -0.18488E+08
 
   -0.18548E+08         0.81743E+04         0.00000E+00
    0.81743E+04        -0.47568E+08         0.00000E+00
    0.00000E+00         0.00000E+00        -0.18488E+08
 
   -0.18549E+08         0.10383E+05         0.00000E+00
    0.10383E+05        -0.47569E+08         0.00000E+00
    0.00000E+00         0.00000E+00        -0.18488E+08
 
   -0.18549E+08         0.12105E+05         0.00000E+00
    0.12105E+05        -0.47570E+08         0.00000E+00
    0.00000E+00         0.00000E+00        -0.18489E+08
 
   -0.18549E+08         0.13585E+05         0.00000E+00
    0.13585E+05        -0.47571E+08         0.00000E+00
    0.00000E+00         0.00000E+00        -0.18491E+08
 
   -0.18549E+08         0.15095E+05         0.00000E+00
    0.15095E+05        -0.47574E+08         0.00000E+00
    0.00000E+00         0.00000E+00        -0.18494E+08
 
   -0.18549E+08         0.16869E+05         0.00000E+00
    0.16869E+05        -0.47576E+08         0.00000E+00
    0.00000E+00         0.00000E+00        -0.18498E+08
 
   -0.18549E+08         0.19080E+05         0.00000E+00
    0.19080E+05        -0.47580E+08         0.00000E+00
    0.00000E+00         0.00000E+00        -0.18503E+08
 
   -0.18548E+08         0.21842E+05         0.00000E+00
    0.21842E+05        -0.47583E+08         0.00000E+00
    0.00000E+00         0.00000E+00        -0.18508E+08
 
   -0.18547E+08         0.25201E+05         0.00000E+00
    0.25201E+05        -0.47587E+08         0.00000E+00
    0.00000E+00         0.00000E+00        -0.18514E+08
 
   -0.18546E+08         0.29134E+05         0.00000E+00
    0.29134E+05        -0.47592E+08         0.00000E+00
    0.00000E+00         0.00000E+00        -0.18521E+08
 
   -0.18545E+08         0.33576E+05         0.00000E+00
    0.33576E+05        -0.47596E+08         0.00000E+00
    0.00000E+00         0.00000E+00        -0.18528E+08
 
   -0.18544E+08         0.38461E+05         0.00000E+00
    0.38461E+05        -0.47600E+08         0.00000E+00
    0.00000E+00         0.00000E+00        -0.18534E+08
 
   -0.18543E+08         0.43732E+05         0.00000E+00
    0.43732E+05        -0.47604E+08         0.00000E+00
    0.00000E+00         0.00000E+00        -0.18540E+08
 
   -0.18573E+08         0.20027E+04         0.00000E+00
    0.20027E+04        -0.47596E+08         0.00000E+00
    0.00000E+00         0.00000E+00        -0.18500E+08
 
   -0.18573E+08         0.53594E+04         0.00000E+00
    0.53594E+04        -0.47596E+08         0.00000E+00
    0.00000E+00         0.00000E+00        -0.18500E+08
 
   -0.18574E+08         0.78135E+04         0.00000E+00
    0.78135E+04        -0.47596E+08         0.00000E+00
    0.00000E+00         0.00000E+00        -0.18499E+08
 
   -0.18575E+08         0.94334E+04         0.00000E+00
    0.94334E+04        -0.47597E+08         0.00000E+00
    0.00000E+00         0.00000E+00        -0.18499E+08
 
   -0.18576E+08         0.10512E+05         0.00000E+00
    0.10512E+05        -0.47598E+08         0.00000E+00
    0.00000E+00         0.00000E+00        -0.18500E+08
 
   -0.18576E+08         0.11409E+05         0.00000E+00
    0.11409E+05        -0.47600E+08         0.00000E+00
    0.00000E+00         0.00000E+00        -0.18502E+08
 
   -0.18576E+08         0.12401E+05         0.00000E+00
    0.12401E+05        -0.47603E+08         0.00000E+00
    0.00000E+00         0.00000E+00        -0.18506E+08
 
   -0.18575E+08         0.13682E+05         0.00000E+00
    0.13682E+05        -0.47606E+08         0.00000E+00
    0.00000E+00         0.00000E+00        -0.18510E+08
 
   -0.18574E+08         0.15409E+05         0.00000E+00
    0.15409E+05        -0.47609E+08         0.00000E+00
    0.00000E+00         0.00000E+00        -0.18516E+08
 
   -0.18573E+08         0.17722E+05         0.00000E+00
    0.17722E+05        -0.47613E+08         0.00000E+00
    0.00000E+00         0.00000E+00        -0.18522E+08
 
   -0.18571E+08         0.20732E+05         0.00000E+00
    0.20732E+05        -0.47617E+08         0.00000E+00
    0.00000E+00         0.00000E+00        -0.18529E+08
 
   -0.18570E+08         0.24484E+05         0.00000E+00
    0.24484E+05        -0.47622E+08         0.00000E+00
    0.00000E+00         0.00000E+00        -0.18537E+08
 
   -0.18568E+08         0.28928E+05         0.00000E+00
    0.28928E+05        -0.47627E+08         0.00000E+00
    0.00000E+00         0.00000E+00        -0.18546E+08
 
   -0.18567E+08         0.33958E+05         0.00000E+00
    0.33958E+05        -0.47632E+08         0.00000E+00
    0.00000E+00         0.00000E+00        -0.18554E+08
 
   -0.18566E+08         0.39473E+05         0.00000E+00
    0.39473E+05        -0.47637E+08         0.00000E+00
    0.00000E+00         0.00000E+00        -0.18562E+08
 
   -0.18598E+08         0.20816E+04         0.00000E+00
    0.20816E+04        -0.47625E+08         0.00000E+00
    0.00000E+00         0.00000E+00        -0.18513E+08
 
   -0.18599E+08         0.52222E+04         0.00000E+00
    0.52222E+04        -0.47625E+08         0.00000E+00
    0.00000E+00         0.00000E+00        -0.18512E+08
 
   -0.18601E+08         0.70990E+04         0.00000E+00
    0.70990E+04        -0.47626E+08         0.00000E+00
    0.00000E+00         0.00000E+00        -0.18511E+08
 
   -0.18603E+08         0.80446E+04         0.00000E+00
    0.80446E+04        -0.47627E+08         0.00000E+00
    0.00000E+00         0.00000E+00        -0.18511E+08
 
   -0.18604E+08         0.85759E+04         0.00000E+00
    0.85759E+04        -0.47629E+08         0.00000E+00
    0.00000E+00         0.00000E+00        -0.18512E+08
 
   -0.18604E+08         0.90453E+04         0.00000E+00
    0.90453E+04        -0.47631E+08         0.00000E+00
    0.00000E+00         0.00000E+00        -0.18515E+08
 
   -0.18604E+08         0.96459E+04         0.00000E+00
    0.96459E+04        -0.47634E+08         0.00000E+00
    0.00000E+00         0.00000E+00        -0.18518E+08
 
   -0.18603E+08         0.10502E+05         0.00000E+00
    0.10502E+05        -0.47636E+08         0.00000E+00
    0.00000E+00         0.00000E+00        -0.18523E+08
 
   -0.18601E+08         0.11731E+05         0.00000E+00
    0.11731E+05        -0.47640E+08         0.00000E+00
    0.00000E+00         0.00000E+00        -0.18529E+08
 
   -0.18599E+08         0.13471E+05         0.00000E+00
    0.13471E+05        -0.47644E+08         0.00000E+00
    0.00000E+00         0.00000E+00        -0.18536E+08
 
   -0.18597E+08         0.15883E+05         0.00000E+00
    0.15883E+05        -0.47648E+08         0.00000E+00
    0.00000E+00         0.00000E+00        -0.18544E+08
 
   -0.18595E+08         0.19136E+05         0.00000E+00
    0.19136E+05        -0.47653E+08         0.00000E+00
    0.00000E+00         0.00000E+00        -0.18553E+08
 
   -0.18593E+08         0.23333E+05         0.00000E+00
    0.23333E+05        -0.47659E+08         0.00000E+00
    0.00000E+00         0.00000E+00        -0.18563E+08
 
   -0.18591E+08         0.28393E+05         0.00000E+00
    0.28393E+05        -0.47665E+08         0.00000E+00
    0.00000E+00         0.00000E+00        -0.18573E+08
 
   -0.18589E+08         0.34123E+05         0.00000E+00
    0.34123E+05        -0.47672E+08         0.00000E+00
    0.00000E+00         0.00000E+00        -0.18583E+08
 
   -0.18624E+08         0.21037E+04         0.00000E+00
    0.21037E+04        -0.47655E+08         0.00000E+00
    0.00000E+00         0.00000E+00        -0.18527E+08
 
   -0.18627E+08         0.46667E+04         0.00000E+00
    0.46667E+04        -0.47655E+08         0.00000E+00
    0.00000E+00         0.00000E+00        -0.18524E+08
 
   -0.18630E+08         0.57068E+04         0.00000E+00
    0.57068E+04        -0.47657E+08         0.00000E+00
    0.00000E+00         0.00000E+00        -0.18523E+08
 
   -0.18632E+08         0.61168E+04         0.00000E+00
    0.61168E+04        -0.47659E+08         0.00000E+00
    0.00000E+00         0.00000E+00        -0.18523E+08
 
   -0.18634E+08         0.63456E+04         0.00000E+00
    0.63456E+04        -0.47661E+08         0.00000E+00
    0.00000E+00         0.00000E+00        -0.18525E+08
 
   -0.18634E+08         0.65705E+04         0.00000E+00
    0.65705E+04        -0.47663E+08         0.00000E+00
    0.00000E+00         0.00000E+00        -0.18528E+08
 
   -0.18633E+08         0.69025E+04         0.00000E+00
    0.69025E+04        -0.47666E+08         0.00000E+00
    0.00000E+00         0.00000E+00        -0.18532E+08
 
   -0.18632E+08         0.74229E+04         0.00000E+00
    0.74229E+04        -0.47669E+08         0.00000E+00
    0.00000E+00         0.00000E+00        -0.18537E+08
 
   -0.18630E+08         0.82096E+04         0.00000E+00
    0.82096E+04        -0.47672E+08         0.00000E+00
    0.00000E+00         0.00000E+00        -0.18543E+08
 
   -0.18628E+08         0.93545E+04         0.00000E+00
    0.93545E+04        -0.47675E+08         0.00000E+00
    0.00000E+00         0.00000E+00        -0.18550E+08
 
   -0.18625E+08         0.10999E+05         0.00000E+00
    0.10999E+05        -0.47680E+08         0.00000E+00
    0.00000E+00         0.00000E+00        -0.18558E+08
 
   -0.18621E+08         0.13371E+05         0.00000E+00
    0.13371E+05        -0.47685E+08         0.00000E+00
    0.00000E+00         0.00000E+00        -0.18568E+08
 
   -0.18618E+08         0.16778E+05         0.00000E+00
    0.16778E+05        -0.47691E+08         0.00000E+00
    0.00000E+00         0.00000E+00        -0.18580E+08
 
   -0.18615E+08         0.21507E+05         0.00000E+00
    0.21507E+05        -0.47699E+08         0.00000E+00
    0.00000E+00         0.00000E+00        -0.18592E+08
 
   -0.18613E+08         0.27366E+05         0.00000E+00
    0.27366E+05        -0.47706E+08         0.00000E+00
    0.00000E+00         0.00000E+00        -0.18605E+08
 
   -0.18651E+08         0.17984E+04         0.00000E+00
    0.17984E+04        -0.47686E+08         0.00000E+00
    0.00000E+00         0.00000E+00        -0.18540E+08
 
   -0.18657E+08         0.30871E+04         0.00000E+00
    0.30871E+04        -0.47688E+08         0.00000E+00
    0.00000E+00         0.00000E+00        -0.18537E+08
 
   -0.18660E+08         0.35811E+04         0.00000E+00
    0.35811E+04        -0.47690E+08         0.00000E+00
    0.00000E+00         0.00000E+00        -0.18536E+08
 
   -0.18663E+08         0.38095E+04         0.00000E+00
    0.38095E+04        -0.47692E+08         0.00000E+00
    0.00000E+00         0.00000E+00        -0.18537E+08
 
   -0.18664E+08         0.39199E+04         0.00000E+00
    0.39199E+04        -0.47695E+08         0.00000E+00
    0.00000E+00         0.00000E+00        -0.18539E+08
 
   -0.18664E+08         0.40163E+04         0.00000E+00
    0.40163E+04        -0.47697E+08         0.00000E+00
    0.00000E+00         0.00000E+00        -0.18542E+08
 
   -0.18664E+08         0.41704E+04         0.00000E+00
    0.41704E+04        -0.47700E+08         0.00000E+00
    0.00000E+00         0.00000E+00        -0.18546E+08
 
   -0.18662E+08         0.44418E+04         0.00000E+00
    0.44418E+04        -0.47703E+08         0.00000E+00
    0.00000E+00         0.00000E+00        -0.18551E+08
 
   -0.18660E+08         0.48745E+04         0.00000E+00
    0.48745E+04        -0.47706E+08         0.00000E+00
    0.00000E+00         0.00000E+00        -0.18557E+08
 
   -0.18657E+08         0.55016E+04         0.00000E+00
    0.55016E+04        -0.47709E+08         0.00000E+00
    0.00000E+00         0.00000E+00        -0.18564E+08
 
   -0.18654E+08         0.63985E+04         0.00000E+00
    0.63985E+04        -0.47713E+08         0.00000E+00
    0.00000E+00         0.00000E+00        -0.18573E+08
 
   -0.18650E+08         0.77148E+04         0.00000E+00
    0.77148E+04        -0.47718E+08         0.00000E+00
    0.00000E+00         0.00000E+00        -0.18583E+08
 
   -0.18645E+08         0.97441E+04         0.00000E+00
    0.97441E+04        -0.47724E+08         0.00000E+00
    0.00000E+00         0.00000E+00        -0.18596E+08
 
   -0.18641E+08         0.13049E+05         0.00000E+00
    0.13049E+05        -0.47731E+08         0.00000E+00
    0.00000E+00         0.00000E+00        -0.18610E+08
 
   -0.18637E+08         0.18506E+05         0.00000E+00
    0.18506E+05        -0.47742E+08         0.00000E+00
    0.00000E+00         0.00000E+00        -0.18627E+08
 
   -0.18682E+08        -0.31850E+03         0.00000E+00
   -0.31850E+03        -0.47721E+08         0.00000E+00
    0.00000E+00         0.00000E+00        -0.18556E+08
 
   -0.18687E+08         0.70128E+03         0.00000E+00
    0.70128E+03        -0.47722E+08         0.00000E+00
    0.00000E+00         0.00000E+00        -0.18552E+08
 
   -0.18692E+08         0.11708E+04         0.00000E+00
    0.11708E+04        -0.47725E+08         0.00000E+00
    0.00000E+00         0.00000E+00        -0.18550E+08
 
   -0.18694E+08         0.12975E+04         0.00000E+00
    0.12975E+04        -0.47727E+08         0.00000E+00
    0.00000E+00         0.00000E+00        -0.18551E+08
 
   -0.18696E+08         0.13334E+04         0.00000E+00
    0.13334E+04        -0.47730E+08         0.00000E+00
    0.00000E+00         0.00000E+00        -0.18553E+08
 
   -0.18696E+08         0.13591E+04         0.00000E+00
    0.13591E+04        -0.47732E+08         0.00000E+00
    0.00000E+00         0.00000E+00        -0.18557E+08
 
   -0.18695E+08         0.14000E+04         0.00000E+00
    0.14000E+04        -0.47735E+08         0.00000E+00
    0.00000E+00         0.00000E+00        -0.18561E+08
 
   -0.18694E+08         0.14834E+04         0.00000E+00
    0.14834E+04        -0.47738E+08         0.00000E+00
    0.00000E+00         0.00000E+00        -0.18566E+08
 
   -0.18691E+08         0.16230E+04         0.00000E+00
    0.16230E+04        -0.47741E+08         0.00000E+00
    0.00000E+00         0.00000E+00        -0.18572E+08
 
   -0.18689E+08         0.18208E+04         0.00000E+00
    0.18208E+04        -0.47745E+08         0.00000E+00
    0.00000E+00         0.00000E+00        -0.18580E+08
 
   -0.18685E+08         0.20977E+04         0.00000E+00
    0.20977E+04        -0.47749E+08         0.00000E+00
    0.00000E+00         0.00000E+00        -0.18589E+08
 
   -0.18680E+08         0.24939E+04         0.00000E+00
    0.24939E+04        -0.47753E+08         0.00000E+00
    0.00000E+00         0.00000E+00        -0.18599E+08
 
   -0.18675E+08         0.31088E+04         0.00000E+00
    0.31088E+04        -0.47759E+08         0.00000E+00
    0.00000E+00         0.00000E+00        -0.18612E+08
 
   -0.18669E+08         0.41980E+04         0.00000E+00
    0.41980E+04        -0.47766E+08         0.00000E+00
    0.00000E+00         0.00000E+00        -0.18627E+08
 
   -0.18661E+08         0.67255E+04         0.00000E+00
    0.67255E+04        -0.47775E+08         0.00000E+00
    0.00000E+00         0.00000E+00        -0.18647E+08
 
TENSORS stresstot double 
   -0.31051E+08         0.83876E+02         0.00000E+00
    0.83876E+02        -0.60000E+08         0.00000E+00
    0.00000E+00         0.00000E+00        -0.31087E+08
 
   -0.31049E+08         0.25098E+03         0.00000E+00
    0.25098E+03        -0.60000E+08         0.00000E+00
    0.00000E+00         0.00000E+00        -0.31089E+08
 
   -0.31047E+08         0.41553E+03         0.00000E+00
    0.41553E+03        -0.59999E+08         0.00000E+00
    0.00000E+00         0.00000E+00        -0.31091E+08
 
   -0.31045E+08         0.57723E+03         0.00000E+00
    0.57723E+03        -0.59998E+08         0.00000E+00
    0.00000E+00         0.00000E+00        -0.31091E+08
 
   -0.31044E+08         0.73591E+03         0.00000E+00
    0.73591E+03        -0.59997E+08         0.00000E+00
    0.00000E+00         0.00000E+00        -0.31091E+08
 
   -0.31043E+08         0.89149E+03         0.00000E+00
    0.89149E+03        -0.59995E+08         0.00000E+00
    0.00000E+00         0.00000E+00        -0.31090E+08
 
   -0.31042E+08         0.10440E+04         0.00000E+00
    0.10440E+04        -0.59993E+08         0.00000E+00
    0.00000E+00         0.00000E+00        -0.31088E+08
 
   -0.31041E+08         0.11938E+04         0.00000E+00
    0.11938E+04        -0.59991E+08         0.00000E+00
    0.00000E+00         0.00000E+00        -0.31086E+08
 
   -0.31041E+08         0.13410E+04         0.00000E+00
    0.13410E+04        -0.59988E+08         0.00000E+00
    0.00000E+00         0.00000E+00        -0.31082E+08
 
   -0.31041E+08         0.14861E+04         0.00000E+00
    0.14861E+04        -0.59985E+08         0.00000E+00
    0.00000E+00         0.00000E+00        -0.31079E+08
 
   -0.31042E+08         0.16298E+04         0.00000E+00
    0.16298E+04        -0.59982E+08         0.00000E+00
    0.00000E+00         0.00000E+00        -0.31074E+08
 
   -0.31042E+08         0.17726E+04         0.00000E+00
    0.17726E+04        -0.59979E+08         0.00000E+00
    0.00000E+00         0.00000E+00        -0.31069E+08
 
   -0.31043E+08         0.19154E+04         0.00000E+00
    0.19154E+04        -0.59975E+08         0.00000E+00
    0.00000E+00         0.00000E+00        -0.31063E+08
 
   -0.31044E+08         0.20587E+04         0.00000E+00
    0.20587E+04        -0.59971E+08         0.00000E+00
    0.00000E+00         0.00000E+00        -0.31057E+08
 
   -0.31046E+08         0.22035E+04         0.00000E+00
    0.22035E+04        -0.59967E+08         0.00000E+00
    0.00000E+00         0.00000E+00        -0.31050E+08
 
   -0.31051E+08         0.25150E+03         0.00000E+00
    0.25150E+03        -0.60000E+08         0.00000E+00
    0.00000E+00         0.00000E+00        -0.31087E+08
 
   -0.31049E+08         0.75246E+03         0.00000E+00
    0.75246E+03        -0.60000E+08         0.00000E+00
    0.00000E+00         0.00000E+00        -0.31089E+08
 
   -0.31047E+08         0.12456E+04         0.00000E+00
    0.12456E+04        -0.59999E+08         0.00000E+00
    0.00000E+00         0.00000E+00        -0.31090E+08
 
   -0.31045E+08         0.17300E+04         0.00000E+00
    0.17300E+04        -0.59998E+08         0.00000E+00
    0.00000E+00         0.00000E+00        -0.31091E+08
 
   -0.31043E+08         0.22053E+04         0.00000E+00
    0.22053E+04        -0.59997E+08         0.00000E+00
    0.00000E+00         0.00000E+00        -0.31090E+08
 
   -0.31042E+08         0.26711E+04         0.00000E+00
    0.26711E+04        -0.59995E+08         0.00000E+00
    0.00000E+00         0.00000E+00        -0.31089E+08
 
   -0.31041E+08         0.31277E+04         0.00000E+00
    0.31277E+04        -0.59993E+08         0.00000E+00
    0.00000E+00         0.00000E+00        -0.31088E+08
 
   -0.31041E+08         0.35758E+04         0.00000E+00
    0.35758E+04        -0.59991E+08         0.00000E+00
    0.00000E+00         0.00000E+00        -0.31085E+08
 
   -0.31041E+08         0.40163E+04         0.00000E+00
    0.40163E+04        -0.59988E+08         0.00000E+00
    0.00000E+00         0.00000E+00        -0.31082E+08
 
   -0.31041E+08         0.44506E+04         0.00000E+00
    0.44506E+04        -0.59985E+08         0.00000E+00
    0.00000E+00         0.00000E+00        -0.31078E+08
 
   -0.31041E+08         0.48806E+04         0.00000E+00
    0.48806E+04        -0.59982E+08         0.00000E+00
    0.00000E+00         0.00000E+00        -0.31074E+08
 
   -0.31042E+08         0.53080E+04         0.00000E+00
    0.53080E+04        -0.59979E+08         0.00000E+00
    0.00000E+00         0.00000E+00        -0.31069E+08
 
   -0.31043E+08         0.57350E+04         0.00000E+00
    0.57350E+04        -0.59975E+08         0.00000E+00
    0.00000E+00         0.00000E+00        -0.31063E+08
 
   -0.31044E+08         0.61640E+04         0.00000E+00
    0.61640E+04        -0.59971E+08         0.00000E+00
    0.00000E+00         0.00000E+00        -0.31057E+08
 
   -0.31045E+08         0.65973E+04         0.00000E+00
    0.65973E+04        -0.59967E+08         0.00000E+00
    0.00000E+00         0.00000E+00        -0.31050E+08
 
   -0.31050E+08         0.41868E+03         0.00000E+00
    0.41868E+03        -0.60000E+08         0.00000E+00
    0.00000E+00         0.00000E+00        -0.31086E+08
 
   -0.31048E+08         0.12525E+04         0.00000E+00
    0.12525E+04        -0.60000E+08         0.00000E+00
    0.00000E+00         0.00000E+00        -0.31088E+08
 
   -0.31046E+08         0.20726E+04         0.00000E+00
    0.20726E+04        -0.59999E+08         0.00000E+00
    0.00000E+00         0.00000E+00        -0.31089E+08
 
   -0.31044E+08         0.28777E+04         0.00000E+00
    0.28777E+04        -0.59998E+08         0.00000E+00
    0.00000E+00         0.00000E+00        -0.31090E+08
 
   -0.31043E+08         0.36670E+04         0.00000E+00
    0.36670E+04        -0.59997E+08         0.00000E+00
    0.00000E+00         0.00000E+00        -0.31089E+08
 
   -0.31042E+08         0.44402E+04         0.00000E+00
    0.44402E+04        -0.59995E+08         0.00000E+00
    0.00000E+00         0.00000E+00        -0.31088E+08
 
   -0.31041E+08         0.51979E+04         0.00000E+00
    0.51979E+04        -0.59993E+08         0.00000E+00
    0.00000E+00         0.00000E+00        -0.31087E+08
 
   -0.31040E+08         0.59411E+04         0.00000E+00
    0.59411E+04        -0.59991E+08         0.00000E+00
    0.00000E+00         0.00000E+00        -0.31084E+08
 
   -0.31040E+08         0.66716E+04         0.00000E+00
    0.66716E+04        -0.59988E+08         0.00000E+00
    0.00000E+00         0.00000E+00        -0.31081E+08
 
   -0.31040E+08         0.73918E+04         0.00000E+00
    0.73918E+04        -0.59986E+08         0.00000E+00
    0.00000E+00         0.00000E+00        -0.31077E+08
 
   -0.31041E+08         0.81046E+04         0.00000E+00
    0.81046E+04        -0.59983E+08         0.00000E+00
    0.00000E+00         0.00000E+00        -0.31073E+08
 
   -0.31041E+08         0.88133E+04         0.00000E+00
    0.88133E+04        -0.59979E+08         0.00000E+00
    0.00000E+00         0.00000E+00        -0.31068E+08
 
   -0.31042E+08         0.95214E+04         0.00000E+00
    0.95214E+04        -0.59976E+08         0.00000E+00
    0.00000E+00         0.00000E+00        -0.31062E+08
 
   -0.31043E+08         0.10233E+05         0.00000E+00
    0.10233E+05        -0.59972E+08         0.00000E+00
    0.00000E+00         0.00000E+00        -0.31056E+08
 
   -0.31045E+08         0.10951E+05         0.00000E+00
    0.10951E+05        -0.59968E+08         0.00000E+00
    0.00000E+00         0.00000E+00        -0.31049E+08
 
   -0.31049E+08         0.58502E+03         0.00000E+00
    0.58502E+03        -0.60000E+08         0.00000E+00
    0.00000E+00         0.00000E+00        -0.31085E+08
 
   -0.31047E+08         0.17496E+04         0.00000E+00
    0.17496E+04        -0.60000E+08         0.00000E+00
    0.00000E+00         0.00000E+00        -0.31087E+08
 
   -0.31045E+08         0.28940E+04         0.00000E+00
    0.28940E+04        -0.59999E+08         0.00000E+00
    0.00000E+00         0.00000E+00        -0.31088E+08
 
   -0.31043E+08         0.40163E+04         0.00000E+00
    0.40163E+04        -0.59998E+08         0.00000E+00
    0.00000E+00         0.00000E+00        -0.31088E+08
 
   -0.31042E+08         0.51154E+04         0.00000E+00
    0.51154E+04        -0.59997E+08         0.00000E+00
    0.00000E+00         0.00000E+00        -0.31088E+08
 
   -0.31041E+08         0.61914E+04         0.00000E+00
    0.61914E+04        -0.59995E+08         0.00000E+00
    0.00000E+00         0.00000E+00        -0.31087E+08
 
   -0.31040E+08         0.72449E+04         0.00000E+00
    0.72449E+04        -0.59993E+08         0.00000E+00
    0.00000E+00         0.00000E+00        -0.31085E+08
 
   -0.31039E+08         0.82779E+04         0.00000E+00
    0.82779E+04        -0.59991E+08         0.00000E+00
    0.00000E+00         0.00000E+00        -0.31083E+08
 
   -0.31039E+08         0.92930E+04         0.00000E+00
    0.92930E+04        -0.59989E+08         0.00000E+00
    0.00000E+00         0.00000E+00        -0.31080E+08
 
   -0.31039E+08         0.10294E+05         0.00000E+00
    0.10294E+05        -0.59986E+08         0.00000E+00
    0.00000E+00         0.00000E+00        -0.31076E+08
 
   -0.31040E+08         0.11284E+05         0.00000E+00
    0.11284E+05        -0.59983E+08         0.00000E+00
    0.00000E+00         0.00000E+00        -0.31072E+08
 
   -0.31040E+08         0.12268E+05         0.00000E+00
    0.12268E+05        -0.59979E+08         0.00000E+00
    0.00000E+00         0.00000E+00        -0.31067E+08
 
   -0.31041E+08         0.13252E+05         0.00000E+00
    0.13252E+05        -0.59976E+08         0.00000E+00
    0.00000E+00         0.00000E+00        -0.31061E+08
 
   -0.31042E+08         0.14241E+05         0.00000E+00
    0.14241E+05        -0.59972E+08         0.00000E+00
    0.00000E+00         0.00000E+00        -0.31055E+08
 
   -0.31044E+08         0.15239E+05         0.00000E+00
    0.15239E+05        -0.59968E+08         0.00000E+00
    0.00000E+00         0.00000E+00        -0.31048E+08
 
   -0.31048E+08         0.74992E+03         0.00000E+00
    0.74992E+03        -0.60000E+08         0.00000E+00
    0.00000E+00         0.00000E+00        -0.31083E+08
 
   -0.31046E+08         0.22422E+04         0.00000E+00
    0.22422E+04        -0.60000E+08         0.00000E+00
    0.00000E+00         0.00000E+00        -0.31085E+08
 
   -0.31044E+08         0.37066E+04         0.00000E+00
    0.37066E+04        -0.59999E+08         0.00000E+00
    0.00000E+00         0.00000E+00        -0.31086E+08
 
   -0.31042E+08         0.51408E+04         0.00000E+00
    0.51408E+04        -0.59998E+08         0.00000E+00
    0.00000E+00         0.00000E+00        -0.31086E+08
 
   -0.31041E+08         0.65438E+04         0.00000E+00
    0.65438E+04        -0.59997E+08         0.00000E+00
    0.00000E+00         0.00000E+00        -0.31086E+08
 
   -0.31040E+08         0.79159E+04         0.00000E+00
    0.79159E+04        -0.59995E+08         0.00000E+00
    0.00000E+00         0.00000E+00        -0.31085E+08
 
   -0.31039E+08         0.92584E+04         0.00000E+00
    0.92584E+04        -0.59993E+08         0.00000E+00
    0.00000E+00         0.00000E+00        -0.31083E+08
 
   -0.31038E+08         0.10574E+05         0.00000E+00
    0.10574E+05        -0.59991E+08         0.00000E+00
    0.00000E+00         0.00000E+00        -0.31081E+08
 
   -0.31038E+08         0.11866E+05         0.00000E+00
    0.11866E+05        -0.59989E+08         0.00000E+00
    0.00000E+00         0.00000E+00        -0.31078E+08
 
   -0.31038E+08         0.13140E+05         0.00000E+00
    0.13140E+05        -0.59986E+08         0.00000E+00
    0.00000E+00         0.00000E+00        -0.31074E+08
 
   -0.31039E+08         0.14400E+05         0.00000E+00
    0.14400E+05        -0.59983E+08         0.00000E+00
    0.00000E+00         0.00000E+00        -0.31070E+08
 
   -0.31039E+08         0.15653E+05         0.00000E+00
    0.15653E+05        -0.59980E+08         0.00000E+00
    0.00000E+00         0.00000E+00        -0.31065E+08
 
   -0.31040E+08         0.16905E+05         0.00000E+00
    0.16905E+05        -0.59976E+08         0.00000E+00
    0.00000E+00         0.00000E+00        -0.31059E+08
 
   -0.31041E+08         0.18164E+05         0.00000E+00
    0.18164E+05        -0.59973E+08         0.00000E+00
    0.00000E+00         0.00000E+00        -0.31053E+08
 
   -0.31043E+08         0.19435E+05         0.00000E+00
    0.19435E+05        -0.59969E+08         0.00000E+00
    0.00000E+00         0.00000E+00        -0.31047E+08
 
   -0.31046E+08         0.91254E+03         0.00000E+00
    0.91254E+03        -0.60000E+08         0.00000E+00
    0.00000E+00         0.00000E+00        -0.31080E+08
 
   -0.31044E+08         0.27278E+04         0.00000E+00
    0.27278E+04        -0.60000E+08         0.00000E+00
    0.00000E+00         0.00000E+00        -0.31082E+08
 
   -0.31042E+08         0.45061E+04         0.00000E+00
    0.45061E+04        -0.59999E+08         0.00000E+00
    0.00000E+00         0.00000E+00        -0.31083E+08
 
   -0.31040E+08         0.62453E+04         0.00000E+00
    0.62453E+04        -0.59998E+08         0.00000E+00
    0.00000E+00         0.00000E+00        -0.31084E+08
 
   -0.31039E+08         0.79443E+04         0.00000E+00
    0.79443E+04        -0.59997E+08         0.00000E+00
    0.00000E+00         0.00000E+00        -0.31083E+08
 
   -0.31038E+08         0.96039E+04         0.00000E+00
    0.96039E+04        -0.59995E+08         0.00000E+00
    0.00000E+00         0.00000E+00        -0.31082E+08
 
   -0.31037E+08         0.11226E+05         0.00000E+00
    0.11226E+05        -0.59993E+08         0.00000E+00
    0.00000E+00         0.00000E+00        -0.31081E+08
 
   -0.31037E+08         0.12815E+05         0.00000E+00
    0.12815E+05        -0.59991E+08         0.00000E+00
    0.00000E+00         0.00000E+00        -0.31078E+08
 
   -0.31037E+08         0.14376E+05         0.00000E+00
    0.14376E+05        -0.59989E+08         0.00000E+00
    0.00000E+00         0.00000E+00        -0.31075E+08
 
   -0.31037E+08         0.15913E+05         0.00000E+00
    0.15913E+05        -0.59986E+08         0.00000E+00
    0.00000E+00         0.00000E+00        -0.31072E+08
 
   -0.31037E+08         0.17434E+05         0.00000E+00
    0.17434E+05        -0.59984E+08         0.00000E+00
    0.00000E+00         0.00000E+00        -0.31068E+08
 
   -0.31038E+08         0.18947E+05         0.00000E+00
    0.18947E+05        -0.59980E+08         0.00000E+00
    0.00000E+00         0.00000E+00        -0.31063E+08
 
   -0.31039E+08         0.20459E+05         0.00000E+00
    0.20459E+05        -0.59977E+08         0.00000E+00
    0.00000E+00         0.00000E+00        -0.31058E+08
 
   -0.31040E+08         0.21977E+05         0.00000E+00
    0.21977E+05        -0.59973E+08         0.00000E+00
    0.00000E+00         0.00000E+00        -0.31052E+08
 
   -0.31041E+08         0.23512E+05         0.00000E+00
    0.23512E+05        -0.59970E+08         0.00000E+00
    0.00000E+00         0.00000E+00        -0.31045E+08
 
   -0.31044E+08         0.10717E+04         0.00000E+00
    0.10717E+04        -0.60000E+08         0.00000E+00
    0.00000E+00         0.00000E+00        -0.31077E+08
 
   -0.31042E+08         0.32030E+04         0.00000E+00
    0.32030E+04        -0.60000E+08         0.00000E+00
    0.00000E+00         0.00000E+00        -0.31079E+08
 
   -0.31040E+08         0.52872E+04         0.00000E+00
    0.52872E+04        -0.59999E+08         0.00000E+00
    0.00000E+00         0.00000E+00        -0.31080E+08
 
   -0.31039E+08         0.73221E+04         0.00000E+00
    0.73221E+04        -0.59998E+08         0.00000E+00
    0.00000E+00         0.00000E+00        -0.31081E+08
 
   -0.31037E+08         0.93072E+04         0.00000E+00
    0.93072E+04        -0.59997E+08         0.00000E+00
    0.00000E+00         0.00000E+00        -0.31080E+08
 
   -0.31036E+08         0.11244E+05         0.00000E+00
    0.11244E+05        -0.59995E+08         0.00000E+00
    0.00000E+00         0.00000E+00        -0.31079E+08
 
   -0.31036E+08         0.13136E+05         0.00000E+00
    0.13136E+05        -0.59994E+08         0.00000E+00
    0.00000E+00         0.00000E+00        -0.31078E+08
 
   -0.31035E+08         0.14987E+05         0.00000E+00
    0.14987E+05        -0.59992E+08         0.00000E+00
    0.00000E+00         0.00000E+00        -0.31076E+08
 
   -0.31035E+08         0.16805E+05         0.00000E+00
    0.16805E+05        -0.59989E+08         0.00000E+00
    0.00000E+00         0.00000E+00        -0.31073E+08
 
   -0.31035E+08         0.18595E+05         0.00000E+00
    0.18595E+05        -0.59987E+08         0.00000E+00
    0.00000E+00         0.00000E+00        -0.31069E+08
 
   -0.31036E+08         0.20367E+05         0.00000E+00
    0.20367E+05        -0.59984E+08         0.00000E+00
    0.00000E+00         0.00000E+00        -0.31065E+08
 
   -0.31036E+08         0.22129E+05         0.00000E+00
    0.22129E+05        -0.59981E+08         0.00000E+00
    0.00000E+00         0.00000E+00        -0.31060E+08
 
   -0.31037E+08         0.23890E+05         0.00000E+00
    0.23890E+05        -0.59978E+08         0.00000E+00
    0.00000E+00         0.00000E+00        -0.31055E+08
 
   -0.31038E+08         0.25659E+05         0.00000E+00
    0.25659E+05        -0.59974E+08         0.00000E+00
    0.00000E+00         0.00000E+00        -0.31050E+08
 
   -0.31040E+08         0.27446E+05         0.00000E+00
    0.27446E+05        -0.59971E+08         0.00000E+00
    0.00000E+00         0.00000E+00        -0.31043E+08
 
   -0.31042E+08         0.12259E+04         0.00000E+00
    0.12259E+04        -0.60000E+08         0.00000E+00
    0.00000E+00         0.00000E+00        -0.31074E+08
 
   -0.31040E+08         0.36634E+04         0.00000E+00
    0.36634E+04        -0.60000E+08         0.00000E+00
    0.00000E+00         0.00000E+00        -0.31076E+08
 
   -0.31038E+08         0.60428E+04         0.00000E+00
    0.60428E+04        -0.59999E+08         0.00000E+00
    0.00000E+00         0.00000E+00        -0.31077E+08
 
   -0.31036E+08         0.83620E+04         0.00000E+00
    0.83620E+04        -0.59998E+08         0.00000E+00
    0.00000E+00         0.00000E+00        -0.31077E+08
 
   -0.31035E+08         0.10621E+05         0.00000E+00
    0.10621E+05        -0.59997E+08         0.00000E+00
    0.00000E+00         0.00000E+00        -0.31077E+08
 
   -0.31034E+08         0.12823E+05         0.00000E+00
    0.12823E+05        -0.59996E+08         0.00000E+00
    0.00000E+00         0.00000E+00        -0.31076E+08
 
   -0.31034E+08         0.14972E+05         0.00000E+00
    0.14972E+05        -0.59994E+08         0.00000E+00
    0.00000E+00         0.00000E+00        -0.31074E+08
 
   -0.31033E+08         0.17074E+05         0.00000E+00
    0.17074E+05        -0.59992E+08         0.00000E+00
    0.00000E+00         0.00000E+00        -0.31072E+08
 
   -0.31033E+08         0.19136E+05         0.00000E+00
    0.19136E+05        -0.59990E+08         0.00000E+00
    0.00000E+00         0.00000E+00        -0.31069E+08
 
   -0.31033E+08         0.21168E+05         0.00000E+00
    0.21168E+05        -0.59987E+08         0.00000E+00
    0.00000E+00         0.00000E+00        -0.31066E+08
 
   -0.31034E+08         0.23179E+05         0.00000E+00
    0.23179E+05        -0.59985E+08         0.00000E+00
    0.00000E+00         0.00000E+00        -0.31062E+08
 
   -0.31034E+08         0.25178E+05         0.00000E+00
    0.25178E+05        -0.59982E+08         0.00000E+00
    0.00000E+00         0.00000E+00        -0.31058E+08
 
   -0.31035E+08         0.27176E+05         0.00000E+00
    0.27176E+05        -0.59979E+08         0.00000E+00
    0.00000E+00         0.00000E+00        -0.31053E+08
 
   -0.31036E+08         0.29183E+05         0.00000E+00
    0.29183E+05        -0.59976E+08         0.00000E+00
    0.00000E+00         0.00000E+00        -0.31047E+08
 
   -0.31038E+08         0.31212E+05         0.00000E+00
    0.31212E+05        -0.59972E+08         0.00000E+00
    0.00000E+00         0.00000E+00        -0.31041E+08
 
   -0.31040E+08         0.13730E+04         0.00000E+00
    0.13730E+04        -0.60000E+08         0.00000E+00
    0.00000E+00         0.00000E+00        -0.31070E+08
 
   -0.31037E+08         0.41037E+04         0.00000E+00
    0.41037E+04        -0.60000E+08         0.00000E+00
    0.00000E+00         0.00000E+00        -0.31072E+08
 
   -0.31035E+08         0.67645E+04         0.00000E+00
    0.67645E+04        -0.59999E+08         0.00000E+00
    0.00000E+00         0.00000E+00        -0.31073E+08
 
   -0.31034E+08         0.93539E+04         0.00000E+00
    0.93539E+04        -0.59998E+08         0.00000E+00
    0.00000E+00         0.00000E+00        -0.31073E+08
 
   -0.31033E+08         0.11873E+05         0.00000E+00
    0.11873E+05        -0.59997E+08         0.00000E+00
    0.00000E+00         0.00000E+00        -0.31073E+08
 
   -0.31032E+08         0.14326E+05         0.00000E+00
    0.14326E+05        -0.59996E+08         0.00000E+00
    0.00000E+00         0.00000E+00        -0.31072E+08
 
   -0.31031E+08         0.16718E+05         0.00000E+00
    0.16718E+05        -0.59994E+08         0.00000E+00
    0.00000E+00         0.00000E+00        -0.31071E+08
 
   -0.31031E+08         0.19057E+05         0.00000E+00
    0.19057E+05        -0.59992E+08         0.00000E+00
    0.00000E+00         0.00000E+00        -0.31068E+08
 
   -0.31031E+08         0.21352E+05         0.00000E+00
    0.21352E+05        -0.59990E+08         0.00000E+00
    0.00000E+00         0.00000E+00        -0.31066E+08
 
   -0.31031E+08         0.23612E+05         0.00000E+00
    0.23612E+05        -0.59988E+08         0.00000E+00
    0.00000E+00         0.00000E+00        -0.31063E+08
 
   -0.31032E+08         0.25849E+05         0.00000E+00
    0.25849E+05        -0.59986E+08         0.00000E+00
    0.00000E+00         0.00000E+00        -0.31059E+08
 
   -0.31032E+08         0.28072E+05         0.00000E+00
    0.28072E+05        -0.59983E+08         0.00000E+00
    0.00000E+00         0.00000E+00        -0.31055E+08
 
   -0.31033E+08         0.30294E+05         0.00000E+00
    0.30294E+05        -0.59980E+08         0.00000E+00
    0.00000E+00         0.00000E+00        -0.31050E+08
 
   -0.31034E+08         0.32527E+05         0.00000E+00
    0.32527E+05        -0.59977E+08         0.00000E+00
    0.00000E+00         0.00000E+00        -0.31045E+08
 
   -0.31035E+08         0.34784E+05         0.00000E+00
    0.34784E+05        -0.59974E+08         0.00000E+00
    0.00000E+00         0.00000E+00        -0.31039E+08
 
   -0.31037E+08         0.15105E+04         0.00000E+00
    0.15105E+04        -0.60000E+08         0.00000E+00
    0.00000E+00         0.00000E+00        -0.31065E+08
 
   -0.31035E+08         0.45170E+04         0.00000E+00
    0.45170E+04        -0.60000E+08         0.00000E+00
    0.00000E+00         0.00000E+00        -0.31067E+08
 
   -0.31033E+08         0.74420E+04         0.00000E+00
    0.74420E+04        -0.59999E+08         0.00000E+00
    0.00000E+00         0.00000E+00        -0.31068E+08
 
   -0.31031E+08         0.10285E+05         0.00000E+00
    0.10285E+05        -0.59998E+08         0.00000E+00
    0.00000E+00         0.00000E+00        -0.31069E+08
 
   -0.31030E+08         0.13047E+05         0.00000E+00
    0.13047E+05        -0.59997E+08         0.00000E+00
    0.00000E+00         0.00000E+00        -0.31068E+08
 
   -0.31029E+08         0.15735E+05         0.00000E+00
    0.15735E+05        -0.59996E+08         0.00000E+00
    0.00000E+00         0.00000E+00        -0.31068E+08
 
   -0.31029E+08         0.18356E+05         0.00000E+00
    0.18356E+05        -0.59995E+08         0.00000E+00
    0.00000E+00         0.00000E+00        -0.31066E+08
 
   -0.31029E+08         0.20918E+05         0.00000E+00
    0.20918E+05        -0.59993E+08         0.00000E+00
    0.00000E+00         0.00000E+00        -0.31064E+08
 
   -0.31029E+08         0.23431E+05         0.00000E+00
    0.23431E+05        -0.59991E+08         0.00000E+00
    0.00000E+00         0.00000E+00        -0.31062E+08
 
   -0.31029E+08         0.25906E+05         0.00000E+00
    0.25906E+05        -0.59989E+08         0.00000E+00
    0.00000E+00         0.00000E+00        -0.31059E+08
 
   -0.31029E+08         0.28355E+05         0.00000E+00
    0.28355E+05        -0.59987E+08         0.00000E+00
    0.00000E+00         0.00000E+00        -0.31055E+08
 
   -0.31030E+08         0.30789E+05         0.00000E+00
    0.30789E+05        -0.59984E+08         0.00000E+00
    0.00000E+00         0.00000E+00        -0.31051E+08
 
   -0.31031E+08         0.33221E+05         0.00000E+00
    0.33221E+05        -0.59981E+08         0.00000E+00
    0.00000E+00         0.00000E+00        -0.31047E+08
 
   -0.31032E+08         0.35666E+05         0.00000E+00
    0.35666E+05        -0.59978E+08         0.00000E+00
    0.00000E+00         0.00000E+00        -0.31042E+08
 
   -0.31033E+08         0.38137E+05         0.00000E+00
    0.38137E+05        -0.59975E+08         0.00000E+00
    0.00000E+00         0.00000E+00        -0.31036E+08
 
   -0.31033E+08         0.16355E+04         0.00000E+00
    0.16355E+04        -0.60000E+08         0.00000E+00
    0.00000E+00         0.00000E+00        -0.31060E+08
 
   -0.31031E+08         0.48954E+04         0.00000E+00
    0.48954E+04        -0.60000E+08         0.00000E+00
    0.00000E+00         0.00000E+00        -0.31062E+08
 
   -0.31030E+08         0.80634E+04         0.00000E+00
    0.80634E+04        -0.59999E+08         0.00000E+00
    0.00000E+00         0.00000E+00        -0.31063E+08
 
   -0.31028E+08         0.11140E+05         0.00000E+00
    0.11140E+05        -0.59998E+08         0.00000E+00
    0.00000E+00         0.00000E+00        -0.31064E+08
 
   -0.31027E+08         0.14128E+05         0.00000E+00
    0.14128E+05        -0.59998E+08         0.00000E+00
    0.00000E+00         0.00000E+00        -0.31063E+08
 
   -0.31027E+08         0.17034E+05         0.00000E+00
    0.17034E+05        -0.59996E+08         0.00000E+00
    0.00000E+00         0.00000E+00        -0.31063E+08
 
   -0.31026E+08         0.19867E+05         0.00000E+00
    0.19867E+05        -0.59995E+08         0.00000E+00
    0.00000E+00         0.00000E+00        -0.31061E+08
 
   -0.31026E+08         0.22637E+05         0.00000E+00
    0.22637E+05        -0.59994E+08         0.00000E+00
    0.00000E+00         0.00000E+00        -0.31059E+08
 
   -0.31026E+08         0.25354E+05         0.00000E+00
    0.25354E+05        -0.59992E+08         0.00000E+00
    0.00000E+00         0.00000E+00        -0.31057E+08
 
   -0.31026E+08         0.28029E+05         0.00000E+00
    0.28029E+05        -0.59990E+08         0.00000E+00
    0.00000E+00         0.00000E+00        -0.31054E+08
 
   -0.31027E+08         0.30676E+05         0.00000E+00
    0.30676E+05        -0.59988E+08         0.00000E+00
    0.00000E+00         0.00000E+00        -0.31051E+08
 
   -0.31027E+08         0.33306E+05         0.00000E+00
    0.33306E+05        -0.59985E+08         0.00000E+00
    0.00000E+00         0.00000E+00        -0.31047E+08
 
   -0.31028E+08         0.35933E+05         0.00000E+00
    0.35933E+05        -0.59983E+08         0.00000E+00
    0.00000E+00         0.00000E+00        -0.31043E+08
 
   -0.31029E+08         0.38574E+05         0.00000E+00
    0.38574E+05        -0.59980E+08         0.00000E+00
    0.00000E+00         0.00000E+00        -0.31039E+08
 
   -0.31031E+08         0.41246E+05         0.00000E+00
    0.41246E+05        -0.59977E+08         0.00000E+00
    0.00000E+00         0.00000E+00        -0.31034E+08
 
   -0.31030E+08         0.17445E+04         0.00000E+00
    0.17445E+04        -0.60000E+08         0.00000E+00
    0.00000E+00         0.00000E+00        -0.31055E+08
 
   -0.31028E+08         0.52299E+04         0.00000E+00
    0.52299E+04        -0.60000E+08         0.00000E+00
    0.00000E+00         0.00000E+00        -0.31056E+08
 
   -0.31026E+08         0.86155E+04         0.00000E+00
    0.86155E+04        -0.59999E+08         0.00000E+00
    0.00000E+00         0.00000E+00        -0.31058E+08
 
   -0.31025E+08         0.11903E+05         0.00000E+00
    0.11903E+05        -0.59999E+08         0.00000E+00
    0.00000E+00         0.00000E+00        -0.31058E+08
 
   -0.31024E+08         0.15096E+05         0.00000E+00
    0.15096E+05        -0.59998E+08         0.00000E+00
    0.00000E+00         0.00000E+00        -0.31058E+08
 
   -0.31024E+08         0.18202E+05         0.00000E+00
    0.18202E+05        -0.59997E+08         0.00000E+00
    0.00000E+00         0.00000E+00        -0.31057E+08
 
   -0.31023E+08         0.21231E+05         0.00000E+00
    0.21231E+05        -0.59996E+08         0.00000E+00
    0.00000E+00         0.00000E+00        -0.31056E+08
 
   -0.31023E+08         0.24192E+05         0.00000E+00
    0.24192E+05        -0.59994E+08         0.00000E+00
    0.00000E+00         0.00000E+00        -0.31054E+08
 
   -0.31023E+08         0.27097E+05         0.00000E+00
    0.27097E+05        -0.59993E+08         0.00000E+00
    0.00000E+00         0.00000E+00        -0.31052E+08
 
   -0.31024E+08         0.29958E+05         0.00000E+00
    0.29958E+05        -0.59991E+08         0.00000E+00
    0.00000E+00         0.00000E+00        -0.31050E+08
 
   -0.31024E+08         0.32786E+05         0.00000E+00
    0.32786E+05        -0.59989E+08         0.00000E+00
    0.00000E+00         0.00000E+00        -0.31047E+08
 
   -0.31025E+08         0.35596E+05         0.00000E+00
    0.35596E+05        -0.59987E+08         0.00000E+00
    0.00000E+00         0.00000E+00        -0.31043E+08
 
   -0.31026E+08         0.38404E+05         0.00000E+00
    0.38404E+05        -0.59985E+08         0.00000E+00
    0.00000E+00         0.00000E+00        -0.31039E+08
 
   -0.31027E+08         0.41227E+05         0.00000E+00
    0.41227E+05        -0.59982E+08         0.00000E+00
    0.00000E+00         0.00000E+00        -0.31035E+08
 
   -0.31028E+08         0.44085E+05         0.00000E+00
    0.44085E+05        -0.59980E+08         0.00000E+00
    0.00000E+00         0.00000E+00        -0.31031E+08
 
   -0.31026E+08         0.18340E+04         0.00000E+00
    0.18340E+04        -0.60000E+08         0.00000E+00
    0.00000E+00         0.00000E+00        -0.31049E+08
 
   -0.31025E+08         0.55110E+04         0.00000E+00
    0.55110E+04        -0.60000E+08         0.00000E+00
    0.00000E+00         0.00000E+00        -0.31050E+08
 
   -0.31023E+08         0.90845E+04         0.00000E+00
    0.90845E+04        -0.59999E+08         0.00000E+00
    0.00000E+00         0.00000E+00        -0.31051E+08
 
   -0.31022E+08         0.12557E+05         0.00000E+00
    0.12557E+05        -0.59999E+08         0.00000E+00
    0.00000E+00         0.00000E+00        -0.31052E+08
 
   -0.31021E+08         0.15933E+05         0.00000E+00
    0.15933E+05        -0.59998E+08         0.00000E+00
    0.00000E+00         0.00000E+00        -0.31052E+08
 
   -0.31020E+08         0.19219E+05         0.00000E+00
    0.19219E+05        -0.59997E+08         0.00000E+00
    0.00000E+00         0.00000E+00        -0.31051E+08
 
   -0.31020E+08         0.22426E+05         0.00000E+00
    0.22426E+05        -0.59996E+08         0.00000E+00
    0.00000E+00         0.00000E+00        -0.31050E+08
 
   -0.31020E+08         0.25562E+05         0.00000E+00
    0.25562E+05        -0.59995E+08         0.00000E+00
    0.00000E+00         0.00000E+00        -0.31049E+08
 
   -0.31020E+08         0.28639E+05         0.00000E+00
    0.28639E+05        -0.59994E+08         0.00000E+00
    0.00000E+00         0.00000E+00        -0.31047E+08
 
   -0.31021E+08         0.31668E+05         0.00000E+00
    0.31668E+05        -0.59992E+08         0.00000E+00
    0.00000E+00         0.00000E+00        -0.31045E+08
 
   -0.31021E+08         0.34661E+05         0.00000E+00
    0.34661E+05        -0.59991E+08         0.00000E+00
    0.00000E+00         0.00000E+00        -0.31042E+08
 
   -0.31022E+08         0.37635E+05         0.00000E+00
    0.37635E+05        -0.59989E+08         0.00000E+00
    0.00000E+00         0.00000E+00        -0.31039E+08
 
   -0.31023E+08         0.40607E+05         0.00000E+00
    0.40607E+05        -0.59987E+08         0.00000E+00
    0.00000E+00         0.00000E+00        -0.31035E+08
 
   -0.31024E+08         0.43597E+05         0.00000E+00
    0.43597E+05        -0.59985E+08         0.00000E+00
    0.00000E+00         0.00000E+00        -0.31031E+08
 
   -0.31025E+08         0.46628E+05         0.00000E+00
    0.46628E+05        -0.59982E+08         0.00000E+00
    0.00000E+00         0.00000E+00        -0.31027E+08
 
   -0.31023E+08         0.19007E+04         0.00000E+00
    0.19007E+04        -0.60000E+08         0.00000E+00
    0.00000E+00         0.00000E+00        -0.31042E+08
 
   -0.31021E+08         0.57296E+04         0.00000E+00
    0.57296E+04        -0.60000E+08         0.00000E+00
    0.00000E+00         0.00000E+00        -0.31044E+08
 
   -0.31019E+08         0.94570E+04         0.00000E+00
    0.94570E+04        -0.59999E+08         0.00000E+00
    0.00000E+00         0.00000E+00        -0.31045E+08
 
   -0.31018E+08         0.13086E+05         0.00000E+00
    0.13086E+05        -0.59999E+08         0.00000E+00
    0.00000E+00         0.00000E+00        -0.31045E+08
 
   -0.31018E+08         0.16620E+05         0.00000E+00
    0.16620E+05        -0.59999E+08         0.00000E+00
    0.00000E+00         0.00000E+00        -0.31045E+08
 
   -0.31017E+08         0.20066E+05         0.00000E+00
    0.20066E+05        -0.59998E+08         0.00000E+00
    0.00000E+00         0.00000E+00        -0.31045E+08
 
   -0.31017E+08         0.23431E+05         0.00000E+00
    0.23431E+05        -0.59997E+08         0.00000E+00
    0.00000E+00         0.00000E+00        -0.31044E+08
 
   -0.31017E+08         0.26724E+05         0.00000E+00
    0.26724E+05        -0.59996E+08         0.00000E+00
    0.00000E+00         0.00000E+00        -0.31043E+08
 
   -0.31017E+08         0.29953E+05         0.00000E+00
    0.29953E+05        -0.59995E+08         0.00000E+00
    0.00000E+00         0.00000E+00        -0.31041E+08
 
   -0.31018E+08         0.33131E+05         0.00000E+00
    0.33131E+05        -0.59994E+08         0.00000E+00
    0.00000E+00         0.00000E+00        -0.31039E+08
 
   -0.31018E+08         0.36272E+05         0.00000E+00
    0.36272E+05        -0.59992E+08         0.00000E+00
    0.00000E+00         0.00000E+00        -0.31037E+08
 
   -0.31019E+08         0.39392E+05         0.00000E+00
    0.39392E+05        -0.59991E+08         0.00000E+00
    0.00000E+00         0.00000E+00        -0.31034E+08
 
   -0.31020E+08         0.42512E+05         0.00000E+00
    0.42512E+05        -0.59989E+08         0.00000E+00
    0.00000E+00         0.00000E+00        -0.31031E+08
 
   -0.31021E+08         0.45654E+05         0.00000E+00
    0.45654E+05        -0.59987E+08         0.00000E+00
    0.00000E+00         0.00000E+00        -0.31028E+08
 
   -0.31022E+08         0.48845E+05         0.00000E+00
    0.48845E+05        -0.59985E+08         0.00000E+00
    0.00000E+00         0.00000E+00        -0.31024E+08
 
   -0.31019E+08         0.19421E+04         0.00000E+00
    0.19421E+04        -0.60000E+08         0.00000E+00
    0.00000E+00         0.00000E+00        -0.31035E+08
 
   -0.31017E+08         0.58783E+04         0.00000E+00
    0.58783E+04        -0.60000E+08         0.00000E+00
    0.00000E+00         0.00000E+00        -0.31036E+08
 
   -0.31016E+08         0.97215E+04         0.00000E+00
    0.97215E+04        -0.60000E+08         0.00000E+00
    0.00000E+00         0.00000E+00        -0.31037E+08
 
   -0.31015E+08         0.13474E+05         0.00000E+00
    0.13474E+05        -0.59999E+08         0.00000E+00
    0.00000E+00         0.00000E+00        -0.31038E+08
 
   -0.31014E+08         0.17140E+05         0.00000E+00
    0.17140E+05        -0.59999E+08         0.00000E+00
    0.00000E+00         0.00000E+00        -0.31038E+08
 
   -0.31014E+08         0.20722E+05         0.00000E+00
    0.20722E+05        -0.59999E+08         0.00000E+00
    0.00000E+00         0.00000E+00        -0.31038E+08
 
   -0.31014E+08         0.24224E+05         0.00000E+00
    0.24224E+05        -0.59998E+08         0.00000E+00
    0.00000E+00         0.00000E+00        -0.31037E+08
 
   -0.31014E+08         0.27651E+05         0.00000E+00
    0.27651E+05        -0.59997E+08         0.00000E+00
    0.00000E+00         0.00000E+00        -0.31036E+08
 
   -0.31014E+08         0.31012E+05         0.00000E+00
    0.31012E+05        -0.59996E+08         0.00000E+00
    0.00000E+00         0.00000E+00        -0.31035E+08
 
   -0.31014E+08         0.34319E+05         0.00000E+00
    0.34319E+05        -0.59995E+08         0.00000E+00
    0.00000E+00         0.00000E+00        -0.31033E+08
 
   -0.31015E+08         0.37586E+05         0.00000E+00
    0.37586E+05        -0.59994E+08         0.00000E+00
    0.00000E+00         0.00000E+00        -0.31031E+08
 
   -0.31016E+08         0.40833E+05         0.00000E+00
    0.40833E+05        -0.59993E+08         0.00000E+00
    0.00000E+00         0.00000E+00        -0.31029E+08
 
   -0.31016E+08         0.44086E+05         0.00000E+00
    0.44086E+05        -0.59992E+08         0.00000E+00
    0.00000E+00         0.00000E+00        -0.31026E+08
 
   -0.31017E+08         0.47369E+05         0.00000E+00
    0.47369E+05        -0.59990E+08         0.00000E+00
    0.00000E+00         0.00000E+00        -0.31023E+08
 
   -0.31018E+08         0.50710E+05         0.00000E+00
    0.50710E+05        -0.59989E+08         0.00000E+00
    0.00000E+00         0.00000E+00        -0.31020E+08
 
   -0.31015E+08         0.19572E+04         0.00000E+00
    0.19572E+04        -0.60000E+08         0.00000E+00
    0.00000E+00         0.00000E+00        -0.31027E+08
 
   -0.31013E+08         0.59528E+04         0.00000E+00
    0.59528E+04        -0.60000E+08         0.00000E+00
    0.00000E+00         0.00000E+00        -0.31028E+08
 
   -0.31012E+08         0.98704E+04         0.00000E+00
    0.98704E+04        -0.60000E+08         0.00000E+00
    0.00000E+00         0.00000E+00        -0.31029E+08
 
   -0.31011E+08         0.13712E+05         0.00000E+00
    0.13712E+05        -0.60000E+08         0.00000E+00
    0.00000E+00         0.00000E+00        -0.31030E+08
 
   -0.31010E+08         0.17478E+05         0.00000E+00
    0.17478E+05        -0.59999E+08         0.00000E+00
    0.00000E+00         0.00000E+00        -0.31030E+08
 
   -0.31010E+08         0.21168E+05         0.00000E+00
    0.21168E+05        -0.59999E+08         0.00000E+00
    0.00000E+00         0.00000E+00        -0.31030E+08
 
   -0.31010E+08         0.24780E+05         0.00000E+00
    0.24780E+05        -0.59999E+08         0.00000E+00
    0.00000E+00         0.00000E+00        -0.31030E+08
 
   -0.31010E+08         0.28317E+05         0.00000E+00
    0.28317E+05        -0.59998E+08         0.00000E+00
    0.00000E+00         0.00000E+00        -0.31029E+08
 
   -0.31010E+08         0.31785E+05         0.00000E+00
    0.31785E+05        -0.59998E+08         0.00000E+00
    0.00000E+00         0.00000E+00        -0.31028E+08
 
   -0.31011E+08         0.35195E+05         0.00000E+00
    0.35195E+05        -0.59997E+08         0.00000E+00
    0.00000E+00         0.00000E+00        -0.31027E+08
 
   -0.31012E+08         0.38567E+05         0.00000E+00
    0.38567E+05        -0.59996E+08         0.00000E+00
    0.00000E+00         0.00000E+00        -0.31025E+08
 
   -0.31012E+08         0.41924E+05         0.00000E+00
    0.41924E+05        -0.59996E+08         0.00000E+00
    0.00000E+00         0.00000E+00        -0.31023E+08
 
   -0.31013E+08         0.45295E+05         0.00000E+00
    0.45295E+05        -0.59995E+08         0.00000E+00
    0.00000E+00         0.00000E+00        -0.31021E+08
 
   -0.31014E+08         0.48710E+05         0.00000E+00
    0.48710E+05        -0.59994E+08         0.00000E+00
    0.00000E+00         0.00000E+00        -0.31019E+08
 
   -0.31015E+08         0.52195E+05         0.00000E+00
    0.52195E+05        -0.59992E+08         0.00000E+00
    0.00000E+00         0.00000E+00        -0.31017E+08
 
   -0.31011E+08         0.19477E+04         0.00000E+00
    0.19477E+04        -0.60000E+08         0.00000E+00
    0.00000E+00         0.00000E+00        -0.31018E+08
 
   -0.31009E+08         0.59544E+04         0.00000E+00
    0.59544E+04        -0.60000E+08         0.00000E+00
    0.00000E+00         0.00000E+00        -0.31019E+08
 
   -0.31008E+08         0.99022E+04         0.00000E+00
    0.99022E+04        -0.60000E+08         0.00000E+00
    0.00000E+00         0.00000E+00        -0.31020E+08
 
   -0.31007E+08         0.13793E+05         0.00000E+00
    0.13793E+05        -0.60000E+08         0.00000E+00
    0.00000E+00         0.00000E+00        -0.31021E+08
 
   -0.31007E+08         0.17623E+05         0.00000E+00
    0.17623E+05        -0.60000E+08         0.00000E+00
    0.00000E+00         0.00000E+00        -0.31022E+08
 
   -0.31006E+08         0.21386E+05         0.00000E+00
    0.21386E+05        -0.60000E+08         0.00000E+00
    0.00000E+00         0.00000E+00        -0.31022E+08
 
   -0.31006E+08         0.25077E+05         0.00000E+00
    0.25077E+05        -0.60000E+08         0.00000E+00
    0.00000E+00         0.00000E+00        -0.31022E+08
 
   -0.31007E+08         0.28691E+05         0.00000E+00
    0.28691E+05        -0.60000E+08         0.00000E+00
    0.00000E+00         0.00000E+00        -0.31021E+08
 
   -0.31007E+08         0.32234E+05         0.00000E+00
    0.32234E+05        -0.59999E+08         0.00000E+00
    0.00000E+00         0.00000E+00        -0.31021E+08
 
   -0.31008E+08         0.35721E+05         0.00000E+00
    0.35721E+05        -0.59999E+08         0.00000E+00
    0.00000E+00         0.00000E+00        -0.31020E+08
 
   -0.31008E+08         0.39174E+05         0.00000E+00
    0.39174E+05        -0.59999E+08         0.00000E+00
    0.00000E+00         0.00000E+00        -0.31019E+08
 
   -0.31009E+08         0.42623E+05         0.00000E+00
    0.42623E+05        -0.59998E+08         0.00000E+00
    0.00000E+00         0.00000E+00        -0.31017E+08
 
   -0.31010E+08         0.46102E+05         0.00000E+00
    0.46102E+05        -0.59998E+08         0.00000E+00
    0.00000E+00         0.00000E+00        -0.31016E+08
 
   -0.31010E+08         0.49643E+05         0.00000E+00
    0.49643E+05        -0.59997E+08         0.00000E+00
    0.00000E+00         0.00000E+00        -0.31014E+08
 
   -0.31011E+08         0.53273E+05         0.00000E+00
    0.53273E+05        -0.59996E+08         0.00000E+00
    0.00000E+00         0.00000E+00        -0.31013E+08
 
   -0.31007E+08         0.19183E+04         0.00000E+00
    0.19183E+04        -0.60000E+08         0.00000E+00
    0.00000E+00         0.00000E+00        -0.31008E+08
 
   -0.31005E+08         0.58914E+04         0.00000E+00
    0.58914E+04        -0.60000E+08         0.00000E+00
    0.00000E+00         0.00000E+00        -0.31010E+08
 
   -0.31004E+08         0.98239E+04         0.00000E+00
    0.98239E+04        -0.60000E+08         0.00000E+00
    0.00000E+00         0.00000E+00        -0.31011E+08
 
   -0.31003E+08         0.13718E+05         0.00000E+00
    0.13718E+05        -0.60000E+08         0.00000E+00
    0.00000E+00         0.00000E+00        -0.31012E+08
 
   -0.31003E+08         0.17567E+05         0.00000E+00
    0.17567E+05        -0.60000E+08         0.00000E+00
    0.00000E+00         0.00000E+00        -0.31013E+08
 
   -0.31003E+08         0.21360E+05         0.00000E+00
    0.21360E+05        -0.60000E+08         0.00000E+00
    0.00000E+00         0.00000E+00        -0.31013E+08
 
   -0.31003E+08         0.25085E+05         0.00000E+00
    0.25085E+05        -0.60001E+08         0.00000E+00
    0.00000E+00         0.00000E+00        -0.31013E+08
 
   -0.31003E+08         0.28737E+05         0.00000E+00
    0.28737E+05        -0.60001E+08         0.00000E+00
    0.00000E+00         0.00000E+00        -0.31013E+08
 
   -0.31003E+08         0.32319E+05         0.00000E+00
    0.32319E+05        -0.60001E+08         0.00000E+00
    0.00000E+00         0.00000E+00        -0.31013E+08
 
   -0.31004E+08         0.35850E+05         0.00000E+00
    0.35850E+05        -0.60001E+08         0.00000E+00
    0.00000E+00         0.00000E+00        -0.31012E+08
 
   -0.31005E+08         0.39361E+05         0.00000E+00
    0.39361E+05        -0.60001E+08         0.00000E+00
    0.00000E+00         0.00000E+00        -0.31012E+08
 
   -0.31005E+08         0.42888E+05         0.00000E+00
    0.42888E+05        -0.60001E+08         0.00000E+00
    0.00000E+00         0.00000E+00        -0.31011E+08
 
   -0.31006E+08         0.46470E+05         0.00000E+00
    0.46470E+05        -0.60001E+08         0.00000E+00
    0.00000E+00         0.00000E+00        -0.31010E+08
 
   -0.31007E+08         0.50138E+05         0.00000E+00
    0.50138E+05        -0.60001E+08         0.00000E+00
    0.00000E+00         0.00000E+00        -0.31009E+08
 
   -0.31008E+08         0.53917E+05         0.00000E+00
    0.53917E+05        -0.60001E+08         0.00000E+00
    0.00000E+00         0.00000E+00        -0.31008E+08
 
   -0.31003E+08         0.18770E+04         0.00000E+00
    0.18770E+04        -0.60000E+08         0.00000E+00
    0.00000E+00         0.00000E+00        -0.30998E+08
 
   -0.31001E+08         0.57800E+04         0.00000E+00
    0.57800E+04        -0.60000E+08         0.00000E+00
    0.00000E+00         0.00000E+00        -0.30999E+08
 
   -0.31000E+08         0.96525E+04         0.00000E+00
    0.96525E+04        -0.60000E+08         0.00000E+00
    0.00000E+00         0.00000E+00        -0.31001E+08
 
   -0.30999E+08         0.13498E+05         0.00000E+00
    0.13498E+05        -0.60000E+08         0.00000E+00
    0.00000E+00         0.00000E+00        -0.31002E+08
 
   -0.30999E+08         0.17310E+05         0.00000E+00
    0.17310E+05        -0.60001E+08         0.00000E+00
    0.00000E+00         0.00000E+00        -0.31003E+08
 
   -0.30999E+08         0.21074E+05         0.00000E+00
    0.21074E+05        -0.60001E+08         0.00000E+00
    0.00000E+00         0.00000E+00        -0.31003E+08
 
   -0.30999E+08         0.24778E+05         0.00000E+00
    0.24778E+05        -0.60002E+08         0.00000E+00
    0.00000E+00         0.00000E+00        -0.31004E+08
 
   -0.30999E+08         0.28413E+05         0.00000E+00
    0.28413E+05        -0.60002E+08         0.00000E+00
    0.00000E+00         0.00000E+00        -0.31004E+08
 
   -0.31000E+08         0.31990E+05         0.00000E+00
    0.31990E+05        -0.60003E+08         0.00000E+00
    0.00000E+00         0.00000E+00        -0.31004E+08
 
   -0.31001E+08         0.35533E+05         0.00000E+00
    0.35533E+05        -0.60003E+08         0.00000E+00
    0.00000E+00         0.00000E+00        -0.31004E+08
 
   -0.31001E+08         0.39080E+05         0.00000E+00
    0.39080E+05        -0.60004E+08         0.00000E+00
    0.00000E+00         0.00000E+00        -0.31004E+08
 
   -0.31002E+08         0.42676E+05         0.00000E+00
    0.42676E+05        -0.60004E+08         0.00000E+00
    0.00000E+00         0.00000E+00        -0.31005E+08
 
   -0.31002E+08         0.46360E+05         0.00000E+00
    0.46360E+05        -0.60005E+08         0.00000E+00
    0.00000E+00         0.00000E+00        -0.31005E+08
 
   -0.31003E+08         0.50164E+05         0.00000E+00
    0.50164E+05        -0.60005E+08         0.00000E+00
    0.00000E+00         0.00000E+00        -0.31004E+08
 
   -0.31004E+08         0.54104E+05         0.00000E+00
    0.54104E+05        -0.60005E+08         0.00000E+00
    0.00000E+00         0.00000E+00        -0.31004E+08
 
   -0.30999E+08         0.18344E+04         0.00000E+00
    0.18344E+04        -0.60000E+08         0.00000E+00
    0.00000E+00         0.00000E+00        -0.30987E+08
 
   -0.30997E+08         0.56433E+04         0.00000E+00
    0.56433E+04        -0.60000E+08         0.00000E+00
    0.00000E+00         0.00000E+00        -0.30988E+08
 
   -0.30996E+08         0.94148E+04         0.00000E+00
    0.94148E+04        -0.60000E+08         0.00000E+00
    0.00000E+00         0.00000E+00        -0.30989E+08
 
   -0.30996E+08         0.13154E+05         0.00000E+00
    0.13154E+05        -0.60000E+08         0.00000E+00
    0.00000E+00         0.00000E+00        -0.30991E+08
 
   -0.30995E+08         0.16858E+05         0.00000E+00
    0.16858E+05        -0.60001E+08         0.00000E+00
    0.00000E+00         0.00000E+00        -0.30992E+08
 
   -0.30995E+08         0.20517E+05         0.00000E+00
    0.20517E+05        -0.60002E+08         0.00000E+00
    0.00000E+00         0.00000E+00        -0.30992E+08
 
   -0.30995E+08         0.24122E+05         0.00000E+00
    0.24122E+05        -0.60002E+08         0.00000E+00
    0.00000E+00         0.00000E+00        -0.30993E+08
 
   -0.30996E+08         0.27676E+05         0.00000E+00
    0.27676E+05        -0.60003E+08         0.00000E+00
    0.00000E+00         0.00000E+00        -0.30994E+08
 
   -0.30996E+08         0.31194E+05         0.00000E+00
    0.31194E+05        -0.60004E+08         0.00000E+00
    0.00000E+00         0.00000E+00        -0.30995E+08
 
   -0.30997E+08         0.34714E+05         0.00000E+00
    0.34714E+05        -0.60005E+08         0.00000E+00
    0.00000E+00         0.00000E+00        -0.30996E+08
 
   -0.30998E+08         0.38281E+05         0.00000E+00
    0.38281E+05        -0.60006E+08         0.00000E+00
    0.00000E+00         0.00000E+00        -0.30997E+08
 
   -0.30998E+08         0.41943E+05         0.00000E+00
    0.41943E+05        -0.60008E+08         0.00000E+00
    0.00000E+00         0.00000E+00        -0.30997E+08
 
   -0.30999E+08         0.45738E+05         0.00000E+00
    0.45738E+05        -0.60009E+08         0.00000E+00
    0.00000E+00         0.00000E+00        -0.30998E+08
 
   -0.30999E+08         0.49691E+05         0.00000E+00
    0.49691E+05        -0.60009E+08         0.00000E+00
    0.00000E+00         0.00000E+00        -0.30999E+08
 
   -0.31000E+08         0.53808E+05         0.00000E+00
    0.53808E+05        -0.60010E+08         0.00000E+00
    0.00000E+00         0.00000E+00        -0.30999E+08
 
   -0.30995E+08         0.18013E+04         0.00000E+00
    0.18013E+04        -0.60000E+08         0.00000E+00
    0.00000E+00         0.00000E+00        -0.30975E+08
 
   -0.30994E+08         0.55087E+04         0.00000E+00
    0.55087E+04        -0.60000E+08         0.00000E+00
    0.00000E+00         0.00000E+00        -0.30976E+08
 
   -0.30993E+08         0.91452E+04         0.00000E+00
    0.91452E+04        -0.60000E+08         0.00000E+00
    0.00000E+00         0.00000E+00        -0.30977E+08
 
   -0.30992E+08         0.12717E+05         0.00000E+00
    0.12717E+05        -0.60000E+08         0.00000E+00
    0.00000E+00         0.00000E+00        -0.30978E+08
 
   -0.30992E+08         0.16227E+05         0.00000E+00
    0.16227E+05        -0.60001E+08         0.00000E+00
    0.00000E+00         0.00000E+00        -0.30980E+08
 
   -0.30992E+08         0.19681E+05         0.00000E+00
    0.19681E+05        -0.60002E+08         0.00000E+00
    0.00000E+00         0.00000E+00        -0.30981E+08
 
   -0.30992E+08         0.23090E+05         0.00000E+00
    0.23090E+05        -0.60003E+08         0.00000E+00
    0.00000E+00         0.00000E+00        -0.30982E+08
 
   -0.30992E+08         0.26475E+05         0.00000E+00
    0.26475E+05        -0.60004E+08         0.00000E+00
    0.00000E+00         0.00000E+00        -0.30983E+08
 
   -0.30993E+08         0.29877E+05         0.00000E+00
    0.29877E+05        -0.60006E+08         0.00000E+00
    0.00000E+00         0.00000E+00        -0.30985E+08
 
   -0.30993E+08         0.33341E+05         0.00000E+00
    0.33341E+05        -0.60008E+08         0.00000E+00
    0.00000E+00         0.00000E+00        -0.30986E+08
 
   -0.30994E+08         0.36918E+05         0.00000E+00
    0.36918E+05        -0.60009E+08         0.00000E+00
    0.00000E+00         0.00000E+00        -0.30988E+08
 
   -0.30994E+08         0.40650E+05         0.00000E+00
    0.40650E+05        -0.60011E+08         0.00000E+00
    0.00000E+00         0.00000E+00        -0.30990E+08
 
   -0.30995E+08         0.44569E+05         0.00000E+00
    0.44569E+05        -0.60012E+08         0.00000E+00
    0.00000E+00         0.00000E+00        -0.30992E+08
 
   -0.30995E+08         0.48687E+05         0.00000E+00
    0.48687E+05        -0.60014E+08         0.00000E+00
    0.00000E+00         0.00000E+00        -0.30993E+08
 
   -0.30995E+08         0.53002E+05         0.00000E+00
    0.53002E+05        -0.60015E+08         0.00000E+00
    0.00000E+00         0.00000E+00        -0.30995E+08
 
   -0.30991E+08         0.17870E+04         0.00000E+00
    0.17870E+04        -0.60000E+08         0.00000E+00
    0.00000E+00         0.00000E+00        -0.30962E+08
 
   -0.30990E+08         0.54033E+04         0.00000E+00
    0.54033E+04        -0.60000E+08         0.00000E+00
    0.00000E+00         0.00000E+00        -0.30963E+08
 
   -0.30989E+08         0.88774E+04         0.00000E+00
    0.88774E+04        -0.60000E+08         0.00000E+00
    0.00000E+00         0.00000E+00        -0.30964E+08
 
   -0.30989E+08         0.12217E+05         0.00000E+00
    0.12217E+05        -0.60000E+08         0.00000E+00
    0.00000E+00         0.00000E+00        -0.30965E+08
 
   -0.30988E+08         0.15437E+05         0.00000E+00
    0.15437E+05        -0.60001E+08         0.00000E+00
    0.00000E+00         0.00000E+00        -0.30967E+08
 
   -0.30988E+08         0.18566E+05         0.00000E+00
    0.18566E+05        -0.60002E+08         0.00000E+00
    0.00000E+00         0.00000E+00        -0.30968E+08
 
   -0.30989E+08         0.21656E+05         0.00000E+00
    0.21656E+05        -0.60004E+08         0.00000E+00
    0.00000E+00         0.00000E+00        -0.30970E+08
 
   -0.30989E+08         0.24775E+05         0.00000E+00
    0.24775E+05        -0.60005E+08         0.00000E+00
    0.00000E+00         0.00000E+00        -0.30972E+08
 
   -0.30990E+08         0.27993E+05         0.00000E+00
    0.27993E+05        -0.60007E+08         0.00000E+00
    0.00000E+00         0.00000E+00        -0.30974E+08
 
   -0.30990E+08         0.31370E+05         0.00000E+00
    0.31370E+05        -0.60010E+08         0.00000E+00
    0.00000E+00         0.00000E+00        -0.30976E+08
 
   -0.30990E+08         0.34950E+05         0.00000E+00
    0.34950E+05        -0.60012E+08         0.00000E+00
    0.00000E+00         0.00000E+00        -0.30979E+08
 
   -0.30991E+08         0.38761E+05         0.00000E+00
    0.38761E+05        -0.60014E+08         0.00000E+00
    0.00000E+00         0.00000E+00        -0.30982E+08
 
   -0.30991E+08         0.42816E+05         0.00000E+00
    0.42816E+05        -0.60016E+08         0.00000E+00
    0.00000E+00         0.00000E+00        -0.30985E+08
 
   -0.30991E+08         0.47118E+05         0.00000E+00
    0.47118E+05        -0.60018E+08         0.00000E+00
    0.00000E+00         0.00000E+00        -0.30987E+08
 
   -0.30991E+08         0.51651E+05         0.00000E+00
    0.51651E+05        -0.60020E+08         0.00000E+00
    0.00000E+00         0.00000E+00        -0.30990E+08
 
   -0.30988E+08         0.18004E+04         0.00000E+00
    0.18004E+04        -0.60000E+08         0.00000E+00
    0.00000E+00         0.00000E+00        -0.30949E+08
 
   -0.30987E+08         0.53445E+04         0.00000E+00
    0.53445E+04        -0.60000E+08         0.00000E+00
    0.00000E+00         0.00000E+00        -0.30949E+08
 
   -0.30986E+08         0.86341E+04         0.00000E+00
    0.86341E+04        -0.60000E+08         0.00000E+00
    0.00000E+00         0.00000E+00        -0.30950E+08
 
   -0.30985E+08         0.11676E+05         0.00000E+00
    0.11676E+05        -0.60000E+08         0.00000E+00
    0.00000E+00         0.00000E+00        -0.30951E+08
 
   -0.30985E+08         0.14499E+05         0.00000E+00
    0.14499E+05        -0.60001E+08         0.00000E+00
    0.00000E+00         0.00000E+00        -0.30952E+08
 
   -0.30985E+08         0.17176E+05         0.00000E+00
    0.17176E+05        -0.60002E+08         0.00000E+00
    0.00000E+00         0.00000E+00        -0.30954E+08
 
   -0.30986E+08         0.19819E+05         0.00000E+00
    0.19819E+05        -0.60004E+08         0.00000E+00
    0.00000E+00         0.00000E+00        -0.30956E+08
 
   -0.30986E+08         0.22564E+05         0.00000E+00
    0.22564E+05        -0.60006E+08         0.00000E+00
    0.00000E+00         0.00000E+00        -0.30959E+08
 
   -0.30986E+08         0.25527E+05         0.00000E+00
    0.25527E+05        -0.60009E+08         0.00000E+00
    0.00000E+00         0.00000E+00        -0.30962E+08
 
   -0.30987E+08         0.28779E+05         0.00000E+00
    0.28779E+05        -0.60012E+08         0.00000E+00
    0.00000E+00         0.00000E+00        -0.30965E+08
 
   -0.30987E+08         0.32348E+05         0.00000E+00
    0.32348E+05        -0.60015E+08         0.00000E+00
    0.00000E+00         0.00000E+00        -0.30969E+08
 
   -0.30987E+08         0.36237E+05         0.00000E+00
    0.36237E+05        -0.60018E+08         0.00000E+00
    0.00000E+00         0.00000E+00        -0.30973E+08
 
   -0.30986E+08         0.40439E+05         0.00000E+00
    0.40439E+05        -0.60021E+08         0.00000E+00
    0.00000E+00         0.00000E+00        -0.30977E+08
 
   -0.30986E+08         0.44937E+05         0.00000E+00
    0.44937E+05        -0.60023E+08         0.00000E+00
    0.00000E+00         0.00000E+00        -0.30981E+08
 
   -0.30986E+08         0.49705E+05         0.00000E+00
    0.49705E+05        -0.60026E+08         0.00000E+00
    0.00000E+00         0.00000E+00        -0.30984E+08
 
   -0.30984E+08         0.18482E+04         0.00000E+00
    0.18482E+04        -0.60000E+08         0.00000E+00
    0.00000E+00         0.00000E+00        -0.30934E+08
 
   -0.30983E+08         0.53328E+04         0.00000E+00
    0.53328E+04        -0.60000E+08         0.00000E+00
    0.00000E+00         0.00000E+00        -0.30935E+08
 
   -0.30983E+08         0.84143E+04         0.00000E+00
    0.84143E+04        -0.60000E+08         0.00000E+00
    0.00000E+00         0.00000E+00        -0.30935E+08
 
   -0.30983E+08         0.11085E+05         0.00000E+00
    0.11085E+05        -0.60000E+08         0.00000E+00
    0.00000E+00         0.00000E+00        -0.30936E+08
 
   -0.30983E+08         0.13406E+05         0.00000E+00
    0.13406E+05        -0.60001E+08         0.00000E+00
    0.00000E+00         0.00000E+00        -0.30937E+08
 
   -0.30983E+08         0.15514E+05         0.00000E+00
    0.15514E+05        -0.60003E+08         0.00000E+00
    0.00000E+00         0.00000E+00        -0.30939E+08
 
   -0.30983E+08         0.17607E+05         0.00000E+00
    0.17607E+05        -0.60005E+08         0.00000E+00
    0.00000E+00         0.00000E+00        -0.30941E+08
 
   -0.30983E+08         0.19889E+05         0.00000E+00
    0.19889E+05        -0.60007E+08         0.00000E+00
    0.00000E+00         0.00000E+00        -0.30945E+08
 
   -0.30983E+08         0.22518E+05         0.00000E+00
    0.22518E+05        -0.60010E+08         0.00000E+00
    0.00000E+00         0.00000E+00        -0.30949E+08
 
   -0.30983E+08         0.25580E+05         0.00000E+00
    0.25580E+05        -0.60014E+08         0.00000E+00
    0.00000E+00         0.00000E+00        -0.30953E+08
 
   -0.30983E+08         0.29096E+05         0.00000E+00
    0.29096E+05        -0.60017E+08         0.00000E+00
    0.00000E+00         0.00000E+00        -0.30958E+08
 
   -0.30982E+08         0.33042E+05         0.00000E+00
    0.33042E+05        -0.60021E+08         0.00000E+00
    0.00000E+00         0.00000E+00        -0.30964E+08
 
   -0.30982E+08         0.37383E+05         0.00000E+00
    0.37383E+05        -0.60024E+08         0.00000E+00
    0.00000E+00         0.00000E+00        -0.30969E+08
 
   -0.30981E+08         0.42080E+05         0.00000E+00
    0.42080E+05        -0.60028E+08         0.00000E+00
    0.00000E+00         0.00000E+00        -0.30974E+08
 
   -0.30981E+08         0.47097E+05         0.00000E+00
    0.47097E+05        -0.60031E+08         0.00000E+00
    0.00000E+00         0.00000E+00        -0.30978E+08
 
   -0.30980E+08         0.19186E+04         0.00000E+00
    0.19186E+04        -0.60000E+08         0.00000E+00
    0.00000E+00         0.00000E+00        -0.30920E+08
 
   -0.30980E+08         0.53593E+04         0.00000E+00
    0.53593E+04        -0.60000E+08         0.00000E+00
    0.00000E+00         0.00000E+00        -0.30920E+08
 
   -0.30980E+08         0.81743E+04         0.00000E+00
    0.81743E+04        -0.60000E+08         0.00000E+00
    0.00000E+00         0.00000E+00        -0.30920E+08
 
   -0.30980E+08         0.10383E+05         0.00000E+00
    0.10383E+05        -0.60000E+08         0.00000E+00
    0.00000E+00         0.00000E+00        -0.30920E+08
 
   -0.30981E+08         0.12105E+05         0.00000E+00
    0.12105E+05        -0.60002E+08         0.00000E+00
    0.00000E+00         0.00000E+00        -0.30921E+08
 
   -0.30981E+08         0.13585E+05         0.00000E+00
    0.13585E+05        -0.60003E+08         0.00000E+00
    0.00000E+00         0.00000E+00        -0.30923E+08
 
   -0.30981E+08         0.15095E+05         0.00000E+00
    0.15095E+05        -0.60006E+08         0.00000E+00
    0.00000E+00         0.00000E+00        -0.30926E+08
 
   -0.30981E+08         0.16869E+05         0.00000E+00
    0.16869E+05        -0.60008E+08         0.00000E+00
    0.00000E+00         0.00000E+00        -0.30930E+08
 
   -0.30981E+08         0.19080E+05         0.00000E+00
    0.19080E+05        -0.60012E+08         0.00000E+00
    0.00000E+00         0.00000E+00        -0.30935E+08
 
   -0.30980E+08         0.21842E+05         0.00000E+00
    0.21842E+05        -0.60015E+08         0.00000E+00
    0.00000E+00         0.00000E+00        -0.30940E+08
 
   -0.30979E+08         0.25201E+05         0.00000E+00
    0.25201E+05        -0.60020E+08         0.00000E+00
    0.00000E+00         0.00000E+00        -0.30947E+08
 
   -0.30978E+08         0.29134E+05         0.00000E+00
    0.29134E+05        -0.60024E+08         0.00000E+00
    0.00000E+00         0.00000E+00        -0.30953E+08
 
   -0.30977E+08         0.33576E+05         0.00000E+00
    0.33576E+05        -0.60028E+08         0.00000E+00
    0.00000E+00         0.00000E+00        -0.30960E+08
 
   -0.30976E+08         0.38461E+05         0.00000E+00
    0.38461E+05        -0.60032E+08         0.00000E+00
    0.00000E+00         0.00000E+00        -0.30966E+08
 
   -0.30976E+08         0.43732E+05         0.00000E+00
    0.43732E+05        -0.60036E+08         0.00000E+00
    0.00000E+00         0.00000E+00        -0.30972E+08
 
   -0.30976E+08         0.20027E+04         0.00000E+00
    0.20027E+04        -0.60000E+08         0.00000E+00
    0.00000E+00         0.00000E+00        -0.30904E+08
 
   -0.30977E+08         0.53594E+04         0.00000E+00
    0.53594E+04        -0.60000E+08         0.00000E+00
    0.00000E+00         0.00000E+00        -0.30904E+08
 
   -0.30978E+08         0.78135E+04         0.00000E+00
    0.78135E+04        -0.60000E+08         0.00000E+00
    0.00000E+00         0.00000E+00        -0.30903E+08
 
   -0.30979E+08         0.94334E+04         0.00000E+00
    0.94334E+04        -0.60001E+08         0.00000E+00
    0.00000E+00         0.00000E+00        -0.30903E+08
 
   -0.30980E+08         0.10512E+05         0.00000E+00
    0.10512E+05        -0.60002E+08         0.00000E+00
    0.00000E+00         0.00000E+00        -0.30904E+08
 
   -0.30980E+08         0.11409E+05         0.00000E+00
    0.11409E+05        -0.60004E+08         0.00000E+00
    0.00000E+00         0.00000E+00        -0.30906E+08
 
   -0.30980E+08         0.12401E+05         0.00000E+00
    0.12401E+05        -0.60007E+08         0.00000E+00
    0.00000E+00         0.00000E+00        -0.30910E+08
 
   -0.30979E+08         0.13682E+05         0.00000E+00
    0.13682E+05        -0.60010E+08         0.00000E+00
    0.00000E+00         0.00000E+00        -0.30914E+08
 
   -0.30978E+08         0.15409E+05         0.00000E+00
    0.15409E+05        -0.60013E+08         0.00000E+00
    0.00000E+00         0.00000E+00        -0.30920E+08
 
   -0.30977E+08         0.17722E+05         0.00000E+00
    0.17722E+05        -0.60017E+08         0.00000E+00
    0.00000E+00         0.00000E+00        -0.30926E+08
 
   -0.30976E+08         0.20732E+05         0.00000E+00
    0.20732E+05        -0.60021E+08         0.00000E+00
    0.00000E+00         0.00000E+00        -0.30934E+08
 
   -0.30974E+08         0.24484E+05         0.00000E+00
    0.24484E+05        -0.60026E+08         0.00000E+00
    0.00000E+00         0.00000E+00        -0.30941E+08
 
   -0.30973E+08         0.28928E+05         0.00000E+00
    0.28928E+05        -0.60032E+08         0.00000E+00
    0.00000E+00         0.00000E+00        -0.30950E+08
 
   -0.30971E+08         0.33958E+05         0.00000E+00
    0.33958E+05        -0.60037E+08         0.00000E+00
    0.00000E+00         0.00000E+00        -0.30958E+08
 
   -0.30970E+08         0.39473E+05         0.00000E+00
    0.39473E+05        -0.60042E+08         0.00000E+00
    0.00000E+00         0.00000E+00        -0.30966E+08
 
   -0.30973E+08         0.20816E+04         0.00000E+00
    0.20816E+04        -0.60000E+08         0.00000E+00
    0.00000E+00         0.00000E+00        -0.30888E+08
 
   -0.30974E+08         0.52222E+04         0.00000E+00
    0.52222E+04        -0.60000E+08         0.00000E+00
    0.00000E+00         0.00000E+00        -0.30887E+08
 
   -0.30976E+08         0.70990E+04         0.00000E+00
    0.70990E+04        -0.60001E+08         0.00000E+00
    0.00000E+00         0.00000E+00        -0.30886E+08
 
   -0.30978E+08         0.80446E+04         0.00000E+00
    0.80446E+04        -0.60002E+08         0.00000E+00
    0.00000E+00         0.00000E+00        -0.30886E+08
 
   -0.30979E+08         0.85759E+04         0.00000E+00
    0.85759E+04        -0.60004E+08         0.00000E+00
    0.00000E+00         0.00000E+00        -0.30887E+08
 
   -0.30979E+08         0.90453E+04         0.00000E+00
    0.90453E+04        -0.60006E+08         0.00000E+00
    0.00000E+00         0.00000E+00        -0.30890E+08
 
   -0.30979E+08         0.96459E+04         0.00000E+00
    0.96459E+04        -0.60009E+08         0.00000E+00
    0.00000E+00         0.00000E+00        -0.30893E+08
 
   -0.30978E+08         0.10502E+05         0.00000E+00
    0.10502E+05        -0.60012E+08         0.00000E+00
    0.00000E+00         0.00000E+00        -0.30898E+08
 
   -0.30977E+08         0.11731E+05         0.00000E+00
    0.11731E+05        -0.60015E+08         0.00000E+00
    0.00000E+00         0.00000E+00        -0.30904E+08
 
   -0.30975E+08         0.13471E+05         0.00000E+00
    0.13471E+05        -0.60019E+08         0.00000E+00
    0.00000E+00         0.00000E+00        -0.30911E+08
 
   -0.30972E+08         0.15883E+05         0.00000E+00
    0.15883E+05        -0.60023E+08         0.00000E+00
    0.00000E+00         0.00000E+00        -0.30919E+08
 
   -0.30970E+08         0.19136E+05         0.00000E+00
    0.19136E+05        -0.60028E+08         0.00000E+00
    0.00000E+00         0.00000E+00        -0.30928E+08
 
   -0.30968E+08         0.23333E+05         0.00000E+00
    0.23333E+05        -0.60034E+08         0.00000E+00
    0.00000E+00         0.00000E+00        -0.30938E+08
 
   -0.30966E+08         0.28393E+05         0.00000E+00
    0.28393E+05        -0.60041E+08         0.00000E+00
    0.00000E+00         0.00000E+00        -0.30949E+08
 
   -0.30964E+08         0.34123E+05         0.00000E+00
    0.34123E+05        -0.60047E+08         0.00000E+00
    0.00000E+00         0.00000E+00        -0.30959E+08
 
   -0.30969E+08         0.21037E+04         0.00000E+00
    0.21037E+04        -0.60000E+08         0.00000E+00
    0.00000E+00         0.00000E+00        -0.30872E+08
 
   -0.30972E+08         0.46667E+04         0.00000E+00
    0.46667E+04        -0.60001E+08         0.00000E+00
    0.00000E+00         0.00000E+00        -0.30869E+08
 
   -0.30975E+08         0.57068E+04         0.00000E+00
    0.57068E+04        -0.60002E+08         0.00000E+00
    0.00000E+00         0.00000E+00        -0.30868E+08
 
   -0.30977E+08         0.61168E+04         0.00000E+00
    0.61168E+04        -0.60004E+08         0.00000E+00
    0.00000E+00         0.00000E+00        -0.30868E+08
 
   -0.30979E+08         0.63456E+04         0.00000E+00
    0.63456E+04        -0.60006E+08         0.00000E+00
    0.00000E+00         0.00000E+00        -0.30870E+08
 
   -0.30979E+08         0.65705E+04         0.00000E+00
    0.65705E+04        -0.60008E+08         0.00000E+00
    0.00000E+00         0.00000E+00        -0.30873E+08
 
   -0.30978E+08         0.69025E+04         0.00000E+00
    0.69025E+04        -0.60011E+08         0.00000E+00
    0.00000E+00         0.00000E+00        -0.30877E+08
 
   -0.30977E+08         0.74229E+04         0.00000E+00
    0.74229E+04        -0.60014E+08         0.00000E+00
    0.00000E+00         0.00000E+00        -0.30882E+08
 
   -0.30975E+08         0.82096E+04         0.00000E+00
    0.82096E+04        -0.60017E+08         0.00000E+00
    0.00000E+00         0.00000E+00        -0.30888E+08
 
   -0.30973E+08         0.93545E+04         0.00000E+00
    0.93545E+04        -0.60021E+08         0.00000E+00
    0.00000E+00         0.00000E+00        -0.30895E+08
 
   -0.30970E+08         0.10999E+05         0.00000E+00
    0.10999E+05        -0.60025E+08         0.00000E+00
    0.00000E+00         0.00000E+00        -0.30904E+08
 
   -0.30967E+08         0.13371E+05         0.00000E+00
    0.13371E+05        -0.60030E+08         0.00000E+00
    0.00000E+00         0.00000E+00        -0.30914E+08
 
   -0.30963E+08         0.16778E+05         0.00000E+00
    0.16778E+05        -0.60036E+08         0.00000E+00
    0.00000E+00         0.00000E+00        -0.30925E+08
 
   -0.30960E+08         0.21507E+05         0.00000E+00
    0.21507E+05        -0.60044E+08         0.00000E+00
    0.00000E+00         0.00000E+00        -0.30938E+08
 
   -0.30958E+08         0.27366E+05         0.00000E+00
    0.27366E+05        -0.60052E+08         0.00000E+00
    0.00000E+00         0.00000E+00        -0.30951E+08
 
   -0.30966E+08         0.17984E+04         0.00000E+00
    0.17984E+04        -0.60000E+08         0.00000E+00
    0.00000E+00         0.00000E+00        -0.30854E+08
 
   -0.30971E+08         0.30871E+04         0.00000E+00
    0.30871E+04        -0.60002E+08         0.00000E+00
    0.00000E+00         0.00000E+00        -0.30852E+08
 
   -0.30975E+08         0.35811E+04         0.00000E+00
    0.35811E+04        -0.60004E+08         0.00000E+00
    0.00000E+00         0.00000E+00        -0.30850E+08
 
   -0.30977E+08         0.38095E+04         0.00000E+00
    0.38095E+04        -0.60007E+08         0.00000E+00
    0.00000E+00         0.00000E+00        -0.30851E+08
 
   -0.30979E+08         0.39199E+04         0.00000E+00
    0.39199E+04        -0.60009E+08         0.00000E+00
    0.00000E+00         0.00000E+00        -0.30853E+08
 
   -0.30979E+08         0.40163E+04         0.00000E+00
    0.40163E+04        -0.60011E+08         0.00000E+00
    0.00000E+00         0.00000E+00        -0.30856E+08
 
   -0.30978E+08         0.41704E+04         0.00000E+00
    0.41704E+04        -0.60014E+08         0.00000E+00
    0.00000E+00         0.00000E+00        -0.30860E+08
 
   -0.30977E+08         0.44418E+04         0.00000E+00
    0.44418E+04        -0.60017E+08         0.00000E+00
    0.00000E+00         0.00000E+00        -0.30865E+08
 
   -0.30975E+08         0.48745E+04         0.00000E+00
    0.48745E+04        -0.60020E+08         0.00000E+00
    0.00000E+00         0.00000E+00        -0.30871E+08
 
   -0.30972E+08         0.55016E+04         0.00000E+00
    0.55016E+04        -0.60024E+08         0.00000E+00
    0.00000E+00         0.00000E+00        -0.30879E+08
 
   -0.30968E+08         0.63985E+04         0.00000E+00
    0.63985E+04        -0.60028E+08         0.00000E+00
    0.00000E+00         0.00000E+00        -0.30888E+08
 
   -0.30964E+08         0.77148E+04         0.00000E+00
    0.77148E+04        -0.60032E+08         0.00000E+00
    0.00000E+00         0.00000E+00        -0.30898E+08
 
   -0.30960E+08         0.97441E+04         0.00000E+00
    0.97441E+04        -0.60038E+08         0.00000E+00
    0.00000E+00         0.00000E+00        -0.30910E+08
 
   -0.30955E+08         0.13049E+05         0.00000E+00
    0.13049E+05        -0.60046E+08         0.00000E+00
    0.00000E+00         0.00000E+00        -0.30925E+08
 
   -0.30952E+08         0.18506E+05         0.00000E+00
    0.18506E+05        -0.60056E+08         0.00000E+00
    0.00000E+00         0.00000E+00        -0.30942E+08
 
   -0.30964E+08        -0.31850E+03         0.00000E+00
   -0.31850E+03        -0.60004E+08         0.00000E+00
    0.00000E+00         0.00000E+00        -0.30839E+08
 
   -0.30970E+08         0.70128E+03         0.00000E+00
    0.70128E+03        -0.60005E+08         0.00000E+00
    0.00000E+00         0.00000E+00        -0.30834E+08
 
   -0.30974E+08         0.11708E+04         0.00000E+00
    0.11708E+04        -0.60007E+08         0.00000E+00
    0.00000E+00         0.00000E+00        -0.30833E+08
 
   -0.30977E+08         0.12975E+04         0.00000E+00
    0.12975E+04        -0.60010E+08         0.00000E+00
    0.00000E+00         0.00000E+00        -0.30834E+08
 
   -0.30978E+08         0.13334E+04         0.00000E+00
    0.13334E+04        -0.60012E+08         0.00000E+00
    0.00000E+00         0.00000E+00        -0.30836E+08
 
   -0.30979E+08         0.13591E+04         0.00000E+00
    0.13591E+04        -0.60015E+08         0.00000E+00
    0.00000E+00         0.00000E+00        -0.30839E+08
 
   -0.30978E+08         0.14000E+04         0.00000E+00
    0.14000E+04        -0.60018E+08         0.00000E+00
    0.00000E+00         0.00000E+00        -0.30844E+08
 
   -0.30977E+08         0.14834E+04         0.00000E+00
    0.14834E+04        -0.60021E+08         0.00000E+00
    0.00000E+00         0.00000E+00        -0.30849E+08
 
   -0.30974E+08         0.16230E+04         0.00000E+00
    0.16230E+04        -0.60024E+08         0.00000E+00
    0.00000E+00         0.00000E+00        -0.30855E+08
 
   -0.30971E+08         0.18208E+04         0.00000E+00
    0.18208E+04        -0.60027E+08         0.00000E+00
    0.00000E+00         0.00000E+00        -0.30863E+08
 
   -0.30968E+08         0.20977E+04         0.00000E+00
    0.20977E+04        -0.60031E+08         0.00000E+00
    0.00000E+00         0.00000E+00        -0.30871E+08
 
   -0.30963E+08         0.24939E+04         0.00000E+00
    0.24939E+04        -0.60036E+08         0.00000E+00
    0.00000E+00         0.00000E+00        -0.30882E+08
 
   -0.30958E+08         0.31088E+04         0.00000E+00
    0.31088E+04        -0.60041E+08         0.00000E+00
    0.00000E+00         0.00000E+00        -0.30894E+08
 
   -0.30952E+08         0.41980E+04         0.00000E+00
    0.41980E+04        -0.60048E+08         0.00000E+00
    0.00000E+00         0.00000E+00        -0.30910E+08
 
   -0.30944E+08         0.67255E+04         0.00000E+00
    0.67255E+04        -0.60057E+08         0.00000E+00
    0.00000E+00         0.00000E+00        -0.30929E+08
 
SCALARS stressS double 
LOOKUP_TABLE default
  -40712949.8993911     
  -40712691.4256993     
  -40712173.9961305     
  -40711402.3804522     
  -40710381.7230665     
  -40709117.3566703     
  -40707614.6002433     
  -40705878.5472537     
  -40703913.8529495     
  -40701724.5309304     
  -40699313.7686149     
  -40696683.7695051     
  -40693835.6257070     
  -40690769.2375004     
  -40687483.2201482     
  -40712673.9863849     
  -40712416.0769816     
  -40711899.8972140     
  -40711130.4762457     
  -40710113.1894954     
  -40708853.5636455     
  -40707357.0685037     
  -40705628.9032470     
  -40703673.7859138     
  -40701495.7564923     
  -40699098.0023773     
  -40696482.7136796     
  -40693650.9711106     
  -40690602.6635782     
  -40687336.4169836     
  -40712122.3497021     
  -40711865.6737924     
  -40711352.1825837     
  -40710587.4022585     
  -40709577.1486766     
  -40708327.3141873     
  -40706843.6488233     
  -40705131.5435446     
  -40703195.8263161     
  -40701040.5794818     
  -40698668.9870669     
  -40696083.2089210     
  -40693284.3028955     
  -40690272.1421818     
  -40687045.3483375     
  -40711295.3656809     
  -40711040.8071367     
  -40710531.8203930     
  -40709774.6264118     
  -40708775.6456962     
  -40707541.2636092     
  -40706077.5970051     
  -40704390.2773196     
  -40702484.2593929     
  -40700363.6643969     
  -40698031.6558919     
  -40695490.3611394     
  -40692740.7873876     
  -40689782.7877103     
  -40686615.0056502     
  -40710193.6074020     
  -40709942.3696166     
  -40709440.2667240     
  -40708694.3443793     
  -40707711.7246062     
  -40706499.3440628     
  -40705063.7101511     
  -40703410.6905028     
  -40701545.3451496     
  -40699471.8037941     
  -40697193.1890474     
  -40694711.5506744     
  -40692027.8990858     
  -40689142.0678950     
  -40686052.6847649     
  -40708817.8480880     
  -40708571.5594689     
  -40708079.4624282     
  -40707349.4636069     
  -40706389.3861328     
  -40705206.6853044     
  -40703808.2023393     
  -40702199.9721538     
  -40700387.0939309     
  -40698373.6582583     
  -40696162.7105202     
  -40693756.2526752     
  -40691155.2368358     
  -40688359.4896197     
  -40685367.6968108     
  -40707169.0683449     
  -40706929.8836137     
  -40706451.8243337     
  -40705743.5647521     
  -40704813.5060391     
  -40703669.4778905     
  -40702318.5040888     
  -40700766.6501863     
  -40699018.9471070     
  -40697079.3742563     
  -40694950.8900788     
  -40692635.4350391     
  -40690133.9316261     
  -40687446.2412175     
  -40684571.0735433     
  -40705248.4657171     
  -40705019.1500148     
  -40704560.2081162     
  -40703880.8204050     
  -40702989.6916549     
  -40701894.7507183     
  -40700602.9581088     
  -40699120.2111485     
  -40697451.3378649     
  -40695600.1406644     
  -40693569.4440593     
  -40691361.2066945     
  -40688976.3678545     
  -40686414.8130714     
  -40683675.2490438     
  -40703057.4683849     
  -40702841.4556686     
  -40702407.8414830     
  -40701765.8514625     
  -40700924.0402788     
  -40699890.0301178     
  -40698670.3819793     
  -40697270.5851874     
  -40695695.1242632     
  -40693947.5854738     
  -40692030.7037658     
  -40689946.4247834     
  -40687695.7382297     
  -40685278.6166291     
  -40682693.7303602     
  -40700597.7451568     
  -40700399.1413472     
  -40699998.1923105     
  -40699403.4791237     
  -40698622.7673743     
  -40697662.8414289     
  -40696529.4681296     
  -40695227.4802479     
  -40693760.9061240     
  -40692133.0811899     
  -40690346.7196345     
  -40688403.8211569     
  -40686305.4601277     
  -40684051.6067677     
  -40681640.7549378     
  -40697871.2147166     
  -40697694.7108314     
  -40697334.7452057     
  -40696798.3345794     
  -40696091.6528332     
  -40695220.0205163     
  -40694188.0020880     
  -40692999.5599044     
  -40691658.2067759     
  -40690167.0786768     
  -40688528.9077879     
  -40686745.7576334     
  -40684818.7622063     
  -40682747.7135493     
  -40680530.7711129     
  -40694880.0492357     
  -40694730.6907825     
  -40694420.6531527     
  -40693954.2949386     
  -40693335.2835410     
  -40692566.8239799     
  -40691651.9039052     
  -40690593.4839551     
  -40689394.5842157     
  -40688058.2115257     
  -40686587.1555377     
  -40684983.4961030     
  -40683248.1986957     
  -40681380.6087881     
  -40679378.1720873     
  -40691626.6654813     
  -40691509.4201934     
  -40691258.2436228     
  -40690873.7088191     
  -40690356.0765402     
  -40689705.8433627     
  -40688924.1390004     
  -40688012.8890512     
  -40686974.7202669     
  -40685812.5922566     
  -40684529.3256544     
  -40683126.7735165     
  -40681605.2664096     
  -40679963.1603992     
  -40678196.7187536     
  -40688113.7046275     
  -40688032.7704984     
  -40687848.3932538     
  -40687556.4600436     
  -40687153.1346879     
  -40686635.7930251     
  -40686003.5679707     
  -40685257.4024470     
  -40684399.6412438     
  -40683433.2503859     
  -40682360.7787857     
  -40681183.2926316     
  -40679899.7875044     
  -40678506.8006920     
  -40676998.7220304     
  -40684343.9756898     
  -40684301.8482076     
  -40684189.8634285     
  -40683998.9846260     
  -40683721.0814874     
  -40683350.3168625     
  -40682883.8605082     
  -40682321.7661201     
  -40681666.1080142     
  -40680919.5889833     
  -40680083.8161416     
  -40679158.2581309     
  -40678139.3503308     
  -40677020.6974250     
  -40675793.9935912     
  -40680320.4083586     
  -40680316.7556448     
  -40680278.8094558     
  -40680193.5118228     
  -40680049.1389189     
  -40679837.0652731     
  -40679552.6976154     
  -40679195.2235328     
  -40678766.0814839     
  -40678266.9699828     
  -40677697.4921719     
  -40677053.8676562     
  -40676328.4561804     
  -40675510.6000573     
  -40674588.4934136     
  -40676046.0296317     
  -40676076.6395998     
  -40676108.7650414     
  -40676127.9472075     
  -40676120.8768429     
  -40676077.3927466     
  -40675991.5858966     
  -40675861.4896897     
  -40675686.9882732     
  -40675467.0290741     
  -40675197.3004411     
  -40674868.6175955     
  -40674467.3643600     
  -40673977.3742888     
  -40673382.7335385     
  -40671523.8645375     
  -40671580.1397650     
  -40671671.6012374     
  -40671786.9912751     
  -40671915.2287421     
  -40672047.1602040     
  -40672176.5705319     
  -40672299.4092628     
  -40672411.9063517     
  -40672507.5527911     
  -40672574.7641568     
  -40672596.2330618     
  -40672550.5768493     
  -40672415.3131930     
  -40672170.2672304     
  -40666757.0829516     
  -40666826.3273318     
  -40666959.5295564     
  -40667154.9121012     
  -40667409.5978815     
  -40667719.7816779     
  -40668080.5626808     
  -40668484.6208226     
  -40668920.8556032     
  -40669372.5859399     
  -40669816.4377289     
  -40670224.0295870     
  -40670564.9861619     
  -40670810.5654417     
  -40670936.7336609     
  -40661748.7977387     
  -40661816.1521552     
  -40661968.1147024     
  -40662220.1471479     
  -40662585.4498948     
  -40663071.8943749     
  -40663678.4080660     
  -40664392.9976934     
  -40665192.1402948     
  -40666041.9227729     
  -40666902.0407015     
  -40667730.5346809     
  -40668487.9039633     
  -40669140.0073208     
  -40669659.6983249     
  -40656502.9267432     
  -40656553.2073439     
  -40656699.2795927     
  -40656981.5446420     
  -40657437.2669902     
  -40658092.8260619     
  -40658955.1230687     
  -40660006.1479388     
  -40661203.6606720     
  -40662489.3963094     
  -40663801.3730411     
  -40665082.6487092     
  -40666285.2899367     
  -40667370.9152507     
  -40668309.6754711     
  -40651022.1015646     
  -40651043.9949951     
  -40651164.0635887     
  -40651454.8287473     
  -40651982.8795913     
  -40652798.5294700     
  -40653919.0648614     
  -40655319.3036487     
  -40656934.7961263     
  -40658680.4250146     
  -40660470.7028186     
  -40662232.9670188     
  -40663910.7734044     
  -40665461.2908117     
  -40666852.0887900     
  -40645306.2505851     
  -40645295.7317462     
  -40645384.8035658     
  -40645677.1606543     
  -40646274.4010776     
  -40647246.9824550     
  -40648617.3301559     
  -40650351.1929370     
  -40652369.7341044     
  -40654570.8064731     
  -40656850.1820463     
  -40659117.8442804     
  -40661304.9377499     
  -40663361.3088190     
  -40665248.9391692     
  -40639364.4128815     
  -40639321.5221400     
  -40639392.3413917     
  -40639712.2355760     
  -40640405.8747434     
  -40641547.8107789     
  -40643144.8995315     
  -40645154.7664767     
  -40647507.5068218     
  -40650113.1291047     
  -40652865.5862780     
  -40655656.8902227     
  -40658395.1799144     
  -40661012.8013449     
  -40663459.3685578     
  -40633208.8880808     
  -40633150.4724183     
  -40633237.6647008     
  -40633655.4214532     
  -40634517.1808147     
  -40635854.2135408     
  -40637635.2938162     
  -40639822.5091794     
  -40642383.9618546     
  -40645280.0493200     
  -40648440.6168561     
  -40651753.9507832     
  -40655092.7251540     
  -40658346.9201354     
  -40661441.7200598     
  -40626836.4729875     
  -40626804.7649816     
  -40627011.9424867     
  -40627654.1899252     
  -40628781.2383539     
  -40630323.0983128     
  -40632228.0887553     
  -40634480.7959825     
  -40637100.0973475     
  -40640114.9893057     
  -40643534.2391652     
  -40647307.6041347     
  -40651284.0211352     
  -40655281.1485229     
  -40659150.7660407     
  -40620256.4915275     
  -40620337.4685263     
  -40620856.7177792     
  -40621909.6445951     
  -40623342.7267687     
  -40625061.3051093     
  -40627030.4404094     
  -40629267.8553803     
  -40631825.1538664     
  -40634782.9083288     
  -40638235.9136803     
  -40642255.7693803     
  -40646829.9049638     
  -40651687.8286252     
  -40656544.1670350     
  -40613515.2155523     
  -40613924.8081617     
  -40615082.1374298     
  -40616554.3969869     
  -40618245.7561919     
  -40620097.5956146     
  -40622104.9263586     
  -40624302.2115217     
  -40626753.2653407     
  -40629555.0187942     
  -40632844.1622761     
  -40636793.1771785     
  -40641582.3116419     
  -40647379.6421707     
  -40653511.5136172     
  -40606721.9770950     
  -40608274.4133852     
  -40609804.3149680     
  -40611576.3319010     
  -40613458.3413185     
  -40615420.2139340     
  -40617476.2932145     
  -40619660.8419033     
  -40622039.7027519     
  -40624708.3431642     
  -40627794.9764179     
  -40631479.9579460     
  -40636032.9615553     
  -40641822.1897919     
  -40649989.8269857     
  -40602321.8799580     
  -40603155.0438749     
  -40604918.3390720     
  -40606901.7821051     
  -40608951.6763355     
  -40611029.1161228     
  -40613151.6311429     
  -40615374.8871757     
  -40617771.6326438     
  -40620427.9567258     
  -40623451.9139047     
  -40626994.2309725     
  -40631278.4573836     
  -40636669.5757584     
  -40643578.2217980     
SCALARS 2waySource double 
LOOKUP_TABLE default
 -1.027430502108419E-004
 -1.027261488444663E-004
 -1.026881363416808E-004
 -1.026281244663515E-004
 -1.025454136220645E-004
 -1.024394039791242E-004
 -1.023095118427252E-004
 -1.021550971713046E-004
 -1.019754074503523E-004
 -1.017695421535685E-004
 -1.015364407761236E-004
 -1.012748961275212E-004
 -1.009835933739049E-004
 -1.006611746662516E-004
 -1.003063277084007E-004
 -1.026625814181259E-004
 -1.026478432709748E-004
 -1.026132709653435E-004
 -1.025577360802006E-004
 -1.024803041166232E-004
 -1.023801476647202E-004
 -1.022564659908584E-004
 -1.021084164925708E-004
 -1.019350628608428E-004
 -1.017353436352922E-004
 -1.015080636816446E-004
 -1.012519099294435E-004
 -1.009654916529191E-004
 -1.006474048255193E-004
 -1.002963194472667E-004
 -1.025221916262847E-004
 -1.025111041845288E-004
 -1.024824907738292E-004
 -1.024347794328942E-004
 -1.023666004609889E-004
 -1.022767051618409E-004
 -1.021638924420418E-004
 -1.020269485422636E-004
 -1.018646036121268E-004
 -1.016755079955812E-004
 -1.014582299016505E-004
 -1.012112751463740E-004
 -1.009331292205112E-004
 -1.006223208319350E-004
 -1.002775057264898E-004
 -1.023216850393705E-004
 -1.023158141128005E-004
 -1.022957706609061E-004
 -1.022593229222807E-004
 -1.022044538660988E-004
 -1.021292886315574E-004
 -1.020320333759146E-004
 -1.019109278362310E-004
 -1.017642146231035E-004
 -1.015901266436314E-004
 -1.013868932027153E-004
 -1.011527648106685E-004
 -1.008860566642470E-004
 -1.005852097664221E-004
 -1.002488705590207E-004
 -1.020609022114127E-004
 -1.020619029809234E-004
 -1.020531447609508E-004
 -1.020315041615949E-004
 -1.019940881043683E-004
 -1.019381769633318E-004
 -1.018611804311287E-004
 -1.017606083935100E-004
 -1.016340572345810E-004
 -1.014792112250072E-004
 -1.012938585116390E-004
 -1.010759210991111E-004
 -1.008234986394505E-004
 -1.005349258261794E-004
 -1.002088440515892E-004
 -1.017397225133827E-004
 -1.017493428523310E-004
 -1.017546898907100E-004
 -1.017514972644551E-004
 -1.017357498085018E-004
 -1.017036488504331E-004
 -1.016515920147445E-004
 -1.015761682582862E-004
 -1.014741647538244E-004
 -1.013425843949028E-004
 -1.011786719637430E-004
 -1.009799484094607E-004
 -1.007442535805595E-004
 -1.004697966830729E-004
 -1.001552184100048E-004
 -1.013580686007182E-004
 -1.013781407931730E-004
 -1.014005000624641E-004
 -1.014194662551326E-004
 -1.014296385083743E-004
 -1.014258897935621E-004
 -1.014033804421955E-004
 -1.013575811225078E-004
 -1.012843039110075E-004
 -1.011797364377769E-004
 -1.010404776125596E-004
 -1.008635746426978E-004
 -1.006465618403151E-004
 -1.003875033867039E-004
 -1.000850416779606E-004
 -1.009159119596003E-004
 -1.009483300403111E-004
 -1.009906527658246E-004
 -1.010355018114203E-004
 -1.010758120756323E-004
 -1.011048702287259E-004
 -1.011163667899150E-004
 -1.011044542106131E-004
 -1.010638024289455E-004
 -1.009896490849338E-004
 -1.008778430775207E-004
 -1.007248826671450E-004
 -1.005279484720332E-004
 -1.002849366823595E-004
 -9.999449093616511E-005
 -1.004132816306982E-004
 -1.004599550444186E-004
 -1.005251613072802E-004
 -1.005995353168161E-004
 -1.006740657841868E-004
 -1.007401917761884E-004
 -1.007899025380436E-004
 -1.008158330806729E-004
 -1.008113443839633E-004
 -1.007705880601893E-004
 -1.006885553203231E-004
 -1.005611146785676E-004
 -1.003850394831854E-004
 -1.001580305449878E-004
 -9.987872895076183E-005
 -9.985027517180405E-005
 -9.991305197649795E-005
 -1.000039125680311E-004
 -1.001112305057942E-004
 -1.002237801403967E-004
 -1.003309015304692E-004
 -1.004226592882223E-004
 -1.004899756239147E-004
 -1.005247365310986E-004
 -1.005198674746854E-004
 -1.004693876536163E-004
 -1.003684473342474E-004
 -1.002133524973648E-004
 -1.000015761128891E-004
 -9.973174909951377E-005
 -9.922707143172354E-005
 -9.930762226305627E-005
 -9.942658745844503E-005
 -9.956985119206004E-005
 -9.972374191575407E-005
 -9.987527784177643E-005
 -1.000123901243325E-004
 -1.001241002672841E-004
 -1.002006496534295E-004
 -1.002335896718175E-004
 -1.002158427849297E-004
 -1.001417438711141E-004
 -1.000070655330202E-004
 -9.980901842474187E-005
 -9.954621624741419E-005
 -9.854394479317662E-005
 -9.864360045536441E-005
 -9.879256887097745E-005
 -9.897410901315628E-005
 -9.917194352903617E-005
 -9.937059355893593E-005
 -9.955567230294509E-005
 -9.971411472833611E-005
 -9.983433955798258E-005
 -9.990636153821885E-005
 -9.992186902332786E-005
 -9.987427818031669E-005
 -9.975876299066428E-005
 -9.957224557132562E-005
 -9.931331966623626E-005
 -9.780127990624469E-005
 -9.792082132391910E-005
 -9.810084827199518E-005
 -9.832201032049738E-005
 -9.856538015875372E-005
 -9.881287706932411E-005
 -9.904764146606195E-005
 -9.925433319345036E-005
 -9.941935095755813E-005
 -9.953098815718802E-005
 -9.957955036303842E-005
 -9.955743408387233E-005
 -9.945916815797975E-005
 -9.928138075566756E-005
 -9.902265677432114E-005
 -9.699958612496365E-005
 -9.713899771418805E-005
 -9.734995517590383E-005
 -9.761073272786789E-005
 -9.789987498732270E-005
 -9.819669365110375E-005
 -9.848173619448170E-005
 -9.873718897268213E-005
 -9.894720153515803E-005
 -9.909813767489673E-005
 -9.917876416702933E-005
 -9.918038212302217E-005
 -9.909687051636048E-005
 -9.892460135182563E-005
 -9.866218336906410E-005
 -9.613951087559822E-005
 -9.629772873316560E-005
 -9.653794939326759E-005
 -9.683658246895217E-005
 -9.716998347273338E-005
 -9.751498453683031E-005
 -9.784946983212208E-005
 -9.815294293874184E-005
 -9.840704003789635E-005
 -9.859596200206499E-005
 -9.870680033349558E-005
 -9.872973798748920E-005
 -9.865807386378277E-005
 -9.848802469134997E-005
 -9.821827602979075E-005
 -9.522185141963202E-005
 -9.539656326902339E-005
 -9.566252795357782E-005
 -9.599509967921861E-005
 -9.636904132003608E-005
 -9.675901349144190E-005
 -9.714025394246594E-005
 -9.748938616710955E-005
 -9.778525224214018E-005
 -9.800965883904836E-005
 -9.814793540085986E-005
 -9.818922084270360E-005
 -9.812640597847930E-005
 -9.795571435513328E-005
 -9.767596075626876E-005
 -9.424756402676585E-005
 -9.443514004202924E-005
 -9.472129488204590E-005
 -9.508138173714139E-005
 -9.548943107670913E-005
 -9.591847788395856E-005
 -9.634129885641691E-005
 -9.673153171551650E-005
 -9.706499611748367E-005
 -9.732094281886691E-005
 -9.748296381323780E-005
 -9.753935263356132E-005
 -9.748285362512499E-005
 -9.730987618556617E-005
 -9.701935299300414E-005
 -9.321776744178445E-005
 -9.341340319890270E-005
 -9.371220832908955E-005
 -9.409066628829586E-005
 -9.452313110102674E-005
 -9.498184537861474E-005
 -9.543762217976829E-005
 -9.586128619533354E-005
 -9.622564067483066E-005
 -9.650743207930416E-005
 -9.668871876823163E-005
 -9.675725716233997E-005
 -9.670589912965971E-005
 -9.653129739857732E-005
 -9.623232162125979E-005
 -9.213373908480937E-005
 -9.233185244712897E-005
 -9.263414460884470E-005
 -9.301913504360167E-005
 -9.346255460158744E-005
 -9.393695749261027E-005
 -9.441220300599617E-005
 -9.485711856749063E-005
 -9.524212479565671E-005
 -9.554199261755564E-005
 -9.573768449462128E-005
 -9.581668347654421E-005
 -9.577193759702205E-005
 -9.560004584109770E-005
 -9.529932796045556E-005
 -9.099689867142754E-005
 -9.119174719916207E-005
 -9.148742081243026E-005
 -9.186475910234274E-005
 -9.230154556278437E-005
 -9.277184936816387E-005
 -9.324631097261296E-005
 -9.369381578136791E-005
 -9.408437568613138E-005
 -9.439222651738722E-005
 -9.459787160504799E-005
 -9.468835202156001E-005
 -9.465598065444893E-005
 -9.449634433861667E-005
 -9.420631029171959E-005
 -8.980879526199720E-005
 -8.999516941241841E-005
 -9.027404612993353E-005
 -9.062782562968886E-005
 -9.103613721586099E-005
 -9.147551248698914E-005
 -9.191998318365550E-005
 -9.234257485423459E-005
 -9.271721407679552E-005
 -9.302053276064977E-005
 -9.323323071165480E-005
 -9.334067641213211E-005
 -9.333251417320210E-005
 -9.320140850884197E-005
 -9.294141028699356E-005
 -8.857108798667536E-005
 -8.874491903076751E-005
 -8.899748848111361E-005
 -8.931062567227243E-005
 -8.966429057758301E-005
 -9.003788931369951E-005
 -9.041248434358954E-005
 -9.077198513743096E-005
 -9.110169589938332E-005
 -9.138550866086509E-005
 -9.160487190942190E-005
 -9.174070558220970E-005
 -9.177618026049842E-005
 -9.169793510224080E-005
 -9.149534297721632E-005
 -8.728562472871108E-005
 -8.744427811920716E-005
 -8.766182355173169E-005
 -8.791570194430489E-005
 -8.818345528706091E-005
 -8.844786045447487E-005
 -8.870236304678655E-005
 -8.895082863817985E-005
 -8.919944403313070E-005
 -8.944577279714904E-005
 -8.967325904831837E-005
 -8.985487037617440E-005
 -8.996176789693106E-005
 -8.996989173210647E-005
 -8.986127131635382E-005
 -8.595471233939217E-005
 -8.609680585511765E-005
 -8.627008131126511E-005
 -8.644188808503962E-005
 -8.658460026112579E-005
 -8.668806914684639E-005
 -8.676688382412607E-005
 -8.685356116418206E-005
 -8.698140057057890E-005
 -8.716737281485391E-005
 -8.740168420475077E-005
 -8.764912133992297E-005
 -8.786294463898702E-005
 -8.800124655804293E-005
 -8.803415125863492E-005
 -8.458145818250531E-005
 -8.470608519677798E-005
 -8.482115344501615E-005
 -8.487648809427761E-005
 -8.484182421599038E-005
 -8.472761609791465E-005
 -8.458211294818863E-005
 -8.446770186467558E-005
 -8.443979045389858E-005
 -8.453548349238650E-005
 -8.476260727805481E-005
 -8.508895512695700E-005
 -8.544926153018876E-005
 -8.577319273344377E-005
 -8.600952960803932E-005
 -8.317075830314942E-005
 -8.327458715005873E-005
 -8.330189731192060E-005
 -8.318033735533553E-005
 -8.289936725546242E-005
 -8.251922235110582E-005
 -8.212711409739804E-005
 -8.179898059231808E-005
 -8.159616518571878E-005
 -8.156870100133517E-005
 -8.175114331689643E-005
 -8.214320197093970E-005
 -8.268155338020492E-005
 -8.325888185997652E-005
 -8.378149212489978E-005
 -8.173107419072787E-005
 -8.179838804786701E-005
 -8.166492525357418E-005
 -8.126295101382032E-005
 -8.066770721073242E-005
 -8.001270247666296E-005
 -7.939186745244566E-005
 -7.886911713078426E-005
 -7.849626332641954E-005
 -7.832465993229271E-005
 -7.840985661280010E-005
 -7.880307005175737E-005
 -7.951028041298948E-005
 -8.041250231946481E-005
 -8.133893331310452E-005
 -8.027736578735921E-005
 -8.023824550617424E-005
 -7.977489561032012E-005
 -7.896447610940679E-005
 -7.805952571527159E-005
 -7.717863190776305E-005
 -7.638097804677597E-005
 -7.570642137211467E-005
 -7.519239516380617E-005
 -7.488322522790425E-005
 -7.483849992601330E-005
 -7.514146297433262E-005
 -7.589590244040997E-005
 -7.715315878656704E-005
 -7.865204369786952E-005
 -7.880707509736967E-005
 -7.841216760098228E-005
 -7.731758664518542E-005
 -7.615117113561521E-005
 -7.503811820725789E-005
 -7.401613806575397E-005
 -7.310792164408039E-005
 -7.233563069650205E-005
 -7.172610876266745E-005
 -7.131545558796394E-005
 -7.115609719596779E-005
 -7.133021503262076E-005
 -7.197589675338737E-005
 -7.332846474200234E-005
 -7.565028029602667E-005
 -7.719633236487436E-005
 -7.554898787658972E-005
 -7.410718452075080E-005
 -7.280410931626344E-005
 -7.161406129386255E-005
 -7.053795922500148E-005
 -6.958547803200136E-005
 -6.877237793626057E-005
 -6.812124272564447E-005
 -6.766370145507231E-005
 -6.744607701816030E-005
 -6.754071271486404E-005
 -6.807223755077263E-005
 -6.929004160119839E-005
 -7.184346840126956E-005
SCALARS poroP double 
LOOKUP_TABLE default
  1.557144442199127E-005
  1.554680390819178E-005
  1.552113577545778E-005
  1.549446395663149E-005
  1.546682605230726E-005
  1.543827300226703E-005
  1.540886823398764E-005
  1.537868649452528E-005
  1.534781257583335E-005
  1.531634012781442E-005
  1.528437072529841E-005
  1.525201331321311E-005
  1.521938416500911E-005
  1.518660721653154E-005
  1.515381477069775E-005
  1.557106158054100E-005
  1.554647287063199E-005
  1.552086669775692E-005
  1.549426694824866E-005
  1.546671147838689E-005
  1.543825157999966E-005
  1.540895094652715E-005
  1.537888436151664E-005
  1.534813632953036E-005
  1.531679984739033E-005
  1.528497547630220E-005
  1.525277084548097E-005
  1.522030067744939E-005
  1.518768715051987E-005
  1.515506056475413E-005
  1.557026363573135E-005
  1.554578276768405E-005
  1.552030513707015E-005
  1.549385439682225E-005
  1.546646874915366E-005
  1.543820000425962E-005
  1.540911218890854E-005
  1.537927996050954E-005
  1.534878706577663E-005
  1.531772504540630E-005
  1.528619232427938E-005
  1.525429380569124E-005
  1.522214110594674E-005
  1.518985293474836E-005
  1.515755554942300E-005
  1.556898542935664E-005
  1.554467704533641E-005
  1.551940392837567E-005
  1.549318900339750E-005
  1.546607056657571E-005
  1.543810073472098E-005
  1.540934353632668E-005
  1.537987294440539E-005
  1.534977111521333E-005
  1.531912702924286E-005
  1.528803565493947E-005
  1.525659771733799E-005
  1.522492009282056E-005
  1.519311609616441E-005
  1.516130627457782E-005
  1.556712764071621E-005
  1.554306968925271E-005
  1.551809147697211E-005
  1.549221426270369E-005
  1.546547564185805E-005
  1.543792724116258E-005
  1.540963215393108E-005
  1.538066253033089E-005
  1.535109758907985E-005
  1.532102223752101E-005
  1.529052637095161E-005
  1.525970504951783E-005
  1.522865853653318E-005
  1.519749306933763E-005
  1.516632223385901E-005
  1.556455508441012E-005
  1.554084393515947E-005
  1.551627084852150E-005
  1.549085384069558E-005
  1.546462827189329E-005
  1.543764366339751E-005
  1.540996042621250E-005
  1.538164699832515E-005
  1.535277768791678E-005
  1.532343135003356E-005
  1.529369089771284E-005
  1.526364374623955E-005
  1.523338235567610E-005
  1.520300462735682E-005
  1.517261538876456E-005
  1.556109479304819E-005
  1.553785078867874E-005
  1.551381870738347E-005
  1.548901081727586E-005
  1.546345773369837E-005
  1.543720421344034E-005
  1.541030523247216E-005
  1.538282274250062E-005
  1.535482345778846E-005
  1.532637773105110E-005
  1.529755939995868E-005
  1.526844647872147E-005
  1.523912200084476E-005
  1.520967452241635E-005
  1.518019935046450E-005
  1.555653418731290E-005
  1.553390765091837E-005
  1.551058426235251E-005
  1.548656682890110E-005
  1.546187743336691E-005
  1.543655216757335E-005
  1.541063665166475E-005
  1.538418263234488E-005
  1.535724587599683E-005
  1.532988533599925E-005
  1.530216367793732E-005
  1.527414786830328E-005
  1.524590984299317E-005
  1.521752824577625E-005
  1.518908881713800E-005
  1.555061977422613E-005
  1.552879732359462E-005
  1.550638837100018E-005
  1.548338110517096E-005
  1.545978369666394E-005
  1.543561822778310E-005
  1.541091582076952E-005
  1.538571336995427E-005
  1.536005179385790E-005
  1.533397559668762E-005
  1.530753383748021E-005
  1.528078106214870E-005
  1.525377759599718E-005
  1.522659149842555E-005
  1.519929889284698E-005
  1.554305702669471E-005
  1.552226781816381E-005
  1.550102303625894E-005
  1.547928939200116E-005
  1.545705398877624E-005
  1.543431795689294E-005
  1.541109160522879E-005
  1.538739155139248E-005
  1.536323956915832E-005
  1.533866276840672E-005
  1.531369448767758E-005
  1.528837530501249E-005
  1.526275394969857E-005
  1.523688808186177E-005
  1.521084408739983E-005
  1.553351227305814E-005
  1.551403347094451E-005
  1.549425144916962E-005
  1.547410271546590E-005
  1.545354431711410E-005
  1.543254792699653E-005
  1.541109570150499E-005
  1.538917807626659E-005
  1.536679328927290E-005
  1.534394809276086E-005
  1.532065863621315E-005
  1.529695089540381E-005
  1.527286164980659E-005
  1.524843809781738E-005
  1.522373726904142E-005
  1.552161766825491E-005
  1.550377801268276E-005
  1.548580878552979E-005
  1.546760584601251E-005
  1.544908551772757E-005
  1.543018022895880E-005
  1.541083587219271E-005
  1.539101065716768E-005
  1.537067511450059E-005
  1.534981316189274E-005
  1.532842267238685E-005
  1.530651467691838E-005
  1.528411312495176E-005
  1.526125473547933E-005
  1.523798827389559E-005
  1.550698055166960E-005
  1.549116035227670E-005
  1.547540404934926E-005
  1.545955540631526E-005
  1.544347823168254E-005
  1.542705511803990E-005
  1.541018720228749E-005
  1.539279449782167E-005
  1.537481623838192E-005
  1.535621158851176E-005
  1.533695897818066E-005
  1.531705333382195E-005
  1.529650551427533E-005
  1.527534187701097E-005
  1.525360291478372E-005
  1.548919863738126E-005
  1.547582397264006E-005
  1.546272343608388E-005
  1.544967777223948E-005
  1.543648653553107E-005
  1.542297179105478E-005
  1.540898143288007E-005
  1.539439135650871E-005
  1.537910628004030E-005
  1.536305901346614E-005
  1.534620663554435E-005
  1.532852682758079E-005
  1.531001671518661E-005
  1.529069100174888E-005
  1.527058108204566E-005
  1.546788233831344E-005
  1.545741099424674E-005
  1.544743605137953E-005
  1.543766749356381E-005
  1.542783081113559E-005
  1.541767771049394E-005
  1.540699455897190E-005
  1.539560702890875E-005
  1.538338165811302E-005
  1.537022257731502E-005
  1.535606299787055E-005
  1.534086146384666E-005
  1.532459912412979E-005
  1.530727648047360E-005
  1.528891411846596E-005
  1.544268450249238E-005
  1.543558189638833E-005
  1.542920349873267E-005
  1.542318786873679E-005
  1.541718139585881E-005
  1.541085777264815E-005
  1.540393373588929E-005
  1.539617793817982E-005
  1.538741352452649E-005
  1.537751029409622E-005
  1.536637394679961E-005
  1.535394089101363E-005
  1.534017193330164E-005
  1.532504970017147E-005
  1.530858153551201E-005
  1.541333702041246E-005
  1.541004134805167E-005
  1.540769539939750E-005
  1.540587663277650E-005
  1.540415581914988E-005
  1.540212552046485E-005
  1.539942516328022E-005
  1.539575780079115E-005
  1.539089349905129E-005
  1.538465797380880E-005
  1.537692262544354E-005
  1.536759552752150E-005
  1.535661159211187E-005
  1.534393144431066E-005
  1.532954681935684E-005
  1.537969120293904E-005
  1.538057056861512E-005
  1.538261328212680E-005
  1.538536073603491E-005
  1.538832402107327E-005
  1.539101968117928E-005
  1.539300495016457E-005
  1.539390538384885E-005
  1.539342033410621E-005
  1.539131531950256E-005
  1.538741507963058E-005
  1.538158877713050E-005
  1.537373924782726E-005
  1.536380219146436E-005
  1.535175267481078E-005
  1.534175545783254E-005
  1.534706371271241E-005
  1.535372521172580E-005
  1.536128511055596E-005
  1.536922741236455E-005
  1.537701171876255E-005
  1.538411623215938E-005
  1.539007309454920E-005
  1.539448372676675E-005
  1.539702783926776E-005
  1.539746088346437E-005
  1.539559809622078E-005
  1.539130448894771E-005
  1.538449075212519E-005
  1.537511633759778E-005
  1.529972094105592E-005
  1.530956295395977E-005
  1.532090875082892E-005
  1.533335804186196E-005
  1.534641877146792E-005
  1.535953357581333E-005
  1.537211885839748E-005
  1.538359943305442E-005
  1.539344556821620E-005
  1.540121099253274E-005
  1.540654501006683E-005
  1.540918910148444E-005
  1.540896541873158E-005
  1.540576233819344E-005
  1.539952587379351E-005
  1.525396386196640E-005
  1.526828067179871E-005
  1.528419397217285E-005
  1.530141095051943E-005
  1.531952759753922E-005
  1.533803293241153E-005
  1.535632092636031E-005
  1.537371313161533E-005
  1.538951919333274E-005
  1.540311268985253E-005
  1.541398694463174E-005
  1.542178090717761E-005
  1.542626512425766E-005
  1.542730647952315E-005
  1.542483753887756E-005
  1.520502018358026E-005
  1.522359940608310E-005
  1.524379190735290E-005
  1.526545972524694E-005
  1.528834647017791E-005
  1.531206199110359E-005
  1.533604551881305E-005
  1.535955819622529E-005
  1.538174753277423E-005
  1.540176302068044E-005
  1.541888508471248E-005
  1.543260165832875E-005
  1.544260322079525E-005
  1.544872354199534E-005
  1.545087439574578E-005
  1.515353692981560E-005
  1.517604314030949E-005
  1.520010343316064E-005
  1.522574968833662E-005
  1.525291647495293E-005
  1.528139212518552E-005
  1.531074071361432E-005
  1.534025574362004E-005
  1.536899887725539E-005
  1.539592266861878E-005
  1.542005053108271E-005
  1.544063217673994E-005
  1.545719929306684E-005
  1.546950652693321E-005
  1.547742100673320E-005
  1.510019216260835E-005
  1.512622640216204E-005
  1.515368772828518E-005
  1.518276632758579E-005
  1.521358772156589E-005
  1.524612487929302E-005
  1.528011443603650E-005
  1.531501933235450E-005
  1.535002676376417E-005
  1.538406987107016E-005
  1.541594257120905E-005
  1.544453124232864E-005
  1.546903397320769E-005
  1.548900379952296E-005
  1.550421182199364E-005
  1.504558988264463E-005
  1.507476329457709E-005
  1.510520165604095E-005
  1.513720282400471E-005
  1.517101428526681E-005
  1.520671936929735E-005
  1.524422365218758E-005
  1.528333496591401E-005
  1.532367958028919E-005
  1.536452101157140E-005
  1.540464800635129E-005
  1.544252435587183E-005
  1.547672994718090E-005
  1.550633877648228E-005
  1.553090679518366E-005
  1.499032427073114E-005
  1.502223470047361E-005
  1.505533669879559E-005
  1.508989180278783E-005
  1.512604213183970E-005
  1.516383090816581E-005
  1.520342447443296E-005
  1.524515051812885E-005
  1.528929859164113E-005
  1.533582518030946E-005
  1.538401577281463E-005
  1.543225764104820E-005
  1.547831791068259E-005
  1.552025478557722E-005
  1.555703627287778E-005
  1.493491736428202E-005
  1.496927208332269E-005
  1.500490451540839E-005
  1.504172640360006E-005
  1.507936080818803E-005
  1.511795768904387E-005
  1.515819928201512E-005
  1.520095746087837E-005
  1.524712785316154E-005
  1.529745950701296E-005
  1.535224894443543E-005
  1.541080805182551E-005
  1.547082041298430E-005
  1.552871556678152E-005
  1.558189425642671E-005
  1.487980453747031E-005
  1.491669012069999E-005
  1.495503916284985E-005
  1.499321670211717E-005
  1.503095567257460E-005
  1.506916356946386E-005
  1.510900286274630E-005
  1.515166403907735E-005
  1.519836113473840E-005
  1.525040042215719E-005
  1.530914470967314E-005
  1.537566253381920E-005
  1.544977717758064E-005
  1.552804957748646E-005
  1.560414006333893E-005
  1.482521143656504E-005
  1.486648754558556E-005
  1.490624211711933E-005
  1.494345286845237E-005
  1.497998415473031E-005
  1.501719072188254E-005
  1.505623748578488E-005
  1.509830138312446E-005
  1.514466864380930E-005
  1.519687984439560E-005
  1.525691188356060E-005
  1.532729635925753E-005
  1.541099889949768E-005
  1.551041829044667E-005
  1.562044974038477E-005
  1.477752132804785E-005
  1.481951122514055E-005
  1.485554574006076E-005
  1.489041268127693E-005
  1.492554188655782E-005
  1.496187047012237E-005
  1.500026744907580E-005
  1.504173861051281E-005
  1.508754593370782E-005
  1.513930507729823E-005
  1.519914410126689E-005
  1.527012048601053E-005
  1.535702977077085E-005
  1.546793620331724E-005
  1.561859990696367E-005
SCALARS elementIsPlast double 
LOOKUP_TABLE default
   1.00000000000000     
   1.00000000000000     
   1.00000000000000     
   1.00000000000000     
   1.00000000000000     
   1.00000000000000     
   1.00000000000000     
   1.00000000000000     
   1.00000000000000     
   1.00000000000000     
   1.00000000000000     
   1.00000000000000     
   1.00000000000000     
   1.00000000000000     
   1.00000000000000     
   1.00000000000000     
   1.00000000000000     
   1.00000000000000     
   1.00000000000000     
   1.00000000000000     
   1.00000000000000     
   1.00000000000000     
   1.00000000000000     
   1.00000000000000     
   1.00000000000000     
   1.00000000000000     
   1.00000000000000     
   1.00000000000000     
   1.00000000000000     
   1.00000000000000     
   1.00000000000000     
   1.00000000000000     
   1.00000000000000     
   1.00000000000000     
   1.00000000000000     
   1.00000000000000     
   1.00000000000000     
   1.00000000000000     
   1.00000000000000     
   1.00000000000000     
   1.00000000000000     
   1.00000000000000     
   1.00000000000000     
   1.00000000000000     
   1.00000000000000     
   1.00000000000000     
   1.00000000000000     
   1.00000000000000     
   1.00000000000000     
   1.00000000000000     
   1.00000000000000     
   1.00000000000000     
   1.00000000000000     
   1.00000000000000     
   1.00000000000000     
   1.00000000000000     
   1.00000000000000     
   1.00000000000000     
   1.00000000000000     
   1.00000000000000     
   1.00000000000000     
   1.00000000000000     
   1.00000000000000     
   1.00000000000000     
   1.00000000000000     
   1.00000000000000     
   1.00000000000000     
   1.00000000000000     
   1.00000000000000     
   1.00000000000000     
   1.00000000000000     
   1.00000000000000     
   1.00000000000000     
   1.00000000000000     
   1.00000000000000     
   1.00000000000000     
   1.00000000000000     
   1.00000000000000     
   1.00000000000000     
   1.00000000000000     
   1.00000000000000     
   1.00000000000000     
   1.00000000000000     
   1.00000000000000     
   1.00000000000000     
   1.00000000000000     
   1.00000000000000     
   1.00000000000000     
   1.00000000000000     
   1.00000000000000     
   1.00000000000000     
   1.00000000000000     
   1.00000000000000     
   1.00000000000000     
   1.00000000000000     
   1.00000000000000     
   1.00000000000000     
   1.00000000000000     
   1.00000000000000     
   1.00000000000000     
   1.00000000000000     
   1.00000000000000     
   1.00000000000000     
   1.00000000000000     
   1.00000000000000     
   1.00000000000000     
   1.00000000000000     
   1.00000000000000     
   1.00000000000000     
   1.00000000000000     
   1.00000000000000     
   1.00000000000000     
   1.00000000000000     
   1.00000000000000     
   1.00000000000000     
   1.00000000000000     
   1.00000000000000     
   1.00000000000000     
   1.00000000000000     
   1.00000000000000     
   1.00000000000000     
   1.00000000000000     
   1.00000000000000     
   1.00000000000000     
   1.00000000000000     
   1.00000000000000     
   1.00000000000000     
   1.00000000000000     
   1.00000000000000     
   1.00000000000000     
   1.00000000000000     
   1.00000000000000     
   1.00000000000000     
   1.00000000000000     
   1.00000000000000     
   1.00000000000000     
   1.00000000000000     
   1.00000000000000     
   1.00000000000000     
   1.00000000000000     
   1.00000000000000     
   1.00000000000000     
   1.00000000000000     
   1.00000000000000     
   1.00000000000000     
   1.00000000000000     
   1.00000000000000     
   1.00000000000000     
   1.00000000000000     
   1.00000000000000     
   1.00000000000000     
   1.00000000000000     
   1.00000000000000     
   1.00000000000000     
   1.00000000000000     
   1.00000000000000     
   1.00000000000000     
   1.00000000000000     
   1.00000000000000     
   1.00000000000000     
   1.00000000000000     
   1.00000000000000     
   1.00000000000000     
   1.00000000000000     
   1.00000000000000     
   1.00000000000000     
   1.00000000000000     
   1.00000000000000     
   1.00000000000000     
   1.00000000000000     
   1.00000000000000     
   1.00000000000000     
   1.00000000000000     
   1.00000000000000     
   1.00000000000000     
   1.00000000000000     
   1.00000000000000     
   1.00000000000000     
   1.00000000000000     
   1.00000000000000     
   1.00000000000000     
   1.00000000000000     
   1.00000000000000     
   1.00000000000000     
   1.00000000000000     
   1.00000000000000     
   1.00000000000000     
   1.00000000000000     
   1.00000000000000     
   1.00000000000000     
   1.00000000000000     
   1.00000000000000     
   1.00000000000000     
   1.00000000000000     
   1.00000000000000     
   1.00000000000000     
   1.00000000000000     
   1.00000000000000     
   1.00000000000000     
   1.00000000000000     
   1.00000000000000     
   1.00000000000000     
   1.00000000000000     
   1.00000000000000     
   1.00000000000000     
   1.00000000000000     
   1.00000000000000     
   1.00000000000000     
   1.00000000000000     
   1.00000000000000     
   1.00000000000000     
   1.00000000000000     
   1.00000000000000     
   1.00000000000000     
   1.00000000000000     
   1.00000000000000     
   1.00000000000000     
   1.00000000000000     
   1.00000000000000     
   1.00000000000000     
   1.00000000000000     
   1.00000000000000     
   1.00000000000000     
   1.00000000000000     
   1.00000000000000     
   1.00000000000000     
   1.00000000000000     
   1.00000000000000     
   1.00000000000000     
   1.00000000000000     
   1.00000000000000     
   1.00000000000000     
   1.00000000000000     
   1.00000000000000     
   1.00000000000000     
   1.00000000000000     
   1.00000000000000     
   1.00000000000000     
   1.00000000000000     
   1.00000000000000     
   1.00000000000000     
   1.00000000000000     
   1.00000000000000     
   1.00000000000000     
   1.00000000000000     
   1.00000000000000     
   1.00000000000000     
   1.00000000000000     
   1.00000000000000     
   1.00000000000000     
   1.00000000000000     
   1.00000000000000     
   1.00000000000000     
   1.00000000000000     
   1.00000000000000     
   1.00000000000000     
   1.00000000000000     
   1.00000000000000     
   1.00000000000000     
   1.00000000000000     
   1.00000000000000     
   1.00000000000000     
   1.00000000000000     
   1.00000000000000     
   1.00000000000000     
   1.00000000000000     
   1.00000000000000     
   1.00000000000000     
   1.00000000000000     
   1.00000000000000     
   1.00000000000000     
   1.00000000000000     
   1.00000000000000     
   1.00000000000000     
   1.00000000000000     
   1.00000000000000     
   1.00000000000000     
   1.00000000000000     
   1.00000000000000     
   1.00000000000000     
   1.00000000000000     
   1.00000000000000     
   1.00000000000000     
   1.00000000000000     
   1.00000000000000     
   1.00000000000000     
   1.00000000000000     
   1.00000000000000     
   1.00000000000000     
   1.00000000000000     
   1.00000000000000     
   1.00000000000000     
   1.00000000000000     
   1.00000000000000     
   1.00000000000000     
   1.00000000000000     
   1.00000000000000     
   1.00000000000000     
   1.00000000000000     
   1.00000000000000     
   1.00000000000000     
   1.00000000000000     
   1.00000000000000     
   1.00000000000000     
   1.00000000000000     
   1.00000000000000     
   1.00000000000000     
   1.00000000000000     
   1.00000000000000     
   1.00000000000000     
   1.00000000000000     
   1.00000000000000     
   1.00000000000000     
   1.00000000000000     
   1.00000000000000     
   1.00000000000000     
   1.00000000000000     
   1.00000000000000     
   1.00000000000000     
   1.00000000000000     
   1.00000000000000     
   1.00000000000000     
   1.00000000000000     
   1.00000000000000     
   1.00000000000000     
   1.00000000000000     
   1.00000000000000     
   1.00000000000000     
   1.00000000000000     
   1.00000000000000     
   1.00000000000000     
   1.00000000000000     
   1.00000000000000     
   1.00000000000000     
   1.00000000000000     
   1.00000000000000     
   1.00000000000000     
   1.00000000000000     
   1.00000000000000     
   1.00000000000000     
   1.00000000000000     
   1.00000000000000     
   1.00000000000000     
   1.00000000000000     
   1.00000000000000     
   1.00000000000000     
   1.00000000000000     
   1.00000000000000     
   1.00000000000000     
   1.00000000000000     
   1.00000000000000     
   1.00000000000000     
   1.00000000000000     
   1.00000000000000     
   1.00000000000000     
   1.00000000000000     
   1.00000000000000     
   1.00000000000000     
   1.00000000000000     
   1.00000000000000     
   1.00000000000000     
   1.00000000000000     
   1.00000000000000     
   1.00000000000000     
   1.00000000000000     
   1.00000000000000     
   1.00000000000000     
   1.00000000000000     
   1.00000000000000     
   1.00000000000000     
   1.00000000000000     
   1.00000000000000     
   1.00000000000000     
   1.00000000000000     
   1.00000000000000     
   1.00000000000000     
   1.00000000000000     
   1.00000000000000     
   1.00000000000000     
   1.00000000000000     
   1.00000000000000     
   1.00000000000000     
   1.00000000000000     
   1.00000000000000     
   1.00000000000000     
   1.00000000000000     
   1.00000000000000     
   1.00000000000000     
   1.00000000000000     
   1.00000000000000     
   1.00000000000000     
   1.00000000000000     
   1.00000000000000     
   1.00000000000000     
   1.00000000000000     
   1.00000000000000     
   1.00000000000000     
   1.00000000000000     
   1.00000000000000     
   1.00000000000000     
   1.00000000000000     
   1.00000000000000     
   1.00000000000000     
   1.00000000000000     
   1.00000000000000     
   1.00000000000000     
   1.00000000000000     
   1.00000000000000     
   1.00000000000000     
   1.00000000000000     
   1.00000000000000     
   1.00000000000000     
   1.00000000000000     
   1.00000000000000     
   1.00000000000000     
   1.00000000000000     
   1.00000000000000     
   1.00000000000000     
   1.00000000000000     
   1.00000000000000     
   1.00000000000000     
   1.00000000000000     
   1.00000000000000     
   1.00000000000000     
   1.00000000000000     
   1.00000000000000     
   1.00000000000000     
   1.00000000000000     
   1.00000000000000     
   1.00000000000000     
   1.00000000000000     
   1.00000000000000     
   1.00000000000000     
   1.00000000000000     
   1.00000000000000     
   1.00000000000000     
   1.00000000000000     
   1.00000000000000     
   1.00000000000000     
   1.00000000000000     
   1.00000000000000     
   1.00000000000000     
   1.00000000000000     
   1.00000000000000     
   1.00000000000000     
   1.00000000000000     
   1.00000000000000     
   1.00000000000000     
   1.00000000000000     
   1.00000000000000     
SCALARS poroL double 
LOOKUP_TABLE default
  0.155800715213134     
  0.155800692444568     
  0.155800670548072     
  0.155800649533476     
  0.155800629419781     
  0.155800610236221     
  0.155800592022903     
  0.155800574831204     
  0.155800558724058     
  0.155800543776255     
  0.155800530074852     
  0.155800517719745     
  0.155800506824535     
  0.155800497517397     
  0.155800489942425     
  0.155800707676978     
  0.155800684955991     
  0.155800663112043     
  0.155800642152895     
  0.155800622096009     
  0.155800602969461     
  0.155800584812448     
  0.155800567675559     
  0.155800551620946     
  0.155800536722531     
  0.155800523066348     
  0.155800510751072     
  0.155800499888834     
  0.155800490606137     
  0.155800483044994     
  0.155800692577025     
  0.155800669954641     
  0.155800648218991     
  0.155800627373726     
  0.155800607433220     
  0.155800588423217     
  0.155800570381063     
  0.155800553355716     
  0.155800537407698     
  0.155800522609127     
  0.155800509043903     
  0.155800496808191     
  0.155800486011176     
  0.155800476776008     
  0.155800469240698     
  0.155800669857379     
  0.155800647391615     
  0.155800625826569     
  0.155800605159732     
  0.155800585400847     
  0.155800566572108     
  0.155800548707987     
  0.155800531854858     
  0.155800516070634     
  0.155800501424532     
  0.155800487997117     
  0.155800475880594     
  0.155800465179773     
  0.155800456012551     
  0.155800448511071     
  0.155800639432560     
  0.155800617192336     
  0.155800595870388     
  0.155800575456063     
  0.155800555952893     
  0.155800537378242     
  0.155800519762555     
  0.155800503148491     
  0.155800487590146     
  0.155800473152536     
  0.155800459911408     
  0.155800447953849     
  0.155800437377994     
  0.155800428294793     
  0.155800420829552     
  0.155800601185783     
  0.155800579255246     
  0.155800558263145     
  0.155800538188765     
  0.155800519027841     
  0.155800500791497     
  0.155800483504797     
  0.155800467205286     
  0.155800451941743     
  0.155800437773340     
  0.155800424769350     
  0.155800413009510     
  0.155800402584544     
  0.155800393597084     
  0.155800386163232     
  0.155800554967002     
  0.155800533450321     
  0.155800512893644     
  0.155800493264334     
  0.155800474548694     
  0.155800456749990     
  0.155800439886264     
  0.155800423988168     
  0.155800409097266     
  0.155800395264945     
  0.155800382551954     
  0.155800371028997     
  0.155800360777520     
  0.155800351890490     
  0.155800344474292     
  0.155800500591033     
  0.155800479617773     
  0.155800459626053     
  0.155800440569508     
  0.155800422423240     
  0.155800405180797     
  0.155800388851085     
  0.155800373455617     
  0.155800359026356     
  0.155800345604467     
  0.155800333240394     
  0.155800321993514     
  0.155800311933933     
  0.155800303144448     
  0.155800295721872     
  0.155800437836167     
  0.155800417567177     
  0.155800398299540     
  0.155800379971424     
  0.155800362544727     
  0.155800346000944     
  0.155800330337202     
  0.155800315562979     
  0.155800301697752     
  0.155800288769651     
  0.155800276815983     
  0.155800265883622     
  0.155800256030529     
  0.155800247328142     
  0.155800239863888     
  0.155800366444011     
  0.155800347077657     
  0.155800328728815     
  0.155800311318477     
  0.155800294792950     
  0.155800279118692     
  0.155800264277648     
  0.155800250263651     
  0.155800237080168     
  0.155800224739539     
  0.155800213263230     
  0.155800202683495     
  0.155800193045859     
  0.155800184411242     
  0.155800176858618     
  0.155800286121345     
  0.155800267899662     
  0.155800250705924     
  0.155800234442107     
  0.155800219035938     
  0.155800204434982     
  0.155800190601668     
  0.155800177509792     
  0.155800165142774     
  0.155800153493715     
  0.155800142566400     
  0.155800132377694     
  0.155800122960477     
  0.155800114366408     
  0.155800106667574     
  0.155800196545115     
  0.155800179759155     
  0.155800164003760     
  0.155800149159630     
  0.155800135132068     
  0.155800121844790     
  0.155800109235299     
  0.155800097252180     
  0.155800085854332     
  0.155800075012496     
  0.155800064711302     
  0.155800054952183     
  0.155800045756202     
  0.155800037167762     
  0.155800029256042     
  0.155800097371914     
  0.155800082365069     
  0.155800068381743     
  0.155800055278319     
  0.155800042932570     
  0.155800031238103     
  0.155800020100977     
  0.155800009438678     
  0.155799999181088     
  0.155799989273924     
  0.155799979681605     
  0.155799970390775     
  0.155799961413953     
  0.155799952792542     
  0.155799944596386     
  0.155799988253402     
  0.155799975420916     
  0.155799963594037     
  0.155799952600536     
  0.155799942283946     
  0.155799932499998     
  0.155799923115659     
  0.155799914010802     
  0.155799905082056     
  0.155799896247969     
  0.155799887453071     
  0.155799878672313     
  0.155799869914361     
  0.155799861222678     
  0.155799852672234     
  0.155799868859143     
  0.155799858641204     
  0.155799849400424     
  0.155799840929725     
  0.155799833029798     
  0.155799825509094     
  0.155799818186701     
  0.155799810897836     
  0.155799803501945     
  0.155799795890015     
  0.155799787989221     
  0.155799779767091     
  0.155799771235581     
  0.155799762446205     
  0.155799753483666     
  0.155799738906804     
  0.155799731773080     
  0.155799725579723     
  0.155799720076845     
  0.155799715011544     
  0.155799710133765     
  0.155799705204799     
  0.155799700008000     
  0.155799694363031     
  0.155799688133216     
  0.155799681232791     
  0.155799673631500     
  0.155799665351849     
  0.155799656459959     
  0.155799647054019     
  0.155799598199055     
  0.155799594621886     
  0.155799591945489     
  0.155799589866979     
  0.155799588067556     
  0.155799586225592     
  0.155799584033172     
  0.155799581215167     
  0.155799577548624     
  0.155799572872728     
  0.155799567096577     
  0.155799560202458     
  0.155799552232478     
  0.155799543272845     
  0.155799533437582     
  0.155799446664847     
  0.155799447080182     
  0.155799448362608     
  0.155799450145534     
  0.155799452030536     
  0.155799453609645     
  0.155799454492790     
  0.155799454341347     
  0.155799452888037     
  0.155799449952436     
  0.155799445451869     
  0.155799439391459     
  0.155799431840523     
  0.155799422908694     
  0.155799412726013     
  0.155799284396124     
  0.155799289157059     
  0.155799294766621     
  0.155799300785730     
  0.155799306722663     
  0.155799312068496     
  0.155799316341410     
  0.155799319132216     
  0.155799320130147     
  0.155799319145656     
  0.155799316116325     
  0.155799311077781     
  0.155799304130289     
  0.155799295406484     
  0.155799285050494     
  0.155799111675220     
  0.155799121002265     
  0.155799131183650     
  0.155799141698656     
  0.155799151952468     
  0.155799161326251     
  0.155799169244073     
  0.155799175222811     
  0.155799178913932     
  0.155799180132748     
  0.155799178839700     
  0.155799175100365     
  0.155799169042027     
  0.155799160816539     
  0.155799150578704     
  0.155798928970769     
  0.155798942922737     
  0.155798957750491     
  0.155798972845166     
  0.155798987511347     
  0.155799001030906     
  0.155799012741082     
  0.155799022099022     
  0.155799028737200     
  0.155799032476256     
  0.155799033286128     
  0.155799031244412     
  0.155799026491451     
  0.155799019190395     
  0.155799009503750     
  0.155798736928786     
  0.155798755380788     
  0.155798774722084     
  0.155798794247666     
  0.155798813180533     
  0.155798830735893     
  0.155798846213219     
  0.155798859061587     
  0.155798868919758     
  0.155798875588944     
  0.155798879005710     
  0.155798879216910     
  0.155798876348211     
  0.155798870564228     
  0.155798862027120     
  0.155798536335224     
  0.155798558982622     
  0.155798582463939     
  0.155798606000231     
  0.155798628732528     
  0.155798649896234     
  0.155798668873099     
  0.155798685211616     
  0.155798698573061     
  0.155798708690885     
  0.155798715387548     
  0.155798718604554     
  0.155798718404247     
  0.155798714928958     
  0.155798708340001     
  0.155798327945538     
  0.155798354388060     
  0.155798381442433     
  0.155798408240394     
  0.155798433932930     
  0.155798457905496     
  0.155798479829491     
  0.155798499483062     
  0.155798516582418     
  0.155798530746546     
  0.155798541581253     
  0.155798548802305     
  0.155798552315382     
  0.155798552196402     
  0.155798548606807     
  0.155798112425173     
  0.155798142142316     
  0.155798172075068     
  0.155798201077388     
  0.155798228505375     
  0.155798254185197     
  0.155798278248183     
  0.155798300781607     
  0.155798321647262     
  0.155798340405900     
  0.155798356381132     
  0.155798368894072     
  0.155798377504765     
  0.155798382136446     
  0.155798382924471     
  0.155797890558947     
  0.155797922820218     
  0.155797954513694     
  0.155797984366826     
  0.155798012117739     
  0.155798038329813     
  0.155798063551746     
  0.155798088217382     
  0.155798112461154     
  0.155798136008890     
  0.155798158073329     
  0.155798177425460     
  0.155798192994545     
  0.155798204244418     
  0.155798211288204     
  0.155797662974261     
  0.155797696820015     
  0.155797728651967     
  0.155797757619766     
  0.155797784504640     
  0.155797810166586     
  0.155797835542344     
  0.155797861356268     
  0.155797888098225     
  0.155797915890574     
  0.155797944295456     
  0.155797972070690     
  0.155797996995741     
  0.155798017583230     
  0.155798033434643     
  0.155797429940518     
  0.155797463787272     
  0.155797493417988     
  0.155797520497584     
  0.155797545474939     
  0.155797569692973     
  0.155797594341087     
  0.155797620336011     
  0.155797648394175     
  0.155797679070860     
  0.155797712673104     
  0.155797748939427     
  0.155797786304946     
  0.155797820038928     
  0.155797848988867     
  0.155797191048306     
  0.155797220476307     
  0.155797248607438     
  0.155797272359569     
  0.155797294598128     
  0.155797316899422     
  0.155797340310870     
  0.155797365740571     
  0.155797393964191     
  0.155797425784639     
  0.155797462189775     
  0.155797504321495     
  0.155797553069300     
  0.155797607999670     
  0.155797655226719     
  0.155796934101430     
  0.155796969722067     
  0.155796992250872     
  0.155797011927592     
  0.155797031358818     
  0.155797051777472     
  0.155797073915355     
  0.155797098348321     
  0.155797125777412     
  0.155797157154968     
  0.155797193776913     
  0.155797237540439     
  0.155797291520741     
  0.155797360974229     
  0.155797458504874     
