# vtk DataFile Version 3.0
vtk output
ASCII
DATASET UNSTRUCTURED_GRID
POINTS       186 double 
  0.00000000E+00  1.00000000E+01  0.00000000E+00
  0.00000000E+00  8.00000000E+00  0.00000000E+00
  0.00000000E+00  6.00000000E+00  0.00000000E+00
  0.00000000E+00  4.00000000E+00  0.00000000E+00
  0.00000000E+00  2.00000000E+00  0.00000000E+00
  0.00000000E+00  0.00000000E+00  0.00000000E+00
  3.33333333E+00  1.00000000E+01  0.00000000E+00
  3.33333333E+00  8.00000000E+00  0.00000000E+00
  3.33333333E+00  6.00000000E+00  0.00000000E+00
  3.33333333E+00  4.00000000E+00  0.00000000E+00
  3.33333333E+00  2.00000000E+00  0.00000000E+00
  3.33333333E+00  0.00000000E+00  0.00000000E+00
  6.66666667E+00  1.00000000E+01  0.00000000E+00
  6.66666667E+00  8.00000000E+00  0.00000000E+00
  6.66666667E+00  6.00000000E+00  0.00000000E+00
  6.66666667E+00  4.00000000E+00  0.00000000E+00
  6.66666667E+00  2.00000000E+00  0.00000000E+00
  6.66666667E+00  0.00000000E+00  0.00000000E+00
  1.00000000E+01  1.00000000E+01  0.00000000E+00
  1.00000000E+01  8.00000000E+00  0.00000000E+00
  1.00000000E+01  6.00000000E+00  0.00000000E+00
  1.00000000E+01  4.00000000E+00  0.00000000E+00
  1.00000000E+01  2.00000000E+00  0.00000000E+00
  1.00000000E+01  0.00000000E+00  0.00000000E+00
  1.33333333E+01  1.00000000E+01  0.00000000E+00
  1.33333333E+01  8.00000000E+00  0.00000000E+00
  1.33333333E+01  6.00000000E+00  0.00000000E+00
  1.33333333E+01  4.00000000E+00  0.00000000E+00
  1.33333333E+01  2.00000000E+00  0.00000000E+00
  1.33333333E+01  0.00000000E+00  0.00000000E+00
  1.66666667E+01  1.00000000E+01  0.00000000E+00
  1.66666667E+01  8.00000000E+00  0.00000000E+00
  1.66666667E+01  6.00000000E+00  0.00000000E+00
  1.66666667E+01  4.00000000E+00  0.00000000E+00
  1.66666667E+01  2.00000000E+00  0.00000000E+00
  1.66666667E+01  0.00000000E+00  0.00000000E+00
  2.00000000E+01  1.00000000E+01  0.00000000E+00
  2.00000000E+01  8.00000000E+00  0.00000000E+00
  2.00000000E+01  6.00000000E+00  0.00000000E+00
  2.00000000E+01  4.00000000E+00  0.00000000E+00
  2.00000000E+01  2.00000000E+00  0.00000000E+00
  2.00000000E+01  0.00000000E+00  0.00000000E+00
  2.33333333E+01  1.00000000E+01  0.00000000E+00
  2.33333333E+01  8.00000000E+00  0.00000000E+00
  2.33333333E+01  6.00000000E+00  0.00000000E+00
  2.33333333E+01  4.00000000E+00  0.00000000E+00
  2.33333333E+01  2.00000000E+00  0.00000000E+00
  2.33333333E+01  0.00000000E+00  0.00000000E+00
  2.66666667E+01  1.00000000E+01  0.00000000E+00
  2.66666667E+01  8.00000000E+00  0.00000000E+00
  2.66666667E+01  6.00000000E+00  0.00000000E+00
  2.66666667E+01  4.00000000E+00  0.00000000E+00
  2.66666667E+01  2.00000000E+00  0.00000000E+00
  2.66666667E+01  0.00000000E+00  0.00000000E+00
  3.00000000E+01  1.00000000E+01  0.00000000E+00
  3.00000000E+01  8.00000000E+00  0.00000000E+00
  3.00000000E+01  6.00000000E+00  0.00000000E+00
  3.00000000E+01  4.00000000E+00  0.00000000E+00
  3.00000000E+01  2.00000000E+00  0.00000000E+00
  3.00000000E+01  0.00000000E+00  0.00000000E+00
  3.33333333E+01  1.00000000E+01  0.00000000E+00
  3.33333333E+01  8.00000000E+00  0.00000000E+00
  3.33333333E+01  6.00000000E+00  0.00000000E+00
  3.33333333E+01  4.00000000E+00  0.00000000E+00
  3.33333333E+01  2.00000000E+00  0.00000000E+00
  3.33333333E+01  0.00000000E+00  0.00000000E+00
  3.66666667E+01  1.00000000E+01  0.00000000E+00
  3.66666667E+01  8.00000000E+00  0.00000000E+00
  3.66666667E+01  6.00000000E+00  0.00000000E+00
  3.66666667E+01  4.00000000E+00  0.00000000E+00
  3.66666667E+01  2.00000000E+00  0.00000000E+00
  3.66666667E+01  0.00000000E+00  0.00000000E+00
  4.00000000E+01  1.00000000E+01  0.00000000E+00
  4.00000000E+01  8.00000000E+00  0.00000000E+00
  4.00000000E+01  6.00000000E+00  0.00000000E+00
  4.00000000E+01  4.00000000E+00  0.00000000E+00
  4.00000000E+01  2.00000000E+00  0.00000000E+00
  4.00000000E+01  0.00000000E+00  0.00000000E+00
  4.33333333E+01  1.00000000E+01  0.00000000E+00
  4.33333333E+01  8.00000000E+00  0.00000000E+00
  4.33333333E+01  6.00000000E+00  0.00000000E+00
  4.33333333E+01  4.00000000E+00  0.00000000E+00
  4.33333333E+01  2.00000000E+00  0.00000000E+00
  4.33333333E+01  0.00000000E+00  0.00000000E+00
  4.66666667E+01  1.00000000E+01  0.00000000E+00
  4.66666667E+01  8.00000000E+00  0.00000000E+00
  4.66666667E+01  6.00000000E+00  0.00000000E+00
  4.66666667E+01  4.00000000E+00  0.00000000E+00
  4.66666667E+01  2.00000000E+00  0.00000000E+00
  4.66666667E+01  0.00000000E+00  0.00000000E+00
  5.00000000E+01  1.00000000E+01  0.00000000E+00
  5.00000000E+01  8.00000000E+00  0.00000000E+00
  5.00000000E+01  6.00000000E+00  0.00000000E+00
  5.00000000E+01  4.00000000E+00  0.00000000E+00
  5.00000000E+01  2.00000000E+00  0.00000000E+00
  5.00000000E+01  0.00000000E+00  0.00000000E+00
  5.33333333E+01  1.00000000E+01  0.00000000E+00
  5.33333333E+01  8.00000000E+00  0.00000000E+00
  5.33333333E+01  6.00000000E+00  0.00000000E+00
  5.33333333E+01  4.00000000E+00  0.00000000E+00
  5.33333333E+01  2.00000000E+00  0.00000000E+00
  5.33333333E+01  0.00000000E+00  0.00000000E+00
  5.66666667E+01  1.00000000E+01  0.00000000E+00
  5.66666667E+01  8.00000000E+00  0.00000000E+00
  5.66666667E+01  6.00000000E+00  0.00000000E+00
  5.66666667E+01  4.00000000E+00  0.00000000E+00
  5.66666667E+01  2.00000000E+00  0.00000000E+00
  5.66666667E+01  0.00000000E+00  0.00000000E+00
  6.00000000E+01  1.00000000E+01  0.00000000E+00
  6.00000000E+01  8.00000000E+00  0.00000000E+00
  6.00000000E+01  6.00000000E+00  0.00000000E+00
  6.00000000E+01  4.00000000E+00  0.00000000E+00
  6.00000000E+01  2.00000000E+00  0.00000000E+00
  6.00000000E+01  0.00000000E+00  0.00000000E+00
  6.33333333E+01  1.00000000E+01  0.00000000E+00
  6.33333333E+01  8.00000000E+00  0.00000000E+00
  6.33333333E+01  6.00000000E+00  0.00000000E+00
  6.33333333E+01  4.00000000E+00  0.00000000E+00
  6.33333333E+01  2.00000000E+00  0.00000000E+00
  6.33333333E+01  0.00000000E+00  0.00000000E+00
  6.66666667E+01  1.00000000E+01  0.00000000E+00
  6.66666667E+01  8.00000000E+00  0.00000000E+00
  6.66666667E+01  6.00000000E+00  0.00000000E+00
  6.66666667E+01  4.00000000E+00  0.00000000E+00
  6.66666667E+01  2.00000000E+00  0.00000000E+00
  6.66666667E+01  0.00000000E+00  0.00000000E+00
  7.00000000E+01  1.00000000E+01  0.00000000E+00
  7.00000000E+01  8.00000000E+00  0.00000000E+00
  7.00000000E+01  6.00000000E+00  0.00000000E+00
  7.00000000E+01  4.00000000E+00  0.00000000E+00
  7.00000000E+01  2.00000000E+00  0.00000000E+00
  7.00000000E+01  0.00000000E+00  0.00000000E+00
  7.33333333E+01  1.00000000E+01  0.00000000E+00
  7.33333333E+01  8.00000000E+00  0.00000000E+00
  7.33333333E+01  6.00000000E+00  0.00000000E+00
  7.33333333E+01  4.00000000E+00  0.00000000E+00
  7.33333333E+01  2.00000000E+00  0.00000000E+00
  7.33333333E+01  0.00000000E+00  0.00000000E+00
  7.66666667E+01  1.00000000E+01  0.00000000E+00
  7.66666667E+01  8.00000000E+00  0.00000000E+00
  7.66666667E+01  6.00000000E+00  0.00000000E+00
  7.66666667E+01  4.00000000E+00  0.00000000E+00
  7.66666667E+01  2.00000000E+00  0.00000000E+00
  7.66666667E+01  0.00000000E+00  0.00000000E+00
  8.00000000E+01  1.00000000E+01  0.00000000E+00
  8.00000000E+01  8.00000000E+00  0.00000000E+00
  8.00000000E+01  6.00000000E+00  0.00000000E+00
  8.00000000E+01  4.00000000E+00  0.00000000E+00
  8.00000000E+01  2.00000000E+00  0.00000000E+00
  8.00000000E+01  0.00000000E+00  0.00000000E+00
  8.33333333E+01  1.00000000E+01  0.00000000E+00
  8.33333333E+01  8.00000000E+00  0.00000000E+00
  8.33333333E+01  6.00000000E+00  0.00000000E+00
  8.33333333E+01  4.00000000E+00  0.00000000E+00
  8.33333333E+01  2.00000000E+00  0.00000000E+00
  8.33333333E+01  0.00000000E+00  0.00000000E+00
  8.66666667E+01  1.00000000E+01  0.00000000E+00
  8.66666667E+01  8.00000000E+00  0.00000000E+00
  8.66666667E+01  6.00000000E+00  0.00000000E+00
  8.66666667E+01  4.00000000E+00  0.00000000E+00
  8.66666667E+01  2.00000000E+00  0.00000000E+00
  8.66666667E+01  0.00000000E+00  0.00000000E+00
  9.00000000E+01  1.00000000E+01  0.00000000E+00
  9.00000000E+01  8.00000000E+00  0.00000000E+00
  9.00000000E+01  6.00000000E+00  0.00000000E+00
  9.00000000E+01  4.00000000E+00  0.00000000E+00
  9.00000000E+01  2.00000000E+00  0.00000000E+00
  9.00000000E+01  0.00000000E+00  0.00000000E+00
  9.33333333E+01  1.00000000E+01  0.00000000E+00
  9.33333333E+01  8.00000000E+00  0.00000000E+00
  9.33333333E+01  6.00000000E+00  0.00000000E+00
  9.33333333E+01  4.00000000E+00  0.00000000E+00
  9.33333333E+01  2.00000000E+00  0.00000000E+00
  9.33333333E+01  0.00000000E+00  0.00000000E+00
  9.66666667E+01  1.00000000E+01  0.00000000E+00
  9.66666667E+01  8.00000000E+00  0.00000000E+00
  9.66666667E+01  6.00000000E+00  0.00000000E+00
  9.66666667E+01  4.00000000E+00  0.00000000E+00
  9.66666667E+01  2.00000000E+00  0.00000000E+00
  9.66666667E+01  0.00000000E+00  0.00000000E+00
  1.00000000E+02  1.00000000E+01  0.00000000E+00
  1.00000000E+02  8.00000000E+00  0.00000000E+00
  1.00000000E+02  6.00000000E+00  0.00000000E+00
  1.00000000E+02  4.00000000E+00  0.00000000E+00
  1.00000000E+02  2.00000000E+00  0.00000000E+00
  1.00000000E+02  0.00000000E+00  0.00000000E+00
CELLS       150       750
         4           0           1           7           6
         4           1           2           8           7
         4           2           3           9           8
         4           3           4          10           9
         4           4           5          11          10
         4           6           7          13          12
         4           7           8          14          13
         4           8           9          15          14
         4           9          10          16          15
         4          10          11          17          16
         4          12          13          19          18
         4          13          14          20          19
         4          14          15          21          20
         4          15          16          22          21
         4          16          17          23          22
         4          18          19          25          24
         4          19          20          26          25
         4          20          21          27          26
         4          21          22          28          27
         4          22          23          29          28
         4          24          25          31          30
         4          25          26          32          31
         4          26          27          33          32
         4          27          28          34          33
         4          28          29          35          34
         4          30          31          37          36
         4          31          32          38          37
         4          32          33          39          38
         4          33          34          40          39
         4          34          35          41          40
         4          36          37          43          42
         4          37          38          44          43
         4          38          39          45          44
         4          39          40          46          45
         4          40          41          47          46
         4          42          43          49          48
         4          43          44          50          49
         4          44          45          51          50
         4          45          46          52          51
         4          46          47          53          52
         4          48          49          55          54
         4          49          50          56          55
         4          50          51          57          56
         4          51          52          58          57
         4          52          53          59          58
         4          54          55          61          60
         4          55          56          62          61
         4          56          57          63          62
         4          57          58          64          63
         4          58          59          65          64
         4          60          61          67          66
         4          61          62          68          67
         4          62          63          69          68
         4          63          64          70          69
         4          64          65          71          70
         4          66          67          73          72
         4          67          68          74          73
         4          68          69          75          74
         4          69          70          76          75
         4          70          71          77          76
         4          72          73          79          78
         4          73          74          80          79
         4          74          75          81          80
         4          75          76          82          81
         4          76          77          83          82
         4          78          79          85          84
         4          79          80          86          85
         4          80          81          87          86
         4          81          82          88          87
         4          82          83          89          88
         4          84          85          91          90
         4          85          86          92          91
         4          86          87          93          92
         4          87          88          94          93
         4          88          89          95          94
         4          90          91          97          96
         4          91          92          98          97
         4          92          93          99          98
         4          93          94         100          99
         4          94          95         101         100
         4          96          97         103         102
         4          97          98         104         103
         4          98          99         105         104
         4          99         100         106         105
         4         100         101         107         106
         4         102         103         109         108
         4         103         104         110         109
         4         104         105         111         110
         4         105         106         112         111
         4         106         107         113         112
         4         108         109         115         114
         4         109         110         116         115
         4         110         111         117         116
         4         111         112         118         117
         4         112         113         119         118
         4         114         115         121         120
         4         115         116         122         121
         4         116         117         123         122
         4         117         118         124         123
         4         118         119         125         124
         4         120         121         127         126
         4         121         122         128         127
         4         122         123         129         128
         4         123         124         130         129
         4         124         125         131         130
         4         126         127         133         132
         4         127         128         134         133
         4         128         129         135         134
         4         129         130         136         135
         4         130         131         137         136
         4         132         133         139         138
         4         133         134         140         139
         4         134         135         141         140
         4         135         136         142         141
         4         136         137         143         142
         4         138         139         145         144
         4         139         140         146         145
         4         140         141         147         146
         4         141         142         148         147
         4         142         143         149         148
         4         144         145         151         150
         4         145         146         152         151
         4         146         147         153         152
         4         147         148         154         153
         4         148         149         155         154
         4         150         151         157         156
         4         151         152         158         157
         4         152         153         159         158
         4         153         154         160         159
         4         154         155         161         160
         4         156         157         163         162
         4         157         158         164         163
         4         158         159         165         164
         4         159         160         166         165
         4         160         161         167         166
         4         162         163         169         168
         4         163         164         170         169
         4         164         165         171         170
         4         165         166         172         171
         4         166         167         173         172
         4         168         169         175         174
         4         169         170         176         175
         4         170         171         177         176
         4         171         172         178         177
         4         172         173         179         178
         4         174         175         181         180
         4         175         176         182         181
         4         176         177         183         182
         4         177         178         184         183
         4         178         179         185         184
CELL_TYPES        150
9
9
9
9
9
9
9
9
9
9
9
9
9
9
9
9
9
9
9
9
9
9
9
9
9
9
9
9
9
9
9
9
9
9
9
9
9
9
9
9
9
9
9
9
9
9
9
9
9
9
9
9
9
9
9
9
9
9
9
9
9
9
9
9
9
9
9
9
9
9
9
9
9
9
9
9
9
9
9
9
9
9
9
9
9
9
9
9
9
9
9
9
9
9
9
9
9
9
9
9
9
9
9
9
9
9
9
9
9
9
9
9
9
9
9
9
9
9
9
9
9
9
9
9
9
9
9
9
9
9
9
9
9
9
9
9
9
9
9
9
9
9
9
9
9
9
9
9
9
9
POINT_DATA       186
SCALARS p double 
LOOKUP_TABLE default
   261523.820243120     
   261523.820243120     
   261523.820243121     
   261523.820243120     
   261523.820243120     
   261523.820243120     
   261522.444489358     
   261522.444489358     
   261522.444489358     
   261522.444489358     
   261522.444489358     
   261522.444489358     
   261518.159016269     
   261518.159016269     
   261518.159016269     
   261518.159016269     
   261518.159016269     
   261518.159016269     
   261510.471092656     
   261510.471092656     
   261510.471092656     
   261510.471092656     
   261510.471092656     
   261510.471092656     
   261498.497113684     
   261498.497113684     
   261498.497113684     
   261498.497113684     
   261498.497113684     
   261498.497113684     
   261480.861551292     
   261480.861551292     
   261480.861551292     
   261480.861551292     
   261480.861551292     
   261480.861551292     
   261455.539666829     
   261455.539666829     
   261455.539666829     
   261455.539666829     
   261455.539666829     
   261455.539666829     
   261419.626018760     
   261419.626018760     
   261419.626018760     
   261419.626018760     
   261419.626018760     
   261419.626018760     
   261369.002320296     
   261369.002320296     
   261369.002320296     
   261369.002320296     
   261369.002320296     
   261369.002320296     
   261297.866701375     
   261297.866701375     
   261297.866701375     
   261297.866701375     
   261297.866701375     
   261297.866701375     
   261198.070592404     
   261198.070592404     
   261198.070592404     
   261198.070592404     
   261198.070592404     
   261198.070592404     
   261058.187463668     
   261058.187463668     
   261058.187463668     
   261058.187463668     
   261058.187463668     
   261058.187463668     
   260862.207012976     
   260862.207012976     
   260862.207012976     
   260862.207012976     
   260862.207012976     
   260862.207012976     
   260587.705596547     
   260587.705596547     
   260587.705596547     
   260587.705596547     
   260587.705596547     
   260587.705596547     
   260203.283864409     
   260203.283864409     
   260203.283864409     
   260203.283864409     
   260203.283864409     
   260203.283864409     
   259664.978887930     
   259664.978887930     
   259664.978887930     
   259664.978887930     
   259664.978887930     
   259664.978887930     
   258911.241095392     
   258911.241095392     
   258911.241095392     
   258911.241095392     
   258911.241095392     
   258911.241095392     
   257855.903007917     
   257855.903007917     
   257855.903007917     
   257855.903007917     
   257855.903007917     
   257855.903007917     
   256378.339372252     
   256378.339372252     
   256378.339372252     
   256378.339372252     
   256378.339372252     
   256378.339372252     
   254309.703667297     
   254309.703667297     
   254309.703667297     
   254309.703667297     
   254309.703667297     
   254309.703667297     
   251413.696672760     
   251413.696672760     
   251413.696672760     
   251413.696672760     
   251413.696672760     
   251413.696672760     
   247359.755303732     
   247359.755303732     
   247359.755303732     
   247359.755303732     
   247359.755303732     
   247359.755303732     
   241685.855979846     
   241685.855979846     
   241685.855979846     
   241685.855979846     
   241685.855979846     
   241685.855979846     
   233747.456899673     
   233747.456899673     
   233747.456899673     
   233747.456899673     
   233747.456899673     
   233747.456899673     
   222649.070537482     
   222649.070537482     
   222649.070537482     
   222649.070537482     
   222649.070537482     
   222649.070537482     
   207157.625765745     
   207157.625765746     
   207157.625765746     
   207157.625765745     
   207157.625765746     
   207157.625765745     
   185608.657342764     
   185608.657342763     
   185608.657342763     
   185608.657342763     
   185608.657342763     
   185608.657342763     
   155857.419147725     
   155857.419147725     
   155857.419147725     
   155857.419147725     
   155857.419147725     
   155857.419147725     
   115457.786526004     
   115457.786526004     
   115457.786526004     
   115457.786526004     
   115457.786526004     
   115457.786526004     
   62654.7503721534     
   62654.7503721534     
   62654.7503721535     
   62654.7503721534     
   62654.7503721535     
   62654.7503721535     
  0.000000000000000E+000
  0.000000000000000E+000
  0.000000000000000E+000
  0.000000000000000E+000
  0.000000000000000E+000
  0.000000000000000E+000
VECTORS u double 
    0.00000E+00        -0.31386E-01         0.00000E+00
    0.00000E+00        -0.25109E-01         0.00000E+00
    0.00000E+00        -0.18832E-01         0.00000E+00
    0.00000E+00        -0.12555E-01         0.00000E+00
    0.00000E+00        -0.62773E-02         0.00000E+00
    0.00000E+00         0.00000E+00         0.00000E+00
    0.10461E-01        -0.31386E-01         0.00000E+00
    0.10461E-01        -0.25109E-01         0.00000E+00
    0.10461E-01        -0.18832E-01         0.00000E+00
    0.10461E-01        -0.12555E-01         0.00000E+00
    0.10461E-01        -0.62773E-02         0.00000E+00
    0.10461E-01         0.00000E+00         0.00000E+00
    0.20922E-01        -0.31386E-01         0.00000E+00
    0.20922E-01        -0.25109E-01         0.00000E+00
    0.20922E-01        -0.18832E-01         0.00000E+00
    0.20922E-01        -0.12555E-01         0.00000E+00
    0.20922E-01        -0.62773E-02         0.00000E+00
    0.20922E-01         0.00000E+00         0.00000E+00
    0.31383E-01        -0.31386E-01         0.00000E+00
    0.31383E-01        -0.25109E-01         0.00000E+00
    0.31383E-01        -0.18832E-01         0.00000E+00
    0.31383E-01        -0.12555E-01         0.00000E+00
    0.31383E-01        -0.62773E-02         0.00000E+00
    0.31383E-01         0.00000E+00         0.00000E+00
    0.41844E-01        -0.31386E-01         0.00000E+00
    0.41844E-01        -0.25109E-01         0.00000E+00
    0.41844E-01        -0.18832E-01         0.00000E+00
    0.41844E-01        -0.12555E-01         0.00000E+00
    0.41844E-01        -0.62773E-02         0.00000E+00
    0.41844E-01         0.00000E+00         0.00000E+00
    0.52304E-01        -0.31386E-01         0.00000E+00
    0.52304E-01        -0.25109E-01         0.00000E+00
    0.52304E-01        -0.18832E-01         0.00000E+00
    0.52304E-01        -0.12555E-01         0.00000E+00
    0.52304E-01        -0.62773E-02         0.00000E+00
    0.52304E-01         0.00000E+00         0.00000E+00
    0.62764E-01        -0.31386E-01         0.00000E+00
    0.62764E-01        -0.25109E-01         0.00000E+00
    0.62764E-01        -0.18832E-01         0.00000E+00
    0.62764E-01        -0.12555E-01         0.00000E+00
    0.62764E-01        -0.62773E-02         0.00000E+00
    0.62764E-01         0.00000E+00         0.00000E+00
    0.73222E-01        -0.31386E-01         0.00000E+00
    0.73222E-01        -0.25109E-01         0.00000E+00
    0.73222E-01        -0.18832E-01         0.00000E+00
    0.73222E-01        -0.12555E-01         0.00000E+00
    0.73222E-01        -0.62773E-02         0.00000E+00
    0.73222E-01         0.00000E+00         0.00000E+00
    0.83680E-01        -0.31386E-01         0.00000E+00
    0.83680E-01        -0.25109E-01         0.00000E+00
    0.83680E-01        -0.18832E-01         0.00000E+00
    0.83680E-01        -0.12555E-01         0.00000E+00
    0.83680E-01        -0.62773E-02         0.00000E+00
    0.83680E-01         0.00000E+00         0.00000E+00
    0.94135E-01        -0.31386E-01         0.00000E+00
    0.94135E-01        -0.25109E-01         0.00000E+00
    0.94135E-01        -0.18832E-01         0.00000E+00
    0.94135E-01        -0.12555E-01         0.00000E+00
    0.94135E-01        -0.62773E-02         0.00000E+00
    0.94135E-01         0.00000E+00         0.00000E+00
    0.10459E+00        -0.31386E-01         0.00000E+00
    0.10459E+00        -0.25109E-01         0.00000E+00
    0.10459E+00        -0.18832E-01         0.00000E+00
    0.10459E+00        -0.12555E-01         0.00000E+00
    0.10459E+00        -0.62773E-02         0.00000E+00
    0.10459E+00         0.00000E+00         0.00000E+00
    0.11504E+00        -0.31386E-01         0.00000E+00
    0.11504E+00        -0.25109E-01         0.00000E+00
    0.11504E+00        -0.18832E-01         0.00000E+00
    0.11504E+00        -0.12555E-01         0.00000E+00
    0.11504E+00        -0.62773E-02         0.00000E+00
    0.11504E+00         0.00000E+00         0.00000E+00
    0.12548E+00        -0.31386E-01         0.00000E+00
    0.12548E+00        -0.25109E-01         0.00000E+00
    0.12548E+00        -0.18832E-01         0.00000E+00
    0.12548E+00        -0.12555E-01         0.00000E+00
    0.12548E+00        -0.62773E-02         0.00000E+00
    0.12548E+00         0.00000E+00         0.00000E+00
    0.13592E+00        -0.31386E-01         0.00000E+00
    0.13592E+00        -0.25109E-01         0.00000E+00
    0.13592E+00        -0.18832E-01         0.00000E+00
    0.13592E+00        -0.12555E-01         0.00000E+00
    0.13592E+00        -0.62773E-02         0.00000E+00
    0.13592E+00         0.00000E+00         0.00000E+00
    0.14635E+00        -0.31386E-01         0.00000E+00
    0.14635E+00        -0.25109E-01         0.00000E+00
    0.14635E+00        -0.18832E-01         0.00000E+00
    0.14635E+00        -0.12555E-01         0.00000E+00
    0.14635E+00        -0.62773E-02         0.00000E+00
    0.14635E+00         0.00000E+00         0.00000E+00
    0.15676E+00        -0.31386E-01         0.00000E+00
    0.15676E+00        -0.25109E-01         0.00000E+00
    0.15676E+00        -0.18832E-01         0.00000E+00
    0.15676E+00        -0.12555E-01         0.00000E+00
    0.15676E+00        -0.62773E-02         0.00000E+00
    0.15676E+00         0.00000E+00         0.00000E+00
    0.16715E+00        -0.31386E-01         0.00000E+00
    0.16715E+00        -0.25109E-01         0.00000E+00
    0.16715E+00        -0.18832E-01         0.00000E+00
    0.16715E+00        -0.12555E-01         0.00000E+00
    0.16715E+00        -0.62773E-02         0.00000E+00
    0.16715E+00         0.00000E+00         0.00000E+00
    0.17752E+00        -0.31386E-01         0.00000E+00
    0.17752E+00        -0.25109E-01         0.00000E+00
    0.17752E+00        -0.18832E-01         0.00000E+00
    0.17752E+00        -0.12555E-01         0.00000E+00
    0.17752E+00        -0.62773E-02         0.00000E+00
    0.17752E+00         0.00000E+00         0.00000E+00
    0.18785E+00        -0.31386E-01         0.00000E+00
    0.18785E+00        -0.25109E-01         0.00000E+00
    0.18785E+00        -0.18832E-01         0.00000E+00
    0.18785E+00        -0.12555E-01         0.00000E+00
    0.18785E+00        -0.62773E-02         0.00000E+00
    0.18785E+00         0.00000E+00         0.00000E+00
    0.19813E+00        -0.31386E-01         0.00000E+00
    0.19813E+00        -0.25109E-01         0.00000E+00
    0.19813E+00        -0.18832E-01         0.00000E+00
    0.19813E+00        -0.12555E-01         0.00000E+00
    0.19813E+00        -0.62773E-02         0.00000E+00
    0.19813E+00         0.00000E+00         0.00000E+00
    0.20833E+00        -0.31386E-01         0.00000E+00
    0.20833E+00        -0.25109E-01         0.00000E+00
    0.20833E+00        -0.18832E-01         0.00000E+00
    0.20833E+00        -0.12555E-01         0.00000E+00
    0.20833E+00        -0.62773E-02         0.00000E+00
    0.20833E+00         0.00000E+00         0.00000E+00
    0.21842E+00        -0.31386E-01         0.00000E+00
    0.21842E+00        -0.25109E-01         0.00000E+00
    0.21842E+00        -0.18832E-01         0.00000E+00
    0.21842E+00        -0.12555E-01         0.00000E+00
    0.21842E+00        -0.62773E-02         0.00000E+00
    0.21842E+00         0.00000E+00         0.00000E+00
    0.22838E+00        -0.31386E-01         0.00000E+00
    0.22838E+00        -0.25109E-01         0.00000E+00
    0.22838E+00        -0.18832E-01         0.00000E+00
    0.22838E+00        -0.12555E-01         0.00000E+00
    0.22838E+00        -0.62773E-02         0.00000E+00
    0.22838E+00         0.00000E+00         0.00000E+00
    0.23812E+00        -0.31386E-01         0.00000E+00
    0.23812E+00        -0.25109E-01         0.00000E+00
    0.23812E+00        -0.18832E-01         0.00000E+00
    0.23812E+00        -0.12555E-01         0.00000E+00
    0.23812E+00        -0.62773E-02         0.00000E+00
    0.23812E+00         0.00000E+00         0.00000E+00
    0.24758E+00        -0.31386E-01         0.00000E+00
    0.24758E+00        -0.25109E-01         0.00000E+00
    0.24758E+00        -0.18832E-01         0.00000E+00
    0.24758E+00        -0.12555E-01         0.00000E+00
    0.24758E+00        -0.62773E-02         0.00000E+00
    0.24758E+00         0.00000E+00         0.00000E+00
    0.25665E+00        -0.31386E-01         0.00000E+00
    0.25665E+00        -0.25109E-01         0.00000E+00
    0.25665E+00        -0.18832E-01         0.00000E+00
    0.25665E+00        -0.12555E-01         0.00000E+00
    0.25665E+00        -0.62773E-02         0.00000E+00
    0.25665E+00         0.00000E+00         0.00000E+00
    0.26515E+00        -0.31386E-01         0.00000E+00
    0.26515E+00        -0.25109E-01         0.00000E+00
    0.26515E+00        -0.18832E-01         0.00000E+00
    0.26515E+00        -0.12555E-01         0.00000E+00
    0.26515E+00        -0.62773E-02         0.00000E+00
    0.26515E+00         0.00000E+00         0.00000E+00
    0.27289E+00        -0.31386E-01         0.00000E+00
    0.27289E+00        -0.25109E-01         0.00000E+00
    0.27289E+00        -0.18832E-01         0.00000E+00
    0.27289E+00        -0.12555E-01         0.00000E+00
    0.27289E+00        -0.62773E-02         0.00000E+00
    0.27289E+00         0.00000E+00         0.00000E+00
    0.27958E+00        -0.31386E-01         0.00000E+00
    0.27958E+00        -0.25109E-01         0.00000E+00
    0.27958E+00        -0.18832E-01         0.00000E+00
    0.27958E+00        -0.12555E-01         0.00000E+00
    0.27958E+00        -0.62773E-02         0.00000E+00
    0.27958E+00         0.00000E+00         0.00000E+00
    0.28486E+00        -0.31386E-01         0.00000E+00
    0.28486E+00        -0.25109E-01         0.00000E+00
    0.28486E+00        -0.18832E-01         0.00000E+00
    0.28486E+00        -0.12555E-01         0.00000E+00
    0.28486E+00        -0.62773E-02         0.00000E+00
    0.28486E+00         0.00000E+00         0.00000E+00
    0.28842E+00        -0.31386E-01         0.00000E+00
    0.28842E+00        -0.25109E-01         0.00000E+00
    0.28842E+00        -0.18832E-01         0.00000E+00
    0.28842E+00        -0.12555E-01         0.00000E+00
    0.28842E+00        -0.62773E-02         0.00000E+00
    0.28842E+00         0.00000E+00         0.00000E+00
CELL_DATA        150
VECTORS vDarcy double 
    0.41273E-10         0.16371E-20         0.00000E+00
    0.41273E-10         0.16371E-20         0.00000E+00
    0.41273E-10        -0.18190E-20         0.00000E+00
    0.41273E-10        -0.25466E-20         0.00000E+00
    0.41273E-10        -0.90949E-21         0.00000E+00
    0.12856E-09        -0.20009E-20         0.00000E+00
    0.12856E-09         0.20009E-20         0.00000E+00
    0.12856E-09        -0.49113E-20         0.00000E+00
    0.12856E-09         0.36380E-21         0.00000E+00
    0.12856E-09         0.20009E-20         0.00000E+00
    0.23064E-09        -0.29104E-20         0.00000E+00
    0.23064E-09         0.36380E-21         0.00000E+00
    0.23064E-09        -0.72760E-21         0.00000E+00
    0.23064E-09         0.21828E-20         0.00000E+00
    0.23064E-09         0.10914E-20         0.00000E+00
    0.35922E-09        -0.90949E-21         0.00000E+00
    0.35922E-09        -0.16371E-20         0.00000E+00
    0.35922E-09         0.36380E-21         0.00000E+00
    0.35922E-09        -0.90949E-21         0.00000E+00
    0.35922E-09        -0.14552E-20         0.00000E+00
    0.52907E-09        -0.25466E-20         0.00000E+00
    0.52907E-09        -0.16371E-20         0.00000E+00
    0.52907E-09        -0.54570E-21         0.00000E+00
    0.52907E-09        -0.10914E-20         0.00000E+00
    0.52907E-09         0.12733E-20         0.00000E+00
    0.75966E-09        -0.21828E-20         0.00000E+00
    0.75966E-09         0.18190E-20         0.00000E+00
    0.75966E-09         0.27285E-20         0.00000E+00
    0.75966E-09        -0.10914E-20         0.00000E+00
    0.75966E-09         0.18190E-20         0.00000E+00
    0.10774E-08         0.00000E+00         0.00000E+00
    0.10774E-08         0.14552E-20         0.00000E+00
    0.10774E-08         0.47294E-20         0.00000E+00
    0.10774E-08         0.18190E-21         0.00000E+00
    0.10774E-08         0.25466E-20         0.00000E+00
    0.15187E-08         0.00000E+00         0.00000E+00
    0.15187E-08        -0.36380E-21         0.00000E+00
    0.15187E-08         0.32742E-20         0.00000E+00
    0.15187E-08         0.72760E-21         0.00000E+00
    0.15187E-08         0.14552E-20         0.00000E+00
    0.21341E-08         0.12733E-20         0.00000E+00
    0.21341E-08         0.36380E-21         0.00000E+00
    0.21341E-08         0.81855E-21         0.00000E+00
    0.21341E-08        -0.14552E-20         0.00000E+00
    0.21341E-08        -0.90949E-21         0.00000E+00
    0.29939E-08         0.18190E-21         0.00000E+00
    0.29939E-08         0.14552E-20         0.00000E+00
    0.29939E-08         0.36380E-21         0.00000E+00
    0.29939E-08        -0.54570E-21         0.00000E+00
    0.29939E-08        -0.21828E-20         0.00000E+00
    0.41965E-08         0.90949E-21         0.00000E+00
    0.41965E-08         0.23647E-20         0.00000E+00
    0.41965E-08        -0.18190E-20         0.00000E+00
    0.41965E-08        -0.12733E-20         0.00000E+00
    0.41965E-08        -0.36380E-21         0.00000E+00
    0.58794E-08         0.14552E-20         0.00000E+00
    0.58794E-08        -0.16371E-20         0.00000E+00
    0.58794E-08        -0.21828E-20         0.00000E+00
    0.58794E-08        -0.72760E-21         0.00000E+00
    0.58794E-08         0.90949E-21         0.00000E+00
    0.82350E-08         0.18190E-21         0.00000E+00
    0.82350E-08        -0.54570E-21         0.00000E+00
    0.82350E-08        -0.90949E-21         0.00000E+00
    0.82350E-08         0.00000E+00         0.00000E+00
    0.82350E-08         0.54570E-21         0.00000E+00
    0.11533E-07        -0.18190E-20         0.00000E+00
    0.11533E-07         0.32742E-20         0.00000E+00
    0.11533E-07        -0.54570E-21         0.00000E+00
    0.11533E-07         0.18190E-20         0.00000E+00
    0.11533E-07         0.90949E-22         0.00000E+00
    0.16149E-07        -0.12733E-20         0.00000E+00
    0.16149E-07         0.36380E-20         0.00000E+00
    0.16149E-07        -0.10914E-20         0.00000E+00
    0.16149E-07         0.16371E-20         0.00000E+00
    0.16149E-07         0.18190E-20         0.00000E+00
    0.22612E-07        -0.18190E-21         0.00000E+00
    0.22612E-07         0.54570E-21         0.00000E+00
    0.22612E-07        -0.24556E-20         0.00000E+00
    0.22612E-07         0.24556E-20         0.00000E+00
    0.22612E-07         0.20009E-20         0.00000E+00
    0.31660E-07         0.00000E+00         0.00000E+00
    0.31660E-07        -0.18190E-21         0.00000E+00
    0.31660E-07        -0.54570E-21         0.00000E+00
    0.31660E-07         0.21828E-20         0.00000E+00
    0.31660E-07         0.18190E-20         0.00000E+00
    0.44327E-07         0.18190E-21         0.00000E+00
    0.44327E-07        -0.20009E-20         0.00000E+00
    0.44327E-07         0.10914E-20         0.00000E+00
    0.44327E-07         0.23647E-20         0.00000E+00
    0.44327E-07         0.14552E-20         0.00000E+00
    0.62059E-07        -0.18190E-21         0.00000E+00
    0.62059E-07        -0.20009E-20         0.00000E+00
    0.62059E-07         0.27285E-20         0.00000E+00
    0.62059E-07        -0.11823E-20         0.00000E+00
    0.62059E-07         0.27285E-20         0.00000E+00
    0.86880E-07        -0.90949E-21         0.00000E+00
    0.86880E-07        -0.14552E-20         0.00000E+00
    0.86880E-07         0.21828E-20         0.00000E+00
    0.86880E-07         0.45475E-21         0.00000E+00
    0.86880E-07         0.10914E-20         0.00000E+00
    0.12162E-06        -0.72760E-21         0.00000E+00
    0.12162E-06        -0.32742E-20         0.00000E+00
    0.12162E-06        -0.63665E-21         0.00000E+00
    0.12162E-06         0.20009E-20         0.00000E+00
    0.12162E-06        -0.35470E-20         0.00000E+00
    0.17022E-06        -0.90949E-21         0.00000E+00
    0.17022E-06        -0.36380E-21         0.00000E+00
    0.17022E-06        -0.19099E-20         0.00000E+00
    0.17022E-06         0.81855E-21         0.00000E+00
    0.17022E-06        -0.10914E-20         0.00000E+00
    0.23815E-06        -0.16371E-20         0.00000E+00
    0.23815E-06        -0.36380E-21         0.00000E+00
    0.23815E-06        -0.72760E-21         0.00000E+00
    0.23815E-06         0.72760E-21         0.00000E+00
    0.23815E-06        -0.54570E-21         0.00000E+00
    0.33295E-06        -0.72760E-21         0.00000E+00
    0.33295E-06         0.10914E-20         0.00000E+00
    0.33295E-06        -0.90949E-21         0.00000E+00
    0.33295E-06         0.00000E+00         0.00000E+00
    0.33295E-06        -0.27285E-20         0.00000E+00
    0.46474E-06        -0.36380E-21         0.00000E+00
    0.46474E-06         0.21828E-20         0.00000E+00
    0.46474E-06         0.45475E-21         0.00000E+00
    0.46474E-06         0.23647E-20         0.00000E+00
    0.46474E-06        -0.33651E-20         0.00000E+00
    0.64647E-06        -0.18190E-21         0.00000E+00
    0.64647E-06         0.90949E-21         0.00000E+00
    0.64647E-06         0.10914E-20         0.00000E+00
    0.64647E-06         0.36380E-21         0.00000E+00
    0.64647E-06        -0.18190E-20         0.00000E+00
    0.89254E-06         0.31832E-20         0.00000E+00
    0.89254E-06         0.40018E-20         0.00000E+00
    0.89254E-06        -0.23647E-20         0.00000E+00
    0.89254E-06        -0.18190E-20         0.00000E+00
    0.89254E-06        -0.63665E-21         0.00000E+00
    0.12120E-05         0.35016E-20         0.00000E+00
    0.12120E-05         0.29104E-20         0.00000E+00
    0.12120E-05        -0.81855E-21         0.00000E+00
    0.12120E-05        -0.13642E-20         0.00000E+00
    0.12120E-05         0.45475E-22         0.00000E+00
    0.15841E-05         0.90949E-22         0.00000E+00
    0.15841E-05         0.18190E-20         0.00000E+00
    0.15841E-05        -0.13642E-21         0.00000E+00
    0.15841E-05         0.81855E-21         0.00000E+00
    0.15841E-05         0.54570E-21         0.00000E+00
    0.18796E-05         0.70941E-20         0.00000E+00
    0.18796E-05        -0.65484E-20         0.00000E+00
    0.18796E-05         0.67303E-20         0.00000E+00
    0.18796E-05        -0.61846E-20         0.00000E+00
    0.18796E-05         0.00000E+00         0.00000E+00
POINT_DATA        186
VECTORS vDarcyNodal double 
    0.41273E-10         0.14552E-20         0.00000E+00
    0.41273E-10         0.21828E-20         0.00000E+00
    0.41273E-10         0.72760E-21         0.00000E+00
    0.41273E-10        -0.14552E-20         0.00000E+00
    0.41273E-10        -0.72760E-21         0.00000E+00
    0.41273E-10         0.00000E+00         0.00000E+00
    0.84918E-10         0.14552E-20         0.00000E+00
    0.84918E-10         0.43552E-21         0.00000E+00
    0.84918E-10        -0.72760E-21         0.00000E+00
    0.84918E-10        -0.18907E-20         0.00000E+00
    0.84918E-10        -0.29104E-20         0.00000E+00
    0.84918E-10        -0.29104E-20         0.00000E+00
    0.17960E-09        -0.58208E-20         0.00000E+00
    0.17960E-09        -0.13118E-20         0.00000E+00
    0.17960E-09        -0.14552E-20         0.00000E+00
    0.17960E-09        -0.87100E-21         0.00000E+00
    0.17960E-09         0.43656E-20         0.00000E+00
    0.17960E-09         0.43656E-20         0.00000E+00
    0.29493E-09         0.00000E+00         0.00000E+00
    0.29493E-09         0.00000E+00         0.00000E+00
    0.29493E-09         0.14552E-20         0.00000E+00
    0.29493E-09         0.14552E-20         0.00000E+00
    0.29493E-09        -0.14552E-20         0.00000E+00
    0.29493E-09        -0.29104E-20         0.00000E+00
    0.44414E-09        -0.29104E-20         0.00000E+00
    0.44414E-09        -0.26238E-20         0.00000E+00
    0.44414E-09        -0.21828E-20         0.00000E+00
    0.44414E-09        -0.24694E-20         0.00000E+00
    0.44414E-09        -0.72760E-21         0.00000E+00
    0.44414E-09         0.14552E-20         0.00000E+00
    0.64436E-09        -0.29104E-20         0.00000E+00
    0.64436E-09        -0.14552E-20         0.00000E+00
    0.64436E-09         0.00000E+00         0.00000E+00
    0.64436E-09        -0.15469E-21         0.00000E+00
    0.64436E-09         0.72760E-21         0.00000E+00
    0.64436E-09         0.17646E-20         0.00000E+00
    0.91853E-09         0.00000E+00         0.00000E+00
    0.91853E-09         0.21828E-20         0.00000E+00
    0.91853E-09         0.43656E-20         0.00000E+00
    0.91853E-09         0.14552E-20         0.00000E+00
    0.91853E-09         0.00000E+00         0.00000E+00
    0.91853E-09         0.14552E-20         0.00000E+00
    0.12981E-08         0.00000E+00         0.00000E+00
    0.12981E-08         0.00000E+00         0.00000E+00
    0.12981E-08         0.14552E-20         0.00000E+00
    0.12981E-08         0.29104E-20         0.00000E+00
    0.12981E-08         0.29104E-20         0.00000E+00
    0.12981E-08         0.29104E-20         0.00000E+00
    0.18264E-08         0.00000E+00         0.00000E+00
    0.18264E-08        -0.15679E-21         0.00000E+00
    0.18264E-08         0.14552E-20         0.00000E+00
    0.18264E-08         0.16120E-20         0.00000E+00
    0.18264E-08         0.00000E+00         0.00000E+00
    0.18264E-08         0.00000E+00         0.00000E+00
    0.25640E-08         0.17714E-20         0.00000E+00
    0.25640E-08         0.72760E-21         0.00000E+00
    0.25640E-08         0.00000E+00         0.00000E+00
    0.25640E-08        -0.14552E-20         0.00000E+00
    0.25640E-08        -0.23409E-20         0.00000E+00
    0.25640E-08        -0.14552E-20         0.00000E+00
    0.35952E-08        -0.14552E-20         0.00000E+00
    0.35952E-08         0.72760E-21         0.00000E+00
    0.35952E-08         0.14552E-20         0.00000E+00
    0.35952E-08        -0.31997E-21         0.00000E+00
    0.35952E-08        -0.72760E-21         0.00000E+00
    0.35952E-08        -0.81525E-21         0.00000E+00
    0.50380E-08         0.29104E-20         0.00000E+00
    0.50380E-08         0.21828E-20         0.00000E+00
    0.50380E-08        -0.14552E-20         0.00000E+00
    0.50380E-08        -0.29104E-20         0.00000E+00
    0.50380E-08        -0.72760E-21         0.00000E+00
    0.50380E-08         0.00000E+00         0.00000E+00
    0.70572E-08         0.00000E+00         0.00000E+00
    0.70572E-08        -0.14552E-20         0.00000E+00
    0.70572E-08        -0.14552E-20         0.00000E+00
    0.70572E-08         0.00000E+00         0.00000E+00
    0.70572E-08         0.72760E-21         0.00000E+00
    0.70572E-08         0.14552E-20         0.00000E+00
    0.98838E-08        -0.76969E-21         0.00000E+00
    0.98838E-08         0.17979E-20         0.00000E+00
    0.98838E-08         0.00000E+00         0.00000E+00
    0.98838E-08        -0.14552E-20         0.00000E+00
    0.98838E-08        -0.34275E-21         0.00000E+00
    0.98838E-08         0.76969E-21         0.00000E+00
    0.13841E-07        -0.29104E-20         0.00000E+00
    0.13841E-07         0.72760E-21         0.00000E+00
    0.13841E-07         0.29104E-20         0.00000E+00
    0.13841E-07         0.21828E-20         0.00000E+00
    0.13841E-07         0.14552E-20         0.00000E+00
    0.13841E-07         0.00000E+00         0.00000E+00
    0.19381E-07        -0.70084E-21         0.00000E+00
    0.19381E-07         0.72760E-21         0.00000E+00
    0.19381E-07        -0.72760E-21         0.00000E+00
    0.19381E-07        -0.72760E-21         0.00000E+00
    0.19381E-07         0.25332E-20         0.00000E+00
    0.19381E-07         0.29104E-20         0.00000E+00
    0.27136E-07        -0.14552E-20         0.00000E+00
    0.27136E-07        -0.11329E-20         0.00000E+00
    0.27136E-07        -0.72760E-21         0.00000E+00
    0.27136E-07         0.11329E-20         0.00000E+00
    0.27136E-07         0.72760E-21         0.00000E+00
    0.27136E-07        -0.14552E-20         0.00000E+00
    0.37994E-07         0.00000E+00         0.00000E+00
    0.37994E-07        -0.72760E-21         0.00000E+00
    0.37994E-07         0.00000E+00         0.00000E+00
    0.37994E-07         0.72760E-21         0.00000E+00
    0.37994E-07         0.14552E-20         0.00000E+00
    0.37994E-07         0.29104E-20         0.00000E+00
    0.53193E-07        -0.45562E-21         0.00000E+00
    0.53193E-07        -0.14552E-20         0.00000E+00
    0.53193E-07        -0.72760E-21         0.00000E+00
    0.53193E-07         0.29104E-20         0.00000E+00
    0.53193E-07         0.24106E-20         0.00000E+00
    0.53193E-07         0.00000E+00         0.00000E+00
    0.74470E-07         0.00000E+00         0.00000E+00
    0.74470E-07        -0.57695E-21         0.00000E+00
    0.74470E-07         0.16058E-20         0.00000E+00
    0.74470E-07        -0.16058E-20         0.00000E+00
    0.74470E-07         0.57695E-21         0.00000E+00
    0.74470E-07         0.58208E-20         0.00000E+00
    0.10425E-06        -0.29104E-20         0.00000E+00
    0.10425E-06        -0.29104E-20         0.00000E+00
    0.10425E-06        -0.14552E-20         0.00000E+00
    0.10425E-06         0.22680E-20         0.00000E+00
    0.10425E-06         0.72760E-21         0.00000E+00
    0.10425E-06        -0.59913E-20         0.00000E+00
    0.14592E-06         0.00000E+00         0.00000E+00
    0.14592E-06        -0.14552E-20         0.00000E+00
    0.14592E-06        -0.23295E-20         0.00000E+00
    0.14592E-06        -0.14552E-20         0.00000E+00
    0.14592E-06        -0.13085E-20         0.00000E+00
    0.14592E-06        -0.14552E-20         0.00000E+00
    0.20418E-06        -0.14552E-20         0.00000E+00
    0.20418E-06         0.72760E-21         0.00000E+00
    0.20418E-06         0.00000E+00         0.00000E+00
    0.20418E-06         0.00000E+00         0.00000E+00
    0.20418E-06         0.00000E+00         0.00000E+00
    0.20418E-06        -0.29104E-20         0.00000E+00
    0.28555E-06        -0.14552E-20         0.00000E+00
    0.28555E-06        -0.21828E-20         0.00000E+00
    0.28555E-06        -0.14552E-20         0.00000E+00
    0.28555E-06         0.00000E+00         0.00000E+00
    0.28555E-06         0.72760E-21         0.00000E+00
    0.28555E-06         0.14552E-20         0.00000E+00
    0.39885E-06         0.00000E+00         0.00000E+00
    0.39885E-06         0.21828E-20         0.00000E+00
    0.39885E-06         0.14552E-20         0.00000E+00
    0.39885E-06        -0.72760E-21         0.00000E+00
    0.39885E-06        -0.21828E-20         0.00000E+00
    0.39885E-06        -0.43656E-20         0.00000E+00
    0.55561E-06        -0.13178E-20         0.00000E+00
    0.55561E-06        -0.65892E-21         0.00000E+00
    0.55561E-06         0.65892E-21         0.00000E+00
    0.55561E-06         0.29104E-20         0.00000E+00
    0.55561E-06         0.72760E-21         0.00000E+00
    0.55561E-06        -0.30477E-20         0.00000E+00
    0.76950E-06         0.85079E-21         0.00000E+00
    0.76950E-06         0.11530E-20         0.00000E+00
    0.76950E-06         0.72760E-21         0.00000E+00
    0.76950E-06        -0.21828E-20         0.00000E+00
    0.76950E-06        -0.18806E-20         0.00000E+00
    0.76950E-06         0.60440E-21         0.00000E+00
    0.10523E-05         0.22463E-20         0.00000E+00
    0.10523E-05         0.47611E-20         0.00000E+00
    0.10523E-05         0.72760E-21         0.00000E+00
    0.10523E-05        -0.21828E-20         0.00000E+00
    0.10523E-05        -0.39553E-21         0.00000E+00
    0.10523E-05         0.66412E-21         0.00000E+00
    0.13980E-05         0.29104E-20         0.00000E+00
    0.13980E-05         0.14552E-20         0.00000E+00
    0.13980E-05         0.14552E-20         0.00000E+00
    0.13980E-05         0.00000E+00         0.00000E+00
    0.13980E-05        -0.72760E-21         0.00000E+00
    0.13980E-05         0.14552E-20         0.00000E+00
    0.17319E-05        -0.25466E-20         0.00000E+00
    0.17319E-05         0.54570E-21         0.00000E+00
    0.17319E-05         0.18190E-21         0.00000E+00
    0.17319E-05         0.54570E-21         0.00000E+00
    0.17319E-05         0.21828E-20         0.00000E+00
    0.17319E-05         0.00000E+00         0.00000E+00
    0.18796E-05         0.13356E-19         0.00000E+00
    0.18796E-05         0.15046E-35         0.00000E+00
    0.18796E-05         0.15046E-35         0.00000E+00
    0.18796E-05        -0.75232E-36         0.00000E+00
    0.18796E-05        -0.66778E-20         0.00000E+00
    0.18796E-05         0.00000E+00         0.00000E+00
CELL_DATA        150
TENSORS stressef double 
    0.26152E+06         0.13553E-10         0.00000E+00
    0.13553E-10        -0.26156E+06         0.00000E+00
    0.00000E+00         0.00000E+00        -0.75491E+01
 
    0.26152E+06         0.13553E-10         0.00000E+00
    0.13553E-10        -0.26156E+06         0.00000E+00
    0.00000E+00         0.00000E+00        -0.75491E+01
 
    0.26152E+06        -0.40658E-10         0.00000E+00
   -0.40658E-10        -0.26156E+06         0.00000E+00
    0.00000E+00         0.00000E+00        -0.75491E+01
 
    0.26152E+06        -0.25976E-10         0.00000E+00
   -0.25976E-10        -0.26156E+06         0.00000E+00
    0.00000E+00         0.00000E+00        -0.75491E+01
 
    0.26152E+06         0.10164E-10         0.00000E+00
    0.10164E-10        -0.26156E+06         0.00000E+00
    0.00000E+00         0.00000E+00        -0.75491E+01
 
    0.26152E+06         0.45175E-11         0.00000E+00
    0.45175E-11        -0.26156E+06         0.00000E+00
    0.00000E+00         0.00000E+00        -0.82567E+01
 
    0.26152E+06        -0.56469E-10         0.00000E+00
   -0.56469E-10        -0.26156E+06         0.00000E+00
    0.00000E+00         0.00000E+00        -0.82567E+01
 
    0.26152E+06        -0.49693E-10         0.00000E+00
   -0.49693E-10        -0.26156E+06         0.00000E+00
    0.00000E+00         0.00000E+00        -0.82567E+01
 
    0.26152E+06         0.13553E-10         0.00000E+00
    0.13553E-10        -0.26156E+06         0.00000E+00
    0.00000E+00         0.00000E+00        -0.82567E+01
 
    0.26152E+06        -0.18070E-10         0.00000E+00
   -0.18070E-10        -0.26156E+06         0.00000E+00
    0.00000E+00         0.00000E+00        -0.82567E+01
 
    0.26151E+06         0.67763E-10         0.00000E+00
    0.67763E-10        -0.26156E+06         0.00000E+00
    0.00000E+00         0.00000E+00        -0.97534E+01
 
    0.26151E+06        -0.90350E-10         0.00000E+00
   -0.90350E-10        -0.26156E+06         0.00000E+00
    0.00000E+00         0.00000E+00        -0.97534E+01
 
    0.26151E+06        -0.36140E-10         0.00000E+00
   -0.36140E-10        -0.26156E+06         0.00000E+00
    0.00000E+00         0.00000E+00        -0.97534E+01
 
    0.26151E+06         0.11746E-09         0.00000E+00
    0.11746E-09        -0.26156E+06         0.00000E+00
    0.00000E+00         0.00000E+00        -0.97534E+01
 
    0.26151E+06        -0.12649E-09         0.00000E+00
   -0.12649E-09        -0.26156E+06         0.00000E+00
    0.00000E+00         0.00000E+00        -0.97534E+01
 
    0.26150E+06         0.18070E-10         0.00000E+00
    0.18070E-10        -0.26157E+06         0.00000E+00
    0.00000E+00         0.00000E+00        -0.12211E+02
 
    0.26150E+06        -0.18974E-09         0.00000E+00
   -0.18974E-09        -0.26157E+06         0.00000E+00
    0.00000E+00         0.00000E+00        -0.12211E+02
 
    0.26150E+06        -0.49693E-10         0.00000E+00
   -0.49693E-10        -0.26157E+06         0.00000E+00
    0.00000E+00         0.00000E+00        -0.12211E+02
 
    0.26150E+06         0.49693E-10         0.00000E+00
    0.49693E-10        -0.26157E+06         0.00000E+00
    0.00000E+00         0.00000E+00        -0.12211E+02
 
    0.26150E+06        -0.90350E-11         0.00000E+00
   -0.90350E-11        -0.26157E+06         0.00000E+00
    0.00000E+00         0.00000E+00        -0.12211E+02
 
    0.26149E+06        -0.99385E-10         0.00000E+00
   -0.99385E-10        -0.26157E+06         0.00000E+00
    0.00000E+00         0.00000E+00        -0.15912E+02
 
    0.26149E+06         0.27105E-10         0.00000E+00
    0.27105E-10        -0.26157E+06         0.00000E+00
    0.00000E+00         0.00000E+00        -0.15912E+02
 
    0.26149E+06         0.90350E-11         0.00000E+00
    0.90350E-11        -0.26157E+06         0.00000E+00
    0.00000E+00         0.00000E+00        -0.15912E+02
 
    0.26149E+06         0.58728E-10         0.00000E+00
    0.58728E-10        -0.26157E+06         0.00000E+00
    0.00000E+00         0.00000E+00        -0.15912E+02
 
    0.26149E+06        -0.90350E-11         0.00000E+00
   -0.90350E-11        -0.26157E+06         0.00000E+00
    0.00000E+00         0.00000E+00        -0.15912E+02
 
    0.26147E+06        -0.12649E-09         0.00000E+00
   -0.12649E-09        -0.26157E+06         0.00000E+00
    0.00000E+00         0.00000E+00        -0.21282E+02
 
    0.26147E+06         0.90350E-10         0.00000E+00
    0.90350E-10        -0.26157E+06         0.00000E+00
    0.00000E+00         0.00000E+00        -0.21282E+02
 
    0.26147E+06         0.00000E+00         0.00000E+00
    0.00000E+00        -0.26157E+06         0.00000E+00
    0.00000E+00         0.00000E+00        -0.21282E+02
 
    0.26147E+06         0.49693E-10         0.00000E+00
    0.49693E-10        -0.26157E+06         0.00000E+00
    0.00000E+00         0.00000E+00        -0.21282E+02
 
    0.26147E+06         0.27105E-10         0.00000E+00
    0.27105E-10        -0.26157E+06         0.00000E+00
    0.00000E+00         0.00000E+00        -0.21282E+02
 
    0.26144E+06        -0.10842E-09         0.00000E+00
   -0.10842E-09        -0.26158E+06         0.00000E+00
    0.00000E+00         0.00000E+00        -0.28936E+02
 
    0.26144E+06         0.11746E-09         0.00000E+00
    0.11746E-09        -0.26158E+06         0.00000E+00
    0.00000E+00         0.00000E+00        -0.28936E+02
 
    0.26144E+06         0.00000E+00         0.00000E+00
    0.00000E+00        -0.26158E+06         0.00000E+00
    0.00000E+00         0.00000E+00        -0.28936E+02
 
    0.26144E+06        -0.27105E-10         0.00000E+00
   -0.27105E-10        -0.26158E+06         0.00000E+00
    0.00000E+00         0.00000E+00        -0.28936E+02
 
    0.26144E+06         0.00000E+00         0.00000E+00
    0.00000E+00        -0.26158E+06         0.00000E+00
    0.00000E+00         0.00000E+00        -0.28936E+02
 
    0.26139E+06        -0.45175E-10         0.00000E+00
   -0.45175E-10        -0.26159E+06         0.00000E+00
    0.00000E+00         0.00000E+00        -0.39754E+02
 
    0.26139E+06        -0.45175E-10         0.00000E+00
   -0.45175E-10        -0.26159E+06         0.00000E+00
    0.00000E+00         0.00000E+00        -0.39754E+02
 
    0.26139E+06        -0.27105E-10         0.00000E+00
   -0.27105E-10        -0.26159E+06         0.00000E+00
    0.00000E+00         0.00000E+00        -0.39754E+02
 
    0.26139E+06        -0.27105E-10         0.00000E+00
   -0.27105E-10        -0.26159E+06         0.00000E+00
    0.00000E+00         0.00000E+00        -0.39754E+02
 
    0.26139E+06         0.90350E-11         0.00000E+00
    0.90350E-11        -0.26159E+06         0.00000E+00
    0.00000E+00         0.00000E+00        -0.39754E+02
 
    0.26133E+06         0.45175E-10         0.00000E+00
    0.45175E-10        -0.26161E+06         0.00000E+00
    0.00000E+00         0.00000E+00        -0.54974E+02
 
    0.26133E+06        -0.13553E-09         0.00000E+00
   -0.13553E-09        -0.26161E+06         0.00000E+00
    0.00000E+00         0.00000E+00        -0.54974E+02
 
    0.26133E+06         0.54210E-10         0.00000E+00
    0.54210E-10        -0.26161E+06         0.00000E+00
    0.00000E+00         0.00000E+00        -0.54974E+02
 
    0.26133E+06        -0.90350E-10         0.00000E+00
   -0.90350E-10        -0.26161E+06         0.00000E+00
    0.00000E+00         0.00000E+00        -0.54974E+02
 
    0.26133E+06         0.18070E-10         0.00000E+00
    0.18070E-10        -0.26161E+06         0.00000E+00
    0.00000E+00         0.00000E+00        -0.54974E+02
 
    0.26125E+06        -0.36140E-10         0.00000E+00
   -0.36140E-10        -0.26163E+06         0.00000E+00
    0.00000E+00         0.00000E+00        -0.76340E+02
 
    0.26125E+06        -0.15360E-09         0.00000E+00
   -0.15360E-09        -0.26163E+06         0.00000E+00
    0.00000E+00         0.00000E+00        -0.76340E+02
 
    0.26125E+06         0.14456E-09         0.00000E+00
    0.14456E-09        -0.26163E+06         0.00000E+00
    0.00000E+00         0.00000E+00        -0.76340E+02
 
    0.26125E+06        -0.36140E-10         0.00000E+00
   -0.36140E-10        -0.26163E+06         0.00000E+00
    0.00000E+00         0.00000E+00        -0.76340E+02
 
    0.26125E+06        -0.54210E-10         0.00000E+00
   -0.54210E-10        -0.26163E+06         0.00000E+00
    0.00000E+00         0.00000E+00        -0.76340E+02
 
    0.26113E+06        -0.90350E-11         0.00000E+00
   -0.90350E-11        -0.26166E+06         0.00000E+00
    0.00000E+00         0.00000E+00        -0.10630E+03
 
    0.26113E+06         0.27105E-10         0.00000E+00
    0.27105E-10        -0.26166E+06         0.00000E+00
    0.00000E+00         0.00000E+00        -0.10630E+03
 
    0.26113E+06        -0.27105E-10         0.00000E+00
   -0.27105E-10        -0.26166E+06         0.00000E+00
    0.00000E+00         0.00000E+00        -0.10630E+03
 
    0.26113E+06         0.90350E-10         0.00000E+00
    0.90350E-10        -0.26166E+06         0.00000E+00
    0.00000E+00         0.00000E+00        -0.10630E+03
 
    0.26113E+06        -0.36140E-10         0.00000E+00
   -0.36140E-10        -0.26166E+06         0.00000E+00
    0.00000E+00         0.00000E+00        -0.10630E+03
 
    0.26096E+06        -0.16263E-09         0.00000E+00
   -0.16263E-09        -0.26170E+06         0.00000E+00
    0.00000E+00         0.00000E+00        -0.14828E+03
 
    0.26096E+06        -0.15360E-09         0.00000E+00
   -0.15360E-09        -0.26170E+06         0.00000E+00
    0.00000E+00         0.00000E+00        -0.14828E+03
 
    0.26096E+06        -0.90350E-10         0.00000E+00
   -0.90350E-10        -0.26170E+06         0.00000E+00
    0.00000E+00         0.00000E+00        -0.14828E+03
 
    0.26096E+06         0.18070E-10         0.00000E+00
    0.18070E-10        -0.26170E+06         0.00000E+00
    0.00000E+00         0.00000E+00        -0.14828E+03
 
    0.26096E+06         0.18070E-10         0.00000E+00
    0.18070E-10        -0.26170E+06         0.00000E+00
    0.00000E+00         0.00000E+00        -0.14828E+03
 
    0.26072E+06        -0.15360E-09         0.00000E+00
   -0.15360E-09        -0.26176E+06         0.00000E+00
    0.00000E+00         0.00000E+00        -0.20709E+03
 
    0.26072E+06         0.18070E-09         0.00000E+00
    0.18070E-09        -0.26176E+06         0.00000E+00
    0.00000E+00         0.00000E+00        -0.20709E+03
 
    0.26072E+06         0.25298E-09         0.00000E+00
    0.25298E-09        -0.26176E+06         0.00000E+00
    0.00000E+00         0.00000E+00        -0.20709E+03
 
    0.26072E+06         0.00000E+00         0.00000E+00
    0.00000E+00        -0.26176E+06         0.00000E+00
    0.00000E+00         0.00000E+00        -0.20709E+03
 
    0.26072E+06         0.18070E-10         0.00000E+00
    0.18070E-10        -0.26176E+06         0.00000E+00
    0.00000E+00         0.00000E+00        -0.20709E+03
 
    0.26040E+06         0.18070E-10         0.00000E+00
    0.18070E-10        -0.26184E+06         0.00000E+00
    0.00000E+00         0.00000E+00        -0.28946E+03
 
    0.26040E+06         0.18070E-10         0.00000E+00
    0.18070E-10        -0.26184E+06         0.00000E+00
    0.00000E+00         0.00000E+00        -0.28946E+03
 
    0.26040E+06         0.39754E-09         0.00000E+00
    0.39754E-09        -0.26184E+06         0.00000E+00
    0.00000E+00         0.00000E+00        -0.28946E+03
 
    0.26040E+06         0.18070E-10         0.00000E+00
    0.18070E-10        -0.26184E+06         0.00000E+00
    0.00000E+00         0.00000E+00        -0.28946E+03
 
    0.26040E+06         0.18070E-10         0.00000E+00
    0.18070E-10        -0.26184E+06         0.00000E+00
    0.00000E+00         0.00000E+00        -0.28946E+03
 
    0.25993E+06        -0.14456E-09         0.00000E+00
   -0.14456E-09        -0.26196E+06         0.00000E+00
    0.00000E+00         0.00000E+00        -0.40480E+03
 
    0.25993E+06         0.36140E-10         0.00000E+00
    0.36140E-10        -0.26196E+06         0.00000E+00
    0.00000E+00         0.00000E+00        -0.40480E+03
 
    0.25993E+06        -0.10842E-09         0.00000E+00
   -0.10842E-09        -0.26196E+06         0.00000E+00
    0.00000E+00         0.00000E+00        -0.40480E+03
 
    0.25993E+06         0.72280E-10         0.00000E+00
    0.72280E-10        -0.26196E+06         0.00000E+00
    0.00000E+00         0.00000E+00        -0.40480E+03
 
    0.25993E+06        -0.12649E-09         0.00000E+00
   -0.12649E-09        -0.26196E+06         0.00000E+00
    0.00000E+00         0.00000E+00        -0.40480E+03
 
    0.25929E+06        -0.18070E-10         0.00000E+00
   -0.18070E-10        -0.26212E+06         0.00000E+00
    0.00000E+00         0.00000E+00        -0.56630E+03
 
    0.25929E+06         0.00000E+00         0.00000E+00
    0.00000E+00        -0.26212E+06         0.00000E+00
    0.00000E+00         0.00000E+00        -0.56630E+03
 
    0.25929E+06        -0.21684E-09         0.00000E+00
   -0.21684E-09        -0.26212E+06         0.00000E+00
    0.00000E+00         0.00000E+00        -0.56630E+03
 
    0.25929E+06         0.72280E-10         0.00000E+00
    0.72280E-10        -0.26212E+06         0.00000E+00
    0.00000E+00         0.00000E+00        -0.56630E+03
 
    0.25929E+06        -0.36140E-10         0.00000E+00
   -0.36140E-10        -0.26212E+06         0.00000E+00
    0.00000E+00         0.00000E+00        -0.56630E+03
 
    0.25838E+06        -0.28912E-09         0.00000E+00
   -0.28912E-09        -0.26235E+06         0.00000E+00
    0.00000E+00         0.00000E+00        -0.79244E+03
 
    0.25838E+06         0.72280E-10         0.00000E+00
    0.72280E-10        -0.26235E+06         0.00000E+00
    0.00000E+00         0.00000E+00        -0.79244E+03
 
    0.25838E+06         0.36140E-10         0.00000E+00
    0.36140E-10        -0.26235E+06         0.00000E+00
    0.00000E+00         0.00000E+00        -0.79244E+03
 
    0.25838E+06         0.43368E-09         0.00000E+00
    0.43368E-09        -0.26235E+06         0.00000E+00
    0.00000E+00         0.00000E+00        -0.79244E+03
 
    0.25838E+06        -0.25298E-09         0.00000E+00
   -0.25298E-09        -0.26235E+06         0.00000E+00
    0.00000E+00         0.00000E+00        -0.79244E+03
 
    0.25712E+06        -0.72280E-10         0.00000E+00
   -0.72280E-10        -0.26266E+06         0.00000E+00
    0.00000E+00         0.00000E+00        -0.11091E+04
 
    0.25712E+06        -0.72280E-10         0.00000E+00
   -0.72280E-10        -0.26266E+06         0.00000E+00
    0.00000E+00         0.00000E+00        -0.11091E+04
 
    0.25712E+06        -0.10842E-09         0.00000E+00
   -0.10842E-09        -0.26266E+06         0.00000E+00
    0.00000E+00         0.00000E+00        -0.11091E+04
 
    0.25712E+06         0.50596E-09         0.00000E+00
    0.50596E-09        -0.26266E+06         0.00000E+00
    0.00000E+00         0.00000E+00        -0.11091E+04
 
    0.25712E+06        -0.72280E-10         0.00000E+00
   -0.72280E-10        -0.26266E+06         0.00000E+00
    0.00000E+00         0.00000E+00        -0.11091E+04
 
    0.25534E+06        -0.37947E-09         0.00000E+00
   -0.37947E-09        -0.26311E+06         0.00000E+00
    0.00000E+00         0.00000E+00        -0.15523E+04
 
    0.25534E+06         0.52403E-09         0.00000E+00
    0.52403E-09        -0.26311E+06         0.00000E+00
    0.00000E+00         0.00000E+00        -0.15523E+04
 
    0.25534E+06        -0.36140E-10         0.00000E+00
   -0.36140E-10        -0.26311E+06         0.00000E+00
    0.00000E+00         0.00000E+00        -0.15523E+04
 
    0.25534E+06         0.36140E-10         0.00000E+00
    0.36140E-10        -0.26311E+06         0.00000E+00
    0.00000E+00         0.00000E+00        -0.15523E+04
 
    0.25534E+06         0.28912E-09         0.00000E+00
    0.28912E-09        -0.26311E+06         0.00000E+00
    0.00000E+00         0.00000E+00        -0.15523E+04
 
    0.25286E+06        -0.19877E-09         0.00000E+00
   -0.19877E-09        -0.26373E+06         0.00000E+00
    0.00000E+00         0.00000E+00        -0.21729E+04
 
    0.25286E+06         0.36140E-09         0.00000E+00
    0.36140E-09        -0.26373E+06         0.00000E+00
    0.00000E+00         0.00000E+00        -0.21729E+04
 
    0.25286E+06         0.28912E-09         0.00000E+00
    0.28912E-09        -0.26373E+06         0.00000E+00
    0.00000E+00         0.00000E+00        -0.21729E+04
 
    0.25286E+06        -0.32526E-09         0.00000E+00
   -0.32526E-09        -0.26373E+06         0.00000E+00
    0.00000E+00         0.00000E+00        -0.21729E+04
 
    0.25286E+06         0.36140E-09         0.00000E+00
    0.36140E-09        -0.26373E+06         0.00000E+00
    0.00000E+00         0.00000E+00        -0.21729E+04
 
    0.24939E+06        -0.28912E-09         0.00000E+00
   -0.28912E-09        -0.26459E+06         0.00000E+00
    0.00000E+00         0.00000E+00        -0.30417E+04
 
    0.24939E+06        -0.36140E-10         0.00000E+00
   -0.36140E-10        -0.26459E+06         0.00000E+00
    0.00000E+00         0.00000E+00        -0.30417E+04
 
    0.24939E+06         0.10842E-09         0.00000E+00
    0.10842E-09        -0.26459E+06         0.00000E+00
    0.00000E+00         0.00000E+00        -0.30417E+04
 
    0.24939E+06        -0.32526E-09         0.00000E+00
   -0.32526E-09        -0.26459E+06         0.00000E+00
    0.00000E+00         0.00000E+00        -0.30417E+04
 
    0.24939E+06         0.21684E-09         0.00000E+00
    0.21684E-09        -0.26459E+06         0.00000E+00
    0.00000E+00         0.00000E+00        -0.30417E+04
 
    0.24452E+06        -0.36140E-09         0.00000E+00
   -0.36140E-09        -0.26581E+06         0.00000E+00
    0.00000E+00         0.00000E+00        -0.42576E+04
 
    0.24452E+06         0.72280E-10         0.00000E+00
    0.72280E-10        -0.26581E+06         0.00000E+00
    0.00000E+00         0.00000E+00        -0.42576E+04
 
    0.24452E+06         0.18070E-09         0.00000E+00
    0.18070E-09        -0.26581E+06         0.00000E+00
    0.00000E+00         0.00000E+00        -0.42576E+04
 
    0.24452E+06         0.32526E-09         0.00000E+00
    0.32526E-09        -0.26581E+06         0.00000E+00
    0.00000E+00         0.00000E+00        -0.42576E+04
 
    0.24452E+06        -0.32526E-09         0.00000E+00
   -0.32526E-09        -0.26581E+06         0.00000E+00
    0.00000E+00         0.00000E+00        -0.42576E+04
 
    0.23772E+06        -0.50596E-09         0.00000E+00
   -0.50596E-09        -0.26751E+06         0.00000E+00
    0.00000E+00         0.00000E+00        -0.59592E+04
 
    0.23772E+06         0.72280E-10         0.00000E+00
    0.72280E-10        -0.26751E+06         0.00000E+00
    0.00000E+00         0.00000E+00        -0.59592E+04
 
    0.23772E+06         0.39754E-09         0.00000E+00
    0.39754E-09        -0.26751E+06         0.00000E+00
    0.00000E+00         0.00000E+00        -0.59592E+04
 
    0.23772E+06         0.18070E-09         0.00000E+00
    0.18070E-09        -0.26751E+06         0.00000E+00
    0.00000E+00         0.00000E+00        -0.59592E+04
 
    0.23772E+06        -0.57824E-09         0.00000E+00
   -0.57824E-09        -0.26751E+06         0.00000E+00
    0.00000E+00         0.00000E+00        -0.59592E+04
 
    0.22820E+06        -0.36140E-09         0.00000E+00
   -0.36140E-09        -0.26989E+06         0.00000E+00
    0.00000E+00         0.00000E+00        -0.83388E+04
 
    0.22820E+06        -0.36140E-10         0.00000E+00
   -0.36140E-10        -0.26989E+06         0.00000E+00
    0.00000E+00         0.00000E+00        -0.83388E+04
 
    0.22820E+06         0.72280E-10         0.00000E+00
    0.72280E-10        -0.26989E+06         0.00000E+00
    0.00000E+00         0.00000E+00        -0.83388E+04
 
    0.22820E+06         0.32526E-09         0.00000E+00
    0.32526E-09        -0.26989E+06         0.00000E+00
    0.00000E+00         0.00000E+00        -0.83388E+04
 
    0.22820E+06        -0.32526E-09         0.00000E+00
   -0.32526E-09        -0.26989E+06         0.00000E+00
    0.00000E+00         0.00000E+00        -0.83388E+04
 
    0.21490E+06        -0.39754E-09         0.00000E+00
   -0.39754E-09        -0.27322E+06         0.00000E+00
    0.00000E+00         0.00000E+00        -0.11662E+05
 
    0.21490E+06         0.00000E+00         0.00000E+00
    0.00000E+00        -0.27322E+06         0.00000E+00
    0.00000E+00         0.00000E+00        -0.11662E+05
 
    0.21490E+06        -0.25298E-09         0.00000E+00
   -0.25298E-09        -0.27322E+06         0.00000E+00
    0.00000E+00         0.00000E+00        -0.11662E+05
 
    0.21490E+06         0.28912E-09         0.00000E+00
    0.28912E-09        -0.27322E+06         0.00000E+00
    0.00000E+00         0.00000E+00        -0.11662E+05
 
    0.21490E+06         0.18070E-09         0.00000E+00
    0.18070E-09        -0.27322E+06         0.00000E+00
    0.00000E+00         0.00000E+00        -0.11662E+05
 
    0.19638E+06        -0.36140E-09         0.00000E+00
   -0.36140E-09        -0.27785E+06         0.00000E+00
    0.00000E+00         0.00000E+00        -0.16293E+05
 
    0.19638E+06         0.97578E-09         0.00000E+00
    0.97578E-09        -0.27785E+06         0.00000E+00
    0.00000E+00         0.00000E+00        -0.16293E+05
 
    0.19638E+06        -0.57824E-09         0.00000E+00
   -0.57824E-09        -0.27785E+06         0.00000E+00
    0.00000E+00         0.00000E+00        -0.16293E+05
 
    0.19638E+06         0.75894E-09         0.00000E+00
    0.75894E-09        -0.27785E+06         0.00000E+00
    0.00000E+00         0.00000E+00        -0.16293E+05
 
    0.19638E+06        -0.10842E-09         0.00000E+00
   -0.10842E-09        -0.27785E+06         0.00000E+00
    0.00000E+00         0.00000E+00        -0.16293E+05
 
    0.17073E+06        -0.36140E-09         0.00000E+00
   -0.36140E-09        -0.28426E+06         0.00000E+00
    0.00000E+00         0.00000E+00        -0.22705E+05
 
    0.17073E+06         0.65052E-09         0.00000E+00
    0.65052E-09        -0.28426E+06         0.00000E+00
    0.00000E+00         0.00000E+00        -0.22705E+05
 
    0.17073E+06         0.28912E-09         0.00000E+00
    0.28912E-09        -0.28426E+06         0.00000E+00
    0.00000E+00         0.00000E+00        -0.22705E+05
 
    0.17073E+06         0.75894E-09         0.00000E+00
    0.75894E-09        -0.28426E+06         0.00000E+00
    0.00000E+00         0.00000E+00        -0.22705E+05
 
    0.17073E+06        -0.61438E-09         0.00000E+00
   -0.61438E-09        -0.28426E+06         0.00000E+00
    0.00000E+00         0.00000E+00        -0.22705E+05
 
    0.13566E+06        -0.28912E-09         0.00000E+00
   -0.28912E-09        -0.29303E+06         0.00000E+00
    0.00000E+00         0.00000E+00        -0.31474E+05
 
    0.13566E+06         0.14456E-09         0.00000E+00
    0.14456E-09        -0.29303E+06         0.00000E+00
    0.00000E+00         0.00000E+00        -0.31474E+05
 
    0.13566E+06         0.39754E-09         0.00000E+00
    0.39754E-09        -0.29303E+06         0.00000E+00
    0.00000E+00         0.00000E+00        -0.31474E+05
 
    0.13566E+06        -0.21684E-09         0.00000E+00
   -0.21684E-09        -0.29303E+06         0.00000E+00
    0.00000E+00         0.00000E+00        -0.31474E+05
 
    0.13566E+06        -0.61438E-09         0.00000E+00
   -0.61438E-09        -0.29303E+06         0.00000E+00
    0.00000E+00         0.00000E+00        -0.31474E+05
 
    0.89056E+05        -0.10842E-09         0.00000E+00
   -0.10842E-09        -0.30468E+06         0.00000E+00
    0.00000E+00         0.00000E+00        -0.43124E+05
 
    0.89056E+05         0.36140E-10         0.00000E+00
    0.36140E-10        -0.30468E+06         0.00000E+00
    0.00000E+00         0.00000E+00        -0.43124E+05
 
    0.89056E+05         0.18070E-09         0.00000E+00
    0.18070E-09        -0.30468E+06         0.00000E+00
    0.00000E+00         0.00000E+00        -0.43124E+05
 
    0.89056E+05         0.00000E+00         0.00000E+00
    0.00000E+00        -0.30468E+06         0.00000E+00
    0.00000E+00         0.00000E+00        -0.43124E+05
 
    0.89056E+05         0.79508E-09         0.00000E+00
    0.79508E-09        -0.30468E+06         0.00000E+00
    0.00000E+00         0.00000E+00        -0.43124E+05
 
    0.31327E+05        -0.25298E-09         0.00000E+00
   -0.25298E-09        -0.31911E+06         0.00000E+00
    0.00000E+00         0.00000E+00        -0.57556E+05
 
    0.31327E+05         0.57824E-09         0.00000E+00
    0.57824E-09        -0.31911E+06         0.00000E+00
    0.00000E+00         0.00000E+00        -0.57556E+05
 
    0.31327E+05        -0.68666E-09         0.00000E+00
   -0.68666E-09        -0.31911E+06         0.00000E+00
    0.00000E+00         0.00000E+00        -0.57556E+05
 
    0.31327E+05         0.46982E-09         0.00000E+00
    0.46982E-09        -0.31911E+06         0.00000E+00
    0.00000E+00         0.00000E+00        -0.57556E+05
 
    0.31327E+05         0.50596E-09         0.00000E+00
    0.50596E-09        -0.31911E+06         0.00000E+00
    0.00000E+00         0.00000E+00        -0.57556E+05
 
TENSORS stresstot double 
   -0.72760E-11         0.13553E-10         0.00000E+00
    0.13553E-10        -0.52308E+06         0.00000E+00
    0.00000E+00         0.00000E+00        -0.26153E+06
 
   -0.21828E-10         0.13553E-10         0.00000E+00
    0.13553E-10        -0.52308E+06         0.00000E+00
    0.00000E+00         0.00000E+00        -0.26153E+06
 
   -0.65484E-10        -0.40658E-10         0.00000E+00
   -0.40658E-10        -0.52308E+06         0.00000E+00
    0.00000E+00         0.00000E+00        -0.26153E+06
 
    0.29104E-10        -0.25976E-10         0.00000E+00
   -0.25976E-10        -0.52308E+06         0.00000E+00
    0.00000E+00         0.00000E+00        -0.26153E+06
 
    0.36380E-10         0.10164E-10         0.00000E+00
    0.10164E-10        -0.52308E+06         0.00000E+00
    0.00000E+00         0.00000E+00        -0.26153E+06
 
   -0.72760E-11         0.45175E-11         0.00000E+00
    0.45175E-11        -0.52308E+06         0.00000E+00
    0.00000E+00         0.00000E+00        -0.26153E+06
 
   -0.43656E-10        -0.56469E-10         0.00000E+00
   -0.56469E-10        -0.52308E+06         0.00000E+00
    0.00000E+00         0.00000E+00        -0.26153E+06
 
   -0.50932E-10        -0.49693E-10         0.00000E+00
   -0.49693E-10        -0.52308E+06         0.00000E+00
    0.00000E+00         0.00000E+00        -0.26153E+06
 
    0.14552E-10         0.13553E-10         0.00000E+00
    0.13553E-10        -0.52308E+06         0.00000E+00
    0.00000E+00         0.00000E+00        -0.26153E+06
 
    0.58208E-10        -0.18070E-10         0.00000E+00
   -0.18070E-10        -0.52308E+06         0.00000E+00
    0.00000E+00         0.00000E+00        -0.26153E+06
 
    0.65484E-10         0.67763E-10         0.00000E+00
    0.67763E-10        -0.52308E+06         0.00000E+00
    0.00000E+00         0.00000E+00        -0.26152E+06
 
    0.36380E-10        -0.90350E-10         0.00000E+00
   -0.90350E-10        -0.52308E+06         0.00000E+00
    0.00000E+00         0.00000E+00        -0.26152E+06
 
    0.50932E-10        -0.36140E-10         0.00000E+00
   -0.36140E-10        -0.52308E+06         0.00000E+00
    0.00000E+00         0.00000E+00        -0.26152E+06
 
   -0.21828E-10         0.11746E-09         0.00000E+00
    0.11746E-09        -0.52308E+06         0.00000E+00
    0.00000E+00         0.00000E+00        -0.26152E+06
 
    0.29104E-10        -0.12649E-09         0.00000E+00
   -0.12649E-09        -0.52308E+06         0.00000E+00
    0.00000E+00         0.00000E+00        -0.26152E+06
 
    0.00000E+00         0.18070E-10         0.00000E+00
    0.18070E-10        -0.52307E+06         0.00000E+00
    0.00000E+00         0.00000E+00        -0.26152E+06
 
    0.94587E-10        -0.18974E-09         0.00000E+00
   -0.18974E-09        -0.52307E+06         0.00000E+00
    0.00000E+00         0.00000E+00        -0.26152E+06
 
    0.43656E-10        -0.49693E-10         0.00000E+00
   -0.49693E-10        -0.52307E+06         0.00000E+00
    0.00000E+00         0.00000E+00        -0.26152E+06
 
    0.94587E-10         0.49693E-10         0.00000E+00
    0.49693E-10        -0.52307E+06         0.00000E+00
    0.00000E+00         0.00000E+00        -0.26152E+06
 
    0.72760E-10        -0.90350E-11         0.00000E+00
   -0.90350E-11        -0.52307E+06         0.00000E+00
    0.00000E+00         0.00000E+00        -0.26152E+06
 
    0.11642E-09        -0.99385E-10         0.00000E+00
   -0.99385E-10        -0.52306E+06         0.00000E+00
    0.00000E+00         0.00000E+00        -0.26151E+06
 
   -0.29104E-09         0.27105E-10         0.00000E+00
    0.27105E-10        -0.52306E+06         0.00000E+00
    0.00000E+00         0.00000E+00        -0.26151E+06
 
    0.36380E-10         0.90350E-11         0.00000E+00
    0.90350E-11        -0.52306E+06         0.00000E+00
    0.00000E+00         0.00000E+00        -0.26151E+06
 
   -0.12369E-09         0.58728E-10         0.00000E+00
    0.58728E-10        -0.52306E+06         0.00000E+00
    0.00000E+00         0.00000E+00        -0.26151E+06
 
   -0.50932E-10        -0.90350E-11         0.00000E+00
   -0.90350E-11        -0.52306E+06         0.00000E+00
    0.00000E+00         0.00000E+00        -0.26151E+06
 
    0.13824E-09        -0.12649E-09         0.00000E+00
   -0.12649E-09        -0.52304E+06         0.00000E+00
    0.00000E+00         0.00000E+00        -0.26149E+06
 
    0.15280E-09         0.90350E-10         0.00000E+00
    0.90350E-10        -0.52304E+06         0.00000E+00
    0.00000E+00         0.00000E+00        -0.26149E+06
 
   -0.10914E-09         0.00000E+00         0.00000E+00
    0.00000E+00        -0.52304E+06         0.00000E+00
    0.00000E+00         0.00000E+00        -0.26149E+06
 
   -0.17462E-09         0.49693E-10         0.00000E+00
    0.49693E-10        -0.52304E+06         0.00000E+00
    0.00000E+00         0.00000E+00        -0.26149E+06
 
   -0.43656E-10         0.27105E-10         0.00000E+00
    0.27105E-10        -0.52304E+06         0.00000E+00
    0.00000E+00         0.00000E+00        -0.26149E+06
 
    0.11642E-09        -0.10842E-09         0.00000E+00
   -0.10842E-09        -0.52302E+06         0.00000E+00
    0.00000E+00         0.00000E+00        -0.26147E+06
 
    0.11642E-09         0.11746E-09         0.00000E+00
    0.11746E-09        -0.52302E+06         0.00000E+00
    0.00000E+00         0.00000E+00        -0.26147E+06
 
   -0.94587E-10         0.00000E+00         0.00000E+00
    0.00000E+00        -0.52302E+06         0.00000E+00
    0.00000E+00         0.00000E+00        -0.26147E+06
 
    0.20373E-09        -0.27105E-10         0.00000E+00
   -0.27105E-10        -0.52302E+06         0.00000E+00
    0.00000E+00         0.00000E+00        -0.26147E+06
 
   -0.21828E-10         0.00000E+00         0.00000E+00
    0.00000E+00        -0.52302E+06         0.00000E+00
    0.00000E+00         0.00000E+00        -0.26147E+06
 
   -0.87311E-10        -0.45175E-10         0.00000E+00
   -0.45175E-10        -0.52299E+06         0.00000E+00
    0.00000E+00         0.00000E+00        -0.26143E+06
 
   -0.94587E-10        -0.45175E-10         0.00000E+00
   -0.45175E-10        -0.52299E+06         0.00000E+00
    0.00000E+00         0.00000E+00        -0.26143E+06
 
    0.29104E-10        -0.27105E-10         0.00000E+00
   -0.27105E-10        -0.52299E+06         0.00000E+00
    0.00000E+00         0.00000E+00        -0.26143E+06
 
   -0.18190E-09        -0.27105E-10         0.00000E+00
   -0.27105E-10        -0.52299E+06         0.00000E+00
    0.00000E+00         0.00000E+00        -0.26143E+06
 
   -0.18190E-09         0.90350E-11         0.00000E+00
    0.90350E-11        -0.52299E+06         0.00000E+00
    0.00000E+00         0.00000E+00        -0.26143E+06
 
   -0.26921E-09         0.45175E-10         0.00000E+00
    0.45175E-10        -0.52294E+06         0.00000E+00
    0.00000E+00         0.00000E+00        -0.26139E+06
 
   -0.12369E-09        -0.13553E-09         0.00000E+00
   -0.13553E-09        -0.52294E+06         0.00000E+00
    0.00000E+00         0.00000E+00        -0.26139E+06
 
   -0.32014E-09         0.54210E-10         0.00000E+00
    0.54210E-10        -0.52294E+06         0.00000E+00
    0.00000E+00         0.00000E+00        -0.26139E+06
 
   -0.15280E-09        -0.90350E-10         0.00000E+00
   -0.90350E-10        -0.52294E+06         0.00000E+00
    0.00000E+00         0.00000E+00        -0.26139E+06
 
   -0.24011E-09         0.18070E-10         0.00000E+00
    0.18070E-10        -0.52294E+06         0.00000E+00
    0.00000E+00         0.00000E+00        -0.26139E+06
 
    0.13097E-09        -0.36140E-10         0.00000E+00
   -0.36140E-10        -0.52288E+06         0.00000E+00
    0.00000E+00         0.00000E+00        -0.26132E+06
 
   -0.50932E-10        -0.15360E-09         0.00000E+00
   -0.15360E-09        -0.52288E+06         0.00000E+00
    0.00000E+00         0.00000E+00        -0.26132E+06
 
   -0.94587E-10         0.14456E-09         0.00000E+00
    0.14456E-09        -0.52288E+06         0.00000E+00
    0.00000E+00         0.00000E+00        -0.26132E+06
 
    0.18190E-09        -0.36140E-10         0.00000E+00
   -0.36140E-10        -0.52288E+06         0.00000E+00
    0.00000E+00         0.00000E+00        -0.26132E+06
 
   -0.21828E-10        -0.54210E-10         0.00000E+00
   -0.54210E-10        -0.52288E+06         0.00000E+00
    0.00000E+00         0.00000E+00        -0.26132E+06
 
   -0.24738E-09        -0.90350E-11         0.00000E+00
   -0.90350E-11        -0.52279E+06         0.00000E+00
    0.00000E+00         0.00000E+00        -0.26123E+06
 
   -0.26193E-09         0.27105E-10         0.00000E+00
    0.27105E-10        -0.52279E+06         0.00000E+00
    0.00000E+00         0.00000E+00        -0.26123E+06
 
   -0.22555E-09        -0.27105E-10         0.00000E+00
   -0.27105E-10        -0.52279E+06         0.00000E+00
    0.00000E+00         0.00000E+00        -0.26123E+06
 
   -0.94587E-10         0.90350E-10         0.00000E+00
    0.90350E-10        -0.52279E+06         0.00000E+00
    0.00000E+00         0.00000E+00        -0.26123E+06
 
    0.52387E-09        -0.36140E-10         0.00000E+00
   -0.36140E-10        -0.52279E+06         0.00000E+00
    0.00000E+00         0.00000E+00        -0.26123E+06
 
   -0.72760E-10        -0.16263E-09         0.00000E+00
   -0.16263E-09        -0.52266E+06         0.00000E+00
    0.00000E+00         0.00000E+00        -0.26111E+06
 
   -0.50932E-10        -0.15360E-09         0.00000E+00
   -0.15360E-09        -0.52266E+06         0.00000E+00
    0.00000E+00         0.00000E+00        -0.26111E+06
 
   -0.24011E-09        -0.90350E-10         0.00000E+00
   -0.90350E-10        -0.52266E+06         0.00000E+00
    0.00000E+00         0.00000E+00        -0.26111E+06
 
    0.14552E-10         0.18070E-10         0.00000E+00
    0.18070E-10        -0.52266E+06         0.00000E+00
    0.00000E+00         0.00000E+00        -0.26111E+06
 
   -0.30559E-09         0.18070E-10         0.00000E+00
    0.18070E-10        -0.52266E+06         0.00000E+00
    0.00000E+00         0.00000E+00        -0.26111E+06
 
    0.74215E-09        -0.15360E-09         0.00000E+00
   -0.15360E-09        -0.52249E+06         0.00000E+00
    0.00000E+00         0.00000E+00        -0.26093E+06
 
    0.34197E-09         0.18070E-09         0.00000E+00
    0.18070E-09        -0.52249E+06         0.00000E+00
    0.00000E+00         0.00000E+00        -0.26093E+06
 
    0.30559E-09         0.25298E-09         0.00000E+00
    0.25298E-09        -0.52249E+06         0.00000E+00
    0.00000E+00         0.00000E+00        -0.26093E+06
 
   -0.29104E-10         0.00000E+00         0.00000E+00
    0.00000E+00        -0.52249E+06         0.00000E+00
    0.00000E+00         0.00000E+00        -0.26093E+06
 
   -0.30559E-09         0.18070E-10         0.00000E+00
    0.18070E-10        -0.52249E+06         0.00000E+00
    0.00000E+00         0.00000E+00        -0.26093E+06
 
   -0.50932E-10         0.18070E-10         0.00000E+00
    0.18070E-10        -0.52224E+06         0.00000E+00
    0.00000E+00         0.00000E+00        -0.26068E+06
 
   -0.34925E-09         0.18070E-10         0.00000E+00
    0.18070E-10        -0.52224E+06         0.00000E+00
    0.00000E+00         0.00000E+00        -0.26068E+06
 
   -0.13097E-09         0.39754E-09         0.00000E+00
    0.39754E-09        -0.52224E+06         0.00000E+00
    0.00000E+00         0.00000E+00        -0.26068E+06
 
    0.18917E-09         0.18070E-10         0.00000E+00
    0.18070E-10        -0.52224E+06         0.00000E+00
    0.00000E+00         0.00000E+00        -0.26068E+06
 
    0.24738E-09         0.18070E-10         0.00000E+00
    0.18070E-10        -0.52224E+06         0.00000E+00
    0.00000E+00         0.00000E+00        -0.26068E+06
 
    0.13097E-09        -0.14456E-09         0.00000E+00
   -0.14456E-09        -0.52189E+06         0.00000E+00
    0.00000E+00         0.00000E+00        -0.26034E+06
 
    0.43656E-09         0.36140E-10         0.00000E+00
    0.36140E-10        -0.52189E+06         0.00000E+00
    0.00000E+00         0.00000E+00        -0.26034E+06
 
    0.72760E-11        -0.10842E-09         0.00000E+00
   -0.10842E-09        -0.52189E+06         0.00000E+00
    0.00000E+00         0.00000E+00        -0.26034E+06
 
   -0.26921E-09         0.72280E-10         0.00000E+00
    0.72280E-10        -0.52189E+06         0.00000E+00
    0.00000E+00         0.00000E+00        -0.26034E+06
 
   -0.10914E-09        -0.12649E-09         0.00000E+00
   -0.12649E-09        -0.52189E+06         0.00000E+00
    0.00000E+00         0.00000E+00        -0.26034E+06
 
    0.13097E-09        -0.18070E-10         0.00000E+00
   -0.18070E-10        -0.52141E+06         0.00000E+00
    0.00000E+00         0.00000E+00        -0.25985E+06
 
    0.14552E-09         0.00000E+00         0.00000E+00
    0.00000E+00        -0.52141E+06         0.00000E+00
    0.00000E+00         0.00000E+00        -0.25985E+06
 
   -0.37107E-09        -0.21684E-09         0.00000E+00
   -0.21684E-09        -0.52141E+06         0.00000E+00
    0.00000E+00         0.00000E+00        -0.25985E+06
 
   -0.58935E-09         0.72280E-10         0.00000E+00
    0.72280E-10        -0.52141E+06         0.00000E+00
    0.00000E+00         0.00000E+00        -0.25985E+06
 
   -0.47294E-09        -0.36140E-10         0.00000E+00
   -0.36140E-10        -0.52141E+06         0.00000E+00
    0.00000E+00         0.00000E+00        -0.25985E+06
 
    0.95315E-09        -0.28912E-09         0.00000E+00
   -0.28912E-09        -0.52073E+06         0.00000E+00
    0.00000E+00         0.00000E+00        -0.25918E+06
 
   -0.66211E-09         0.72280E-10         0.00000E+00
    0.72280E-10        -0.52073E+06         0.00000E+00
    0.00000E+00         0.00000E+00        -0.25918E+06
 
   -0.43656E-09         0.36140E-10         0.00000E+00
    0.36140E-10        -0.52073E+06         0.00000E+00
    0.00000E+00         0.00000E+00        -0.25918E+06
 
    0.44383E-09         0.43368E-09         0.00000E+00
    0.43368E-09        -0.52073E+06         0.00000E+00
    0.00000E+00         0.00000E+00        -0.25918E+06
 
    0.89494E-09        -0.25298E-09         0.00000E+00
   -0.25298E-09        -0.52073E+06         0.00000E+00
    0.00000E+00         0.00000E+00        -0.25918E+06
 
    0.10186E-09        -0.72280E-10         0.00000E+00
   -0.72280E-10        -0.51978E+06         0.00000E+00
    0.00000E+00         0.00000E+00        -0.25823E+06
 
   -0.58208E-10        -0.72280E-10         0.00000E+00
   -0.72280E-10        -0.51978E+06         0.00000E+00
    0.00000E+00         0.00000E+00        -0.25823E+06
 
   -0.15280E-09        -0.10842E-09         0.00000E+00
   -0.10842E-09        -0.51978E+06         0.00000E+00
    0.00000E+00         0.00000E+00        -0.25823E+06
 
    0.29104E-09         0.50596E-09         0.00000E+00
    0.50596E-09        -0.51978E+06         0.00000E+00
    0.00000E+00         0.00000E+00        -0.25823E+06
 
   -0.42928E-09        -0.72280E-10         0.00000E+00
   -0.72280E-10        -0.51978E+06         0.00000E+00
    0.00000E+00         0.00000E+00        -0.25823E+06
 
    0.72760E-10        -0.37947E-09         0.00000E+00
   -0.37947E-09        -0.51845E+06         0.00000E+00
    0.00000E+00         0.00000E+00        -0.25690E+06
 
   -0.22555E-09         0.52403E-09         0.00000E+00
    0.52403E-09        -0.51845E+06         0.00000E+00
    0.00000E+00         0.00000E+00        -0.25690E+06
 
   -0.16735E-09        -0.36140E-10         0.00000E+00
   -0.36140E-10        -0.51845E+06         0.00000E+00
    0.00000E+00         0.00000E+00        -0.25690E+06
 
    0.58208E-10         0.36140E-10         0.00000E+00
    0.36140E-10        -0.51845E+06         0.00000E+00
    0.00000E+00         0.00000E+00        -0.25690E+06
 
    0.50932E-09         0.28912E-09         0.00000E+00
    0.28912E-09        -0.51845E+06         0.00000E+00
    0.00000E+00         0.00000E+00        -0.25690E+06
 
   -0.59663E-09        -0.19877E-09         0.00000E+00
   -0.19877E-09        -0.51659E+06         0.00000E+00
    0.00000E+00         0.00000E+00        -0.25503E+06
 
   -0.11642E-09         0.36140E-09         0.00000E+00
    0.36140E-09        -0.51659E+06         0.00000E+00
    0.00000E+00         0.00000E+00        -0.25503E+06
 
    0.36380E-09         0.28912E-09         0.00000E+00
    0.28912E-09        -0.51659E+06         0.00000E+00
    0.00000E+00         0.00000E+00        -0.25503E+06
 
    0.65484E-10        -0.32526E-09         0.00000E+00
   -0.32526E-09        -0.51659E+06         0.00000E+00
    0.00000E+00         0.00000E+00        -0.25503E+06
 
    0.65484E-10         0.36140E-09         0.00000E+00
    0.36140E-09        -0.51659E+06         0.00000E+00
    0.00000E+00         0.00000E+00        -0.25503E+06
 
   -0.74215E-09        -0.28912E-09         0.00000E+00
   -0.28912E-09        -0.51398E+06         0.00000E+00
    0.00000E+00         0.00000E+00        -0.25243E+06
 
    0.56025E-09        -0.36140E-10         0.00000E+00
   -0.36140E-10        -0.51398E+06         0.00000E+00
    0.00000E+00         0.00000E+00        -0.25243E+06
 
   -0.16007E-09         0.10842E-09         0.00000E+00
    0.10842E-09        -0.51398E+06         0.00000E+00
    0.00000E+00         0.00000E+00        -0.25243E+06
 
   -0.16735E-09        -0.32526E-09         0.00000E+00
   -0.32526E-09        -0.51398E+06         0.00000E+00
    0.00000E+00         0.00000E+00        -0.25243E+06
 
    0.45839E-09         0.21684E-09         0.00000E+00
    0.21684E-09        -0.51398E+06         0.00000E+00
    0.00000E+00         0.00000E+00        -0.25243E+06
 
    0.49477E-09        -0.36140E-09         0.00000E+00
   -0.36140E-09        -0.51033E+06         0.00000E+00
    0.00000E+00         0.00000E+00        -0.24878E+06
 
   -0.39290E-09         0.72280E-10         0.00000E+00
    0.72280E-10        -0.51033E+06         0.00000E+00
    0.00000E+00         0.00000E+00        -0.24878E+06
 
    0.16007E-09         0.18070E-09         0.00000E+00
    0.18070E-09        -0.51033E+06         0.00000E+00
    0.00000E+00         0.00000E+00        -0.24878E+06
 
    0.32742E-09         0.32526E-09         0.00000E+00
    0.32526E-09        -0.51033E+06         0.00000E+00
    0.00000E+00         0.00000E+00        -0.24878E+06
 
    0.65484E-10        -0.32526E-09         0.00000E+00
   -0.32526E-09        -0.51033E+06         0.00000E+00
    0.00000E+00         0.00000E+00        -0.24878E+06
 
   -0.77125E-09        -0.50596E-09         0.00000E+00
   -0.50596E-09        -0.50523E+06         0.00000E+00
    0.00000E+00         0.00000E+00        -0.24368E+06
 
   -0.35652E-09         0.72280E-10         0.00000E+00
    0.72280E-10        -0.50523E+06         0.00000E+00
    0.00000E+00         0.00000E+00        -0.24368E+06
 
    0.16735E-09         0.39754E-09         0.00000E+00
    0.39754E-09        -0.50523E+06         0.00000E+00
    0.00000E+00         0.00000E+00        -0.24368E+06
 
    0.53114E-09         0.18070E-09         0.00000E+00
    0.18070E-09        -0.50523E+06         0.00000E+00
    0.00000E+00         0.00000E+00        -0.24368E+06
 
   -0.72760E-11        -0.57824E-09         0.00000E+00
   -0.57824E-09        -0.50523E+06         0.00000E+00
    0.00000E+00         0.00000E+00        -0.24368E+06
 
   -0.16735E-09        -0.36140E-09         0.00000E+00
   -0.36140E-09        -0.49809E+06         0.00000E+00
    0.00000E+00         0.00000E+00        -0.23654E+06
 
   -0.58208E-09        -0.36140E-10         0.00000E+00
   -0.36140E-10        -0.49809E+06         0.00000E+00
    0.00000E+00         0.00000E+00        -0.23654E+06
 
   -0.86584E-09         0.72280E-10         0.00000E+00
    0.72280E-10        -0.49809E+06         0.00000E+00
    0.00000E+00         0.00000E+00        -0.23654E+06
 
   -0.13970E-08         0.32526E-09         0.00000E+00
    0.32526E-09        -0.49809E+06         0.00000E+00
    0.00000E+00         0.00000E+00        -0.23654E+06
 
   -0.98225E-09        -0.32526E-09         0.00000E+00
   -0.32526E-09        -0.49809E+06         0.00000E+00
    0.00000E+00         0.00000E+00        -0.23654E+06
 
   -0.46566E-09        -0.39754E-09         0.00000E+00
   -0.39754E-09        -0.48812E+06         0.00000E+00
    0.00000E+00         0.00000E+00        -0.22657E+06
 
    0.56025E-09         0.00000E+00         0.00000E+00
    0.00000E+00        -0.48812E+06         0.00000E+00
    0.00000E+00         0.00000E+00        -0.22657E+06
 
   -0.18917E-09        -0.25298E-09         0.00000E+00
   -0.25298E-09        -0.48812E+06         0.00000E+00
    0.00000E+00         0.00000E+00        -0.22657E+06
 
    0.52387E-09         0.28912E-09         0.00000E+00
    0.28912E-09        -0.48812E+06         0.00000E+00
    0.00000E+00         0.00000E+00        -0.22657E+06
 
   -0.26921E-09         0.18070E-09         0.00000E+00
    0.18070E-09        -0.48812E+06         0.00000E+00
    0.00000E+00         0.00000E+00        -0.22657E+06
 
    0.72032E-09        -0.36140E-09         0.00000E+00
   -0.36140E-09        -0.47423E+06         0.00000E+00
    0.00000E+00         0.00000E+00        -0.21268E+06
 
    0.32014E-09         0.97578E-09         0.00000E+00
    0.97578E-09        -0.47423E+06         0.00000E+00
    0.00000E+00         0.00000E+00        -0.21268E+06
 
   -0.72760E-09        -0.57824E-09         0.00000E+00
   -0.57824E-09        -0.47423E+06         0.00000E+00
    0.00000E+00         0.00000E+00        -0.21268E+06
 
   -0.77125E-09         0.75894E-09         0.00000E+00
    0.75894E-09        -0.47423E+06         0.00000E+00
    0.00000E+00         0.00000E+00        -0.21268E+06
 
   -0.54570E-09        -0.10842E-09         0.00000E+00
   -0.10842E-09        -0.47423E+06         0.00000E+00
    0.00000E+00         0.00000E+00        -0.21268E+06
 
    0.79308E-09        -0.36140E-09         0.00000E+00
   -0.36140E-09        -0.45499E+06         0.00000E+00
    0.00000E+00         0.00000E+00        -0.19344E+06
 
   -0.42201E-09         0.65052E-09         0.00000E+00
    0.65052E-09        -0.45499E+06         0.00000E+00
    0.00000E+00         0.00000E+00        -0.19344E+06
 
   -0.94587E-10         0.28912E-09         0.00000E+00
    0.28912E-09        -0.45499E+06         0.00000E+00
    0.00000E+00         0.00000E+00        -0.19344E+06
 
   -0.88039E-09         0.75894E-09         0.00000E+00
    0.75894E-09        -0.45499E+06         0.00000E+00
    0.00000E+00         0.00000E+00        -0.19344E+06
 
    0.60390E-09        -0.61438E-09         0.00000E+00
   -0.61438E-09        -0.45499E+06         0.00000E+00
    0.00000E+00         0.00000E+00        -0.19344E+06
 
    0.53478E-09        -0.28912E-09         0.00000E+00
   -0.28912E-09        -0.42868E+06         0.00000E+00
    0.00000E+00         0.00000E+00        -0.16713E+06
 
   -0.10114E-08         0.14456E-09         0.00000E+00
    0.14456E-09        -0.42868E+06         0.00000E+00
    0.00000E+00         0.00000E+00        -0.16713E+06
 
   -0.37835E-09         0.39754E-09         0.00000E+00
    0.39754E-09        -0.42868E+06         0.00000E+00
    0.00000E+00         0.00000E+00        -0.16713E+06
 
    0.18226E-08        -0.21684E-09         0.00000E+00
   -0.21684E-09        -0.42868E+06         0.00000E+00
    0.00000E+00         0.00000E+00        -0.16713E+06
 
    0.80399E-09        -0.61438E-09         0.00000E+00
   -0.61438E-09        -0.42868E+06         0.00000E+00
    0.00000E+00         0.00000E+00        -0.16713E+06
 
    0.62573E-09        -0.10842E-09         0.00000E+00
   -0.10842E-09        -0.39373E+06         0.00000E+00
    0.00000E+00         0.00000E+00        -0.13218E+06
 
    0.33106E-09         0.36140E-10         0.00000E+00
    0.36140E-10        -0.39373E+06         0.00000E+00
    0.00000E+00         0.00000E+00        -0.13218E+06
 
    0.11023E-08         0.18070E-09         0.00000E+00
    0.18070E-09        -0.39373E+06         0.00000E+00
    0.00000E+00         0.00000E+00        -0.13218E+06
 
    0.12005E-09         0.00000E+00         0.00000E+00
    0.00000E+00        -0.39373E+06         0.00000E+00
    0.00000E+00         0.00000E+00        -0.13218E+06
 
   -0.14552E-08         0.79508E-09         0.00000E+00
    0.79508E-09        -0.39373E+06         0.00000E+00
    0.00000E+00         0.00000E+00        -0.13218E+06
 
   -0.59299E-09        -0.25298E-09         0.00000E+00
   -0.25298E-09        -0.35044E+06         0.00000E+00
    0.00000E+00         0.00000E+00        -0.88884E+05
 
   -0.10223E-08         0.57824E-09         0.00000E+00
    0.57824E-09        -0.35044E+06         0.00000E+00
    0.00000E+00         0.00000E+00        -0.88884E+05
 
   -0.28376E-09        -0.68666E-09         0.00000E+00
   -0.68666E-09        -0.35044E+06         0.00000E+00
    0.00000E+00         0.00000E+00        -0.88884E+05
 
   -0.20555E-09         0.46982E-09         0.00000E+00
    0.46982E-09        -0.35044E+06         0.00000E+00
    0.00000E+00         0.00000E+00        -0.88884E+05
 
   -0.42928E-09         0.50596E-09         0.00000E+00
    0.50596E-09        -0.35044E+06         0.00000E+00
    0.00000E+00         0.00000E+00        -0.88884E+05
 
SCALARS stressS double 
LOOKUP_TABLE default
  -261538.230516453     
  -261538.230516453     
  -261538.230516453     
  -261538.230516453     
  -261538.230516453     
  -261536.815209740     
  -261536.815209740     
  -261536.815209740     
  -261536.815209740     
  -261536.815209740     
  -261533.821860564     
  -261533.821860564     
  -261533.821860564     
  -261533.821860564     
  -261533.821860564     
  -261528.906384918     
  -261528.906384918     
  -261528.906384918     
  -261528.906384918     
  -261528.906384918     
  -261521.503999577     
  -261521.503999578     
  -261521.503999577     
  -261521.503999577     
  -261521.503999577     
  -261510.764637864     
  -261510.764637864     
  -261510.764637864     
  -261510.764637864     
  -261510.764637864     
  -261495.455754731     
  -261495.455754731     
  -261495.455754731     
  -261495.455754731     
  -261495.455754731     
  -261473.821418098     
  -261473.821418097     
  -261473.821418097     
  -261473.821418098     
  -261473.821418098     
  -261443.381588751     
  -261443.381588751     
  -261443.381588751     
  -261443.381588751     
  -261443.381588751     
  -261400.648656778     
  -261400.648656778     
  -261400.648656778     
  -261400.648656778     
  -261400.648656778     
  -261340.728847351     
  -261340.728847351     
  -261340.728847351     
  -261340.728847351     
  -261340.728847351     
  -261256.762952494     
  -261256.762952494     
  -261256.762952495     
  -261256.762952494     
  -261256.762952494     
  -261139.142485714     
  -261139.142485714     
  -261139.142485714     
  -261139.142485714     
  -261139.142485714     
  -260974.411698573     
  -260974.411698573     
  -260974.411698572     
  -260974.411698572     
  -260974.411698572     
  -260743.730021418     
  -260743.730021418     
  -260743.730021418     
  -260743.730021418     
  -260743.730021418     
  -260420.719329164     
  -260420.719329164     
  -260420.719329164     
  -260420.719329164     
  -260420.719329164     
  -259968.450359160     
  -259968.450359161     
  -259968.450359161     
  -259968.450359160     
  -259968.450359160     
  -259335.224928375     
  -259335.224928375     
  -259335.224928375     
  -259335.224928375     
  -259335.224928376     
  -258448.675093220     
  -258448.675093221     
  -258448.675093221     
  -258448.675093220     
  -258448.675093220     
  -257207.514418348     
  -257207.514418348     
  -257207.514418347     
  -257207.514418348     
  -257207.514418348     
  -255470.027327457     
  -255470.027327456     
  -255470.027327456     
  -255470.027327457     
  -255470.027327456     
  -253038.067154228     
  -253038.067154228     
  -253038.067154228     
  -253038.067154228     
  -253038.067154228     
  -249634.992553213     
  -249634.992553213     
  -249634.992553213     
  -249634.992553213     
  -249634.992553213     
  -244875.796192622     
  -244875.796192623     
  -244875.796192623     
  -244875.796192623     
  -244875.796192623     
  -238228.338409141     
  -238228.338409140     
  -238228.338409140     
  -238228.338409140     
  -238228.338409140     
  -228968.235110460     
  -228968.235110461     
  -228968.235110461     
  -228968.235110461     
  -228968.235110461     
  -216143.183455955     
  -216143.183455956     
  -216143.183455955     
  -216143.183455956     
  -216143.183455955     
  -198605.465751766     
  -198605.465751766     
  -198605.465751766     
  -198605.465751765     
  -198605.465751765     
  -175304.798557872     
  -175304.798557873     
  -175304.798557872     
  -175304.798557873     
  -175304.798557874     
  -146440.351926372     
  -146440.351926372     
  -146440.351926372     
  -146440.351926372     
  -146440.351926372     
SCALARS 2waySource double 
LOOKUP_TABLE default
  5.978702892187983E-005
  5.978702892188157E-005
  5.978702892188301E-005
  5.978702892188441E-005
  5.978702892188487E-005
  5.977286325905289E-005
  5.977286325905277E-005
  5.977286325905468E-005
  5.977286325905539E-005
  5.977286325905712E-005
  5.974631241741784E-005
  5.974631241741761E-005
  5.974631241741877E-005
  5.974631241741904E-005
  5.974631241742092E-005
  5.970430923018362E-005
  5.970430923018207E-005
  5.970430923017989E-005
  5.970430923018001E-005
  5.970430923017985E-005
  5.964200560510995E-005
  5.964200560511014E-005
  5.964200560510995E-005
  5.964200560511183E-005
  5.964200560511155E-005
  5.955221757874865E-005
  5.955221757875105E-005
  5.955221757875355E-005
  5.955221757875095E-005
  5.955221757875082E-005
  5.942460325049781E-005
  5.942460325049718E-005
  5.942460325049681E-005
  5.942460325049949E-005
  5.942460325050038E-005
  5.924447972965462E-005
  5.924447972965448E-005
  5.924447972966094E-005
  5.924447972966082E-005
  5.924447972965566E-005
  5.899114399899564E-005
  5.899114399899103E-005
  5.899114399899212E-005
  5.899114399899207E-005
  5.899114399899146E-005
  5.863550593527254E-005
  5.863550593527531E-005
  5.863550593527206E-005
  5.863550593527262E-005
  5.863550593527365E-005
  5.813676316748116E-005
  5.813676316748114E-005
  5.813676316748481E-005
  5.813676316748408E-005
  5.813676316747917E-005
  5.743773805307501E-005
  5.743773805307392E-005
  5.743773805307329E-005
  5.743773805307979E-005
  5.743773805307345E-005
  5.645834442288823E-005
  5.645834442289059E-005
  5.645834442289169E-005
  5.645834442288573E-005
  5.645834442288490E-005
  5.508643878700872E-005
  5.508643878700557E-005
  5.508643878701030E-005
  5.508643878701208E-005
  5.508643878701045E-005
  5.316501411395094E-005
  5.316501411395485E-005
  5.316501411395765E-005
  5.316501411394956E-005
  5.316501411395183E-005
  5.047428334534632E-005
  5.047428334533709E-005
  5.047428334533966E-005
  5.047428334533556E-005
  5.047428334533574E-005
  4.670663697515267E-005
  4.670663697515555E-005
  4.670663697514803E-005
  4.670663697514107E-005
  4.670663697513922E-005
  4.143170835479223E-005
  4.143170835478390E-005
  4.143170835477846E-005
  4.143170835478538E-005
  4.143170835479130E-005
  3.404784121371111E-005
  3.404784121371179E-005
  3.404784121371346E-005
  3.404784121371894E-005
  3.404784121372053E-005
  2.371527422714039E-005
  2.371527422714305E-005
  2.371527422713612E-005
  2.371527422713503E-005
  2.371527422713078E-005
  9.265991361306480E-006
  9.265991361303501E-006
  9.265991361305349E-006
  9.265991361304077E-006
  9.265991361312035E-006
 -1.091230975542985E-005
 -1.091230975542324E-005
 -1.091230975541803E-005
 -1.091230975541770E-005
 -1.091230975541878E-005
 -3.900812637664668E-005
 -3.900812637666418E-005
 -3.900812637666594E-005
 -3.900812637666157E-005
 -3.900812637666052E-005
 -7.787921380519508E-005
 -7.787921380518881E-005
 -7.787921380519928E-005
 -7.787921380521182E-005
 -7.787921380521202E-005
 -1.309080471112478E-004
 -1.309080471112426E-004
 -1.309080471112435E-004
 -1.309080471112472E-004
 -1.309080471112403E-004
 -2.009749888505335E-004
 -2.009749888505373E-004
 -2.009749888505353E-004
 -2.009749888505307E-004
 -2.009749888505280E-004
 -2.865472905637783E-004
 -2.865472905637663E-004
 -2.865472905637689E-004
 -2.865472905637737E-004
 -2.865472905637694E-004
 -3.687833967015885E-004
 -3.687833967015833E-004
 -3.687833967015838E-004
 -3.687833967015824E-004
 -3.687833967015800E-004
 -3.712180723761930E-004
 -3.712180723761859E-004
 -3.712180723761955E-004
 -3.712180723761893E-004
 -3.712180723761984E-004
 -3.653887721740711E-005
 -3.653887721740846E-005
 -3.653887721739754E-005
 -3.653887721741069E-005
 -3.653887721739614E-005
SCALARS poroP double 
LOOKUP_TABLE default
  0.000000000000000E+000
  0.000000000000000E+000
  0.000000000000000E+000
  0.000000000000000E+000
  0.000000000000000E+000
  0.000000000000000E+000
  0.000000000000000E+000
  0.000000000000000E+000
  0.000000000000000E+000
  0.000000000000000E+000
  0.000000000000000E+000
  0.000000000000000E+000
  0.000000000000000E+000
  0.000000000000000E+000
  0.000000000000000E+000
  0.000000000000000E+000
  0.000000000000000E+000
  0.000000000000000E+000
  0.000000000000000E+000
  0.000000000000000E+000
  0.000000000000000E+000
  0.000000000000000E+000
  0.000000000000000E+000
  0.000000000000000E+000
  0.000000000000000E+000
  0.000000000000000E+000
  0.000000000000000E+000
  0.000000000000000E+000
  0.000000000000000E+000
  0.000000000000000E+000
  0.000000000000000E+000
  0.000000000000000E+000
  0.000000000000000E+000
  0.000000000000000E+000
  0.000000000000000E+000
  0.000000000000000E+000
  0.000000000000000E+000
  0.000000000000000E+000
  0.000000000000000E+000
  0.000000000000000E+000
  0.000000000000000E+000
  0.000000000000000E+000
  0.000000000000000E+000
  0.000000000000000E+000
  0.000000000000000E+000
  0.000000000000000E+000
  0.000000000000000E+000
  0.000000000000000E+000
  0.000000000000000E+000
  0.000000000000000E+000
  0.000000000000000E+000
  0.000000000000000E+000
  0.000000000000000E+000
  0.000000000000000E+000
  0.000000000000000E+000
  0.000000000000000E+000
  0.000000000000000E+000
  0.000000000000000E+000
  0.000000000000000E+000
  0.000000000000000E+000
  0.000000000000000E+000
  0.000000000000000E+000
  0.000000000000000E+000
  0.000000000000000E+000
  0.000000000000000E+000
  0.000000000000000E+000
  0.000000000000000E+000
  0.000000000000000E+000
  0.000000000000000E+000
  0.000000000000000E+000
  0.000000000000000E+000
  0.000000000000000E+000
  0.000000000000000E+000
  0.000000000000000E+000
  0.000000000000000E+000
  0.000000000000000E+000
  0.000000000000000E+000
  0.000000000000000E+000
  0.000000000000000E+000
  0.000000000000000E+000
  0.000000000000000E+000
  0.000000000000000E+000
  0.000000000000000E+000
  0.000000000000000E+000
  0.000000000000000E+000
  0.000000000000000E+000
  0.000000000000000E+000
  0.000000000000000E+000
  0.000000000000000E+000
  0.000000000000000E+000
  0.000000000000000E+000
  0.000000000000000E+000
  0.000000000000000E+000
  0.000000000000000E+000
  0.000000000000000E+000
  0.000000000000000E+000
  0.000000000000000E+000
  0.000000000000000E+000
  0.000000000000000E+000
  0.000000000000000E+000
  0.000000000000000E+000
  0.000000000000000E+000
  0.000000000000000E+000
  0.000000000000000E+000
  0.000000000000000E+000
  0.000000000000000E+000
  0.000000000000000E+000
  0.000000000000000E+000
  0.000000000000000E+000
  0.000000000000000E+000
  0.000000000000000E+000
  0.000000000000000E+000
  0.000000000000000E+000
  0.000000000000000E+000
  0.000000000000000E+000
  0.000000000000000E+000
  0.000000000000000E+000
  0.000000000000000E+000
  0.000000000000000E+000
  0.000000000000000E+000
  0.000000000000000E+000
  0.000000000000000E+000
  0.000000000000000E+000
  0.000000000000000E+000
  0.000000000000000E+000
  0.000000000000000E+000
  0.000000000000000E+000
  0.000000000000000E+000
  0.000000000000000E+000
  0.000000000000000E+000
  0.000000000000000E+000
  0.000000000000000E+000
  0.000000000000000E+000
  0.000000000000000E+000
  0.000000000000000E+000
  0.000000000000000E+000
  0.000000000000000E+000
  0.000000000000000E+000
  0.000000000000000E+000
  0.000000000000000E+000
  0.000000000000000E+000
  0.000000000000000E+000
  0.000000000000000E+000
  0.000000000000000E+000
  0.000000000000000E+000
  0.000000000000000E+000
  0.000000000000000E+000
  0.000000000000000E+000
  0.000000000000000E+000
  0.000000000000000E+000
SCALARS elementIsPlast double 
LOOKUP_TABLE default
  0.000000000000000E+000
  0.000000000000000E+000
  0.000000000000000E+000
  0.000000000000000E+000
  0.000000000000000E+000
  0.000000000000000E+000
  0.000000000000000E+000
  0.000000000000000E+000
  0.000000000000000E+000
  0.000000000000000E+000
  0.000000000000000E+000
  0.000000000000000E+000
  0.000000000000000E+000
  0.000000000000000E+000
  0.000000000000000E+000
  0.000000000000000E+000
  0.000000000000000E+000
  0.000000000000000E+000
  0.000000000000000E+000
  0.000000000000000E+000
  0.000000000000000E+000
  0.000000000000000E+000
  0.000000000000000E+000
  0.000000000000000E+000
  0.000000000000000E+000
  0.000000000000000E+000
  0.000000000000000E+000
  0.000000000000000E+000
  0.000000000000000E+000
  0.000000000000000E+000
  0.000000000000000E+000
  0.000000000000000E+000
  0.000000000000000E+000
  0.000000000000000E+000
  0.000000000000000E+000
  0.000000000000000E+000
  0.000000000000000E+000
  0.000000000000000E+000
  0.000000000000000E+000
  0.000000000000000E+000
  0.000000000000000E+000
  0.000000000000000E+000
  0.000000000000000E+000
  0.000000000000000E+000
  0.000000000000000E+000
  0.000000000000000E+000
  0.000000000000000E+000
  0.000000000000000E+000
  0.000000000000000E+000
  0.000000000000000E+000
  0.000000000000000E+000
  0.000000000000000E+000
  0.000000000000000E+000
  0.000000000000000E+000
  0.000000000000000E+000
  0.000000000000000E+000
  0.000000000000000E+000
  0.000000000000000E+000
  0.000000000000000E+000
  0.000000000000000E+000
  0.000000000000000E+000
  0.000000000000000E+000
  0.000000000000000E+000
  0.000000000000000E+000
  0.000000000000000E+000
  0.000000000000000E+000
  0.000000000000000E+000
  0.000000000000000E+000
  0.000000000000000E+000
  0.000000000000000E+000
  0.000000000000000E+000
  0.000000000000000E+000
  0.000000000000000E+000
  0.000000000000000E+000
  0.000000000000000E+000
  0.000000000000000E+000
  0.000000000000000E+000
  0.000000000000000E+000
  0.000000000000000E+000
  0.000000000000000E+000
  0.000000000000000E+000
  0.000000000000000E+000
  0.000000000000000E+000
  0.000000000000000E+000
  0.000000000000000E+000
  0.000000000000000E+000
  0.000000000000000E+000
  0.000000000000000E+000
  0.000000000000000E+000
  0.000000000000000E+000
  0.000000000000000E+000
  0.000000000000000E+000
  0.000000000000000E+000
  0.000000000000000E+000
  0.000000000000000E+000
  0.000000000000000E+000
  0.000000000000000E+000
  0.000000000000000E+000
  0.000000000000000E+000
  0.000000000000000E+000
  0.000000000000000E+000
  0.000000000000000E+000
  0.000000000000000E+000
  0.000000000000000E+000
  0.000000000000000E+000
  0.000000000000000E+000
  0.000000000000000E+000
  0.000000000000000E+000
  0.000000000000000E+000
  0.000000000000000E+000
  0.000000000000000E+000
  0.000000000000000E+000
  0.000000000000000E+000
  0.000000000000000E+000
  0.000000000000000E+000
  0.000000000000000E+000
  0.000000000000000E+000
  0.000000000000000E+000
  0.000000000000000E+000
  0.000000000000000E+000
  0.000000000000000E+000
  0.000000000000000E+000
  0.000000000000000E+000
  0.000000000000000E+000
  0.000000000000000E+000
  0.000000000000000E+000
  0.000000000000000E+000
  0.000000000000000E+000
  0.000000000000000E+000
  0.000000000000000E+000
  0.000000000000000E+000
  0.000000000000000E+000
  0.000000000000000E+000
  0.000000000000000E+000
  0.000000000000000E+000
  0.000000000000000E+000
  0.000000000000000E+000
  0.000000000000000E+000
  0.000000000000000E+000
  0.000000000000000E+000
  0.000000000000000E+000
  0.000000000000000E+000
  0.000000000000000E+000
  0.000000000000000E+000
  0.000000000000000E+000
  0.000000000000000E+000
  0.000000000000000E+000
  0.000000000000000E+000
  0.000000000000000E+000
  0.000000000000000E+000
SCALARS poroL double 
LOOKUP_TABLE default
  0.199999728233296     
  0.199999728233296     
  0.199999728233296     
  0.199999728233296     
  0.199999728233296     
  0.199999702757775     
  0.199999702757775     
  0.199999702757775     
  0.199999702757775     
  0.199999702757775     
  0.199999648877490     
  0.199999648877490     
  0.199999648877490     
  0.199999648877490     
  0.199999648877490     
  0.199999560398929     
  0.199999560398929     
  0.199999560398929     
  0.199999560398929     
  0.199999560398929     
  0.199999427155992     
  0.199999427155992     
  0.199999427155992     
  0.199999427155992     
  0.199999427155992     
  0.199999233847482     
  0.199999233847482     
  0.199999233847482     
  0.199999233847482     
  0.199999233847482     
  0.199998958287585     
  0.199998958287585     
  0.199998958287585     
  0.199998958287585     
  0.199998958287585     
  0.199998568869526     
  0.199998568869526     
  0.199998568869526     
  0.199998568869526     
  0.199998568869526     
  0.199998020952598     
  0.199998020952598     
  0.199998020952598     
  0.199998020952598     
  0.199998020952598     
  0.199997251759822     
  0.199997251759822     
  0.199997251759822     
  0.199997251759822     
  0.199997251759822     
  0.199996173203252     
  0.199996173203252     
  0.199996173203252     
  0.199996173203252     
  0.199996173203252     
  0.199994661817145     
  0.199994661817145     
  0.199994661817145     
  0.199994661817145     
  0.199994661817145     
  0.199992544648743     
  0.199992544648743     
  0.199992544648743     
  0.199992544648743     
  0.199992544648743     
  0.199989579494574     
  0.199989579494574     
  0.199989579494574     
  0.199989579494574     
  0.199989579494574     
  0.199985427224386     
  0.199985427224386     
  0.199985427224386     
  0.199985427224386     
  0.199985427224386     
  0.199979613031925     
  0.199979613031925     
  0.199979613031925     
  0.199979613031925     
  0.199979613031925     
  0.199971472190465     
  0.199971472190465     
  0.199971472190465     
  0.199971472190465     
  0.199971472190465     
  0.199960074132711     
  0.199960074132711     
  0.199960074132711     
  0.199960074132711     
  0.199960074132711     
  0.199944116235678     
  0.199944116235678     
  0.199944116235678     
  0.199944116235678     
  0.199944116235678     
  0.199921775343530     
  0.199921775343530     
  0.199921775343530     
  0.199921775343530     
  0.199921775343530     
  0.199890500575894     
  0.199890500575894     
  0.199890500575894     
  0.199890500575894     
  0.199890500575894     
  0.199846725292776     
  0.199846725292776     
  0.199846725292776     
  0.199846725292776     
  0.199846725292776     
  0.199785469949958     
  0.199785469949958     
  0.199785469949958     
  0.199785469949958     
  0.199785469949958     
  0.199699804415467     
  0.199699804415467     
  0.199699804415467     
  0.199699804415467     
  0.199699804415467     
  0.199580150175365     
  0.199580150175365     
  0.199580150175365     
  0.199580150175365     
  0.199580150175365     
  0.199413468315988     
  0.199413468315988     
  0.199413468315988     
  0.199413468315988     
  0.199413468315988     
  0.199182617386207     
  0.199182617386207     
  0.199182617386207     
  0.199182617386207     
  0.199182617386207     
  0.198866938467532     
  0.198866938467532     
  0.198866938467532     
  0.198866938467532     
  0.198866938467532     
  0.198447526458042     
  0.198447526458042     
  0.198447526458042     
  0.198447526458042     
  0.198447526458042     
  0.197927966418675     
  0.197927966418675     
  0.197927966418675     
  0.197927966418675     
  0.197927966418675     
POINT_DATA        186
SCALARS solMandel double 
LOOKUP_TABLE default
   261552.868905726     
   261552.868905726     
   261552.868905726     
   261552.868905726     
   261552.868905726     
   261552.868905726     
   261552.883309185     
   261552.883309185     
   261552.883309185     
   261552.883309185     
   261552.883309185     
   261552.883309185     
   261552.924241073     
   261552.924241073     
   261552.924241073     
   261552.924241073     
   261552.924241073     
   261552.924241073     
   261552.985131979     
   261552.985131979     
   261552.985131979     
   261552.985131979     
   261552.985131979     
   261552.985131979     
   261553.055815073     
   261553.055815073     
   261553.055815073     
   261553.055815073     
   261553.055815073     
   261553.055815073     
   261553.123091763     
   261553.123091763     
   261553.123091763     
   261553.123091763     
   261553.123091763     
   261553.123091763     
   261553.169314578     
   261553.169314578     
   261553.169314578     
   261553.169314578     
   261553.169314578     
   261553.169314578     
   261553.163810949     
   261553.163810949     
   261553.163810949     
   261553.163810949     
   261553.163810949     
   261553.163810949     
   261553.033901114     
   261553.033901114     
   261553.033901114     
   261553.033901114     
   261553.033901114     
   261553.033901114     
   261552.583327468     
   261552.583327468     
   261552.583327468     
   261552.583327468     
   261552.583327468     
   261552.583327468     
   261551.283864781     
   261551.283864781     
   261551.283864781     
   261551.283864781     
   261551.283864781     
   261551.283864781     
   261547.779324461     
   261547.779324461     
   261547.779324461     
   261547.779324461     
   261547.779324461     
   261547.779324461     
   261538.778514571     
   261538.778514571     
   261538.778514571     
   261538.778514571     
   261538.778514571     
   261538.778514571     
   261516.739156582     
   261516.739156582     
   261516.739156582     
   261516.739156582     
   261516.739156582     
   261516.739156582     
   261465.339166026     
   261465.339166026     
   261465.339166026     
   261465.339166026     
   261465.339166026     
   261465.339166026     
   261351.236187597     
   261351.236187597     
   261351.236187597     
   261351.236187597     
   261351.236187597     
   261351.236187597     
   261110.196791355     
   261110.196791355     
   261110.196791355     
   261110.196791355     
   261110.196791355     
   261110.196791355     
   260625.684962093     
   260625.684962093     
   260625.684962093     
   260625.684962093     
   260625.684962093     
   260625.684962093     
   259698.971213280     
   259698.971213280     
   259698.971213280     
   259698.971213280     
   259698.971213280     
   259698.971213280     
   258012.331794358     
   258012.331794358     
   258012.331794358     
   258012.331794358     
   258012.331794358     
   258012.331794358     
   255091.212277957     
   255091.212277957     
   255091.212277957     
   255091.212277957     
   255091.212277957     
   255091.212277957     
   250276.778492310     
   250276.778492310     
   250276.778492310     
   250276.778492310     
   250276.778492310     
   250276.778492310     
   242725.291593333     
   242725.291593333     
   242725.291593333     
   242725.291593333     
   242725.291593333     
   242725.291593333     
   231452.291461688     
   231452.291461688     
   231452.291461688     
   231452.291461688     
   231452.291461688     
   231452.291461688     
   215434.486223651     
   215434.486223651     
   215434.486223651     
   215434.486223651     
   215434.486223651     
   215434.486223651     
   193768.861966073     
   193768.861966073     
   193768.861966073     
   193768.861966073     
   193768.861966073     
   193768.861966073     
   165868.576885329     
   165868.576885329     
   165868.576885329     
   165868.576885329     
   165868.576885329     
   165868.576885329     
   131654.643015395     
   131654.643015395     
   131654.643015395     
   131654.643015395     
   131654.643015395     
   131654.643015395     
   91690.0505816560     
   91690.0505816560     
   91690.0505816560     
   91690.0505816560     
   91690.0505816560     
   91690.0505816560     
   47206.8975617282     
   47206.8975617282     
   47206.8975617282     
   47206.8975617282     
   47206.8975617282     
   47206.8975617282     
  3.142834893477604E-010
  2.414837703474803E-010
  3.142834893477604E-010
  2.414837703474803E-010
  3.142834893477604E-010
  3.142834893477604E-010
