# vtk DataFile Version 3.0
vtk output
ASCII
DATASET UNSTRUCTURED_GRID
POINTS       496 double 
  0.00000000E+00  3.00000000E+02  0.00000000E+00
  0.00000000E+00  2.80000000E+02  0.00000000E+00
  0.00000000E+00  2.60000000E+02  0.00000000E+00
  0.00000000E+00  2.40000000E+02  0.00000000E+00
  0.00000000E+00  2.20000000E+02  0.00000000E+00
  0.00000000E+00  2.00000000E+02  0.00000000E+00
  0.00000000E+00  1.80000000E+02  0.00000000E+00
  0.00000000E+00  1.60000000E+02  0.00000000E+00
  0.00000000E+00  1.40000000E+02  0.00000000E+00
  0.00000000E+00  1.20000000E+02  0.00000000E+00
  0.00000000E+00  1.00000000E+02  0.00000000E+00
  0.00000000E+00  8.00000000E+01  0.00000000E+00
  0.00000000E+00  6.00000000E+01  0.00000000E+00
  0.00000000E+00  4.00000000E+01  0.00000000E+00
  0.00000000E+00  2.00000000E+01  0.00000000E+00
  0.00000000E+00  4.99600361E-14  0.00000000E+00
  2.00000000E+01  3.00000000E+02  0.00000000E+00
  2.00000000E+01  2.80000000E+02  0.00000000E+00
  2.00000000E+01  2.60000000E+02  0.00000000E+00
  2.00000000E+01  2.40000000E+02  0.00000000E+00
  2.00000000E+01  2.20000000E+02  0.00000000E+00
  2.00000000E+01  2.00000000E+02  0.00000000E+00
  2.00000000E+01  1.80000000E+02  0.00000000E+00
  2.00000000E+01  1.60000000E+02  0.00000000E+00
  2.00000000E+01  1.40000000E+02  0.00000000E+00
  2.00000000E+01  1.20000000E+02  0.00000000E+00
  2.00000000E+01  1.00000000E+02  0.00000000E+00
  2.00000000E+01  8.00000000E+01  0.00000000E+00
  2.00000000E+01  6.00000000E+01  0.00000000E+00
  2.00000000E+01  4.00000000E+01  0.00000000E+00
  2.00000000E+01  2.00000000E+01  0.00000000E+00
  2.00000000E+01  4.99600361E-14  0.00000000E+00
  4.00000000E+01  3.00000000E+02  0.00000000E+00
  4.00000000E+01  2.80000000E+02  0.00000000E+00
  4.00000000E+01  2.60000000E+02  0.00000000E+00
  4.00000000E+01  2.40000000E+02  0.00000000E+00
  4.00000000E+01  2.20000000E+02  0.00000000E+00
  4.00000000E+01  2.00000000E+02  0.00000000E+00
  4.00000000E+01  1.80000000E+02  0.00000000E+00
  4.00000000E+01  1.60000000E+02  0.00000000E+00
  4.00000000E+01  1.40000000E+02  0.00000000E+00
  4.00000000E+01  1.20000000E+02  0.00000000E+00
  4.00000000E+01  1.00000000E+02  0.00000000E+00
  4.00000000E+01  8.00000000E+01  0.00000000E+00
  4.00000000E+01  6.00000000E+01  0.00000000E+00
  4.00000000E+01  4.00000000E+01  0.00000000E+00
  4.00000000E+01  2.00000000E+01  0.00000000E+00
  4.00000000E+01  4.99600361E-14  0.00000000E+00
  6.00000000E+01  3.00000000E+02  0.00000000E+00
  6.00000000E+01  2.80000000E+02  0.00000000E+00
  6.00000000E+01  2.60000000E+02  0.00000000E+00
  6.00000000E+01  2.40000000E+02  0.00000000E+00
  6.00000000E+01  2.20000000E+02  0.00000000E+00
  6.00000000E+01  2.00000000E+02  0.00000000E+00
  6.00000000E+01  1.80000000E+02  0.00000000E+00
  6.00000000E+01  1.60000000E+02  0.00000000E+00
  6.00000000E+01  1.40000000E+02  0.00000000E+00
  6.00000000E+01  1.20000000E+02  0.00000000E+00
  6.00000000E+01  1.00000000E+02  0.00000000E+00
  6.00000000E+01  8.00000000E+01  0.00000000E+00
  6.00000000E+01  6.00000000E+01  0.00000000E+00
  6.00000000E+01  4.00000000E+01  0.00000000E+00
  6.00000000E+01  2.00000000E+01  0.00000000E+00
  6.00000000E+01  4.99600361E-14  0.00000000E+00
  8.00000000E+01  3.00000000E+02  0.00000000E+00
  8.00000000E+01  2.80000000E+02  0.00000000E+00
  8.00000000E+01  2.60000000E+02  0.00000000E+00
  8.00000000E+01  2.40000000E+02  0.00000000E+00
  8.00000000E+01  2.20000000E+02  0.00000000E+00
  8.00000000E+01  2.00000000E+02  0.00000000E+00
  8.00000000E+01  1.80000000E+02  0.00000000E+00
  8.00000000E+01  1.60000000E+02  0.00000000E+00
  8.00000000E+01  1.40000000E+02  0.00000000E+00
  8.00000000E+01  1.20000000E+02  0.00000000E+00
  8.00000000E+01  1.00000000E+02  0.00000000E+00
  8.00000000E+01  8.00000000E+01  0.00000000E+00
  8.00000000E+01  6.00000000E+01  0.00000000E+00
  8.00000000E+01  4.00000000E+01  0.00000000E+00
  8.00000000E+01  2.00000000E+01  0.00000000E+00
  8.00000000E+01  4.99600361E-14  0.00000000E+00
  1.00000000E+02  3.00000000E+02  0.00000000E+00
  1.00000000E+02  2.80000000E+02  0.00000000E+00
  1.00000000E+02  2.60000000E+02  0.00000000E+00
  1.00000000E+02  2.40000000E+02  0.00000000E+00
  1.00000000E+02  2.20000000E+02  0.00000000E+00
  1.00000000E+02  2.00000000E+02  0.00000000E+00
  1.00000000E+02  1.80000000E+02  0.00000000E+00
  1.00000000E+02  1.60000000E+02  0.00000000E+00
  1.00000000E+02  1.40000000E+02  0.00000000E+00
  1.00000000E+02  1.20000000E+02  0.00000000E+00
  1.00000000E+02  1.00000000E+02  0.00000000E+00
  1.00000000E+02  8.00000000E+01  0.00000000E+00
  1.00000000E+02  6.00000000E+01  0.00000000E+00
  1.00000000E+02  4.00000000E+01  0.00000000E+00
  1.00000000E+02  2.00000000E+01  0.00000000E+00
  1.00000000E+02  4.99600361E-14  0.00000000E+00
  1.20000000E+02  3.00000000E+02  0.00000000E+00
  1.20000000E+02  2.80000000E+02  0.00000000E+00
  1.20000000E+02  2.60000000E+02  0.00000000E+00
  1.20000000E+02  2.40000000E+02  0.00000000E+00
  1.20000000E+02  2.20000000E+02  0.00000000E+00
  1.20000000E+02  2.00000000E+02  0.00000000E+00
  1.20000000E+02  1.80000000E+02  0.00000000E+00
  1.20000000E+02  1.60000000E+02  0.00000000E+00
  1.20000000E+02  1.40000000E+02  0.00000000E+00
  1.20000000E+02  1.20000000E+02  0.00000000E+00
  1.20000000E+02  1.00000000E+02  0.00000000E+00
  1.20000000E+02  8.00000000E+01  0.00000000E+00
  1.20000000E+02  6.00000000E+01  0.00000000E+00
  1.20000000E+02  4.00000000E+01  0.00000000E+00
  1.20000000E+02  2.00000000E+01  0.00000000E+00
  1.20000000E+02  4.99600361E-14  0.00000000E+00
  1.40000000E+02  3.00000000E+02  0.00000000E+00
  1.40000000E+02  2.80000000E+02  0.00000000E+00
  1.40000000E+02  2.60000000E+02  0.00000000E+00
  1.40000000E+02  2.40000000E+02  0.00000000E+00
  1.40000000E+02  2.20000000E+02  0.00000000E+00
  1.40000000E+02  2.00000000E+02  0.00000000E+00
  1.40000000E+02  1.80000000E+02  0.00000000E+00
  1.40000000E+02  1.60000000E+02  0.00000000E+00
  1.40000000E+02  1.40000000E+02  0.00000000E+00
  1.40000000E+02  1.20000000E+02  0.00000000E+00
  1.40000000E+02  1.00000000E+02  0.00000000E+00
  1.40000000E+02  8.00000000E+01  0.00000000E+00
  1.40000000E+02  6.00000000E+01  0.00000000E+00
  1.40000000E+02  4.00000000E+01  0.00000000E+00
  1.40000000E+02  2.00000000E+01  0.00000000E+00
  1.40000000E+02  4.99600361E-14  0.00000000E+00
  1.60000000E+02  3.00000000E+02  0.00000000E+00
  1.60000000E+02  2.80000000E+02  0.00000000E+00
  1.60000000E+02  2.60000000E+02  0.00000000E+00
  1.60000000E+02  2.40000000E+02  0.00000000E+00
  1.60000000E+02  2.20000000E+02  0.00000000E+00
  1.60000000E+02  2.00000000E+02  0.00000000E+00
  1.60000000E+02  1.80000000E+02  0.00000000E+00
  1.60000000E+02  1.60000000E+02  0.00000000E+00
  1.60000000E+02  1.40000000E+02  0.00000000E+00
  1.60000000E+02  1.20000000E+02  0.00000000E+00
  1.60000000E+02  1.00000000E+02  0.00000000E+00
  1.60000000E+02  8.00000000E+01  0.00000000E+00
  1.60000000E+02  6.00000000E+01  0.00000000E+00
  1.60000000E+02  4.00000000E+01  0.00000000E+00
  1.60000000E+02  2.00000000E+01  0.00000000E+00
  1.60000000E+02  4.99600361E-14  0.00000000E+00
  1.80000000E+02  3.00000000E+02  0.00000000E+00
  1.80000000E+02  2.80000000E+02  0.00000000E+00
  1.80000000E+02  2.60000000E+02  0.00000000E+00
  1.80000000E+02  2.40000000E+02  0.00000000E+00
  1.80000000E+02  2.20000000E+02  0.00000000E+00
  1.80000000E+02  2.00000000E+02  0.00000000E+00
  1.80000000E+02  1.80000000E+02  0.00000000E+00
  1.80000000E+02  1.60000000E+02  0.00000000E+00
  1.80000000E+02  1.40000000E+02  0.00000000E+00
  1.80000000E+02  1.20000000E+02  0.00000000E+00
  1.80000000E+02  1.00000000E+02  0.00000000E+00
  1.80000000E+02  8.00000000E+01  0.00000000E+00
  1.80000000E+02  6.00000000E+01  0.00000000E+00
  1.80000000E+02  4.00000000E+01  0.00000000E+00
  1.80000000E+02  2.00000000E+01  0.00000000E+00
  1.80000000E+02  4.99600361E-14  0.00000000E+00
  2.00000000E+02  3.00000000E+02  0.00000000E+00
  2.00000000E+02  2.80000000E+02  0.00000000E+00
  2.00000000E+02  2.60000000E+02  0.00000000E+00
  2.00000000E+02  2.40000000E+02  0.00000000E+00
  2.00000000E+02  2.20000000E+02  0.00000000E+00
  2.00000000E+02  2.00000000E+02  0.00000000E+00
  2.00000000E+02  1.80000000E+02  0.00000000E+00
  2.00000000E+02  1.60000000E+02  0.00000000E+00
  2.00000000E+02  1.40000000E+02  0.00000000E+00
  2.00000000E+02  1.20000000E+02  0.00000000E+00
  2.00000000E+02  1.00000000E+02  0.00000000E+00
  2.00000000E+02  8.00000000E+01  0.00000000E+00
  2.00000000E+02  6.00000000E+01  0.00000000E+00
  2.00000000E+02  4.00000000E+01  0.00000000E+00
  2.00000000E+02  2.00000000E+01  0.00000000E+00
  2.00000000E+02  4.99600361E-14  0.00000000E+00
  2.20000000E+02  3.00000000E+02  0.00000000E+00
  2.20000000E+02  2.80000000E+02  0.00000000E+00
  2.20000000E+02  2.60000000E+02  0.00000000E+00
  2.20000000E+02  2.40000000E+02  0.00000000E+00
  2.20000000E+02  2.20000000E+02  0.00000000E+00
  2.20000000E+02  2.00000000E+02  0.00000000E+00
  2.20000000E+02  1.80000000E+02  0.00000000E+00
  2.20000000E+02  1.60000000E+02  0.00000000E+00
  2.20000000E+02  1.40000000E+02  0.00000000E+00
  2.20000000E+02  1.20000000E+02  0.00000000E+00
  2.20000000E+02  1.00000000E+02  0.00000000E+00
  2.20000000E+02  8.00000000E+01  0.00000000E+00
  2.20000000E+02  6.00000000E+01  0.00000000E+00
  2.20000000E+02  4.00000000E+01  0.00000000E+00
  2.20000000E+02  2.00000000E+01  0.00000000E+00
  2.20000000E+02  4.99600361E-14  0.00000000E+00
  2.40000000E+02  3.00000000E+02  0.00000000E+00
  2.40000000E+02  2.80000000E+02  0.00000000E+00
  2.40000000E+02  2.60000000E+02  0.00000000E+00
  2.40000000E+02  2.40000000E+02  0.00000000E+00
  2.40000000E+02  2.20000000E+02  0.00000000E+00
  2.40000000E+02  2.00000000E+02  0.00000000E+00
  2.40000000E+02  1.80000000E+02  0.00000000E+00
  2.40000000E+02  1.60000000E+02  0.00000000E+00
  2.40000000E+02  1.40000000E+02  0.00000000E+00
  2.40000000E+02  1.20000000E+02  0.00000000E+00
  2.40000000E+02  1.00000000E+02  0.00000000E+00
  2.40000000E+02  8.00000000E+01  0.00000000E+00
  2.40000000E+02  6.00000000E+01  0.00000000E+00
  2.40000000E+02  4.00000000E+01  0.00000000E+00
  2.40000000E+02  2.00000000E+01  0.00000000E+00
  2.40000000E+02  4.99600361E-14  0.00000000E+00
  2.60000000E+02  3.00000000E+02  0.00000000E+00
  2.60000000E+02  2.80000000E+02  0.00000000E+00
  2.60000000E+02  2.60000000E+02  0.00000000E+00
  2.60000000E+02  2.40000000E+02  0.00000000E+00
  2.60000000E+02  2.20000000E+02  0.00000000E+00
  2.60000000E+02  2.00000000E+02  0.00000000E+00
  2.60000000E+02  1.80000000E+02  0.00000000E+00
  2.60000000E+02  1.60000000E+02  0.00000000E+00
  2.60000000E+02  1.40000000E+02  0.00000000E+00
  2.60000000E+02  1.20000000E+02  0.00000000E+00
  2.60000000E+02  1.00000000E+02  0.00000000E+00
  2.60000000E+02  8.00000000E+01  0.00000000E+00
  2.60000000E+02  6.00000000E+01  0.00000000E+00
  2.60000000E+02  4.00000000E+01  0.00000000E+00
  2.60000000E+02  2.00000000E+01  0.00000000E+00
  2.60000000E+02  4.99600361E-14  0.00000000E+00
  2.80000000E+02  3.00000000E+02  0.00000000E+00
  2.80000000E+02  2.80000000E+02  0.00000000E+00
  2.80000000E+02  2.60000000E+02  0.00000000E+00
  2.80000000E+02  2.40000000E+02  0.00000000E+00
  2.80000000E+02  2.20000000E+02  0.00000000E+00
  2.80000000E+02  2.00000000E+02  0.00000000E+00
  2.80000000E+02  1.80000000E+02  0.00000000E+00
  2.80000000E+02  1.60000000E+02  0.00000000E+00
  2.80000000E+02  1.40000000E+02  0.00000000E+00
  2.80000000E+02  1.20000000E+02  0.00000000E+00
  2.80000000E+02  1.00000000E+02  0.00000000E+00
  2.80000000E+02  8.00000000E+01  0.00000000E+00
  2.80000000E+02  6.00000000E+01  0.00000000E+00
  2.80000000E+02  4.00000000E+01  0.00000000E+00
  2.80000000E+02  2.00000000E+01  0.00000000E+00
  2.80000000E+02  4.99600361E-14  0.00000000E+00
  3.00000000E+02  3.00000000E+02  0.00000000E+00
  3.00000000E+02  2.80000000E+02  0.00000000E+00
  3.00000000E+02  2.60000000E+02  0.00000000E+00
  3.00000000E+02  2.40000000E+02  0.00000000E+00
  3.00000000E+02  2.20000000E+02  0.00000000E+00
  3.00000000E+02  2.00000000E+02  0.00000000E+00
  3.00000000E+02  1.80000000E+02  0.00000000E+00
  3.00000000E+02  1.60000000E+02  0.00000000E+00
  3.00000000E+02  1.40000000E+02  0.00000000E+00
  3.00000000E+02  1.20000000E+02  0.00000000E+00
  3.00000000E+02  1.00000000E+02  0.00000000E+00
  3.00000000E+02  8.00000000E+01  0.00000000E+00
  3.00000000E+02  6.00000000E+01  0.00000000E+00
  3.00000000E+02  4.00000000E+01  0.00000000E+00
  3.00000000E+02  2.00000000E+01  0.00000000E+00
  3.00000000E+02  4.99600361E-14  0.00000000E+00
  3.20000000E+02  3.00000000E+02  0.00000000E+00
  3.20000000E+02  2.80000000E+02  0.00000000E+00
  3.20000000E+02  2.60000000E+02  0.00000000E+00
  3.20000000E+02  2.40000000E+02  0.00000000E+00
  3.20000000E+02  2.20000000E+02  0.00000000E+00
  3.20000000E+02  2.00000000E+02  0.00000000E+00
  3.20000000E+02  1.80000000E+02  0.00000000E+00
  3.20000000E+02  1.60000000E+02  0.00000000E+00
  3.20000000E+02  1.40000000E+02  0.00000000E+00
  3.20000000E+02  1.20000000E+02  0.00000000E+00
  3.20000000E+02  1.00000000E+02  0.00000000E+00
  3.20000000E+02  8.00000000E+01  0.00000000E+00
  3.20000000E+02  6.00000000E+01  0.00000000E+00
  3.20000000E+02  4.00000000E+01  0.00000000E+00
  3.20000000E+02  2.00000000E+01  0.00000000E+00
  3.20000000E+02  4.99600361E-14  0.00000000E+00
  3.40000000E+02  3.00000000E+02  0.00000000E+00
  3.40000000E+02  2.80000000E+02  0.00000000E+00
  3.40000000E+02  2.60000000E+02  0.00000000E+00
  3.40000000E+02  2.40000000E+02  0.00000000E+00
  3.40000000E+02  2.20000000E+02  0.00000000E+00
  3.40000000E+02  2.00000000E+02  0.00000000E+00
  3.40000000E+02  1.80000000E+02  0.00000000E+00
  3.40000000E+02  1.60000000E+02  0.00000000E+00
  3.40000000E+02  1.40000000E+02  0.00000000E+00
  3.40000000E+02  1.20000000E+02  0.00000000E+00
  3.40000000E+02  1.00000000E+02  0.00000000E+00
  3.40000000E+02  8.00000000E+01  0.00000000E+00
  3.40000000E+02  6.00000000E+01  0.00000000E+00
  3.40000000E+02  4.00000000E+01  0.00000000E+00
  3.40000000E+02  2.00000000E+01  0.00000000E+00
  3.40000000E+02  4.99600361E-14  0.00000000E+00
  3.60000000E+02  3.00000000E+02  0.00000000E+00
  3.60000000E+02  2.80000000E+02  0.00000000E+00
  3.60000000E+02  2.60000000E+02  0.00000000E+00
  3.60000000E+02  2.40000000E+02  0.00000000E+00
  3.60000000E+02  2.20000000E+02  0.00000000E+00
  3.60000000E+02  2.00000000E+02  0.00000000E+00
  3.60000000E+02  1.80000000E+02  0.00000000E+00
  3.60000000E+02  1.60000000E+02  0.00000000E+00
  3.60000000E+02  1.40000000E+02  0.00000000E+00
  3.60000000E+02  1.20000000E+02  0.00000000E+00
  3.60000000E+02  1.00000000E+02  0.00000000E+00
  3.60000000E+02  8.00000000E+01  0.00000000E+00
  3.60000000E+02  6.00000000E+01  0.00000000E+00
  3.60000000E+02  4.00000000E+01  0.00000000E+00
  3.60000000E+02  2.00000000E+01  0.00000000E+00
  3.60000000E+02  4.99600361E-14  0.00000000E+00
  3.80000000E+02  3.00000000E+02  0.00000000E+00
  3.80000000E+02  2.80000000E+02  0.00000000E+00
  3.80000000E+02  2.60000000E+02  0.00000000E+00
  3.80000000E+02  2.40000000E+02  0.00000000E+00
  3.80000000E+02  2.20000000E+02  0.00000000E+00
  3.80000000E+02  2.00000000E+02  0.00000000E+00
  3.80000000E+02  1.80000000E+02  0.00000000E+00
  3.80000000E+02  1.60000000E+02  0.00000000E+00
  3.80000000E+02  1.40000000E+02  0.00000000E+00
  3.80000000E+02  1.20000000E+02  0.00000000E+00
  3.80000000E+02  1.00000000E+02  0.00000000E+00
  3.80000000E+02  8.00000000E+01  0.00000000E+00
  3.80000000E+02  6.00000000E+01  0.00000000E+00
  3.80000000E+02  4.00000000E+01  0.00000000E+00
  3.80000000E+02  2.00000000E+01  0.00000000E+00
  3.80000000E+02  4.99600361E-14  0.00000000E+00
  4.00000000E+02  3.00000000E+02  0.00000000E+00
  4.00000000E+02  2.80000000E+02  0.00000000E+00
  4.00000000E+02  2.60000000E+02  0.00000000E+00
  4.00000000E+02  2.40000000E+02  0.00000000E+00
  4.00000000E+02  2.20000000E+02  0.00000000E+00
  4.00000000E+02  2.00000000E+02  0.00000000E+00
  4.00000000E+02  1.80000000E+02  0.00000000E+00
  4.00000000E+02  1.60000000E+02  0.00000000E+00
  4.00000000E+02  1.40000000E+02  0.00000000E+00
  4.00000000E+02  1.20000000E+02  0.00000000E+00
  4.00000000E+02  1.00000000E+02  0.00000000E+00
  4.00000000E+02  8.00000000E+01  0.00000000E+00
  4.00000000E+02  6.00000000E+01  0.00000000E+00
  4.00000000E+02  4.00000000E+01  0.00000000E+00
  4.00000000E+02  2.00000000E+01  0.00000000E+00
  4.00000000E+02  4.99600361E-14  0.00000000E+00
  4.20000000E+02  3.00000000E+02  0.00000000E+00
  4.20000000E+02  2.80000000E+02  0.00000000E+00
  4.20000000E+02  2.60000000E+02  0.00000000E+00
  4.20000000E+02  2.40000000E+02  0.00000000E+00
  4.20000000E+02  2.20000000E+02  0.00000000E+00
  4.20000000E+02  2.00000000E+02  0.00000000E+00
  4.20000000E+02  1.80000000E+02  0.00000000E+00
  4.20000000E+02  1.60000000E+02  0.00000000E+00
  4.20000000E+02  1.40000000E+02  0.00000000E+00
  4.20000000E+02  1.20000000E+02  0.00000000E+00
  4.20000000E+02  1.00000000E+02  0.00000000E+00
  4.20000000E+02  8.00000000E+01  0.00000000E+00
  4.20000000E+02  6.00000000E+01  0.00000000E+00
  4.20000000E+02  4.00000000E+01  0.00000000E+00
  4.20000000E+02  2.00000000E+01  0.00000000E+00
  4.20000000E+02  4.99600361E-14  0.00000000E+00
  4.40000000E+02  3.00000000E+02  0.00000000E+00
  4.40000000E+02  2.80000000E+02  0.00000000E+00
  4.40000000E+02  2.60000000E+02  0.00000000E+00
  4.40000000E+02  2.40000000E+02  0.00000000E+00
  4.40000000E+02  2.20000000E+02  0.00000000E+00
  4.40000000E+02  2.00000000E+02  0.00000000E+00
  4.40000000E+02  1.80000000E+02  0.00000000E+00
  4.40000000E+02  1.60000000E+02  0.00000000E+00
  4.40000000E+02  1.40000000E+02  0.00000000E+00
  4.40000000E+02  1.20000000E+02  0.00000000E+00
  4.40000000E+02  1.00000000E+02  0.00000000E+00
  4.40000000E+02  8.00000000E+01  0.00000000E+00
  4.40000000E+02  6.00000000E+01  0.00000000E+00
  4.40000000E+02  4.00000000E+01  0.00000000E+00
  4.40000000E+02  2.00000000E+01  0.00000000E+00
  4.40000000E+02  4.99600361E-14  0.00000000E+00
  4.60000000E+02  3.00000000E+02  0.00000000E+00
  4.60000000E+02  2.80000000E+02  0.00000000E+00
  4.60000000E+02  2.60000000E+02  0.00000000E+00
  4.60000000E+02  2.40000000E+02  0.00000000E+00
  4.60000000E+02  2.20000000E+02  0.00000000E+00
  4.60000000E+02  2.00000000E+02  0.00000000E+00
  4.60000000E+02  1.80000000E+02  0.00000000E+00
  4.60000000E+02  1.60000000E+02  0.00000000E+00
  4.60000000E+02  1.40000000E+02  0.00000000E+00
  4.60000000E+02  1.20000000E+02  0.00000000E+00
  4.60000000E+02  1.00000000E+02  0.00000000E+00
  4.60000000E+02  8.00000000E+01  0.00000000E+00
  4.60000000E+02  6.00000000E+01  0.00000000E+00
  4.60000000E+02  4.00000000E+01  0.00000000E+00
  4.60000000E+02  2.00000000E+01  0.00000000E+00
  4.60000000E+02  4.99600361E-14  0.00000000E+00
  4.80000000E+02  3.00000000E+02  0.00000000E+00
  4.80000000E+02  2.80000000E+02  0.00000000E+00
  4.80000000E+02  2.60000000E+02  0.00000000E+00
  4.80000000E+02  2.40000000E+02  0.00000000E+00
  4.80000000E+02  2.20000000E+02  0.00000000E+00
  4.80000000E+02  2.00000000E+02  0.00000000E+00
  4.80000000E+02  1.80000000E+02  0.00000000E+00
  4.80000000E+02  1.60000000E+02  0.00000000E+00
  4.80000000E+02  1.40000000E+02  0.00000000E+00
  4.80000000E+02  1.20000000E+02  0.00000000E+00
  4.80000000E+02  1.00000000E+02  0.00000000E+00
  4.80000000E+02  8.00000000E+01  0.00000000E+00
  4.80000000E+02  6.00000000E+01  0.00000000E+00
  4.80000000E+02  4.00000000E+01  0.00000000E+00
  4.80000000E+02  2.00000000E+01  0.00000000E+00
  4.80000000E+02  4.99600361E-14  0.00000000E+00
  5.00000000E+02  3.00000000E+02  0.00000000E+00
  5.00000000E+02  2.80000000E+02  0.00000000E+00
  5.00000000E+02  2.60000000E+02  0.00000000E+00
  5.00000000E+02  2.40000000E+02  0.00000000E+00
  5.00000000E+02  2.20000000E+02  0.00000000E+00
  5.00000000E+02  2.00000000E+02  0.00000000E+00
  5.00000000E+02  1.80000000E+02  0.00000000E+00
  5.00000000E+02  1.60000000E+02  0.00000000E+00
  5.00000000E+02  1.40000000E+02  0.00000000E+00
  5.00000000E+02  1.20000000E+02  0.00000000E+00
  5.00000000E+02  1.00000000E+02  0.00000000E+00
  5.00000000E+02  8.00000000E+01  0.00000000E+00
  5.00000000E+02  6.00000000E+01  0.00000000E+00
  5.00000000E+02  4.00000000E+01  0.00000000E+00
  5.00000000E+02  2.00000000E+01  0.00000000E+00
  5.00000000E+02  4.99600361E-14  0.00000000E+00
  5.20000000E+02  3.00000000E+02  0.00000000E+00
  5.20000000E+02  2.80000000E+02  0.00000000E+00
  5.20000000E+02  2.60000000E+02  0.00000000E+00
  5.20000000E+02  2.40000000E+02  0.00000000E+00
  5.20000000E+02  2.20000000E+02  0.00000000E+00
  5.20000000E+02  2.00000000E+02  0.00000000E+00
  5.20000000E+02  1.80000000E+02  0.00000000E+00
  5.20000000E+02  1.60000000E+02  0.00000000E+00
  5.20000000E+02  1.40000000E+02  0.00000000E+00
  5.20000000E+02  1.20000000E+02  0.00000000E+00
  5.20000000E+02  1.00000000E+02  0.00000000E+00
  5.20000000E+02  8.00000000E+01  0.00000000E+00
  5.20000000E+02  6.00000000E+01  0.00000000E+00
  5.20000000E+02  4.00000000E+01  0.00000000E+00
  5.20000000E+02  2.00000000E+01  0.00000000E+00
  5.20000000E+02  4.99600361E-14  0.00000000E+00
  5.40000000E+02  3.00000000E+02  0.00000000E+00
  5.40000000E+02  2.80000000E+02  0.00000000E+00
  5.40000000E+02  2.60000000E+02  0.00000000E+00
  5.40000000E+02  2.40000000E+02  0.00000000E+00
  5.40000000E+02  2.20000000E+02  0.00000000E+00
  5.40000000E+02  2.00000000E+02  0.00000000E+00
  5.40000000E+02  1.80000000E+02  0.00000000E+00
  5.40000000E+02  1.60000000E+02  0.00000000E+00
  5.40000000E+02  1.40000000E+02  0.00000000E+00
  5.40000000E+02  1.20000000E+02  0.00000000E+00
  5.40000000E+02  1.00000000E+02  0.00000000E+00
  5.40000000E+02  8.00000000E+01  0.00000000E+00
  5.40000000E+02  6.00000000E+01  0.00000000E+00
  5.40000000E+02  4.00000000E+01  0.00000000E+00
  5.40000000E+02  2.00000000E+01  0.00000000E+00
  5.40000000E+02  4.99600361E-14  0.00000000E+00
  5.60000000E+02  3.00000000E+02  0.00000000E+00
  5.60000000E+02  2.80000000E+02  0.00000000E+00
  5.60000000E+02  2.60000000E+02  0.00000000E+00
  5.60000000E+02  2.40000000E+02  0.00000000E+00
  5.60000000E+02  2.20000000E+02  0.00000000E+00
  5.60000000E+02  2.00000000E+02  0.00000000E+00
  5.60000000E+02  1.80000000E+02  0.00000000E+00
  5.60000000E+02  1.60000000E+02  0.00000000E+00
  5.60000000E+02  1.40000000E+02  0.00000000E+00
  5.60000000E+02  1.20000000E+02  0.00000000E+00
  5.60000000E+02  1.00000000E+02  0.00000000E+00
  5.60000000E+02  8.00000000E+01  0.00000000E+00
  5.60000000E+02  6.00000000E+01  0.00000000E+00
  5.60000000E+02  4.00000000E+01  0.00000000E+00
  5.60000000E+02  2.00000000E+01  0.00000000E+00
  5.60000000E+02  4.99600361E-14  0.00000000E+00
  5.80000000E+02  3.00000000E+02  0.00000000E+00
  5.80000000E+02  2.80000000E+02  0.00000000E+00
  5.80000000E+02  2.60000000E+02  0.00000000E+00
  5.80000000E+02  2.40000000E+02  0.00000000E+00
  5.80000000E+02  2.20000000E+02  0.00000000E+00
  5.80000000E+02  2.00000000E+02  0.00000000E+00
  5.80000000E+02  1.80000000E+02  0.00000000E+00
  5.80000000E+02  1.60000000E+02  0.00000000E+00
  5.80000000E+02  1.40000000E+02  0.00000000E+00
  5.80000000E+02  1.20000000E+02  0.00000000E+00
  5.80000000E+02  1.00000000E+02  0.00000000E+00
  5.80000000E+02  8.00000000E+01  0.00000000E+00
  5.80000000E+02  6.00000000E+01  0.00000000E+00
  5.80000000E+02  4.00000000E+01  0.00000000E+00
  5.80000000E+02  2.00000000E+01  0.00000000E+00
  5.80000000E+02  4.99600361E-14  0.00000000E+00
  6.00000000E+02  3.00000000E+02  0.00000000E+00
  6.00000000E+02  2.80000000E+02  0.00000000E+00
  6.00000000E+02  2.60000000E+02  0.00000000E+00
  6.00000000E+02  2.40000000E+02  0.00000000E+00
  6.00000000E+02  2.20000000E+02  0.00000000E+00
  6.00000000E+02  2.00000000E+02  0.00000000E+00
  6.00000000E+02  1.80000000E+02  0.00000000E+00
  6.00000000E+02  1.60000000E+02  0.00000000E+00
  6.00000000E+02  1.40000000E+02  0.00000000E+00
  6.00000000E+02  1.20000000E+02  0.00000000E+00
  6.00000000E+02  1.00000000E+02  0.00000000E+00
  6.00000000E+02  8.00000000E+01  0.00000000E+00
  6.00000000E+02  6.00000000E+01  0.00000000E+00
  6.00000000E+02  4.00000000E+01  0.00000000E+00
  6.00000000E+02  2.00000000E+01  0.00000000E+00
  6.00000000E+02  4.99600361E-14  0.00000000E+00
CELLS       450      2250
         4           0           1          17          16
         4           1           2          18          17
         4           2           3          19          18
         4           3           4          20          19
         4           4           5          21          20
         4           5           6          22          21
         4           6           7          23          22
         4           7           8          24          23
         4           8           9          25          24
         4           9          10          26          25
         4          10          11          27          26
         4          11          12          28          27
         4          12          13          29          28
         4          13          14          30          29
         4          14          15          31          30
         4          16          17          33          32
         4          17          18          34          33
         4          18          19          35          34
         4          19          20          36          35
         4          20          21          37          36
         4          21          22          38          37
         4          22          23          39          38
         4          23          24          40          39
         4          24          25          41          40
         4          25          26          42          41
         4          26          27          43          42
         4          27          28          44          43
         4          28          29          45          44
         4          29          30          46          45
         4          30          31          47          46
         4          32          33          49          48
         4          33          34          50          49
         4          34          35          51          50
         4          35          36          52          51
         4          36          37          53          52
         4          37          38          54          53
         4          38          39          55          54
         4          39          40          56          55
         4          40          41          57          56
         4          41          42          58          57
         4          42          43          59          58
         4          43          44          60          59
         4          44          45          61          60
         4          45          46          62          61
         4          46          47          63          62
         4          48          49          65          64
         4          49          50          66          65
         4          50          51          67          66
         4          51          52          68          67
         4          52          53          69          68
         4          53          54          70          69
         4          54          55          71          70
         4          55          56          72          71
         4          56          57          73          72
         4          57          58          74          73
         4          58          59          75          74
         4          59          60          76          75
         4          60          61          77          76
         4          61          62          78          77
         4          62          63          79          78
         4          64          65          81          80
         4          65          66          82          81
         4          66          67          83          82
         4          67          68          84          83
         4          68          69          85          84
         4          69          70          86          85
         4          70          71          87          86
         4          71          72          88          87
         4          72          73          89          88
         4          73          74          90          89
         4          74          75          91          90
         4          75          76          92          91
         4          76          77          93          92
         4          77          78          94          93
         4          78          79          95          94
         4          80          81          97          96
         4          81          82          98          97
         4          82          83          99          98
         4          83          84         100          99
         4          84          85         101         100
         4          85          86         102         101
         4          86          87         103         102
         4          87          88         104         103
         4          88          89         105         104
         4          89          90         106         105
         4          90          91         107         106
         4          91          92         108         107
         4          92          93         109         108
         4          93          94         110         109
         4          94          95         111         110
         4          96          97         113         112
         4          97          98         114         113
         4          98          99         115         114
         4          99         100         116         115
         4         100         101         117         116
         4         101         102         118         117
         4         102         103         119         118
         4         103         104         120         119
         4         104         105         121         120
         4         105         106         122         121
         4         106         107         123         122
         4         107         108         124         123
         4         108         109         125         124
         4         109         110         126         125
         4         110         111         127         126
         4         112         113         129         128
         4         113         114         130         129
         4         114         115         131         130
         4         115         116         132         131
         4         116         117         133         132
         4         117         118         134         133
         4         118         119         135         134
         4         119         120         136         135
         4         120         121         137         136
         4         121         122         138         137
         4         122         123         139         138
         4         123         124         140         139
         4         124         125         141         140
         4         125         126         142         141
         4         126         127         143         142
         4         128         129         145         144
         4         129         130         146         145
         4         130         131         147         146
         4         131         132         148         147
         4         132         133         149         148
         4         133         134         150         149
         4         134         135         151         150
         4         135         136         152         151
         4         136         137         153         152
         4         137         138         154         153
         4         138         139         155         154
         4         139         140         156         155
         4         140         141         157         156
         4         141         142         158         157
         4         142         143         159         158
         4         144         145         161         160
         4         145         146         162         161
         4         146         147         163         162
         4         147         148         164         163
         4         148         149         165         164
         4         149         150         166         165
         4         150         151         167         166
         4         151         152         168         167
         4         152         153         169         168
         4         153         154         170         169
         4         154         155         171         170
         4         155         156         172         171
         4         156         157         173         172
         4         157         158         174         173
         4         158         159         175         174
         4         160         161         177         176
         4         161         162         178         177
         4         162         163         179         178
         4         163         164         180         179
         4         164         165         181         180
         4         165         166         182         181
         4         166         167         183         182
         4         167         168         184         183
         4         168         169         185         184
         4         169         170         186         185
         4         170         171         187         186
         4         171         172         188         187
         4         172         173         189         188
         4         173         174         190         189
         4         174         175         191         190
         4         176         177         193         192
         4         177         178         194         193
         4         178         179         195         194
         4         179         180         196         195
         4         180         181         197         196
         4         181         182         198         197
         4         182         183         199         198
         4         183         184         200         199
         4         184         185         201         200
         4         185         186         202         201
         4         186         187         203         202
         4         187         188         204         203
         4         188         189         205         204
         4         189         190         206         205
         4         190         191         207         206
         4         192         193         209         208
         4         193         194         210         209
         4         194         195         211         210
         4         195         196         212         211
         4         196         197         213         212
         4         197         198         214         213
         4         198         199         215         214
         4         199         200         216         215
         4         200         201         217         216
         4         201         202         218         217
         4         202         203         219         218
         4         203         204         220         219
         4         204         205         221         220
         4         205         206         222         221
         4         206         207         223         222
         4         208         209         225         224
         4         209         210         226         225
         4         210         211         227         226
         4         211         212         228         227
         4         212         213         229         228
         4         213         214         230         229
         4         214         215         231         230
         4         215         216         232         231
         4         216         217         233         232
         4         217         218         234         233
         4         218         219         235         234
         4         219         220         236         235
         4         220         221         237         236
         4         221         222         238         237
         4         222         223         239         238
         4         224         225         241         240
         4         225         226         242         241
         4         226         227         243         242
         4         227         228         244         243
         4         228         229         245         244
         4         229         230         246         245
         4         230         231         247         246
         4         231         232         248         247
         4         232         233         249         248
         4         233         234         250         249
         4         234         235         251         250
         4         235         236         252         251
         4         236         237         253         252
         4         237         238         254         253
         4         238         239         255         254
         4         240         241         257         256
         4         241         242         258         257
         4         242         243         259         258
         4         243         244         260         259
         4         244         245         261         260
         4         245         246         262         261
         4         246         247         263         262
         4         247         248         264         263
         4         248         249         265         264
         4         249         250         266         265
         4         250         251         267         266
         4         251         252         268         267
         4         252         253         269         268
         4         253         254         270         269
         4         254         255         271         270
         4         256         257         273         272
         4         257         258         274         273
         4         258         259         275         274
         4         259         260         276         275
         4         260         261         277         276
         4         261         262         278         277
         4         262         263         279         278
         4         263         264         280         279
         4         264         265         281         280
         4         265         266         282         281
         4         266         267         283         282
         4         267         268         284         283
         4         268         269         285         284
         4         269         270         286         285
         4         270         271         287         286
         4         272         273         289         288
         4         273         274         290         289
         4         274         275         291         290
         4         275         276         292         291
         4         276         277         293         292
         4         277         278         294         293
         4         278         279         295         294
         4         279         280         296         295
         4         280         281         297         296
         4         281         282         298         297
         4         282         283         299         298
         4         283         284         300         299
         4         284         285         301         300
         4         285         286         302         301
         4         286         287         303         302
         4         288         289         305         304
         4         289         290         306         305
         4         290         291         307         306
         4         291         292         308         307
         4         292         293         309         308
         4         293         294         310         309
         4         294         295         311         310
         4         295         296         312         311
         4         296         297         313         312
         4         297         298         314         313
         4         298         299         315         314
         4         299         300         316         315
         4         300         301         317         316
         4         301         302         318         317
         4         302         303         319         318
         4         304         305         321         320
         4         305         306         322         321
         4         306         307         323         322
         4         307         308         324         323
         4         308         309         325         324
         4         309         310         326         325
         4         310         311         327         326
         4         311         312         328         327
         4         312         313         329         328
         4         313         314         330         329
         4         314         315         331         330
         4         315         316         332         331
         4         316         317         333         332
         4         317         318         334         333
         4         318         319         335         334
         4         320         321         337         336
         4         321         322         338         337
         4         322         323         339         338
         4         323         324         340         339
         4         324         325         341         340
         4         325         326         342         341
         4         326         327         343         342
         4         327         328         344         343
         4         328         329         345         344
         4         329         330         346         345
         4         330         331         347         346
         4         331         332         348         347
         4         332         333         349         348
         4         333         334         350         349
         4         334         335         351         350
         4         336         337         353         352
         4         337         338         354         353
         4         338         339         355         354
         4         339         340         356         355
         4         340         341         357         356
         4         341         342         358         357
         4         342         343         359         358
         4         343         344         360         359
         4         344         345         361         360
         4         345         346         362         361
         4         346         347         363         362
         4         347         348         364         363
         4         348         349         365         364
         4         349         350         366         365
         4         350         351         367         366
         4         352         353         369         368
         4         353         354         370         369
         4         354         355         371         370
         4         355         356         372         371
         4         356         357         373         372
         4         357         358         374         373
         4         358         359         375         374
         4         359         360         376         375
         4         360         361         377         376
         4         361         362         378         377
         4         362         363         379         378
         4         363         364         380         379
         4         364         365         381         380
         4         365         366         382         381
         4         366         367         383         382
         4         368         369         385         384
         4         369         370         386         385
         4         370         371         387         386
         4         371         372         388         387
         4         372         373         389         388
         4         373         374         390         389
         4         374         375         391         390
         4         375         376         392         391
         4         376         377         393         392
         4         377         378         394         393
         4         378         379         395         394
         4         379         380         396         395
         4         380         381         397         396
         4         381         382         398         397
         4         382         383         399         398
         4         384         385         401         400
         4         385         386         402         401
         4         386         387         403         402
         4         387         388         404         403
         4         388         389         405         404
         4         389         390         406         405
         4         390         391         407         406
         4         391         392         408         407
         4         392         393         409         408
         4         393         394         410         409
         4         394         395         411         410
         4         395         396         412         411
         4         396         397         413         412
         4         397         398         414         413
         4         398         399         415         414
         4         400         401         417         416
         4         401         402         418         417
         4         402         403         419         418
         4         403         404         420         419
         4         404         405         421         420
         4         405         406         422         421
         4         406         407         423         422
         4         407         408         424         423
         4         408         409         425         424
         4         409         410         426         425
         4         410         411         427         426
         4         411         412         428         427
         4         412         413         429         428
         4         413         414         430         429
         4         414         415         431         430
         4         416         417         433         432
         4         417         418         434         433
         4         418         419         435         434
         4         419         420         436         435
         4         420         421         437         436
         4         421         422         438         437
         4         422         423         439         438
         4         423         424         440         439
         4         424         425         441         440
         4         425         426         442         441
         4         426         427         443         442
         4         427         428         444         443
         4         428         429         445         444
         4         429         430         446         445
         4         430         431         447         446
         4         432         433         449         448
         4         433         434         450         449
         4         434         435         451         450
         4         435         436         452         451
         4         436         437         453         452
         4         437         438         454         453
         4         438         439         455         454
         4         439         440         456         455
         4         440         441         457         456
         4         441         442         458         457
         4         442         443         459         458
         4         443         444         460         459
         4         444         445         461         460
         4         445         446         462         461
         4         446         447         463         462
         4         448         449         465         464
         4         449         450         466         465
         4         450         451         467         466
         4         451         452         468         467
         4         452         453         469         468
         4         453         454         470         469
         4         454         455         471         470
         4         455         456         472         471
         4         456         457         473         472
         4         457         458         474         473
         4         458         459         475         474
         4         459         460         476         475
         4         460         461         477         476
         4         461         462         478         477
         4         462         463         479         478
         4         464         465         481         480
         4         465         466         482         481
         4         466         467         483         482
         4         467         468         484         483
         4         468         469         485         484
         4         469         470         486         485
         4         470         471         487         486
         4         471         472         488         487
         4         472         473         489         488
         4         473         474         490         489
         4         474         475         491         490
         4         475         476         492         491
         4         476         477         493         492
         4         477         478         494         493
         4         478         479         495         494
CELL_TYPES        450
9
9
9
9
9
9
9
9
9
9
9
9
9
9
9
9
9
9
9
9
9
9
9
9
9
9
9
9
9
9
9
9
9
9
9
9
9
9
9
9
9
9
9
9
9
9
9
9
9
9
9
9
9
9
9
9
9
9
9
9
9
9
9
9
9
9
9
9
9
9
9
9
9
9
9
9
9
9
9
9
9
9
9
9
9
9
9
9
9
9
9
9
9
9
9
9
9
9
9
9
9
9
9
9
9
9
9
9
9
9
9
9
9
9
9
9
9
9
9
9
9
9
9
9
9
9
9
9
9
9
9
9
9
9
9
9
9
9
9
9
9
9
9
9
9
9
9
9
9
9
9
9
9
9
9
9
9
9
9
9
9
9
9
9
9
9
9
9
9
9
9
9
9
9
9
9
9
9
9
9
9
9
9
9
9
9
9
9
9
9
9
9
9
9
9
9
9
9
9
9
9
9
9
9
9
9
9
9
9
9
9
9
9
9
9
9
9
9
9
9
9
9
9
9
9
9
9
9
9
9
9
9
9
9
9
9
9
9
9
9
9
9
9
9
9
9
9
9
9
9
9
9
9
9
9
9
9
9
9
9
9
9
9
9
9
9
9
9
9
9
9
9
9
9
9
9
9
9
9
9
9
9
9
9
9
9
9
9
9
9
9
9
9
9
9
9
9
9
9
9
9
9
9
9
9
9
9
9
9
9
9
9
9
9
9
9
9
9
9
9
9
9
9
9
9
9
9
9
9
9
9
9
9
9
9
9
9
9
9
9
9
9
9
9
9
9
9
9
9
9
9
9
9
9
9
9
9
9
9
9
9
9
9
9
9
9
9
9
9
9
9
9
9
9
9
9
9
9
9
9
9
9
9
9
9
9
9
9
9
9
9
9
9
9
9
9
9
9
9
9
9
9
9
9
9
9
9
9
9
9
9
9
9
9
9
9
9
9
9
9
9
9
9
9
9
9
9
9
9
9
9
9
9
9
9
9
9
9
9
9
9
9
9
9
9
9
9
9
9
9
POINT_DATA       496
SCALARS p double 
LOOKUP_TABLE default
   71111765.5794054     
   71112097.9233138     
   71112833.0546174     
   71113669.1798579     
   71114542.5704675     
   71115416.4278137     
   71116270.1280437     
   71117090.8091637     
   71117869.9537351     
   71118601.3699613     
   71119279.8092322     
   71119899.7194463     
   71120453.7816671     
   71120929.4962100     
   71121307.7877107     
   71121469.8678042     
   69086212.8027948     
   69086335.4116478     
   69086690.6815780     
   69087207.5325462     
   69087800.8827444     
   69088427.5279018     
   69089060.1745550     
   69089680.8065058     
   69090276.6366377     
   69090837.7474254     
   69091355.3848450     
   69091820.4113622     
   69092221.2876875     
   69092541.4543799     
   69092746.4027128     
   69092813.9184600     
   67059824.7179634     
   67059876.6896023     
   67060045.1268442     
   67060329.2297091     
   67060695.3093074     
   67061108.3690116     
   67061543.0257684     
   67061980.5136881     
   67062406.5264967     
   67062809.4265267     
   67063178.8126789     
   67063504.2128985     
   67063773.8623834     
   67063972.9505646     
   67064089.8080314     
   67064126.8791101     
   65032765.2787877     
   65032781.7962803     
   65032847.8323638     
   65032981.3140273     
   65033176.3300017     
   65033415.9802767     
   65033682.2482736     
   65033959.5607550     
   65034234.8274234     
   65034496.8372549     
   65034735.5208514     
   65034941.3391079     
   65035104.9963509     
   65035219.0264106     
   65035281.3901303     
   65035299.8645083     
   63005110.4554042     
   63005106.3875272     
   63005110.0915776     
   63005144.3868645     
   63005216.0223871     
   63005320.8952438     
   63005449.8569018     
   63005592.5344938     
   63005738.9827112     
   63005880.1163016     
   63006007.7501618     
   63006114.6635873     
   63006195.1825946     
   63006246.5482550     
   63006270.9457501     
   63006277.0584645     
   60976906.0458966     
   60976889.0496705     
   60976852.4918700     
   60976819.5887711     
   60976802.7426926     
   60976805.5683411     
   60976826.0204764     
   60976859.1774686     
   60976899.0762591     
   60976939.7232462     
   60976975.6713721     
   60977002.5451489     
   60977017.7632276     
   60977021.5347367     
   60977017.8513796     
   60977014.9091155     
   58948183.0894388     
   58948157.6339128     
   58948094.1715265     
   58948014.8404552     
   58947934.4130686     
   58947860.9790497     
   58947797.5559801     
   58947743.8952358     
   58947698.0006006     
   58947657.2352821     
   58947619.1298205     
   58947582.0670726     
   58947545.9663896     
   58947512.9484451     
   58947487.8022277     
   58947477.9730585     
   56918964.0576461     
   56918932.9680618     
   56918851.2256885     
   56918739.4645470     
   56918613.2776225     
   56918483.3114620     
   56918356.0496776     
   56918234.9188666     
   56918121.4051004     
   56918016.0221362     
   56917919.1108697     
   56917831.5137986     
   56917755.1532211     
   56917693.4780695     
   56917651.6729686     
   56917636.4971698     
   54889265.9129682     
   54889231.0537789     
   54889136.8138064     
   54889002.2917228     
   54888843.1694212     
   54888671.5380608     
   54888496.2232817     
   54888323.4250429     
   54888157.4809138     
   54888001.6183249     
   54887858.6303296     
   54887731.4521636     
   54887623.6209220     
   54887539.5792372     
   54887484.7610725     
   54887465.3986947     
   52859101.7820902     
   52859064.4020329     
   52858961.5968066     
   52858811.0549554     
   52858628.2199811     
   52858425.9858638     
   52858214.7586533     
   52858002.7885610     
   52857796.6554815     
   52857601.8059882     
   52857423.0701032     
   52857265.1110739     
   52857132.7716501     
   52857031.2793992     
   52856966.2726764     
   52856943.6197120     
   50828481.9657018     
   50828442.8897429     
   50828334.1697219     
   50828172.2745994     
   50827972.2925525     
   50827747.5566733     
   50827509.5468897     
   50827268.0160377     
   50827031.2663654     
   50826806.5016190     
   50826600.1909180     
   50826418.3940317     
   50826267.0076391     
   50826151.8988666     
   50826078.9002130     
   50826053.6535921     
   48797414.5912386     
   48797374.3380528     
   48797261.4256767     
   48797091.3239942     
   48796878.7653335     
   48796637.3278475     
   48796379.2353357     
   48796115.3428206     
   48795855.2592596     
   48795607.5522995     
   48795379.9823171     
   48795179.7198058     
   48795013.5082568     
   48794887.7433181     
   48794808.4493753     
   48794781.1482652     
   46765906.0591181     
   46765864.9196686     
   46765748.8483873     
   46765572.5528773     
   46765350.4781902     
   46765096.3612320     
   46764822.9623008     
   46764541.9537711     
   46764263.9318747     
   46763998.5100109     
   46763754.4507274     
   46763539.7967990     
   46763361.9680658     
   46763227.7990513     
   46763143.5028043     
   46763114.5589501     
   44733961.3609833     
   44733919.4555508     
   44733800.7438677     
   44733619.4191105     
   44733389.7516635     
   44733125.6218746     
   44732840.2048185     
   44732545.7926331     
   44732253.7288346     
   44731974.4218178     
   44731717.4020802     
   44731491.3891762     
   44731304.3392605     
   44731163.4516259     
   44731075.1223933     
   44731044.8449438     
   42701584.3138385     
   42701541.6363647     
   42701420.4230987     
   42701234.6096994     
   42700998.4343021     
   42700725.9532594     
   42700430.6941095     
   42700125.4343952     
   42699822.0854955     
   42699531.6538405     
   42699264.2486808     
   42699029.1061271     
   42698834.6031669     
   42698688.2422404     
   42698596.5960976     
   42698565.2133293     
   40668777.7359861     
   40668734.1905013     
   40668610.3457365     
   40668420.1450985     
   40668177.9579323     
   40667898.0813648     
   40667594.3728594     
   40667280.0039324     
   40666967.3164674     
   40666667.7562532     
   40666391.8548052     
   40666149.2306275     
   40665948.5846598     
   40665797.6712578     
   40665703.2349910     
   40665670.9139863     
   38635543.5809265     
   38635499.0127676     
   38635372.2329483     
   38635177.4663398     
   38634929.3921936     
   38634642.6338587     
   38634331.3802610     
   38634009.1307122     
   38633688.5447691     
   38633381.3713444     
   38633098.4272825     
   38632849.5955266     
   38632643.8166420     
   38632489.0542795     
   38632392.2244323     
   38632359.0891998     
   36601883.0398745     
   36601837.2633191     
   36601707.1557818     
   36601507.5067921     
   36601253.4954933     
   36600960.1683428     
   36600642.0577566     
   36600312.9337491     
   36599985.6684401     
   36599672.1843534     
   36599383.4529364     
   36599129.5097981     
   36598919.4573214     
   36598761.4328445     
   36598662.5307892     
   36598628.6790672     
   34567796.6203464     
   34567749.4436902     
   34567615.6042171     
   34567410.7512589     
   34567150.7625678     
   34566851.2078633     
   34566526.9726861     
   34566192.0339707     
   34565859.3624179     
   34565540.9157551     
   34565247.6822380     
   34564989.7345890     
   34564776.2598022     
   34564615.5389398     
   34564514.8625962     
   34564480.3814635     
   32533284.2063762     
   32533235.4551359     
   32533097.5412530     
   32532887.2857017     
   32532621.4708620     
   32532316.2849043     
   32531986.9601293     
   32531647.5934316     
   32531311.1143417     
   32530989.3530014     
   32530693.1566564     
   32530432.5061314     
   32530216.5907080     
   32530053.8097389     
   32529951.6823351     
   32529916.6626623     
   30498345.1048115     
   30498294.6435707     
   30498152.4461363     
   30497936.8418425     
   30497665.7302420     
   30497355.9982365     
   30497023.1863589     
   30496681.3829787     
   30496343.2935910     
   30496020.4187867     
   30495723.2750270     
   30495461.5997505     
   30495244.4915082     
   30495080.4459604     
   30494977.2620562     
   30494941.8117574     
   28462978.0815027     
   28462925.8349938     
   28462779.3513828     
   28462558.8430987     
   28462283.5444796     
   28461971.0918167     
   28461637.2416754     
   28461295.8826081     
   28460959.2531444     
   28460638.2709739     
   28460342.8908529     
   28460082.4252033     
   28459865.7722889     
   28459701.5036087     
   28459597.7726294     
   28459562.0286512     
   26427181.3908730     
   26427127.3654118     
   26426976.8800884     
   26426752.4630836     
   26426474.9004631     
   26426162.5734097     
   26425831.2773572     
   26425494.4222651     
   26425163.4632682     
   26424848.4253057     
   26424558.4264749     
   26424302.1372368     
   26424088.1220991     
   26423925.0042501     
   26423821.3924304     
   26423785.5315666     
   24390952.8021667     
   24390897.1100718     
   24390743.2944094     
   24390516.7179149     
   24390239.9156562     
   24389931.9056722     
   24389608.2125355     
   24389281.3752491     
   24388961.6735096     
   24388657.8842026     
   24388377.9795268     
   24388129.7348512     
   24387921.2116187     
   24387761.0430122     
   24387658.4168246     
   24387622.6659440     
   22354289.6256513     
   22354232.5188898     
   22354076.5760015     
   22353850.6347505     
   22353579.1023745     
   22353281.3281929     
   22352972.0527245     
   22352662.4202090     
   22352361.0930290     
   22352075.2410106     
   22351811.3795026     
   22351576.1054595     
   22351376.7507361     
   22351221.8655348     
   22351121.3449805     
   22351085.9929944     
   20317188.7413085     
   20317130.6704725     
   20316974.5832140     
   20316753.5852349     
   20316493.8613930     
   20316214.4086963     
   20315928.3783396     
   20315644.8861362     
   20315370.5661898     
   20315110.7087454     
   20314870.1244888     
   20314653.9416629     
   20314468.4410526     
   20314321.8726887     
   20314224.9165444     
   20314190.3322200     
   18279646.6361555     
   18279588.3728733     
   18279435.3929345     
   18279225.9826417     
   18278987.4162834     
   18278736.9679749     
   18278485.0588051     
   18278238.1738400     
   18278000.7045956     
   18277775.9994554     
   18277567.0950892     
   18277377.4069468     
   18277211.7203463     
   18277077.4900809     
   18276986.0602905     
   18276952.7397050     
   16241659.4393264     
   16241602.4005185     
   16241458.1412678     
   16241270.7995606     
   16241066.5628421     
   16240858.5139341     
   16240653.1628973     
   16240454.1977559     
   16240263.9231353     
   16240084.0006558     
   16239915.9008412     
   16239761.3620795     
   16239623.0851276     
   16239506.7721770     
   16239423.7325364     
   16239392.3560831     
   14203223.1312996     
   14203170.2471565     
   14203045.3020410     
   14202897.0647700     
   14202744.6467328     
   14202593.9749927     
   14202447.8608344     
   14202307.7111843     
   14202174.3366175     
   14202048.2619391     
   14201929.9025723     
   14201819.7221918     
   14201718.6089904     
   14201628.4308753     
   14201558.3953433     
   14201530.4018685     
   12164333.8021521     
   12164293.1688979     
   12164210.6858615     
   12164126.9974010     
   12164044.5974247     
   12163965.0511237     
   12163888.8749146     
   12163816.3191875     
   12163747.4978565     
   12163682.4516165     
   12163621.1665393     
   12163563.5871076     
   12163509.5975227     
   12163459.3630894     
   12163411.7606170     
   12163388.2714697     
   10125000.0000000     
   10125000.0000000     
   10125000.0000000     
   10125000.0000000     
   10125000.0000000     
   10125000.0000000     
   10125000.0000000     
   10125000.0000000     
   10125000.0000000     
   10125000.0000000     
   10125000.0000000     
   10125000.0000000     
   10125000.0000000     
   10125000.0000000     
   10125000.0000000     
   10125000.0000000     
VECTORS u double 
    0.00000E+00         0.30494E-02         0.00000E+00
    0.00000E+00         0.29268E-02         0.00000E+00
    0.00000E+00         0.27835E-02         0.00000E+00
    0.00000E+00         0.26426E-02         0.00000E+00
    0.00000E+00         0.25091E-02         0.00000E+00
    0.00000E+00         0.23841E-02         0.00000E+00
    0.00000E+00         0.22655E-02         0.00000E+00
    0.00000E+00         0.21491E-02         0.00000E+00
    0.00000E+00         0.20288E-02         0.00000E+00
    0.00000E+00         0.18965E-02         0.00000E+00
    0.00000E+00         0.17424E-02         0.00000E+00
    0.00000E+00         0.15539E-02         0.00000E+00
    0.00000E+00         0.13149E-02         0.00000E+00
    0.00000E+00         0.10039E-02         0.00000E+00
    0.00000E+00         0.58902E-03         0.00000E+00
    0.00000E+00         0.00000E+00         0.00000E+00
    0.29152E-02         0.27277E-02         0.00000E+00
    0.24935E-02         0.26868E-02         0.00000E+00
    0.22210E-02         0.25896E-02         0.00000E+00
    0.20120E-02         0.24785E-02         0.00000E+00
    0.18406E-02         0.23675E-02         0.00000E+00
    0.16929E-02         0.22605E-02         0.00000E+00
    0.15604E-02         0.21571E-02         0.00000E+00
    0.14369E-02         0.20538E-02         0.00000E+00
    0.13173E-02         0.19452E-02         0.00000E+00
    0.11970E-02         0.18237E-02         0.00000E+00
    0.10713E-02         0.16794E-02         0.00000E+00
    0.93479E-03         0.15001E-02         0.00000E+00
    0.78015E-03         0.12698E-02         0.00000E+00
    0.59584E-03         0.96734E-03         0.00000E+00
    0.36005E-03         0.56097E-03         0.00000E+00
    0.00000E+00         0.00000E+00         0.00000E+00
    0.56080E-02         0.19714E-02         0.00000E+00
    0.48445E-02         0.20346E-02         0.00000E+00
    0.43022E-02         0.20357E-02         0.00000E+00
    0.38840E-02         0.20016E-02         0.00000E+00
    0.35402E-02         0.19520E-02         0.00000E+00
    0.32441E-02         0.18961E-02         0.00000E+00
    0.29788E-02         0.18364E-02         0.00000E+00
    0.27316E-02         0.17717E-02         0.00000E+00
    0.24926E-02         0.16977E-02         0.00000E+00
    0.22526E-02         0.16078E-02         0.00000E+00
    0.20025E-02         0.14931E-02         0.00000E+00
    0.17314E-02         0.13418E-02         0.00000E+00
    0.14258E-02         0.11389E-02         0.00000E+00
    0.10650E-02         0.86464E-03         0.00000E+00
    0.61181E-03         0.49293E-03         0.00000E+00
    0.00000E+00         0.00000E+00         0.00000E+00
    0.80668E-02         0.90450E-03         0.00000E+00
    0.70316E-02         0.10720E-02         0.00000E+00
    0.62460E-02         0.11822E-02         0.00000E+00
    0.56243E-02         0.12489E-02         0.00000E+00
    0.51095E-02         0.12874E-02         0.00000E+00
    0.46654E-02         0.13083E-02         0.00000E+00
    0.42672E-02         0.13166E-02         0.00000E+00
    0.38969E-02         0.13130E-02         0.00000E+00
    0.35394E-02         0.12948E-02         0.00000E+00
    0.31813E-02         0.12568E-02         0.00000E+00
    0.28091E-02         0.11912E-02         0.00000E+00
    0.24079E-02         0.10876E-02         0.00000E+00
    0.19589E-02         0.93266E-03         0.00000E+00
    0.14360E-02         0.71029E-03         0.00000E+00
    0.80095E-03         0.40352E-03         0.00000E+00
    0.00000E+00         0.00000E+00         0.00000E+00
    0.10297E-01        -0.40580E-03         0.00000E+00
    0.90404E-02        -0.13360E-03         0.00000E+00
    0.80435E-02         0.87713E-04         0.00000E+00
    0.72333E-02         0.26428E-03         0.00000E+00
    0.65539E-02         0.40602E-03         0.00000E+00
    0.59646E-02         0.52167E-03         0.00000E+00
    0.54355E-02         0.61669E-03         0.00000E+00
    0.49436E-02         0.69303E-03         0.00000E+00
    0.44696E-02         0.74949E-03         0.00000E+00
    0.39962E-02         0.78216E-03         0.00000E+00
    0.35064E-02         0.78468E-03         0.00000E+00
    0.29815E-02         0.74840E-03         0.00000E+00
    0.23999E-02         0.66268E-03         0.00000E+00
    0.17339E-02         0.51574E-03         0.00000E+00
    0.94838E-03         0.29686E-03         0.00000E+00
    0.00000E+00         0.00000E+00         0.00000E+00
    0.12304E-01        -0.19129E-02         0.00000E+00
    0.10866E-01        -0.15352E-02         0.00000E+00
    0.96873E-02        -0.12022E-02         0.00000E+00
    0.87076E-02        -0.91193E-03         0.00000E+00
    0.78744E-02        -0.65894E-03         0.00000E+00
    0.71464E-02        -0.43699E-03         0.00000E+00
    0.64907E-02        -0.24138E-03         0.00000E+00
    0.58808E-02        -0.69835E-04         0.00000E+00
    0.52940E-02         0.77362E-04         0.00000E+00
    0.47097E-02         0.19753E-03         0.00000E+00
    0.41081E-02         0.28583E-03         0.00000E+00
    0.34681E-02         0.33561E-03         0.00000E+00
    0.27665E-02         0.33895E-03         0.00000E+00
    0.19762E-02         0.28778E-03         0.00000E+00
    0.10658E-02         0.17564E-03         0.00000E+00
    0.00000E+00         0.00000E+00         0.00000E+00
    0.14097E-01        -0.35812E-02         0.00000E+00
    0.12506E-01        -0.30971E-02         0.00000E+00
    0.11173E-01        -0.26517E-02         0.00000E+00
    0.10044E-01        -0.22459E-02         0.00000E+00
    0.90703E-02        -0.18770E-02         0.00000E+00
    0.82129E-02        -0.15413E-02         0.00000E+00
    0.74375E-02        -0.12350E-02         0.00000E+00
    0.67153E-02        -0.95635E-03         0.00000E+00
    0.60213E-02        -0.70498E-03         0.00000E+00
    0.53323E-02        -0.48264E-03         0.00000E+00
    0.46264E-02        -0.29278E-03         0.00000E+00
    0.38811E-02        -0.14017E-03         0.00000E+00
    0.30726E-02        -0.30319E-04         0.00000E+00
    0.21751E-02         0.31554E-04         0.00000E+00
    0.11606E-02         0.41823E-04         0.00000E+00
    0.00000E+00         0.00000E+00         0.00000E+00
    0.15680E-01        -0.53822E-02         0.00000E+00
    0.13963E-01        -0.47905E-02         0.00000E+00
    0.12499E-01        -0.42321E-02         0.00000E+00
    0.11239E-01        -0.37094E-02         0.00000E+00
    0.10141E-01        -0.32217E-02         0.00000E+00
    0.91653E-02        -0.27670E-02         0.00000E+00
    0.82793E-02        -0.23428E-02         0.00000E+00
    0.74526E-02        -0.19477E-02         0.00000E+00
    0.66585E-02        -0.15811E-02         0.00000E+00
    0.58726E-02        -0.12442E-02         0.00000E+00
    0.50712E-02        -0.93922E-03         0.00000E+00
    0.42310E-02        -0.66931E-03         0.00000E+00
    0.33285E-02        -0.43810E-03         0.00000E+00
    0.23391E-02        -0.24871E-03         0.00000E+00
    0.12378E-02        -0.10290E-03         0.00000E+00
    0.00000E+00         0.00000E+00         0.00000E+00
    0.17060E-01        -0.72920E-02         0.00000E+00
    0.15239E-01        -0.65916E-02         0.00000E+00
    0.13664E-01        -0.59195E-02         0.00000E+00
    0.12292E-01        -0.52788E-02         0.00000E+00
    0.11084E-01        -0.46702E-02         0.00000E+00
    0.10004E-01        -0.40928E-02         0.00000E+00
    0.90181E-02        -0.35452E-02         0.00000E+00
    0.80964E-02        -0.30263E-02         0.00000E+00
    0.72114E-02        -0.25357E-02         0.00000E+00
    0.63375E-02        -0.20740E-02         0.00000E+00
    0.54504E-02        -0.16424E-02         0.00000E+00
    0.45263E-02        -0.12431E-02         0.00000E+00
    0.35421E-02        -0.87819E-03         0.00000E+00
    0.24745E-02        -0.54929E-03         0.00000E+00
    0.13009E-02        -0.25699E-03         0.00000E+00
    0.00000E+00         0.00000E+00         0.00000E+00
    0.18243E-01        -0.92908E-02         0.00000E+00
    0.16337E-01        -0.84804E-02         0.00000E+00
    0.14670E-01        -0.76938E-02         0.00000E+00
    0.13203E-01        -0.69342E-02         0.00000E+00
    0.11901E-01        -0.62029E-02         0.00000E+00
    0.10730E-01        -0.55000E-02         0.00000E+00
    0.96558E-02        -0.48248E-02         0.00000E+00
    0.86500E-02        -0.41765E-02         0.00000E+00
    0.76842E-02        -0.35548E-02         0.00000E+00
    0.67325E-02        -0.29598E-02         0.00000E+00
    0.57701E-02        -0.23925E-02         0.00000E+00
    0.47732E-02        -0.18539E-02         0.00000E+00
    0.37191E-02        -0.13451E-02         0.00000E+00
    0.25858E-02        -0.86684E-03         0.00000E+00
    0.13524E-02        -0.41899E-03         0.00000E+00
    0.00000E+00         0.00000E+00         0.00000E+00
    0.19234E-01        -0.11361E-01         0.00000E+00
    0.17260E-01        -0.10440E-01         0.00000E+00
    0.15518E-01        -0.95377E-02         0.00000E+00
    0.13973E-01        -0.86583E-02         0.00000E+00
    0.12592E-01        -0.78031E-02         0.00000E+00
    0.11343E-01        -0.69726E-02         0.00000E+00
    0.10194E-01        -0.61664E-02         0.00000E+00
    0.91154E-02        -0.53842E-02         0.00000E+00
    0.80801E-02        -0.46257E-02         0.00000E+00
    0.70616E-02        -0.38910E-02         0.00000E+00
    0.60348E-02        -0.31805E-02         0.00000E+00
    0.49764E-02        -0.24946E-02         0.00000E+00
    0.38638E-02        -0.18338E-02         0.00000E+00
    0.26761E-02        -0.11983E-02         0.00000E+00
    0.13939E-02        -0.58756E-03         0.00000E+00
    0.00000E+00         0.00000E+00         0.00000E+00
    0.20039E-01        -0.13488E-01         0.00000E+00
    0.18011E-01        -0.12455E-01         0.00000E+00
    0.16209E-01        -0.11437E-01         0.00000E+00
    0.14601E-01        -0.10437E-01         0.00000E+00
    0.13156E-01        -0.94563E-02         0.00000E+00
    0.11843E-01        -0.84963E-02         0.00000E+00
    0.10632E-01        -0.75567E-02         0.00000E+00
    0.94943E-02        -0.66372E-02         0.00000E+00
    0.84015E-02        -0.57377E-02         0.00000E+00
    0.73276E-02        -0.48580E-02         0.00000E+00
    0.62480E-02        -0.39984E-02         0.00000E+00
    0.51391E-02        -0.31590E-02         0.00000E+00
    0.39791E-02        -0.23399E-02         0.00000E+00
    0.27478E-02        -0.15410E-02         0.00000E+00
    0.14267E-02        -0.76144E-03         0.00000E+00
    0.00000E+00         0.00000E+00         0.00000E+00
    0.20661E-01        -0.15658E-01         0.00000E+00
    0.18593E-01        -0.14512E-01         0.00000E+00
    0.16745E-01        -0.13377E-01         0.00000E+00
    0.15089E-01        -0.12256E-01         0.00000E+00
    0.13594E-01        -0.11150E-01         0.00000E+00
    0.12232E-01        -0.10059E-01         0.00000E+00
    0.10973E-01        -0.89840E-02         0.00000E+00
    0.97881E-02        -0.79247E-02         0.00000E+00
    0.86501E-02        -0.68808E-02         0.00000E+00
    0.75329E-02        -0.58524E-02         0.00000E+00
    0.64118E-02        -0.48393E-02         0.00000E+00
    0.52637E-02        -0.38417E-02         0.00000E+00
    0.40671E-02        -0.28594E-02         0.00000E+00
    0.28023E-02        -0.18922E-02         0.00000E+00
    0.14516E-02        -0.93946E-03         0.00000E+00
    0.00000E+00         0.00000E+00         0.00000E+00
    0.21104E-01        -0.17860E-01         0.00000E+00
    0.19007E-01        -0.16600E-01         0.00000E+00
    0.17127E-01        -0.15348E-01         0.00000E+00
    0.15437E-01        -0.14105E-01         0.00000E+00
    0.13907E-01        -0.12872E-01         0.00000E+00
    0.12510E-01        -0.11650E-01         0.00000E+00
    0.11216E-01        -0.10438E-01         0.00000E+00
    0.99977E-02        -0.92370E-02         0.00000E+00
    0.88271E-02        -0.80464E-02         0.00000E+00
    0.76787E-02        -0.68664E-02         0.00000E+00
    0.65280E-02        -0.56968E-02         0.00000E+00
    0.53519E-02        -0.45376E-02         0.00000E+00
    0.41292E-02        -0.33887E-02         0.00000E+00
    0.28407E-02        -0.22498E-02         0.00000E+00
    0.14691E-02        -0.11205E-02         0.00000E+00
    0.00000E+00         0.00000E+00         0.00000E+00
    0.21369E-01        -0.20082E-01         0.00000E+00
    0.19256E-01        -0.18709E-01         0.00000E+00
    0.17357E-01        -0.17339E-01         0.00000E+00
    0.15646E-01        -0.15974E-01         0.00000E+00
    0.14096E-01        -0.14614E-01         0.00000E+00
    0.12677E-01        -0.13259E-01         0.00000E+00
    0.11362E-01        -0.11909E-01         0.00000E+00
    0.10123E-01        -0.10565E-01         0.00000E+00
    0.89333E-02        -0.92267E-02         0.00000E+00
    0.77662E-02        -0.78932E-02         0.00000E+00
    0.65976E-02        -0.65651E-02         0.00000E+00
    0.54047E-02        -0.52421E-02         0.00000E+00
    0.41664E-02        -0.39243E-02         0.00000E+00
    0.28636E-02        -0.26115E-02         0.00000E+00
    0.14796E-02        -0.13036E-02         0.00000E+00
    0.00000E+00         0.00000E+00         0.00000E+00
    0.21458E-01        -0.22314E-01         0.00000E+00
    0.19339E-01        -0.20827E-01         0.00000E+00
    0.17434E-01        -0.19339E-01         0.00000E+00
    0.15716E-01        -0.17852E-01         0.00000E+00
    0.14159E-01        -0.16365E-01         0.00000E+00
    0.12733E-01        -0.14877E-01         0.00000E+00
    0.11412E-01        -0.13390E-01         0.00000E+00
    0.10166E-01        -0.11902E-01         0.00000E+00
    0.89692E-02        -0.10414E-01         0.00000E+00
    0.77958E-02        -0.89265E-02         0.00000E+00
    0.66212E-02        -0.74387E-02         0.00000E+00
    0.54226E-02        -0.59509E-02         0.00000E+00
    0.41790E-02        -0.44631E-02         0.00000E+00
    0.28714E-02        -0.29753E-02         0.00000E+00
    0.14832E-02        -0.14876E-02         0.00000E+00
    0.00000E+00         0.00000E+00         0.00000E+00
    0.21373E-01        -0.24547E-01         0.00000E+00
    0.19259E-01        -0.22946E-01         0.00000E+00
    0.17360E-01        -0.21340E-01         0.00000E+00
    0.15648E-01        -0.19731E-01         0.00000E+00
    0.14098E-01        -0.18116E-01         0.00000E+00
    0.12679E-01        -0.16495E-01         0.00000E+00
    0.11364E-01        -0.14870E-01         0.00000E+00
    0.10125E-01        -0.13239E-01         0.00000E+00
    0.89349E-02        -0.11602E-01         0.00000E+00
    0.77676E-02        -0.99599E-02         0.00000E+00
    0.65989E-02        -0.83125E-02         0.00000E+00
    0.54058E-02        -0.66598E-02         0.00000E+00
    0.41673E-02        -0.50020E-02         0.00000E+00
    0.28643E-02        -0.33392E-02         0.00000E+00
    0.14799E-02        -0.16717E-02         0.00000E+00
    0.00000E+00         0.00000E+00         0.00000E+00
    0.21111E-01        -0.26770E-01         0.00000E+00
    0.19014E-01        -0.25055E-01         0.00000E+00
    0.17133E-01        -0.23332E-01         0.00000E+00
    0.15442E-01        -0.21600E-01         0.00000E+00
    0.13912E-01        -0.19858E-01         0.00000E+00
    0.12514E-01        -0.18105E-01         0.00000E+00
    0.11220E-01        -0.16342E-01         0.00000E+00
    0.10001E-01        -0.14568E-01         0.00000E+00
    0.88302E-02        -0.12783E-01         0.00000E+00
    0.76816E-02        -0.10987E-01         0.00000E+00
    0.65306E-02        -0.91811E-02         0.00000E+00
    0.53542E-02        -0.73646E-02         0.00000E+00
    0.41311E-02        -0.55378E-02         0.00000E+00
    0.28420E-02        -0.37011E-02         0.00000E+00
    0.14699E-02        -0.18548E-02         0.00000E+00
    0.00000E+00         0.00000E+00         0.00000E+00
    0.20673E-01        -0.28974E-01         0.00000E+00
    0.18602E-01        -0.27145E-01         0.00000E+00
    0.16753E-01        -0.25305E-01         0.00000E+00
    0.15096E-01        -0.23451E-01         0.00000E+00
    0.13601E-01        -0.21582E-01         0.00000E+00
    0.12238E-01        -0.19697E-01         0.00000E+00
    0.10978E-01        -0.17797E-01         0.00000E+00
    0.97930E-02        -0.15881E-01         0.00000E+00
    0.86546E-02        -0.13949E-01         0.00000E+00
    0.75370E-02        -0.12002E-01         0.00000E+00
    0.64156E-02        -0.10039E-01         0.00000E+00
    0.52671E-02        -0.80610E-02         0.00000E+00
    0.40699E-02        -0.60675E-02         0.00000E+00
    0.28043E-02        -0.40589E-02         0.00000E+00
    0.14527E-02        -0.20360E-02         0.00000E+00
    0.00000E+00         0.00000E+00         0.00000E+00
    0.20054E-01        -0.31147E-01         0.00000E+00
    0.18024E-01        -0.29205E-01         0.00000E+00
    0.16219E-01        -0.27247E-01         0.00000E+00
    0.14610E-01        -0.25272E-01         0.00000E+00
    0.13164E-01        -0.23277E-01         0.00000E+00
    0.11851E-01        -0.21262E-01         0.00000E+00
    0.10639E-01        -0.19226E-01         0.00000E+00
    0.95006E-02        -0.17170E-01         0.00000E+00
    0.84073E-02        -0.15093E-01         0.00000E+00
    0.73330E-02        -0.12997E-01         0.00000E+00
    0.62529E-02        -0.10881E-01         0.00000E+00
    0.51434E-02        -0.87444E-02         0.00000E+00
    0.39827E-02        -0.65875E-02         0.00000E+00
    0.27504E-02        -0.44105E-02         0.00000E+00
    0.14282E-02        -0.22142E-02         0.00000E+00
    0.00000E+00         0.00000E+00         0.00000E+00
    0.19252E-01        -0.33276E-01         0.00000E+00
    0.17275E-01        -0.31222E-01         0.00000E+00
    0.15530E-01        -0.29149E-01         0.00000E+00
    0.13984E-01        -0.27053E-01         0.00000E+00
    0.12601E-01        -0.24933E-01         0.00000E+00
    0.11351E-01        -0.22788E-01         0.00000E+00
    0.10202E-01        -0.20618E-01         0.00000E+00
    0.91228E-02        -0.18424E-01         0.00000E+00
    0.80871E-02        -0.16207E-01         0.00000E+00
    0.70681E-02        -0.13965E-01         0.00000E+00
    0.60408E-02        -0.11700E-01         0.00000E+00
    0.49817E-02        -0.94097E-02         0.00000E+00
    0.38682E-02        -0.70943E-02         0.00000E+00
    0.26794E-02        -0.47536E-02         0.00000E+00
    0.13957E-02        -0.23883E-02         0.00000E+00
    0.00000E+00         0.00000E+00         0.00000E+00
    0.18263E-01        -0.35350E-01         0.00000E+00
    0.16354E-01        -0.33185E-01         0.00000E+00
    0.14684E-01        -0.30996E-01         0.00000E+00
    0.13216E-01        -0.28780E-01         0.00000E+00
    0.11912E-01        -0.26535E-01         0.00000E+00
    0.10739E-01        -0.24262E-01         0.00000E+00
    0.96649E-02        -0.21962E-01         0.00000E+00
    0.86585E-02        -0.19634E-01         0.00000E+00
    0.76922E-02        -0.17279E-01         0.00000E+00
    0.67400E-02        -0.14898E-01         0.00000E+00
    0.57770E-02        -0.12489E-01         0.00000E+00
    0.47793E-02        -0.10051E-01         0.00000E+00
    0.37242E-02        -0.75838E-02         0.00000E+00
    0.25896E-02        -0.50856E-02         0.00000E+00
    0.13545E-02        -0.25572E-02         0.00000E+00
    0.00000E+00         0.00000E+00         0.00000E+00
    0.17082E-01        -0.37353E-01         0.00000E+00
    0.15257E-01        -0.35078E-01         0.00000E+00
    0.13679E-01        -0.32774E-01         0.00000E+00
    0.12305E-01        -0.30439E-01         0.00000E+00
    0.11096E-01        -0.28071E-01         0.00000E+00
    0.10015E-01        -0.25672E-01         0.00000E+00
    0.90281E-02        -0.23244E-01         0.00000E+00
    0.81058E-02        -0.20786E-01         0.00000E+00
    0.72202E-02        -0.18300E-01         0.00000E+00
    0.63458E-02        -0.15786E-01         0.00000E+00
    0.54580E-02        -0.13240E-01         0.00000E+00
    0.45331E-02        -0.10663E-01         0.00000E+00
    0.35478E-02        -0.80515E-02         0.00000E+00
    0.24787E-02        -0.54037E-02         0.00000E+00
    0.13033E-02        -0.27195E-02         0.00000E+00
    0.00000E+00         0.00000E+00         0.00000E+00
    0.15702E-01        -0.39268E-01         0.00000E+00
    0.13982E-01        -0.36883E-01         0.00000E+00
    0.12514E-01        -0.34465E-01         0.00000E+00
    0.11252E-01        -0.32012E-01         0.00000E+00
    0.10153E-01        -0.29523E-01         0.00000E+00
    0.91765E-02        -0.27001E-01         0.00000E+00
    0.82897E-02        -0.24449E-01         0.00000E+00
    0.74624E-02        -0.21867E-01         0.00000E+00
    0.66679E-02        -0.19257E-01         0.00000E+00
    0.58813E-02        -0.16617E-01         0.00000E+00
    0.50793E-02        -0.13945E-01         0.00000E+00
    0.42383E-02        -0.11238E-01         0.00000E+00
    0.33346E-02        -0.84925E-02         0.00000E+00
    0.23437E-02        -0.57049E-02         0.00000E+00
    0.12404E-02        -0.28739E-02         0.00000E+00
    0.00000E+00         0.00000E+00         0.00000E+00
    0.14120E-01        -0.41074E-01         0.00000E+00
    0.12525E-01        -0.38581E-01         0.00000E+00
    0.11189E-01        -0.36050E-01         0.00000E+00
    0.10057E-01        -0.33479E-01         0.00000E+00
    0.90825E-02        -0.30871E-01         0.00000E+00
    0.82242E-02        -0.28230E-01         0.00000E+00
    0.74481E-02        -0.25559E-01         0.00000E+00
    0.67253E-02        -0.22861E-01         0.00000E+00
    0.60307E-02        -0.20135E-01         0.00000E+00
    0.53413E-02        -0.17380E-01         0.00000E+00
    0.46347E-02        -0.14593E-01         0.00000E+00
    0.38885E-02        -0.11768E-01         0.00000E+00
    0.30789E-02        -0.89011E-02         0.00000E+00
    0.21799E-02        -0.59859E-02         0.00000E+00
    0.11633E-02        -0.30190E-02         0.00000E+00
    0.00000E+00         0.00000E+00         0.00000E+00
    0.12327E-01        -0.42747E-01         0.00000E+00
    0.10884E-01        -0.40148E-01         0.00000E+00
    0.97024E-02        -0.37503E-01         0.00000E+00
    0.87206E-02        -0.34816E-01         0.00000E+00
    0.78862E-02        -0.32092E-01         0.00000E+00
    0.71572E-02        -0.29337E-01         0.00000E+00
    0.65009E-02        -0.26555E-01         0.00000E+00
    0.58905E-02        -0.23749E-01         0.00000E+00
    0.53033E-02        -0.20919E-01         0.00000E+00
    0.47186E-02        -0.18062E-01         0.00000E+00
    0.41163E-02        -0.15173E-01         0.00000E+00
    0.34756E-02        -0.12245E-01         0.00000E+00
    0.27729E-02        -0.92713E-02         0.00000E+00
    0.19811E-02        -0.62427E-02         0.00000E+00
    0.10686E-02        -0.31531E-02         0.00000E+00
    0.00000E+00         0.00000E+00         0.00000E+00
    0.10317E-01        -0.44259E-01         0.00000E+00
    0.90567E-02        -0.41554E-01         0.00000E+00
    0.80571E-02        -0.38797E-01         0.00000E+00
    0.72452E-02        -0.35996E-01         0.00000E+00
    0.65646E-02        -0.33160E-01         0.00000E+00
    0.59746E-02        -0.30298E-01         0.00000E+00
    0.54450E-02        -0.27415E-01         0.00000E+00
    0.49526E-02        -0.24514E-01         0.00000E+00
    0.44783E-02        -0.21593E-01         0.00000E+00
    0.40045E-02        -0.18648E-01         0.00000E+00
    0.35141E-02        -0.15673E-01         0.00000E+00
    0.29885E-02        -0.12659E-01         0.00000E+00
    0.24059E-02        -0.95959E-02         0.00000E+00
    0.17386E-02        -0.64713E-02         0.00000E+00
    0.95112E-03        -0.32747E-02         0.00000E+00
    0.00000E+00         0.00000E+00         0.00000E+00
    0.80842E-02        -0.45574E-01         0.00000E+00
    0.70452E-02        -0.42764E-01         0.00000E+00
    0.62574E-02        -0.39896E-01         0.00000E+00
    0.56343E-02        -0.36984E-01         0.00000E+00
    0.51186E-02        -0.34044E-01         0.00000E+00
    0.46739E-02        -0.31087E-01         0.00000E+00
    0.42753E-02        -0.28117E-01         0.00000E+00
    0.39046E-02        -0.25136E-01         0.00000E+00
    0.35468E-02        -0.22140E-01         0.00000E+00
    0.31884E-02        -0.19124E-01         0.00000E+00
    0.28158E-02        -0.16081E-01         0.00000E+00
    0.24141E-02        -0.12999E-01         0.00000E+00
    0.19642E-02        -0.98666E-02         0.00000E+00
    0.14402E-02        -0.66664E-02         0.00000E+00
    0.80347E-03        -0.33817E-02         0.00000E+00
    0.00000E+00         0.00000E+00         0.00000E+00
    0.56210E-02        -0.46645E-01         0.00000E+00
    0.48545E-02        -0.43730E-01         0.00000E+00
    0.43107E-02        -0.40752E-01         0.00000E+00
    0.38914E-02        -0.37739E-01         0.00000E+00
    0.35470E-02        -0.34711E-01         0.00000E+00
    0.32506E-02        -0.31677E-01         0.00000E+00
    0.29849E-02        -0.28639E-01         0.00000E+00
    0.27375E-02        -0.25596E-01         0.00000E+00
    0.24983E-02        -0.22544E-01         0.00000E+00
    0.22581E-02        -0.19476E-01         0.00000E+00
    0.20076E-02        -0.16383E-01         0.00000E+00
    0.17362E-02        -0.13254E-01         0.00000E+00
    0.14300E-02        -0.10073E-01         0.00000E+00
    0.10684E-02        -0.68212E-02         0.00000E+00
    0.61388E-03        -0.34714E-02         0.00000E+00
    0.00000E+00         0.00000E+00         0.00000E+00
    0.29224E-02        -0.47405E-01         0.00000E+00
    0.24990E-02        -0.44385E-01         0.00000E+00
    0.22256E-02        -0.41308E-01         0.00000E+00
    0.20162E-02        -0.38218E-01         0.00000E+00
    0.18444E-02        -0.35128E-01         0.00000E+00
    0.16965E-02        -0.32042E-01         0.00000E+00
    0.15639E-02        -0.28960E-01         0.00000E+00
    0.14403E-02        -0.25879E-01         0.00000E+00
    0.13205E-02        -0.22792E-01         0.00000E+00
    0.12001E-02        -0.19692E-01         0.00000E+00
    0.10743E-02        -0.16570E-01         0.00000E+00
    0.93755E-03        -0.13413E-01         0.00000E+00
    0.78260E-03        -0.10205E-01         0.00000E+00
    0.59784E-03        -0.69243E-02         0.00000E+00
    0.36136E-03        -0.35397E-02         0.00000E+00
    0.00000E+00         0.00000E+00         0.00000E+00
    0.00000E+00        -0.47728E-01         0.00000E+00
    0.00000E+00        -0.44626E-01         0.00000E+00
    0.00000E+00        -0.41503E-01         0.00000E+00
    0.00000E+00        -0.38383E-01         0.00000E+00
    0.00000E+00        -0.35270E-01         0.00000E+00
    0.00000E+00        -0.32166E-01         0.00000E+00
    0.00000E+00        -0.29069E-01         0.00000E+00
    0.00000E+00        -0.25974E-01         0.00000E+00
    0.00000E+00        -0.22876E-01         0.00000E+00
    0.00000E+00        -0.19765E-01         0.00000E+00
    0.00000E+00        -0.16633E-01         0.00000E+00
    0.00000E+00        -0.13467E-01         0.00000E+00
    0.00000E+00        -0.10250E-01         0.00000E+00
    0.00000E+00        -0.69610E-02         0.00000E+00
    0.00000E+00        -0.35678E-02         0.00000E+00
    0.00000E+00         0.00000E+00         0.00000E+00
CELL_DATA        450
VECTORS vDarcy double 
    0.11602E-05         0.13029E-09         0.00000E+00
    0.11601E-05         0.31218E-09         0.00000E+00
    0.11600E-05         0.38728E-09         0.00000E+00
    0.11600E-05         0.41978E-09         0.00000E+00
    0.11600E-05         0.42938E-09         0.00000E+00
    0.11600E-05         0.42528E-09         0.00000E+00
    0.11600E-05         0.41235E-09         0.00000E+00
    0.11600E-05         0.39333E-09         0.00000E+00
    0.11600E-05         0.36972E-09         0.00000E+00
    0.11600E-05         0.34210E-09         0.00000E+00
    0.11600E-05         0.31029E-09         0.00000E+00
    0.11600E-05         0.27309E-09         0.00000E+00
    0.11600E-05         0.22758E-09         0.00000E+00
    0.11600E-05         0.16676E-09         0.00000E+00
    0.11599E-05         0.65640E-10         0.00000E+00
    0.11604E-05         0.49984E-10         0.00000E+00
    0.11602E-05         0.14991E-09         0.00000E+00
    0.11601E-05         0.22923E-09         0.00000E+00
    0.11601E-05         0.27455E-09         0.00000E+00
    0.11600E-05         0.29748E-09         0.00000E+00
    0.11600E-05         0.30534E-09         0.00000E+00
    0.11600E-05         0.30268E-09         0.00000E+00
    0.11600E-05         0.29227E-09         0.00000E+00
    0.11600E-05         0.27571E-09         0.00000E+00
    0.11600E-05         0.25367E-09         0.00000E+00
    0.11600E-05         0.22603E-09         0.00000E+00
    0.11600E-05         0.19173E-09         0.00000E+00
    0.11600E-05         0.14846E-09         0.00000E+00
    0.11599E-05         0.92001E-10         0.00000E+00
    0.11599E-05         0.29898E-10         0.00000E+00
    0.11604E-05         0.19604E-10         0.00000E+00
    0.11603E-05         0.67104E-10         0.00000E+00
    0.11602E-05         0.11949E-09         0.00000E+00
    0.11601E-05         0.16053E-09         0.00000E+00
    0.11601E-05         0.18672E-09         0.00000E+00
    0.11600E-05         0.20049E-09         0.00000E+00
    0.11600E-05         0.20444E-09         0.00000E+00
    0.11600E-05         0.20056E-09         0.00000E+00
    0.11600E-05         0.19014E-09         0.00000E+00
    0.11600E-05         0.17387E-09         0.00000E+00
    0.11600E-05         0.15189E-09         0.00000E+00
    0.11600E-05         0.12388E-09         0.00000E+00
    0.11599E-05         0.89514E-10         0.00000E+00
    0.11599E-05         0.51232E-10         0.00000E+00
    0.11598E-05         0.15877E-10         0.00000E+00
    0.11605E-05         0.35626E-11         0.00000E+00
    0.11604E-05         0.19954E-10         0.00000E+00
    0.11602E-05         0.47999E-10         0.00000E+00
    0.11602E-05         0.76276E-10         0.00000E+00
    0.11601E-05         0.98541E-10         0.00000E+00
    0.11601E-05         0.11303E-09         0.00000E+00
    0.11601E-05         0.12010E-09         0.00000E+00
    0.11600E-05         0.12059E-09         0.00000E+00
    0.11600E-05         0.11527E-09         0.00000E+00
    0.11600E-05         0.10473E-09         0.00000E+00
    0.11600E-05         0.89404E-10         0.00000E+00
    0.11600E-05         0.69801E-10         0.00000E+00
    0.11599E-05         0.47278E-10         0.00000E+00
    0.11599E-05         0.24799E-10         0.00000E+00
    0.11598E-05         0.70273E-11         0.00000E+00
    0.11605E-05        -0.60262E-11         0.00000E+00
    0.11604E-05        -0.93981E-11         0.00000E+00
    0.11603E-05         0.39820E-12         0.00000E+00
    0.11602E-05         0.15670E-10         0.00000E+00
    0.11602E-05         0.30798E-10         0.00000E+00
    0.11601E-05         0.42724E-10         0.00000E+00
    0.11601E-05         0.50275E-10         0.00000E+00
    0.11601E-05         0.53276E-10         0.00000E+00
    0.11600E-05         0.51967E-10         0.00000E+00
    0.11600E-05         0.46761E-10         0.00000E+00
    0.11600E-05         0.38242E-10         0.00000E+00
    0.11600E-05         0.27364E-10         0.00000E+00
    0.11599E-05         0.15759E-10         0.00000E+00
    0.11599E-05         0.59200E-11         0.00000E+00
    0.11599E-05         0.90606E-12         0.00000E+00
    0.11605E-05        -0.12142E-10         0.00000E+00
    0.11604E-05        -0.28605E-10         0.00000E+00
    0.11603E-05        -0.32095E-10         0.00000E+00
    0.11602E-05        -0.27814E-10         0.00000E+00
    0.11602E-05        -0.20188E-10         0.00000E+00
    0.11601E-05        -0.12285E-10         0.00000E+00
    0.11601E-05        -0.58614E-11         0.00000E+00
    0.11601E-05        -0.17139E-11         0.00000E+00
    0.11600E-05        -0.33823E-13         0.00000E+00
    0.11600E-05        -0.61660E-12         0.00000E+00
    0.11600E-05        -0.29120E-11         0.00000E+00
    0.11600E-05        -0.59679E-11         0.00000E+00
    0.11599E-05        -0.83578E-11         0.00000E+00
    0.11599E-05        -0.82384E-11         0.00000E+00
    0.11599E-05        -0.36495E-11         0.00000E+00
    0.11605E-05        -0.16169E-10         0.00000E+00
    0.11604E-05        -0.41518E-10         0.00000E+00
    0.11603E-05        -0.54634E-10         0.00000E+00
    0.11603E-05        -0.59067E-10         0.00000E+00
    0.11602E-05        -0.58144E-10         0.00000E+00
    0.11602E-05        -0.54505E-10         0.00000E+00
    0.11601E-05        -0.49959E-10         0.00000E+00
    0.11601E-05        -0.45559E-10         0.00000E+00
    0.11601E-05        -0.41767E-10         0.00000E+00
    0.11600E-05        -0.38584E-10         0.00000E+00
    0.11600E-05        -0.35623E-10         0.00000E+00
    0.11600E-05        -0.32135E-10         0.00000E+00
    0.11600E-05        -0.27057E-10         0.00000E+00
    0.11599E-05        -0.19130E-10         0.00000E+00
    0.11599E-05        -0.71443E-11         0.00000E+00
    0.11605E-05        -0.18853E-10         0.00000E+00
    0.11604E-05        -0.50306E-10         0.00000E+00
    0.11603E-05        -0.70397E-10         0.00000E+00
    0.11603E-05        -0.81547E-10         0.00000E+00
    0.11602E-05        -0.86197E-10         0.00000E+00
    0.11602E-05        -0.86472E-10         0.00000E+00
    0.11602E-05        -0.83996E-10         0.00000E+00
    0.11601E-05        -0.79856E-10         0.00000E+00
    0.11601E-05        -0.74648E-10         0.00000E+00
    0.11601E-05        -0.68546E-10         0.00000E+00
    0.11600E-05        -0.61364E-10         0.00000E+00
    0.11600E-05        -0.52624E-10         0.00000E+00
    0.11600E-05        -0.41630E-10         0.00000E+00
    0.11600E-05        -0.27604E-10         0.00000E+00
    0.11600E-05        -0.98668E-11         0.00000E+00
    0.11605E-05        -0.20646E-10         0.00000E+00
    0.11604E-05        -0.56314E-10         0.00000E+00
    0.11604E-05        -0.81464E-10         0.00000E+00
    0.11603E-05        -0.97718E-10         0.00000E+00
    0.11603E-05        -0.10683E-09         0.00000E+00
    0.11602E-05        -0.11045E-09         0.00000E+00
    0.11602E-05        -0.10993E-09         0.00000E+00
    0.11602E-05        -0.10630E-09         0.00000E+00
    0.11601E-05        -0.10020E-09         0.00000E+00
    0.11601E-05        -0.91910E-10         0.00000E+00
    0.11601E-05        -0.81455E-10         0.00000E+00
    0.11601E-05        -0.68607E-10         0.00000E+00
    0.11600E-05        -0.52998E-10         0.00000E+00
    0.11600E-05        -0.34228E-10         0.00000E+00
    0.11600E-05        -0.12001E-10         0.00000E+00
    0.11604E-05        -0.21846E-10         0.00000E+00
    0.11604E-05        -0.60438E-10         0.00000E+00
    0.11604E-05        -0.89267E-10         0.00000E+00
    0.11603E-05        -0.10937E-09         0.00000E+00
    0.11603E-05        -0.12198E-09         0.00000E+00
    0.11602E-05        -0.12834E-09         0.00000E+00
    0.11602E-05        -0.12955E-09         0.00000E+00
    0.11602E-05        -0.12651E-09         0.00000E+00
    0.11602E-05        -0.11986E-09         0.00000E+00
    0.11601E-05        -0.10998E-09         0.00000E+00
    0.11601E-05        -0.97043E-10         0.00000E+00
    0.11601E-05        -0.81037E-10         0.00000E+00
    0.11601E-05        -0.61864E-10         0.00000E+00
    0.11601E-05        -0.39415E-10         0.00000E+00
    0.11600E-05        -0.13680E-10         0.00000E+00
    0.11604E-05        -0.22662E-10         0.00000E+00
    0.11604E-05        -0.63311E-10         0.00000E+00
    0.11603E-05        -0.94834E-10         0.00000E+00
    0.11603E-05        -0.11784E-09         0.00000E+00
    0.11603E-05        -0.13315E-09         0.00000E+00
    0.11603E-05        -0.14170E-09         0.00000E+00
    0.11602E-05        -0.14435E-09         0.00000E+00
    0.11602E-05        -0.14190E-09         0.00000E+00
    0.11602E-05        -0.13493E-09         0.00000E+00
    0.11602E-05        -0.12391E-09         0.00000E+00
    0.11602E-05        -0.10911E-09         0.00000E+00
    0.11601E-05        -0.90697E-10         0.00000E+00
    0.11601E-05        -0.68786E-10         0.00000E+00
    0.11601E-05        -0.43489E-10         0.00000E+00
    0.11601E-05        -0.15005E-10         0.00000E+00
    0.11604E-05        -0.23246E-10         0.00000E+00
    0.11604E-05        -0.65396E-10         0.00000E+00
    0.11603E-05        -0.98926E-10         0.00000E+00
    0.11603E-05        -0.12412E-09         0.00000E+00
    0.11603E-05        -0.14152E-09         0.00000E+00
    0.11603E-05        -0.15177E-09         0.00000E+00
    0.11603E-05        -0.15560E-09         0.00000E+00
    0.11602E-05        -0.15366E-09         0.00000E+00
    0.11602E-05        -0.14652E-09         0.00000E+00
    0.11602E-05        -0.13467E-09         0.00000E+00
    0.11602E-05        -0.11847E-09         0.00000E+00
    0.11602E-05        -0.98233E-10         0.00000E+00
    0.11602E-05        -0.74217E-10         0.00000E+00
    0.11602E-05        -0.46708E-10         0.00000E+00
    0.11601E-05        -0.16059E-10         0.00000E+00
    0.11604E-05        -0.23712E-10         0.00000E+00
    0.11604E-05        -0.67037E-10         0.00000E+00
    0.11603E-05        -0.10211E-09         0.00000E+00
    0.11603E-05        -0.12898E-09         0.00000E+00
    0.11603E-05        -0.14797E-09         0.00000E+00
    0.11603E-05        -0.15955E-09         0.00000E+00
    0.11603E-05        -0.16428E-09         0.00000E+00
    0.11603E-05        -0.16276E-09         0.00000E+00
    0.11602E-05        -0.15552E-09         0.00000E+00
    0.11602E-05        -0.14305E-09         0.00000E+00
    0.11602E-05        -0.12580E-09         0.00000E+00
    0.11602E-05        -0.10417E-09         0.00000E+00
    0.11602E-05        -0.78523E-10         0.00000E+00
    0.11602E-05        -0.49280E-10         0.00000E+00
    0.11602E-05        -0.16906E-10         0.00000E+00
    0.11603E-05        -0.24145E-10         0.00000E+00
    0.11603E-05        -0.68489E-10         0.00000E+00
    0.11603E-05        -0.10480E-09         0.00000E+00
    0.11603E-05        -0.13298E-09         0.00000E+00
    0.11603E-05        -0.15318E-09         0.00000E+00
    0.11603E-05        -0.16575E-09         0.00000E+00
    0.11603E-05        -0.17117E-09         0.00000E+00
    0.11603E-05        -0.16996E-09         0.00000E+00
    0.11603E-05        -0.16263E-09         0.00000E+00
    0.11603E-05        -0.14969E-09         0.00000E+00
    0.11603E-05        -0.13163E-09         0.00000E+00
    0.11603E-05        -0.10891E-09         0.00000E+00
    0.11603E-05        -0.81990E-10         0.00000E+00
    0.11603E-05        -0.51371E-10         0.00000E+00
    0.11603E-05        -0.17600E-10         0.00000E+00
    0.11603E-05        -0.24608E-10         0.00000E+00
    0.11603E-05        -0.69939E-10         0.00000E+00
    0.11603E-05        -0.10731E-09         0.00000E+00
    0.11603E-05        -0.13652E-09         0.00000E+00
    0.11603E-05        -0.15764E-09         0.00000E+00
    0.11603E-05        -0.17094E-09         0.00000E+00
    0.11603E-05        -0.17684E-09         0.00000E+00
    0.11603E-05        -0.17581E-09         0.00000E+00
    0.11603E-05        -0.16838E-09         0.00000E+00
    0.11603E-05        -0.15505E-09         0.00000E+00
    0.11603E-05        -0.13635E-09         0.00000E+00
    0.11603E-05        -0.11277E-09         0.00000E+00
    0.11603E-05        -0.84838E-10         0.00000E+00
    0.11603E-05        -0.53105E-10         0.00000E+00
    0.11603E-05        -0.18180E-10         0.00000E+00
    0.11603E-05        -0.25142E-10         0.00000E+00
    0.11603E-05        -0.71511E-10         0.00000E+00
    0.11603E-05        -0.10984E-09         0.00000E+00
    0.11603E-05        -0.13989E-09         0.00000E+00
    0.11603E-05        -0.16168E-09         0.00000E+00
    0.11603E-05        -0.17547E-09         0.00000E+00
    0.11603E-05        -0.18165E-09         0.00000E+00
    0.11603E-05        -0.18070E-09         0.00000E+00
    0.11603E-05        -0.17312E-09         0.00000E+00
    0.11604E-05        -0.15946E-09         0.00000E+00
    0.11604E-05        -0.14023E-09         0.00000E+00
    0.11604E-05        -0.11597E-09         0.00000E+00
    0.11604E-05        -0.87222E-10         0.00000E+00
    0.11604E-05        -0.54576E-10         0.00000E+00
    0.11604E-05        -0.18677E-10         0.00000E+00
    0.11603E-05        -0.25772E-10         0.00000E+00
    0.11603E-05        -0.73281E-10         0.00000E+00
    0.11603E-05        -0.11251E-09         0.00000E+00
    0.11603E-05        -0.14323E-09         0.00000E+00
    0.11603E-05        -0.16548E-09         0.00000E+00
    0.11603E-05        -0.17954E-09         0.00000E+00
    0.11603E-05        -0.18582E-09         0.00000E+00
    0.11604E-05        -0.18482E-09         0.00000E+00
    0.11604E-05        -0.17707E-09         0.00000E+00
    0.11604E-05        -0.16309E-09         0.00000E+00
    0.11604E-05        -0.14344E-09         0.00000E+00
    0.11604E-05        -0.11863E-09         0.00000E+00
    0.11604E-05        -0.89237E-10         0.00000E+00
    0.11604E-05        -0.55842E-10         0.00000E+00
    0.11604E-05        -0.19111E-10         0.00000E+00
    0.11602E-05        -0.26510E-10         0.00000E+00
    0.11603E-05        -0.75278E-10         0.00000E+00
    0.11603E-05        -0.11537E-09         0.00000E+00
    0.11603E-05        -0.14660E-09         0.00000E+00
    0.11603E-05        -0.16910E-09         0.00000E+00
    0.11603E-05        -0.18321E-09         0.00000E+00
    0.11604E-05        -0.18941E-09         0.00000E+00
    0.11604E-05        -0.18823E-09         0.00000E+00
    0.11604E-05        -0.18025E-09         0.00000E+00
    0.11604E-05        -0.16600E-09         0.00000E+00
    0.11604E-05        -0.14601E-09         0.00000E+00
    0.11605E-05        -0.12081E-09         0.00000E+00
    0.11605E-05        -0.90922E-10         0.00000E+00
    0.11605E-05        -0.56930E-10         0.00000E+00
    0.11605E-05        -0.19492E-10         0.00000E+00
    0.11602E-05        -0.27352E-10         0.00000E+00
    0.11602E-05        -0.77487E-10         0.00000E+00
    0.11603E-05        -0.11837E-09         0.00000E+00
    0.11603E-05        -0.14993E-09         0.00000E+00
    0.11603E-05        -0.17245E-09         0.00000E+00
    0.11604E-05        -0.18637E-09         0.00000E+00
    0.11604E-05        -0.19229E-09         0.00000E+00
    0.11604E-05        -0.19083E-09         0.00000E+00
    0.11604E-05        -0.18258E-09         0.00000E+00
    0.11605E-05        -0.16810E-09         0.00000E+00
    0.11605E-05        -0.14790E-09         0.00000E+00
    0.11605E-05        -0.12246E-09         0.00000E+00
    0.11605E-05        -0.92264E-10         0.00000E+00
    0.11605E-05        -0.57841E-10         0.00000E+00
    0.11606E-05        -0.19822E-10         0.00000E+00
    0.11602E-05        -0.28282E-10         0.00000E+00
    0.11602E-05        -0.79851E-10         0.00000E+00
    0.11602E-05        -0.12140E-09         0.00000E+00
    0.11603E-05        -0.15307E-09         0.00000E+00
    0.11603E-05        -0.17531E-09         0.00000E+00
    0.11604E-05        -0.18878E-09         0.00000E+00
    0.11604E-05        -0.19421E-09         0.00000E+00
    0.11604E-05        -0.19234E-09         0.00000E+00
    0.11605E-05        -0.18381E-09         0.00000E+00
    0.11605E-05        -0.16919E-09         0.00000E+00
    0.11605E-05        -0.14894E-09         0.00000E+00
    0.11606E-05        -0.12348E-09         0.00000E+00
    0.11606E-05        -0.93198E-10         0.00000E+00
    0.11606E-05        -0.58548E-10         0.00000E+00
    0.11606E-05        -0.20096E-10         0.00000E+00
    0.11601E-05        -0.29271E-10         0.00000E+00
    0.11602E-05        -0.82275E-10         0.00000E+00
    0.11602E-05        -0.12430E-09         0.00000E+00
    0.11603E-05        -0.15574E-09         0.00000E+00
    0.11603E-05        -0.17735E-09         0.00000E+00
    0.11604E-05        -0.19003E-09         0.00000E+00
    0.11604E-05        -0.19474E-09         0.00000E+00
    0.11605E-05        -0.19235E-09         0.00000E+00
    0.11605E-05        -0.18355E-09         0.00000E+00
    0.11605E-05        -0.16892E-09         0.00000E+00
    0.11606E-05        -0.14886E-09         0.00000E+00
    0.11606E-05        -0.12367E-09         0.00000E+00
    0.11606E-05        -0.93608E-10         0.00000E+00
    0.11607E-05        -0.58996E-10         0.00000E+00
    0.11607E-05        -0.20299E-10         0.00000E+00
    0.11601E-05        -0.30279E-10         0.00000E+00
    0.11602E-05        -0.84618E-10         0.00000E+00
    0.11602E-05        -0.12678E-09         0.00000E+00
    0.11603E-05        -0.15755E-09         0.00000E+00
    0.11603E-05        -0.17805E-09         0.00000E+00
    0.11604E-05        -0.18956E-09         0.00000E+00
    0.11605E-05        -0.19330E-09         0.00000E+00
    0.11605E-05        -0.19028E-09         0.00000E+00
    0.11605E-05        -0.18129E-09         0.00000E+00
    0.11606E-05        -0.16686E-09         0.00000E+00
    0.11606E-05        -0.14730E-09         0.00000E+00
    0.11607E-05        -0.12277E-09         0.00000E+00
    0.11607E-05        -0.93329E-10         0.00000E+00
    0.11607E-05        -0.59110E-10         0.00000E+00
    0.11607E-05        -0.20414E-10         0.00000E+00
    0.11601E-05        -0.31253E-10         0.00000E+00
    0.11601E-05        -0.86686E-10         0.00000E+00
    0.11602E-05        -0.12848E-09         0.00000E+00
    0.11603E-05        -0.15794E-09         0.00000E+00
    0.11603E-05        -0.17675E-09         0.00000E+00
    0.11604E-05        -0.18663E-09         0.00000E+00
    0.11605E-05        -0.18912E-09         0.00000E+00
    0.11605E-05        -0.18542E-09         0.00000E+00
    0.11606E-05        -0.17636E-09         0.00000E+00
    0.11606E-05        -0.16242E-09         0.00000E+00
    0.11607E-05        -0.14380E-09         0.00000E+00
    0.11607E-05        -0.12043E-09         0.00000E+00
    0.11607E-05        -0.92147E-10         0.00000E+00
    0.11608E-05        -0.58786E-10         0.00000E+00
    0.11608E-05        -0.20413E-10         0.00000E+00
    0.11600E-05        -0.32123E-10         0.00000E+00
    0.11601E-05        -0.88220E-10         0.00000E+00
    0.11602E-05        -0.12889E-09         0.00000E+00
    0.11603E-05        -0.15619E-09         0.00000E+00
    0.11604E-05        -0.17257E-09         0.00000E+00
    0.11604E-05        -0.18033E-09         0.00000E+00
    0.11605E-05        -0.18133E-09         0.00000E+00
    0.11606E-05        -0.17695E-09         0.00000E+00
    0.11606E-05        -0.16801E-09         0.00000E+00
    0.11607E-05        -0.15495E-09         0.00000E+00
    0.11607E-05        -0.13779E-09         0.00000E+00
    0.11608E-05        -0.11624E-09         0.00000E+00
    0.11608E-05        -0.89788E-10         0.00000E+00
    0.11608E-05        -0.57897E-10         0.00000E+00
    0.11609E-05        -0.20265E-10         0.00000E+00
    0.11600E-05        -0.32792E-10         0.00000E+00
    0.11601E-05        -0.88846E-10         0.00000E+00
    0.11602E-05        -0.12727E-09         0.00000E+00
    0.11603E-05        -0.15130E-09         0.00000E+00
    0.11604E-05        -0.16440E-09         0.00000E+00
    0.11604E-05        -0.16956E-09         0.00000E+00
    0.11605E-05        -0.16896E-09         0.00000E+00
    0.11606E-05        -0.16399E-09         0.00000E+00
    0.11606E-05        -0.15547E-09         0.00000E+00
    0.11607E-05        -0.14372E-09         0.00000E+00
    0.11608E-05        -0.12863E-09         0.00000E+00
    0.11608E-05        -0.10966E-09         0.00000E+00
    0.11609E-05        -0.85901E-10         0.00000E+00
    0.11609E-05        -0.56274E-10         0.00000E+00
    0.11609E-05        -0.19930E-10         0.00000E+00
    0.11599E-05        -0.33113E-10         0.00000E+00
    0.11601E-05        -0.87982E-10         0.00000E+00
    0.11602E-05        -0.12254E-09         0.00000E+00
    0.11603E-05        -0.14188E-09         0.00000E+00
    0.11604E-05        -0.15089E-09         0.00000E+00
    0.11605E-05        -0.15320E-09         0.00000E+00
    0.11605E-05        -0.15106E-09         0.00000E+00
    0.11606E-05        -0.14577E-09         0.00000E+00
    0.11607E-05        -0.13803E-09         0.00000E+00
    0.11607E-05        -0.12805E-09         0.00000E+00
    0.11608E-05        -0.11563E-09         0.00000E+00
    0.11608E-05        -0.10005E-09         0.00000E+00
    0.11609E-05        -0.80005E-10         0.00000E+00
    0.11609E-05        -0.53677E-10         0.00000E+00
    0.11610E-05        -0.19349E-10         0.00000E+00
    0.11599E-05        -0.32811E-10         0.00000E+00
    0.11600E-05        -0.84595E-10         0.00000E+00
    0.11602E-05        -0.11293E-09         0.00000E+00
    0.11603E-05        -0.12605E-09         0.00000E+00
    0.11604E-05        -0.13054E-09         0.00000E+00
    0.11605E-05        -0.13020E-09         0.00000E+00
    0.11606E-05        -0.12696E-09         0.00000E+00
    0.11606E-05        -0.12181E-09         0.00000E+00
    0.11607E-05        -0.11524E-09         0.00000E+00
    0.11608E-05        -0.10738E-09         0.00000E+00
    0.11608E-05        -0.98052E-10         0.00000E+00
    0.11609E-05        -0.86589E-10         0.00000E+00
    0.11609E-05        -0.71375E-10         0.00000E+00
    0.11610E-05        -0.49706E-10         0.00000E+00
    0.11611E-05        -0.18433E-10         0.00000E+00
    0.11598E-05        -0.31272E-10         0.00000E+00
    0.11600E-05        -0.76599E-10         0.00000E+00
    0.11602E-05        -0.95500E-10         0.00000E+00
    0.11603E-05        -0.10151E-09         0.00000E+00
    0.11604E-05        -0.10211E-09         0.00000E+00
    0.11605E-05        -0.10006E-09         0.00000E+00
    0.11606E-05        -0.96551E-10         0.00000E+00
    0.11607E-05        -0.92156E-10         0.00000E+00
    0.11607E-05        -0.87137E-10         0.00000E+00
    0.11608E-05        -0.81580E-10         0.00000E+00
    0.11609E-05        -0.75394E-10         0.00000E+00
    0.11609E-05        -0.68185E-10         0.00000E+00
    0.11610E-05        -0.58819E-10         0.00000E+00
    0.11610E-05        -0.43606E-10         0.00000E+00
    0.11611E-05        -0.16914E-10         0.00000E+00
    0.11598E-05        -0.26598E-10         0.00000E+00
    0.11600E-05        -0.59009E-10         0.00000E+00
    0.11602E-05        -0.65990E-10         0.00000E+00
    0.11603E-05        -0.66823E-10         0.00000E+00
    0.11604E-05        -0.65522E-10         0.00000E+00
    0.11605E-05        -0.63273E-10         0.00000E+00
    0.11606E-05        -0.60552E-10         0.00000E+00
    0.11607E-05        -0.57565E-10         0.00000E+00
    0.11608E-05        -0.54417E-10         0.00000E+00
    0.11608E-05        -0.51153E-10         0.00000E+00
    0.11609E-05        -0.47773E-10         0.00000E+00
    0.11609E-05        -0.44172E-10         0.00000E+00
    0.11610E-05        -0.39991E-10         0.00000E+00
    0.11611E-05        -0.33508E-10         0.00000E+00
    0.11612E-05        -0.14665E-10         0.00000E+00
    0.11598E-05        -0.11554E-10         0.00000E+00
    0.11600E-05        -0.23461E-10         0.00000E+00
    0.11602E-05        -0.23808E-10         0.00000E+00
    0.11604E-05        -0.23445E-10         0.00000E+00
    0.11605E-05        -0.22636E-10         0.00000E+00
    0.11606E-05        -0.21680E-10         0.00000E+00
    0.11607E-05        -0.20652E-10         0.00000E+00
    0.11607E-05        -0.19591E-10         0.00000E+00
    0.11608E-05        -0.18518E-10         0.00000E+00
    0.11608E-05        -0.17448E-10         0.00000E+00
    0.11609E-05        -0.16395E-10         0.00000E+00
    0.11610E-05        -0.15374E-10         0.00000E+00
    0.11610E-05        -0.14306E-10         0.00000E+00
    0.11611E-05        -0.13557E-10         0.00000E+00
    0.11612E-05        -0.66905E-11         0.00000E+00
POINT_DATA        496
VECTORS vDarcyNodal double 
    0.11601E-05         0.19035E-09         0.00000E+00
    0.11601E-05         0.30564E-09         0.00000E+00
    0.11601E-05         0.44980E-09         0.00000E+00
    0.11600E-05         0.48930E-09         0.00000E+00
    0.11600E-05         0.50002E-09         0.00000E+00
    0.11600E-05         0.49433E-09         0.00000E+00
    0.11600E-05         0.47906E-09         0.00000E+00
    0.11600E-05         0.45768E-09         0.00000E+00
    0.11600E-05         0.43210E-09         0.00000E+00
    0.11600E-05         0.40326E-09         0.00000E+00
    0.11600E-05         0.37134E-09         0.00000E+00
    0.11600E-05         0.33574E-09         0.00000E+00
    0.11600E-05         0.29448E-09         0.00000E+00
    0.11600E-05         0.24419E-09         0.00000E+00
    0.11600E-05         0.15450E-09         0.00000E+00
    0.11600E-05         0.92675E-10         0.00000E+00
    0.11602E-05         0.70215E-10         0.00000E+00
    0.11602E-05         0.13681E-09         0.00000E+00
    0.11601E-05         0.24964E-09         0.00000E+00
    0.11601E-05         0.31774E-09         0.00000E+00
    0.11600E-05         0.34911E-09         0.00000E+00
    0.11600E-05         0.36031E-09         0.00000E+00
    0.11600E-05         0.35855E-09         0.00000E+00
    0.11600E-05         0.34798E-09         0.00000E+00
    0.11600E-05         0.33092E-09         0.00000E+00
    0.11600E-05         0.30853E-09         0.00000E+00
    0.11600E-05         0.28103E-09         0.00000E+00
    0.11600E-05         0.24762E-09         0.00000E+00
    0.11600E-05         0.20618E-09         0.00000E+00
    0.11600E-05         0.15014E-09         0.00000E+00
    0.11599E-05         0.77898E-10         0.00000E+00
    0.11599E-05         0.38603E-10         0.00000E+00
    0.11604E-05         0.29756E-10         0.00000E+00
    0.11603E-05         0.63088E-10         0.00000E+00
    0.11602E-05         0.12951E-09         0.00000E+00
    0.11601E-05         0.18605E-09         0.00000E+00
    0.11601E-05         0.22292E-09         0.00000E+00
    0.11600E-05         0.24251E-09         0.00000E+00
    0.11600E-05         0.24947E-09         0.00000E+00
    0.11600E-05         0.24698E-09         0.00000E+00
    0.11600E-05         0.23706E-09         0.00000E+00
    0.11600E-05         0.22085E-09         0.00000E+00
    0.11600E-05         0.19867E-09         0.00000E+00
    0.11600E-05         0.17014E-09         0.00000E+00
    0.11600E-05         0.13402E-09         0.00000E+00
    0.11599E-05         0.90325E-10         0.00000E+00
    0.11599E-05         0.44004E-10         0.00000E+00
    0.11599E-05         0.21194E-10         0.00000E+00
    0.11605E-05         0.94546E-11         0.00000E+00
    0.11604E-05         0.23624E-10         0.00000E+00
    0.11603E-05         0.57088E-10         0.00000E+00
    0.11602E-05         0.93981E-10         0.00000E+00
    0.11601E-05         0.12434E-09         0.00000E+00
    0.11601E-05         0.14471E-09         0.00000E+00
    0.11601E-05         0.15547E-09         0.00000E+00
    0.11600E-05         0.15802E-09         0.00000E+00
    0.11600E-05         0.15364E-09         0.00000E+00
    0.11600E-05         0.14316E-09         0.00000E+00
    0.11600E-05         0.12709E-09         0.00000E+00
    0.11600E-05         0.10563E-09         0.00000E+00
    0.11599E-05         0.79383E-10         0.00000E+00
    0.11599E-05         0.50423E-10         0.00000E+00
    0.11599E-05         0.23107E-10         0.00000E+00
    0.11598E-05         0.10561E-10         0.00000E+00
    0.11605E-05        -0.23279E-11         0.00000E+00
    0.11604E-05        -0.10423E-12         0.00000E+00
    0.11603E-05         0.10870E-10         0.00000E+00
    0.11602E-05         0.30300E-10         0.00000E+00
    0.11602E-05         0.50483E-10         0.00000E+00
    0.11601E-05         0.66872E-10         0.00000E+00
    0.11601E-05         0.77677E-10         0.00000E+00
    0.11601E-05         0.82670E-10         0.00000E+00
    0.11600E-05         0.82222E-10         0.00000E+00
    0.11600E-05         0.76838E-10         0.00000E+00
    0.11600E-05         0.67050E-10         0.00000E+00
    0.11600E-05         0.53578E-10         0.00000E+00
    0.11599E-05         0.37698E-10         0.00000E+00
    0.11599E-05         0.21655E-10         0.00000E+00
    0.11599E-05         0.87201E-11         0.00000E+00
    0.11599E-05         0.34940E-11         0.00000E+00
    0.11605E-05        -0.97237E-11         0.00000E+00
    0.11604E-05        -0.15318E-10         0.00000E+00
    0.11603E-05        -0.19867E-10         0.00000E+00
    0.11603E-05        -0.14228E-10         0.00000E+00
    0.11602E-05        -0.40095E-11         0.00000E+00
    0.11602E-05         0.66556E-11         0.00000E+00
    0.11601E-05         0.15327E-10         0.00000E+00
    0.11601E-05         0.20885E-10         0.00000E+00
    0.11601E-05         0.23025E-10         0.00000E+00
    0.11600E-05         0.21894E-10         0.00000E+00
    0.11600E-05         0.17956E-10         0.00000E+00
    0.11600E-05         0.12030E-10         0.00000E+00
    0.11600E-05         0.54273E-11         0.00000E+00
    0.11599E-05         0.25240E-13         0.00000E+00
    0.11599E-05        -0.18934E-11         0.00000E+00
    0.11599E-05        -0.16816E-11         0.00000E+00
    0.11605E-05        -0.14560E-10         0.00000E+00
    0.11605E-05        -0.25427E-10         0.00000E+00
    0.11604E-05        -0.40831E-10         0.00000E+00
    0.11603E-05        -0.45678E-10         0.00000E+00
    0.11602E-05        -0.43989E-10         0.00000E+00
    0.11602E-05        -0.39124E-10         0.00000E+00
    0.11601E-05        -0.33469E-10         0.00000E+00
    0.11601E-05        -0.28457E-10         0.00000E+00
    0.11601E-05        -0.24769E-10         0.00000E+00
    0.11600E-05        -0.22541E-10         0.00000E+00
    0.11600E-05        -0.21482E-10         0.00000E+00
    0.11600E-05        -0.20908E-10         0.00000E+00
    0.11600E-05        -0.19751E-10         0.00000E+00
    0.11599E-05        -0.16620E-10         0.00000E+00
    0.11599E-05        -0.99939E-11         0.00000E+00
    0.11599E-05        -0.56170E-11         0.00000E+00
    0.11605E-05        -0.17778E-10         0.00000E+00
    0.11604E-05        -0.32258E-10         0.00000E+00
    0.11604E-05        -0.55319E-10         0.00000E+00
    0.11603E-05        -0.68020E-10         0.00000E+00
    0.11603E-05        -0.73219E-10         0.00000E+00
    0.11602E-05        -0.73521E-10         0.00000E+00
    0.11602E-05        -0.70992E-10         0.00000E+00
    0.11601E-05        -0.67058E-10         0.00000E+00
    0.11601E-05        -0.62554E-10         0.00000E+00
    0.11601E-05        -0.57807E-10         0.00000E+00
    0.11600E-05        -0.52722E-10         0.00000E+00
    0.11600E-05        -0.46848E-10         0.00000E+00
    0.11600E-05        -0.39440E-10         0.00000E+00
    0.11600E-05        -0.29565E-10         0.00000E+00
    0.11599E-05        -0.16280E-10         0.00000E+00
    0.11599E-05        -0.86714E-11         0.00000E+00
    0.11605E-05        -0.19928E-10         0.00000E+00
    0.11604E-05        -0.36900E-10         0.00000E+00
    0.11604E-05        -0.65383E-10         0.00000E+00
    0.11603E-05        -0.83923E-10         0.00000E+00
    0.11603E-05        -0.94523E-10         0.00000E+00
    0.11602E-05        -0.99145E-10         0.00000E+00
    0.11602E-05        -0.99474E-10         0.00000E+00
    0.11602E-05        -0.96791E-10         0.00000E+00
    0.11601E-05        -0.91948E-10         0.00000E+00
    0.11601E-05        -0.85385E-10         0.00000E+00
    0.11601E-05        -0.77186E-10         0.00000E+00
    0.11601E-05        -0.67139E-10         0.00000E+00
    0.11600E-05        -0.54814E-10         0.00000E+00
    0.11600E-05        -0.39668E-10         0.00000E+00
    0.11600E-05        -0.21191E-10         0.00000E+00
    0.11600E-05        -0.11062E-10         0.00000E+00
    0.11605E-05        -0.21364E-10         0.00000E+00
    0.11604E-05        -0.40059E-10         0.00000E+00
    0.11604E-05        -0.72394E-10         0.00000E+00
    0.11603E-05        -0.95258E-10         0.00000E+00
    0.11603E-05        -0.11002E-09         0.00000E+00
    0.11602E-05        -0.11813E-09         0.00000E+00
    0.11602E-05        -0.12091E-09         0.00000E+00
    0.11602E-05        -0.11945E-09         0.00000E+00
    0.11602E-05        -0.11455E-09         0.00000E+00
    0.11601E-05        -0.10672E-09         0.00000E+00
    0.11601E-05        -0.96178E-10         0.00000E+00
    0.11601E-05        -0.82922E-10         0.00000E+00
    0.11601E-05        -0.66791E-10         0.00000E+00
    0.11600E-05        -0.47557E-10         0.00000E+00
    0.11600E-05        -0.25038E-10         0.00000E+00
    0.11600E-05        -0.12940E-10         0.00000E+00
    0.11604E-05        -0.22328E-10         0.00000E+00
    0.11604E-05        -0.42224E-10         0.00000E+00
    0.11604E-05        -0.77311E-10         0.00000E+00
    0.11603E-05        -0.10338E-09         0.00000E+00
    0.11603E-05        -0.12133E-09         0.00000E+00
    0.11603E-05        -0.13218E-09         0.00000E+00
    0.11602E-05        -0.13698E-09         0.00000E+00
    0.11602E-05        -0.13661E-09         0.00000E+00
    0.11602E-05        -0.13182E-09         0.00000E+00
    0.11602E-05        -0.12312E-09         0.00000E+00
    0.11601E-05        -0.11085E-09         0.00000E+00
    0.11601E-05        -0.95157E-10         0.00000E+00
    0.11601E-05        -0.76109E-10         0.00000E+00
    0.11601E-05        -0.53721E-10         0.00000E+00
    0.11601E-05        -0.28057E-10         0.00000E+00
    0.11601E-05        -0.14420E-10         0.00000E+00
    0.11604E-05        -0.22995E-10         0.00000E+00
    0.11604E-05        -0.43748E-10         0.00000E+00
    0.11604E-05        -0.80834E-10         0.00000E+00
    0.11603E-05        -0.10929E-09         0.00000E+00
    0.11603E-05        -0.12966E-09         0.00000E+00
    0.11603E-05        -0.14266E-09         0.00000E+00
    0.11603E-05        -0.14907E-09         0.00000E+00
    0.11602E-05        -0.14964E-09         0.00000E+00
    0.11602E-05        -0.14501E-09         0.00000E+00
    0.11602E-05        -0.13572E-09         0.00000E+00
    0.11602E-05        -0.12217E-09         0.00000E+00
    0.11602E-05        -0.10465E-09         0.00000E+00
    0.11602E-05        -0.83373E-10         0.00000E+00
    0.11601E-05        -0.58553E-10         0.00000E+00
    0.11601E-05        -0.30437E-10         0.00000E+00
    0.11601E-05        -0.15591E-10         0.00000E+00
    0.11604E-05        -0.23496E-10         0.00000E+00
    0.11604E-05        -0.44893E-10         0.00000E+00
    0.11603E-05        -0.83487E-10         0.00000E+00
    0.11603E-05        -0.11375E-09         0.00000E+00
    0.11603E-05        -0.13597E-09         0.00000E+00
    0.11603E-05        -0.15063E-09         0.00000E+00
    0.11603E-05        -0.15830E-09         0.00000E+00
    0.11603E-05        -0.15962E-09         0.00000E+00
    0.11602E-05        -0.15516E-09         0.00000E+00
    0.11602E-05        -0.14546E-09         0.00000E+00
    0.11602E-05        -0.13097E-09         0.00000E+00
    0.11602E-05        -0.11206E-09         0.00000E+00
    0.11602E-05        -0.89076E-10         0.00000E+00
    0.11602E-05        -0.62372E-10         0.00000E+00
    0.11602E-05        -0.32330E-10         0.00000E+00
    0.11602E-05        -0.16527E-10         0.00000E+00
    0.11604E-05        -0.23928E-10         0.00000E+00
    0.11603E-05        -0.45855E-10         0.00000E+00
    0.11603E-05        -0.85658E-10         0.00000E+00
    0.11603E-05        -0.11733E-09         0.00000E+00
    0.11603E-05        -0.14097E-09         0.00000E+00
    0.11603E-05        -0.15688E-09         0.00000E+00
    0.11603E-05        -0.16553E-09         0.00000E+00
    0.11603E-05        -0.16742E-09         0.00000E+00
    0.11603E-05        -0.16311E-09         0.00000E+00
    0.11603E-05        -0.15310E-09         0.00000E+00
    0.11603E-05        -0.13789E-09         0.00000E+00
    0.11603E-05        -0.11791E-09         0.00000E+00
    0.11602E-05        -0.93612E-10         0.00000E+00
    0.11602E-05        -0.65431E-10         0.00000E+00
    0.11602E-05        -0.33857E-10         0.00000E+00
    0.11602E-05        -0.17286E-10         0.00000E+00
    0.11603E-05        -0.24363E-10         0.00000E+00
    0.11603E-05        -0.46779E-10         0.00000E+00
    0.11603E-05        -0.87634E-10         0.00000E+00
    0.11603E-05        -0.12045E-09         0.00000E+00
    0.11603E-05        -0.14518E-09         0.00000E+00
    0.11603E-05        -0.16205E-09         0.00000E+00
    0.11603E-05        -0.17140E-09         0.00000E+00
    0.11603E-05        -0.17371E-09         0.00000E+00
    0.11603E-05        -0.16947E-09         0.00000E+00
    0.11603E-05        -0.15921E-09         0.00000E+00
    0.11603E-05        -0.14343E-09         0.00000E+00
    0.11603E-05        -0.12263E-09         0.00000E+00
    0.11603E-05        -0.97286E-10         0.00000E+00
    0.11603E-05        -0.67929E-10         0.00000E+00
    0.11603E-05        -0.35113E-10         0.00000E+00
    0.11603E-05        -0.17914E-10         0.00000E+00
    0.11603E-05        -0.24853E-10         0.00000E+00
    0.11603E-05        -0.47767E-10         0.00000E+00
    0.11603E-05        -0.89617E-10         0.00000E+00
    0.11603E-05        -0.12339E-09         0.00000E+00
    0.11603E-05        -0.14898E-09         0.00000E+00
    0.11603E-05        -0.16653E-09         0.00000E+00
    0.11603E-05        -0.17638E-09         0.00000E+00
    0.11603E-05        -0.17894E-09         0.00000E+00
    0.11603E-05        -0.17471E-09         0.00000E+00
    0.11603E-05        -0.16422E-09         0.00000E+00
    0.11603E-05        -0.14797E-09         0.00000E+00
    0.11603E-05        -0.12649E-09         0.00000E+00
    0.11603E-05        -0.10032E-09         0.00000E+00
    0.11603E-05        -0.70014E-10         0.00000E+00
    0.11603E-05        -0.36172E-10         0.00000E+00
    0.11603E-05        -0.18446E-10         0.00000E+00
    0.11603E-05        -0.25430E-10         0.00000E+00
    0.11603E-05        -0.48885E-10         0.00000E+00
    0.11603E-05        -0.91737E-10         0.00000E+00
    0.11603E-05        -0.12634E-09         0.00000E+00
    0.11603E-05        -0.15259E-09         0.00000E+00
    0.11603E-05        -0.17062E-09         0.00000E+00
    0.11603E-05        -0.18074E-09         0.00000E+00
    0.11603E-05        -0.18341E-09         0.00000E+00
    0.11604E-05        -0.17911E-09         0.00000E+00
    0.11604E-05        -0.16837E-09         0.00000E+00
    0.11604E-05        -0.15172E-09         0.00000E+00
    0.11604E-05        -0.12971E-09         0.00000E+00
    0.11604E-05        -0.10287E-09         0.00000E+00
    0.11604E-05        -0.71784E-10         0.00000E+00
    0.11604E-05        -0.37082E-10         0.00000E+00
    0.11604E-05        -0.18908E-10         0.00000E+00
    0.11602E-05        -0.26114E-10         0.00000E+00
    0.11603E-05        -0.50168E-10         0.00000E+00
    0.11603E-05        -0.94059E-10         0.00000E+00
    0.11603E-05        -0.12940E-09         0.00000E+00
    0.11603E-05        -0.15613E-09         0.00000E+00
    0.11603E-05        -0.17441E-09         0.00000E+00
    0.11603E-05        -0.18463E-09         0.00000E+00
    0.11604E-05        -0.18724E-09         0.00000E+00
    0.11604E-05        -0.18278E-09         0.00000E+00
    0.11604E-05        -0.17179E-09         0.00000E+00
    0.11604E-05        -0.15481E-09         0.00000E+00
    0.11604E-05        -0.13236E-09         0.00000E+00
    0.11604E-05        -0.10500E-09         0.00000E+00
    0.11605E-05        -0.73294E-10         0.00000E+00
    0.11605E-05        -0.37871E-10         0.00000E+00
    0.11605E-05        -0.19314E-10         0.00000E+00
    0.11602E-05        -0.26906E-10         0.00000E+00
    0.11602E-05        -0.51620E-10         0.00000E+00
    0.11603E-05        -0.96586E-10         0.00000E+00
    0.11603E-05        -0.13256E-09         0.00000E+00
    0.11603E-05        -0.15957E-09         0.00000E+00
    0.11603E-05        -0.17790E-09         0.00000E+00
    0.11604E-05        -0.18799E-09         0.00000E+00
    0.11604E-05        -0.19040E-09         0.00000E+00
    0.11604E-05        -0.18570E-09         0.00000E+00
    0.11604E-05        -0.17446E-09         0.00000E+00
    0.11605E-05        -0.15721E-09         0.00000E+00
    0.11605E-05        -0.13446E-09         0.00000E+00
    0.11605E-05        -0.10673E-09         0.00000E+00
    0.11605E-05        -0.74558E-10         0.00000E+00
    0.11605E-05        -0.38551E-10         0.00000E+00
    0.11605E-05        -0.19670E-10         0.00000E+00
    0.11602E-05        -0.27797E-10         0.00000E+00
    0.11602E-05        -0.53218E-10         0.00000E+00
    0.11602E-05        -0.99266E-10         0.00000E+00
    0.11603E-05        -0.13574E-09         0.00000E+00
    0.11603E-05        -0.16281E-09         0.00000E+00
    0.11603E-05        -0.18092E-09         0.00000E+00
    0.11604E-05        -0.19067E-09         0.00000E+00
    0.11604E-05        -0.19272E-09         0.00000E+00
    0.11604E-05        -0.18770E-09         0.00000E+00
    0.11605E-05        -0.17622E-09         0.00000E+00
    0.11605E-05        -0.15880E-09         0.00000E+00
    0.11605E-05        -0.13590E-09         0.00000E+00
    0.11605E-05        -0.10800E-09         0.00000E+00
    0.11606E-05        -0.75548E-10         0.00000E+00
    0.11606E-05        -0.39113E-10         0.00000E+00
    0.11606E-05        -0.19974E-10         0.00000E+00
    0.11601E-05        -0.28766E-10         0.00000E+00
    0.11602E-05        -0.54914E-10         0.00000E+00
    0.11602E-05        -0.10199E-09         0.00000E+00
    0.11603E-05        -0.13874E-09         0.00000E+00
    0.11603E-05        -0.16558E-09         0.00000E+00
    0.11604E-05        -0.18317E-09         0.00000E+00
    0.11604E-05        -0.19232E-09         0.00000E+00
    0.11604E-05        -0.19383E-09         0.00000E+00
    0.11605E-05        -0.18844E-09         0.00000E+00
    0.11605E-05        -0.17678E-09         0.00000E+00
    0.11605E-05        -0.15933E-09         0.00000E+00
    0.11606E-05        -0.13651E-09         0.00000E+00
    0.11606E-05        -0.10868E-09         0.00000E+00
    0.11606E-05        -0.76198E-10         0.00000E+00
    0.11606E-05        -0.39531E-10         0.00000E+00
    0.11607E-05        -0.20217E-10         0.00000E+00
    0.11601E-05        -0.29776E-10         0.00000E+00
    0.11601E-05        -0.56632E-10         0.00000E+00
    0.11602E-05        -0.10459E-09         0.00000E+00
    0.11603E-05        -0.14130E-09         0.00000E+00
    0.11603E-05        -0.16751E-09         0.00000E+00
    0.11604E-05        -0.18421E-09         0.00000E+00
    0.11604E-05        -0.19246E-09         0.00000E+00
    0.11605E-05        -0.19326E-09         0.00000E+00
    0.11605E-05        -0.18746E-09         0.00000E+00
    0.11605E-05        -0.17570E-09         0.00000E+00
    0.11606E-05        -0.15846E-09         0.00000E+00
    0.11606E-05        -0.13602E-09         0.00000E+00
    0.11607E-05        -0.10860E-09         0.00000E+00
    0.11607E-05        -0.76406E-10         0.00000E+00
    0.11607E-05        -0.39765E-10         0.00000E+00
    0.11607E-05        -0.20382E-10         0.00000E+00
    0.11601E-05        -0.30782E-10         0.00000E+00
    0.11601E-05        -0.58265E-10         0.00000E+00
    0.11602E-05        -0.10682E-09         0.00000E+00
    0.11602E-05        -0.14303E-09         0.00000E+00
    0.11603E-05        -0.16809E-09         0.00000E+00
    0.11604E-05        -0.18341E-09         0.00000E+00
    0.11604E-05        -0.19041E-09         0.00000E+00
    0.11605E-05        -0.19032E-09         0.00000E+00
    0.11605E-05        -0.18411E-09         0.00000E+00
    0.11606E-05        -0.17245E-09         0.00000E+00
    0.11606E-05        -0.15571E-09         0.00000E+00
    0.11607E-05        -0.13406E-09         0.00000E+00
    0.11607E-05        -0.10750E-09         0.00000E+00
    0.11607E-05        -0.76033E-10         0.00000E+00
    0.11608E-05        -0.39758E-10         0.00000E+00
    0.11608E-05        -0.20446E-10         0.00000E+00
    0.11600E-05        -0.31724E-10         0.00000E+00
    0.11601E-05        -0.59675E-10         0.00000E+00
    0.11602E-05        -0.10835E-09         0.00000E+00
    0.11602E-05        -0.14340E-09         0.00000E+00
    0.11603E-05        -0.16661E-09         0.00000E+00
    0.11604E-05        -0.17998E-09         0.00000E+00
    0.11605E-05        -0.18535E-09         0.00000E+00
    0.11605E-05        -0.18423E-09         0.00000E+00
    0.11606E-05        -0.17767E-09         0.00000E+00
    0.11606E-05        -0.16634E-09         0.00000E+00
    0.11607E-05        -0.15051E-09         0.00000E+00
    0.11607E-05        -0.13018E-09         0.00000E+00
    0.11608E-05        -0.10508E-09         0.00000E+00
    0.11608E-05        -0.74901E-10         0.00000E+00
    0.11608E-05        -0.39441E-10         0.00000E+00
    0.11608E-05        -0.20380E-10         0.00000E+00
    0.11600E-05        -0.32522E-10         0.00000E+00
    0.11600E-05        -0.60669E-10         0.00000E+00
    0.11601E-05        -0.10875E-09         0.00000E+00
    0.11602E-05        -0.14168E-09         0.00000E+00
    0.11603E-05        -0.16216E-09         0.00000E+00
    0.11604E-05        -0.17292E-09         0.00000E+00
    0.11605E-05        -0.17631E-09         0.00000E+00
    0.11605E-05        -0.17406E-09         0.00000E+00
    0.11606E-05        -0.16729E-09         0.00000E+00
    0.11607E-05        -0.15663E-09         0.00000E+00
    0.11607E-05        -0.14222E-09         0.00000E+00
    0.11608E-05        -0.12385E-09         0.00000E+00
    0.11608E-05        -0.10095E-09         0.00000E+00
    0.11608E-05        -0.72785E-10         0.00000E+00
    0.11609E-05        -0.38722E-10         0.00000E+00
    0.11609E-05        -0.20150E-10         0.00000E+00
    0.11599E-05        -0.33063E-10         0.00000E+00
    0.11600E-05        -0.60970E-10         0.00000E+00
    0.11601E-05        -0.10736E-09         0.00000E+00
    0.11602E-05        -0.13688E-09         0.00000E+00
    0.11603E-05        -0.15354E-09         0.00000E+00
    0.11604E-05        -0.16105E-09         0.00000E+00
    0.11605E-05        -0.16221E-09         0.00000E+00
    0.11606E-05        -0.15889E-09         0.00000E+00
    0.11606E-05        -0.15217E-09         0.00000E+00
    0.11607E-05        -0.14257E-09         0.00000E+00
    0.11607E-05        -0.13013E-09         0.00000E+00
    0.11608E-05        -0.11445E-09         0.00000E+00
    0.11608E-05        -0.94616E-10         0.00000E+00
    0.11609E-05        -0.69390E-10         0.00000E+00
    0.11609E-05        -0.37483E-10         0.00000E+00
    0.11610E-05        -0.19710E-10         0.00000E+00
    0.11599E-05        -0.33164E-10         0.00000E+00
    0.11600E-05        -0.60126E-10         0.00000E+00
    0.11601E-05        -0.10316E-09         0.00000E+00
    0.11602E-05        -0.12753E-09         0.00000E+00
    0.11603E-05        -0.13923E-09         0.00000E+00
    0.11604E-05        -0.14304E-09         0.00000E+00
    0.11605E-05        -0.14204E-09         0.00000E+00
    0.11606E-05        -0.13794E-09         0.00000E+00
    0.11607E-05        -0.13164E-09         0.00000E+00
    0.11607E-05        -0.12351E-09         0.00000E+00
    0.11608E-05        -0.11354E-09         0.00000E+00
    0.11608E-05        -0.10124E-09         0.00000E+00
    0.11609E-05        -0.85444E-10         0.00000E+00
    0.11609E-05        -0.64292E-10         0.00000E+00
    0.11610E-05        -0.35544E-10         0.00000E+00
    0.11610E-05        -0.18988E-10         0.00000E+00
    0.11599E-05        -0.32458E-10         0.00000E+00
    0.11599E-05        -0.57281E-10         0.00000E+00
    0.11601E-05        -0.94372E-10         0.00000E+00
    0.11602E-05        -0.11146E-09         0.00000E+00
    0.11604E-05        -0.11736E-09         0.00000E+00
    0.11605E-05        -0.11769E-09         0.00000E+00
    0.11605E-05        -0.11512E-09         0.00000E+00
    0.11606E-05        -0.11084E-09         0.00000E+00
    0.11607E-05        -0.10542E-09         0.00000E+00
    0.11608E-05        -0.99115E-10         0.00000E+00
    0.11608E-05        -0.91893E-10         0.00000E+00
    0.11609E-05        -0.83405E-10         0.00000E+00
    0.11609E-05        -0.72521E-10         0.00000E+00
    0.11610E-05        -0.56790E-10         0.00000E+00
    0.11611E-05        -0.32596E-10         0.00000E+00
    0.11611E-05        -0.17878E-10         0.00000E+00
    0.11598E-05        -0.30086E-10         0.00000E+00
    0.11599E-05        -0.50591E-10         0.00000E+00
    0.11601E-05        -0.77730E-10         0.00000E+00
    0.11603E-05        -0.85560E-10         0.00000E+00
    0.11604E-05        -0.86264E-10         0.00000E+00
    0.11605E-05        -0.84480E-10         0.00000E+00
    0.11606E-05        -0.81493E-10         0.00000E+00
    0.11606E-05        -0.77874E-10         0.00000E+00
    0.11607E-05        -0.73874E-10         0.00000E+00
    0.11608E-05        -0.69604E-10         0.00000E+00
    0.11608E-05        -0.65083E-10         0.00000E+00
    0.11609E-05        -0.60176E-10         0.00000E+00
    0.11610E-05        -0.54484E-10         0.00000E+00
    0.11610E-05        -0.45635E-10         0.00000E+00
    0.11611E-05        -0.27924E-10         0.00000E+00
    0.11611E-05        -0.15949E-10         0.00000E+00
    0.11598E-05        -0.23111E-10         0.00000E+00
    0.11599E-05        -0.35018E-10         0.00000E+00
    0.11601E-05        -0.47273E-10         0.00000E+00
    0.11603E-05        -0.47257E-10         0.00000E+00
    0.11604E-05        -0.46085E-10         0.00000E+00
    0.11605E-05        -0.44320E-10         0.00000E+00
    0.11606E-05        -0.42335E-10         0.00000E+00
    0.11607E-05        -0.40245E-10         0.00000E+00
    0.11607E-05        -0.38111E-10         0.00000E+00
    0.11608E-05        -0.35969E-10         0.00000E+00
    0.11609E-05        -0.33845E-10         0.00000E+00
    0.11609E-05        -0.31771E-10         0.00000E+00
    0.11610E-05        -0.29681E-10         0.00000E+00
    0.11611E-05        -0.27865E-10         0.00000E+00
    0.11611E-05        -0.20249E-10         0.00000E+00
    0.11612E-05        -0.13382E-10         0.00000E+00
    0.11598E-05         0.00000E+00         0.00000E+00
    0.11599E-05         0.00000E+00         0.00000E+00
    0.11601E-05        -0.33118E-20         0.00000E+00
    0.11603E-05         0.33172E-21         0.00000E+00
    0.11604E-05         0.29811E-20         0.00000E+00
    0.11605E-05         0.00000E+00         0.00000E+00
    0.11606E-05         0.00000E+00         0.00000E+00
    0.11607E-05        -0.33139E-20         0.00000E+00
    0.11608E-05        -0.29825E-20         0.00000E+00
    0.11608E-05         0.33145E-20         0.00000E+00
    0.11609E-05         0.29830E-20         0.00000E+00
    0.11609E-05        -0.33150E-20         0.00000E+00
    0.11610E-05        -0.33128E-21         0.00000E+00
    0.11611E-05         0.29838E-20         0.00000E+00
    0.11612E-05         0.66311E-21         0.00000E+00
    0.11612E-05         0.00000E+00         0.00000E+00
CELL_DATA        450
TENSORS stressef double 
    0.35422E+08        -0.34131E+06         0.00000E+00
   -0.34131E+06         0.98518E+07         0.00000E+00
    0.00000E+00         0.00000E+00         0.90548E+07
 
    0.31035E+08        -0.39323E+06         0.00000E+00
   -0.39323E+06         0.92240E+07         0.00000E+00
    0.00000E+00         0.00000E+00         0.80518E+07
 
    0.27924E+08        -0.36297E+06         0.00000E+00
   -0.36297E+06         0.85169E+07         0.00000E+00
    0.00000E+00         0.00000E+00         0.72882E+07
 
    0.25439E+08        -0.32714E+06         0.00000E+00
   -0.32714E+06         0.78496E+07         0.00000E+00
    0.00000E+00         0.00000E+00         0.66578E+07
 
    0.23345E+08        -0.28656E+06         0.00000E+00
   -0.28656E+06         0.72498E+07         0.00000E+00
    0.00000E+00         0.00000E+00         0.61189E+07
 
    0.21508E+08        -0.24269E+06         0.00000E+00
   -0.24269E+06         0.67299E+07         0.00000E+00
    0.00000E+00         0.00000E+00         0.56475E+07
 
    0.19840E+08        -0.19546E+06         0.00000E+00
   -0.19546E+06         0.62984E+07         0.00000E+00
    0.00000E+00         0.00000E+00         0.52276E+07
 
    0.18274E+08        -0.14426E+06         0.00000E+00
   -0.14426E+06         0.59637E+07         0.00000E+00
    0.00000E+00         0.00000E+00         0.48476E+07
 
    0.16755E+08        -0.88003E+05         0.00000E+00
   -0.88003E+05         0.57353E+07         0.00000E+00
    0.00000E+00         0.00000E+00         0.44981E+07
 
    0.15229E+08        -0.24918E+05         0.00000E+00
   -0.24918E+05         0.56255E+07         0.00000E+00
    0.00000E+00         0.00000E+00         0.41709E+07
 
    0.13637E+08         0.47922E+05         0.00000E+00
    0.47922E+05         0.56510E+07         0.00000E+00
    0.00000E+00         0.00000E+00         0.38577E+07
 
    0.11910E+08         0.13579E+06         0.00000E+00
    0.13579E+06         0.58367E+07         0.00000E+00
    0.00000E+00         0.00000E+00         0.35493E+07
 
    0.99408E+07         0.25018E+06         0.00000E+00
    0.25018E+06         0.62237E+07         0.00000E+00
    0.00000E+00         0.00000E+00         0.32329E+07
 
    0.75478E+07         0.41722E+06         0.00000E+00
    0.41722E+06         0.68915E+07         0.00000E+00
    0.00000E+00         0.00000E+00         0.28879E+07
 
    0.42090E+07         0.80924E+06         0.00000E+00
    0.80924E+06         0.80600E+07         0.00000E+00
    0.00000E+00         0.00000E+00         0.24538E+07
 
    0.32748E+08        -0.54438E+06         0.00000E+00
   -0.54438E+06         0.80509E+07         0.00000E+00
    0.00000E+00         0.00000E+00         0.81598E+07
 
    0.28966E+08        -0.95388E+06         0.00000E+00
   -0.95388E+06         0.78265E+07         0.00000E+00
    0.00000E+00         0.00000E+00         0.73584E+07
 
    0.25932E+08        -0.98379E+06         0.00000E+00
   -0.98379E+06         0.73683E+07         0.00000E+00
    0.00000E+00         0.00000E+00         0.66601E+07
 
    0.23476E+08        -0.91933E+06         0.00000E+00
   -0.91933E+06         0.68475E+07         0.00000E+00
    0.00000E+00         0.00000E+00         0.60647E+07
 
    0.21395E+08        -0.81943E+06         0.00000E+00
   -0.81943E+06         0.63415E+07         0.00000E+00
    0.00000E+00         0.00000E+00         0.55473E+07
 
    0.19567E+08        -0.70003E+06         0.00000E+00
   -0.70003E+06         0.58858E+07         0.00000E+00
    0.00000E+00         0.00000E+00         0.50906E+07
 
    0.17908E+08        -0.56581E+06         0.00000E+00
   -0.56581E+06         0.55006E+07         0.00000E+00
    0.00000E+00         0.00000E+00         0.46817E+07
 
    0.16352E+08        -0.41701E+06         0.00000E+00
   -0.41701E+06         0.52007E+07         0.00000E+00
    0.00000E+00         0.00000E+00         0.43105E+07
 
    0.14845E+08        -0.25133E+06         0.00000E+00
   -0.25133E+06         0.49996E+07         0.00000E+00
    0.00000E+00         0.00000E+00         0.39689E+07
 
    0.13335E+08        -0.64001E+05         0.00000E+00
   -0.64001E+05         0.49121E+07         0.00000E+00
    0.00000E+00         0.00000E+00         0.36494E+07
 
    0.11768E+08         0.15351E+06         0.00000E+00
    0.15351E+06         0.49566E+07         0.00000E+00
    0.00000E+00         0.00000E+00         0.33449E+07
 
    0.10079E+08         0.41708E+06         0.00000E+00
    0.41708E+06         0.51593E+07         0.00000E+00
    0.00000E+00         0.00000E+00         0.30477E+07
 
    0.81837E+07         0.75936E+06         0.00000E+00
    0.75936E+06         0.55605E+07         0.00000E+00
    0.00000E+00         0.00000E+00         0.27488E+07
 
    0.59504E+07         0.12632E+07         0.00000E+00
    0.12632E+07         0.62290E+07         0.00000E+00
    0.00000E+00         0.00000E+00         0.24359E+07
 
    0.33490E+07         0.22031E+07         0.00000E+00
    0.22031E+07         0.72595E+07         0.00000E+00
    0.00000E+00         0.00000E+00         0.21217E+07
 
    0.29823E+08        -0.56246E+06         0.00000E+00
   -0.56246E+06         0.60499E+07         0.00000E+00
    0.00000E+00         0.00000E+00         0.71747E+07
 
    0.26669E+08        -0.11902E+07         0.00000E+00
   -0.11902E+07         0.59888E+07         0.00000E+00
    0.00000E+00         0.00000E+00         0.65316E+07
 
    0.23893E+08        -0.13804E+07         0.00000E+00
   -0.13804E+07         0.57753E+07         0.00000E+00
    0.00000E+00         0.00000E+00         0.59337E+07
 
    0.21531E+08        -0.13619E+07         0.00000E+00
   -0.13619E+07         0.54496E+07         0.00000E+00
    0.00000E+00         0.00000E+00         0.53961E+07
 
    0.19496E+08        -0.12484E+07         0.00000E+00
   -0.12484E+07         0.50872E+07         0.00000E+00
    0.00000E+00         0.00000E+00         0.49166E+07
 
    0.17697E+08        -0.10823E+07         0.00000E+00
   -0.10823E+07         0.47374E+07         0.00000E+00
    0.00000E+00         0.00000E+00         0.44868E+07
 
    0.16060E+08        -0.87990E+06         0.00000E+00
   -0.87990E+06         0.44320E+07         0.00000E+00
    0.00000E+00         0.00000E+00         0.40985E+07
 
    0.14528E+08        -0.64619E+06         0.00000E+00
   -0.64619E+06         0.41935E+07         0.00000E+00
    0.00000E+00         0.00000E+00         0.37442E+07
 
    0.13047E+08        -0.37986E+06         0.00000E+00
   -0.37986E+06         0.40408E+07         0.00000E+00
    0.00000E+00         0.00000E+00         0.34176E+07
 
    0.11572E+08        -0.74453E+05         0.00000E+00
   -0.74453E+05         0.39919E+07         0.00000E+00
    0.00000E+00         0.00000E+00         0.31128E+07
 
    0.10054E+08         0.28304E+06         0.00000E+00
    0.28304E+06         0.40670E+07         0.00000E+00
    0.00000E+00         0.00000E+00         0.28243E+07
 
    0.84431E+07         0.71701E+06         0.00000E+00
    0.71701E+06         0.42913E+07         0.00000E+00
    0.00000E+00         0.00000E+00         0.25469E+07
 
    0.66833E+07         0.12751E+07         0.00000E+00
    0.12751E+07         0.46972E+07         0.00000E+00
    0.00000E+00         0.00000E+00         0.22761E+07
 
    0.47435E+07         0.20584E+07         0.00000E+00
    0.20584E+07         0.53203E+07         0.00000E+00
    0.00000E+00         0.00000E+00         0.20128E+07
 
    0.26862E+07         0.32257E+07         0.00000E+00
    0.32257E+07         0.61343E+07         0.00000E+00
    0.00000E+00         0.00000E+00         0.17641E+07
 
    0.26838E+08        -0.54673E+06         0.00000E+00
   -0.54673E+06         0.40299E+07         0.00000E+00
    0.00000E+00         0.00000E+00         0.61735E+07
 
    0.24203E+08        -0.12616E+07         0.00000E+00
   -0.12616E+07         0.40305E+07         0.00000E+00
    0.00000E+00         0.00000E+00         0.56466E+07
 
    0.21747E+08        -0.15776E+07         0.00000E+00
   -0.15776E+07         0.39547E+07         0.00000E+00
    0.00000E+00         0.00000E+00         0.51404E+07
 
    0.19554E+08        -0.16376E+07         0.00000E+00
   -0.16376E+07         0.37899E+07         0.00000E+00
    0.00000E+00         0.00000E+00         0.46688E+07
 
    0.17611E+08        -0.15469E+07         0.00000E+00
   -0.15469E+07         0.35705E+07         0.00000E+00
    0.00000E+00         0.00000E+00         0.42364E+07
 
    0.15871E+08        -0.13636E+07         0.00000E+00
   -0.13636E+07         0.33383E+07         0.00000E+00
    0.00000E+00         0.00000E+00         0.38419E+07
 
    0.14280E+08        -0.11153E+07         0.00000E+00
   -0.11153E+07         0.31272E+07         0.00000E+00
    0.00000E+00         0.00000E+00         0.34814E+07
 
    0.12788E+08        -0.81346E+06         0.00000E+00
   -0.81346E+06         0.29638E+07         0.00000E+00
    0.00000E+00         0.00000E+00         0.31504E+07
 
    0.11353E+08        -0.45941E+06         0.00000E+00
   -0.45941E+06         0.28705E+07         0.00000E+00
    0.00000E+00         0.00000E+00         0.28446E+07
 
    0.99321E+07        -0.46770E+05         0.00000E+00
   -0.46770E+05         0.28674E+07         0.00000E+00
    0.00000E+00         0.00000E+00         0.25599E+07
 
    0.84881E+07         0.43954E+06         0.00000E+00
    0.43954E+06         0.29746E+07         0.00000E+00
    0.00000E+00         0.00000E+00         0.22926E+07
 
    0.69862E+07         0.10274E+07         0.00000E+00
    0.10274E+07         0.32130E+07         0.00000E+00
    0.00000E+00         0.00000E+00         0.20399E+07
 
    0.54033E+07         0.17654E+07         0.00000E+00
    0.17654E+07         0.36013E+07         0.00000E+00
    0.00000E+00         0.00000E+00         0.18009E+07
 
    0.37491E+07         0.27285E+07         0.00000E+00
    0.27285E+07         0.41405E+07         0.00000E+00
    0.00000E+00         0.00000E+00         0.15779E+07
 
    0.20964E+07         0.40040E+07         0.00000E+00
    0.40040E+07         0.47920E+07         0.00000E+00
    0.00000E+00         0.00000E+00         0.13777E+07
 
    0.23858E+08        -0.52024E+06         0.00000E+00
   -0.52024E+06         0.20045E+07         0.00000E+00
    0.00000E+00         0.00000E+00         0.51724E+07
 
    0.21647E+08        -0.12586E+07         0.00000E+00
   -0.12586E+07         0.20335E+07         0.00000E+00
    0.00000E+00         0.00000E+00         0.47362E+07
 
    0.19509E+08        -0.16481E+07         0.00000E+00
   -0.16481E+07         0.20326E+07         0.00000E+00
    0.00000E+00         0.00000E+00         0.43083E+07
 
    0.17525E+08        -0.17760E+07         0.00000E+00
   -0.17760E+07         0.19758E+07         0.00000E+00
    0.00000E+00         0.00000E+00         0.39001E+07
 
    0.15716E+08        -0.17216E+07         0.00000E+00
   -0.17216E+07         0.18718E+07         0.00000E+00
    0.00000E+00         0.00000E+00         0.35176E+07
 
    0.14068E+08        -0.15405E+07         0.00000E+00
   -0.15405E+07         0.17459E+07         0.00000E+00
    0.00000E+00         0.00000E+00         0.31628E+07
 
    0.12547E+08        -0.12653E+07         0.00000E+00
   -0.12653E+07         0.16264E+07         0.00000E+00
    0.00000E+00         0.00000E+00         0.28348E+07
 
    0.11119E+08        -0.91208E+06         0.00000E+00
   -0.91208E+06         0.15387E+07         0.00000E+00
    0.00000E+00         0.00000E+00         0.25316E+07
 
    0.97478E+07        -0.48538E+06         0.00000E+00
   -0.48538E+06         0.15056E+07         0.00000E+00
    0.00000E+00         0.00000E+00         0.22507E+07
 
    0.84016E+07         0.19619E+05         0.00000E+00
    0.19619E+05         0.15469E+07         0.00000E+00
    0.00000E+00         0.00000E+00         0.19897E+07
 
    0.70523E+07         0.61712E+06         0.00000E+00
    0.61712E+06         0.16808E+07         0.00000E+00
    0.00000E+00         0.00000E+00         0.17466E+07
 
    0.56799E+07         0.13326E+07         0.00000E+00
    0.13326E+07         0.19220E+07         0.00000E+00
    0.00000E+00         0.00000E+00         0.15204E+07
 
    0.42799E+07         0.22048E+07         0.00000E+00
    0.22048E+07         0.22772E+07         0.00000E+00
    0.00000E+00         0.00000E+00         0.13114E+07
 
    0.28760E+07         0.32829E+07         0.00000E+00
    0.32829E+07         0.27362E+07         0.00000E+00
    0.00000E+00         0.00000E+00         0.11224E+07
 
    0.15309E+07         0.46141E+07         0.00000E+00
    0.46141E+07         0.32620E+07         0.00000E+00
    0.00000E+00         0.00000E+00         0.95859E+06
 
    0.20912E+08        -0.48947E+06         0.00000E+00
   -0.48947E+06        -0.23050E+05         0.00000E+00
    0.00000E+00         0.00000E+00         0.41778E+07
 
    0.19055E+08        -0.12188E+07         0.00000E+00
   -0.12188E+07         0.19845E+05         0.00000E+00
    0.00000E+00         0.00000E+00         0.38150E+07
 
    0.17209E+08        -0.16437E+07         0.00000E+00
   -0.16437E+07         0.60750E+05         0.00000E+00
    0.00000E+00         0.00000E+00         0.34540E+07
 
    0.15447E+08        -0.18176E+07         0.00000E+00
   -0.18176E+07         0.72334E+05         0.00000E+00
    0.00000E+00         0.00000E+00         0.31038E+07
 
    0.13800E+08        -0.17964E+07         0.00000E+00
   -0.17964E+07         0.51205E+05         0.00000E+00
    0.00000E+00         0.00000E+00         0.27702E+07
 
    0.12272E+08        -0.16254E+07         0.00000E+00
   -0.16254E+07         0.99228E+04         0.00000E+00
    0.00000E+00         0.00000E+00         0.24563E+07
 
    0.10847E+08        -0.13359E+07         0.00000E+00
   -0.13359E+07        -0.31786E+05         0.00000E+00
    0.00000E+00         0.00000E+00         0.21631E+07
 
    0.95042E+07        -0.94564E+06         0.00000E+00
   -0.94564E+06        -0.52714E+05         0.00000E+00
    0.00000E+00         0.00000E+00         0.18903E+07
 
    0.82173E+07        -0.46149E+06         0.00000E+00
   -0.46149E+06        -0.32803E+05         0.00000E+00
    0.00000E+00         0.00000E+00         0.16369E+07
 
    0.69634E+07         0.11891E+06         0.00000E+00
    0.11891E+06         0.45792E+05         0.00000E+00
    0.00000E+00         0.00000E+00         0.14018E+07
 
    0.57240E+07         0.80658E+06         0.00000E+00
    0.80658E+06         0.19774E+06         0.00000E+00
    0.00000E+00         0.00000E+00         0.11844E+07
 
    0.44894E+07         0.16211E+07         0.00000E+00
    0.16211E+07         0.43254E+06         0.00000E+00
    0.00000E+00         0.00000E+00         0.98439E+06
 
    0.32642E+07         0.25893E+07         0.00000E+00
    0.25893E+07         0.75081E+06         0.00000E+00
    0.00000E+00         0.00000E+00         0.80301E+06
 
    0.20741E+07         0.37412E+07         0.00000E+00
    0.37412E+07         0.11393E+07         0.00000E+00
    0.00000E+00         0.00000E+00         0.64270E+06
 
    0.96962E+06         0.51006E+07         0.00000E+00
    0.51006E+07         0.15676E+07         0.00000E+00
    0.00000E+00         0.00000E+00         0.50744E+06
 
    0.18013E+08        -0.45721E+06         0.00000E+00
   -0.45721E+06        -0.20519E+07         0.00000E+00
    0.00000E+00         0.00000E+00         0.31922E+07
 
    0.16457E+08        -0.11602E+07         0.00000E+00
   -0.11602E+07        -0.20027E+07         0.00000E+00
    0.00000E+00         0.00000E+00         0.28909E+07
 
    0.14877E+08        -0.15957E+07         0.00000E+00
   -0.15957E+07        -0.19391E+07         0.00000E+00
    0.00000E+00         0.00000E+00         0.25876E+07
 
    0.13334E+08        -0.17958E+07         0.00000E+00
   -0.17958E+07        -0.18859E+07         0.00000E+00
    0.00000E+00         0.00000E+00         0.22896E+07
 
    0.11862E+08        -0.17985E+07         0.00000E+00
   -0.17985E+07        -0.18517E+07         0.00000E+00
    0.00000E+00         0.00000E+00         0.20021E+07
 
    0.10475E+08        -0.16381E+07         0.00000E+00
   -0.16381E+07        -0.18320E+07         0.00000E+00
    0.00000E+00         0.00000E+00         0.17286E+07
 
    0.91682E+07        -0.13412E+07         0.00000E+00
   -0.13412E+07        -0.18142E+07         0.00000E+00
    0.00000E+00         0.00000E+00         0.14708E+07
 
    0.79303E+07        -0.92473E+06         0.00000E+00
   -0.92473E+06        -0.17828E+07         0.00000E+00
    0.00000E+00         0.00000E+00         0.12295E+07
 
    0.67455E+07        -0.39690E+06         0.00000E+00
   -0.39690E+06        -0.17215E+07         0.00000E+00
    0.00000E+00         0.00000E+00         0.10048E+07
 
    0.55988E+07         0.24209E+06         0.00000E+00
    0.24209E+06        -0.16159E+07         0.00000E+00
    0.00000E+00         0.00000E+00         0.79659E+06
 
    0.44794E+07         0.99911E+06         0.00000E+00
    0.99911E+06        -0.14548E+07         0.00000E+00
    0.00000E+00         0.00000E+00         0.60492E+06
 
    0.33841E+07         0.18870E+07         0.00000E+00
    0.18870E+07        -0.12324E+07         0.00000E+00
    0.00000E+00         0.00000E+00         0.43033E+06
 
    0.23212E+07         0.29222E+07         0.00000E+00
    0.29222E+07        -0.95079E+06         0.00000E+00
    0.00000E+00         0.00000E+00         0.27409E+06
 
    0.13143E+07         0.41212E+07         0.00000E+00
    0.41212E+07        -0.62252E+06         0.00000E+00
    0.00000E+00         0.00000E+00         0.13837E+06
 
    0.40265E+06         0.54933E+07         0.00000E+00
    0.54933E+07        -0.27153E+06         0.00000E+00
    0.00000E+00         0.00000E+00         0.26224E+05
 
    0.15166E+08        -0.42515E+06         0.00000E+00
   -0.42515E+06        -0.40818E+07         0.00000E+00
    0.00000E+00         0.00000E+00         0.22169E+07
 
    0.13871E+08        -0.10932E+07         0.00000E+00
   -0.10932E+07        -0.40309E+07         0.00000E+00
    0.00000E+00         0.00000E+00         0.19679E+07
 
    0.12532E+08        -0.15237E+07         0.00000E+00
   -0.15237E+07        -0.39566E+07         0.00000E+00
    0.00000E+00         0.00000E+00         0.17150E+07
 
    0.11200E+08        -0.17351E+07         0.00000E+00
   -0.17351E+07        -0.38804E+07         0.00000E+00
    0.00000E+00         0.00000E+00         0.14640E+07
 
    0.99093E+07        -0.17521E+07         0.00000E+00
   -0.17521E+07        -0.38124E+07         0.00000E+00
    0.00000E+00         0.00000E+00         0.12194E+07
 
    0.86755E+07        -0.15995E+07         0.00000E+00
   -0.15995E+07        -0.37527E+07         0.00000E+00
    0.00000E+00         0.00000E+00         0.98455E+06
 
    0.75025E+07        -0.12983E+07         0.00000E+00
   -0.12983E+07        -0.36944E+07         0.00000E+00
    0.00000E+00         0.00000E+00         0.76163E+06
 
    0.63862E+07        -0.86338E+06         0.00000E+00
   -0.86338E+06        -0.36265E+07         0.00000E+00
    0.00000E+00         0.00000E+00         0.55193E+06
 
    0.53182E+07        -0.30340E+06         0.00000E+00
   -0.30340E+06        -0.35373E+07         0.00000E+00
    0.00000E+00         0.00000E+00         0.35618E+06
 
    0.42902E+07         0.37925E+06         0.00000E+00
    0.37925E+06        -0.34157E+07         0.00000E+00
    0.00000E+00         0.00000E+00         0.17489E+06
 
    0.32969E+07         0.11874E+07         0.00000E+00
    0.11874E+07        -0.32538E+07         0.00000E+00
    0.00000E+00         0.00000E+00         0.86255E+04
 
    0.23392E+07         0.21277E+07         0.00000E+00
    0.21277E+07        -0.30481E+07         0.00000E+00
    0.00000E+00         0.00000E+00        -0.14179E+06
 
    0.14264E+07         0.32086E+07         0.00000E+00
    0.32086E+07        -0.28017E+07         0.00000E+00
    0.00000E+00         0.00000E+00        -0.27505E+06
 
    0.57849E+06         0.44366E+07         0.00000E+00
    0.44366E+07        -0.25251E+07         0.00000E+00
    0.00000E+00         0.00000E+00        -0.38933E+06
 
   -0.17459E+06         0.58126E+07         0.00000E+00
    0.58126E+07        -0.22367E+07         0.00000E+00
    0.00000E+00         0.00000E+00        -0.48226E+06
 
    0.12373E+08        -0.39456E+06         0.00000E+00
   -0.39456E+06        -0.61127E+07         0.00000E+00
    0.00000E+00         0.00000E+00         0.12520E+07
 
    0.11305E+08        -0.10243E+07         0.00000E+00
   -0.10243E+07        -0.60632E+07         0.00000E+00
    0.00000E+00         0.00000E+00         0.10484E+07
 
    0.10186E+08        -0.14409E+07         0.00000E+00
   -0.14409E+07        -0.59865E+07         0.00000E+00
    0.00000E+00         0.00000E+00         0.83990E+06
 
    0.90566E+07        -0.16533E+07         0.00000E+00
   -0.16533E+07        -0.59005E+07         0.00000E+00
    0.00000E+00         0.00000E+00         0.63123E+06
 
    0.79468E+07        -0.16768E+07         0.00000E+00
   -0.16768E+07        -0.58152E+07         0.00000E+00
    0.00000E+00         0.00000E+00         0.42632E+06
 
    0.68741E+07        -0.15285E+07         0.00000E+00
   -0.15285E+07        -0.57332E+07         0.00000E+00
    0.00000E+00         0.00000E+00         0.22817E+06
 
    0.58460E+07        -0.12241E+07         0.00000E+00
   -0.12241E+07        -0.56512E+07         0.00000E+00
    0.00000E+00         0.00000E+00         0.38966E+05
 
    0.48634E+07        -0.77626E+06         0.00000E+00
   -0.77626E+06        -0.55623E+07         0.00000E+00
    0.00000E+00         0.00000E+00        -0.13977E+06
 
    0.39233E+07        -0.19324E+06         0.00000E+00
   -0.19324E+06        -0.54582E+07         0.00000E+00
    0.00000E+00         0.00000E+00        -0.30697E+06
 
    0.30223E+07         0.52079E+06         0.00000E+00
    0.52079E+06        -0.53313E+07         0.00000E+00
    0.00000E+00         0.00000E+00        -0.46179E+06
 
    0.21588E+07         0.13653E+07         0.00000E+00
    0.13653E+07        -0.51759E+07         0.00000E+00
    0.00000E+00         0.00000E+00        -0.60342E+06
 
    0.13359E+07         0.23419E+07         0.00000E+00
    0.23419E+07        -0.49904E+07         0.00000E+00
    0.00000E+00         0.00000E+00        -0.73091E+06
 
    0.56260E+06         0.34528E+07         0.00000E+00
    0.34528E+07        -0.47778E+07         0.00000E+00
    0.00000E+00         0.00000E+00        -0.84303E+06
 
   -0.14489E+06         0.46980E+07         0.00000E+00
    0.46980E+07        -0.45465E+07         0.00000E+00
    0.00000E+00         0.00000E+00        -0.93828E+06
 
   -0.76397E+06         0.60725E+07         0.00000E+00
    0.60725E+07        -0.43102E+07         0.00000E+00
    0.00000E+00         0.00000E+00        -0.10148E+07
 
    0.96307E+07        -0.36647E+06         0.00000E+00
   -0.36647E+06        -0.81444E+07         0.00000E+00
    0.00000E+00         0.00000E+00         0.29725E+06
 
    0.87660E+07        -0.95820E+06         0.00000E+00
   -0.95820E+06        -0.80989E+07         0.00000E+00
    0.00000E+00         0.00000E+00         0.13342E+06
 
    0.78480E+07        -0.13565E+07         0.00000E+00
   -0.13565E+07        -0.80257E+07         0.00000E+00
    0.00000E+00         0.00000E+00        -0.35537E+05
 
    0.69108E+07        -0.15638E+07         0.00000E+00
   -0.15638E+07        -0.79395E+07         0.00000E+00
    0.00000E+00         0.00000E+00        -0.20574E+06
 
    0.59799E+07        -0.15883E+07         0.00000E+00
   -0.15883E+07        -0.78496E+07         0.00000E+00
    0.00000E+00         0.00000E+00        -0.37394E+06
 
    0.50719E+07        -0.14412E+07         0.00000E+00
   -0.14412E+07        -0.77595E+07         0.00000E+00
    0.00000E+00         0.00000E+00        -0.53752E+06
 
    0.41959E+07        -0.11341E+07         0.00000E+00
   -0.11341E+07        -0.76682E+07         0.00000E+00
    0.00000E+00         0.00000E+00        -0.69445E+06
 
    0.33556E+07        -0.67699E+06         0.00000E+00
   -0.67699E+06        -0.75716E+07         0.00000E+00
    0.00000E+00         0.00000E+00        -0.84320E+06
 
    0.25514E+07        -0.77842E+05         0.00000E+00
   -0.77842E+05        -0.74644E+07         0.00000E+00
    0.00000E+00         0.00000E+00        -0.98260E+06
 
    0.17830E+07         0.65804E+06         0.00000E+00
    0.65804E+06        -0.73415E+07         0.00000E+00
    0.00000E+00         0.00000E+00        -0.11117E+07
 
    0.10513E+07         0.15274E+07         0.00000E+00
    0.15274E+07        -0.71993E+07         0.00000E+00
    0.00000E+00         0.00000E+00        -0.12296E+07
 
    0.36023E+06         0.25283E+07         0.00000E+00
    0.25283E+07        -0.70369E+07         0.00000E+00
    0.00000E+00         0.00000E+00        -0.13353E+07
 
   -0.28212E+06         0.36583E+07         0.00000E+00
    0.36583E+07        -0.68572E+07         0.00000E+00
    0.00000E+00         0.00000E+00        -0.14279E+07
 
   -0.86302E+06         0.49129E+07         0.00000E+00
    0.49129E+07        -0.66666E+07         0.00000E+00
    0.00000E+00         0.00000E+00        -0.15059E+07
 
   -0.13657E+07         0.62832E+07         0.00000E+00
    0.62832E+07        -0.64751E+07         0.00000E+00
    0.00000E+00         0.00000E+00        -0.15682E+07
 
    0.69355E+07        -0.34176E+06         0.00000E+00
   -0.34176E+06        -0.10177E+08         0.00000E+00
    0.00000E+00         0.00000E+00        -0.64829E+06
 
    0.62534E+07        -0.89836E+06         0.00000E+00
   -0.89836E+06        -0.10137E+08         0.00000E+00
    0.00000E+00         0.00000E+00        -0.77680E+06
 
    0.55216E+07        -0.12774E+07         0.00000E+00
   -0.12774E+07        -0.10072E+08         0.00000E+00
    0.00000E+00         0.00000E+00        -0.91009E+06
 
    0.47676E+07        -0.14764E+07         0.00000E+00
   -0.14764E+07        -0.99931E+07         0.00000E+00
    0.00000E+00         0.00000E+00        -0.10451E+07
 
    0.40122E+07        -0.14987E+07         0.00000E+00
   -0.14987E+07        -0.99082E+07         0.00000E+00
    0.00000E+00         0.00000E+00        -0.11792E+07
 
    0.32702E+07        -0.13508E+07         0.00000E+00
   -0.13508E+07        -0.98210E+07         0.00000E+00
    0.00000E+00         0.00000E+00        -0.13102E+07
 
    0.25506E+07        -0.10409E+07         0.00000E+00
   -0.10409E+07        -0.97319E+07         0.00000E+00
    0.00000E+00         0.00000E+00        -0.14363E+07
 
    0.18581E+07        -0.57729E+06         0.00000E+00
   -0.57729E+06        -0.96389E+07         0.00000E+00
    0.00000E+00         0.00000E+00        -0.15561E+07
 
    0.11952E+07         0.32883E+05         0.00000E+00
    0.32883E+05        -0.95385E+07         0.00000E+00
    0.00000E+00         0.00000E+00        -0.16687E+07
 
    0.56314E+06         0.78350E+06         0.00000E+00
    0.78350E+06        -0.94276E+07         0.00000E+00
    0.00000E+00         0.00000E+00        -0.17729E+07
 
   -0.35840E+05         0.16695E+07         0.00000E+00
    0.16695E+07        -0.93039E+07         0.00000E+00
    0.00000E+00         0.00000E+00        -0.18680E+07
 
   -0.59775E+06         0.26860E+07         0.00000E+00
    0.26860E+07        -0.91673E+07         0.00000E+00
    0.00000E+00         0.00000E+00        -0.19530E+07
 
   -0.11158E+07         0.38275E+07         0.00000E+00
    0.38275E+07        -0.90201E+07         0.00000E+00
    0.00000E+00         0.00000E+00        -0.20272E+07
 
   -0.15802E+07         0.50864E+07         0.00000E+00
    0.50864E+07        -0.88670E+07         0.00000E+00
    0.00000E+00         0.00000E+00        -0.20894E+07
 
   -0.19789E+07         0.64514E+07         0.00000E+00
    0.64514E+07        -0.87152E+07         0.00000E+00
    0.00000E+00         0.00000E+00        -0.21388E+07
 
    0.42810E+07        -0.32114E+06         0.00000E+00
   -0.32114E+06        -0.12210E+08         0.00000E+00
    0.00000E+00         0.00000E+00        -0.15858E+07
 
    0.37654E+07        -0.84754E+06         0.00000E+00
   -0.84754E+06        -0.12178E+08         0.00000E+00
    0.00000E+00         0.00000E+00        -0.16825E+07
 
    0.32079E+07        -0.12087E+07         0.00000E+00
   -0.12087E+07        -0.12124E+08         0.00000E+00
    0.00000E+00         0.00000E+00        -0.17832E+07
 
    0.26293E+07        -0.13986E+07         0.00000E+00
   -0.13986E+07        -0.12058E+08         0.00000E+00
    0.00000E+00         0.00000E+00        -0.18857E+07
 
    0.20459E+07        -0.14171E+07         0.00000E+00
   -0.14171E+07        -0.11985E+08         0.00000E+00
    0.00000E+00         0.00000E+00        -0.19878E+07
 
    0.14698E+07        -0.12673E+07         0.00000E+00
   -0.12673E+07        -0.11909E+08         0.00000E+00
    0.00000E+00         0.00000E+00        -0.20879E+07
 
    0.90868E+06        -0.95504E+06         0.00000E+00
   -0.95504E+06        -0.11832E+08         0.00000E+00
    0.00000E+00         0.00000E+00        -0.21846E+07
 
    0.36757E+06        -0.48675E+06         0.00000E+00
   -0.48675E+06        -0.11751E+08         0.00000E+00
    0.00000E+00         0.00000E+00        -0.22766E+07
 
   -0.15071E+06         0.13077E+06         0.00000E+00
    0.13077E+06        -0.11665E+08         0.00000E+00
    0.00000E+00         0.00000E+00        -0.23631E+07
 
   -0.64405E+06         0.89102E+06         0.00000E+00
    0.89102E+06        -0.11572E+08         0.00000E+00
    0.00000E+00         0.00000E+00        -0.24433E+07
 
   -0.11100E+07         0.17876E+07         0.00000E+00
    0.17876E+07        -0.11472E+08         0.00000E+00
    0.00000E+00         0.00000E+00        -0.25164E+07
 
   -0.15450E+07         0.28138E+07         0.00000E+00
    0.28138E+07        -0.11363E+08         0.00000E+00
    0.00000E+00         0.00000E+00        -0.25817E+07
 
   -0.19437E+07         0.39619E+07         0.00000E+00
    0.39619E+07        -0.11248E+08         0.00000E+00
    0.00000E+00         0.00000E+00        -0.26384E+07
 
   -0.22989E+07         0.52222E+07         0.00000E+00
    0.52222E+07        -0.11131E+08         0.00000E+00
    0.00000E+00         0.00000E+00        -0.26860E+07
 
   -0.26022E+07         0.65820E+07         0.00000E+00
    0.65820E+07        -0.11015E+08         0.00000E+00
    0.00000E+00         0.00000E+00        -0.27235E+07
 
    0.16593E+07        -0.30519E+06         0.00000E+00
   -0.30519E+06        -0.14244E+08         0.00000E+00
    0.00000E+00         0.00000E+00        -0.25170E+07
 
    0.12984E+07        -0.80778E+06         0.00000E+00
   -0.80778E+06        -0.14220E+08         0.00000E+00
    0.00000E+00         0.00000E+00        -0.25844E+07
 
    0.90587E+06        -0.11541E+07         0.00000E+00
   -0.11541E+07        -0.14180E+08         0.00000E+00
    0.00000E+00         0.00000E+00        -0.26549E+07
 
    0.49644E+06        -0.13360E+07         0.00000E+00
   -0.13360E+07        -0.14131E+08         0.00000E+00
    0.00000E+00         0.00000E+00        -0.27268E+07
 
    0.81817E+05        -0.13505E+07         0.00000E+00
   -0.13505E+07        -0.14075E+08         0.00000E+00
    0.00000E+00         0.00000E+00        -0.27987E+07
 
   -0.32924E+06        -0.11986E+07         0.00000E+00
   -0.11986E+07        -0.14017E+08         0.00000E+00
    0.00000E+00         0.00000E+00        -0.28693E+07
 
   -0.73066E+06        -0.88424E+06         0.00000E+00
   -0.88424E+06        -0.13958E+08         0.00000E+00
    0.00000E+00         0.00000E+00        -0.29376E+07
 
   -0.11185E+07        -0.41279E+06         0.00000E+00
   -0.41279E+06        -0.13896E+08         0.00000E+00
    0.00000E+00         0.00000E+00        -0.30028E+07
 
   -0.14900E+07         0.20945E+06         0.00000E+00
    0.20945E+06        -0.13831E+08         0.00000E+00
    0.00000E+00         0.00000E+00        -0.30641E+07
 
   -0.18433E+07         0.97571E+06         0.00000E+00
    0.97571E+06        -0.13761E+08         0.00000E+00
    0.00000E+00         0.00000E+00        -0.31209E+07
 
   -0.21763E+07         0.18788E+07         0.00000E+00
    0.18788E+07        -0.13687E+08         0.00000E+00
    0.00000E+00         0.00000E+00        -0.31727E+07
 
   -0.24861E+07         0.29107E+07         0.00000E+00
    0.29107E+07        -0.13608E+08         0.00000E+00
    0.00000E+00         0.00000E+00        -0.32189E+07
 
   -0.27690E+07         0.40623E+07         0.00000E+00
    0.40623E+07        -0.13526E+08         0.00000E+00
    0.00000E+00         0.00000E+00        -0.32590E+07
 
   -0.30200E+07         0.53225E+07         0.00000E+00
    0.53225E+07        -0.13443E+08         0.00000E+00
    0.00000E+00         0.00000E+00        -0.32925E+07
 
   -0.32337E+07         0.66779E+07         0.00000E+00
    0.66779E+07        -0.13361E+08         0.00000E+00
    0.00000E+00         0.00000E+00        -0.33190E+07
 
   -0.93822E+06        -0.29437E+06         0.00000E+00
   -0.29437E+06        -0.16279E+08         0.00000E+00
    0.00000E+00         0.00000E+00        -0.34434E+07
 
   -0.11529E+07        -0.78059E+06         0.00000E+00
   -0.78059E+06        -0.16264E+08         0.00000E+00
    0.00000E+00         0.00000E+00        -0.34834E+07
 
   -0.13870E+07        -0.11165E+07         0.00000E+00
   -0.11165E+07        -0.16240E+08         0.00000E+00
    0.00000E+00         0.00000E+00        -0.35254E+07
 
   -0.16317E+07        -0.12924E+07         0.00000E+00
   -0.12924E+07        -0.16209E+08         0.00000E+00
    0.00000E+00         0.00000E+00        -0.35682E+07
 
   -0.18802E+07        -0.13037E+07         0.00000E+00
   -0.13037E+07        -0.16175E+08         0.00000E+00
    0.00000E+00         0.00000E+00        -0.36110E+07
 
   -0.21270E+07        -0.11501E+07         0.00000E+00
   -0.11501E+07        -0.16139E+08         0.00000E+00
    0.00000E+00         0.00000E+00        -0.36532E+07
 
   -0.23683E+07        -0.83424E+06         0.00000E+00
   -0.83424E+06        -0.16102E+08         0.00000E+00
    0.00000E+00         0.00000E+00        -0.36940E+07
 
   -0.26018E+07        -0.36080E+06         0.00000E+00
   -0.36080E+06        -0.16063E+08         0.00000E+00
    0.00000E+00         0.00000E+00        -0.37330E+07
 
   -0.28254E+07         0.26425E+06         0.00000E+00
    0.26425E+06        -0.16023E+08         0.00000E+00
    0.00000E+00         0.00000E+00        -0.37697E+07
 
   -0.30380E+07         0.10340E+07         0.00000E+00
    0.10340E+07        -0.15980E+08         0.00000E+00
    0.00000E+00         0.00000E+00        -0.38037E+07
 
   -0.32381E+07         0.19408E+07         0.00000E+00
    0.19408E+07        -0.15935E+08         0.00000E+00
    0.00000E+00         0.00000E+00        -0.38347E+07
 
   -0.34240E+07         0.29758E+07         0.00000E+00
    0.29758E+07        -0.15887E+08         0.00000E+00
    0.00000E+00         0.00000E+00        -0.38623E+07
 
   -0.35934E+07         0.41291E+07         0.00000E+00
    0.41291E+07        -0.15838E+08         0.00000E+00
    0.00000E+00         0.00000E+00        -0.38863E+07
 
   -0.37435E+07         0.53889E+07         0.00000E+00
    0.53889E+07        -0.15788E+08         0.00000E+00
    0.00000E+00         0.00000E+00        -0.39063E+07
 
   -0.38711E+07         0.67412E+07         0.00000E+00
    0.67412E+07        -0.15739E+08         0.00000E+00
    0.00000E+00         0.00000E+00        -0.39221E+07
 
   -0.35213E+07        -0.28896E+06         0.00000E+00
   -0.28896E+06        -0.18314E+08         0.00000E+00
    0.00000E+00         0.00000E+00        -0.43670E+07
 
   -0.35947E+07        -0.76696E+06         0.00000E+00
   -0.76696E+06        -0.18309E+08         0.00000E+00
    0.00000E+00         0.00000E+00        -0.43808E+07
 
   -0.36742E+07        -0.10976E+07         0.00000E+00
   -0.10976E+07        -0.18301E+08         0.00000E+00
    0.00000E+00         0.00000E+00        -0.43951E+07
 
   -0.37570E+07        -0.12703E+07         0.00000E+00
   -0.12703E+07        -0.18291E+08         0.00000E+00
    0.00000E+00         0.00000E+00        -0.44097E+07
 
   -0.38408E+07        -0.12799E+07         0.00000E+00
   -0.12799E+07        -0.18280E+08         0.00000E+00
    0.00000E+00         0.00000E+00        -0.44243E+07
 
   -0.39239E+07        -0.11254E+07         0.00000E+00
   -0.11254E+07        -0.18269E+08         0.00000E+00
    0.00000E+00         0.00000E+00        -0.44386E+07
 
   -0.40052E+07        -0.80870E+06         0.00000E+00
   -0.80870E+06        -0.18257E+08         0.00000E+00
    0.00000E+00         0.00000E+00        -0.44524E+07
 
   -0.40837E+07        -0.33426E+06         0.00000E+00
   -0.33426E+06        -0.18244E+08         0.00000E+00
    0.00000E+00         0.00000E+00        -0.44656E+07
 
   -0.41589E+07         0.29214E+06         0.00000E+00
    0.29214E+06        -0.18231E+08         0.00000E+00
    0.00000E+00         0.00000E+00        -0.44781E+07
 
   -0.42305E+07         0.10636E+07         0.00000E+00
    0.10636E+07        -0.18217E+08         0.00000E+00
    0.00000E+00         0.00000E+00        -0.44896E+07
 
   -0.42978E+07         0.19720E+07         0.00000E+00
    0.19720E+07        -0.18202E+08         0.00000E+00
    0.00000E+00         0.00000E+00        -0.45001E+07
 
   -0.43605E+07         0.30086E+07         0.00000E+00
    0.30086E+07        -0.18187E+08         0.00000E+00
    0.00000E+00         0.00000E+00        -0.45094E+07
 
   -0.44177E+07         0.41627E+07         0.00000E+00
    0.41627E+07        -0.18170E+08         0.00000E+00
    0.00000E+00         0.00000E+00        -0.45176E+07
 
   -0.44687E+07         0.54222E+07         0.00000E+00
    0.54222E+07        -0.18153E+08         0.00000E+00
    0.00000E+00         0.00000E+00        -0.45244E+07
 
   -0.45123E+07         0.67730E+07         0.00000E+00
    0.67730E+07        -0.18137E+08         0.00000E+00
    0.00000E+00         0.00000E+00        -0.45298E+07
 
   -0.60999E+07        -0.28911E+06         0.00000E+00
   -0.28911E+06        -0.20349E+08         0.00000E+00
    0.00000E+00         0.00000E+00        -0.52898E+07
 
   -0.60337E+07        -0.76736E+06         0.00000E+00
   -0.76736E+06        -0.20355E+08         0.00000E+00
    0.00000E+00         0.00000E+00        -0.52776E+07
 
   -0.59598E+07        -0.10982E+07         0.00000E+00
   -0.10982E+07        -0.20364E+08         0.00000E+00
    0.00000E+00         0.00000E+00        -0.52647E+07
 
   -0.58815E+07        -0.12710E+07         0.00000E+00
   -0.12710E+07        -0.20375E+08         0.00000E+00
    0.00000E+00         0.00000E+00        -0.52513E+07
 
   -0.58012E+07        -0.12807E+07         0.00000E+00
   -0.12807E+07        -0.20388E+08         0.00000E+00
    0.00000E+00         0.00000E+00        -0.52379E+07
 
   -0.57209E+07        -0.11261E+07         0.00000E+00
   -0.11261E+07        -0.20402E+08         0.00000E+00
    0.00000E+00         0.00000E+00        -0.52245E+07
 
   -0.56420E+07        -0.80941E+06         0.00000E+00
   -0.80941E+06        -0.20416E+08         0.00000E+00
    0.00000E+00         0.00000E+00        -0.52116E+07
 
   -0.55654E+07        -0.33489E+06         0.00000E+00
   -0.33489E+06        -0.20430E+08         0.00000E+00
    0.00000E+00         0.00000E+00        -0.51991E+07
 
   -0.54920E+07         0.29163E+06         0.00000E+00
    0.29163E+06        -0.20445E+08         0.00000E+00
    0.00000E+00         0.00000E+00        -0.51874E+07
 
   -0.54224E+07         0.10632E+07         0.00000E+00
    0.10632E+07        -0.20461E+08         0.00000E+00
    0.00000E+00         0.00000E+00        -0.51766E+07
 
   -0.53570E+07         0.19719E+07         0.00000E+00
    0.19719E+07        -0.20476E+08         0.00000E+00
    0.00000E+00         0.00000E+00        -0.51667E+07
 
   -0.52967E+07         0.30086E+07         0.00000E+00
    0.30086E+07        -0.20493E+08         0.00000E+00
    0.00000E+00         0.00000E+00        -0.51579E+07
 
   -0.52422E+07         0.41629E+07         0.00000E+00
    0.41629E+07        -0.20509E+08         0.00000E+00
    0.00000E+00         0.00000E+00        -0.51503E+07
 
   -0.51945E+07         0.54227E+07         0.00000E+00
    0.54227E+07        -0.20526E+08         0.00000E+00
    0.00000E+00         0.00000E+00        -0.51440E+07
 
   -0.51548E+07         0.67739E+07         0.00000E+00
    0.67739E+07        -0.20541E+08         0.00000E+00
    0.00000E+00         0.00000E+00        -0.51391E+07
 
   -0.86844E+07        -0.29482E+06         0.00000E+00
   -0.29482E+06        -0.22385E+08         0.00000E+00
    0.00000E+00         0.00000E+00        -0.62139E+07
 
   -0.84767E+07        -0.78179E+06         0.00000E+00
   -0.78179E+06        -0.22400E+08         0.00000E+00
    0.00000E+00         0.00000E+00        -0.61754E+07
 
   -0.82482E+07        -0.11183E+07         0.00000E+00
   -0.11183E+07        -0.22426E+08         0.00000E+00
    0.00000E+00         0.00000E+00        -0.61348E+07
 
   -0.80078E+07        -0.12945E+07         0.00000E+00
   -0.12945E+07        -0.22458E+08         0.00000E+00
    0.00000E+00         0.00000E+00        -0.60932E+07
 
   -0.77628E+07        -0.13059E+07         0.00000E+00
   -0.13059E+07        -0.22494E+08         0.00000E+00
    0.00000E+00         0.00000E+00        -0.60514E+07
 
   -0.75187E+07        -0.11523E+07         0.00000E+00
   -0.11523E+07        -0.22532E+08         0.00000E+00
    0.00000E+00         0.00000E+00        -0.60102E+07
 
   -0.72795E+07        -0.83637E+06         0.00000E+00
   -0.83637E+06        -0.22572E+08         0.00000E+00
    0.00000E+00         0.00000E+00        -0.59702E+07
 
   -0.70480E+07        -0.36268E+06         0.00000E+00
   -0.36268E+06        -0.22612E+08         0.00000E+00
    0.00000E+00         0.00000E+00        -0.59320E+07
 
   -0.68261E+07         0.26272E+06         0.00000E+00
    0.26272E+06        -0.22654E+08         0.00000E+00
    0.00000E+00         0.00000E+00        -0.58961E+07
 
   -0.66153E+07         0.10329E+07         0.00000E+00
    0.10329E+07        -0.22698E+08         0.00000E+00
    0.00000E+00         0.00000E+00        -0.58627E+07
 
   -0.64172E+07         0.19402E+07         0.00000E+00
    0.19402E+07        -0.22744E+08         0.00000E+00
    0.00000E+00         0.00000E+00        -0.58323E+07
 
   -0.62336E+07         0.29759E+07         0.00000E+00
    0.29759E+07        -0.22793E+08         0.00000E+00
    0.00000E+00         0.00000E+00        -0.58053E+07
 
   -0.60669E+07         0.41300E+07         0.00000E+00
    0.41300E+07        -0.22842E+08         0.00000E+00
    0.00000E+00         0.00000E+00        -0.57818E+07
 
   -0.59200E+07         0.53906E+07         0.00000E+00
    0.53906E+07        -0.22892E+08         0.00000E+00
    0.00000E+00         0.00000E+00        -0.57623E+07
 
   -0.57962E+07         0.67438E+07         0.00000E+00
    0.67438E+07        -0.22939E+08         0.00000E+00
    0.00000E+00         0.00000E+00        -0.57470E+07
 
   -0.11285E+08        -0.30595E+06         0.00000E+00
   -0.30595E+06        -0.24421E+08         0.00000E+00
    0.00000E+00         0.00000E+00        -0.71412E+07
 
   -0.10931E+08        -0.80977E+06         0.00000E+00
   -0.80977E+06        -0.24446E+08         0.00000E+00
    0.00000E+00         0.00000E+00        -0.70753E+07
 
   -0.10543E+08        -0.11570E+07         0.00000E+00
   -0.11570E+07        -0.24487E+08         0.00000E+00
    0.00000E+00         0.00000E+00        -0.70061E+07
 
   -0.10138E+08        -0.13394E+07         0.00000E+00
   -0.13394E+07        -0.24539E+08         0.00000E+00
    0.00000E+00         0.00000E+00        -0.69353E+07
 
   -0.97266E+07        -0.13542E+07         0.00000E+00
   -0.13542E+07        -0.24596E+08         0.00000E+00
    0.00000E+00         0.00000E+00        -0.68645E+07
 
   -0.93180E+07        -0.12023E+07         0.00000E+00
   -0.12023E+07        -0.24656E+08         0.00000E+00
    0.00000E+00         0.00000E+00        -0.67947E+07
 
   -0.89187E+07        -0.88775E+06         0.00000E+00
   -0.88775E+06        -0.24717E+08         0.00000E+00
    0.00000E+00         0.00000E+00        -0.67272E+07
 
   -0.85326E+07        -0.41589E+06         0.00000E+00
   -0.41589E+06        -0.24781E+08         0.00000E+00
    0.00000E+00         0.00000E+00        -0.66628E+07
 
   -0.81627E+07         0.20694E+06         0.00000E+00
    0.20694E+06        -0.24848E+08         0.00000E+00
    0.00000E+00         0.00000E+00        -0.66022E+07
 
   -0.78111E+07         0.97395E+06         0.00000E+00
    0.97395E+06        -0.24919E+08         0.00000E+00
    0.00000E+00         0.00000E+00        -0.65460E+07
 
   -0.74799E+07         0.18779E+07         0.00000E+00
    0.18779E+07        -0.24994E+08         0.00000E+00
    0.00000E+00         0.00000E+00        -0.64948E+07
 
   -0.71722E+07         0.29109E+07         0.00000E+00
    0.29109E+07        -0.25073E+08         0.00000E+00
    0.00000E+00         0.00000E+00        -0.64491E+07
 
   -0.68919E+07         0.40637E+07         0.00000E+00
    0.40637E+07        -0.25156E+08         0.00000E+00
    0.00000E+00         0.00000E+00        -0.64095E+07
 
   -0.66440E+07         0.53253E+07         0.00000E+00
    0.53253E+07        -0.25238E+08         0.00000E+00
    0.00000E+00         0.00000E+00        -0.63765E+07
 
   -0.64340E+07         0.66822E+07         0.00000E+00
    0.66822E+07        -0.25318E+08         0.00000E+00
    0.00000E+00         0.00000E+00        -0.63505E+07
 
   -0.13911E+08        -0.32219E+06         0.00000E+00
   -0.32219E+06        -0.26458E+08         0.00000E+00
    0.00000E+00         0.00000E+00        -0.80737E+07
 
   -0.13401E+08        -0.85031E+06         0.00000E+00
   -0.85031E+06        -0.26491E+08         0.00000E+00
    0.00000E+00         0.00000E+00        -0.79784E+07
 
   -0.12849E+08        -0.12127E+07         0.00000E+00
   -0.12127E+07        -0.26546E+08         0.00000E+00
    0.00000E+00         0.00000E+00        -0.78789E+07
 
   -0.12274E+08        -0.14034E+07         0.00000E+00
   -0.14034E+07        -0.26614E+08         0.00000E+00
    0.00000E+00         0.00000E+00        -0.77776E+07
 
   -0.11693E+08        -0.14222E+07         0.00000E+00
   -0.14222E+07        -0.26689E+08         0.00000E+00
    0.00000E+00         0.00000E+00        -0.76764E+07
 
   -0.11119E+08        -0.12725E+07         0.00000E+00
   -0.12725E+07        -0.26766E+08         0.00000E+00
    0.00000E+00         0.00000E+00        -0.75771E+07
 
   -0.10560E+08        -0.95986E+06         0.00000E+00
   -0.95986E+06        -0.26846E+08         0.00000E+00
    0.00000E+00         0.00000E+00        -0.74812E+07
 
   -0.10021E+08        -0.49100E+06         0.00000E+00
   -0.49100E+06        -0.26928E+08         0.00000E+00
    0.00000E+00         0.00000E+00        -0.73898E+07
 
   -0.95038E+07         0.12733E+06         0.00000E+00
    0.12733E+06        -0.27016E+08         0.00000E+00
    0.00000E+00         0.00000E+00        -0.73039E+07
 
   -0.90119E+07         0.88860E+06         0.00000E+00
    0.88860E+06        -0.27110E+08         0.00000E+00
    0.00000E+00         0.00000E+00        -0.72243E+07
 
   -0.85476E+07         0.17864E+07         0.00000E+00
    0.17864E+07        -0.27211E+08         0.00000E+00
    0.00000E+00         0.00000E+00        -0.71517E+07
 
   -0.81145E+07         0.28141E+07         0.00000E+00
    0.28141E+07        -0.27320E+08         0.00000E+00
    0.00000E+00         0.00000E+00        -0.70870E+07
 
   -0.77182E+07         0.39638E+07         0.00000E+00
    0.39638E+07        -0.27435E+08         0.00000E+00
    0.00000E+00         0.00000E+00        -0.70307E+07
 
   -0.73658E+07         0.52260E+07         0.00000E+00
    0.52260E+07        -0.27552E+08         0.00000E+00
    0.00000E+00         0.00000E+00        -0.69836E+07
 
   -0.70661E+07         0.65879E+07         0.00000E+00
    0.65879E+07        -0.27666E+08         0.00000E+00
    0.00000E+00         0.00000E+00        -0.69465E+07
 
   -0.16571E+08        -0.34311E+06         0.00000E+00
   -0.34311E+06        -0.28494E+08         0.00000E+00
    0.00000E+00         0.00000E+00        -0.90131E+07
 
   -0.15895E+08        -0.90192E+06         0.00000E+00
   -0.90192E+06        -0.28535E+08         0.00000E+00
    0.00000E+00         0.00000E+00        -0.88859E+07
 
   -0.15167E+08        -0.12825E+07         0.00000E+00
   -0.12825E+07        -0.28601E+08         0.00000E+00
    0.00000E+00         0.00000E+00        -0.87537E+07
 
   -0.14416E+08        -0.14825E+07         0.00000E+00
   -0.14825E+07        -0.28682E+08         0.00000E+00
    0.00000E+00         0.00000E+00        -0.86196E+07
 
   -0.13663E+08        -0.15051E+07         0.00000E+00
   -0.15051E+07        -0.28769E+08         0.00000E+00
    0.00000E+00         0.00000E+00        -0.84864E+07
 
   -0.12923E+08        -0.13572E+07         0.00000E+00
   -0.13572E+07        -0.28858E+08         0.00000E+00
    0.00000E+00         0.00000E+00        -0.83561E+07
 
   -0.12205E+08        -0.10470E+07         0.00000E+00
   -0.10470E+07        -0.28948E+08         0.00000E+00
    0.00000E+00         0.00000E+00        -0.82307E+07
 
   -0.11514E+08        -0.58260E+06         0.00000E+00
   -0.58260E+06        -0.29043E+08         0.00000E+00
    0.00000E+00         0.00000E+00        -0.81114E+07
 
   -0.10852E+08         0.28592E+05         0.00000E+00
    0.28592E+05        -0.29145E+08         0.00000E+00
    0.00000E+00         0.00000E+00        -0.79994E+07
 
   -0.10221E+08         0.78049E+06         0.00000E+00
    0.78049E+06        -0.29257E+08         0.00000E+00
    0.00000E+00         0.00000E+00        -0.78957E+07
 
   -0.96236E+07         0.16680E+07         0.00000E+00
    0.16680E+07        -0.29382E+08         0.00000E+00
    0.00000E+00         0.00000E+00        -0.78010E+07
 
   -0.90633E+07         0.26863E+07         0.00000E+00
    0.26863E+07        -0.29519E+08         0.00000E+00
    0.00000E+00         0.00000E+00        -0.77164E+07
 
   -0.85474E+07         0.38300E+07         0.00000E+00
    0.38300E+07        -0.29666E+08         0.00000E+00
    0.00000E+00         0.00000E+00        -0.76427E+07
 
   -0.80856E+07         0.50912E+07         0.00000E+00
    0.50912E+07        -0.29819E+08         0.00000E+00
    0.00000E+00         0.00000E+00        -0.75809E+07
 
   -0.76902E+07         0.64589E+07         0.00000E+00
    0.64589E+07        -0.29969E+08         0.00000E+00
    0.00000E+00         0.00000E+00        -0.75319E+07
 
   -0.19273E+08        -0.36812E+06         0.00000E+00
   -0.36812E+06        -0.30531E+08         0.00000E+00
    0.00000E+00         0.00000E+00        -0.99609E+07
 
   -0.18414E+08        -0.96251E+06         0.00000E+00
   -0.96251E+06        -0.30577E+08         0.00000E+00
    0.00000E+00         0.00000E+00        -0.97982E+07
 
   -0.17499E+08        -0.13626E+07         0.00000E+00
   -0.13626E+07        -0.30652E+08         0.00000E+00
    0.00000E+00         0.00000E+00        -0.96302E+07
 
   -0.16565E+08        -0.15710E+07         0.00000E+00
   -0.15710E+07        -0.30740E+08         0.00000E+00
    0.00000E+00         0.00000E+00        -0.94608E+07
 
   -0.15635E+08        -0.15960E+07         0.00000E+00
   -0.15960E+07        -0.30831E+08         0.00000E+00
    0.00000E+00         0.00000E+00        -0.92933E+07
 
   -0.14729E+08        -0.14489E+07         0.00000E+00
   -0.14489E+07        -0.30923E+08         0.00000E+00
    0.00000E+00         0.00000E+00        -0.91304E+07
 
   -0.13854E+08        -0.11412E+07         0.00000E+00
   -0.11412E+07        -0.31016E+08         0.00000E+00
    0.00000E+00         0.00000E+00        -0.89740E+07
 
   -0.13014E+08        -0.68321E+06         0.00000E+00
   -0.68321E+06        -0.31114E+08         0.00000E+00
    0.00000E+00         0.00000E+00        -0.88257E+07
 
   -0.12211E+08        -0.82871E+05         0.00000E+00
   -0.82871E+05        -0.31222E+08         0.00000E+00
    0.00000E+00         0.00000E+00        -0.86867E+07
 
   -0.11444E+08         0.65451E+06         0.00000E+00
    0.65451E+06        -0.31346E+08         0.00000E+00
    0.00000E+00         0.00000E+00        -0.85580E+07
 
   -0.10713E+08         0.15257E+07         0.00000E+00
    0.15257E+07        -0.31489E+08         0.00000E+00
    0.00000E+00         0.00000E+00        -0.84405E+07
 
   -0.10023E+08         0.25287E+07         0.00000E+00
    0.25287E+07        -0.31652E+08         0.00000E+00
    0.00000E+00         0.00000E+00        -0.83351E+07
 
   -0.93827E+07         0.36612E+07         0.00000E+00
    0.36612E+07        -0.31832E+08         0.00000E+00
    0.00000E+00         0.00000E+00        -0.82430E+07
 
   -0.88041E+07         0.49186E+07         0.00000E+00
    0.49186E+07        -0.32022E+08         0.00000E+00
    0.00000E+00         0.00000E+00        -0.81653E+07
 
   -0.83044E+07         0.62921E+07         0.00000E+00
    0.62921E+07        -0.32213E+08         0.00000E+00
    0.00000E+00         0.00000E+00        -0.81034E+07
 
   -0.22024E+08        -0.39650E+06         0.00000E+00
   -0.39650E+06        -0.32568E+08         0.00000E+00
    0.00000E+00         0.00000E+00        -0.10918E+08
 
   -0.20960E+08        -0.10294E+07         0.00000E+00
   -0.10294E+07        -0.32618E+08         0.00000E+00
    0.00000E+00         0.00000E+00        -0.10716E+08
 
   -0.19844E+08        -0.14480E+07         0.00000E+00
   -0.14480E+07        -0.32696E+08         0.00000E+00
    0.00000E+00         0.00000E+00        -0.10508E+08
 
   -0.18716E+08        -0.16617E+07         0.00000E+00
   -0.16617E+07        -0.32784E+08         0.00000E+00
    0.00000E+00         0.00000E+00        -0.10300E+08
 
   -0.17608E+08        -0.16856E+07         0.00000E+00
   -0.16856E+07        -0.32870E+08         0.00000E+00
    0.00000E+00         0.00000E+00        -0.10096E+08
 
   -0.16536E+08        -0.15371E+07         0.00000E+00
   -0.15371E+07        -0.32954E+08         0.00000E+00
    0.00000E+00         0.00000E+00        -0.98979E+07
 
   -0.15508E+08        -0.12321E+07         0.00000E+00
   -0.12321E+07        -0.33037E+08         0.00000E+00
    0.00000E+00         0.00000E+00        -0.97091E+07
 
   -0.14526E+08        -0.78323E+06         0.00000E+00
   -0.78323E+06        -0.33127E+08         0.00000E+00
    0.00000E+00         0.00000E+00        -0.95307E+07
 
   -0.13587E+08        -0.19886E+06         0.00000E+00
   -0.19886E+06        -0.33232E+08         0.00000E+00
    0.00000E+00         0.00000E+00        -0.93638E+07
 
   -0.12686E+08         0.51685E+06         0.00000E+00
    0.51685E+06        -0.33360E+08         0.00000E+00
    0.00000E+00         0.00000E+00        -0.92093E+07
 
   -0.11823E+08         0.13633E+07         0.00000E+00
    0.13633E+07        -0.33516E+08         0.00000E+00
    0.00000E+00         0.00000E+00        -0.90679E+07
 
   -0.11001E+08         0.23423E+07         0.00000E+00
    0.23423E+07        -0.33702E+08         0.00000E+00
    0.00000E+00         0.00000E+00        -0.89407E+07
 
   -0.10229E+08         0.34560E+07         0.00000E+00
    0.34560E+07        -0.33915E+08         0.00000E+00
    0.00000E+00         0.00000E+00        -0.88289E+07
 
   -0.95238E+07         0.47045E+07         0.00000E+00
    0.47045E+07        -0.34146E+08         0.00000E+00
    0.00000E+00         0.00000E+00        -0.87340E+07
 
   -0.89073E+07         0.60828E+07         0.00000E+00
    0.60828E+07        -0.34381E+08         0.00000E+00
    0.00000E+00         0.00000E+00        -0.86577E+07
 
   -0.24827E+08        -0.42738E+06         0.00000E+00
   -0.42738E+06        -0.34605E+08         0.00000E+00
    0.00000E+00         0.00000E+00        -0.11886E+08
 
   -0.23534E+08        -0.10990E+07         0.00000E+00
   -0.10990E+07        -0.34657E+08         0.00000E+00
    0.00000E+00         0.00000E+00        -0.11638E+08
 
   -0.22197E+08        -0.15317E+07         0.00000E+00
   -0.15317E+07        -0.34732E+08         0.00000E+00
    0.00000E+00         0.00000E+00        -0.11386E+08
 
   -0.20867E+08        -0.17443E+07         0.00000E+00
   -0.17443E+07        -0.34809E+08         0.00000E+00
    0.00000E+00         0.00000E+00        -0.11135E+08
 
   -0.19576E+08        -0.17617E+07         0.00000E+00
   -0.17617E+07        -0.34879E+08         0.00000E+00
    0.00000E+00         0.00000E+00        -0.10891E+08
 
   -0.18343E+08        -0.16089E+07         0.00000E+00
   -0.16089E+07        -0.34940E+08         0.00000E+00
    0.00000E+00         0.00000E+00        -0.10656E+08
 
   -0.17170E+08        -0.13069E+07         0.00000E+00
   -0.13069E+07        -0.34999E+08         0.00000E+00
    0.00000E+00         0.00000E+00        -0.10434E+08
 
   -0.16054E+08        -0.87086E+06         0.00000E+00
   -0.87086E+06        -0.35068E+08         0.00000E+00
    0.00000E+00         0.00000E+00        -0.10224E+08
 
   -0.14986E+08        -0.30940E+06         0.00000E+00
   -0.30940E+06        -0.35158E+08         0.00000E+00
    0.00000E+00         0.00000E+00        -0.10029E+08
 
   -0.13958E+08         0.37504E+06         0.00000E+00
    0.37504E+06        -0.35280E+08         0.00000E+00
    0.00000E+00         0.00000E+00        -0.98476E+07
 
   -0.12965E+08         0.11853E+07         0.00000E+00
    0.11853E+07        -0.35442E+08         0.00000E+00
    0.00000E+00         0.00000E+00        -0.96815E+07
 
   -0.12008E+08         0.21282E+07         0.00000E+00
    0.21282E+07        -0.35648E+08         0.00000E+00
    0.00000E+00         0.00000E+00        -0.95312E+07
 
   -0.11096E+08         0.32121E+07         0.00000E+00
    0.32121E+07        -0.35895E+08         0.00000E+00
    0.00000E+00         0.00000E+00        -0.93981E+07
 
   -0.10249E+08         0.44437E+07         0.00000E+00
    0.44437E+07        -0.36171E+08         0.00000E+00
    0.00000E+00         0.00000E+00        -0.92841E+07
 
   -0.94980E+07         0.58239E+07         0.00000E+00
    0.58239E+07        -0.36459E+08         0.00000E+00
    0.00000E+00         0.00000E+00        -0.91914E+07
 
   -0.27685E+08        -0.45972E+06         0.00000E+00
   -0.45972E+06        -0.36642E+08         0.00000E+00
    0.00000E+00         0.00000E+00        -0.12865E+08
 
   -0.26131E+08        -0.11666E+07         0.00000E+00
   -0.11666E+07        -0.36692E+08         0.00000E+00
    0.00000E+00         0.00000E+00        -0.12565E+08
 
   -0.24551E+08        -0.16044E+07         0.00000E+00
   -0.16044E+07        -0.36756E+08         0.00000E+00
    0.00000E+00         0.00000E+00        -0.12262E+08
 
   -0.23008E+08        -0.18058E+07         0.00000E+00
   -0.18058E+07        -0.36811E+08         0.00000E+00
    0.00000E+00         0.00000E+00        -0.11964E+08
 
   -0.21536E+08        -0.18087E+07         0.00000E+00
   -0.18087E+07        -0.36846E+08         0.00000E+00
    0.00000E+00         0.00000E+00        -0.11676E+08
 
   -0.20148E+08        -0.16479E+07         0.00000E+00
   -0.16479E+07        -0.36866E+08         0.00000E+00
    0.00000E+00         0.00000E+00        -0.11403E+08
 
   -0.18841E+08        -0.13501E+07         0.00000E+00
   -0.13501E+07        -0.36884E+08         0.00000E+00
    0.00000E+00         0.00000E+00        -0.11145E+08
 
   -0.17603E+08        -0.93242E+06         0.00000E+00
   -0.93242E+06        -0.36916E+08         0.00000E+00
    0.00000E+00         0.00000E+00        -0.10904E+08
 
   -0.16418E+08        -0.40305E+06         0.00000E+00
   -0.40305E+06        -0.36978E+08         0.00000E+00
    0.00000E+00         0.00000E+00        -0.10679E+08
 
   -0.15271E+08         0.23778E+06         0.00000E+00
    0.23778E+06        -0.37084E+08         0.00000E+00
    0.00000E+00         0.00000E+00        -0.10471E+08
 
   -0.14152E+08         0.99697E+06         0.00000E+00
    0.99697E+06        -0.37245E+08         0.00000E+00
    0.00000E+00         0.00000E+00        -0.10279E+08
 
   -0.13056E+08         0.18874E+07         0.00000E+00
    0.18874E+07        -0.37468E+08         0.00000E+00
    0.00000E+00         0.00000E+00        -0.10105E+08
 
   -0.11994E+08         0.29259E+07         0.00000E+00
    0.29259E+07        -0.37750E+08         0.00000E+00
    0.00000E+00         0.00000E+00        -0.99487E+07
 
   -0.10987E+08         0.41287E+07         0.00000E+00
    0.41287E+07        -0.38078E+08         0.00000E+00
    0.00000E+00         0.00000E+00        -0.98131E+07
 
   -0.10077E+08         0.55055E+07         0.00000E+00
    0.55055E+07        -0.38429E+08         0.00000E+00
    0.00000E+00         0.00000E+00        -0.97011E+07
 
   -0.30597E+08        -0.49226E+06         0.00000E+00
   -0.49226E+06        -0.38679E+08         0.00000E+00
    0.00000E+00         0.00000E+00        -0.13855E+08
 
   -0.28740E+08        -0.12257E+07         0.00000E+00
   -0.12257E+07        -0.38722E+08         0.00000E+00
    0.00000E+00         0.00000E+00        -0.13493E+08
 
   -0.26893E+08        -0.16530E+07         0.00000E+00
   -0.16530E+07        -0.38764E+08         0.00000E+00
    0.00000E+00         0.00000E+00        -0.13131E+08
 
   -0.25129E+08        -0.18280E+07         0.00000E+00
   -0.18280E+07        -0.38776E+08         0.00000E+00
    0.00000E+00         0.00000E+00        -0.12781E+08
 
   -0.23481E+08        -0.18068E+07         0.00000E+00
   -0.18068E+07        -0.38755E+08         0.00000E+00
    0.00000E+00         0.00000E+00        -0.12447E+08
 
   -0.21952E+08        -0.16352E+07         0.00000E+00
   -0.16352E+07        -0.38714E+08         0.00000E+00
    0.00000E+00         0.00000E+00        -0.12133E+08
 
   -0.20527E+08        -0.13447E+07         0.00000E+00
   -0.13447E+07        -0.38672E+08         0.00000E+00
    0.00000E+00         0.00000E+00        -0.11840E+08
 
   -0.19183E+08        -0.95317E+06         0.00000E+00
   -0.95317E+06        -0.38651E+08         0.00000E+00
    0.00000E+00         0.00000E+00        -0.11567E+08
 
   -0.17895E+08        -0.46749E+06         0.00000E+00
   -0.46749E+06        -0.38671E+08         0.00000E+00
    0.00000E+00         0.00000E+00        -0.11313E+08
 
   -0.16641E+08         0.11469E+06         0.00000E+00
    0.11469E+06        -0.38750E+08         0.00000E+00
    0.00000E+00         0.00000E+00        -0.11078E+08
 
   -0.15401E+08         0.80447E+06         0.00000E+00
    0.80447E+06        -0.38902E+08         0.00000E+00
    0.00000E+00         0.00000E+00        -0.10861E+08
 
   -0.14166E+08         0.16215E+07         0.00000E+00
    0.16215E+07        -0.39137E+08         0.00000E+00
    0.00000E+00         0.00000E+00        -0.10661E+08
 
   -0.12940E+08         0.25930E+07         0.00000E+00
    0.25930E+07        -0.39456E+08         0.00000E+00
    0.00000E+00         0.00000E+00        -0.10479E+08
 
   -0.11750E+08         0.37489E+07         0.00000E+00
    0.37489E+07        -0.39844E+08         0.00000E+00
    0.00000E+00         0.00000E+00        -0.10319E+08
 
   -0.10645E+08         0.51133E+07         0.00000E+00
    0.51133E+07        -0.40272E+08         0.00000E+00
    0.00000E+00         0.00000E+00        -0.10184E+08
 
   -0.33557E+08        -0.52329E+06         0.00000E+00
   -0.52329E+06        -0.40715E+08         0.00000E+00
    0.00000E+00         0.00000E+00        -0.14854E+08
 
   -0.31344E+08        -0.12659E+07         0.00000E+00
   -0.12659E+07        -0.40745E+08         0.00000E+00
    0.00000E+00         0.00000E+00        -0.14418E+08
 
   -0.29203E+08        -0.16576E+07         0.00000E+00
   -0.16576E+07        -0.40744E+08         0.00000E+00
    0.00000E+00         0.00000E+00        -0.13989E+08
 
   -0.27216E+08        -0.17862E+07         0.00000E+00
   -0.17862E+07        -0.40687E+08         0.00000E+00
    0.00000E+00         0.00000E+00        -0.13581E+08
 
   -0.25406E+08        -0.17316E+07         0.00000E+00
   -0.17316E+07        -0.40583E+08         0.00000E+00
    0.00000E+00         0.00000E+00        -0.13198E+08
 
   -0.23756E+08        -0.15498E+07         0.00000E+00
   -0.15498E+07        -0.40457E+08         0.00000E+00
    0.00000E+00         0.00000E+00        -0.12842E+08
 
   -0.22234E+08        -0.12735E+07         0.00000E+00
   -0.12735E+07        -0.40336E+08         0.00000E+00
    0.00000E+00         0.00000E+00        -0.12514E+08
 
   -0.20805E+08        -0.91904E+06         0.00000E+00
   -0.91904E+06        -0.40248E+08         0.00000E+00
    0.00000E+00         0.00000E+00        -0.12211E+08
 
   -0.19433E+08        -0.49091E+06         0.00000E+00
   -0.49091E+06        -0.40214E+08         0.00000E+00
    0.00000E+00         0.00000E+00        -0.11929E+08
 
   -0.18085E+08         0.15733E+05         0.00000E+00
    0.15733E+05        -0.40255E+08         0.00000E+00
    0.00000E+00         0.00000E+00        -0.11668E+08
 
   -0.16735E+08         0.61516E+06         0.00000E+00
    0.61516E+06        -0.40389E+08         0.00000E+00
    0.00000E+00         0.00000E+00        -0.11425E+08
 
   -0.15361E+08         0.13330E+07         0.00000E+00
    0.13330E+07        -0.40630E+08         0.00000E+00
    0.00000E+00         0.00000E+00        -0.11198E+08
 
   -0.13960E+08         0.22082E+07         0.00000E+00
    0.22082E+07        -0.40986E+08         0.00000E+00
    0.00000E+00         0.00000E+00        -0.10989E+08
 
   -0.12555E+08         0.32903E+07         0.00000E+00
    0.32903E+07        -0.41445E+08         0.00000E+00
    0.00000E+00         0.00000E+00        -0.10800E+08
 
   -0.11209E+08         0.46267E+07         0.00000E+00
    0.46267E+07        -0.41972E+08         0.00000E+00
    0.00000E+00         0.00000E+00        -0.10636E+08
 
   -0.36552E+08        -0.55001E+06         0.00000E+00
   -0.55001E+06        -0.42750E+08         0.00000E+00
    0.00000E+00         0.00000E+00        -0.15861E+08
 
   -0.33912E+08        -0.12691E+07         0.00000E+00
   -0.12691E+07        -0.42751E+08         0.00000E+00
    0.00000E+00         0.00000E+00        -0.15333E+08
 
   -0.31452E+08        -0.15868E+07         0.00000E+00
   -0.15868E+07        -0.42675E+08         0.00000E+00
    0.00000E+00         0.00000E+00        -0.14826E+08
 
   -0.29255E+08        -0.16471E+07         0.00000E+00
   -0.16471E+07        -0.42510E+08         0.00000E+00
    0.00000E+00         0.00000E+00        -0.14353E+08
 
   -0.27310E+08        -0.15559E+07         0.00000E+00
   -0.15559E+07        -0.42289E+08         0.00000E+00
    0.00000E+00         0.00000E+00        -0.13920E+08
 
   -0.25567E+08        -0.13717E+07         0.00000E+00
   -0.13717E+07        -0.42055E+08         0.00000E+00
    0.00000E+00         0.00000E+00        -0.13525E+08
 
   -0.23974E+08        -0.11224E+07         0.00000E+00
   -0.11224E+07        -0.41843E+08         0.00000E+00
    0.00000E+00         0.00000E+00        -0.13163E+08
 
   -0.22482E+08        -0.81942E+06         0.00000E+00
   -0.81942E+06        -0.41678E+08         0.00000E+00
    0.00000E+00         0.00000E+00        -0.12832E+08
 
   -0.21045E+08        -0.46411E+06         0.00000E+00
   -0.46411E+06        -0.41584E+08         0.00000E+00
    0.00000E+00         0.00000E+00        -0.12526E+08
 
   -0.19623E+08        -0.50084E+05         0.00000E+00
   -0.50084E+05        -0.41580E+08         0.00000E+00
    0.00000E+00         0.00000E+00        -0.12241E+08
 
   -0.18177E+08         0.43784E+06         0.00000E+00
    0.43784E+06        -0.41687E+08         0.00000E+00
    0.00000E+00         0.00000E+00        -0.11973E+08
 
   -0.16674E+08         0.10277E+07         0.00000E+00
    0.10277E+07        -0.41925E+08         0.00000E+00
    0.00000E+00         0.00000E+00        -0.11720E+08
 
   -0.15088E+08         0.17684E+07         0.00000E+00
    0.17684E+07        -0.42314E+08         0.00000E+00
    0.00000E+00         0.00000E+00        -0.11480E+08
 
   -0.13432E+08         0.27352E+07         0.00000E+00
    0.27352E+07        -0.42854E+08         0.00000E+00
    0.00000E+00         0.00000E+00        -0.11257E+08
 
   -0.11776E+08         0.40160E+07         0.00000E+00
    0.40160E+07        -0.43506E+08         0.00000E+00
    0.00000E+00         0.00000E+00        -0.11057E+08
 
   -0.39555E+08        -0.56593E+06         0.00000E+00
   -0.56593E+06        -0.44781E+08         0.00000E+00
    0.00000E+00         0.00000E+00        -0.16867E+08
 
   -0.36392E+08        -0.11974E+07         0.00000E+00
   -0.11974E+07        -0.44720E+08         0.00000E+00
    0.00000E+00         0.00000E+00        -0.16222E+08
 
   -0.33609E+08        -0.13886E+07         0.00000E+00
   -0.13886E+07        -0.44505E+08         0.00000E+00
    0.00000E+00         0.00000E+00        -0.15623E+08
 
   -0.31242E+08        -0.13699E+07         0.00000E+00
   -0.13699E+07        -0.44178E+08         0.00000E+00
    0.00000E+00         0.00000E+00        -0.15084E+08
 
   -0.29204E+08        -0.12556E+07         0.00000E+00
   -0.12556E+07        -0.43813E+08         0.00000E+00
    0.00000E+00         0.00000E+00        -0.14603E+08
 
   -0.27402E+08        -0.10887E+07         0.00000E+00
   -0.10887E+07        -0.43461E+08         0.00000E+00
    0.00000E+00         0.00000E+00        -0.14173E+08
 
   -0.25764E+08        -0.88539E+06         0.00000E+00
   -0.88539E+06        -0.43153E+08         0.00000E+00
    0.00000E+00         0.00000E+00        -0.13783E+08
 
   -0.24230E+08        -0.65074E+06         0.00000E+00
   -0.65074E+06        -0.42913E+08         0.00000E+00
    0.00000E+00         0.00000E+00        -0.13428E+08
 
   -0.22748E+08        -0.38342E+06         0.00000E+00
   -0.38342E+06        -0.42758E+08         0.00000E+00
    0.00000E+00         0.00000E+00        -0.13101E+08
 
   -0.21271E+08        -0.76965E+05         0.00000E+00
   -0.76965E+05        -0.42708E+08         0.00000E+00
    0.00000E+00         0.00000E+00        -0.12796E+08
 
   -0.19751E+08         0.28174E+06         0.00000E+00
    0.28174E+06        -0.42783E+08         0.00000E+00
    0.00000E+00         0.00000E+00        -0.12507E+08
 
   -0.18138E+08         0.71721E+06         0.00000E+00
    0.71721E+06        -0.43007E+08         0.00000E+00
    0.00000E+00         0.00000E+00        -0.12229E+08
 
   -0.16375E+08         0.12773E+07         0.00000E+00
    0.12773E+07        -0.43413E+08         0.00000E+00
    0.00000E+00         0.00000E+00        -0.11957E+08
 
   -0.14431E+08         0.20638E+07         0.00000E+00
    0.20638E+07        -0.44037E+08         0.00000E+00
    0.00000E+00         0.00000E+00        -0.11694E+08
 
   -0.12369E+08         0.32361E+07         0.00000E+00
    0.32361E+07        -0.44853E+08         0.00000E+00
    0.00000E+00         0.00000E+00        -0.11444E+08
 
   -0.42497E+08        -0.54784E+06         0.00000E+00
   -0.54784E+06        -0.46794E+08         0.00000E+00
    0.00000E+00         0.00000E+00        -0.17858E+08
 
   -0.38702E+08        -0.95975E+06         0.00000E+00
   -0.95975E+06        -0.46568E+08         0.00000E+00
    0.00000E+00         0.00000E+00        -0.17054E+08
 
   -0.35660E+08        -0.98963E+06         0.00000E+00
   -0.98963E+06        -0.46107E+08         0.00000E+00
    0.00000E+00         0.00000E+00        -0.16353E+08
 
   -0.33198E+08        -0.92465E+06         0.00000E+00
   -0.92465E+06        -0.45583E+08         0.00000E+00
    0.00000E+00         0.00000E+00        -0.15756E+08
 
   -0.31113E+08        -0.82412E+06         0.00000E+00
   -0.82412E+06        -0.45073E+08         0.00000E+00
    0.00000E+00         0.00000E+00        -0.15237E+08
 
   -0.29283E+08        -0.70408E+06         0.00000E+00
   -0.70408E+06        -0.44615E+08         0.00000E+00
    0.00000E+00         0.00000E+00        -0.14779E+08
 
   -0.27621E+08        -0.56924E+06         0.00000E+00
   -0.56924E+06        -0.44227E+08         0.00000E+00
    0.00000E+00         0.00000E+00        -0.14370E+08
 
   -0.26063E+08        -0.41982E+06         0.00000E+00
   -0.41982E+06        -0.43924E+08         0.00000E+00
    0.00000E+00         0.00000E+00        -0.13998E+08
 
   -0.24555E+08        -0.25352E+06         0.00000E+00
   -0.25352E+06        -0.43721E+08         0.00000E+00
    0.00000E+00         0.00000E+00        -0.13655E+08
 
   -0.23043E+08        -0.65538E+05         0.00000E+00
   -0.65538E+05        -0.43632E+08         0.00000E+00
    0.00000E+00         0.00000E+00        -0.13335E+08
 
   -0.21473E+08         0.15271E+06         0.00000E+00
    0.15271E+06        -0.43675E+08         0.00000E+00
    0.00000E+00         0.00000E+00        -0.13030E+08
 
   -0.19782E+08         0.41720E+06         0.00000E+00
    0.41720E+06        -0.43878E+08         0.00000E+00
    0.00000E+00         0.00000E+00        -0.12732E+08
 
   -0.17882E+08         0.76075E+06         0.00000E+00
    0.76075E+06        -0.44279E+08         0.00000E+00
    0.00000E+00         0.00000E+00        -0.12432E+08
 
   -0.15643E+08         0.12667E+07         0.00000E+00
    0.12667E+07        -0.44949E+08         0.00000E+00
    0.00000E+00         0.00000E+00        -0.12118E+08
 
   -0.13034E+08         0.22107E+07         0.00000E+00
    0.22107E+07        -0.45982E+08         0.00000E+00
    0.00000E+00         0.00000E+00        -0.11803E+08
 
   -0.45188E+08        -0.34356E+06         0.00000E+00
   -0.34356E+06        -0.48606E+08         0.00000E+00
    0.00000E+00         0.00000E+00        -0.18759E+08
 
   -0.40784E+08        -0.39565E+06         0.00000E+00
   -0.39565E+06        -0.47974E+08         0.00000E+00
    0.00000E+00         0.00000E+00        -0.17752E+08
 
   -0.37664E+08        -0.36510E+06         0.00000E+00
   -0.36510E+06        -0.47262E+08         0.00000E+00
    0.00000E+00         0.00000E+00        -0.16985E+08
 
   -0.35173E+08        -0.32900E+06         0.00000E+00
   -0.32900E+06        -0.46591E+08         0.00000E+00
    0.00000E+00         0.00000E+00        -0.16353E+08
 
   -0.33074E+08        -0.28816E+06         0.00000E+00
   -0.28816E+06        -0.45987E+08         0.00000E+00
    0.00000E+00         0.00000E+00        -0.15812E+08
 
   -0.31234E+08        -0.24405E+06         0.00000E+00
   -0.24405E+06        -0.45463E+08         0.00000E+00
    0.00000E+00         0.00000E+00        -0.15339E+08
 
   -0.29564E+08        -0.19660E+06         0.00000E+00
   -0.19660E+06        -0.45028E+08         0.00000E+00
    0.00000E+00         0.00000E+00        -0.14918E+08
 
   -0.27996E+08        -0.14519E+06         0.00000E+00
   -0.14519E+06        -0.44691E+08         0.00000E+00
    0.00000E+00         0.00000E+00        -0.14537E+08
 
   -0.26475E+08        -0.88723E+05         0.00000E+00
   -0.88723E+05        -0.44460E+08         0.00000E+00
    0.00000E+00         0.00000E+00        -0.14187E+08
 
   -0.24947E+08        -0.25417E+05         0.00000E+00
   -0.25417E+05        -0.44349E+08         0.00000E+00
    0.00000E+00         0.00000E+00        -0.13859E+08
 
   -0.23353E+08         0.47671E+05         0.00000E+00
    0.47671E+05        -0.44373E+08         0.00000E+00
    0.00000E+00         0.00000E+00        -0.13545E+08
 
   -0.21622E+08         0.13585E+06         0.00000E+00
    0.13585E+06        -0.44558E+08         0.00000E+00
    0.00000E+00         0.00000E+00        -0.13236E+08
 
   -0.19648E+08         0.25066E+06         0.00000E+00
    0.25066E+06        -0.44945E+08         0.00000E+00
    0.00000E+00         0.00000E+00        -0.12919E+08
 
   -0.17249E+08         0.41837E+06         0.00000E+00
    0.41837E+06        -0.45614E+08         0.00000E+00
    0.00000E+00         0.00000E+00        -0.12573E+08
 
   -0.13899E+08         0.81218E+06         0.00000E+00
    0.81218E+06        -0.46786E+08         0.00000E+00
    0.00000E+00         0.00000E+00        -0.12137E+08
 
TENSORS stresstot double 
   -0.34677E+08        -0.34131E+06         0.00000E+00
   -0.34131E+06        -0.60247E+08         0.00000E+00
    0.00000E+00         0.00000E+00        -0.61044E+08
 
   -0.39064E+08        -0.39323E+06         0.00000E+00
   -0.39323E+06        -0.60876E+08         0.00000E+00
    0.00000E+00         0.00000E+00        -0.62048E+08
 
   -0.42176E+08        -0.36297E+06         0.00000E+00
   -0.36297E+06        -0.61583E+08         0.00000E+00
    0.00000E+00         0.00000E+00        -0.62812E+08
 
   -0.44662E+08        -0.32714E+06         0.00000E+00
   -0.32714E+06        -0.62251E+08         0.00000E+00
    0.00000E+00         0.00000E+00        -0.63443E+08
 
   -0.46757E+08        -0.28656E+06         0.00000E+00
   -0.28656E+06        -0.62852E+08         0.00000E+00
    0.00000E+00         0.00000E+00        -0.63983E+08
 
   -0.48595E+08        -0.24269E+06         0.00000E+00
   -0.24269E+06        -0.63372E+08         0.00000E+00
    0.00000E+00         0.00000E+00        -0.64455E+08
 
   -0.50263E+08        -0.19546E+06         0.00000E+00
   -0.19546E+06        -0.63805E+08         0.00000E+00
    0.00000E+00         0.00000E+00        -0.64875E+08
 
   -0.51829E+08        -0.14426E+06         0.00000E+00
   -0.14426E+06        -0.64140E+08         0.00000E+00
    0.00000E+00         0.00000E+00        -0.65256E+08
 
   -0.53349E+08        -0.88003E+05         0.00000E+00
   -0.88003E+05        -0.64369E+08         0.00000E+00
    0.00000E+00         0.00000E+00        -0.65606E+08
 
   -0.54876E+08        -0.24918E+05         0.00000E+00
   -0.24918E+05        -0.64480E+08         0.00000E+00
    0.00000E+00         0.00000E+00        -0.65934E+08
 
   -0.56468E+08         0.47922E+05         0.00000E+00
    0.47922E+05        -0.64455E+08         0.00000E+00
    0.00000E+00         0.00000E+00        -0.66248E+08
 
   -0.58196E+08         0.13579E+06         0.00000E+00
    0.13579E+06        -0.64269E+08         0.00000E+00
    0.00000E+00         0.00000E+00        -0.66557E+08
 
   -0.60166E+08         0.25018E+06         0.00000E+00
    0.25018E+06        -0.63883E+08         0.00000E+00
    0.00000E+00         0.00000E+00        -0.66874E+08
 
   -0.62559E+08         0.41722E+06         0.00000E+00
    0.41722E+06        -0.63215E+08         0.00000E+00
    0.00000E+00         0.00000E+00        -0.67219E+08
 
   -0.65898E+08         0.80924E+06         0.00000E+00
    0.80924E+06        -0.62047E+08         0.00000E+00
    0.00000E+00         0.00000E+00        -0.67653E+08
 
   -0.35325E+08        -0.54438E+06         0.00000E+00
   -0.54438E+06        -0.60022E+08         0.00000E+00
    0.00000E+00         0.00000E+00        -0.59913E+08
 
   -0.39108E+08        -0.95388E+06         0.00000E+00
   -0.95388E+06        -0.60247E+08         0.00000E+00
    0.00000E+00         0.00000E+00        -0.60715E+08
 
   -0.42142E+08        -0.98379E+06         0.00000E+00
   -0.98379E+06        -0.60705E+08         0.00000E+00
    0.00000E+00         0.00000E+00        -0.61413E+08
 
   -0.44598E+08        -0.91933E+06         0.00000E+00
   -0.91933E+06        -0.61226E+08         0.00000E+00
    0.00000E+00         0.00000E+00        -0.62009E+08
 
   -0.46679E+08        -0.81943E+06         0.00000E+00
   -0.81943E+06        -0.61733E+08         0.00000E+00
    0.00000E+00         0.00000E+00        -0.62527E+08
 
   -0.48508E+08        -0.70003E+06         0.00000E+00
   -0.70003E+06        -0.62189E+08         0.00000E+00
    0.00000E+00         0.00000E+00        -0.62984E+08
 
   -0.50168E+08        -0.56581E+06         0.00000E+00
   -0.56581E+06        -0.62575E+08         0.00000E+00
    0.00000E+00         0.00000E+00        -0.63394E+08
 
   -0.51724E+08        -0.41701E+06         0.00000E+00
   -0.41701E+06        -0.62875E+08         0.00000E+00
    0.00000E+00         0.00000E+00        -0.63766E+08
 
   -0.53232E+08        -0.25133E+06         0.00000E+00
   -0.25133E+06        -0.63077E+08         0.00000E+00
    0.00000E+00         0.00000E+00        -0.64108E+08
 
   -0.54742E+08        -0.64001E+05         0.00000E+00
   -0.64001E+05        -0.63165E+08         0.00000E+00
    0.00000E+00         0.00000E+00        -0.64428E+08
 
   -0.56310E+08         0.15351E+06         0.00000E+00
    0.15351E+06        -0.63121E+08         0.00000E+00
    0.00000E+00         0.00000E+00        -0.64733E+08
 
   -0.57999E+08         0.41708E+06         0.00000E+00
    0.41708E+06        -0.62919E+08         0.00000E+00
    0.00000E+00         0.00000E+00        -0.65030E+08
 
   -0.59894E+08         0.75936E+06         0.00000E+00
    0.75936E+06        -0.62518E+08         0.00000E+00
    0.00000E+00         0.00000E+00        -0.65329E+08
 
   -0.62128E+08         0.12632E+07         0.00000E+00
    0.12632E+07        -0.61849E+08         0.00000E+00
    0.00000E+00         0.00000E+00        -0.65642E+08
 
   -0.64729E+08         0.22031E+07         0.00000E+00
    0.22031E+07        -0.60819E+08         0.00000E+00
    0.00000E+00         0.00000E+00        -0.65957E+08
 
   -0.36223E+08        -0.56246E+06         0.00000E+00
   -0.56246E+06        -0.59996E+08         0.00000E+00
    0.00000E+00         0.00000E+00        -0.58872E+08
 
   -0.39377E+08        -0.11902E+07         0.00000E+00
   -0.11902E+07        -0.60058E+08         0.00000E+00
    0.00000E+00         0.00000E+00        -0.59515E+08
 
   -0.42153E+08        -0.13804E+07         0.00000E+00
   -0.13804E+07        -0.60271E+08         0.00000E+00
    0.00000E+00         0.00000E+00        -0.60113E+08
 
   -0.44516E+08        -0.13619E+07         0.00000E+00
   -0.13619E+07        -0.60597E+08         0.00000E+00
    0.00000E+00         0.00000E+00        -0.60651E+08
 
   -0.46551E+08        -0.12484E+07         0.00000E+00
   -0.12484E+07        -0.60960E+08         0.00000E+00
    0.00000E+00         0.00000E+00        -0.61131E+08
 
   -0.48351E+08        -0.10823E+07         0.00000E+00
   -0.10823E+07        -0.61310E+08         0.00000E+00
    0.00000E+00         0.00000E+00        -0.61561E+08
 
   -0.49987E+08        -0.87990E+06         0.00000E+00
   -0.87990E+06        -0.61616E+08         0.00000E+00
    0.00000E+00         0.00000E+00        -0.61949E+08
 
   -0.51521E+08        -0.64619E+06         0.00000E+00
   -0.64619E+06        -0.61855E+08         0.00000E+00
    0.00000E+00         0.00000E+00        -0.62304E+08
 
   -0.53001E+08        -0.37986E+06         0.00000E+00
   -0.37986E+06        -0.62008E+08         0.00000E+00
    0.00000E+00         0.00000E+00        -0.62631E+08
 
   -0.54477E+08        -0.74453E+05         0.00000E+00
   -0.74453E+05        -0.62057E+08         0.00000E+00
    0.00000E+00         0.00000E+00        -0.62936E+08
 
   -0.55995E+08         0.28304E+06         0.00000E+00
    0.28304E+06        -0.61982E+08         0.00000E+00
    0.00000E+00         0.00000E+00        -0.63225E+08
 
   -0.57606E+08         0.71701E+06         0.00000E+00
    0.71701E+06        -0.61758E+08         0.00000E+00
    0.00000E+00         0.00000E+00        -0.63502E+08
 
   -0.59366E+08         0.12751E+07         0.00000E+00
    0.12751E+07        -0.61352E+08         0.00000E+00
    0.00000E+00         0.00000E+00        -0.63773E+08
 
   -0.61306E+08         0.20584E+07         0.00000E+00
    0.20584E+07        -0.60729E+08         0.00000E+00
    0.00000E+00         0.00000E+00        -0.64037E+08
 
   -0.63364E+08         0.32257E+07         0.00000E+00
    0.32257E+07        -0.59915E+08         0.00000E+00
    0.00000E+00         0.00000E+00        -0.64286E+08
 
   -0.37181E+08        -0.54673E+06         0.00000E+00
   -0.54673E+06        -0.59989E+08         0.00000E+00
    0.00000E+00         0.00000E+00        -0.57845E+08
 
   -0.39816E+08        -0.12616E+07         0.00000E+00
   -0.12616E+07        -0.59988E+08         0.00000E+00
    0.00000E+00         0.00000E+00        -0.58372E+08
 
   -0.42272E+08        -0.15776E+07         0.00000E+00
   -0.15776E+07        -0.60064E+08         0.00000E+00
    0.00000E+00         0.00000E+00        -0.58879E+08
 
   -0.44465E+08        -0.16376E+07         0.00000E+00
   -0.16376E+07        -0.60229E+08         0.00000E+00
    0.00000E+00         0.00000E+00        -0.59350E+08
 
   -0.46408E+08        -0.15469E+07         0.00000E+00
   -0.15469E+07        -0.60449E+08         0.00000E+00
    0.00000E+00         0.00000E+00        -0.59783E+08
 
   -0.48148E+08        -0.13636E+07         0.00000E+00
   -0.13636E+07        -0.60681E+08         0.00000E+00
    0.00000E+00         0.00000E+00        -0.60178E+08
 
   -0.49740E+08        -0.11153E+07         0.00000E+00
   -0.11153E+07        -0.60893E+08         0.00000E+00
    0.00000E+00         0.00000E+00        -0.60538E+08
 
   -0.51231E+08        -0.81346E+06         0.00000E+00
   -0.81346E+06        -0.61056E+08         0.00000E+00
    0.00000E+00         0.00000E+00        -0.60869E+08
 
   -0.52667E+08        -0.45941E+06         0.00000E+00
   -0.45941E+06        -0.61150E+08         0.00000E+00
    0.00000E+00         0.00000E+00        -0.61175E+08
 
   -0.54088E+08        -0.46770E+05         0.00000E+00
   -0.46770E+05        -0.61153E+08         0.00000E+00
    0.00000E+00         0.00000E+00        -0.61460E+08
 
   -0.55532E+08         0.43954E+06         0.00000E+00
    0.43954E+06        -0.61046E+08         0.00000E+00
    0.00000E+00         0.00000E+00        -0.61728E+08
 
   -0.57034E+08         0.10274E+07         0.00000E+00
    0.10274E+07        -0.60808E+08         0.00000E+00
    0.00000E+00         0.00000E+00        -0.61981E+08
 
   -0.58617E+08         0.17654E+07         0.00000E+00
    0.17654E+07        -0.60419E+08         0.00000E+00
    0.00000E+00         0.00000E+00        -0.62220E+08
 
   -0.60272E+08         0.27285E+07         0.00000E+00
    0.27285E+07        -0.59880E+08         0.00000E+00
    0.00000E+00         0.00000E+00        -0.62443E+08
 
   -0.61924E+08         0.40040E+07         0.00000E+00
    0.40040E+07        -0.59229E+08         0.00000E+00
    0.00000E+00         0.00000E+00        -0.62643E+08
 
   -0.38133E+08        -0.52024E+06         0.00000E+00
   -0.52024E+06        -0.59987E+08         0.00000E+00
    0.00000E+00         0.00000E+00        -0.56819E+08
 
   -0.40344E+08        -0.12586E+07         0.00000E+00
   -0.12586E+07        -0.59958E+08         0.00000E+00
    0.00000E+00         0.00000E+00        -0.57255E+08
 
   -0.42482E+08        -0.16481E+07         0.00000E+00
   -0.16481E+07        -0.59958E+08         0.00000E+00
    0.00000E+00         0.00000E+00        -0.57683E+08
 
   -0.44466E+08        -0.17760E+07         0.00000E+00
   -0.17760E+07        -0.60015E+08         0.00000E+00
    0.00000E+00         0.00000E+00        -0.58091E+08
 
   -0.46275E+08        -0.17216E+07         0.00000E+00
   -0.17216E+07        -0.60119E+08         0.00000E+00
    0.00000E+00         0.00000E+00        -0.58473E+08
 
   -0.47923E+08        -0.15405E+07         0.00000E+00
   -0.15405E+07        -0.60245E+08         0.00000E+00
    0.00000E+00         0.00000E+00        -0.58828E+08
 
   -0.49444E+08        -0.12653E+07         0.00000E+00
   -0.12653E+07        -0.60365E+08         0.00000E+00
    0.00000E+00         0.00000E+00        -0.59156E+08
 
   -0.50872E+08        -0.91208E+06         0.00000E+00
   -0.91208E+06        -0.60453E+08         0.00000E+00
    0.00000E+00         0.00000E+00        -0.59460E+08
 
   -0.52244E+08        -0.48538E+06         0.00000E+00
   -0.48538E+06        -0.60486E+08         0.00000E+00
    0.00000E+00         0.00000E+00        -0.59741E+08
 
   -0.53590E+08         0.19619E+05         0.00000E+00
    0.19619E+05        -0.60445E+08         0.00000E+00
    0.00000E+00         0.00000E+00        -0.60002E+08
 
   -0.54939E+08         0.61712E+06         0.00000E+00
    0.61712E+06        -0.60311E+08         0.00000E+00
    0.00000E+00         0.00000E+00        -0.60245E+08
 
   -0.56312E+08         0.13326E+07         0.00000E+00
    0.13326E+07        -0.60070E+08         0.00000E+00
    0.00000E+00         0.00000E+00        -0.60471E+08
 
   -0.57712E+08         0.22048E+07         0.00000E+00
    0.22048E+07        -0.59714E+08         0.00000E+00
    0.00000E+00         0.00000E+00        -0.60680E+08
 
   -0.59116E+08         0.32829E+07         0.00000E+00
    0.32829E+07        -0.59255E+08         0.00000E+00
    0.00000E+00         0.00000E+00        -0.60869E+08
 
   -0.60461E+08         0.46141E+07         0.00000E+00
    0.46141E+07        -0.58730E+08         0.00000E+00
    0.00000E+00         0.00000E+00        -0.61033E+08
 
   -0.39051E+08        -0.48947E+06         0.00000E+00
   -0.48947E+06        -0.59986E+08         0.00000E+00
    0.00000E+00         0.00000E+00        -0.55785E+08
 
   -0.40907E+08        -0.12188E+07         0.00000E+00
   -0.12188E+07        -0.59943E+08         0.00000E+00
    0.00000E+00         0.00000E+00        -0.56147E+08
 
   -0.42753E+08        -0.16437E+07         0.00000E+00
   -0.16437E+07        -0.59902E+08         0.00000E+00
    0.00000E+00         0.00000E+00        -0.56508E+08
 
   -0.44516E+08        -0.18176E+07         0.00000E+00
   -0.18176E+07        -0.59890E+08         0.00000E+00
    0.00000E+00         0.00000E+00        -0.56859E+08
 
   -0.46163E+08        -0.17964E+07         0.00000E+00
   -0.17964E+07        -0.59911E+08         0.00000E+00
    0.00000E+00         0.00000E+00        -0.57192E+08
 
   -0.47691E+08        -0.16254E+07         0.00000E+00
   -0.16254E+07        -0.59952E+08         0.00000E+00
    0.00000E+00         0.00000E+00        -0.57506E+08
 
   -0.49115E+08        -0.13359E+07         0.00000E+00
   -0.13359E+07        -0.59994E+08         0.00000E+00
    0.00000E+00         0.00000E+00        -0.57799E+08
 
   -0.50458E+08        -0.94564E+06         0.00000E+00
   -0.94564E+06        -0.60015E+08         0.00000E+00
    0.00000E+00         0.00000E+00        -0.58072E+08
 
   -0.51745E+08        -0.46149E+06         0.00000E+00
   -0.46149E+06        -0.59995E+08         0.00000E+00
    0.00000E+00         0.00000E+00        -0.58325E+08
 
   -0.52999E+08         0.11891E+06         0.00000E+00
    0.11891E+06        -0.59917E+08         0.00000E+00
    0.00000E+00         0.00000E+00        -0.58560E+08
 
   -0.54238E+08         0.80658E+06         0.00000E+00
    0.80658E+06        -0.59765E+08         0.00000E+00
    0.00000E+00         0.00000E+00        -0.58778E+08
 
   -0.55473E+08         0.16211E+07         0.00000E+00
    0.16211E+07        -0.59530E+08         0.00000E+00
    0.00000E+00         0.00000E+00        -0.58978E+08
 
   -0.56698E+08         0.25893E+07         0.00000E+00
    0.25893E+07        -0.59211E+08         0.00000E+00
    0.00000E+00         0.00000E+00        -0.59159E+08
 
   -0.57888E+08         0.37412E+07         0.00000E+00
    0.37412E+07        -0.58823E+08         0.00000E+00
    0.00000E+00         0.00000E+00        -0.59320E+08
 
   -0.58993E+08         0.51006E+07         0.00000E+00
    0.51006E+07        -0.58395E+08         0.00000E+00
    0.00000E+00         0.00000E+00        -0.59455E+08
 
   -0.39921E+08        -0.45721E+06         0.00000E+00
   -0.45721E+06        -0.59985E+08         0.00000E+00
    0.00000E+00         0.00000E+00        -0.54741E+08
 
   -0.41476E+08        -0.11602E+07         0.00000E+00
   -0.11602E+07        -0.59936E+08         0.00000E+00
    0.00000E+00         0.00000E+00        -0.55043E+08
 
   -0.43056E+08        -0.15957E+07         0.00000E+00
   -0.15957E+07        -0.59872E+08         0.00000E+00
    0.00000E+00         0.00000E+00        -0.55346E+08
 
   -0.44599E+08        -0.17958E+07         0.00000E+00
   -0.17958E+07        -0.59819E+08         0.00000E+00
    0.00000E+00         0.00000E+00        -0.55644E+08
 
   -0.46071E+08        -0.17985E+07         0.00000E+00
   -0.17985E+07        -0.59785E+08         0.00000E+00
    0.00000E+00         0.00000E+00        -0.55931E+08
 
   -0.47458E+08        -0.16381E+07         0.00000E+00
   -0.16381E+07        -0.59765E+08         0.00000E+00
    0.00000E+00         0.00000E+00        -0.56205E+08
 
   -0.48765E+08        -0.13412E+07         0.00000E+00
   -0.13412E+07        -0.59747E+08         0.00000E+00
    0.00000E+00         0.00000E+00        -0.56462E+08
 
   -0.50003E+08        -0.92473E+06         0.00000E+00
   -0.92473E+06        -0.59716E+08         0.00000E+00
    0.00000E+00         0.00000E+00        -0.56703E+08
 
   -0.51187E+08        -0.39690E+06         0.00000E+00
   -0.39690E+06        -0.59654E+08         0.00000E+00
    0.00000E+00         0.00000E+00        -0.56928E+08
 
   -0.52334E+08         0.24209E+06         0.00000E+00
    0.24209E+06        -0.59549E+08         0.00000E+00
    0.00000E+00         0.00000E+00        -0.57136E+08
 
   -0.53453E+08         0.99911E+06         0.00000E+00
    0.99911E+06        -0.59388E+08         0.00000E+00
    0.00000E+00         0.00000E+00        -0.57328E+08
 
   -0.54549E+08         0.18870E+07         0.00000E+00
    0.18870E+07        -0.59165E+08         0.00000E+00
    0.00000E+00         0.00000E+00        -0.57502E+08
 
   -0.55611E+08         0.29222E+07         0.00000E+00
    0.29222E+07        -0.58883E+08         0.00000E+00
    0.00000E+00         0.00000E+00        -0.57659E+08
 
   -0.56618E+08         0.41212E+07         0.00000E+00
    0.41212E+07        -0.58555E+08         0.00000E+00
    0.00000E+00         0.00000E+00        -0.57794E+08
 
   -0.57530E+08         0.54933E+07         0.00000E+00
    0.54933E+07        -0.58204E+08         0.00000E+00
    0.00000E+00         0.00000E+00        -0.57906E+08
 
   -0.40738E+08        -0.42515E+06         0.00000E+00
   -0.42515E+06        -0.59986E+08         0.00000E+00
    0.00000E+00         0.00000E+00        -0.53687E+08
 
   -0.42034E+08        -0.10932E+07         0.00000E+00
   -0.10932E+07        -0.59935E+08         0.00000E+00
    0.00000E+00         0.00000E+00        -0.53936E+08
 
   -0.43372E+08        -0.15237E+07         0.00000E+00
   -0.15237E+07        -0.59861E+08         0.00000E+00
    0.00000E+00         0.00000E+00        -0.54189E+08
 
   -0.44704E+08        -0.17351E+07         0.00000E+00
   -0.17351E+07        -0.59784E+08         0.00000E+00
    0.00000E+00         0.00000E+00        -0.54440E+08
 
   -0.45994E+08        -0.17521E+07         0.00000E+00
   -0.17521E+07        -0.59716E+08         0.00000E+00
    0.00000E+00         0.00000E+00        -0.54684E+08
 
   -0.47228E+08        -0.15995E+07         0.00000E+00
   -0.15995E+07        -0.59656E+08         0.00000E+00
    0.00000E+00         0.00000E+00        -0.54919E+08
 
   -0.48401E+08        -0.12983E+07         0.00000E+00
   -0.12983E+07        -0.59598E+08         0.00000E+00
    0.00000E+00         0.00000E+00        -0.55142E+08
 
   -0.49517E+08        -0.86338E+06         0.00000E+00
   -0.86338E+06        -0.59530E+08         0.00000E+00
    0.00000E+00         0.00000E+00        -0.55351E+08
 
   -0.50585E+08        -0.30340E+06         0.00000E+00
   -0.30340E+06        -0.59440E+08         0.00000E+00
    0.00000E+00         0.00000E+00        -0.55547E+08
 
   -0.51613E+08         0.37925E+06         0.00000E+00
    0.37925E+06        -0.59319E+08         0.00000E+00
    0.00000E+00         0.00000E+00        -0.55728E+08
 
   -0.52606E+08         0.11874E+07         0.00000E+00
    0.11874E+07        -0.59157E+08         0.00000E+00
    0.00000E+00         0.00000E+00        -0.55894E+08
 
   -0.53564E+08         0.21277E+07         0.00000E+00
    0.21277E+07        -0.58951E+08         0.00000E+00
    0.00000E+00         0.00000E+00        -0.56045E+08
 
   -0.54476E+08         0.32086E+07         0.00000E+00
    0.32086E+07        -0.58704E+08         0.00000E+00
    0.00000E+00         0.00000E+00        -0.56178E+08
 
   -0.55324E+08         0.44366E+07         0.00000E+00
    0.44366E+07        -0.58428E+08         0.00000E+00
    0.00000E+00         0.00000E+00        -0.56292E+08
 
   -0.56077E+08         0.58126E+07         0.00000E+00
    0.58126E+07        -0.58139E+08         0.00000E+00
    0.00000E+00         0.00000E+00        -0.56385E+08
 
   -0.41501E+08        -0.39456E+06         0.00000E+00
   -0.39456E+06        -0.59987E+08         0.00000E+00
    0.00000E+00         0.00000E+00        -0.52622E+08
 
   -0.42569E+08        -0.10243E+07         0.00000E+00
   -0.10243E+07        -0.59937E+08         0.00000E+00
    0.00000E+00         0.00000E+00        -0.52826E+08
 
   -0.43688E+08        -0.14409E+07         0.00000E+00
   -0.14409E+07        -0.59860E+08         0.00000E+00
    0.00000E+00         0.00000E+00        -0.53034E+08
 
   -0.44817E+08        -0.16533E+07         0.00000E+00
   -0.16533E+07        -0.59774E+08         0.00000E+00
    0.00000E+00         0.00000E+00        -0.53243E+08
 
   -0.45927E+08        -0.16768E+07         0.00000E+00
   -0.16768E+07        -0.59689E+08         0.00000E+00
    0.00000E+00         0.00000E+00        -0.53447E+08
 
   -0.46999E+08        -0.15285E+07         0.00000E+00
   -0.15285E+07        -0.59607E+08         0.00000E+00
    0.00000E+00         0.00000E+00        -0.53645E+08
 
   -0.48027E+08        -0.12241E+07         0.00000E+00
   -0.12241E+07        -0.59524E+08         0.00000E+00
    0.00000E+00         0.00000E+00        -0.53834E+08
 
   -0.49010E+08        -0.77626E+06         0.00000E+00
   -0.77626E+06        -0.59435E+08         0.00000E+00
    0.00000E+00         0.00000E+00        -0.54013E+08
 
   -0.49950E+08        -0.19324E+06         0.00000E+00
   -0.19324E+06        -0.59331E+08         0.00000E+00
    0.00000E+00         0.00000E+00        -0.54180E+08
 
   -0.50850E+08         0.52079E+06         0.00000E+00
    0.52079E+06        -0.59204E+08         0.00000E+00
    0.00000E+00         0.00000E+00        -0.54335E+08
 
   -0.51714E+08         0.13653E+07         0.00000E+00
    0.13653E+07        -0.59048E+08         0.00000E+00
    0.00000E+00         0.00000E+00        -0.54476E+08
 
   -0.52537E+08         0.23419E+07         0.00000E+00
    0.23419E+07        -0.58863E+08         0.00000E+00
    0.00000E+00         0.00000E+00        -0.54603E+08
 
   -0.53310E+08         0.34528E+07         0.00000E+00
    0.34528E+07        -0.58650E+08         0.00000E+00
    0.00000E+00         0.00000E+00        -0.54715E+08
 
   -0.54017E+08         0.46980E+07         0.00000E+00
    0.46980E+07        -0.58419E+08         0.00000E+00
    0.00000E+00         0.00000E+00        -0.54811E+08
 
   -0.54636E+08         0.60725E+07         0.00000E+00
    0.60725E+07        -0.58182E+08         0.00000E+00
    0.00000E+00         0.00000E+00        -0.54887E+08
 
   -0.42213E+08        -0.36647E+06         0.00000E+00
   -0.36647E+06        -0.59988E+08         0.00000E+00
    0.00000E+00         0.00000E+00        -0.51547E+08
 
   -0.43078E+08        -0.95820E+06         0.00000E+00
   -0.95820E+06        -0.59943E+08         0.00000E+00
    0.00000E+00         0.00000E+00        -0.51710E+08
 
   -0.43996E+08        -0.13565E+07         0.00000E+00
   -0.13565E+07        -0.59869E+08         0.00000E+00
    0.00000E+00         0.00000E+00        -0.51879E+08
 
   -0.44933E+08        -0.15638E+07         0.00000E+00
   -0.15638E+07        -0.59783E+08         0.00000E+00
    0.00000E+00         0.00000E+00        -0.52049E+08
 
   -0.45863E+08        -0.15883E+07         0.00000E+00
   -0.15883E+07        -0.59693E+08         0.00000E+00
    0.00000E+00         0.00000E+00        -0.52217E+08
 
   -0.46771E+08        -0.14412E+07         0.00000E+00
   -0.14412E+07        -0.59602E+08         0.00000E+00
    0.00000E+00         0.00000E+00        -0.52380E+08
 
   -0.47647E+08        -0.11341E+07         0.00000E+00
   -0.11341E+07        -0.59511E+08         0.00000E+00
    0.00000E+00         0.00000E+00        -0.52537E+08
 
   -0.48487E+08        -0.67699E+06         0.00000E+00
   -0.67699E+06        -0.59414E+08         0.00000E+00
    0.00000E+00         0.00000E+00        -0.52686E+08
 
   -0.49291E+08        -0.77842E+05         0.00000E+00
   -0.77842E+05        -0.59307E+08         0.00000E+00
    0.00000E+00         0.00000E+00        -0.52825E+08
 
   -0.50059E+08         0.65804E+06         0.00000E+00
    0.65804E+06        -0.59184E+08         0.00000E+00
    0.00000E+00         0.00000E+00        -0.52954E+08
 
   -0.50791E+08         0.15274E+07         0.00000E+00
    0.15274E+07        -0.59041E+08         0.00000E+00
    0.00000E+00         0.00000E+00        -0.53072E+08
 
   -0.51482E+08         0.25283E+07         0.00000E+00
    0.25283E+07        -0.58879E+08         0.00000E+00
    0.00000E+00         0.00000E+00        -0.53177E+08
 
   -0.52124E+08         0.36583E+07         0.00000E+00
    0.36583E+07        -0.58699E+08         0.00000E+00
    0.00000E+00         0.00000E+00        -0.53270E+08
 
   -0.52705E+08         0.49129E+07         0.00000E+00
    0.49129E+07        -0.58508E+08         0.00000E+00
    0.00000E+00         0.00000E+00        -0.53347E+08
 
   -0.53207E+08         0.62832E+07         0.00000E+00
    0.62832E+07        -0.58317E+08         0.00000E+00
    0.00000E+00         0.00000E+00        -0.53410E+08
 
   -0.42877E+08        -0.34176E+06         0.00000E+00
   -0.34176E+06        -0.59990E+08         0.00000E+00
    0.00000E+00         0.00000E+00        -0.50461E+08
 
   -0.43560E+08        -0.89836E+06         0.00000E+00
   -0.89836E+06        -0.59950E+08         0.00000E+00
    0.00000E+00         0.00000E+00        -0.50590E+08
 
   -0.44291E+08        -0.12774E+07         0.00000E+00
   -0.12774E+07        -0.59885E+08         0.00000E+00
    0.00000E+00         0.00000E+00        -0.50723E+08
 
   -0.45045E+08        -0.14764E+07         0.00000E+00
   -0.14764E+07        -0.59806E+08         0.00000E+00
    0.00000E+00         0.00000E+00        -0.50858E+08
 
   -0.45800E+08        -0.14987E+07         0.00000E+00
   -0.14987E+07        -0.59720E+08         0.00000E+00
    0.00000E+00         0.00000E+00        -0.50991E+08
 
   -0.46542E+08        -0.13508E+07         0.00000E+00
   -0.13508E+07        -0.59633E+08         0.00000E+00
    0.00000E+00         0.00000E+00        -0.51122E+08
 
   -0.47261E+08        -0.10409E+07         0.00000E+00
   -0.10409E+07        -0.59544E+08         0.00000E+00
    0.00000E+00         0.00000E+00        -0.51248E+08
 
   -0.47953E+08        -0.57729E+06         0.00000E+00
   -0.57729E+06        -0.59450E+08         0.00000E+00
    0.00000E+00         0.00000E+00        -0.51368E+08
 
   -0.48616E+08         0.32883E+05         0.00000E+00
    0.32883E+05        -0.59350E+08         0.00000E+00
    0.00000E+00         0.00000E+00        -0.51480E+08
 
   -0.49248E+08         0.78350E+06         0.00000E+00
    0.78350E+06        -0.59239E+08         0.00000E+00
    0.00000E+00         0.00000E+00        -0.51584E+08
 
   -0.49847E+08         0.16695E+07         0.00000E+00
    0.16695E+07        -0.59115E+08         0.00000E+00
    0.00000E+00         0.00000E+00        -0.51679E+08
 
   -0.50408E+08         0.26860E+07         0.00000E+00
    0.26860E+07        -0.58978E+08         0.00000E+00
    0.00000E+00         0.00000E+00        -0.51764E+08
 
   -0.50926E+08         0.38275E+07         0.00000E+00
    0.38275E+07        -0.58831E+08         0.00000E+00
    0.00000E+00         0.00000E+00        -0.51838E+08
 
   -0.51391E+08         0.50864E+07         0.00000E+00
    0.50864E+07        -0.58677E+08         0.00000E+00
    0.00000E+00         0.00000E+00        -0.51900E+08
 
   -0.51789E+08         0.64514E+07         0.00000E+00
    0.64514E+07        -0.58526E+08         0.00000E+00
    0.00000E+00         0.00000E+00        -0.51949E+08
 
   -0.43501E+08        -0.32114E+06         0.00000E+00
   -0.32114E+06        -0.59992E+08         0.00000E+00
    0.00000E+00         0.00000E+00        -0.49367E+08
 
   -0.44016E+08        -0.84754E+06         0.00000E+00
   -0.84754E+06        -0.59960E+08         0.00000E+00
    0.00000E+00         0.00000E+00        -0.49464E+08
 
   -0.44574E+08        -0.12087E+07         0.00000E+00
   -0.12087E+07        -0.59905E+08         0.00000E+00
    0.00000E+00         0.00000E+00        -0.49565E+08
 
   -0.45152E+08        -0.13986E+07         0.00000E+00
   -0.13986E+07        -0.59839E+08         0.00000E+00
    0.00000E+00         0.00000E+00        -0.49667E+08
 
   -0.45735E+08        -0.14171E+07         0.00000E+00
   -0.14171E+07        -0.59766E+08         0.00000E+00
    0.00000E+00         0.00000E+00        -0.49769E+08
 
   -0.46311E+08        -0.12673E+07         0.00000E+00
   -0.12673E+07        -0.59690E+08         0.00000E+00
    0.00000E+00         0.00000E+00        -0.49869E+08
 
   -0.46872E+08        -0.95504E+06         0.00000E+00
   -0.95504E+06        -0.59612E+08         0.00000E+00
    0.00000E+00         0.00000E+00        -0.49965E+08
 
   -0.47413E+08        -0.48675E+06         0.00000E+00
   -0.48675E+06        -0.59531E+08         0.00000E+00
    0.00000E+00         0.00000E+00        -0.50057E+08
 
   -0.47931E+08         0.13077E+06         0.00000E+00
    0.13077E+06        -0.59445E+08         0.00000E+00
    0.00000E+00         0.00000E+00        -0.50143E+08
 
   -0.48424E+08         0.89102E+06         0.00000E+00
    0.89102E+06        -0.59352E+08         0.00000E+00
    0.00000E+00         0.00000E+00        -0.50223E+08
 
   -0.48889E+08         0.17876E+07         0.00000E+00
    0.17876E+07        -0.59251E+08         0.00000E+00
    0.00000E+00         0.00000E+00        -0.50296E+08
 
   -0.49324E+08         0.28138E+07         0.00000E+00
    0.28138E+07        -0.59143E+08         0.00000E+00
    0.00000E+00         0.00000E+00        -0.50361E+08
 
   -0.49723E+08         0.39619E+07         0.00000E+00
    0.39619E+07        -0.59028E+08         0.00000E+00
    0.00000E+00         0.00000E+00        -0.50418E+08
 
   -0.50078E+08         0.52222E+07         0.00000E+00
    0.52222E+07        -0.58910E+08         0.00000E+00
    0.00000E+00         0.00000E+00        -0.50465E+08
 
   -0.50381E+08         0.65820E+07         0.00000E+00
    0.65820E+07        -0.58794E+08         0.00000E+00
    0.00000E+00         0.00000E+00        -0.50502E+08
 
   -0.44091E+08        -0.30519E+06         0.00000E+00
   -0.30519E+06        -0.59994E+08         0.00000E+00
    0.00000E+00         0.00000E+00        -0.48267E+08
 
   -0.44451E+08        -0.80778E+06         0.00000E+00
   -0.80778E+06        -0.59970E+08         0.00000E+00
    0.00000E+00         0.00000E+00        -0.48334E+08
 
   -0.44844E+08        -0.11541E+07         0.00000E+00
   -0.11541E+07        -0.59930E+08         0.00000E+00
    0.00000E+00         0.00000E+00        -0.48405E+08
 
   -0.45253E+08        -0.13360E+07         0.00000E+00
   -0.13360E+07        -0.59880E+08         0.00000E+00
    0.00000E+00         0.00000E+00        -0.48476E+08
 
   -0.45667E+08        -0.13505E+07         0.00000E+00
   -0.13505E+07        -0.59825E+08         0.00000E+00
    0.00000E+00         0.00000E+00        -0.48548E+08
 
   -0.46078E+08        -0.11986E+07         0.00000E+00
   -0.11986E+07        -0.59766E+08         0.00000E+00
    0.00000E+00         0.00000E+00        -0.48618E+08
 
   -0.46479E+08        -0.88424E+06         0.00000E+00
   -0.88424E+06        -0.59706E+08         0.00000E+00
    0.00000E+00         0.00000E+00        -0.48686E+08
 
   -0.46867E+08        -0.41279E+06         0.00000E+00
   -0.41279E+06        -0.59644E+08         0.00000E+00
    0.00000E+00         0.00000E+00        -0.48751E+08
 
   -0.47238E+08         0.20945E+06         0.00000E+00
    0.20945E+06        -0.59579E+08         0.00000E+00
    0.00000E+00         0.00000E+00        -0.48812E+08
 
   -0.47591E+08         0.97571E+06         0.00000E+00
    0.97571E+06        -0.59509E+08         0.00000E+00
    0.00000E+00         0.00000E+00        -0.48869E+08
 
   -0.47924E+08         0.18788E+07         0.00000E+00
    0.18788E+07        -0.59435E+08         0.00000E+00
    0.00000E+00         0.00000E+00        -0.48920E+08
 
   -0.48234E+08         0.29107E+07         0.00000E+00
    0.29107E+07        -0.59356E+08         0.00000E+00
    0.00000E+00         0.00000E+00        -0.48966E+08
 
   -0.48516E+08         0.40623E+07         0.00000E+00
    0.40623E+07        -0.59273E+08         0.00000E+00
    0.00000E+00         0.00000E+00        -0.49006E+08
 
   -0.48767E+08         0.53225E+07         0.00000E+00
    0.53225E+07        -0.59190E+08         0.00000E+00
    0.00000E+00         0.00000E+00        -0.49040E+08
 
   -0.48981E+08         0.66779E+07         0.00000E+00
    0.66779E+07        -0.59108E+08         0.00000E+00
    0.00000E+00         0.00000E+00        -0.49066E+08
 
   -0.44656E+08        -0.29437E+06         0.00000E+00
   -0.29437E+06        -0.59996E+08         0.00000E+00
    0.00000E+00         0.00000E+00        -0.47161E+08
 
   -0.44871E+08        -0.78059E+06         0.00000E+00
   -0.78059E+06        -0.59982E+08         0.00000E+00
    0.00000E+00         0.00000E+00        -0.47201E+08
 
   -0.45105E+08        -0.11165E+07         0.00000E+00
   -0.11165E+07        -0.59957E+08         0.00000E+00
    0.00000E+00         0.00000E+00        -0.47243E+08
 
   -0.45349E+08        -0.12924E+07         0.00000E+00
   -0.12924E+07        -0.59926E+08         0.00000E+00
    0.00000E+00         0.00000E+00        -0.47285E+08
 
   -0.45597E+08        -0.13037E+07         0.00000E+00
   -0.13037E+07        -0.59892E+08         0.00000E+00
    0.00000E+00         0.00000E+00        -0.47328E+08
 
   -0.45844E+08        -0.11501E+07         0.00000E+00
   -0.11501E+07        -0.59856E+08         0.00000E+00
    0.00000E+00         0.00000E+00        -0.47370E+08
 
   -0.46085E+08        -0.83424E+06         0.00000E+00
   -0.83424E+06        -0.59818E+08         0.00000E+00
    0.00000E+00         0.00000E+00        -0.47411E+08
 
   -0.46318E+08        -0.36080E+06         0.00000E+00
   -0.36080E+06        -0.59779E+08         0.00000E+00
    0.00000E+00         0.00000E+00        -0.47449E+08
 
   -0.46541E+08         0.26425E+06         0.00000E+00
    0.26425E+06        -0.59739E+08         0.00000E+00
    0.00000E+00         0.00000E+00        -0.47486E+08
 
   -0.46754E+08         0.10340E+07         0.00000E+00
    0.10340E+07        -0.59696E+08         0.00000E+00
    0.00000E+00         0.00000E+00        -0.47519E+08
 
   -0.46954E+08         0.19408E+07         0.00000E+00
    0.19408E+07        -0.59651E+08         0.00000E+00
    0.00000E+00         0.00000E+00        -0.47550E+08
 
   -0.47139E+08         0.29758E+07         0.00000E+00
    0.29758E+07        -0.59603E+08         0.00000E+00
    0.00000E+00         0.00000E+00        -0.47577E+08
 
   -0.47308E+08         0.41291E+07         0.00000E+00
    0.41291E+07        -0.59553E+08         0.00000E+00
    0.00000E+00         0.00000E+00        -0.47601E+08
 
   -0.47458E+08         0.53889E+07         0.00000E+00
    0.53889E+07        -0.59503E+08         0.00000E+00
    0.00000E+00         0.00000E+00        -0.47621E+08
 
   -0.47586E+08         0.67412E+07         0.00000E+00
    0.67412E+07        -0.59454E+08         0.00000E+00
    0.00000E+00         0.00000E+00        -0.47637E+08
 
   -0.45206E+08        -0.28896E+06         0.00000E+00
   -0.28896E+06        -0.59999E+08         0.00000E+00
    0.00000E+00         0.00000E+00        -0.46052E+08
 
   -0.45280E+08        -0.76696E+06         0.00000E+00
   -0.76696E+06        -0.59994E+08         0.00000E+00
    0.00000E+00         0.00000E+00        -0.46066E+08
 
   -0.45359E+08        -0.10976E+07         0.00000E+00
   -0.10976E+07        -0.59986E+08         0.00000E+00
    0.00000E+00         0.00000E+00        -0.46080E+08
 
   -0.45442E+08        -0.12703E+07         0.00000E+00
   -0.12703E+07        -0.59976E+08         0.00000E+00
    0.00000E+00         0.00000E+00        -0.46094E+08
 
   -0.45525E+08        -0.12799E+07         0.00000E+00
   -0.12799E+07        -0.59965E+08         0.00000E+00
    0.00000E+00         0.00000E+00        -0.46109E+08
 
   -0.45608E+08        -0.11254E+07         0.00000E+00
   -0.11254E+07        -0.59953E+08         0.00000E+00
    0.00000E+00         0.00000E+00        -0.46123E+08
 
   -0.45689E+08        -0.80870E+06         0.00000E+00
   -0.80870E+06        -0.59941E+08         0.00000E+00
    0.00000E+00         0.00000E+00        -0.46136E+08
 
   -0.45767E+08        -0.33426E+06         0.00000E+00
   -0.33426E+06        -0.59928E+08         0.00000E+00
    0.00000E+00         0.00000E+00        -0.46149E+08
 
   -0.45842E+08         0.29214E+06         0.00000E+00
    0.29214E+06        -0.59915E+08         0.00000E+00
    0.00000E+00         0.00000E+00        -0.46161E+08
 
   -0.45913E+08         0.10636E+07         0.00000E+00
    0.10636E+07        -0.59900E+08         0.00000E+00
    0.00000E+00         0.00000E+00        -0.46173E+08
 
   -0.45981E+08         0.19720E+07         0.00000E+00
    0.19720E+07        -0.59885E+08         0.00000E+00
    0.00000E+00         0.00000E+00        -0.46183E+08
 
   -0.46043E+08         0.30086E+07         0.00000E+00
    0.30086E+07        -0.59869E+08         0.00000E+00
    0.00000E+00         0.00000E+00        -0.46192E+08
 
   -0.46100E+08         0.41627E+07         0.00000E+00
    0.41627E+07        -0.59853E+08         0.00000E+00
    0.00000E+00         0.00000E+00        -0.46200E+08
 
   -0.46151E+08         0.54222E+07         0.00000E+00
    0.54222E+07        -0.59836E+08         0.00000E+00
    0.00000E+00         0.00000E+00        -0.46207E+08
 
   -0.46194E+08         0.67730E+07         0.00000E+00
    0.67730E+07        -0.59819E+08         0.00000E+00
    0.00000E+00         0.00000E+00        -0.46212E+08
 
   -0.45752E+08        -0.28911E+06         0.00000E+00
   -0.28911E+06        -0.60001E+08         0.00000E+00
    0.00000E+00         0.00000E+00        -0.44942E+08
 
   -0.45686E+08        -0.76736E+06         0.00000E+00
   -0.76736E+06        -0.60007E+08         0.00000E+00
    0.00000E+00         0.00000E+00        -0.44930E+08
 
   -0.45612E+08        -0.10982E+07         0.00000E+00
   -0.10982E+07        -0.60016E+08         0.00000E+00
    0.00000E+00         0.00000E+00        -0.44917E+08
 
   -0.45533E+08        -0.12710E+07         0.00000E+00
   -0.12710E+07        -0.60027E+08         0.00000E+00
    0.00000E+00         0.00000E+00        -0.44903E+08
 
   -0.45453E+08        -0.12807E+07         0.00000E+00
   -0.12807E+07        -0.60039E+08         0.00000E+00
    0.00000E+00         0.00000E+00        -0.44889E+08
 
   -0.45372E+08        -0.11261E+07         0.00000E+00
   -0.11261E+07        -0.60053E+08         0.00000E+00
    0.00000E+00         0.00000E+00        -0.44876E+08
 
   -0.45293E+08        -0.80941E+06         0.00000E+00
   -0.80941E+06        -0.60067E+08         0.00000E+00
    0.00000E+00         0.00000E+00        -0.44862E+08
 
   -0.45216E+08        -0.33489E+06         0.00000E+00
   -0.33489E+06        -0.60081E+08         0.00000E+00
    0.00000E+00         0.00000E+00        -0.44850E+08
 
   -0.45142E+08         0.29163E+06         0.00000E+00
    0.29163E+06        -0.60095E+08         0.00000E+00
    0.00000E+00         0.00000E+00        -0.44838E+08
 
   -0.45072E+08         0.10632E+07         0.00000E+00
    0.10632E+07        -0.60110E+08         0.00000E+00
    0.00000E+00         0.00000E+00        -0.44826E+08
 
   -0.45007E+08         0.19719E+07         0.00000E+00
    0.19719E+07        -0.60126E+08         0.00000E+00
    0.00000E+00         0.00000E+00        -0.44816E+08
 
   -0.44946E+08         0.30086E+07         0.00000E+00
    0.30086E+07        -0.60142E+08         0.00000E+00
    0.00000E+00         0.00000E+00        -0.44807E+08
 
   -0.44891E+08         0.41629E+07         0.00000E+00
    0.41629E+07        -0.60159E+08         0.00000E+00
    0.00000E+00         0.00000E+00        -0.44800E+08
 
   -0.44844E+08         0.54227E+07         0.00000E+00
    0.54227E+07        -0.60175E+08         0.00000E+00
    0.00000E+00         0.00000E+00        -0.44793E+08
 
   -0.44804E+08         0.67739E+07         0.00000E+00
    0.67739E+07        -0.60190E+08         0.00000E+00
    0.00000E+00         0.00000E+00        -0.44788E+08
 
   -0.46303E+08        -0.29482E+06         0.00000E+00
   -0.29482E+06        -0.60004E+08         0.00000E+00
    0.00000E+00         0.00000E+00        -0.43833E+08
 
   -0.46095E+08        -0.78179E+06         0.00000E+00
   -0.78179E+06        -0.60019E+08         0.00000E+00
    0.00000E+00         0.00000E+00        -0.43794E+08
 
   -0.45867E+08        -0.11183E+07         0.00000E+00
   -0.11183E+07        -0.60044E+08         0.00000E+00
    0.00000E+00         0.00000E+00        -0.43753E+08
 
   -0.45626E+08        -0.12945E+07         0.00000E+00
   -0.12945E+07        -0.60076E+08         0.00000E+00
    0.00000E+00         0.00000E+00        -0.43711E+08
 
   -0.45381E+08        -0.13059E+07         0.00000E+00
   -0.13059E+07        -0.60112E+08         0.00000E+00
    0.00000E+00         0.00000E+00        -0.43669E+08
 
   -0.45136E+08        -0.11523E+07         0.00000E+00
   -0.11523E+07        -0.60150E+08         0.00000E+00
    0.00000E+00         0.00000E+00        -0.43628E+08
 
   -0.44897E+08        -0.83637E+06         0.00000E+00
   -0.83637E+06        -0.60189E+08         0.00000E+00
    0.00000E+00         0.00000E+00        -0.43588E+08
 
   -0.44665E+08        -0.36268E+06         0.00000E+00
   -0.36268E+06        -0.60229E+08         0.00000E+00
    0.00000E+00         0.00000E+00        -0.43549E+08
 
   -0.44443E+08         0.26272E+06         0.00000E+00
    0.26272E+06        -0.60271E+08         0.00000E+00
    0.00000E+00         0.00000E+00        -0.43513E+08
 
   -0.44232E+08         0.10329E+07         0.00000E+00
    0.10329E+07        -0.60315E+08         0.00000E+00
    0.00000E+00         0.00000E+00        -0.43479E+08
 
   -0.44033E+08         0.19402E+07         0.00000E+00
    0.19402E+07        -0.60361E+08         0.00000E+00
    0.00000E+00         0.00000E+00        -0.43448E+08
 
   -0.43849E+08         0.29759E+07         0.00000E+00
    0.29759E+07        -0.60409E+08         0.00000E+00
    0.00000E+00         0.00000E+00        -0.43421E+08
 
   -0.43683E+08         0.41300E+07         0.00000E+00
    0.41300E+07        -0.60458E+08         0.00000E+00
    0.00000E+00         0.00000E+00        -0.43398E+08
 
   -0.43536E+08         0.53906E+07         0.00000E+00
    0.53906E+07        -0.60507E+08         0.00000E+00
    0.00000E+00         0.00000E+00        -0.43378E+08
 
   -0.43412E+08         0.67438E+07         0.00000E+00
    0.67438E+07        -0.60554E+08         0.00000E+00
    0.00000E+00         0.00000E+00        -0.43363E+08
 
   -0.46870E+08        -0.30595E+06         0.00000E+00
   -0.30595E+06        -0.60006E+08         0.00000E+00
    0.00000E+00         0.00000E+00        -0.42726E+08
 
   -0.46515E+08        -0.80977E+06         0.00000E+00
   -0.80977E+06        -0.60030E+08         0.00000E+00
    0.00000E+00         0.00000E+00        -0.42660E+08
 
   -0.46128E+08        -0.11570E+07         0.00000E+00
   -0.11570E+07        -0.60072E+08         0.00000E+00
    0.00000E+00         0.00000E+00        -0.42591E+08
 
   -0.45722E+08        -0.13394E+07         0.00000E+00
   -0.13394E+07        -0.60123E+08         0.00000E+00
    0.00000E+00         0.00000E+00        -0.42520E+08
 
   -0.45311E+08        -0.13542E+07         0.00000E+00
   -0.13542E+07        -0.60180E+08         0.00000E+00
    0.00000E+00         0.00000E+00        -0.42449E+08
 
   -0.44902E+08        -0.12023E+07         0.00000E+00
   -0.12023E+07        -0.60239E+08         0.00000E+00
    0.00000E+00         0.00000E+00        -0.42378E+08
 
   -0.44502E+08        -0.88775E+06         0.00000E+00
   -0.88775E+06        -0.60301E+08         0.00000E+00
    0.00000E+00         0.00000E+00        -0.42311E+08
 
   -0.44116E+08        -0.41589E+06         0.00000E+00
   -0.41589E+06        -0.60364E+08         0.00000E+00
    0.00000E+00         0.00000E+00        -0.42246E+08
 
   -0.43745E+08         0.20694E+06         0.00000E+00
    0.20694E+06        -0.60431E+08         0.00000E+00
    0.00000E+00         0.00000E+00        -0.42185E+08
 
   -0.43394E+08         0.97395E+06         0.00000E+00
    0.97395E+06        -0.60501E+08         0.00000E+00
    0.00000E+00         0.00000E+00        -0.42128E+08
 
   -0.43062E+08         0.18779E+07         0.00000E+00
    0.18779E+07        -0.60576E+08         0.00000E+00
    0.00000E+00         0.00000E+00        -0.42077E+08
 
   -0.42754E+08         0.29109E+07         0.00000E+00
    0.29109E+07        -0.60655E+08         0.00000E+00
    0.00000E+00         0.00000E+00        -0.42031E+08
 
   -0.42474E+08         0.40637E+07         0.00000E+00
    0.40637E+07        -0.60737E+08         0.00000E+00
    0.00000E+00         0.00000E+00        -0.41991E+08
 
   -0.42226E+08         0.53253E+07         0.00000E+00
    0.53253E+07        -0.60820E+08         0.00000E+00
    0.00000E+00         0.00000E+00        -0.41958E+08
 
   -0.42016E+08         0.66822E+07         0.00000E+00
    0.66822E+07        -0.60900E+08         0.00000E+00
    0.00000E+00         0.00000E+00        -0.41932E+08
 
   -0.47461E+08        -0.32219E+06         0.00000E+00
   -0.32219E+06        -0.60008E+08         0.00000E+00
    0.00000E+00         0.00000E+00        -0.41624E+08
 
   -0.46952E+08        -0.85031E+06         0.00000E+00
   -0.85031E+06        -0.60041E+08         0.00000E+00
    0.00000E+00         0.00000E+00        -0.41529E+08
 
   -0.46399E+08        -0.12127E+07         0.00000E+00
   -0.12127E+07        -0.60096E+08         0.00000E+00
    0.00000E+00         0.00000E+00        -0.41429E+08
 
   -0.45824E+08        -0.14034E+07         0.00000E+00
   -0.14034E+07        -0.60164E+08         0.00000E+00
    0.00000E+00         0.00000E+00        -0.41328E+08
 
   -0.45243E+08        -0.14222E+07         0.00000E+00
   -0.14222E+07        -0.60238E+08         0.00000E+00
    0.00000E+00         0.00000E+00        -0.41226E+08
 
   -0.44669E+08        -0.12725E+07         0.00000E+00
   -0.12725E+07        -0.60316E+08         0.00000E+00
    0.00000E+00         0.00000E+00        -0.41127E+08
 
   -0.44109E+08        -0.95986E+06         0.00000E+00
   -0.95986E+06        -0.60395E+08         0.00000E+00
    0.00000E+00         0.00000E+00        -0.41030E+08
 
   -0.43569E+08        -0.49100E+06         0.00000E+00
   -0.49100E+06        -0.60477E+08         0.00000E+00
    0.00000E+00         0.00000E+00        -0.40939E+08
 
   -0.43052E+08         0.12733E+06         0.00000E+00
    0.12733E+06        -0.60564E+08         0.00000E+00
    0.00000E+00         0.00000E+00        -0.40852E+08
 
   -0.42560E+08         0.88860E+06         0.00000E+00
    0.88860E+06        -0.60658E+08         0.00000E+00
    0.00000E+00         0.00000E+00        -0.40772E+08
 
   -0.42095E+08         0.17864E+07         0.00000E+00
    0.17864E+07        -0.60759E+08         0.00000E+00
    0.00000E+00         0.00000E+00        -0.40700E+08
 
   -0.41662E+08         0.28141E+07         0.00000E+00
    0.28141E+07        -0.60868E+08         0.00000E+00
    0.00000E+00         0.00000E+00        -0.40635E+08
 
   -0.41266E+08         0.39638E+07         0.00000E+00
    0.39638E+07        -0.60983E+08         0.00000E+00
    0.00000E+00         0.00000E+00        -0.40578E+08
 
   -0.40913E+08         0.52260E+07         0.00000E+00
    0.52260E+07        -0.61099E+08         0.00000E+00
    0.00000E+00         0.00000E+00        -0.40531E+08
 
   -0.40613E+08         0.65879E+07         0.00000E+00
    0.65879E+07        -0.61214E+08         0.00000E+00
    0.00000E+00         0.00000E+00        -0.40494E+08
 
   -0.48087E+08        -0.34311E+06         0.00000E+00
   -0.34311E+06        -0.60010E+08         0.00000E+00
    0.00000E+00         0.00000E+00        -0.40529E+08
 
   -0.47410E+08        -0.90192E+06         0.00000E+00
   -0.90192E+06        -0.60050E+08         0.00000E+00
    0.00000E+00         0.00000E+00        -0.40402E+08
 
   -0.46683E+08        -0.12825E+07         0.00000E+00
   -0.12825E+07        -0.60117E+08         0.00000E+00
    0.00000E+00         0.00000E+00        -0.40269E+08
 
   -0.45932E+08        -0.14825E+07         0.00000E+00
   -0.14825E+07        -0.60197E+08         0.00000E+00
    0.00000E+00         0.00000E+00        -0.40135E+08
 
   -0.45178E+08        -0.15051E+07         0.00000E+00
   -0.15051E+07        -0.60284E+08         0.00000E+00
    0.00000E+00         0.00000E+00        -0.40001E+08
 
   -0.44438E+08        -0.13572E+07         0.00000E+00
   -0.13572E+07        -0.60372E+08         0.00000E+00
    0.00000E+00         0.00000E+00        -0.39871E+08
 
   -0.43719E+08        -0.10470E+07         0.00000E+00
   -0.10470E+07        -0.60463E+08         0.00000E+00
    0.00000E+00         0.00000E+00        -0.39745E+08
 
   -0.43028E+08        -0.58260E+06         0.00000E+00
   -0.58260E+06        -0.60557E+08         0.00000E+00
    0.00000E+00         0.00000E+00        -0.39625E+08
 
   -0.42366E+08         0.28592E+05         0.00000E+00
    0.28592E+05        -0.60659E+08         0.00000E+00
    0.00000E+00         0.00000E+00        -0.39513E+08
 
   -0.41735E+08         0.78049E+06         0.00000E+00
    0.78049E+06        -0.60770E+08         0.00000E+00
    0.00000E+00         0.00000E+00        -0.39409E+08
 
   -0.41137E+08         0.16680E+07         0.00000E+00
    0.16680E+07        -0.60895E+08         0.00000E+00
    0.00000E+00         0.00000E+00        -0.39314E+08
 
   -0.40576E+08         0.26863E+07         0.00000E+00
    0.26863E+07        -0.61032E+08         0.00000E+00
    0.00000E+00         0.00000E+00        -0.39229E+08
 
   -0.40060E+08         0.38300E+07         0.00000E+00
    0.38300E+07        -0.61179E+08         0.00000E+00
    0.00000E+00         0.00000E+00        -0.39155E+08
 
   -0.39598E+08         0.50912E+07         0.00000E+00
    0.50912E+07        -0.61331E+08         0.00000E+00
    0.00000E+00         0.00000E+00        -0.39093E+08
 
   -0.39203E+08         0.64589E+07         0.00000E+00
    0.64589E+07        -0.61482E+08         0.00000E+00
    0.00000E+00         0.00000E+00        -0.39044E+08
 
   -0.48754E+08        -0.36812E+06         0.00000E+00
   -0.36812E+06        -0.60012E+08         0.00000E+00
    0.00000E+00         0.00000E+00        -0.39442E+08
 
   -0.47894E+08        -0.96251E+06         0.00000E+00
   -0.96251E+06        -0.60058E+08         0.00000E+00
    0.00000E+00         0.00000E+00        -0.39279E+08
 
   -0.46979E+08        -0.13626E+07         0.00000E+00
   -0.13626E+07        -0.60132E+08         0.00000E+00
    0.00000E+00         0.00000E+00        -0.39111E+08
 
   -0.46045E+08        -0.15710E+07         0.00000E+00
   -0.15710E+07        -0.60220E+08         0.00000E+00
    0.00000E+00         0.00000E+00        -0.38941E+08
 
   -0.45115E+08        -0.15960E+07         0.00000E+00
   -0.15960E+07        -0.60311E+08         0.00000E+00
    0.00000E+00         0.00000E+00        -0.38773E+08
 
   -0.44208E+08        -0.14489E+07         0.00000E+00
   -0.14489E+07        -0.60402E+08         0.00000E+00
    0.00000E+00         0.00000E+00        -0.38610E+08
 
   -0.43333E+08        -0.11412E+07         0.00000E+00
   -0.11412E+07        -0.60495E+08         0.00000E+00
    0.00000E+00         0.00000E+00        -0.38453E+08
 
   -0.42493E+08        -0.68321E+06         0.00000E+00
   -0.68321E+06        -0.60593E+08         0.00000E+00
    0.00000E+00         0.00000E+00        -0.38305E+08
 
   -0.41690E+08        -0.82871E+05         0.00000E+00
   -0.82871E+05        -0.60701E+08         0.00000E+00
    0.00000E+00         0.00000E+00        -0.38165E+08
 
   -0.40922E+08         0.65451E+06         0.00000E+00
    0.65451E+06        -0.60825E+08         0.00000E+00
    0.00000E+00         0.00000E+00        -0.38036E+08
 
   -0.40191E+08         0.15257E+07         0.00000E+00
    0.15257E+07        -0.60967E+08         0.00000E+00
    0.00000E+00         0.00000E+00        -0.37918E+08
 
   -0.39501E+08         0.25287E+07         0.00000E+00
    0.25287E+07        -0.61130E+08         0.00000E+00
    0.00000E+00         0.00000E+00        -0.37813E+08
 
   -0.38860E+08         0.36612E+07         0.00000E+00
    0.36612E+07        -0.61310E+08         0.00000E+00
    0.00000E+00         0.00000E+00        -0.37720E+08
 
   -0.38281E+08         0.49186E+07         0.00000E+00
    0.49186E+07        -0.61500E+08         0.00000E+00
    0.00000E+00         0.00000E+00        -0.37643E+08
 
   -0.37782E+08         0.62921E+07         0.00000E+00
    0.62921E+07        -0.61690E+08         0.00000E+00
    0.00000E+00         0.00000E+00        -0.37581E+08
 
   -0.49469E+08        -0.39650E+06         0.00000E+00
   -0.39650E+06        -0.60013E+08         0.00000E+00
    0.00000E+00         0.00000E+00        -0.38363E+08
 
   -0.48405E+08        -0.10294E+07         0.00000E+00
   -0.10294E+07        -0.60063E+08         0.00000E+00
    0.00000E+00         0.00000E+00        -0.38161E+08
 
   -0.47289E+08        -0.14480E+07         0.00000E+00
   -0.14480E+07        -0.60141E+08         0.00000E+00
    0.00000E+00         0.00000E+00        -0.37953E+08
 
   -0.46161E+08        -0.16617E+07         0.00000E+00
   -0.16617E+07        -0.60228E+08         0.00000E+00
    0.00000E+00         0.00000E+00        -0.37745E+08
 
   -0.45052E+08        -0.16856E+07         0.00000E+00
   -0.16856E+07        -0.60315E+08         0.00000E+00
    0.00000E+00         0.00000E+00        -0.37540E+08
 
   -0.43980E+08        -0.15371E+07         0.00000E+00
   -0.15371E+07        -0.60398E+08         0.00000E+00
    0.00000E+00         0.00000E+00        -0.37342E+08
 
   -0.42952E+08        -0.12321E+07         0.00000E+00
   -0.12321E+07        -0.60481E+08         0.00000E+00
    0.00000E+00         0.00000E+00        -0.37153E+08
 
   -0.41969E+08        -0.78323E+06         0.00000E+00
   -0.78323E+06        -0.60571E+08         0.00000E+00
    0.00000E+00         0.00000E+00        -0.36974E+08
 
   -0.41030E+08        -0.19886E+06         0.00000E+00
   -0.19886E+06        -0.60675E+08         0.00000E+00
    0.00000E+00         0.00000E+00        -0.36807E+08
 
   -0.40129E+08         0.51685E+06         0.00000E+00
    0.51685E+06        -0.60803E+08         0.00000E+00
    0.00000E+00         0.00000E+00        -0.36652E+08
 
   -0.39266E+08         0.13633E+07         0.00000E+00
    0.13633E+07        -0.60959E+08         0.00000E+00
    0.00000E+00         0.00000E+00        -0.36510E+08
 
   -0.38444E+08         0.23423E+07         0.00000E+00
    0.23423E+07        -0.61144E+08         0.00000E+00
    0.00000E+00         0.00000E+00        -0.36383E+08
 
   -0.37671E+08         0.34560E+07         0.00000E+00
    0.34560E+07        -0.61357E+08         0.00000E+00
    0.00000E+00         0.00000E+00        -0.36271E+08
 
   -0.36966E+08         0.47045E+07         0.00000E+00
    0.47045E+07        -0.61588E+08         0.00000E+00
    0.00000E+00         0.00000E+00        -0.36176E+08
 
   -0.36349E+08         0.60828E+07         0.00000E+00
    0.60828E+07        -0.61823E+08         0.00000E+00
    0.00000E+00         0.00000E+00        -0.36099E+08
 
   -0.50236E+08        -0.42738E+06         0.00000E+00
   -0.42738E+06        -0.60014E+08         0.00000E+00
    0.00000E+00         0.00000E+00        -0.37296E+08
 
   -0.48943E+08        -0.10990E+07         0.00000E+00
   -0.10990E+07        -0.60066E+08         0.00000E+00
    0.00000E+00         0.00000E+00        -0.37047E+08
 
   -0.47606E+08        -0.15317E+07         0.00000E+00
   -0.15317E+07        -0.60141E+08         0.00000E+00
    0.00000E+00         0.00000E+00        -0.36795E+08
 
   -0.46275E+08        -0.17443E+07         0.00000E+00
   -0.17443E+07        -0.60218E+08         0.00000E+00
    0.00000E+00         0.00000E+00        -0.36544E+08
 
   -0.44984E+08        -0.17617E+07         0.00000E+00
   -0.17617E+07        -0.60287E+08         0.00000E+00
    0.00000E+00         0.00000E+00        -0.36299E+08
 
   -0.43751E+08        -0.16089E+07         0.00000E+00
   -0.16089E+07        -0.60347E+08         0.00000E+00
    0.00000E+00         0.00000E+00        -0.36064E+08
 
   -0.42577E+08        -0.13069E+07         0.00000E+00
   -0.13069E+07        -0.60406E+08         0.00000E+00
    0.00000E+00         0.00000E+00        -0.35841E+08
 
   -0.41461E+08        -0.87086E+06         0.00000E+00
   -0.87086E+06        -0.60475E+08         0.00000E+00
    0.00000E+00         0.00000E+00        -0.35631E+08
 
   -0.40393E+08        -0.30940E+06         0.00000E+00
   -0.30940E+06        -0.60565E+08         0.00000E+00
    0.00000E+00         0.00000E+00        -0.35436E+08
 
   -0.39365E+08         0.37504E+06         0.00000E+00
    0.37504E+06        -0.60686E+08         0.00000E+00
    0.00000E+00         0.00000E+00        -0.35254E+08
 
   -0.38371E+08         0.11853E+07         0.00000E+00
    0.11853E+07        -0.60849E+08         0.00000E+00
    0.00000E+00         0.00000E+00        -0.35088E+08
 
   -0.37414E+08         0.21282E+07         0.00000E+00
    0.21282E+07        -0.61054E+08         0.00000E+00
    0.00000E+00         0.00000E+00        -0.34937E+08
 
   -0.36502E+08         0.32121E+07         0.00000E+00
    0.32121E+07        -0.61301E+08         0.00000E+00
    0.00000E+00         0.00000E+00        -0.34804E+08
 
   -0.35655E+08         0.44437E+07         0.00000E+00
    0.44437E+07        -0.61577E+08         0.00000E+00
    0.00000E+00         0.00000E+00        -0.34690E+08
 
   -0.34904E+08         0.58239E+07         0.00000E+00
    0.58239E+07        -0.61865E+08         0.00000E+00
    0.00000E+00         0.00000E+00        -0.34597E+08
 
   -0.51058E+08        -0.45972E+06         0.00000E+00
   -0.45972E+06        -0.60015E+08         0.00000E+00
    0.00000E+00         0.00000E+00        -0.36238E+08
 
   -0.49503E+08        -0.11666E+07         0.00000E+00
   -0.11666E+07        -0.60064E+08         0.00000E+00
    0.00000E+00         0.00000E+00        -0.35937E+08
 
   -0.47924E+08        -0.16044E+07         0.00000E+00
   -0.16044E+07        -0.60129E+08         0.00000E+00
    0.00000E+00         0.00000E+00        -0.35634E+08
 
   -0.46380E+08        -0.18058E+07         0.00000E+00
   -0.18058E+07        -0.60183E+08         0.00000E+00
    0.00000E+00         0.00000E+00        -0.35336E+08
 
   -0.44908E+08        -0.18087E+07         0.00000E+00
   -0.18087E+07        -0.60217E+08         0.00000E+00
    0.00000E+00         0.00000E+00        -0.35048E+08
 
   -0.43520E+08        -0.16479E+07         0.00000E+00
   -0.16479E+07        -0.60238E+08         0.00000E+00
    0.00000E+00         0.00000E+00        -0.34774E+08
 
   -0.42212E+08        -0.13501E+07         0.00000E+00
   -0.13501E+07        -0.60255E+08         0.00000E+00
    0.00000E+00         0.00000E+00        -0.34516E+08
 
   -0.40974E+08        -0.93242E+06         0.00000E+00
   -0.93242E+06        -0.60287E+08         0.00000E+00
    0.00000E+00         0.00000E+00        -0.34275E+08
 
   -0.39788E+08        -0.40305E+06         0.00000E+00
   -0.40305E+06        -0.60348E+08         0.00000E+00
    0.00000E+00         0.00000E+00        -0.34050E+08
 
   -0.38641E+08         0.23778E+06         0.00000E+00
    0.23778E+06        -0.60454E+08         0.00000E+00
    0.00000E+00         0.00000E+00        -0.33841E+08
 
   -0.37522E+08         0.99697E+06         0.00000E+00
    0.99697E+06        -0.60615E+08         0.00000E+00
    0.00000E+00         0.00000E+00        -0.33649E+08
 
   -0.36426E+08         0.18874E+07         0.00000E+00
    0.18874E+07        -0.60838E+08         0.00000E+00
    0.00000E+00         0.00000E+00        -0.33475E+08
 
   -0.35363E+08         0.29259E+07         0.00000E+00
    0.29259E+07        -0.61119E+08         0.00000E+00
    0.00000E+00         0.00000E+00        -0.33318E+08
 
   -0.34357E+08         0.41287E+07         0.00000E+00
    0.41287E+07        -0.61448E+08         0.00000E+00
    0.00000E+00         0.00000E+00        -0.33183E+08
 
   -0.33446E+08         0.55055E+07         0.00000E+00
    0.55055E+07        -0.61798E+08         0.00000E+00
    0.00000E+00         0.00000E+00        -0.33070E+08
 
   -0.51933E+08        -0.49226E+06         0.00000E+00
   -0.49226E+06        -0.60015E+08         0.00000E+00
    0.00000E+00         0.00000E+00        -0.35191E+08
 
   -0.50076E+08        -0.12257E+07         0.00000E+00
   -0.12257E+07        -0.60058E+08         0.00000E+00
    0.00000E+00         0.00000E+00        -0.34828E+08
 
   -0.48229E+08        -0.16530E+07         0.00000E+00
   -0.16530E+07        -0.60099E+08         0.00000E+00
    0.00000E+00         0.00000E+00        -0.34467E+08
 
   -0.46464E+08        -0.18280E+07         0.00000E+00
   -0.18280E+07        -0.60111E+08         0.00000E+00
    0.00000E+00         0.00000E+00        -0.34116E+08
 
   -0.44816E+08        -0.18068E+07         0.00000E+00
   -0.18068E+07        -0.60090E+08         0.00000E+00
    0.00000E+00         0.00000E+00        -0.33782E+08
 
   -0.43286E+08        -0.16352E+07         0.00000E+00
   -0.16352E+07        -0.60049E+08         0.00000E+00
    0.00000E+00         0.00000E+00        -0.33468E+08
 
   -0.41861E+08        -0.13447E+07         0.00000E+00
   -0.13447E+07        -0.60007E+08         0.00000E+00
    0.00000E+00         0.00000E+00        -0.33174E+08
 
   -0.40517E+08        -0.95317E+06         0.00000E+00
   -0.95317E+06        -0.59985E+08         0.00000E+00
    0.00000E+00         0.00000E+00        -0.32901E+08
 
   -0.39229E+08        -0.46749E+06         0.00000E+00
   -0.46749E+06        -0.60005E+08         0.00000E+00
    0.00000E+00         0.00000E+00        -0.32647E+08
 
   -0.37974E+08         0.11469E+06         0.00000E+00
    0.11469E+06        -0.60083E+08         0.00000E+00
    0.00000E+00         0.00000E+00        -0.32412E+08
 
   -0.36734E+08         0.80447E+06         0.00000E+00
    0.80447E+06        -0.60235E+08         0.00000E+00
    0.00000E+00         0.00000E+00        -0.32194E+08
 
   -0.35499E+08         0.16215E+07         0.00000E+00
    0.16215E+07        -0.60470E+08         0.00000E+00
    0.00000E+00         0.00000E+00        -0.31994E+08
 
   -0.34273E+08         0.25930E+07         0.00000E+00
    0.25930E+07        -0.60788E+08         0.00000E+00
    0.00000E+00         0.00000E+00        -0.31812E+08
 
   -0.33082E+08         0.37489E+07         0.00000E+00
    0.37489E+07        -0.61177E+08         0.00000E+00
    0.00000E+00         0.00000E+00        -0.31652E+08
 
   -0.31978E+08         0.51133E+07         0.00000E+00
    0.51133E+07        -0.61605E+08         0.00000E+00
    0.00000E+00         0.00000E+00        -0.31516E+08
 
   -0.52856E+08        -0.52329E+06         0.00000E+00
   -0.52329E+06        -0.60014E+08         0.00000E+00
    0.00000E+00         0.00000E+00        -0.34153E+08
 
   -0.50643E+08        -0.12659E+07         0.00000E+00
   -0.12659E+07        -0.60043E+08         0.00000E+00
    0.00000E+00         0.00000E+00        -0.33716E+08
 
   -0.48501E+08        -0.16576E+07         0.00000E+00
   -0.16576E+07        -0.60042E+08         0.00000E+00
    0.00000E+00         0.00000E+00        -0.33288E+08
 
   -0.46514E+08        -0.17862E+07         0.00000E+00
   -0.17862E+07        -0.59985E+08         0.00000E+00
    0.00000E+00         0.00000E+00        -0.32879E+08
 
   -0.44703E+08        -0.17316E+07         0.00000E+00
   -0.17316E+07        -0.59881E+08         0.00000E+00
    0.00000E+00         0.00000E+00        -0.32495E+08
 
   -0.43053E+08        -0.15498E+07         0.00000E+00
   -0.15498E+07        -0.59754E+08         0.00000E+00
    0.00000E+00         0.00000E+00        -0.32140E+08
 
   -0.41531E+08        -0.12735E+07         0.00000E+00
   -0.12735E+07        -0.59634E+08         0.00000E+00
    0.00000E+00         0.00000E+00        -0.31811E+08
 
   -0.40102E+08        -0.91904E+06         0.00000E+00
   -0.91904E+06        -0.59545E+08         0.00000E+00
    0.00000E+00         0.00000E+00        -0.31507E+08
 
   -0.38729E+08        -0.49091E+06         0.00000E+00
   -0.49091E+06        -0.59511E+08         0.00000E+00
    0.00000E+00         0.00000E+00        -0.31226E+08
 
   -0.37382E+08         0.15733E+05         0.00000E+00
    0.15733E+05        -0.59552E+08         0.00000E+00
    0.00000E+00         0.00000E+00        -0.30964E+08
 
   -0.36031E+08         0.61516E+06         0.00000E+00
    0.61516E+06        -0.59685E+08         0.00000E+00
    0.00000E+00         0.00000E+00        -0.30721E+08
 
   -0.34657E+08         0.13330E+07         0.00000E+00
    0.13330E+07        -0.59926E+08         0.00000E+00
    0.00000E+00         0.00000E+00        -0.30494E+08
 
   -0.33256E+08         0.22082E+07         0.00000E+00
    0.22082E+07        -0.60282E+08         0.00000E+00
    0.00000E+00         0.00000E+00        -0.30285E+08
 
   -0.31850E+08         0.32903E+07         0.00000E+00
    0.32903E+07        -0.60741E+08         0.00000E+00
    0.00000E+00         0.00000E+00        -0.30096E+08
 
   -0.30504E+08         0.46267E+07         0.00000E+00
    0.46267E+07        -0.61267E+08         0.00000E+00
    0.00000E+00         0.00000E+00        -0.29932E+08
 
   -0.53813E+08        -0.55001E+06         0.00000E+00
   -0.55001E+06        -0.60011E+08         0.00000E+00
    0.00000E+00         0.00000E+00        -0.33121E+08
 
   -0.51173E+08        -0.12691E+07         0.00000E+00
   -0.12691E+07        -0.60012E+08         0.00000E+00
    0.00000E+00         0.00000E+00        -0.32593E+08
 
   -0.48713E+08        -0.15868E+07         0.00000E+00
   -0.15868E+07        -0.59936E+08         0.00000E+00
    0.00000E+00         0.00000E+00        -0.32086E+08
 
   -0.46515E+08        -0.16471E+07         0.00000E+00
   -0.16471E+07        -0.59770E+08         0.00000E+00
    0.00000E+00         0.00000E+00        -0.31613E+08
 
   -0.44570E+08        -0.15559E+07         0.00000E+00
   -0.15559E+07        -0.59549E+08         0.00000E+00
    0.00000E+00         0.00000E+00        -0.31180E+08
 
   -0.42827E+08        -0.13717E+07         0.00000E+00
   -0.13717E+07        -0.59315E+08         0.00000E+00
    0.00000E+00         0.00000E+00        -0.30784E+08
 
   -0.41234E+08        -0.11224E+07         0.00000E+00
   -0.11224E+07        -0.59102E+08         0.00000E+00
    0.00000E+00         0.00000E+00        -0.30423E+08
 
   -0.39741E+08        -0.81942E+06         0.00000E+00
   -0.81942E+06        -0.58938E+08         0.00000E+00
    0.00000E+00         0.00000E+00        -0.30091E+08
 
   -0.38304E+08        -0.46411E+06         0.00000E+00
   -0.46411E+06        -0.58843E+08         0.00000E+00
    0.00000E+00         0.00000E+00        -0.29785E+08
 
   -0.36882E+08        -0.50084E+05         0.00000E+00
   -0.50084E+05        -0.58839E+08         0.00000E+00
    0.00000E+00         0.00000E+00        -0.29499E+08
 
   -0.35436E+08         0.43784E+06         0.00000E+00
    0.43784E+06        -0.58945E+08         0.00000E+00
    0.00000E+00         0.00000E+00        -0.29231E+08
 
   -0.33932E+08         0.10277E+07         0.00000E+00
    0.10277E+07        -0.59184E+08         0.00000E+00
    0.00000E+00         0.00000E+00        -0.28978E+08
 
   -0.32347E+08         0.17684E+07         0.00000E+00
    0.17684E+07        -0.59572E+08         0.00000E+00
    0.00000E+00         0.00000E+00        -0.28739E+08
 
   -0.30690E+08         0.27352E+07         0.00000E+00
    0.27352E+07        -0.60112E+08         0.00000E+00
    0.00000E+00         0.00000E+00        -0.28515E+08
 
   -0.29034E+08         0.40160E+07         0.00000E+00
    0.40160E+07        -0.60764E+08         0.00000E+00
    0.00000E+00         0.00000E+00        -0.28315E+08
 
   -0.54777E+08        -0.56593E+06         0.00000E+00
   -0.56593E+06        -0.60004E+08         0.00000E+00
    0.00000E+00         0.00000E+00        -0.32090E+08
 
   -0.51615E+08        -0.11974E+07         0.00000E+00
   -0.11974E+07        -0.59942E+08         0.00000E+00
    0.00000E+00         0.00000E+00        -0.31445E+08
 
   -0.48832E+08        -0.13886E+07         0.00000E+00
   -0.13886E+07        -0.59727E+08         0.00000E+00
    0.00000E+00         0.00000E+00        -0.30845E+08
 
   -0.46464E+08        -0.13699E+07         0.00000E+00
   -0.13699E+07        -0.59400E+08         0.00000E+00
    0.00000E+00         0.00000E+00        -0.30306E+08
 
   -0.44425E+08        -0.12556E+07         0.00000E+00
   -0.12556E+07        -0.59035E+08         0.00000E+00
    0.00000E+00         0.00000E+00        -0.29825E+08
 
   -0.42624E+08        -0.10887E+07         0.00000E+00
   -0.10887E+07        -0.58682E+08         0.00000E+00
    0.00000E+00         0.00000E+00        -0.29394E+08
 
   -0.40985E+08        -0.88539E+06         0.00000E+00
   -0.88539E+06        -0.58375E+08         0.00000E+00
    0.00000E+00         0.00000E+00        -0.29005E+08
 
   -0.39451E+08        -0.65074E+06         0.00000E+00
   -0.65074E+06        -0.58134E+08         0.00000E+00
    0.00000E+00         0.00000E+00        -0.28650E+08
 
   -0.37969E+08        -0.38342E+06         0.00000E+00
   -0.38342E+06        -0.57980E+08         0.00000E+00
    0.00000E+00         0.00000E+00        -0.28322E+08
 
   -0.36492E+08        -0.76965E+05         0.00000E+00
   -0.76965E+05        -0.57929E+08         0.00000E+00
    0.00000E+00         0.00000E+00        -0.28017E+08
 
   -0.34972E+08         0.28174E+06         0.00000E+00
    0.28174E+06        -0.58003E+08         0.00000E+00
    0.00000E+00         0.00000E+00        -0.27728E+08
 
   -0.33358E+08         0.71721E+06         0.00000E+00
    0.71721E+06        -0.58227E+08         0.00000E+00
    0.00000E+00         0.00000E+00        -0.27450E+08
 
   -0.31595E+08         0.12773E+07         0.00000E+00
    0.12773E+07        -0.58634E+08         0.00000E+00
    0.00000E+00         0.00000E+00        -0.27178E+08
 
   -0.29651E+08         0.20638E+07         0.00000E+00
    0.20638E+07        -0.59258E+08         0.00000E+00
    0.00000E+00         0.00000E+00        -0.26914E+08
 
   -0.27589E+08         0.32361E+07         0.00000E+00
    0.32361E+07        -0.60074E+08         0.00000E+00
    0.00000E+00         0.00000E+00        -0.26665E+08
 
   -0.55681E+08        -0.54784E+06         0.00000E+00
   -0.54784E+06        -0.59978E+08         0.00000E+00
    0.00000E+00         0.00000E+00        -0.31042E+08
 
   -0.51886E+08        -0.95975E+06         0.00000E+00
   -0.95975E+06        -0.59752E+08         0.00000E+00
    0.00000E+00         0.00000E+00        -0.30238E+08
 
   -0.48843E+08        -0.98963E+06         0.00000E+00
   -0.98963E+06        -0.59291E+08         0.00000E+00
    0.00000E+00         0.00000E+00        -0.29537E+08
 
   -0.46382E+08        -0.92465E+06         0.00000E+00
   -0.92465E+06        -0.58766E+08         0.00000E+00
    0.00000E+00         0.00000E+00        -0.28940E+08
 
   -0.44297E+08        -0.82412E+06         0.00000E+00
   -0.82412E+06        -0.58257E+08         0.00000E+00
    0.00000E+00         0.00000E+00        -0.28421E+08
 
   -0.42466E+08        -0.70408E+06         0.00000E+00
   -0.70408E+06        -0.57798E+08         0.00000E+00
    0.00000E+00         0.00000E+00        -0.27963E+08
 
   -0.40804E+08        -0.56924E+06         0.00000E+00
   -0.56924E+06        -0.57410E+08         0.00000E+00
    0.00000E+00         0.00000E+00        -0.27553E+08
 
   -0.39246E+08        -0.41982E+06         0.00000E+00
   -0.41982E+06        -0.57107E+08         0.00000E+00
    0.00000E+00         0.00000E+00        -0.27181E+08
 
   -0.37738E+08        -0.25352E+06         0.00000E+00
   -0.25352E+06        -0.56904E+08         0.00000E+00
    0.00000E+00         0.00000E+00        -0.26838E+08
 
   -0.36226E+08        -0.65538E+05         0.00000E+00
   -0.65538E+05        -0.56815E+08         0.00000E+00
    0.00000E+00         0.00000E+00        -0.26518E+08
 
   -0.34656E+08         0.15271E+06         0.00000E+00
    0.15271E+06        -0.56858E+08         0.00000E+00
    0.00000E+00         0.00000E+00        -0.26213E+08
 
   -0.32964E+08         0.41720E+06         0.00000E+00
    0.41720E+06        -0.57060E+08         0.00000E+00
    0.00000E+00         0.00000E+00        -0.25915E+08
 
   -0.31065E+08         0.76075E+06         0.00000E+00
    0.76075E+06        -0.57462E+08         0.00000E+00
    0.00000E+00         0.00000E+00        -0.25615E+08
 
   -0.28826E+08         0.12667E+07         0.00000E+00
    0.12667E+07        -0.58131E+08         0.00000E+00
    0.00000E+00         0.00000E+00        -0.25301E+08
 
   -0.26217E+08         0.22107E+07         0.00000E+00
    0.22107E+07        -0.59165E+08         0.00000E+00
    0.00000E+00         0.00000E+00        -0.24986E+08
 
   -0.56333E+08        -0.34356E+06         0.00000E+00
   -0.34356E+06        -0.59751E+08         0.00000E+00
    0.00000E+00         0.00000E+00        -0.29904E+08
 
   -0.51929E+08        -0.39565E+06         0.00000E+00
   -0.39565E+06        -0.59119E+08         0.00000E+00
    0.00000E+00         0.00000E+00        -0.28896E+08
 
   -0.48809E+08        -0.36510E+06         0.00000E+00
   -0.36510E+06        -0.58407E+08         0.00000E+00
    0.00000E+00         0.00000E+00        -0.28130E+08
 
   -0.46317E+08        -0.32900E+06         0.00000E+00
   -0.32900E+06        -0.57735E+08         0.00000E+00
    0.00000E+00         0.00000E+00        -0.27497E+08
 
   -0.44219E+08        -0.28816E+06         0.00000E+00
   -0.28816E+06        -0.57131E+08         0.00000E+00
    0.00000E+00         0.00000E+00        -0.26957E+08
 
   -0.42379E+08        -0.24405E+06         0.00000E+00
   -0.24405E+06        -0.56607E+08         0.00000E+00
    0.00000E+00         0.00000E+00        -0.26484E+08
 
   -0.40708E+08        -0.19660E+06         0.00000E+00
   -0.19660E+06        -0.56173E+08         0.00000E+00
    0.00000E+00         0.00000E+00        -0.26063E+08
 
   -0.39141E+08        -0.14519E+06         0.00000E+00
   -0.14519E+06        -0.55835E+08         0.00000E+00
    0.00000E+00         0.00000E+00        -0.25682E+08
 
   -0.37620E+08        -0.88723E+05         0.00000E+00
   -0.88723E+05        -0.55605E+08         0.00000E+00
    0.00000E+00         0.00000E+00        -0.25331E+08
 
   -0.36091E+08        -0.25417E+05         0.00000E+00
   -0.25417E+05        -0.55493E+08         0.00000E+00
    0.00000E+00         0.00000E+00        -0.25003E+08
 
   -0.34497E+08         0.47671E+05         0.00000E+00
    0.47671E+05        -0.55517E+08         0.00000E+00
    0.00000E+00         0.00000E+00        -0.24689E+08
 
   -0.32766E+08         0.13585E+06         0.00000E+00
    0.13585E+06        -0.55702E+08         0.00000E+00
    0.00000E+00         0.00000E+00        -0.24380E+08
 
   -0.30793E+08         0.25066E+06         0.00000E+00
    0.25066E+06        -0.56089E+08         0.00000E+00
    0.00000E+00         0.00000E+00        -0.24063E+08
 
   -0.28393E+08         0.41837E+06         0.00000E+00
    0.41837E+06        -0.56758E+08         0.00000E+00
    0.00000E+00         0.00000E+00        -0.23717E+08
 
   -0.25043E+08         0.81218E+06         0.00000E+00
    0.81218E+06        -0.57930E+08         0.00000E+00
    0.00000E+00         0.00000E+00        -0.23281E+08
 
SCALARS stressS double 
LOOKUP_TABLE default
  -51989533.4653196     
  -53995910.3441289     
  -55523692.7190314     
  -56785299.0967321     
  -57863734.7172530     
  -58807310.4890066     
  -59647818.9682020     
  -60408554.6478109     
  -61108209.5078612     
  -61763307.3278748     
  -62390220.1287479     
  -63007576.7405807     
  -63640742.8639244     
  -64331156.8717424     
  -65199468.0143984     
  -51753402.3416625     
  -53356420.1763913     
  -54753421.0385201     
  -55944523.4807796     
  -56979883.6666805     
  -57893872.6842072     
  -58712247.5054874     
  -59455011.9590247     
  -60138735.4240878     
  -60778172.3376120     
  -61387632.1528611     
  -61982484.9006935     
  -62580466.7178008     
  -63206581.1705397     
  -63835053.5319937     
  -51696950.6748940     
  -52983176.2897923     
  -54179119.9141290     
  -55254689.3114875     
  -56213925.5495197     
  -57073850.6519233     
  -57850880.5943092     
  -58559683.3043662     
  -59213212.7331020     
  -59823185.9977398     
  -60400543.1898846     
  -60955535.2958875     
  -61497296.1965868     
  -62024120.1999716     
  -62521501.3827645     
  -51671924.8953408     
  -52725683.4864278     
  -53738189.3447194     
  -54681562.8459224     
  -55546520.8654808     
  -56335704.0695177     
  -57056889.1001584     
  -57718989.2627672     
  -58330803.9913078     
  -58900515.7692107     
  -59435338.2996547     
  -59940886.2976603     
  -60418873.5934873     
  -60864927.6296587     
  -61265423.1930161     
  -51646117.0258372     
  -52518642.8539568     
  -53374427.4930691     
  -54190876.6013215     
  -54955834.0804156     
  -55665587.6823165     
  -56321664.1739501     
  -56928151.8575735     
  -57489999.8262504     
  -58012052.1063162     
  -58498289.2316215     
  -58950836.5106375     
  -59368786.3099210     
  -59746770.8817281     
  -60074469.1381234     
  -51606999.7448332     
  -52332438.3102746     
  -53054362.1866448     
  -53754819.2903316     
  -54421995.4975350     
  -55049732.1860287     
  -55636085.0323622     
  -56181706.9378090     
  -56688505.6498145     
  -57158623.2431183     
  -57593588.4259575     
  -57993510.0664669     
  -58356258.4273200     
  -58676869.0946463     
  -58947374.0034641     
  -51549179.2733756     
  -52151730.9189049     
  -52758185.6804057     
  -53354134.2144051     
  -53928998.6987465     
  -54475993.4830599     
  -54991466.8724721     
  -55473964.7604146     
  -55923283.7540939     
  -56339631.1350545     
  -56722897.5939535     
  -57072017.6316423     
  -57384449.7744150     
  -57655855.8510190     
  -57880116.1988323     
  -51470374.5826147     
  -51968170.5037156     
  -52473896.9982206     
  -52975863.0233313     
  -53464894.1444666     
  -53934404.4790278     
  -54380084.1492478     
  -54799351.2640692     
  -55190717.1168826     
  -55553164.0319900     
  -55885584.2461670     
  -56186307.6918842     
  -56452751.7088395     
  -56681246.4672753     
  -56867085.4732756     
  -51370136.2468519     
  -51777257.6434907     
  -52194172.5949759     
  -52611354.1735648     
  -53020999.6187670     
  -53417108.7595803     
  -53795326.5828130     
  -54152614.9498182     
  -54486834.8002841     
  -54796308.9567235     
  -55079416.1934500     
  -55334253.4936057     
  -55558400.0452639     
  -55748814.9550909     
  -55901894.0457078     
  -51249265.1741111     
  -51576867.0229719     
  -51914643.9884325     
  -52254880.6565721     
  -52591077.3358865     
  -52918009.0571877     
  -53231639.8610280     
  -53528921.0422064     
  -53807518.0794710     
  -54065512.6095775     
  -54301119.6874083     
  -54512453.4851326     
  -54697368.9312099     
  -54853401.5301623     
  -54977819.2055300     
  -51109504.7877878     
  -51366455.4265372     
  -51632903.5967262     
  -51902727.0595790     
  -52170670.5882566     
  -52432384.1035208     
  -52684372.1505522     
  -52923867.4279461     
  -53148653.3571507     
  -53356865.3341222     
  -53546799.5379343     
  -53716754.7262532     
  -53864928.0374098     
  -53989380.4950348     
  -54088081.2128508     
  -50953338.5394098     
  -51146590.2457212     
  -51347891.4991602     
  -51552581.1668716     
  -51756608.2584336     
  -51956554.2233527     
  -52149601.4524556     
  -52333453.6866484     
  -52506222.4251620     
  -52666297.8338539     
  -52812223.5704255     
  -52942593.4728351     
  -53055985.1049277     
  -53150941.1724021     
  -53226004.9678104     
  -50783831.8041794     
  -50918636.5773555     
  -51059490.0882897     
  -51203114.4865818     
  -51346638.5012576     
  -51487609.2636913     
  -51623972.6320890     
  -51754024.5943225     
  -51876341.5853958     
  -51989700.7688433     
  -52093002.4704186     
  -52185206.4066733     
  -52265291.5922143     
  -52332247.2022474     
  -52385098.4999437     
  -50604492.7393840     
  -50684527.1922059     
  -50768235.2410657     
  -50853678.4923612     
  -50939151.8875879     
  -51023189.0309490     
  -51104551.1184304     
  -51182200.5795945     
  -51255263.3874045     
  -51322985.8724321     
  -51384692.6786511     
  -51439752.3375367     
  -51487556.0292930     
  -51527513.6633293     
  -51559069.6449339     
  -50419141.7335276     
  -50446577.1794969     
  -50475093.8044920     
  -50504070.7777670     
  -50532962.8838328     
  -50561301.6701454     
  -50588691.6137299     
  -50614801.6132211     
  -50639352.9982782     
  -50662105.8543004     
  -50682845.7366821     
  -50701372.8192820     
  -50717495.2471949     
  -50731028.0140297     
  -50741798.1273250     
  -50231785.0238061     
  -50207322.7365145     
  -50181278.2309630     
  -50154341.9670454     
  -50127126.9887109     
  -50100166.6356644     
  -50073917.5734373     
  -50048767.8164580     
  -50025048.4970182     
  -50003047.5000140     
  -49983022.7927865     
  -49965213.3082747     
  -49949845.5259019     
  -49937134.3660395     
  -49927277.5990699     
  -50046490.3239067     
  -49969371.9481818     
  -49888080.0490790     
  -49804623.7896761     
  -49720776.9072087     
  -49638071.2236152     
  -49557806.9313814     
  -49481078.5212407     
  -49408812.3314711     
  -49341809.7873148     
  -49280789.5837265     
  -49226422.2260838     
  -49179351.2654719     
  -49140197.0261063     
  -49109540.4189590     
  -49867263.0377437     
  -49735259.1508582     
  -49596709.0279293     
  -49454963.6266478     
  -49312964.6194756     
  -49173231.3612978     
  -49037879.8205452     
  -48908670.8650929     
  -48787079.9783958     
  -48674377.2326630     
  -48571705.1932141     
  -48480142.9792012     
  -48400746.4841838     
  -48334557.3969786     
  -48282576.8670703     
  -49697921.7920677     
  -49507295.5364952     
  -49308126.4133930     
  -49105152.3277351     
  -48902497.3153238     
  -48703647.9531113     
  -48511484.1887693     
  -48328358.8297719     
  -48156211.4658824     
  -47996698.1496102     
  -47851317.2349202     
  -47721513.2598566     
  -47608743.7396454     
  -47514497.7553252     
  -47440260.1221064     
  -49541971.8653355     
  -49287407.5684822     
  -49022859.0565845     
  -48754530.5667969     
  -48487754.0178438     
  -48226949.4562471     
  -47975675.0504941     
  -47736753.8082918     
  -47512451.8085823     
  -47304678.0481939     
  -47115176.7805313     
  -46945686.7027477     
  -46798045.7993132     
  -46674226.0191223     
  -46576288.7148221     
  -49402474.3540388     
  -49076950.9972283     
  -48740776.0316160     
  -48401754.0505313     
  -48066466.2030026     
  -47740209.6121980     
  -47427082.8340008     
  -47130188.4399212     
  -46851907.6157677     
  -46594200.0281973     
  -46358888.3889446     
  -46147894.3053248     
  -45963397.7121168     
  -45807897.4835229     
  -45684159.2801687     
  -49281906.6394640     
  -48876479.8261810     
  -48460798.4070678     
  -48044488.2589337     
  -47635439.6164517     
  -47239726.9214039     
  -46861766.5710965     
  -46504647.0179243     
  -46170549.2023016     
  -45861186.6271446     
  -45578214.0088266     
  -45323567.3125403     
  -45099701.4005514     
  -44909693.1084522     
  -44757184.2132629     
  -49182003.7291962     
  -48685431.7925565     
  -48180491.6492961     
  -47678986.6357687     
  -47190185.9872474     
  -46720751.2306459     
  -46275050.2812813     
  -45855708.9966554     
  -45464250.2755932     
  -45101720.4553291     
  -44769254.2385642     
  -44468550.1126374     
  -44202223.0582311     
  -43973980.4581528     
  -43788571.5213120     
  -49103554.9014601     
  -48501654.1453924     
  -47895448.6884762     
  -47299478.5600532     
  -46724424.7110046     
  -46177147.5899973     
  -45661349.6299812     
  -45178518.1741852     
  -44728879.0283831     
  -44312242.3247694     
  -43928734.6991997     
  -43579443.1192642     
  -43266938.1407104     
  -42995596.9234904     
  -42771588.3358151     
  -49046094.3211393     
  -48320606.7124224     
  -47598289.4678451     
  -46897250.7568089     
  -46229415.6268988     
  -45601011.1443590     
  -45014017.9436006     
  -44467799.1039825     
  -43960452.2139744     
  -43489837.0085930     
  -43054428.6473246     
  -42654129.2955536     
  -42291092.0160051     
  -41970320.8329990     
  -41699841.2943386     
  -49007316.4157936     
  -48133875.6589833     
  -47276927.3694692     
  -46459256.3418857     
  -45693131.4053137     
  -44982314.0772766     
  -44325287.2027791     
  -43717952.3034705     
  -43155342.7227296     
  -42632596.1932418     
  -42145718.0737691     
  -41692578.8475062     
  -41274098.8155690     
  -40895683.8379820     
  -40567722.5144916     
  -48981786.7870581     
  -47926014.5199433     
  -46911419.2095417     
  -45966110.8373654     
  -45099463.9714984     
  -44308840.0687459     
  -43586426.0071251     
  -42923263.0341429     
  -42310506.5360978     
  -41739932.5322655     
  -41204291.3939892     
  -40697941.3399572     
  -40219162.5089172     
  -39772355.4780310     
  -39371226.0365725     
  -48956894.9564333     
  -47667206.3226332     
  -46468068.6467104     
  -45389822.6219091     
  -44428421.6256702     
  -43566741.4785889     
  -42788267.4661791     
  -42078245.4708549     
  -41423647.7788299     
  -40812692.4758549     
  -40234380.2056096     
  -39678404.8486263     
  -39135583.3800936     
  -38607628.0155119     
  -38109123.0630712     
  -48900222.6487497     
  -47291710.2573811     
  -45890301.7164430     
  -44695910.2583826     
  -43658042.3944180     
  -42742100.8642428     
  -41922164.5304734     
  -41178106.9899766     
  -40493261.4380678     
  -39852789.8674582     
  -39242303.9096034     
  -38646349.8287723     
  -38047094.5343904     
  -37419398.7865213     
  -36789153.3380937     
  -48662503.7882164     
  -46648006.9041801     
  -45115123.6633772     
  -43849942.7955373     
  -42768888.8437698     
  -41823329.0619831     
  -40981266.8373799     
  -40219264.4113795     
  -39518519.9083960     
  -38862416.3594962     
  -38234492.2442340     
  -37616018.5401605     
  -36981493.8923700     
  -36289258.0484193     
  -35418034.3636264     
SCALARS 2waySource double 
LOOKUP_TABLE default
 -1.180882283814036E-005
 -1.179764105449014E-005
 -1.178791675188180E-005
 -1.177920751908112E-005
 -1.177133092373605E-005
 -1.176416150525384E-005
 -1.175760307951537E-005
 -1.175157527500669E-005
 -1.174600738426901E-005
 -1.174083469120438E-005
 -1.173599570072826E-005
 -1.173142925401813E-005
 -1.172706974828693E-005
 -1.172283985410165E-005
 -1.171858058990988E-005
 -1.180939504344286E-005
 -1.179891294305292E-005
 -1.178942468966955E-005
 -1.178086268359145E-005
 -1.177308727796464E-005
 -1.176599533761769E-005
 -1.175950028454734E-005
 -1.175352707426633E-005
 -1.174800836640719E-005
 -1.174288209314673E-005
 -1.173808953601860E-005
 -1.173357336729292E-005
 -1.172927560248142E-005
 -1.172513019876501E-005
 -1.172107520490411E-005
 -1.180997117395035E-005
 -1.180007255101919E-005
 -1.179095514170043E-005
 -1.178262770771986E-005
 -1.177502751738992E-005
 -1.176807583119081E-005
 -1.176169947322376E-005
 -1.175583095729765E-005
 -1.175040799949188E-005
 -1.174537259003646E-005
 -1.174067013990561E-005
 -1.173624879680691E-005
 -1.173205856851788E-005
 -1.172805364744472E-005
 -1.172419916479243E-005
 -1.181074289449521E-005
 -1.180131154489464E-005
 -1.179257698802832E-005
 -1.178454271999303E-005
 -1.177717403152683E-005
 -1.177041573241416E-005
 -1.176420723947648E-005
 -1.175848911724975E-005
 -1.175320466880792E-005
 -1.174830041361860E-005
 -1.174372618793708E-005
 -1.173943524875614E-005
 -1.173538511026361E-005
 -1.173153977726248E-005
 -1.172787675171007E-005
 -1.181173598891821E-005
 -1.180271835646092E-005
 -1.179435767934115E-005
 -1.178664417902919E-005
 -1.177954870770973E-005
 -1.177302757525746E-005
 -1.176702998765930E-005
 -1.176150339774703E-005
 -1.175639628816693E-005
 -1.175165944888712E-005
 -1.174724671454684E-005
 -1.174311566829424E-005
 -1.173922872557729E-005
 -1.173555535846905E-005
 -1.173207522412119E-005
 -1.181294947372103E-005
 -1.180432493388054E-005
 -1.179633567952598E-005
 -1.178896075655392E-005
 -1.178216940573237E-005
 -1.177592193190404E-005
 -1.177017300491972E-005
 -1.176487503954182E-005
 -1.175998063548843E-005
 -1.175544412530087E-005
 -1.175122261588292E-005
 -1.174727689699375E-005
 -1.174357254091978E-005
 -1.174008132093675E-005
 -1.173678272382677E-005
 -1.181437214316036E-005
 -1.180613883372243E-005
 -1.179852748224583E-005
 -1.179150865706287E-005
 -1.178504798799346E-005
 -1.177910604318543E-005
 -1.177363976104037E-005
 -1.176860441697760E-005
 -1.176395541586822E-005
 -1.175964968364716E-005
 -1.175564673325416E-005
 -1.175190957781671E-005
 -1.174840562911912E-005
 -1.174510759862835E-005
 -1.174199416720852E-005
 -1.181598667469986E-005
 -1.180815468211510E-005
 -1.180093562003860E-005
 -1.179429337654255E-005
 -1.178818954810870E-005
 -1.178258318867948E-005
 -1.177743146899692E-005
 -1.177269082387007E-005
 -1.176831818764553E-005
 -1.176427210042423E-005
 -1.176051363840909E-005
 -1.175700720723158E-005
 -1.175372123715675E-005
 -1.175062874694463E-005
 -1.174770764124874E-005
 -1.181777087839933E-005
 -1.181035902889760E-005
 -1.180355343602312E-005
 -1.179731232561177E-005
 -1.179159320539629E-005
 -1.178635271702773E-005
 -1.178154699873513E-005
 -1.177713239296413E-005
 -1.177306629125947E-005
 -1.176930796409949E-005
 -1.176581930303649E-005
 -1.176256545549494E-005
 -1.175951534158134E-005
 -1.175664201482075E-005
 -1.175392278810048E-005
 -1.181969830214800E-005
 -1.181273267155717E-005
 -1.180636788200147E-005
 -1.180055697068315E-005
 -1.179525330895760E-005
 -1.179041059268825E-005
 -1.178598310599196E-005
 -1.178192619911022E-005
 -1.177819687762231E-005
 -1.177475440835462E-005
 -1.177156087929353E-005
 -1.176858167835744E-005
 -1.176578586556919E-005
 -1.176314640593440E-005
 -1.176064021849754E-005
 -1.182173865151752E-005
 -1.181525199005764E-005
 -1.180936126739941E-005
 -1.180401444345914E-005
 -1.179916062033084E-005
 -1.179475015319096E-005
 -1.179073489221237E-005
 -1.178706853895404E-005
 -1.178370706886899E-005
 -1.178060916584964E-005
 -1.177773662516995E-005
 -1.177505469435757E-005
 -1.177253232895029E-005
 -1.177014234034228E-005
 -1.176786141164825E-005
 -1.182385819206878E-005
 -1.181788987328746E-005
 -1.181251248881202E-005
 -1.180766878993977E-005
 -1.180330338207396E-005
 -1.179936292911553E-005
 -1.179579639946481E-005
 -1.179255535338277E-005
 -1.178959425093383E-005
 -1.178687075300095E-005
 -1.178434599096454E-005
 -1.178198478720302E-005
 -1.177975581357481E-005
 -1.177763167719208E-005
 -1.177558892377929E-005
 -1.182602020147932E-005
 -1.182061649480688E-005
 -1.181579801952959E-005
 -1.181150202017784E-005
 -1.180766829705205E-005
 -1.180423948038771E-005
 -1.180116128612381E-005
 -1.179838275660198E-005
 -1.179585647954642E-005
 -1.179353877552539E-005
 -1.179138984710037E-005
 -1.178937388731203E-005
 -1.178745914891086E-005
 -1.178561797733948E-005
 -1.178382681019525E-005
 -1.182818550632735E-005
 -1.182340006430869E-005
 -1.181919281455355E-005
 -1.181549507633365E-005
 -1.181224147106731E-005
 -1.180937025075674E-005
 -1.180682356206181E-005
 -1.180454764638765E-005
 -1.180249297601824E-005
 -1.180061433004312E-005
 -1.179887081999634E-005
 -1.179722588088793E-005
 -1.179564724620800E-005
 -1.179410692558340E-005
 -1.179258120083131E-005
 -1.183031312500953E-005
 -1.182620762623195E-005
 -1.182267122558779E-005
 -1.181962880341170E-005
 -1.181700937380335E-005
 -1.181474646342951E-005
 -1.181277838244894E-005
 -1.181104838034468E-005
 -1.180950468899803E-005
 -1.180810046984198E-005
 -1.180679369397913E-005
 -1.180554699260074E-005
 -1.180432751738180E-005
 -1.180310684818694E-005
 -1.180186097874674E-005
 -1.183236103274353E-005
 -1.182900595243219E-005
 -1.182620799264690E-005
 -1.182388499070151E-005
 -1.182195987170803E-005
 -1.182036108987792E-005
 -1.181902291042251E-005
 -1.181788550970780E-005
 -1.181689489787717E-005
 -1.181600269703574E-005
 -1.181516582953093E-005
 -1.181434618224756E-005
 -1.181351031353750E-005
 -1.181262926256618E-005
 -1.181167850946378E-005
 -1.183428706031855E-005
 -1.183176256691157E-005
 -1.182977936957551E-005
 -1.182824754864881E-005
 -1.182708339118225E-005
 -1.182620993347216E-005
 -1.182555726751685E-005
 -1.182506256555059E-005
 -1.182466983092860E-005
 -1.182432943558504E-005
 -1.182399753758418E-005
 -1.182363548517811E-005
 -1.182320930881420E-005
 -1.182268938784550E-005
 -1.182205036057321E-005
 -1.183604993294641E-005
 -1.183444694020721E-005
 -1.183336444790236E-005
 -1.183270389813765E-005
 -1.183237428551447E-005
 -1.183229288258892E-005
 -1.183238559885828E-005
 -1.183258689337403E-005
 -1.183283926446794E-005
 -1.183309242673599E-005
 -1.183330233335847E-005
 -1.183343020886869E-005
 -1.183344173827368E-005
 -1.183330652906663E-005
 -1.183299793591463E-005
 -1.183761044820484E-005
 -1.183703190086941E-005
 -1.183694676669221E-005
 -1.183724668073802E-005
 -1.183783250962296E-005
 -1.183861541125092E-005
 -1.183951729061494E-005
 -1.184047052918740E-005
 -1.184141705582654E-005
 -1.184230696788853E-005
 -1.184309696873443E-005
 -1.184374887242611E-005
 -1.184422837339418E-005
 -1.184450422410603E-005
 -1.184454792736567E-005
 -1.183893278358273E-005
 -1.183949533716333E-005
 -1.184051634737160E-005
 -1.184187595909331E-005
 -1.184346576047888E-005
 -1.184519043930016E-005
 -1.184696838864071E-005
 -1.184873110116459E-005
 -1.185042153930632E-005
 -1.185199188361082E-005
 -1.185340110632878E-005
 -1.185461273926310E-005
 -1.185559308339273E-005
 -1.185631000959751E-005
 -1.185673245893839E-005
 -1.183998591759356E-005
 -1.184182231755320E-005
 -1.184407239135829E-005
 -1.184660218614254E-005
 -1.184929232881534E-005
 -1.185204071295630E-005
 -1.185476327472415E-005
 -1.185739271786562E-005
 -1.185987567318285E-005
 -1.186216906904499E-005
 -1.186423644796493E-005
 -1.186604474350897E-005
 -1.186756178266304E-005
 -1.186875461847358E-005
 -1.186958876188452E-005
 -1.184074515460026E-005
 -1.184400787826580E-005
 -1.184762706891963E-005
 -1.185145041422881E-005
 -1.185534504323968E-005
 -1.185920192124544E-005
 -1.186293664471160E-005
 -1.186648675294679E-005
 -1.186980676051794E-005
 -1.187286237733587E-005
 -1.187562506268913E-005
 -1.187806754310064E-005
 -1.188016049887796E-005
 -1.188187036005890E-005
 -1.188315817285525E-005
 -1.184119377930021E-005
 -1.184606098170283E-005
 -1.185121120087433E-005
 -1.185646655316353E-005
 -1.186167687683035E-005
 -1.186672679261307E-005
 -1.187153576170445E-005
 -1.187605233600795E-005
 -1.188024547152441E-005
 -1.188409553941229E-005
 -1.188758657333601E-005
 -1.189070034391518E-005
 -1.189341219734136E-005
 -1.189568834155144E-005
 -1.189748417774306E-005
 -1.184132498599380E-005
 -1.184801071243332E-005
 -1.185488339931327E-005
 -1.186172706801215E-005
 -1.186836899221465E-005
 -1.187469031261539E-005
 -1.188062274355791E-005
 -1.188613618400358E-005
 -1.189122379741048E-005
 -1.189588872464155E-005
 -1.190013377673329E-005
 -1.190395399841153E-005
 -1.190733185136087E-005
 -1.191023401130287E-005
 -1.191260910711398E-005
 -1.184114450482457E-005
 -1.184991716168393E-005
 -1.185874585287033E-005
 -1.186735447245240E-005
 -1.187554200290114E-005
 -1.188319566633848E-005
 -1.189027613842514E-005
 -1.189679117868239E-005
 -1.190277154028813E-005
 -1.190825340999015E-005
 -1.191326614425608E-005
 -1.191782374166150E-005
 -1.192191887974575E-005
 -1.192552022910878E-005
 -1.192856877566559E-005
 -1.184067540705267E-005
 -1.185189292731185E-005
 -1.186297371871088E-005
 -1.187354217522473E-005
 -1.188337013000954E-005
 -1.189237892911148E-005
 -1.190059004264350E-005
 -1.190807297978567E-005
 -1.191491134395037E-005
 -1.192118542821075E-005
 -1.192696093829572E-005
 -1.193227816793915E-005
 -1.193714588447788E-005
 -1.194153589170339E-005
 -1.194538388619249E-005
 -1.183996858196101E-005
 -1.185415322215947E-005
 -1.186787286043191E-005
 -1.188059174527202E-005
 -1.189209323238943E-005
 -1.190240653163659E-005
 -1.191166833866567E-005
 -1.192003424037439E-005
 -1.192765312715775E-005
 -1.193465800408833E-005
 -1.194116086675559E-005
 -1.194724433803434E-005
 -1.195293850464542E-005
 -1.195822892478079E-005
 -1.196304340831102E-005
 -1.183914662545628E-005
 -1.185714546960370E-005
 -1.187399736925865E-005
 -1.188895192662600E-005
 -1.190200338107600E-005
 -1.191345884070334E-005
 -1.192361191070970E-005
 -1.193271697531552E-005
 -1.194099018517171E-005
 -1.194861842633216E-005
 -1.195576631448192E-005
 -1.196257604077415E-005
 -1.196915298170293E-005
 -1.197546113782029E-005
 -1.198147886924448E-005
 -1.183855928600038E-005
 -1.186199644673613E-005
 -1.188232491613679E-005
 -1.189914354873355E-005
 -1.191339316311544E-005
 -1.192569557513938E-005
 -1.193650030751903E-005
 -1.194614491161235E-005
 -1.195489943803231E-005
 -1.196299450755695E-005
 -1.197064188906017E-005
 -1.197805149001778E-005
 -1.198544011950750E-005
 -1.199301981811515E-005
 -1.200042829142190E-005
 -1.184074402462892E-005
 -1.187152497303079E-005
 -1.189377652584088E-005
 -1.191159233801789E-005
 -1.192646419708657E-005
 -1.193921503972916E-005
 -1.195037340282390E-005
 -1.196031839796438E-005
 -1.196934672485703E-005
 -1.197771171272234E-005
 -1.198565217971811E-005
 -1.199342206414749E-005
 -1.200133260487722E-005
 -1.200984182648454E-005
 -1.201961381080962E-005
SCALARS poroP double 
LOOKUP_TABLE default
  0.000000000000000E+000
  0.000000000000000E+000
  0.000000000000000E+000
  0.000000000000000E+000
  0.000000000000000E+000
  0.000000000000000E+000
  0.000000000000000E+000
  0.000000000000000E+000
  0.000000000000000E+000
  0.000000000000000E+000
  0.000000000000000E+000
  0.000000000000000E+000
  0.000000000000000E+000
  0.000000000000000E+000
  0.000000000000000E+000
  0.000000000000000E+000
  0.000000000000000E+000
  0.000000000000000E+000
  0.000000000000000E+000
  0.000000000000000E+000
  0.000000000000000E+000
  0.000000000000000E+000
  0.000000000000000E+000
  0.000000000000000E+000
  0.000000000000000E+000
  0.000000000000000E+000
  0.000000000000000E+000
  0.000000000000000E+000
  0.000000000000000E+000
  0.000000000000000E+000
  0.000000000000000E+000
  0.000000000000000E+000
  0.000000000000000E+000
  0.000000000000000E+000
  0.000000000000000E+000
  0.000000000000000E+000
  0.000000000000000E+000
  0.000000000000000E+000
  0.000000000000000E+000
  0.000000000000000E+000
  0.000000000000000E+000
  0.000000000000000E+000
  0.000000000000000E+000
  0.000000000000000E+000
  0.000000000000000E+000
  0.000000000000000E+000
  0.000000000000000E+000
  0.000000000000000E+000
  0.000000000000000E+000
  0.000000000000000E+000
  0.000000000000000E+000
  0.000000000000000E+000
  0.000000000000000E+000
  0.000000000000000E+000
  0.000000000000000E+000
  0.000000000000000E+000
  0.000000000000000E+000
  0.000000000000000E+000
  0.000000000000000E+000
  0.000000000000000E+000
  0.000000000000000E+000
  0.000000000000000E+000
  0.000000000000000E+000
  0.000000000000000E+000
  0.000000000000000E+000
  0.000000000000000E+000
  0.000000000000000E+000
  0.000000000000000E+000
  0.000000000000000E+000
  0.000000000000000E+000
  0.000000000000000E+000
  0.000000000000000E+000
  0.000000000000000E+000
  0.000000000000000E+000
  0.000000000000000E+000
  0.000000000000000E+000
  0.000000000000000E+000
  0.000000000000000E+000
  0.000000000000000E+000
  0.000000000000000E+000
  0.000000000000000E+000
  0.000000000000000E+000
  0.000000000000000E+000
  0.000000000000000E+000
  0.000000000000000E+000
  0.000000000000000E+000
  0.000000000000000E+000
  0.000000000000000E+000
  0.000000000000000E+000
  0.000000000000000E+000
  0.000000000000000E+000
  0.000000000000000E+000
  0.000000000000000E+000
  0.000000000000000E+000
  0.000000000000000E+000
  0.000000000000000E+000
  0.000000000000000E+000
  0.000000000000000E+000
  0.000000000000000E+000
  0.000000000000000E+000
  0.000000000000000E+000
  0.000000000000000E+000
  0.000000000000000E+000
  0.000000000000000E+000
  0.000000000000000E+000
  0.000000000000000E+000
  0.000000000000000E+000
  0.000000000000000E+000
  0.000000000000000E+000
  0.000000000000000E+000
  0.000000000000000E+000
  0.000000000000000E+000
  0.000000000000000E+000
  0.000000000000000E+000
  0.000000000000000E+000
  0.000000000000000E+000
  0.000000000000000E+000
  0.000000000000000E+000
  0.000000000000000E+000
  0.000000000000000E+000
  0.000000000000000E+000
  0.000000000000000E+000
  0.000000000000000E+000
  0.000000000000000E+000
  0.000000000000000E+000
  0.000000000000000E+000
  0.000000000000000E+000
  0.000000000000000E+000
  0.000000000000000E+000
  0.000000000000000E+000
  0.000000000000000E+000
  0.000000000000000E+000
  0.000000000000000E+000
  0.000000000000000E+000
  0.000000000000000E+000
  0.000000000000000E+000
  0.000000000000000E+000
  0.000000000000000E+000
  0.000000000000000E+000
  0.000000000000000E+000
  0.000000000000000E+000
  0.000000000000000E+000
  0.000000000000000E+000
  0.000000000000000E+000
  0.000000000000000E+000
  0.000000000000000E+000
  0.000000000000000E+000
  0.000000000000000E+000
  0.000000000000000E+000
  0.000000000000000E+000
  0.000000000000000E+000
  0.000000000000000E+000
  0.000000000000000E+000
  0.000000000000000E+000
  0.000000000000000E+000
  0.000000000000000E+000
  0.000000000000000E+000
  0.000000000000000E+000
  0.000000000000000E+000
  0.000000000000000E+000
  0.000000000000000E+000
  0.000000000000000E+000
  0.000000000000000E+000
  0.000000000000000E+000
  0.000000000000000E+000
  0.000000000000000E+000
  0.000000000000000E+000
  0.000000000000000E+000
  0.000000000000000E+000
  0.000000000000000E+000
  0.000000000000000E+000
  0.000000000000000E+000
  0.000000000000000E+000
  0.000000000000000E+000
  0.000000000000000E+000
  0.000000000000000E+000
  0.000000000000000E+000
  0.000000000000000E+000
  0.000000000000000E+000
  0.000000000000000E+000
  0.000000000000000E+000
  0.000000000000000E+000
  0.000000000000000E+000
  0.000000000000000E+000
  0.000000000000000E+000
  0.000000000000000E+000
  0.000000000000000E+000
  0.000000000000000E+000
  0.000000000000000E+000
  0.000000000000000E+000
  0.000000000000000E+000
  0.000000000000000E+000
  0.000000000000000E+000
  0.000000000000000E+000
  0.000000000000000E+000
  0.000000000000000E+000
  0.000000000000000E+000
  0.000000000000000E+000
  0.000000000000000E+000
  0.000000000000000E+000
  0.000000000000000E+000
  0.000000000000000E+000
  0.000000000000000E+000
  0.000000000000000E+000
  0.000000000000000E+000
  0.000000000000000E+000
  0.000000000000000E+000
  0.000000000000000E+000
  0.000000000000000E+000
  0.000000000000000E+000
  0.000000000000000E+000
  0.000000000000000E+000
  0.000000000000000E+000
  0.000000000000000E+000
  0.000000000000000E+000
  0.000000000000000E+000
  0.000000000000000E+000
  0.000000000000000E+000
  0.000000000000000E+000
  0.000000000000000E+000
  0.000000000000000E+000
  0.000000000000000E+000
  0.000000000000000E+000
  0.000000000000000E+000
  0.000000000000000E+000
  0.000000000000000E+000
  0.000000000000000E+000
  0.000000000000000E+000
  0.000000000000000E+000
  0.000000000000000E+000
  0.000000000000000E+000
  0.000000000000000E+000
  0.000000000000000E+000
  0.000000000000000E+000
  0.000000000000000E+000
  0.000000000000000E+000
  0.000000000000000E+000
  0.000000000000000E+000
  0.000000000000000E+000
  0.000000000000000E+000
  0.000000000000000E+000
  0.000000000000000E+000
  0.000000000000000E+000
  0.000000000000000E+000
  0.000000000000000E+000
  0.000000000000000E+000
  0.000000000000000E+000
  0.000000000000000E+000
  0.000000000000000E+000
  0.000000000000000E+000
  0.000000000000000E+000
  0.000000000000000E+000
  0.000000000000000E+000
  0.000000000000000E+000
  0.000000000000000E+000
  0.000000000000000E+000
  0.000000000000000E+000
  0.000000000000000E+000
  0.000000000000000E+000
  0.000000000000000E+000
  0.000000000000000E+000
  0.000000000000000E+000
  0.000000000000000E+000
  0.000000000000000E+000
  0.000000000000000E+000
  0.000000000000000E+000
  0.000000000000000E+000
  0.000000000000000E+000
  0.000000000000000E+000
  0.000000000000000E+000
  0.000000000000000E+000
  0.000000000000000E+000
  0.000000000000000E+000
  0.000000000000000E+000
  0.000000000000000E+000
  0.000000000000000E+000
  0.000000000000000E+000
  0.000000000000000E+000
  0.000000000000000E+000
  0.000000000000000E+000
  0.000000000000000E+000
  0.000000000000000E+000
  0.000000000000000E+000
  0.000000000000000E+000
  0.000000000000000E+000
  0.000000000000000E+000
  0.000000000000000E+000
  0.000000000000000E+000
  0.000000000000000E+000
  0.000000000000000E+000
  0.000000000000000E+000
  0.000000000000000E+000
  0.000000000000000E+000
  0.000000000000000E+000
  0.000000000000000E+000
  0.000000000000000E+000
  0.000000000000000E+000
  0.000000000000000E+000
  0.000000000000000E+000
  0.000000000000000E+000
  0.000000000000000E+000
  0.000000000000000E+000
  0.000000000000000E+000
  0.000000000000000E+000
  0.000000000000000E+000
  0.000000000000000E+000
  0.000000000000000E+000
  0.000000000000000E+000
  0.000000000000000E+000
  0.000000000000000E+000
  0.000000000000000E+000
  0.000000000000000E+000
  0.000000000000000E+000
  0.000000000000000E+000
  0.000000000000000E+000
  0.000000000000000E+000
  0.000000000000000E+000
  0.000000000000000E+000
  0.000000000000000E+000
  0.000000000000000E+000
  0.000000000000000E+000
  0.000000000000000E+000
  0.000000000000000E+000
  0.000000000000000E+000
  0.000000000000000E+000
  0.000000000000000E+000
  0.000000000000000E+000
  0.000000000000000E+000
  0.000000000000000E+000
  0.000000000000000E+000
  0.000000000000000E+000
  0.000000000000000E+000
  0.000000000000000E+000
  0.000000000000000E+000
  0.000000000000000E+000
  0.000000000000000E+000
  0.000000000000000E+000
  0.000000000000000E+000
  0.000000000000000E+000
  0.000000000000000E+000
  0.000000000000000E+000
  0.000000000000000E+000
  0.000000000000000E+000
  0.000000000000000E+000
  0.000000000000000E+000
  0.000000000000000E+000
  0.000000000000000E+000
  0.000000000000000E+000
  0.000000000000000E+000
  0.000000000000000E+000
  0.000000000000000E+000
  0.000000000000000E+000
  0.000000000000000E+000
  0.000000000000000E+000
  0.000000000000000E+000
  0.000000000000000E+000
  0.000000000000000E+000
  0.000000000000000E+000
  0.000000000000000E+000
  0.000000000000000E+000
  0.000000000000000E+000
  0.000000000000000E+000
  0.000000000000000E+000
  0.000000000000000E+000
  0.000000000000000E+000
  0.000000000000000E+000
  0.000000000000000E+000
  0.000000000000000E+000
  0.000000000000000E+000
  0.000000000000000E+000
  0.000000000000000E+000
  0.000000000000000E+000
  0.000000000000000E+000
  0.000000000000000E+000
  0.000000000000000E+000
  0.000000000000000E+000
  0.000000000000000E+000
  0.000000000000000E+000
  0.000000000000000E+000
  0.000000000000000E+000
  0.000000000000000E+000
  0.000000000000000E+000
  0.000000000000000E+000
  0.000000000000000E+000
  0.000000000000000E+000
  0.000000000000000E+000
  0.000000000000000E+000
  0.000000000000000E+000
  0.000000000000000E+000
  0.000000000000000E+000
  0.000000000000000E+000
  0.000000000000000E+000
  0.000000000000000E+000
  0.000000000000000E+000
  0.000000000000000E+000
  0.000000000000000E+000
  0.000000000000000E+000
  0.000000000000000E+000
  0.000000000000000E+000
  0.000000000000000E+000
  0.000000000000000E+000
  0.000000000000000E+000
  0.000000000000000E+000
  0.000000000000000E+000
  0.000000000000000E+000
  0.000000000000000E+000
  0.000000000000000E+000
  0.000000000000000E+000
  0.000000000000000E+000
  0.000000000000000E+000
  0.000000000000000E+000
  0.000000000000000E+000
  0.000000000000000E+000
  0.000000000000000E+000
  0.000000000000000E+000
  0.000000000000000E+000
  0.000000000000000E+000
  0.000000000000000E+000
  0.000000000000000E+000
  0.000000000000000E+000
  0.000000000000000E+000
  0.000000000000000E+000
  0.000000000000000E+000
  0.000000000000000E+000
  0.000000000000000E+000
  0.000000000000000E+000
  0.000000000000000E+000
  0.000000000000000E+000
  0.000000000000000E+000
  0.000000000000000E+000
  0.000000000000000E+000
  0.000000000000000E+000
  0.000000000000000E+000
  0.000000000000000E+000
  0.000000000000000E+000
  0.000000000000000E+000
  0.000000000000000E+000
  0.000000000000000E+000
  0.000000000000000E+000
  0.000000000000000E+000
  0.000000000000000E+000
  0.000000000000000E+000
  0.000000000000000E+000
  0.000000000000000E+000
  0.000000000000000E+000
  0.000000000000000E+000
  0.000000000000000E+000
  0.000000000000000E+000
  0.000000000000000E+000
  0.000000000000000E+000
SCALARS elementIsPlast double 
LOOKUP_TABLE default
  0.000000000000000E+000
  0.000000000000000E+000
  0.000000000000000E+000
  0.000000000000000E+000
  0.000000000000000E+000
  0.000000000000000E+000
  0.000000000000000E+000
  0.000000000000000E+000
  0.000000000000000E+000
  0.000000000000000E+000
  0.000000000000000E+000
  0.000000000000000E+000
  0.000000000000000E+000
  0.000000000000000E+000
  0.000000000000000E+000
  0.000000000000000E+000
  0.000000000000000E+000
  0.000000000000000E+000
  0.000000000000000E+000
  0.000000000000000E+000
  0.000000000000000E+000
  0.000000000000000E+000
  0.000000000000000E+000
  0.000000000000000E+000
  0.000000000000000E+000
  0.000000000000000E+000
  0.000000000000000E+000
  0.000000000000000E+000
  0.000000000000000E+000
  0.000000000000000E+000
  0.000000000000000E+000
  0.000000000000000E+000
  0.000000000000000E+000
  0.000000000000000E+000
  0.000000000000000E+000
  0.000000000000000E+000
  0.000000000000000E+000
  0.000000000000000E+000
  0.000000000000000E+000
  0.000000000000000E+000
  0.000000000000000E+000
  0.000000000000000E+000
  0.000000000000000E+000
  0.000000000000000E+000
  0.000000000000000E+000
  0.000000000000000E+000
  0.000000000000000E+000
  0.000000000000000E+000
  0.000000000000000E+000
  0.000000000000000E+000
  0.000000000000000E+000
  0.000000000000000E+000
  0.000000000000000E+000
  0.000000000000000E+000
  0.000000000000000E+000
  0.000000000000000E+000
  0.000000000000000E+000
  0.000000000000000E+000
  0.000000000000000E+000
  0.000000000000000E+000
  0.000000000000000E+000
  0.000000000000000E+000
  0.000000000000000E+000
  0.000000000000000E+000
  0.000000000000000E+000
  0.000000000000000E+000
  0.000000000000000E+000
  0.000000000000000E+000
  0.000000000000000E+000
  0.000000000000000E+000
  0.000000000000000E+000
  0.000000000000000E+000
  0.000000000000000E+000
  0.000000000000000E+000
  0.000000000000000E+000
  0.000000000000000E+000
  0.000000000000000E+000
  0.000000000000000E+000
  0.000000000000000E+000
  0.000000000000000E+000
  0.000000000000000E+000
  0.000000000000000E+000
  0.000000000000000E+000
  0.000000000000000E+000
  0.000000000000000E+000
  0.000000000000000E+000
  0.000000000000000E+000
  0.000000000000000E+000
  0.000000000000000E+000
  0.000000000000000E+000
  0.000000000000000E+000
  0.000000000000000E+000
  0.000000000000000E+000
  0.000000000000000E+000
  0.000000000000000E+000
  0.000000000000000E+000
  0.000000000000000E+000
  0.000000000000000E+000
  0.000000000000000E+000
  0.000000000000000E+000
  0.000000000000000E+000
  0.000000000000000E+000
  0.000000000000000E+000
  0.000000000000000E+000
  0.000000000000000E+000
  0.000000000000000E+000
  0.000000000000000E+000
  0.000000000000000E+000
  0.000000000000000E+000
  0.000000000000000E+000
  0.000000000000000E+000
  0.000000000000000E+000
  0.000000000000000E+000
  0.000000000000000E+000
  0.000000000000000E+000
  0.000000000000000E+000
  0.000000000000000E+000
  0.000000000000000E+000
  0.000000000000000E+000
  0.000000000000000E+000
  0.000000000000000E+000
  0.000000000000000E+000
  0.000000000000000E+000
  0.000000000000000E+000
  0.000000000000000E+000
  0.000000000000000E+000
  0.000000000000000E+000
  0.000000000000000E+000
  0.000000000000000E+000
  0.000000000000000E+000
  0.000000000000000E+000
  0.000000000000000E+000
  0.000000000000000E+000
  0.000000000000000E+000
  0.000000000000000E+000
  0.000000000000000E+000
  0.000000000000000E+000
  0.000000000000000E+000
  0.000000000000000E+000
  0.000000000000000E+000
  0.000000000000000E+000
  0.000000000000000E+000
  0.000000000000000E+000
  0.000000000000000E+000
  0.000000000000000E+000
  0.000000000000000E+000
  0.000000000000000E+000
  0.000000000000000E+000
  0.000000000000000E+000
  0.000000000000000E+000
  0.000000000000000E+000
  0.000000000000000E+000
  0.000000000000000E+000
  0.000000000000000E+000
  0.000000000000000E+000
  0.000000000000000E+000
  0.000000000000000E+000
  0.000000000000000E+000
  0.000000000000000E+000
  0.000000000000000E+000
  0.000000000000000E+000
  0.000000000000000E+000
  0.000000000000000E+000
  0.000000000000000E+000
  0.000000000000000E+000
  0.000000000000000E+000
  0.000000000000000E+000
  0.000000000000000E+000
  0.000000000000000E+000
  0.000000000000000E+000
  0.000000000000000E+000
  0.000000000000000E+000
  0.000000000000000E+000
  0.000000000000000E+000
  0.000000000000000E+000
  0.000000000000000E+000
  0.000000000000000E+000
  0.000000000000000E+000
  0.000000000000000E+000
  0.000000000000000E+000
  0.000000000000000E+000
  0.000000000000000E+000
  0.000000000000000E+000
  0.000000000000000E+000
  0.000000000000000E+000
  0.000000000000000E+000
  0.000000000000000E+000
  0.000000000000000E+000
  0.000000000000000E+000
  0.000000000000000E+000
  0.000000000000000E+000
  0.000000000000000E+000
  0.000000000000000E+000
  0.000000000000000E+000
  0.000000000000000E+000
  0.000000000000000E+000
  0.000000000000000E+000
  0.000000000000000E+000
  0.000000000000000E+000
  0.000000000000000E+000
  0.000000000000000E+000
  0.000000000000000E+000
  0.000000000000000E+000
  0.000000000000000E+000
  0.000000000000000E+000
  0.000000000000000E+000
  0.000000000000000E+000
  0.000000000000000E+000
  0.000000000000000E+000
  0.000000000000000E+000
  0.000000000000000E+000
  0.000000000000000E+000
  0.000000000000000E+000
  0.000000000000000E+000
  0.000000000000000E+000
  0.000000000000000E+000
  0.000000000000000E+000
  0.000000000000000E+000
  0.000000000000000E+000
  0.000000000000000E+000
  0.000000000000000E+000
  0.000000000000000E+000
  0.000000000000000E+000
  0.000000000000000E+000
  0.000000000000000E+000
  0.000000000000000E+000
  0.000000000000000E+000
  0.000000000000000E+000
  0.000000000000000E+000
  0.000000000000000E+000
  0.000000000000000E+000
  0.000000000000000E+000
  0.000000000000000E+000
  0.000000000000000E+000
  0.000000000000000E+000
  0.000000000000000E+000
  0.000000000000000E+000
  0.000000000000000E+000
  0.000000000000000E+000
  0.000000000000000E+000
  0.000000000000000E+000
  0.000000000000000E+000
  0.000000000000000E+000
  0.000000000000000E+000
  0.000000000000000E+000
  0.000000000000000E+000
  0.000000000000000E+000
  0.000000000000000E+000
  0.000000000000000E+000
  0.000000000000000E+000
  0.000000000000000E+000
  0.000000000000000E+000
  0.000000000000000E+000
  0.000000000000000E+000
  0.000000000000000E+000
  0.000000000000000E+000
  0.000000000000000E+000
  0.000000000000000E+000
  0.000000000000000E+000
  0.000000000000000E+000
  0.000000000000000E+000
  0.000000000000000E+000
  0.000000000000000E+000
  0.000000000000000E+000
  0.000000000000000E+000
  0.000000000000000E+000
  0.000000000000000E+000
  0.000000000000000E+000
  0.000000000000000E+000
  0.000000000000000E+000
  0.000000000000000E+000
  0.000000000000000E+000
  0.000000000000000E+000
  0.000000000000000E+000
  0.000000000000000E+000
  0.000000000000000E+000
  0.000000000000000E+000
  0.000000000000000E+000
  0.000000000000000E+000
  0.000000000000000E+000
  0.000000000000000E+000
  0.000000000000000E+000
  0.000000000000000E+000
  0.000000000000000E+000
  0.000000000000000E+000
  0.000000000000000E+000
  0.000000000000000E+000
  0.000000000000000E+000
  0.000000000000000E+000
  0.000000000000000E+000
  0.000000000000000E+000
  0.000000000000000E+000
  0.000000000000000E+000
  0.000000000000000E+000
  0.000000000000000E+000
  0.000000000000000E+000
  0.000000000000000E+000
  0.000000000000000E+000
  0.000000000000000E+000
  0.000000000000000E+000
  0.000000000000000E+000
  0.000000000000000E+000
  0.000000000000000E+000
  0.000000000000000E+000
  0.000000000000000E+000
  0.000000000000000E+000
  0.000000000000000E+000
  0.000000000000000E+000
  0.000000000000000E+000
  0.000000000000000E+000
  0.000000000000000E+000
  0.000000000000000E+000
  0.000000000000000E+000
  0.000000000000000E+000
  0.000000000000000E+000
  0.000000000000000E+000
  0.000000000000000E+000
  0.000000000000000E+000
  0.000000000000000E+000
  0.000000000000000E+000
  0.000000000000000E+000
  0.000000000000000E+000
  0.000000000000000E+000
  0.000000000000000E+000
  0.000000000000000E+000
  0.000000000000000E+000
  0.000000000000000E+000
  0.000000000000000E+000
  0.000000000000000E+000
  0.000000000000000E+000
  0.000000000000000E+000
  0.000000000000000E+000
  0.000000000000000E+000
  0.000000000000000E+000
  0.000000000000000E+000
  0.000000000000000E+000
  0.000000000000000E+000
  0.000000000000000E+000
  0.000000000000000E+000
  0.000000000000000E+000
  0.000000000000000E+000
  0.000000000000000E+000
  0.000000000000000E+000
  0.000000000000000E+000
  0.000000000000000E+000
  0.000000000000000E+000
  0.000000000000000E+000
  0.000000000000000E+000
  0.000000000000000E+000
  0.000000000000000E+000
  0.000000000000000E+000
  0.000000000000000E+000
  0.000000000000000E+000
  0.000000000000000E+000
  0.000000000000000E+000
  0.000000000000000E+000
  0.000000000000000E+000
  0.000000000000000E+000
  0.000000000000000E+000
  0.000000000000000E+000
  0.000000000000000E+000
  0.000000000000000E+000
  0.000000000000000E+000
  0.000000000000000E+000
  0.000000000000000E+000
  0.000000000000000E+000
  0.000000000000000E+000
  0.000000000000000E+000
  0.000000000000000E+000
  0.000000000000000E+000
  0.000000000000000E+000
  0.000000000000000E+000
  0.000000000000000E+000
  0.000000000000000E+000
  0.000000000000000E+000
  0.000000000000000E+000
  0.000000000000000E+000
  0.000000000000000E+000
  0.000000000000000E+000
  0.000000000000000E+000
  0.000000000000000E+000
  0.000000000000000E+000
  0.000000000000000E+000
  0.000000000000000E+000
  0.000000000000000E+000
  0.000000000000000E+000
  0.000000000000000E+000
  0.000000000000000E+000
  0.000000000000000E+000
  0.000000000000000E+000
  0.000000000000000E+000
  0.000000000000000E+000
  0.000000000000000E+000
  0.000000000000000E+000
  0.000000000000000E+000
  0.000000000000000E+000
  0.000000000000000E+000
  0.000000000000000E+000
  0.000000000000000E+000
  0.000000000000000E+000
  0.000000000000000E+000
  0.000000000000000E+000
  0.000000000000000E+000
  0.000000000000000E+000
  0.000000000000000E+000
  0.000000000000000E+000
  0.000000000000000E+000
  0.000000000000000E+000
  0.000000000000000E+000
  0.000000000000000E+000
  0.000000000000000E+000
  0.000000000000000E+000
  0.000000000000000E+000
  0.000000000000000E+000
  0.000000000000000E+000
  0.000000000000000E+000
  0.000000000000000E+000
  0.000000000000000E+000
  0.000000000000000E+000
  0.000000000000000E+000
  0.000000000000000E+000
  0.000000000000000E+000
  0.000000000000000E+000
  0.000000000000000E+000
  0.000000000000000E+000
  0.000000000000000E+000
  0.000000000000000E+000
  0.000000000000000E+000
  0.000000000000000E+000
  0.000000000000000E+000
  0.000000000000000E+000
  0.000000000000000E+000
  0.000000000000000E+000
  0.000000000000000E+000
  0.000000000000000E+000
  0.000000000000000E+000
  0.000000000000000E+000
  0.000000000000000E+000
  0.000000000000000E+000
  0.000000000000000E+000
  0.000000000000000E+000
  0.000000000000000E+000
  0.000000000000000E+000
  0.000000000000000E+000
  0.000000000000000E+000
  0.000000000000000E+000
  0.000000000000000E+000
  0.000000000000000E+000
  0.000000000000000E+000
  0.000000000000000E+000
SCALARS poroL double 
LOOKUP_TABLE default
  0.156139304380492     
  0.156123873684028     
  0.156112126210716     
  0.156102426968805     
  0.156094137016423     
  0.156086884485197     
  0.156080424665472     
  0.156074578268490     
  0.156069201437839     
  0.156064167009615     
  0.156059348990019     
  0.156054604015842     
  0.156049736874162     
  0.156044428649335     
  0.156037750895998     
  0.156125535846645     
  0.156113206283085     
  0.156102462670032     
  0.156093303728906     
  0.156085343264274     
  0.156078316631462     
  0.156072025527882     
  0.156066315955091     
  0.156061060362771     
  0.156056145176964     
  0.156051460250405     
  0.156046887269561     
  0.156042289697469     
  0.156037475049872     
  0.156032641467078     
  0.156110379703429     
  0.156100486242858     
  0.156091287930474     
  0.156083016201802     
  0.156075639795751     
  0.156069027590415     
  0.156063053159560     
  0.156057603554252     
  0.156052579032087     
  0.156047889378089     
  0.156043450359858     
  0.156039183044668     
  0.156035017088556     
  0.156030965543029     
  0.156027139985405     
  0.156094977046801     
  0.156086871369542     
  0.156079083319704     
  0.156071827435903     
  0.156065175088012     
  0.156059105870582     
  0.156053559861153     
  0.156048468401643     
  0.156043763720766     
  0.156039382802207     
  0.156035270088606     
  0.156031382328829     
  0.156027706291115     
  0.156024275591138     
  0.156021195070167     
  0.156079576045837     
  0.156072864205009     
  0.156066281185744     
  0.156060000916030     
  0.156054116940206     
  0.156048657791561     
  0.156043611674795     
  0.156038947081424     
  0.156034625881911     
  0.156030610759300     
  0.156026871045584     
  0.156023390354062     
  0.156020175645748     
  0.156017268217987     
  0.156014747508100     
  0.156064273340076     
  0.156058692769434     
  0.156053139100665     
  0.156047750566199     
  0.156042618118679     
  0.156037789156499     
  0.156033278627923     
  0.156029081485381     
  0.156025183021993     
  0.156021566728437     
  0.156018220818672     
  0.156015144438608     
  0.156012353970199     
  0.156009887622612     
  0.156007806735619     
  0.156049110616645     
  0.156044475216007     
  0.156039809532655     
  0.156035224548342     
  0.156030801725358     
  0.156026593315315     
  0.156022627432557     
  0.156018915267650     
  0.156015458380090     
  0.156012255167227     
  0.156009306464319     
  0.156006620469565     
  0.156004216747016     
  0.156002128697111     
  0.156000403440673     
  0.156034105568581     
  0.156030275903936     
  0.156026384888082     
  0.156022522588673     
  0.156018759682151     
  0.156015146902320     
  0.156011717450038     
  0.156008491215719     
  0.156005479669344     
  0.156002690652411     
  0.156000132699466     
  0.155997818674947     
  0.155995768471146     
  0.155994010353120     
  0.155992580570071     
  0.156019261765699     
  0.156016129544793     
  0.156012921579572     
  0.156009711284696     
  0.156006558789304     
  0.156003510333591     
  0.156000599482431     
  0.155997849654905     
  0.155995277342999     
  0.155992895479419     
  0.155990716564404     
  0.155988755267272     
  0.155987030244366     
  0.155985564927062     
  0.155984387084364     
  0.156004573135275     
  0.156002052567243     
  0.155999453275274     
  0.155996834733107     
  0.155994247047522     
  0.155991730503114     
  0.155989316222435     
  0.155987027720303     
  0.155984883007522     
  0.155982896886789     
  0.155981083130801     
  0.155979456287200     
  0.155978032898524     
  0.155976831965828     
  0.155975874549277     
  0.155990026335834     
  0.155988049213687     
  0.155985998547706     
  0.155983921550804     
  0.155981858756903     
  0.155979843725486     
  0.155977903429882     
  0.155976059231101     
  0.155974328244521     
  0.155972724870944     
  0.155971262269491     
  0.155969953576394     
  0.155968812707709     
  0.155967854625022     
  0.155967094994808     
  0.155975602318751     
  0.155974115170286     
  0.155972565592604     
  0.155970989554717     
  0.155969418326729     
  0.155967878305756     
  0.155966391257085     
  0.155964974926425     
  0.155963643914525     
  0.155962410671461     
  0.155961286460900     
  0.155960282155965     
  0.155959408751152     
  0.155958677505394     
  0.155958099668823     
  0.155961277547267     
  0.155960239976265     
  0.155959155348483     
  0.155958048988953     
  0.155956943092708     
  0.155955856630953     
  0.155954805500741     
  0.155953802898134     
  0.155952859854329     
  0.155951985849441     
  0.155951189409918     
  0.155950478599743     
  0.155949861329210     
  0.155949345425129     
  0.155948938430826     
  0.155947025068864     
  0.155946408795173     
  0.155945763719676     
  0.155945104862010     
  0.155944445446559     
  0.155943796858366     
  0.155943168726254     
  0.155942569124467     
  0.155942004862193     
  0.155941481815840     
  0.155941005252753     
  0.155940580096322     
  0.155940211089460     
  0.155939902824537     
  0.155939659621533     
  0.155932815521043     
  0.155932603842073     
  0.155932383289049     
  0.155932158746223     
  0.155931934517099     
  0.155931714312348     
  0.155931501277020     
  0.155931298054591     
  0.155931106878498     
  0.155930929677108     
  0.155930768175949     
  0.155930623981245     
  0.155930498630986     
  0.155930393603247     
  0.155930310275864     
  0.155918618104663     
  0.155918805624684     
  0.155919004744743     
  0.155919210263641     
  0.155919417577136     
  0.155919622692165     
  0.155919822201142     
  0.155920013218712     
  0.155920193290386     
  0.155920360287326     
  0.155920512303725     
  0.155920647573066     
  0.155920764417352     
  0.155920861239848     
  0.155920936567435     
  0.155904401541541     
  0.155904994092062     
  0.155905618161857     
  0.155906258409043     
  0.155906901303964     
  0.155907535175665     
  0.155908150130340     
  0.155908737850371     
  0.155909291304698     
  0.155909804415936     
  0.155910271735867     
  0.155910688179760     
  0.155911048862883     
  0.155911349071419     
  0.155911584386245     
  0.155890135027339     
  0.155891149755507     
  0.155892214240204     
  0.155893302823095     
  0.155894392994531     
  0.155895465490310     
  0.155896504143685     
  0.155897495512573     
  0.155898428342726     
  0.155899292952509     
  0.155900080633859     
  0.155900783159701     
  0.155901392474523     
  0.155901900624572     
  0.155902299959588     
  0.155875789189533     
  0.155877254838266     
  0.155878785587555     
  0.155880345117230     
  0.155881901827817     
  0.155883429018487     
  0.155884904647702     
  0.155886310720741     
  0.155887632413235     
  0.155888857074056     
  0.155889973257961     
  0.155890969927023     
  0.155891835937001     
  0.155892559893985     
  0.155893130429040     
  0.155861337061440     
  0.155863294518870     
  0.155865328149786     
  0.155867390363580     
  0.155869440275794     
  0.155871444008855     
  0.155873374305617     
  0.155875209554137     
  0.155876932417203     
  0.155878528296174     
  0.155879983852722     
  0.155881285785341     
  0.155882420023347     
  0.155883371459853     
  0.155884124293384     
  0.155846755088940     
  0.155849258362091     
  0.155851842929531     
  0.155854448901457     
  0.155857025791448     
  0.155859532978979     
  0.155861939050688     
  0.155864220242409     
  0.155866358328410     
  0.155868338316813     
  0.155870146262760     
  0.155871767455899     
  0.155873185194932     
  0.155874380321250     
  0.155875331618758     
  0.155832024204067     
  0.155835142096398     
  0.155838338219057     
  0.155841538685991     
  0.155844682949316     
  0.155847724412497     
  0.155850629216422     
  0.155853373701826     
  0.155855941178084     
  0.155858318541356     
  0.155860493134316     
  0.155862450133090     
  0.155864170720769     
  0.155865631294691     
  0.155866803903600     
  0.155817131045676     
  0.155820950033615     
  0.155824832736074     
  0.155828688533565     
  0.155832446279512     
  0.155836054863551     
  0.155839480796466     
  0.155842703971053     
  0.155845712750661     
  0.155848499155566     
  0.155851054521777     
  0.155853365847606     
  0.155855413082977     
  0.155857167776969     
  0.155858593465234     
  0.155802069523944     
  0.155806698717150     
  0.155811360370133     
  0.155815942831020     
  0.155820364102707     
  0.155824571544498     
  0.155828536779886     
  0.155832248449741     
  0.155835704884189     
  0.155838907602279     
  0.155841855685389     
  0.155844540829472     
  0.155846943323669     
  0.155849029567262     
  0.155850752182841     
  0.155786843200523     
  0.155792423052882     
  0.155797977879823     
  0.155803368604147     
  0.155808503665756     
  0.155813335291520     
  0.155817848338390     
  0.155822047774134     
  0.155825948286064     
  0.155829566383499     
  0.155832913840311     
  0.155835991457801     
  0.155838782732435     
  0.155841249243592     
  0.155843329341172     
  0.155771469786072     
  0.155778187743045     
  0.155784778230896     
  0.155791066222073     
  0.155796957513525     
  0.155802423285586     
  0.155807475284012     
  0.155812145086763     
  0.155816470936708     
  0.155820490267605     
  0.155824233838987     
  0.155827718069461     
  0.155830935931273     
  0.155833845913438     
  0.155836368199982     
  0.155755991057117     
  0.155764111588900     
  0.155771914833612     
  0.155779184821946     
  0.155785849603029     
  0.155791929564286     
  0.155797484858778     
  0.155802584432428     
  0.155807296343237     
  0.155811683870898     
  0.155815802800363     
  0.155819696554259     
  0.155823378401985     
  0.155826814561813     
  0.155829899712966     
  0.155740503991140     
  0.155750423943847     
  0.155759646916771     
  0.155767939785743     
  0.155775333802300     
  0.155781960745381     
  0.155787947678977     
  0.155793408112087     
  0.155798442268090     
  0.155803140784928     
  0.155807588280895     
  0.155811864044969     
  0.155816038737263     
  0.155820099240902     
  0.155823933485834     
  0.155725257941836     
  0.155737630535335     
  0.155748409756124     
  0.155757596485140     
  0.155765579189793     
  0.155772624023663     
  0.155778930389700     
  0.155784653111356     
  0.155789920397684     
  0.155794846389063     
  0.155799541766808     
  0.155804125408078     
  0.155808734495890     
  0.155813562428469     
  0.155818410145148     
  0.155711401176573     
  0.155726897069689     
  0.155738688159673     
  0.155748420000794     
  0.155756735488987     
  0.155764008726304     
  0.155770485842009     
  0.155776347127253     
  0.155781737212146     
  0.155786783919577     
  0.155791613876494     
  0.155796371151969     
  0.155801251910368     
  0.155806576613327     
  0.155813278197265     
