# vtk DataFile Version 3.0
vtk output
ASCII
DATASET UNSTRUCTURED_GRID
POINTS       496 double 
  0.00000000E+00  3.00000000E+02  0.00000000E+00
  0.00000000E+00  2.80000000E+02  0.00000000E+00
  0.00000000E+00  2.60000000E+02  0.00000000E+00
  0.00000000E+00  2.40000000E+02  0.00000000E+00
  0.00000000E+00  2.20000000E+02  0.00000000E+00
  0.00000000E+00  2.00000000E+02  0.00000000E+00
  0.00000000E+00  1.80000000E+02  0.00000000E+00
  0.00000000E+00  1.60000000E+02  0.00000000E+00
  0.00000000E+00  1.40000000E+02  0.00000000E+00
  0.00000000E+00  1.20000000E+02  0.00000000E+00
  0.00000000E+00  1.00000000E+02  0.00000000E+00
  0.00000000E+00  8.00000000E+01  0.00000000E+00
  0.00000000E+00  6.00000000E+01  0.00000000E+00
  0.00000000E+00  4.00000000E+01  0.00000000E+00
  0.00000000E+00  2.00000000E+01  0.00000000E+00
  0.00000000E+00  4.99600361E-14  0.00000000E+00
  2.00000000E+01  3.00000000E+02  0.00000000E+00
  2.00000000E+01  2.80000000E+02  0.00000000E+00
  2.00000000E+01  2.60000000E+02  0.00000000E+00
  2.00000000E+01  2.40000000E+02  0.00000000E+00
  2.00000000E+01  2.20000000E+02  0.00000000E+00
  2.00000000E+01  2.00000000E+02  0.00000000E+00
  2.00000000E+01  1.80000000E+02  0.00000000E+00
  2.00000000E+01  1.60000000E+02  0.00000000E+00
  2.00000000E+01  1.40000000E+02  0.00000000E+00
  2.00000000E+01  1.20000000E+02  0.00000000E+00
  2.00000000E+01  1.00000000E+02  0.00000000E+00
  2.00000000E+01  8.00000000E+01  0.00000000E+00
  2.00000000E+01  6.00000000E+01  0.00000000E+00
  2.00000000E+01  4.00000000E+01  0.00000000E+00
  2.00000000E+01  2.00000000E+01  0.00000000E+00
  2.00000000E+01  4.99600361E-14  0.00000000E+00
  4.00000000E+01  3.00000000E+02  0.00000000E+00
  4.00000000E+01  2.80000000E+02  0.00000000E+00
  4.00000000E+01  2.60000000E+02  0.00000000E+00
  4.00000000E+01  2.40000000E+02  0.00000000E+00
  4.00000000E+01  2.20000000E+02  0.00000000E+00
  4.00000000E+01  2.00000000E+02  0.00000000E+00
  4.00000000E+01  1.80000000E+02  0.00000000E+00
  4.00000000E+01  1.60000000E+02  0.00000000E+00
  4.00000000E+01  1.40000000E+02  0.00000000E+00
  4.00000000E+01  1.20000000E+02  0.00000000E+00
  4.00000000E+01  1.00000000E+02  0.00000000E+00
  4.00000000E+01  8.00000000E+01  0.00000000E+00
  4.00000000E+01  6.00000000E+01  0.00000000E+00
  4.00000000E+01  4.00000000E+01  0.00000000E+00
  4.00000000E+01  2.00000000E+01  0.00000000E+00
  4.00000000E+01  4.99600361E-14  0.00000000E+00
  6.00000000E+01  3.00000000E+02  0.00000000E+00
  6.00000000E+01  2.80000000E+02  0.00000000E+00
  6.00000000E+01  2.60000000E+02  0.00000000E+00
  6.00000000E+01  2.40000000E+02  0.00000000E+00
  6.00000000E+01  2.20000000E+02  0.00000000E+00
  6.00000000E+01  2.00000000E+02  0.00000000E+00
  6.00000000E+01  1.80000000E+02  0.00000000E+00
  6.00000000E+01  1.60000000E+02  0.00000000E+00
  6.00000000E+01  1.40000000E+02  0.00000000E+00
  6.00000000E+01  1.20000000E+02  0.00000000E+00
  6.00000000E+01  1.00000000E+02  0.00000000E+00
  6.00000000E+01  8.00000000E+01  0.00000000E+00
  6.00000000E+01  6.00000000E+01  0.00000000E+00
  6.00000000E+01  4.00000000E+01  0.00000000E+00
  6.00000000E+01  2.00000000E+01  0.00000000E+00
  6.00000000E+01  4.99600361E-14  0.00000000E+00
  8.00000000E+01  3.00000000E+02  0.00000000E+00
  8.00000000E+01  2.80000000E+02  0.00000000E+00
  8.00000000E+01  2.60000000E+02  0.00000000E+00
  8.00000000E+01  2.40000000E+02  0.00000000E+00
  8.00000000E+01  2.20000000E+02  0.00000000E+00
  8.00000000E+01  2.00000000E+02  0.00000000E+00
  8.00000000E+01  1.80000000E+02  0.00000000E+00
  8.00000000E+01  1.60000000E+02  0.00000000E+00
  8.00000000E+01  1.40000000E+02  0.00000000E+00
  8.00000000E+01  1.20000000E+02  0.00000000E+00
  8.00000000E+01  1.00000000E+02  0.00000000E+00
  8.00000000E+01  8.00000000E+01  0.00000000E+00
  8.00000000E+01  6.00000000E+01  0.00000000E+00
  8.00000000E+01  4.00000000E+01  0.00000000E+00
  8.00000000E+01  2.00000000E+01  0.00000000E+00
  8.00000000E+01  4.99600361E-14  0.00000000E+00
  1.00000000E+02  3.00000000E+02  0.00000000E+00
  1.00000000E+02  2.80000000E+02  0.00000000E+00
  1.00000000E+02  2.60000000E+02  0.00000000E+00
  1.00000000E+02  2.40000000E+02  0.00000000E+00
  1.00000000E+02  2.20000000E+02  0.00000000E+00
  1.00000000E+02  2.00000000E+02  0.00000000E+00
  1.00000000E+02  1.80000000E+02  0.00000000E+00
  1.00000000E+02  1.60000000E+02  0.00000000E+00
  1.00000000E+02  1.40000000E+02  0.00000000E+00
  1.00000000E+02  1.20000000E+02  0.00000000E+00
  1.00000000E+02  1.00000000E+02  0.00000000E+00
  1.00000000E+02  8.00000000E+01  0.00000000E+00
  1.00000000E+02  6.00000000E+01  0.00000000E+00
  1.00000000E+02  4.00000000E+01  0.00000000E+00
  1.00000000E+02  2.00000000E+01  0.00000000E+00
  1.00000000E+02  4.99600361E-14  0.00000000E+00
  1.20000000E+02  3.00000000E+02  0.00000000E+00
  1.20000000E+02  2.80000000E+02  0.00000000E+00
  1.20000000E+02  2.60000000E+02  0.00000000E+00
  1.20000000E+02  2.40000000E+02  0.00000000E+00
  1.20000000E+02  2.20000000E+02  0.00000000E+00
  1.20000000E+02  2.00000000E+02  0.00000000E+00
  1.20000000E+02  1.80000000E+02  0.00000000E+00
  1.20000000E+02  1.60000000E+02  0.00000000E+00
  1.20000000E+02  1.40000000E+02  0.00000000E+00
  1.20000000E+02  1.20000000E+02  0.00000000E+00
  1.20000000E+02  1.00000000E+02  0.00000000E+00
  1.20000000E+02  8.00000000E+01  0.00000000E+00
  1.20000000E+02  6.00000000E+01  0.00000000E+00
  1.20000000E+02  4.00000000E+01  0.00000000E+00
  1.20000000E+02  2.00000000E+01  0.00000000E+00
  1.20000000E+02  4.99600361E-14  0.00000000E+00
  1.40000000E+02  3.00000000E+02  0.00000000E+00
  1.40000000E+02  2.80000000E+02  0.00000000E+00
  1.40000000E+02  2.60000000E+02  0.00000000E+00
  1.40000000E+02  2.40000000E+02  0.00000000E+00
  1.40000000E+02  2.20000000E+02  0.00000000E+00
  1.40000000E+02  2.00000000E+02  0.00000000E+00
  1.40000000E+02  1.80000000E+02  0.00000000E+00
  1.40000000E+02  1.60000000E+02  0.00000000E+00
  1.40000000E+02  1.40000000E+02  0.00000000E+00
  1.40000000E+02  1.20000000E+02  0.00000000E+00
  1.40000000E+02  1.00000000E+02  0.00000000E+00
  1.40000000E+02  8.00000000E+01  0.00000000E+00
  1.40000000E+02  6.00000000E+01  0.00000000E+00
  1.40000000E+02  4.00000000E+01  0.00000000E+00
  1.40000000E+02  2.00000000E+01  0.00000000E+00
  1.40000000E+02  4.99600361E-14  0.00000000E+00
  1.60000000E+02  3.00000000E+02  0.00000000E+00
  1.60000000E+02  2.80000000E+02  0.00000000E+00
  1.60000000E+02  2.60000000E+02  0.00000000E+00
  1.60000000E+02  2.40000000E+02  0.00000000E+00
  1.60000000E+02  2.20000000E+02  0.00000000E+00
  1.60000000E+02  2.00000000E+02  0.00000000E+00
  1.60000000E+02  1.80000000E+02  0.00000000E+00
  1.60000000E+02  1.60000000E+02  0.00000000E+00
  1.60000000E+02  1.40000000E+02  0.00000000E+00
  1.60000000E+02  1.20000000E+02  0.00000000E+00
  1.60000000E+02  1.00000000E+02  0.00000000E+00
  1.60000000E+02  8.00000000E+01  0.00000000E+00
  1.60000000E+02  6.00000000E+01  0.00000000E+00
  1.60000000E+02  4.00000000E+01  0.00000000E+00
  1.60000000E+02  2.00000000E+01  0.00000000E+00
  1.60000000E+02  4.99600361E-14  0.00000000E+00
  1.80000000E+02  3.00000000E+02  0.00000000E+00
  1.80000000E+02  2.80000000E+02  0.00000000E+00
  1.80000000E+02  2.60000000E+02  0.00000000E+00
  1.80000000E+02  2.40000000E+02  0.00000000E+00
  1.80000000E+02  2.20000000E+02  0.00000000E+00
  1.80000000E+02  2.00000000E+02  0.00000000E+00
  1.80000000E+02  1.80000000E+02  0.00000000E+00
  1.80000000E+02  1.60000000E+02  0.00000000E+00
  1.80000000E+02  1.40000000E+02  0.00000000E+00
  1.80000000E+02  1.20000000E+02  0.00000000E+00
  1.80000000E+02  1.00000000E+02  0.00000000E+00
  1.80000000E+02  8.00000000E+01  0.00000000E+00
  1.80000000E+02  6.00000000E+01  0.00000000E+00
  1.80000000E+02  4.00000000E+01  0.00000000E+00
  1.80000000E+02  2.00000000E+01  0.00000000E+00
  1.80000000E+02  4.99600361E-14  0.00000000E+00
  2.00000000E+02  3.00000000E+02  0.00000000E+00
  2.00000000E+02  2.80000000E+02  0.00000000E+00
  2.00000000E+02  2.60000000E+02  0.00000000E+00
  2.00000000E+02  2.40000000E+02  0.00000000E+00
  2.00000000E+02  2.20000000E+02  0.00000000E+00
  2.00000000E+02  2.00000000E+02  0.00000000E+00
  2.00000000E+02  1.80000000E+02  0.00000000E+00
  2.00000000E+02  1.60000000E+02  0.00000000E+00
  2.00000000E+02  1.40000000E+02  0.00000000E+00
  2.00000000E+02  1.20000000E+02  0.00000000E+00
  2.00000000E+02  1.00000000E+02  0.00000000E+00
  2.00000000E+02  8.00000000E+01  0.00000000E+00
  2.00000000E+02  6.00000000E+01  0.00000000E+00
  2.00000000E+02  4.00000000E+01  0.00000000E+00
  2.00000000E+02  2.00000000E+01  0.00000000E+00
  2.00000000E+02  4.99600361E-14  0.00000000E+00
  2.20000000E+02  3.00000000E+02  0.00000000E+00
  2.20000000E+02  2.80000000E+02  0.00000000E+00
  2.20000000E+02  2.60000000E+02  0.00000000E+00
  2.20000000E+02  2.40000000E+02  0.00000000E+00
  2.20000000E+02  2.20000000E+02  0.00000000E+00
  2.20000000E+02  2.00000000E+02  0.00000000E+00
  2.20000000E+02  1.80000000E+02  0.00000000E+00
  2.20000000E+02  1.60000000E+02  0.00000000E+00
  2.20000000E+02  1.40000000E+02  0.00000000E+00
  2.20000000E+02  1.20000000E+02  0.00000000E+00
  2.20000000E+02  1.00000000E+02  0.00000000E+00
  2.20000000E+02  8.00000000E+01  0.00000000E+00
  2.20000000E+02  6.00000000E+01  0.00000000E+00
  2.20000000E+02  4.00000000E+01  0.00000000E+00
  2.20000000E+02  2.00000000E+01  0.00000000E+00
  2.20000000E+02  4.99600361E-14  0.00000000E+00
  2.40000000E+02  3.00000000E+02  0.00000000E+00
  2.40000000E+02  2.80000000E+02  0.00000000E+00
  2.40000000E+02  2.60000000E+02  0.00000000E+00
  2.40000000E+02  2.40000000E+02  0.00000000E+00
  2.40000000E+02  2.20000000E+02  0.00000000E+00
  2.40000000E+02  2.00000000E+02  0.00000000E+00
  2.40000000E+02  1.80000000E+02  0.00000000E+00
  2.40000000E+02  1.60000000E+02  0.00000000E+00
  2.40000000E+02  1.40000000E+02  0.00000000E+00
  2.40000000E+02  1.20000000E+02  0.00000000E+00
  2.40000000E+02  1.00000000E+02  0.00000000E+00
  2.40000000E+02  8.00000000E+01  0.00000000E+00
  2.40000000E+02  6.00000000E+01  0.00000000E+00
  2.40000000E+02  4.00000000E+01  0.00000000E+00
  2.40000000E+02  2.00000000E+01  0.00000000E+00
  2.40000000E+02  4.99600361E-14  0.00000000E+00
  2.60000000E+02  3.00000000E+02  0.00000000E+00
  2.60000000E+02  2.80000000E+02  0.00000000E+00
  2.60000000E+02  2.60000000E+02  0.00000000E+00
  2.60000000E+02  2.40000000E+02  0.00000000E+00
  2.60000000E+02  2.20000000E+02  0.00000000E+00
  2.60000000E+02  2.00000000E+02  0.00000000E+00
  2.60000000E+02  1.80000000E+02  0.00000000E+00
  2.60000000E+02  1.60000000E+02  0.00000000E+00
  2.60000000E+02  1.40000000E+02  0.00000000E+00
  2.60000000E+02  1.20000000E+02  0.00000000E+00
  2.60000000E+02  1.00000000E+02  0.00000000E+00
  2.60000000E+02  8.00000000E+01  0.00000000E+00
  2.60000000E+02  6.00000000E+01  0.00000000E+00
  2.60000000E+02  4.00000000E+01  0.00000000E+00
  2.60000000E+02  2.00000000E+01  0.00000000E+00
  2.60000000E+02  4.99600361E-14  0.00000000E+00
  2.80000000E+02  3.00000000E+02  0.00000000E+00
  2.80000000E+02  2.80000000E+02  0.00000000E+00
  2.80000000E+02  2.60000000E+02  0.00000000E+00
  2.80000000E+02  2.40000000E+02  0.00000000E+00
  2.80000000E+02  2.20000000E+02  0.00000000E+00
  2.80000000E+02  2.00000000E+02  0.00000000E+00
  2.80000000E+02  1.80000000E+02  0.00000000E+00
  2.80000000E+02  1.60000000E+02  0.00000000E+00
  2.80000000E+02  1.40000000E+02  0.00000000E+00
  2.80000000E+02  1.20000000E+02  0.00000000E+00
  2.80000000E+02  1.00000000E+02  0.00000000E+00
  2.80000000E+02  8.00000000E+01  0.00000000E+00
  2.80000000E+02  6.00000000E+01  0.00000000E+00
  2.80000000E+02  4.00000000E+01  0.00000000E+00
  2.80000000E+02  2.00000000E+01  0.00000000E+00
  2.80000000E+02  4.99600361E-14  0.00000000E+00
  3.00000000E+02  3.00000000E+02  0.00000000E+00
  3.00000000E+02  2.80000000E+02  0.00000000E+00
  3.00000000E+02  2.60000000E+02  0.00000000E+00
  3.00000000E+02  2.40000000E+02  0.00000000E+00
  3.00000000E+02  2.20000000E+02  0.00000000E+00
  3.00000000E+02  2.00000000E+02  0.00000000E+00
  3.00000000E+02  1.80000000E+02  0.00000000E+00
  3.00000000E+02  1.60000000E+02  0.00000000E+00
  3.00000000E+02  1.40000000E+02  0.00000000E+00
  3.00000000E+02  1.20000000E+02  0.00000000E+00
  3.00000000E+02  1.00000000E+02  0.00000000E+00
  3.00000000E+02  8.00000000E+01  0.00000000E+00
  3.00000000E+02  6.00000000E+01  0.00000000E+00
  3.00000000E+02  4.00000000E+01  0.00000000E+00
  3.00000000E+02  2.00000000E+01  0.00000000E+00
  3.00000000E+02  4.99600361E-14  0.00000000E+00
  3.20000000E+02  3.00000000E+02  0.00000000E+00
  3.20000000E+02  2.80000000E+02  0.00000000E+00
  3.20000000E+02  2.60000000E+02  0.00000000E+00
  3.20000000E+02  2.40000000E+02  0.00000000E+00
  3.20000000E+02  2.20000000E+02  0.00000000E+00
  3.20000000E+02  2.00000000E+02  0.00000000E+00
  3.20000000E+02  1.80000000E+02  0.00000000E+00
  3.20000000E+02  1.60000000E+02  0.00000000E+00
  3.20000000E+02  1.40000000E+02  0.00000000E+00
  3.20000000E+02  1.20000000E+02  0.00000000E+00
  3.20000000E+02  1.00000000E+02  0.00000000E+00
  3.20000000E+02  8.00000000E+01  0.00000000E+00
  3.20000000E+02  6.00000000E+01  0.00000000E+00
  3.20000000E+02  4.00000000E+01  0.00000000E+00
  3.20000000E+02  2.00000000E+01  0.00000000E+00
  3.20000000E+02  4.99600361E-14  0.00000000E+00
  3.40000000E+02  3.00000000E+02  0.00000000E+00
  3.40000000E+02  2.80000000E+02  0.00000000E+00
  3.40000000E+02  2.60000000E+02  0.00000000E+00
  3.40000000E+02  2.40000000E+02  0.00000000E+00
  3.40000000E+02  2.20000000E+02  0.00000000E+00
  3.40000000E+02  2.00000000E+02  0.00000000E+00
  3.40000000E+02  1.80000000E+02  0.00000000E+00
  3.40000000E+02  1.60000000E+02  0.00000000E+00
  3.40000000E+02  1.40000000E+02  0.00000000E+00
  3.40000000E+02  1.20000000E+02  0.00000000E+00
  3.40000000E+02  1.00000000E+02  0.00000000E+00
  3.40000000E+02  8.00000000E+01  0.00000000E+00
  3.40000000E+02  6.00000000E+01  0.00000000E+00
  3.40000000E+02  4.00000000E+01  0.00000000E+00
  3.40000000E+02  2.00000000E+01  0.00000000E+00
  3.40000000E+02  4.99600361E-14  0.00000000E+00
  3.60000000E+02  3.00000000E+02  0.00000000E+00
  3.60000000E+02  2.80000000E+02  0.00000000E+00
  3.60000000E+02  2.60000000E+02  0.00000000E+00
  3.60000000E+02  2.40000000E+02  0.00000000E+00
  3.60000000E+02  2.20000000E+02  0.00000000E+00
  3.60000000E+02  2.00000000E+02  0.00000000E+00
  3.60000000E+02  1.80000000E+02  0.00000000E+00
  3.60000000E+02  1.60000000E+02  0.00000000E+00
  3.60000000E+02  1.40000000E+02  0.00000000E+00
  3.60000000E+02  1.20000000E+02  0.00000000E+00
  3.60000000E+02  1.00000000E+02  0.00000000E+00
  3.60000000E+02  8.00000000E+01  0.00000000E+00
  3.60000000E+02  6.00000000E+01  0.00000000E+00
  3.60000000E+02  4.00000000E+01  0.00000000E+00
  3.60000000E+02  2.00000000E+01  0.00000000E+00
  3.60000000E+02  4.99600361E-14  0.00000000E+00
  3.80000000E+02  3.00000000E+02  0.00000000E+00
  3.80000000E+02  2.80000000E+02  0.00000000E+00
  3.80000000E+02  2.60000000E+02  0.00000000E+00
  3.80000000E+02  2.40000000E+02  0.00000000E+00
  3.80000000E+02  2.20000000E+02  0.00000000E+00
  3.80000000E+02  2.00000000E+02  0.00000000E+00
  3.80000000E+02  1.80000000E+02  0.00000000E+00
  3.80000000E+02  1.60000000E+02  0.00000000E+00
  3.80000000E+02  1.40000000E+02  0.00000000E+00
  3.80000000E+02  1.20000000E+02  0.00000000E+00
  3.80000000E+02  1.00000000E+02  0.00000000E+00
  3.80000000E+02  8.00000000E+01  0.00000000E+00
  3.80000000E+02  6.00000000E+01  0.00000000E+00
  3.80000000E+02  4.00000000E+01  0.00000000E+00
  3.80000000E+02  2.00000000E+01  0.00000000E+00
  3.80000000E+02  4.99600361E-14  0.00000000E+00
  4.00000000E+02  3.00000000E+02  0.00000000E+00
  4.00000000E+02  2.80000000E+02  0.00000000E+00
  4.00000000E+02  2.60000000E+02  0.00000000E+00
  4.00000000E+02  2.40000000E+02  0.00000000E+00
  4.00000000E+02  2.20000000E+02  0.00000000E+00
  4.00000000E+02  2.00000000E+02  0.00000000E+00
  4.00000000E+02  1.80000000E+02  0.00000000E+00
  4.00000000E+02  1.60000000E+02  0.00000000E+00
  4.00000000E+02  1.40000000E+02  0.00000000E+00
  4.00000000E+02  1.20000000E+02  0.00000000E+00
  4.00000000E+02  1.00000000E+02  0.00000000E+00
  4.00000000E+02  8.00000000E+01  0.00000000E+00
  4.00000000E+02  6.00000000E+01  0.00000000E+00
  4.00000000E+02  4.00000000E+01  0.00000000E+00
  4.00000000E+02  2.00000000E+01  0.00000000E+00
  4.00000000E+02  4.99600361E-14  0.00000000E+00
  4.20000000E+02  3.00000000E+02  0.00000000E+00
  4.20000000E+02  2.80000000E+02  0.00000000E+00
  4.20000000E+02  2.60000000E+02  0.00000000E+00
  4.20000000E+02  2.40000000E+02  0.00000000E+00
  4.20000000E+02  2.20000000E+02  0.00000000E+00
  4.20000000E+02  2.00000000E+02  0.00000000E+00
  4.20000000E+02  1.80000000E+02  0.00000000E+00
  4.20000000E+02  1.60000000E+02  0.00000000E+00
  4.20000000E+02  1.40000000E+02  0.00000000E+00
  4.20000000E+02  1.20000000E+02  0.00000000E+00
  4.20000000E+02  1.00000000E+02  0.00000000E+00
  4.20000000E+02  8.00000000E+01  0.00000000E+00
  4.20000000E+02  6.00000000E+01  0.00000000E+00
  4.20000000E+02  4.00000000E+01  0.00000000E+00
  4.20000000E+02  2.00000000E+01  0.00000000E+00
  4.20000000E+02  4.99600361E-14  0.00000000E+00
  4.40000000E+02  3.00000000E+02  0.00000000E+00
  4.40000000E+02  2.80000000E+02  0.00000000E+00
  4.40000000E+02  2.60000000E+02  0.00000000E+00
  4.40000000E+02  2.40000000E+02  0.00000000E+00
  4.40000000E+02  2.20000000E+02  0.00000000E+00
  4.40000000E+02  2.00000000E+02  0.00000000E+00
  4.40000000E+02  1.80000000E+02  0.00000000E+00
  4.40000000E+02  1.60000000E+02  0.00000000E+00
  4.40000000E+02  1.40000000E+02  0.00000000E+00
  4.40000000E+02  1.20000000E+02  0.00000000E+00
  4.40000000E+02  1.00000000E+02  0.00000000E+00
  4.40000000E+02  8.00000000E+01  0.00000000E+00
  4.40000000E+02  6.00000000E+01  0.00000000E+00
  4.40000000E+02  4.00000000E+01  0.00000000E+00
  4.40000000E+02  2.00000000E+01  0.00000000E+00
  4.40000000E+02  4.99600361E-14  0.00000000E+00
  4.60000000E+02  3.00000000E+02  0.00000000E+00
  4.60000000E+02  2.80000000E+02  0.00000000E+00
  4.60000000E+02  2.60000000E+02  0.00000000E+00
  4.60000000E+02  2.40000000E+02  0.00000000E+00
  4.60000000E+02  2.20000000E+02  0.00000000E+00
  4.60000000E+02  2.00000000E+02  0.00000000E+00
  4.60000000E+02  1.80000000E+02  0.00000000E+00
  4.60000000E+02  1.60000000E+02  0.00000000E+00
  4.60000000E+02  1.40000000E+02  0.00000000E+00
  4.60000000E+02  1.20000000E+02  0.00000000E+00
  4.60000000E+02  1.00000000E+02  0.00000000E+00
  4.60000000E+02  8.00000000E+01  0.00000000E+00
  4.60000000E+02  6.00000000E+01  0.00000000E+00
  4.60000000E+02  4.00000000E+01  0.00000000E+00
  4.60000000E+02  2.00000000E+01  0.00000000E+00
  4.60000000E+02  4.99600361E-14  0.00000000E+00
  4.80000000E+02  3.00000000E+02  0.00000000E+00
  4.80000000E+02  2.80000000E+02  0.00000000E+00
  4.80000000E+02  2.60000000E+02  0.00000000E+00
  4.80000000E+02  2.40000000E+02  0.00000000E+00
  4.80000000E+02  2.20000000E+02  0.00000000E+00
  4.80000000E+02  2.00000000E+02  0.00000000E+00
  4.80000000E+02  1.80000000E+02  0.00000000E+00
  4.80000000E+02  1.60000000E+02  0.00000000E+00
  4.80000000E+02  1.40000000E+02  0.00000000E+00
  4.80000000E+02  1.20000000E+02  0.00000000E+00
  4.80000000E+02  1.00000000E+02  0.00000000E+00
  4.80000000E+02  8.00000000E+01  0.00000000E+00
  4.80000000E+02  6.00000000E+01  0.00000000E+00
  4.80000000E+02  4.00000000E+01  0.00000000E+00
  4.80000000E+02  2.00000000E+01  0.00000000E+00
  4.80000000E+02  4.99600361E-14  0.00000000E+00
  5.00000000E+02  3.00000000E+02  0.00000000E+00
  5.00000000E+02  2.80000000E+02  0.00000000E+00
  5.00000000E+02  2.60000000E+02  0.00000000E+00
  5.00000000E+02  2.40000000E+02  0.00000000E+00
  5.00000000E+02  2.20000000E+02  0.00000000E+00
  5.00000000E+02  2.00000000E+02  0.00000000E+00
  5.00000000E+02  1.80000000E+02  0.00000000E+00
  5.00000000E+02  1.60000000E+02  0.00000000E+00
  5.00000000E+02  1.40000000E+02  0.00000000E+00
  5.00000000E+02  1.20000000E+02  0.00000000E+00
  5.00000000E+02  1.00000000E+02  0.00000000E+00
  5.00000000E+02  8.00000000E+01  0.00000000E+00
  5.00000000E+02  6.00000000E+01  0.00000000E+00
  5.00000000E+02  4.00000000E+01  0.00000000E+00
  5.00000000E+02  2.00000000E+01  0.00000000E+00
  5.00000000E+02  4.99600361E-14  0.00000000E+00
  5.20000000E+02  3.00000000E+02  0.00000000E+00
  5.20000000E+02  2.80000000E+02  0.00000000E+00
  5.20000000E+02  2.60000000E+02  0.00000000E+00
  5.20000000E+02  2.40000000E+02  0.00000000E+00
  5.20000000E+02  2.20000000E+02  0.00000000E+00
  5.20000000E+02  2.00000000E+02  0.00000000E+00
  5.20000000E+02  1.80000000E+02  0.00000000E+00
  5.20000000E+02  1.60000000E+02  0.00000000E+00
  5.20000000E+02  1.40000000E+02  0.00000000E+00
  5.20000000E+02  1.20000000E+02  0.00000000E+00
  5.20000000E+02  1.00000000E+02  0.00000000E+00
  5.20000000E+02  8.00000000E+01  0.00000000E+00
  5.20000000E+02  6.00000000E+01  0.00000000E+00
  5.20000000E+02  4.00000000E+01  0.00000000E+00
  5.20000000E+02  2.00000000E+01  0.00000000E+00
  5.20000000E+02  4.99600361E-14  0.00000000E+00
  5.40000000E+02  3.00000000E+02  0.00000000E+00
  5.40000000E+02  2.80000000E+02  0.00000000E+00
  5.40000000E+02  2.60000000E+02  0.00000000E+00
  5.40000000E+02  2.40000000E+02  0.00000000E+00
  5.40000000E+02  2.20000000E+02  0.00000000E+00
  5.40000000E+02  2.00000000E+02  0.00000000E+00
  5.40000000E+02  1.80000000E+02  0.00000000E+00
  5.40000000E+02  1.60000000E+02  0.00000000E+00
  5.40000000E+02  1.40000000E+02  0.00000000E+00
  5.40000000E+02  1.20000000E+02  0.00000000E+00
  5.40000000E+02  1.00000000E+02  0.00000000E+00
  5.40000000E+02  8.00000000E+01  0.00000000E+00
  5.40000000E+02  6.00000000E+01  0.00000000E+00
  5.40000000E+02  4.00000000E+01  0.00000000E+00
  5.40000000E+02  2.00000000E+01  0.00000000E+00
  5.40000000E+02  4.99600361E-14  0.00000000E+00
  5.60000000E+02  3.00000000E+02  0.00000000E+00
  5.60000000E+02  2.80000000E+02  0.00000000E+00
  5.60000000E+02  2.60000000E+02  0.00000000E+00
  5.60000000E+02  2.40000000E+02  0.00000000E+00
  5.60000000E+02  2.20000000E+02  0.00000000E+00
  5.60000000E+02  2.00000000E+02  0.00000000E+00
  5.60000000E+02  1.80000000E+02  0.00000000E+00
  5.60000000E+02  1.60000000E+02  0.00000000E+00
  5.60000000E+02  1.40000000E+02  0.00000000E+00
  5.60000000E+02  1.20000000E+02  0.00000000E+00
  5.60000000E+02  1.00000000E+02  0.00000000E+00
  5.60000000E+02  8.00000000E+01  0.00000000E+00
  5.60000000E+02  6.00000000E+01  0.00000000E+00
  5.60000000E+02  4.00000000E+01  0.00000000E+00
  5.60000000E+02  2.00000000E+01  0.00000000E+00
  5.60000000E+02  4.99600361E-14  0.00000000E+00
  5.80000000E+02  3.00000000E+02  0.00000000E+00
  5.80000000E+02  2.80000000E+02  0.00000000E+00
  5.80000000E+02  2.60000000E+02  0.00000000E+00
  5.80000000E+02  2.40000000E+02  0.00000000E+00
  5.80000000E+02  2.20000000E+02  0.00000000E+00
  5.80000000E+02  2.00000000E+02  0.00000000E+00
  5.80000000E+02  1.80000000E+02  0.00000000E+00
  5.80000000E+02  1.60000000E+02  0.00000000E+00
  5.80000000E+02  1.40000000E+02  0.00000000E+00
  5.80000000E+02  1.20000000E+02  0.00000000E+00
  5.80000000E+02  1.00000000E+02  0.00000000E+00
  5.80000000E+02  8.00000000E+01  0.00000000E+00
  5.80000000E+02  6.00000000E+01  0.00000000E+00
  5.80000000E+02  4.00000000E+01  0.00000000E+00
  5.80000000E+02  2.00000000E+01  0.00000000E+00
  5.80000000E+02  4.99600361E-14  0.00000000E+00
  6.00000000E+02  3.00000000E+02  0.00000000E+00
  6.00000000E+02  2.80000000E+02  0.00000000E+00
  6.00000000E+02  2.60000000E+02  0.00000000E+00
  6.00000000E+02  2.40000000E+02  0.00000000E+00
  6.00000000E+02  2.20000000E+02  0.00000000E+00
  6.00000000E+02  2.00000000E+02  0.00000000E+00
  6.00000000E+02  1.80000000E+02  0.00000000E+00
  6.00000000E+02  1.60000000E+02  0.00000000E+00
  6.00000000E+02  1.40000000E+02  0.00000000E+00
  6.00000000E+02  1.20000000E+02  0.00000000E+00
  6.00000000E+02  1.00000000E+02  0.00000000E+00
  6.00000000E+02  8.00000000E+01  0.00000000E+00
  6.00000000E+02  6.00000000E+01  0.00000000E+00
  6.00000000E+02  4.00000000E+01  0.00000000E+00
  6.00000000E+02  2.00000000E+01  0.00000000E+00
  6.00000000E+02  4.99600361E-14  0.00000000E+00
CELLS       450      2250
         4           0           1          17          16
         4           1           2          18          17
         4           2           3          19          18
         4           3           4          20          19
         4           4           5          21          20
         4           5           6          22          21
         4           6           7          23          22
         4           7           8          24          23
         4           8           9          25          24
         4           9          10          26          25
         4          10          11          27          26
         4          11          12          28          27
         4          12          13          29          28
         4          13          14          30          29
         4          14          15          31          30
         4          16          17          33          32
         4          17          18          34          33
         4          18          19          35          34
         4          19          20          36          35
         4          20          21          37          36
         4          21          22          38          37
         4          22          23          39          38
         4          23          24          40          39
         4          24          25          41          40
         4          25          26          42          41
         4          26          27          43          42
         4          27          28          44          43
         4          28          29          45          44
         4          29          30          46          45
         4          30          31          47          46
         4          32          33          49          48
         4          33          34          50          49
         4          34          35          51          50
         4          35          36          52          51
         4          36          37          53          52
         4          37          38          54          53
         4          38          39          55          54
         4          39          40          56          55
         4          40          41          57          56
         4          41          42          58          57
         4          42          43          59          58
         4          43          44          60          59
         4          44          45          61          60
         4          45          46          62          61
         4          46          47          63          62
         4          48          49          65          64
         4          49          50          66          65
         4          50          51          67          66
         4          51          52          68          67
         4          52          53          69          68
         4          53          54          70          69
         4          54          55          71          70
         4          55          56          72          71
         4          56          57          73          72
         4          57          58          74          73
         4          58          59          75          74
         4          59          60          76          75
         4          60          61          77          76
         4          61          62          78          77
         4          62          63          79          78
         4          64          65          81          80
         4          65          66          82          81
         4          66          67          83          82
         4          67          68          84          83
         4          68          69          85          84
         4          69          70          86          85
         4          70          71          87          86
         4          71          72          88          87
         4          72          73          89          88
         4          73          74          90          89
         4          74          75          91          90
         4          75          76          92          91
         4          76          77          93          92
         4          77          78          94          93
         4          78          79          95          94
         4          80          81          97          96
         4          81          82          98          97
         4          82          83          99          98
         4          83          84         100          99
         4          84          85         101         100
         4          85          86         102         101
         4          86          87         103         102
         4          87          88         104         103
         4          88          89         105         104
         4          89          90         106         105
         4          90          91         107         106
         4          91          92         108         107
         4          92          93         109         108
         4          93          94         110         109
         4          94          95         111         110
         4          96          97         113         112
         4          97          98         114         113
         4          98          99         115         114
         4          99         100         116         115
         4         100         101         117         116
         4         101         102         118         117
         4         102         103         119         118
         4         103         104         120         119
         4         104         105         121         120
         4         105         106         122         121
         4         106         107         123         122
         4         107         108         124         123
         4         108         109         125         124
         4         109         110         126         125
         4         110         111         127         126
         4         112         113         129         128
         4         113         114         130         129
         4         114         115         131         130
         4         115         116         132         131
         4         116         117         133         132
         4         117         118         134         133
         4         118         119         135         134
         4         119         120         136         135
         4         120         121         137         136
         4         121         122         138         137
         4         122         123         139         138
         4         123         124         140         139
         4         124         125         141         140
         4         125         126         142         141
         4         126         127         143         142
         4         128         129         145         144
         4         129         130         146         145
         4         130         131         147         146
         4         131         132         148         147
         4         132         133         149         148
         4         133         134         150         149
         4         134         135         151         150
         4         135         136         152         151
         4         136         137         153         152
         4         137         138         154         153
         4         138         139         155         154
         4         139         140         156         155
         4         140         141         157         156
         4         141         142         158         157
         4         142         143         159         158
         4         144         145         161         160
         4         145         146         162         161
         4         146         147         163         162
         4         147         148         164         163
         4         148         149         165         164
         4         149         150         166         165
         4         150         151         167         166
         4         151         152         168         167
         4         152         153         169         168
         4         153         154         170         169
         4         154         155         171         170
         4         155         156         172         171
         4         156         157         173         172
         4         157         158         174         173
         4         158         159         175         174
         4         160         161         177         176
         4         161         162         178         177
         4         162         163         179         178
         4         163         164         180         179
         4         164         165         181         180
         4         165         166         182         181
         4         166         167         183         182
         4         167         168         184         183
         4         168         169         185         184
         4         169         170         186         185
         4         170         171         187         186
         4         171         172         188         187
         4         172         173         189         188
         4         173         174         190         189
         4         174         175         191         190
         4         176         177         193         192
         4         177         178         194         193
         4         178         179         195         194
         4         179         180         196         195
         4         180         181         197         196
         4         181         182         198         197
         4         182         183         199         198
         4         183         184         200         199
         4         184         185         201         200
         4         185         186         202         201
         4         186         187         203         202
         4         187         188         204         203
         4         188         189         205         204
         4         189         190         206         205
         4         190         191         207         206
         4         192         193         209         208
         4         193         194         210         209
         4         194         195         211         210
         4         195         196         212         211
         4         196         197         213         212
         4         197         198         214         213
         4         198         199         215         214
         4         199         200         216         215
         4         200         201         217         216
         4         201         202         218         217
         4         202         203         219         218
         4         203         204         220         219
         4         204         205         221         220
         4         205         206         222         221
         4         206         207         223         222
         4         208         209         225         224
         4         209         210         226         225
         4         210         211         227         226
         4         211         212         228         227
         4         212         213         229         228
         4         213         214         230         229
         4         214         215         231         230
         4         215         216         232         231
         4         216         217         233         232
         4         217         218         234         233
         4         218         219         235         234
         4         219         220         236         235
         4         220         221         237         236
         4         221         222         238         237
         4         222         223         239         238
         4         224         225         241         240
         4         225         226         242         241
         4         226         227         243         242
         4         227         228         244         243
         4         228         229         245         244
         4         229         230         246         245
         4         230         231         247         246
         4         231         232         248         247
         4         232         233         249         248
         4         233         234         250         249
         4         234         235         251         250
         4         235         236         252         251
         4         236         237         253         252
         4         237         238         254         253
         4         238         239         255         254
         4         240         241         257         256
         4         241         242         258         257
         4         242         243         259         258
         4         243         244         260         259
         4         244         245         261         260
         4         245         246         262         261
         4         246         247         263         262
         4         247         248         264         263
         4         248         249         265         264
         4         249         250         266         265
         4         250         251         267         266
         4         251         252         268         267
         4         252         253         269         268
         4         253         254         270         269
         4         254         255         271         270
         4         256         257         273         272
         4         257         258         274         273
         4         258         259         275         274
         4         259         260         276         275
         4         260         261         277         276
         4         261         262         278         277
         4         262         263         279         278
         4         263         264         280         279
         4         264         265         281         280
         4         265         266         282         281
         4         266         267         283         282
         4         267         268         284         283
         4         268         269         285         284
         4         269         270         286         285
         4         270         271         287         286
         4         272         273         289         288
         4         273         274         290         289
         4         274         275         291         290
         4         275         276         292         291
         4         276         277         293         292
         4         277         278         294         293
         4         278         279         295         294
         4         279         280         296         295
         4         280         281         297         296
         4         281         282         298         297
         4         282         283         299         298
         4         283         284         300         299
         4         284         285         301         300
         4         285         286         302         301
         4         286         287         303         302
         4         288         289         305         304
         4         289         290         306         305
         4         290         291         307         306
         4         291         292         308         307
         4         292         293         309         308
         4         293         294         310         309
         4         294         295         311         310
         4         295         296         312         311
         4         296         297         313         312
         4         297         298         314         313
         4         298         299         315         314
         4         299         300         316         315
         4         300         301         317         316
         4         301         302         318         317
         4         302         303         319         318
         4         304         305         321         320
         4         305         306         322         321
         4         306         307         323         322
         4         307         308         324         323
         4         308         309         325         324
         4         309         310         326         325
         4         310         311         327         326
         4         311         312         328         327
         4         312         313         329         328
         4         313         314         330         329
         4         314         315         331         330
         4         315         316         332         331
         4         316         317         333         332
         4         317         318         334         333
         4         318         319         335         334
         4         320         321         337         336
         4         321         322         338         337
         4         322         323         339         338
         4         323         324         340         339
         4         324         325         341         340
         4         325         326         342         341
         4         326         327         343         342
         4         327         328         344         343
         4         328         329         345         344
         4         329         330         346         345
         4         330         331         347         346
         4         331         332         348         347
         4         332         333         349         348
         4         333         334         350         349
         4         334         335         351         350
         4         336         337         353         352
         4         337         338         354         353
         4         338         339         355         354
         4         339         340         356         355
         4         340         341         357         356
         4         341         342         358         357
         4         342         343         359         358
         4         343         344         360         359
         4         344         345         361         360
         4         345         346         362         361
         4         346         347         363         362
         4         347         348         364         363
         4         348         349         365         364
         4         349         350         366         365
         4         350         351         367         366
         4         352         353         369         368
         4         353         354         370         369
         4         354         355         371         370
         4         355         356         372         371
         4         356         357         373         372
         4         357         358         374         373
         4         358         359         375         374
         4         359         360         376         375
         4         360         361         377         376
         4         361         362         378         377
         4         362         363         379         378
         4         363         364         380         379
         4         364         365         381         380
         4         365         366         382         381
         4         366         367         383         382
         4         368         369         385         384
         4         369         370         386         385
         4         370         371         387         386
         4         371         372         388         387
         4         372         373         389         388
         4         373         374         390         389
         4         374         375         391         390
         4         375         376         392         391
         4         376         377         393         392
         4         377         378         394         393
         4         378         379         395         394
         4         379         380         396         395
         4         380         381         397         396
         4         381         382         398         397
         4         382         383         399         398
         4         384         385         401         400
         4         385         386         402         401
         4         386         387         403         402
         4         387         388         404         403
         4         388         389         405         404
         4         389         390         406         405
         4         390         391         407         406
         4         391         392         408         407
         4         392         393         409         408
         4         393         394         410         409
         4         394         395         411         410
         4         395         396         412         411
         4         396         397         413         412
         4         397         398         414         413
         4         398         399         415         414
         4         400         401         417         416
         4         401         402         418         417
         4         402         403         419         418
         4         403         404         420         419
         4         404         405         421         420
         4         405         406         422         421
         4         406         407         423         422
         4         407         408         424         423
         4         408         409         425         424
         4         409         410         426         425
         4         410         411         427         426
         4         411         412         428         427
         4         412         413         429         428
         4         413         414         430         429
         4         414         415         431         430
         4         416         417         433         432
         4         417         418         434         433
         4         418         419         435         434
         4         419         420         436         435
         4         420         421         437         436
         4         421         422         438         437
         4         422         423         439         438
         4         423         424         440         439
         4         424         425         441         440
         4         425         426         442         441
         4         426         427         443         442
         4         427         428         444         443
         4         428         429         445         444
         4         429         430         446         445
         4         430         431         447         446
         4         432         433         449         448
         4         433         434         450         449
         4         434         435         451         450
         4         435         436         452         451
         4         436         437         453         452
         4         437         438         454         453
         4         438         439         455         454
         4         439         440         456         455
         4         440         441         457         456
         4         441         442         458         457
         4         442         443         459         458
         4         443         444         460         459
         4         444         445         461         460
         4         445         446         462         461
         4         446         447         463         462
         4         448         449         465         464
         4         449         450         466         465
         4         450         451         467         466
         4         451         452         468         467
         4         452         453         469         468
         4         453         454         470         469
         4         454         455         471         470
         4         455         456         472         471
         4         456         457         473         472
         4         457         458         474         473
         4         458         459         475         474
         4         459         460         476         475
         4         460         461         477         476
         4         461         462         478         477
         4         462         463         479         478
         4         464         465         481         480
         4         465         466         482         481
         4         466         467         483         482
         4         467         468         484         483
         4         468         469         485         484
         4         469         470         486         485
         4         470         471         487         486
         4         471         472         488         487
         4         472         473         489         488
         4         473         474         490         489
         4         474         475         491         490
         4         475         476         492         491
         4         476         477         493         492
         4         477         478         494         493
         4         478         479         495         494
CELL_TYPES        450
9
9
9
9
9
9
9
9
9
9
9
9
9
9
9
9
9
9
9
9
9
9
9
9
9
9
9
9
9
9
9
9
9
9
9
9
9
9
9
9
9
9
9
9
9
9
9
9
9
9
9
9
9
9
9
9
9
9
9
9
9
9
9
9
9
9
9
9
9
9
9
9
9
9
9
9
9
9
9
9
9
9
9
9
9
9
9
9
9
9
9
9
9
9
9
9
9
9
9
9
9
9
9
9
9
9
9
9
9
9
9
9
9
9
9
9
9
9
9
9
9
9
9
9
9
9
9
9
9
9
9
9
9
9
9
9
9
9
9
9
9
9
9
9
9
9
9
9
9
9
9
9
9
9
9
9
9
9
9
9
9
9
9
9
9
9
9
9
9
9
9
9
9
9
9
9
9
9
9
9
9
9
9
9
9
9
9
9
9
9
9
9
9
9
9
9
9
9
9
9
9
9
9
9
9
9
9
9
9
9
9
9
9
9
9
9
9
9
9
9
9
9
9
9
9
9
9
9
9
9
9
9
9
9
9
9
9
9
9
9
9
9
9
9
9
9
9
9
9
9
9
9
9
9
9
9
9
9
9
9
9
9
9
9
9
9
9
9
9
9
9
9
9
9
9
9
9
9
9
9
9
9
9
9
9
9
9
9
9
9
9
9
9
9
9
9
9
9
9
9
9
9
9
9
9
9
9
9
9
9
9
9
9
9
9
9
9
9
9
9
9
9
9
9
9
9
9
9
9
9
9
9
9
9
9
9
9
9
9
9
9
9
9
9
9
9
9
9
9
9
9
9
9
9
9
9
9
9
9
9
9
9
9
9
9
9
9
9
9
9
9
9
9
9
9
9
9
9
9
9
9
9
9
9
9
9
9
9
9
9
9
9
9
9
9
9
9
9
9
9
9
9
9
9
9
9
9
9
9
9
9
9
9
9
9
9
9
9
9
9
9
9
9
9
9
9
9
9
9
9
9
9
9
9
9
9
9
9
9
9
9
9
9
9
9
9
9
9
9
9
POINT_DATA       496
SCALARS p double 
LOOKUP_TABLE default
   47710461.4874545     
   47713294.2718170     
   47720604.2920702     
   47731031.9432400     
   47743508.5427280     
   47757189.7984274     
   47771402.4379806     
   47785601.9062866     
   47799339.1157044     
   47812234.3404912     
   47823956.4755203     
   47834206.0227847     
   47842700.3228792     
   47849159.7093616     
   47853293.4298332     
   47854784.3479893     
   47673645.4550260     
   47676406.2177923     
   47683527.5657275     
   47693682.6770703     
   47705829.9844280     
   47719147.4718751     
   47732980.1037852     
   47746798.2790959     
   47760165.2867982     
   47772711.8491906     
   47784115.9706166     
   47794086.4546356     
   47802348.6072398     
   47808630.8047655     
   47812650.7708416     
   47814100.5764908     
   47562931.1520632     
   47565477.4470546     
   47572037.1672820     
   47581381.2828845     
   47592549.0278465     
   47604784.6981390     
   47617487.4877711     
   47630172.2174527     
   47642438.9068068     
   47653949.2627055     
   47664408.2953652     
   47673549.4242700     
   47681121.5934930     
   47686877.0778418     
   47690558.8261577     
   47691886.3558084     
   47377527.0459573     
   47379721.2299408     
   47385359.5562207     
   47393374.1082339     
   47402936.9666478     
   47413401.2216365     
   47424254.8481507     
   47435085.2379654     
   47445552.3017616     
   47455368.1939058     
   47464281.8644426     
   47472066.8015384     
   47478510.4894514     
   47483404.2699602     
   47486532.4583714     
   47487659.7291869     
   47116137.5636616     
   47117850.0355182     
   47122229.2483058     
   47128428.8621465     
   47135803.0887093     
   47143853.6949138     
   47152189.5862254     
   47160496.6866138     
   47168515.9834916     
   47176027.7694952     
   47182840.2819626     
   47188781.1105030     
   47193689.9101526     
   47197411.1210382     
   47199785.5554643     
   47200639.8713157     
   46776998.6722837     
   46778111.1593447     
   46780924.5175473     
   46784870.3532801     
   46789530.3763646     
   46794591.2535725     
   46799811.6123873     
   46804998.8280993     
   46809993.4181167     
   46814659.0606851     
   46818876.4449381     
   46822539.3413075     
   46825551.4537868     
   46827822.7782500     
   46829264.3455142     
   46829780.3768113     
   46357927.8817993     
   46358336.7750818     
   46359317.5062393     
   46360630.5842421     
   46362125.4668617     
   46363705.2116445     
   46365302.6552411     
   46366865.6737857     
   46368349.3141671     
   46369712.8137946     
   46370919.7395961     
   46371939.6724030     
   46372750.0397284     
   46373336.8595330     
   46373693.3030673     
   46373815.1207921     
   45856388.7963216     
   45856008.5195929     
   45854938.8082999     
   45853313.2027437     
   45851282.7953435     
   45848992.7130135     
   45846569.2589831     
   45844115.2030088     
   45841710.9980730     
   45839419.9674904     
   45837295.7444406     
   45835390.4542317     
   45833762.3085284     
   45832481.4333915     
   45831632.8845029     
   45831315.9202762     
   45269570.2870963     
   45268336.6636373     
   45265056.5225976     
   45260272.2259713     
   45254462.7396195     
   45248034.0510127     
   45241319.0696946     
   45234584.4673609     
   45228042.2599601     
   45221864.2405668     
   45216197.6352174     
   45211180.5732315     
   45206956.1406608     
   45203683.9254713     
   45201548.0737363     
   45200760.9674204     
   44594480.2425163     
   44592353.7986115     
   44586769.6417032     
   44578704.8098771     
   44568983.4255419     
   44558283.1909342     
   44547149.8166395     
   44536016.8563290     
   44525228.8258862     
   44515065.8333380     
   44505768.2339562     
   44497560.0519727     
   44490670.0798900     
   44485349.6858018     
   44481886.4396189     
   44480612.7244536     
   43828053.6566733     
   43825022.7729186     
   43817115.4370142     
   43805757.6202193     
   43792125.6250475     
   43777170.7909869     
   43761650.1431595     
   43746160.5395656     
   43731174.3390817     
   43717075.0030923     
   43704191.3541966     
   43692829.4453801     
   43683301.1470672     
   43675948.6477899     
   43671164.1020675     
   43669403.6653783     
   42967274.5394209     
   42963358.3308383     
   42953190.2154640     
   42938646.0699776     
   42921249.8797252     
   42902218.7111321     
   42882511.1292932     
   42862876.7831462     
   42843905.4105138     
   42826073.9487720     
   42809790.7674317     
   42795436.2652615     
   42783399.2026551     
   42774108.1832818     
   42768057.6780000     
   42765827.9239547     
   42009310.7620667     
   42004561.5369646     
   41992282.4514856     
   41974785.3145953     
   41953924.6084891     
   41931164.6246239     
   41907646.9742805     
   41884256.4649425     
   41861683.9297629     
   41840485.0746805     
   41821134.7552934     
   41804076.3102318     
   41789765.6665467     
   41778709.9130856     
   41771499.9367383     
   41768836.5674968     
   40951660.4925666     
   40946165.6096352     
   40932016.8405523     
   40911931.4432277     
   40888063.5103653     
   40862094.9066608     
   40835322.8752648     
   40808742.6923131     
   40783124.4164066     
   40759083.3042714     
   40737143.8257167     
   40717797.4040850     
   40701554.0410055     
   40688987.8790639     
   40680776.5478539     
   40677733.8719041     
   39792308.3272574     
   39786191.2424193     
   39770507.2832143     
   39748330.7772438     
   39722070.0595490     
   39693583.4759502     
   39664287.6570788     
   39635256.9628559     
   39607313.7500388     
   39581109.6941724     
   39557198.7715118     
   39536102.6658726     
   39518369.3206189     
   39504625.1365348     
   39495620.9670268     
   39492271.6398216     
   38529888.6050290     
   38523308.8762205     
   38506516.2040497     
   38482874.5996764     
   38454986.3227504     
   38424833.7211266     
   38393908.1902495     
   38363325.8199723     
   38333930.1587965     
   38306383.1718776     
   38281245.8538775     
   38259050.0676547     
   38240363.0308464     
   38225845.5034058     
   38216304.1966919     
   38212738.3002273     
   37163852.7160967     
   37157004.7177012     
   37139616.9598052     
   37115256.0116635     
   37086642.7275772     
   37055820.0729921     
   37024302.0981806     
   36993204.4581002     
   36963357.8919365     
   36935406.8097883     
   36909895.5246152     
   36887344.7051697     
   36868320.3384182     
   36853496.9295297     
   36843715.9022569     
   36840039.2782679     
   35694636.5244671     
   35687746.6154985     
   35670355.4265559     
   35646124.9723691     
   35617804.7999789     
   35587425.2074698     
   35556464.7210954     
   35525993.2501442     
   35496793.5765898     
   35469464.6812666     
   35444510.7889455     
   35422419.9431560     
   35403735.4529309     
   35389122.7559334     
   35379433.1905677     
   35375764.9576289     
   34123823.3582517     
   34117145.2504559     
   34100406.2190063     
   34077236.9625482     
   34050312.2964064     
   34021568.3057639     
   33992385.7954467     
   33963742.7263115     
   33936339.8918189     
   33910705.0556344     
   33887281.0936932     
   33866503.4392658     
   33848871.4266718     
   33835017.0538500     
   33825773.2983791     
   33822242.5068613     
   32454297.4500815     
   32448105.5320424     
   32432718.4391009     
   32411590.1579202     
   32387205.6076982     
   32361319.2745207     
   32335150.8397685     
   32309542.1526271     
   32285081.9181103     
   32262205.5216841     
   32241277.5516858     
   32222664.0471832     
   32206800.5039743     
   32194260.3078030     
   32185826.5309732     
   32182567.9407845     
   30690382.3182011     
   30684962.7017432     
   30671645.4387396     
   30653545.5430068     
   30632833.8186638     
   30610993.3392086     
   30589021.8138013     
   30567586.5566075     
   30547141.3755334     
   30528015.6387544     
   30510485.4469750     
   30494835.8140318     
   30481421.4269208     
   30470731.9790266     
   30463466.0704768     
   30460615.0716243     
   28837958.4851463     
   28833597.5315015     
   28823052.8816154     
   28808924.0578077     
   28792938.3469010     
   28776219.9295385     
   28759491.2112656     
   28743216.8337355     
   28727703.9939219     
   28713172.9764081     
   28699810.3972632     
   28687815.8057965     
   28677450.6389849     
   28669097.0006736     
   28663331.7690057     
   28661018.4963223     
   26904555.3003375     
   26901525.3121713     
   26894399.4682163     
   26885074.6193849     
   26874705.5584287     
   26863979.1652959     
   26853303.2850288     
   26842927.4337553     
   26833015.5224133     
   26823689.0276213     
   26815055.4130077     
   26807233.4423506     
   26800385.2318020     
   26794764.0586658     
   26790785.7644202     
   26789128.4679409     
   24899412.7155267     
   24897954.2513853     
   24894785.0863449     
   24890906.5538370     
   24886780.9165622     
   24882598.2900065     
   24878435.4506449     
   24874336.0542808     
   24870342.4702286     
   24866502.6284552     
   24862867.5893531     
   24859490.5943822     
   24856436.8834565     
   24853814.6426827     
   24851838.6776227     
   24850936.3623336     
   22833511.0838131     
   22833810.7480609     
   22834961.8166372     
   22836879.1953072     
   22839235.5173253     
   22841698.6705317     
   22844031.8857129     
   22846109.7708251     
   22847894.7123872     
   22849400.4155322     
   22850655.5995205     
   22851674.2049530     
   22852438.1651838     
   22852903.3569286     
   22853046.1631315     
   22852970.3234094     
   20719571.2566246     
   20721732.3124716     
   20727303.8095948     
   20734939.0744060     
   20743472.1924939     
   20752080.8719168     
   20760279.8292142     
   20767842.2512707     
   20774708.7885113     
   20780906.7580803     
   20786482.9182967     
   20791447.2017091     
   20795725.9094943     
   20799131.9778820     
   20801376.4205396     
   20802161.1888530     
   18572035.4033522     
   18576034.6657748     
   18585731.1744502     
   18598388.4377427     
   18612050.6831412     
   18625530.3036488     
   18638217.4866748     
   18649877.6213305     
   18660493.3260007     
   18670149.5421827     
   18678947.1619354     
   18686929.8354026     
   18694012.0573429     
   18699902.6196607     
   18704049.4210620     
   18705677.9451714     
   16407056.2176956     
   16412670.0286507     
   16425575.1059879     
   16441650.8361901     
   16458396.6967135     
   16474520.0824062     
   16489462.5147461     
   16503079.3480604     
   16515441.6613485     
   16526712.6365731     
   16537062.1933238     
   16546594.0723028     
   16555263.1145676     
   16562761.7518647     
   16568346.0063627     
   16570728.2759164     
   14242570.3785386     
   14249207.6929015     
   14263337.4427525     
   14279851.3995693     
   14296340.1173434     
   14311786.6625631     
   14325856.4167752     
   14338549.0393392     
   14350021.1850395     
   14360488.7206997     
   14370164.2947306     
   14379203.9160662     
   14387639.1090242     
   14395259.1675733     
   14401384.8559241     
   14404294.7306589     
   12098641.6041628     
   12104919.7873928     
   12116103.0485300     
   12128053.9212426     
   12139423.3593488     
   12149774.0900124     
   12159039.0089355     
   12167311.7916159     
   12174753.2233703     
   12181544.2964586     
   12187858.5107325     
   12193838.5808394     
   12199564.1466192     
   12204987.1533918     
   12209768.4426422     
   12212803.8995100     
   10000000.0000000     
   10000000.0000000     
   10000000.0000000     
   10000000.0000000     
   10000000.0000000     
   10000000.0000000     
   10000000.0000000     
   10000000.0000000     
   10000000.0000000     
   10000000.0000000     
   10000000.0000000     
   10000000.0000000     
   10000000.0000000     
  10000000.00000000     
   10000000.0000000     
   10000000.0000000     
VECTORS u double 
    0.00000E+00        -0.15692E-01         0.00000E+00
    0.00000E+00        -0.14479E-01         0.00000E+00
    0.00000E+00        -0.13289E-01         0.00000E+00
    0.00000E+00        -0.12122E-01         0.00000E+00
    0.00000E+00        -0.10977E-01         0.00000E+00
    0.00000E+00        -0.98529E-02         0.00000E+00
    0.00000E+00        -0.87503E-02         0.00000E+00
    0.00000E+00        -0.76693E-02         0.00000E+00
    0.00000E+00        -0.66105E-02         0.00000E+00
    0.00000E+00        -0.55753E-02         0.00000E+00
    0.00000E+00        -0.45656E-02         0.00000E+00
    0.00000E+00        -0.35838E-02         0.00000E+00
    0.00000E+00        -0.26327E-02         0.00000E+00
    0.00000E+00        -0.17158E-02         0.00000E+00
    0.00000E+00        -0.83679E-03         0.00000E+00
    0.00000E+00         0.00000E+00         0.00000E+00
    0.11162E-02        -0.15739E-01         0.00000E+00
    0.10229E-02        -0.14524E-01         0.00000E+00
    0.93397E-03        -0.13332E-01         0.00000E+00
    0.84951E-03        -0.12163E-01         0.00000E+00
    0.76927E-03        -0.11015E-01         0.00000E+00
    0.69286E-03        -0.98884E-02         0.00000E+00
    0.61974E-03        -0.87830E-02         0.00000E+00
    0.54931E-03        -0.76989E-02         0.00000E+00
    0.48087E-03        -0.66370E-02         0.00000E+00
    0.41371E-03        -0.55985E-02         0.00000E+00
    0.34713E-03        -0.45852E-02         0.00000E+00
    0.28042E-03        -0.35997E-02         0.00000E+00
    0.21293E-03        -0.26448E-02         0.00000E+00
    0.14404E-03        -0.17239E-02         0.00000E+00
    0.73222E-04        -0.84093E-03         0.00000E+00
    0.00000E+00         0.00000E+00         0.00000E+00
    0.22280E-02        -0.15883E-01         0.00000E+00
    0.20412E-02        -0.14661E-01         0.00000E+00
    0.18635E-02        -0.13462E-01         0.00000E+00
    0.16947E-02        -0.12285E-01         0.00000E+00
    0.15345E-02        -0.11130E-01         0.00000E+00
    0.13820E-02        -0.99950E-02         0.00000E+00
    0.12362E-02        -0.88810E-02         0.00000E+00
    0.10957E-02        -0.77879E-02         0.00000E+00
    0.95930E-03        -0.67164E-02         0.00000E+00
    0.82542E-03        -0.56679E-02         0.00000E+00
    0.69267E-03        -0.46441E-02         0.00000E+00
    0.55965E-03        -0.36475E-02         0.00000E+00
    0.42503E-03        -0.26812E-02         0.00000E+00
    0.28758E-03        -0.17485E-02         0.00000E+00
    0.14621E-03        -0.85334E-03         0.00000E+00
    0.00000E+00         0.00000E+00         0.00000E+00
    0.33310E-02        -0.16122E-01         0.00000E+00
    0.30505E-02        -0.14888E-01         0.00000E+00
    0.27840E-02        -0.13678E-01         0.00000E+00
    0.25314E-02        -0.12489E-01         0.00000E+00
    0.22917E-02        -0.11321E-01         0.00000E+00
    0.20639E-02        -0.10173E-01         0.00000E+00
    0.18461E-02        -0.90446E-02         0.00000E+00
    0.16364E-02        -0.79364E-02         0.00000E+00
    0.14328E-02        -0.68490E-02         0.00000E+00
    0.12331E-02        -0.57836E-02         0.00000E+00
    0.10350E-02        -0.47422E-02         0.00000E+00
    0.83647E-03        -0.37273E-02         0.00000E+00
    0.63545E-03        -0.27419E-02         0.00000E+00
    0.43009E-03        -0.17894E-02         0.00000E+00
    0.21874E-03        -0.87403E-03         0.00000E+00
    0.00000E+00         0.00000E+00         0.00000E+00
    0.44203E-02        -0.16457E-01         0.00000E+00
    0.40460E-02        -0.15207E-01         0.00000E+00
    0.36910E-02        -0.13980E-01         0.00000E+00
    0.33549E-02        -0.12775E-01         0.00000E+00
    0.30367E-02        -0.11589E-01         0.00000E+00
    0.27345E-02        -0.10422E-01         0.00000E+00
    0.24460E-02        -0.92738E-02         0.00000E+00
    0.21684E-02        -0.81445E-02         0.00000E+00
    0.18990E-02        -0.70347E-02         0.00000E+00
    0.16347E-02        -0.59458E-02         0.00000E+00
    0.13725E-02        -0.48797E-02         0.00000E+00
    0.11097E-02        -0.38390E-02         0.00000E+00
    0.84333E-03        -0.28268E-02         0.00000E+00
    0.57105E-03        -0.18468E-02         0.00000E+00
    0.29057E-03        -0.90302E-03         0.00000E+00
    0.00000E+00         0.00000E+00         0.00000E+00
    0.54910E-02        -0.16889E-01         0.00000E+00
    0.50226E-02        -0.15619E-01         0.00000E+00
    0.45793E-02        -0.14371E-01         0.00000E+00
    0.41608E-02        -0.13143E-01         0.00000E+00
    0.37652E-02        -0.11934E-01         0.00000E+00
    0.33901E-02        -0.10743E-01         0.00000E+00
    0.30325E-02        -0.95689E-02         0.00000E+00
    0.26887E-02        -0.84123E-02         0.00000E+00
    0.23552E-02        -0.72737E-02         0.00000E+00
    0.20281E-02        -0.61544E-02         0.00000E+00
    0.17036E-02        -0.50566E-02         0.00000E+00
    0.13780E-02        -0.39828E-02         0.00000E+00
    0.10478E-02        -0.29362E-02         0.00000E+00
    0.70991E-03        -0.19206E-02         0.00000E+00
    0.36145E-03        -0.94031E-03         0.00000E+00
    0.00000E+00         0.00000E+00         0.00000E+00
    0.65377E-02        -0.17419E-01         0.00000E+00
    0.59749E-02        -0.16123E-01         0.00000E+00
    0.54441E-02        -0.14849E-01         0.00000E+00
    0.49441E-02        -0.13594E-01         0.00000E+00
    0.44727E-02        -0.12357E-01         0.00000E+00
    0.40266E-02        -0.11136E-01         0.00000E+00
    0.36019E-02        -0.99300E-02         0.00000E+00
    0.31942E-02        -0.87399E-02         0.00000E+00
    0.27988E-02        -0.75660E-02         0.00000E+00
    0.24111E-02        -0.64097E-02         0.00000E+00
    0.20264E-02        -0.52729E-02         0.00000E+00
    0.16401E-02        -0.41585E-02         0.00000E+00
    0.12479E-02        -0.30699E-02         0.00000E+00
    0.84612E-03        -0.20108E-02         0.00000E+00
    0.43113E-03        -0.98592E-03         0.00000E+00
    0.00000E+00         0.00000E+00         0.00000E+00
    0.75545E-02        -0.18047E-01         0.00000E+00
    0.68973E-02        -0.16721E-01         0.00000E+00
    0.62796E-02        -0.15415E-01         0.00000E+00
    0.56997E-02        -0.14128E-01         0.00000E+00
    0.51545E-02        -0.12857E-01         0.00000E+00
    0.46397E-02        -0.11601E-01         0.00000E+00
    0.41505E-02        -0.10357E-01         0.00000E+00
    0.36815E-02        -0.91276E-02         0.00000E+00
    0.32271E-02        -0.79118E-02         0.00000E+00
    0.27815E-02        -0.67114E-02         0.00000E+00
    0.23391E-02        -0.55286E-02         0.00000E+00
    0.18946E-02        -0.43663E-02         0.00000E+00
    0.14428E-02        -0.32279E-02         0.00000E+00
    0.97908E-03        -0.21175E-02         0.00000E+00
    0.49933E-03        -0.10398E-02         0.00000E+00
    0.00000E+00         0.00000E+00         0.00000E+00
    0.85349E-02        -0.18774E-01         0.00000E+00
    0.77834E-02        -0.17412E-01         0.00000E+00
    0.70800E-02        -0.16071E-01         0.00000E+00
    0.64221E-02        -0.14746E-01         0.00000E+00
    0.58055E-02        -0.13436E-01         0.00000E+00
    0.52249E-02        -0.12138E-01         0.00000E+00
    0.46744E-02        -0.10851E-01         0.00000E+00
    0.41473E-02        -0.95751E-02         0.00000E+00
    0.36371E-02        -0.83108E-02         0.00000E+00
    0.31368E-02        -0.70596E-02         0.00000E+00
    0.26400E-02        -0.58236E-02         0.00000E+00
    0.21401E-02        -0.46059E-02         0.00000E+00
    0.16314E-02        -0.34101E-02         0.00000E+00
    0.11082E-02        -0.22405E-02         0.00000E+00
    0.56578E-03        -0.11020E-02         0.00000E+00
    0.00000E+00         0.00000E+00         0.00000E+00
    0.94717E-02        -0.19599E-01         0.00000E+00
    0.86265E-02        -0.18197E-01         0.00000E+00
    0.78391E-02        -0.16814E-01         0.00000E+00
    0.71056E-02        -0.15447E-01         0.00000E+00
    0.64206E-02        -0.14092E-01         0.00000E+00
    0.57777E-02        -0.12747E-01         0.00000E+00
    0.51694E-02        -0.11410E-01         0.00000E+00
    0.45881E-02        -0.10082E-01         0.00000E+00
    0.40259E-02        -0.87628E-02         0.00000E+00
    0.34747E-02        -0.74539E-02         0.00000E+00
    0.29270E-02        -0.61576E-02         0.00000E+00
    0.23752E-02        -0.48772E-02         0.00000E+00
    0.18126E-02        -0.36164E-02         0.00000E+00
    0.12328E-02        -0.23798E-02         0.00000E+00
    0.63017E-03        -0.11724E-02         0.00000E+00
    0.00000E+00         0.00000E+00         0.00000E+00
    0.10357E-01        -0.20524E-01         0.00000E+00
    0.94192E-02        -0.19076E-01         0.00000E+00
    0.85499E-02        -0.17647E-01         0.00000E+00
    0.77438E-02        -0.16231E-01         0.00000E+00
    0.69942E-02        -0.14826E-01         0.00000E+00
    0.62929E-02        -0.13428E-01         0.00000E+00
    0.56312E-02        -0.12035E-01         0.00000E+00
    0.50001E-02        -0.10648E-01         0.00000E+00
    0.43903E-02        -0.92672E-02         0.00000E+00
    0.37926E-02        -0.78937E-02         0.00000E+00
    0.31981E-02        -0.65301E-02         0.00000E+00
    0.25983E-02        -0.51797E-02         0.00000E+00
    0.19854E-02        -0.38465E-02         0.00000E+00
    0.13521E-02        -0.25351E-02         0.00000E+00
    0.69217E-03        -0.12510E-02         0.00000E+00
    0.00000E+00         0.00000E+00         0.00000E+00
    0.11182E-01        -0.21546E-01         0.00000E+00
    0.10154E-01        -0.20048E-01         0.00000E+00
    0.92052E-02        -0.18567E-01         0.00000E+00
    0.83304E-02        -0.17098E-01         0.00000E+00
    0.75203E-02        -0.15636E-01         0.00000E+00
    0.67654E-02        -0.14179E-01         0.00000E+00
    0.60554E-02        -0.12724E-01         0.00000E+00
    0.53795E-02        -0.11272E-01         0.00000E+00
    0.47271E-02        -0.98230E-02         0.00000E+00
    0.40876E-02        -0.83782E-02         0.00000E+00
    0.34511E-02        -0.69404E-02         0.00000E+00
    0.28077E-02        -0.55129E-02         0.00000E+00
    0.21486E-02        -0.40998E-02         0.00000E+00
    0.14656E-02        -0.27061E-02         0.00000E+00
    0.75146E-03        -0.13375E-02         0.00000E+00
    0.00000E+00         0.00000E+00         0.00000E+00
    0.11938E-01        -0.22665E-01         0.00000E+00
    0.10821E-01        -0.21112E-01         0.00000E+00
    0.97973E-02        -0.19574E-01         0.00000E+00
    0.88581E-02        -0.18045E-01         0.00000E+00
    0.79928E-02        -0.16521E-01         0.00000E+00
    0.71898E-02        -0.14999E-01         0.00000E+00
    0.64370E-02        -0.13476E-01         0.00000E+00
    0.57221E-02        -0.11953E-01         0.00000E+00
    0.50328E-02        -0.10429E-01         0.00000E+00
    0.43571E-02        -0.89062E-02         0.00000E+00
    0.36837E-02        -0.73873E-02         0.00000E+00
    0.30016E-02        -0.58757E-02         0.00000E+00
    0.23009E-02        -0.43757E-02         0.00000E+00
    0.15723E-02        -0.28925E-02         0.00000E+00
    0.80765E-03        -0.14317E-02         0.00000E+00
    0.00000E+00         0.00000E+00         0.00000E+00
    0.12615E-01        -0.23879E-01         0.00000E+00
    0.11412E-01        -0.22265E-01         0.00000E+00
    0.10318E-01        -0.20664E-01         0.00000E+00
    0.93198E-02        -0.19071E-01         0.00000E+00
    0.84052E-02        -0.17479E-01         0.00000E+00
    0.75604E-02        -0.15886E-01         0.00000E+00
    0.67713E-02        -0.14289E-01         0.00000E+00
    0.60237E-02        -0.12688E-01         0.00000E+00
    0.53038E-02        -0.11083E-01         0.00000E+00
    0.45980E-02        -0.94758E-02         0.00000E+00
    0.38936E-02        -0.78693E-02         0.00000E+00
    0.31783E-02        -0.62671E-02         0.00000E+00
    0.24410E-02        -0.46733E-02         0.00000E+00
    0.16714E-02        -0.30934E-02         0.00000E+00
    0.86036E-03        -0.15334E-02         0.00000E+00
    0.00000E+00         0.00000E+00         0.00000E+00
    0.13201E-01        -0.25184E-01         0.00000E+00
    0.11918E-01        -0.23504E-01         0.00000E+00
    0.10758E-01        -0.21835E-01         0.00000E+00
    0.97077E-02        -0.20171E-01         0.00000E+00
    0.87508E-02        -0.18506E-01         0.00000E+00
    0.78713E-02        -0.16836E-01         0.00000E+00
    0.70531E-02        -0.15159E-01         0.00000E+00
    0.62800E-02        -0.13474E-01         0.00000E+00
    0.55364E-02        -0.11782E-01         0.00000E+00
    0.48072E-02        -0.10085E-01         0.00000E+00
    0.40782E-02        -0.83845E-02         0.00000E+00
    0.33358E-02        -0.66853E-02         0.00000E+00
    0.25676E-02        -0.49914E-02         0.00000E+00
    0.17621E-02        -0.33083E-02         0.00000E+00
    0.90916E-03        -0.16421E-02         0.00000E+00
    0.00000E+00         0.00000E+00         0.00000E+00
    0.13685E-01        -0.26576E-01         0.00000E+00
    0.12327E-01        -0.24825E-01         0.00000E+00
    0.11109E-01        -0.23083E-01         0.00000E+00
    0.10014E-01        -0.21343E-01         0.00000E+00
    0.90225E-02        -0.19598E-01         0.00000E+00
    0.81164E-02        -0.17845E-01         0.00000E+00
    0.72770E-02        -0.16082E-01         0.00000E+00
    0.64863E-02        -0.14308E-01         0.00000E+00
    0.57267E-02        -0.12523E-01         0.00000E+00
    0.49814E-02        -0.10730E-01         0.00000E+00
    0.42348E-02        -0.89303E-02         0.00000E+00
    0.34719E-02        -0.71282E-02         0.00000E+00
    0.26789E-02        -0.53283E-02         0.00000E+00
    0.18433E-02        -0.35359E-02         0.00000E+00
    0.95356E-03        -0.17574E-02         0.00000E+00
    0.00000E+00         0.00000E+00         0.00000E+00
    0.14054E-01        -0.28049E-01         0.00000E+00
    0.12629E-01        -0.26222E-01         0.00000E+00
    0.11361E-01        -0.24401E-01         0.00000E+00
    0.10230E-01        -0.22579E-01         0.00000E+00
    0.92133E-02        -0.20750E-01         0.00000E+00
    0.82895E-02        -0.18909E-01         0.00000E+00
    0.74378E-02        -0.17054E-01         0.00000E+00
    0.66380E-02        -0.15185E-01         0.00000E+00
    0.58706E-02        -0.13302E-01         0.00000E+00
    0.51173E-02        -0.11407E-01         0.00000E+00
    0.43606E-02        -0.95033E-02         0.00000E+00
    0.35844E-02        -0.75934E-02         0.00000E+00
    0.27735E-02        -0.56822E-02         0.00000E+00
    0.19139E-02        -0.37752E-02         0.00000E+00
    0.99303E-03        -0.18787E-02         0.00000E+00
    0.00000E+00         0.00000E+00         0.00000E+00
    0.14295E-01        -0.29595E-01         0.00000E+00
    0.12813E-01        -0.27686E-01         0.00000E+00
    0.11505E-01        -0.25782E-01         0.00000E+00
    0.10348E-01        -0.23873E-01         0.00000E+00
    0.93158E-02        -0.21953E-01         0.00000E+00
    0.83844E-02        -0.20019E-01         0.00000E+00
    0.75300E-02        -0.18067E-01         0.00000E+00
    0.67303E-02        -0.16099E-01         0.00000E+00
    0.59639E-02        -0.14113E-01         0.00000E+00
    0.52110E-02        -0.12113E-01         0.00000E+00
    0.44525E-02        -0.10100E-01         0.00000E+00
    0.36708E-02        -0.80774E-02         0.00000E+00
    0.28492E-02        -0.60506E-02         0.00000E+00
    0.19726E-02        -0.40244E-02         0.00000E+00
    0.10270E-02        -0.20051E-02         0.00000E+00
    0.00000E+00         0.00000E+00         0.00000E+00
    0.14396E-01        -0.31204E-01         0.00000E+00
    0.12866E-01        -0.29210E-01         0.00000E+00
    0.11531E-01        -0.27217E-01         0.00000E+00
    0.10359E-01        -0.25216E-01         0.00000E+00
    0.93230E-02        -0.23200E-01         0.00000E+00
    0.83947E-02        -0.21167E-01         0.00000E+00
    0.75479E-02        -0.19115E-01         0.00000E+00
    0.67582E-02        -0.17042E-01         0.00000E+00
    0.60023E-02        -0.14949E-01         0.00000E+00
    0.52587E-02        -0.12839E-01         0.00000E+00
    0.45070E-02        -0.10714E-01         0.00000E+00
    0.37282E-02        -0.85764E-02         0.00000E+00
    0.29041E-02        -0.64306E-02         0.00000E+00
    0.20181E-02        -0.42817E-02         0.00000E+00
    0.10546E-02        -0.21357E-02         0.00000E+00
    0.00000E+00         0.00000E+00         0.00000E+00
    0.14342E-01        -0.32864E-01         0.00000E+00
    0.12779E-01        -0.30780E-01         0.00000E+00
    0.11428E-01        -0.28694E-01         0.00000E+00
    0.10255E-01        -0.26595E-01         0.00000E+00
    0.92278E-02        -0.24480E-01         0.00000E+00
    0.83143E-02        -0.22344E-01         0.00000E+00
    0.74862E-02        -0.20186E-01         0.00000E+00
    0.67167E-02        -0.18005E-01         0.00000E+00
    0.59811E-02        -0.15803E-01         0.00000E+00
    0.52562E-02        -0.13581E-01         0.00000E+00
    0.45205E-02        -0.11341E-01         0.00000E+00
    0.37534E-02        -0.90857E-02         0.00000E+00
    0.29355E-02        -0.68188E-02         0.00000E+00
    0.20485E-02        -0.45449E-02         0.00000E+00
    0.10752E-02        -0.22695E-02         0.00000E+00
    0.00000E+00         0.00000E+00         0.00000E+00
    0.14119E-01        -0.34561E-01         0.00000E+00
    0.12538E-01        -0.32383E-01         0.00000E+00
    0.11188E-01        -0.30199E-01         0.00000E+00
    0.10029E-01        -0.27999E-01         0.00000E+00
    0.90234E-02        -0.25779E-01         0.00000E+00
    0.81373E-02        -0.23536E-01         0.00000E+00
    0.73393E-02        -0.21269E-01         0.00000E+00
    0.66007E-02        -0.18978E-01         0.00000E+00
    0.58953E-02        -0.16664E-01         0.00000E+00
    0.51989E-02        -0.14328E-01         0.00000E+00
    0.44886E-02        -0.11973E-01         0.00000E+00
    0.37428E-02        -0.95997E-02         0.00000E+00
    0.29405E-02        -0.72112E-02         0.00000E+00
    0.20618E-02        -0.48113E-02         0.00000E+00
    0.10875E-02        -0.24053E-02         0.00000E+00
    0.00000E+00         0.00000E+00         0.00000E+00
    0.13714E-01        -0.36277E-01         0.00000E+00
    0.12134E-01        -0.34002E-01         0.00000E+00
    0.10802E-01        -0.31716E-01         0.00000E+00
    0.96724E-02        -0.29410E-01         0.00000E+00
    0.87036E-02        -0.27081E-01         0.00000E+00
    0.78580E-02        -0.24728E-01         0.00000E+00
    0.71019E-02        -0.22350E-01         0.00000E+00
    0.64050E-02        -0.19947E-01         0.00000E+00
    0.57399E-02        -0.17521E-01         0.00000E+00
    0.50816E-02        -0.15072E-01         0.00000E+00
    0.44065E-02        -0.12602E-01         0.00000E+00
    0.36918E-02        -0.10112E-01         0.00000E+00
    0.29154E-02        -0.76029E-02         0.00000E+00
    0.20554E-02        -0.50781E-02         0.00000E+00
    0.10903E-02        -0.25417E-02         0.00000E+00
    0.00000E+00         0.00000E+00         0.00000E+00
    0.13113E-01        -0.37993E-01         0.00000E+00
    0.11555E-01        -0.35617E-01         0.00000E+00
    0.10261E-01        -0.33225E-01         0.00000E+00
    0.91790E-02        -0.30810E-01         0.00000E+00
    0.82627E-02        -0.28370E-01         0.00000E+00
    0.74712E-02        -0.25904E-01         0.00000E+00
    0.67688E-02        -0.23413E-01         0.00000E+00
    0.61241E-02        -0.20898E-01         0.00000E+00
    0.55091E-02        -0.18361E-01         0.00000E+00
    0.48986E-02        -0.15801E-01         0.00000E+00
    0.42684E-02        -0.13219E-01         0.00000E+00
    0.35953E-02        -0.10615E-01         0.00000E+00
    0.28557E-02        -0.79888E-02         0.00000E+00
    0.20259E-02        -0.53418E-02         0.00000E+00
    0.10819E-02        -0.26771E-02         0.00000E+00
    0.00000E+00         0.00000E+00         0.00000E+00
    0.12303E-01        -0.39685E-01         0.00000E+00
    0.10792E-01        -0.37206E-01         0.00000E+00
    0.95586E-02        -0.34704E-01         0.00000E+00
    0.85435E-02        -0.32176E-01         0.00000E+00
    0.76961E-02        -0.29622E-01         0.00000E+00
    0.69723E-02        -0.27042E-01         0.00000E+00
    0.63350E-02        -0.24439E-01         0.00000E+00
    0.57524E-02        -0.21814E-01         0.00000E+00
    0.51967E-02        -0.19168E-01         0.00000E+00
    0.46431E-02        -0.16502E-01         0.00000E+00
    0.40675E-02        -0.13813E-01         0.00000E+00
    0.34466E-02        -0.11101E-01         0.00000E+00
    0.27557E-02        -0.83627E-02         0.00000E+00
    0.19692E-02        -0.55987E-02         0.00000E+00
    0.10599E-02        -0.28098E-02         0.00000E+00
    0.00000E+00         0.00000E+00         0.00000E+00
    0.11273E-01        -0.41326E-01         0.00000E+00
    0.98373E-02        -0.38740E-01         0.00000E+00
    0.86889E-02        -0.36127E-01         0.00000E+00
    0.77619E-02        -0.33484E-01         0.00000E+00
    0.70001E-02        -0.30814E-01         0.00000E+00
    0.63573E-02        -0.28121E-01         0.00000E+00
    0.57956E-02        -0.25407E-01         0.00000E+00
    0.52839E-02        -0.22675E-01         0.00000E+00
    0.47957E-02        -0.19927E-01         0.00000E+00
    0.43072E-02        -0.17160E-01         0.00000E+00
    0.37956E-02        -0.14372E-01         0.00000E+00
    0.32376E-02        -0.11559E-01         0.00000E+00
    0.26083E-02        -0.87179E-02         0.00000E+00
    0.18797E-02        -0.58446E-02         0.00000E+00
    0.10213E-02        -0.29379E-02         0.00000E+00
    0.00000E+00         0.00000E+00         0.00000E+00
    0.10011E-01        -0.42883E-01         0.00000E+00
    0.86836E-02        -0.40189E-01         0.00000E+00
    0.76488E-02        -0.37462E-01         0.00000E+00
    0.68321E-02        -0.34703E-01         0.00000E+00
    0.61725E-02        -0.31917E-01         0.00000E+00
    0.56226E-02        -0.29112E-01         0.00000E+00
    0.51455E-02        -0.26293E-01         0.00000E+00
    0.47121E-02        -0.23461E-01         0.00000E+00
    0.42981E-02        -0.20617E-01         0.00000E+00
    0.38820E-02        -0.17759E-01         0.00000E+00
    0.34428E-02        -0.14882E-01         0.00000E+00
    0.29584E-02        -0.11980E-01         0.00000E+00
    0.24041E-02        -0.90468E-02         0.00000E+00
    0.17503E-02        -0.60749E-02         0.00000E+00
    0.96222E-03        -0.30595E-02         0.00000E+00
    0.00000E+00         0.00000E+00         0.00000E+00
    0.85089E-02        -0.44319E-01         0.00000E+00
    0.73276E-02        -0.41517E-01         0.00000E+00
    0.64379E-02        -0.38674E-01         0.00000E+00
    0.57542E-02        -0.35798E-01         0.00000E+00
    0.52121E-02        -0.32900E-01         0.00000E+00
    0.47650E-02        -0.29989E-01         0.00000E+00
    0.43793E-02        -0.27071E-01         0.00000E+00
    0.40295E-02        -0.24148E-01         0.00000E+00
    0.36949E-02        -0.21220E-01         0.00000E+00
    0.33568E-02        -0.18283E-01         0.00000E+00
    0.29973E-02        -0.15329E-01         0.00000E+00
    0.25967E-02        -0.12352E-01         0.00000E+00
    0.21313E-02        -0.93411E-02         0.00000E+00
    0.15712E-02        -0.62845E-02         0.00000E+00
    0.87694E-03        -0.31724E-02         0.00000E+00
    0.00000E+00         0.00000E+00         0.00000E+00
    0.67584E-02        -0.45590E-01         0.00000E+00
    0.57696E-02        -0.42679E-01         0.00000E+00
    0.50595E-02        -0.39719E-01         0.00000E+00
    0.45306E-02        -0.36729E-01         0.00000E+00
    0.41181E-02        -0.33725E-01         0.00000E+00
    0.37807E-02        -0.30718E-01         0.00000E+00
    0.34907E-02        -0.27714E-01         0.00000E+00
    0.32277E-02        -0.24715E-01         0.00000E+00
    0.29755E-02        -0.21716E-01         0.00000E+00
    0.27196E-02        -0.18714E-01         0.00000E+00
    0.24456E-02        -0.15699E-01         0.00000E+00
    0.21375E-02        -0.12663E-01         0.00000E+00
    0.17748E-02        -0.95909E-02         0.00000E+00
    0.13290E-02        -0.64671E-02         0.00000E+00
    0.75738E-03        -0.32743E-02         0.00000E+00
    0.00000E+00         0.00000E+00         0.00000E+00
    0.47545E-02        -0.46640E-01         0.00000E+00
    0.40160E-02        -0.43619E-01         0.00000E+00
    0.35218E-02        -0.40545E-01         0.00000E+00
    0.31646E-02        -0.37450E-01         0.00000E+00
    0.28889E-02        -0.34354E-01         0.00000E+00
    0.26644E-02        -0.31269E-01         0.00000E+00
    0.24716E-02        -0.28197E-01         0.00000E+00
    0.22967E-02        -0.25138E-01         0.00000E+00
    0.21284E-02        -0.22086E-01         0.00000E+00
    0.19571E-02        -0.19036E-01         0.00000E+00
    0.17727E-02        -0.15977E-01         0.00000E+00
    0.15639E-02        -0.12899E-01         0.00000E+00
    0.13155E-02        -0.97848E-02         0.00000E+00
    0.10049E-02        -0.66150E-02         0.00000E+00
    0.59088E-03        -0.33618E-02         0.00000E+00
    0.00000E+00         0.00000E+00         0.00000E+00
    0.24955E-02        -0.47394E-01         0.00000E+00
    0.20840E-02        -0.44264E-01         0.00000E+00
    0.18351E-02        -0.41087E-01         0.00000E+00
    0.16567E-02        -0.37910E-01         0.00000E+00
    0.15195E-02        -0.34751E-01         0.00000E+00
    0.14079E-02        -0.31613E-01         0.00000E+00
    0.13121E-02        -0.28498E-01         0.00000E+00
    0.12250E-02        -0.25400E-01         0.00000E+00
    0.11410E-02        -0.22315E-01         0.00000E+00
    0.10553E-02        -0.19235E-01         0.00000E+00
    0.96278E-03        -0.16150E-01         0.00000E+00
    0.85749E-03        -0.13047E-01         0.00000E+00
    0.73147E-03        -0.99093E-02         0.00000E+00
    0.57200E-03        -0.67150E-02         0.00000E+00
    0.35491E-03        -0.34302E-02         0.00000E+00
    0.00000E+00         0.00000E+00         0.00000E+00
    0.00000E+00        -0.47717E-01         0.00000E+00
    0.00000E+00        -0.44502E-01         0.00000E+00
    0.00000E+00        -0.41277E-01         0.00000E+00
    0.00000E+00        -0.38070E-01         0.00000E+00
    0.00000E+00        -0.34887E-01         0.00000E+00
    0.00000E+00        -0.31731E-01         0.00000E+00
    0.00000E+00        -0.28600E-01         0.00000E+00
    0.00000E+00        -0.25489E-01         0.00000E+00
    0.00000E+00        -0.22393E-01         0.00000E+00
    0.00000E+00        -0.19303E-01         0.00000E+00
    0.00000E+00        -0.16209E-01         0.00000E+00
    0.00000E+00        -0.13098E-01         0.00000E+00
    0.00000E+00        -0.99526E-02         0.00000E+00
    0.00000E+00        -0.67511E-02         0.00000E+00
    0.00000E+00        -0.34590E-02         0.00000E+00
    0.00000E+00         0.00000E+00         0.00000E+00
CELL_DATA        450
VECTORS vDarcy double 
    0.26320E-09         0.19975E-10         0.00000E+00
    0.26411E-09         0.51532E-10         0.00000E+00
    0.26575E-09         0.73493E-10         0.00000E+00
    0.26788E-09         0.87918E-10         0.00000E+00
    0.27034E-09         0.96393E-10         0.00000E+00
    0.27299E-09         0.10012E-09         0.00000E+00
    0.27569E-09         0.10002E-09         0.00000E+00
    0.27837E-09         0.96757E-10         0.00000E+00
    0.28092E-09         0.90819E-10         0.00000E+00
    0.28329E-09         0.82551E-10         0.00000E+00
    0.28541E-09         0.72174E-10         0.00000E+00
    0.28723E-09         0.59810E-10         0.00000E+00
    0.28868E-09         0.45478E-10         0.00000E+00
    0.28971E-09         0.29102E-10         0.00000E+00
    0.29026E-09         0.10496E-10         0.00000E+00
    0.79148E-09         0.18951E-10         0.00000E+00
    0.79421E-09         0.48852E-10         0.00000E+00
    0.79907E-09         0.69624E-10         0.00000E+00
    0.80542E-09         0.83244E-10         0.00000E+00
    0.81274E-09         0.91231E-10         0.00000E+00
    0.82060E-09         0.94734E-10         0.00000E+00
    0.82865E-09         0.94614E-10         0.00000E+00
    0.83659E-09         0.91507E-10         0.00000E+00
    0.84419E-09         0.85875E-10         0.00000E+00
    0.85123E-09         0.78041E-10         0.00000E+00
    0.85754E-09         0.68218E-10         0.00000E+00
    0.86293E-09         0.56518E-10         0.00000E+00
    0.86725E-09         0.42965E-10         0.00000E+00
    0.87032E-09         0.27488E-10         0.00000E+00
    0.87194E-09         0.99124E-11         0.00000E+00
    0.13254E-08         0.16928E-10         0.00000E+00
    0.13299E-08         0.43556E-10         0.00000E+00
    0.13378E-08         0.61980E-10         0.00000E+00
    0.13482E-08         0.74016E-10         0.00000E+00
    0.13602E-08         0.81043E-10         0.00000E+00
    0.13731E-08         0.84097E-10         0.00000E+00
    0.13863E-08         0.83946E-10         0.00000E+00
    0.13992E-08         0.81154E-10         0.00000E+00
    0.14117E-08         0.76126E-10         0.00000E+00
    0.14232E-08         0.69151E-10         0.00000E+00
    0.14335E-08         0.60416E-10         0.00000E+00
    0.14423E-08         0.50026E-10         0.00000E+00
    0.14494E-08         0.38009E-10         0.00000E+00
    0.14544E-08         0.24305E-10         0.00000E+00
    0.14571E-08         0.87612E-11         0.00000E+00
    0.18685E-08         0.13950E-10         0.00000E+00
    0.18746E-08         0.35769E-10         0.00000E+00
    0.18855E-08         0.50751E-10         0.00000E+00
    0.18997E-08         0.60470E-10         0.00000E+00
    0.19160E-08         0.66100E-10         0.00000E+00
    0.19335E-08         0.68506E-10         0.00000E+00
    0.19514E-08         0.68317E-10         0.00000E+00
    0.19691E-08         0.65990E-10         0.00000E+00
    0.19860E-08         0.61852E-10         0.00000E+00
    0.20017E-08         0.56133E-10         0.00000E+00
    0.20157E-08         0.48991E-10         0.00000E+00
    0.20277E-08         0.40519E-10         0.00000E+00
    0.20373E-08         0.30748E-10         0.00000E+00
    0.20441E-08         0.19639E-10         0.00000E+00
    0.20477E-08         0.70721E-11         0.00000E+00
    0.24241E-08         0.10087E-10         0.00000E+00
    0.24317E-08         0.25681E-10         0.00000E+00
    0.24452E-08         0.36223E-10         0.00000E+00
    0.24628E-08         0.42964E-10         0.00000E+00
    0.24831E-08         0.46808E-10         0.00000E+00
    0.25047E-08         0.48394E-10         0.00000E+00
    0.25269E-08         0.48171E-10         0.00000E+00
    0.25487E-08         0.46454E-10         0.00000E+00
    0.25696E-08         0.43466E-10         0.00000E+00
    0.25889E-08         0.39369E-10         0.00000E+00
    0.26062E-08         0.34278E-10         0.00000E+00
    0.26211E-08         0.28270E-10         0.00000E+00
    0.26329E-08         0.21387E-10         0.00000E+00
    0.26414E-08         0.13619E-10         0.00000E+00
    0.26459E-08         0.48905E-11         0.00000E+00
    0.29952E-08         0.54322E-11         0.00000E+00
    0.30041E-08         0.13546E-10         0.00000E+00
    0.30198E-08         0.18775E-10         0.00000E+00
    0.30404E-08         0.21973E-10         0.00000E+00
    0.30640E-08         0.23706E-10         0.00000E+00
    0.30892E-08         0.24338E-10         0.00000E+00
    0.31149E-08         0.24095E-10         0.00000E+00
    0.31403E-08         0.23124E-10         0.00000E+00
    0.31645E-08         0.21520E-10         0.00000E+00
    0.31869E-08         0.19360E-10         0.00000E+00
    0.32070E-08         0.16713E-10         0.00000E+00
    0.32242E-08         0.13642E-10         0.00000E+00
    0.32380E-08         0.10200E-10         0.00000E+00
    0.32478E-08         0.64167E-11         0.00000E+00
    0.32530E-08         0.22763E-11         0.00000E+00
    0.35842E-08         0.10217E-12         0.00000E+00
    0.35942E-08        -0.31768E-12         0.00000E+00
    0.36118E-08        -0.11157E-11         0.00000E+00
    0.36347E-08        -0.19117E-11         0.00000E+00
    0.36609E-08        -0.25357E-11         0.00000E+00
    0.36889E-08        -0.29485E-11         0.00000E+00
    0.37175E-08        -0.31805E-11         0.00000E+00
    0.37455E-08        -0.32857E-11         0.00000E+00
    0.37723E-08        -0.33105E-11         0.00000E+00
    0.37971E-08        -0.32739E-11         0.00000E+00
    0.38194E-08        -0.31598E-11         0.00000E+00
    0.38384E-08        -0.29185E-11         0.00000E+00
    0.38537E-08        -0.24769E-11         0.00000E+00
    0.38645E-08        -0.17561E-11         0.00000E+00
    0.38703E-08        -0.69639E-12         0.00000E+00
    0.41932E-08        -0.57620E-11         0.00000E+00
    0.42039E-08        -0.15529E-10         0.00000E+00
    0.42228E-08        -0.22882E-10         0.00000E+00
    0.42474E-08        -0.27986E-10         0.00000E+00
    0.42755E-08        -0.31122E-10         0.00000E+00
    0.43054E-08        -0.32618E-10         0.00000E+00
    0.43358E-08        -0.32796E-10         0.00000E+00
    0.43657E-08        -0.31930E-10         0.00000E+00
    0.43942E-08        -0.30226E-10         0.00000E+00
    0.44205E-08        -0.27804E-10         0.00000E+00
    0.44442E-08        -0.24704E-10         0.00000E+00
    0.44644E-08        -0.20886E-10         0.00000E+00
    0.44807E-08        -0.16248E-10         0.00000E+00
    0.44923E-08        -0.10650E-10         0.00000E+00
    0.44984E-08        -0.39397E-11         0.00000E+00
    0.48233E-08        -0.11995E-10         0.00000E+00
    0.48344E-08        -0.31644E-10         0.00000E+00
    0.48541E-08        -0.45866E-10         0.00000E+00
    0.48796E-08        -0.55436E-10         0.00000E+00
    0.49085E-08        -0.61137E-10         0.00000E+00
    0.49394E-08        -0.63703E-10         0.00000E+00
    0.49706E-08        -0.63769E-10         0.00000E+00
    0.50013E-08        -0.61849E-10         0.00000E+00
    0.50305E-08        -0.58317E-10         0.00000E+00
    0.50575E-08        -0.53402E-10         0.00000E+00
    0.50817E-08        -0.47195E-10         0.00000E+00
    0.51025E-08        -0.39661E-10         0.00000E+00
    0.51192E-08        -0.30661E-10         0.00000E+00
    0.51311E-08        -0.19979E-10         0.00000E+00
    0.51375E-08        -0.73534E-11         0.00000E+00
    0.54751E-08        -0.18410E-10         0.00000E+00
    0.54863E-08        -0.48158E-10         0.00000E+00
    0.55060E-08        -0.69326E-10         0.00000E+00
    0.55315E-08        -0.83352E-10         0.00000E+00
    0.55604E-08        -0.91563E-10         0.00000E+00
    0.55910E-08        -0.95124E-10         0.00000E+00
    0.56220E-08        -0.95008E-10         0.00000E+00
    0.56523E-08        -0.91978E-10         0.00000E+00
    0.56812E-08        -0.86580E-10         0.00000E+00
    0.57079E-08        -0.79151E-10         0.00000E+00
    0.57318E-08        -0.69832E-10         0.00000E+00
    0.57523E-08        -0.58584E-10         0.00000E+00
    0.57688E-08        -0.45218E-10         0.00000E+00
    0.57806E-08        -0.29428E-10         0.00000E+00
    0.57870E-08        -0.10826E-10         0.00000E+00
    0.61481E-08        -0.24797E-10         0.00000E+00
    0.61590E-08        -0.64515E-10         0.00000E+00
    0.61781E-08        -0.92444E-10         0.00000E+00
    0.62026E-08        -0.11073E-09         0.00000E+00
    0.62303E-08        -0.12129E-09         0.00000E+00
    0.62596E-08        -0.12571E-09         0.00000E+00
    0.62891E-08        -0.12534E-09         0.00000E+00
    0.63179E-08        -0.12117E-09         0.00000E+00
    0.63452E-08        -0.11394E-09         0.00000E+00
    0.63705E-08        -0.10407E-09         0.00000E+00
    0.63932E-08        -0.91757E-10         0.00000E+00
    0.64126E-08        -0.76944E-10         0.00000E+00
    0.64283E-08        -0.59382E-10         0.00000E+00
    0.64396E-08        -0.38657E-10         0.00000E+00
    0.64457E-08        -0.14236E-10         0.00000E+00
    0.68410E-08        -0.30927E-10         0.00000E+00
    0.68511E-08        -0.80110E-10         0.00000E+00
    0.68688E-08        -0.11434E-09         0.00000E+00
    0.68914E-08        -0.13652E-09         0.00000E+00
    0.69168E-08        -0.14913E-09         0.00000E+00
    0.69435E-08        -0.15424E-09         0.00000E+00
    0.69703E-08        -0.15352E-09         0.00000E+00
    0.69963E-08        -0.14823E-09         0.00000E+00
    0.70210E-08        -0.13926E-09         0.00000E+00
    0.70437E-08        -0.12713E-09         0.00000E+00
    0.70642E-08        -0.11207E-09         0.00000E+00
    0.70818E-08        -0.93999E-10         0.00000E+00
    0.70960E-08        -0.72589E-10         0.00000E+00
    0.71063E-08        -0.47307E-10         0.00000E+00
    0.71119E-08        -0.17456E-10         0.00000E+00
    0.75514E-08        -0.36557E-10         0.00000E+00
    0.75603E-08        -0.94306E-10         0.00000E+00
    0.75759E-08        -0.13410E-09         0.00000E+00
    0.75955E-08        -0.15960E-09         0.00000E+00
    0.76174E-08        -0.17386E-09         0.00000E+00
    0.76402E-08        -0.17943E-09         0.00000E+00
    0.76630E-08        -0.17828E-09         0.00000E+00
    0.76850E-08        -0.17193E-09         0.00000E+00
    0.77058E-08        -0.16140E-09         0.00000E+00
    0.77250E-08        -0.14730E-09         0.00000E+00
    0.77422E-08        -0.12987E-09         0.00000E+00
    0.77571E-08        -0.10900E-09         0.00000E+00
    0.77693E-08        -0.84266E-10         0.00000E+00
    0.77781E-08        -0.55011E-10         0.00000E+00
    0.77829E-08        -0.20354E-10         0.00000E+00
    0.82758E-08        -0.41434E-10         0.00000E+00
    0.82831E-08        -0.10644E-09         0.00000E+00
    0.82956E-08        -0.15078E-09         0.00000E+00
    0.83113E-08        -0.17884E-09         0.00000E+00
    0.83286E-08        -0.19427E-09         0.00000E+00
    0.83463E-08        -0.20002E-09         0.00000E+00
    0.83638E-08        -0.19839E-09         0.00000E+00
    0.83806E-08        -0.19107E-09         0.00000E+00
    0.83964E-08        -0.17924E-09         0.00000E+00
    0.84110E-08        -0.16355E-09         0.00000E+00
    0.84241E-08        -0.14426E-09         0.00000E+00
    0.84355E-08        -0.12120E-09         0.00000E+00
    0.84449E-08        -0.93848E-10         0.00000E+00
    0.84518E-08        -0.61406E-10         0.00000E+00
    0.84556E-08        -0.22799E-10         0.00000E+00
    0.90095E-08        -0.45298E-10         0.00000E+00
    0.90147E-08        -0.11586E-09         0.00000E+00
    0.90235E-08        -0.16345E-09         0.00000E+00
    0.90342E-08        -0.19316E-09         0.00000E+00
    0.90457E-08        -0.20917E-09         0.00000E+00
    0.90572E-08        -0.21481E-09         0.00000E+00
    0.90683E-08        -0.21264E-09         0.00000E+00
    0.90789E-08        -0.20452E-09         0.00000E+00
    0.90887E-08        -0.19172E-09         0.00000E+00
    0.90977E-08        -0.17494E-09         0.00000E+00
    0.91058E-08        -0.15441E-09         0.00000E+00
    0.91130E-08        -0.12990E-09         0.00000E+00
    0.91190E-08        -0.10080E-09         0.00000E+00
    0.91236E-08        -0.66143E-10         0.00000E+00
    0.91261E-08        -0.24663E-10         0.00000E+00
    0.97467E-08        -0.47899E-10         0.00000E+00
    0.97493E-08        -0.12192E-09         0.00000E+00
    0.97537E-08        -0.17122E-09         0.00000E+00
    0.97585E-08        -0.20153E-09         0.00000E+00
    0.97633E-08        -0.21748E-09         0.00000E+00
    0.97675E-08        -0.22271E-09         0.00000E+00
    0.97713E-08        -0.21998E-09         0.00000E+00
    0.97746E-08        -0.21129E-09         0.00000E+00
    0.97775E-08        -0.19793E-09         0.00000E+00
    0.97801E-08        -0.18063E-09         0.00000E+00
    0.97826E-08        -0.15958E-09         0.00000E+00
    0.97849E-08        -0.13449E-09         0.00000E+00
    0.97871E-08        -0.10464E-09         0.00000E+00
    0.97889E-08        -0.68907E-10         0.00000E+00
    0.97901E-08        -0.25828E-10         0.00000E+00
    0.10480E-07        -0.48997E-10         0.00000E+00
    0.10480E-07        -0.12404E-09         0.00000E+00
    0.10479E-07        -0.17329E-09         0.00000E+00
    0.10477E-07        -0.20304E-09         0.00000E+00
    0.10475E-07        -0.21826E-09         0.00000E+00
    0.10471E-07        -0.22280E-09         0.00000E+00
    0.10467E-07        -0.21956E-09         0.00000E+00
    0.10462E-07        -0.21056E-09         0.00000E+00
    0.10457E-07        -0.19713E-09         0.00000E+00
    0.10453E-07        -0.17996E-09         0.00000E+00
    0.10449E-07        -0.15919E-09         0.00000E+00
    0.10446E-07        -0.13446E-09         0.00000E+00
    0.10444E-07        -0.10496E-09         0.00000E+00
    0.10443E-07        -0.69428E-10         0.00000E+00
    0.10443E-07        -0.26190E-10         0.00000E+00
    0.11202E-07        -0.48382E-10         0.00000E+00
    0.11199E-07        -0.12170E-09         0.00000E+00
    0.11192E-07        -0.16901E-09         0.00000E+00
    0.11183E-07        -0.19698E-09         0.00000E+00
    0.11172E-07        -0.21081E-09         0.00000E+00
    0.11160E-07        -0.21444E-09         0.00000E+00
    0.11147E-07        -0.21078E-09         0.00000E+00
    0.11134E-07        -0.20182E-09         0.00000E+00
    0.11122E-07        -0.18884E-09         0.00000E+00
    0.11110E-07        -0.17249E-09         0.00000E+00
    0.11100E-07        -0.15285E-09         0.00000E+00
    0.11091E-07        -0.12948E-09         0.00000E+00
    0.11085E-07        -0.10150E-09         0.00000E+00
    0.11080E-07        -0.67505E-10         0.00000E+00
    0.11078E-07        -0.25667E-10         0.00000E+00
    0.11903E-07        -0.45884E-10         0.00000E+00
    0.11896E-07        -0.11453E-09         0.00000E+00
    0.11884E-07        -0.15792E-09         0.00000E+00
    0.11867E-07        -0.18292E-09         0.00000E+00
    0.11848E-07        -0.19476E-09         0.00000E+00
    0.11827E-07        -0.19733E-09         0.00000E+00
    0.11805E-07        -0.19341E-09         0.00000E+00
    0.11784E-07        -0.18489E-09         0.00000E+00
    0.11764E-07        -0.17294E-09         0.00000E+00
    0.11745E-07        -0.15812E-09         0.00000E+00
    0.11728E-07        -0.14043E-09         0.00000E+00
    0.11714E-07        -0.11941E-09         0.00000E+00
    0.11703E-07        -0.94097E-10         0.00000E+00
    0.11696E-07        -0.63020E-10         0.00000E+00
    0.11692E-07        -0.24204E-10         0.00000E+00
    0.12572E-07        -0.41389E-10         0.00000E+00
    0.12562E-07        -0.10231E-09         0.00000E+00
    0.12544E-07        -0.13983E-09         0.00000E+00
    0.12520E-07        -0.16074E-09         0.00000E+00
    0.12492E-07        -0.17012E-09         0.00000E+00
    0.12463E-07        -0.17159E-09         0.00000E+00
    0.12433E-07        -0.16769E-09         0.00000E+00
    0.12404E-07        -0.16006E-09         0.00000E+00
    0.12376E-07        -0.14972E-09         0.00000E+00
    0.12351E-07        -0.13709E-09         0.00000E+00
    0.12328E-07        -0.12213E-09         0.00000E+00
    0.12309E-07        -0.10436E-09         0.00000E+00
    0.12294E-07        -0.82804E-10         0.00000E+00
    0.12283E-07        -0.55963E-10         0.00000E+00
    0.12277E-07        -0.21778E-10         0.00000E+00
    0.13199E-07        -0.34855E-10         0.00000E+00
    0.13185E-07        -0.85036E-10         0.00000E+00
    0.13162E-07        -0.11485E-09         0.00000E+00
    0.13131E-07        -0.13078E-09         0.00000E+00
    0.13096E-07        -0.13742E-09         0.00000E+00
    0.13059E-07        -0.13792E-09         0.00000E+00
    0.13022E-07        -0.13439E-09         0.00000E+00
    0.12986E-07        -0.12815E-09         0.00000E+00
    0.12953E-07        -0.11995E-09         0.00000E+00
    0.12921E-07        -0.11010E-09         0.00000E+00
    0.12894E-07        -0.98526E-10         0.00000E+00
    0.12870E-07        -0.84753E-10         0.00000E+00
    0.12851E-07        -0.67872E-10         0.00000E+00
    0.12837E-07        -0.46445E-10         0.00000E+00
    0.12830E-07        -0.18406E-10         0.00000E+00
    0.13772E-07        -0.26333E-10         0.00000E+00
    0.13755E-07        -0.62958E-10         0.00000E+00
    0.13726E-07        -0.83564E-10         0.00000E+00
    0.13689E-07        -0.93903E-10         0.00000E+00
    0.13648E-07        -0.97789E-10         0.00000E+00
    0.13606E-07        -0.97648E-10         0.00000E+00
    0.13564E-07        -0.94962E-10         0.00000E+00
    0.13523E-07        -0.90598E-10         0.00000E+00
    0.13485E-07        -0.85015E-10         0.00000E+00
    0.13450E-07        -0.78384E-10         0.00000E+00
    0.13418E-07        -0.70618E-10         0.00000E+00
    0.13391E-07        -0.61342E-10         0.00000E+00
    0.13369E-07        -0.49802E-10         0.00000E+00
    0.13353E-07        -0.34723E-10         0.00000E+00
    0.13344E-07        -0.14150E-10         0.00000E+00
    0.14279E-07        -0.15988E-10         0.00000E+00
    0.14260E-07        -0.36672E-10         0.00000E+00
    0.14227E-07        -0.47033E-10         0.00000E+00
    0.14185E-07        -0.51635E-10         0.00000E+00
    0.14140E-07        -0.53112E-10         0.00000E+00
    0.14094E-07        -0.52864E-10         0.00000E+00
    0.14049E-07        -0.51571E-10         0.00000E+00
    0.14006E-07        -0.49542E-10         0.00000E+00
    0.13966E-07        -0.46910E-10         0.00000E+00
    0.13929E-07        -0.43713E-10         0.00000E+00
    0.13896E-07        -0.39903E-10         0.00000E+00
    0.13867E-07        -0.35282E-10         0.00000E+00
    0.13843E-07        -0.29373E-10         0.00000E+00
    0.13825E-07        -0.21217E-10         0.00000E+00
    0.13815E-07        -0.91207E-11         0.00000E+00
    0.14707E-07        -0.41265E-11         0.00000E+00
    0.14686E-07        -0.71869E-11         0.00000E+00
    0.14651E-07        -0.69844E-11         0.00000E+00
    0.14608E-07        -0.63015E-11         0.00000E+00
    0.14562E-07        -0.61243E-11         0.00000E+00
    0.14516E-07        -0.65169E-11         0.00000E+00
    0.14471E-07        -0.72007E-11         0.00000E+00
    0.14429E-07        -0.78676E-11         0.00000E+00
    0.14390E-07        -0.83150E-11         0.00000E+00
    0.14354E-07        -0.84782E-11         0.00000E+00
    0.14322E-07        -0.84020E-11         0.00000E+00
    0.14293E-07        -0.81577E-11         0.00000E+00
    0.14269E-07        -0.76851E-11         0.00000E+00
    0.14250E-07        -0.65313E-11         0.00000E+00
    0.14240E-07        -0.34851E-11         0.00000E+00
    0.15045E-07         0.87604E-11         0.00000E+00
    0.15024E-07         0.23935E-10         0.00000E+00
    0.14989E-07         0.34013E-10         0.00000E+00
    0.14947E-07         0.38775E-10         0.00000E+00
    0.14904E-07         0.39427E-10         0.00000E+00
    0.14862E-07         0.37508E-10         0.00000E+00
    0.14823E-07         0.34333E-10         0.00000E+00
    0.14786E-07         0.30813E-10         0.00000E+00
    0.14752E-07         0.27439E-10         0.00000E+00
    0.14720E-07         0.24333E-10         0.00000E+00
    0.14691E-07         0.21312E-10         0.00000E+00
    0.14665E-07         0.17963E-10         0.00000E+00
    0.14643E-07         0.13791E-10         0.00000E+00
    0.14625E-07         0.85044E-11         0.00000E+00
    0.14615E-07         0.25256E-11         0.00000E+00
    0.15280E-07         0.21925E-10         0.00000E+00
    0.15260E-07         0.54346E-10         0.00000E+00
    0.15229E-07         0.72237E-10         0.00000E+00
    0.15194E-07         0.79017E-10         0.00000E+00
    0.15160E-07         0.78642E-10         0.00000E+00
    0.15128E-07         0.74367E-10         0.00000E+00
    0.15098E-07         0.68448E-10         0.00000E+00
    0.15071E-07         0.62255E-10         0.00000E+00
    0.15046E-07         0.56460E-10         0.00000E+00
    0.15023E-07         0.51191E-10         0.00000E+00
    0.15002E-07         0.46112E-10         0.00000E+00
    0.14982E-07         0.40465E-10         0.00000E+00
    0.14963E-07         0.33114E-10         0.00000E+00
    0.14948E-07         0.22766E-10         0.00000E+00
    0.14939E-07         0.85965E-11         0.00000E+00
    0.15401E-07         0.34205E-10         0.00000E+00
    0.15386E-07         0.80429E-10         0.00000E+00
    0.15364E-07         0.10226E-09         0.00000E+00
    0.15342E-07         0.10823E-09         0.00000E+00
    0.15323E-07         0.10538E-09         0.00000E+00
    0.15307E-07         0.98360E-10         0.00000E+00
    0.15293E-07         0.89992E-10         0.00000E+00
    0.15281E-07         0.81812E-10         0.00000E+00
    0.15270E-07         0.74515E-10         0.00000E+00
    0.15260E-07         0.68181E-10         0.00000E+00
    0.15249E-07         0.62371E-10         0.00000E+00
    0.15239E-07         0.56095E-10         0.00000E+00
    0.15228E-07         0.47685E-10         0.00000E+00
    0.15218E-07         0.34658E-10         0.00000E+00
    0.15211E-07         0.14285E-10         0.00000E+00
    0.15395E-07         0.43579E-10         0.00000E+00
    0.15390E-07         0.96182E-10         0.00000E+00
    0.15386E-07         0.11596E-09         0.00000E+00
    0.15387E-07         0.11827E-09         0.00000E+00
    0.15392E-07         0.11236E-09         0.00000E+00
    0.15399E-07         0.10326E-09         0.00000E+00
    0.15407E-07         0.93652E-10         0.00000E+00
    0.15414E-07         0.84848E-10         0.00000E+00
    0.15421E-07         0.77392E-10         0.00000E+00
    0.15428E-07         0.71297E-10         0.00000E+00
    0.15433E-07         0.66126E-10         0.00000E+00
    0.15436E-07         0.60905E-10         0.00000E+00
    0.15437E-07         0.53838E-10         0.00000E+00
    0.15436E-07         0.41702E-10         0.00000E+00
    0.15433E-07         0.18848E-10         0.00000E+00
    0.15250E-07         0.45930E-10         0.00000E+00
    0.15265E-07         0.90036E-10         0.00000E+00
    0.15294E-07         0.10126E-09         0.00000E+00
    0.15330E-07         0.99119E-10         0.00000E+00
    0.15369E-07         0.91797E-10         0.00000E+00
    0.15405E-07         0.83043E-10         0.00000E+00
    0.15439E-07         0.74618E-10         0.00000E+00
    0.15471E-07         0.67320E-10         0.00000E+00
    0.15499E-07         0.61434E-10         0.00000E+00
    0.15525E-07         0.56921E-10         0.00000E+00
    0.15549E-07         0.53472E-10         0.00000E+00
    0.15571E-07         0.50417E-10         0.00000E+00
    0.15589E-07         0.46441E-10         0.00000E+00
    0.15603E-07         0.38838E-10         0.00000E+00
    0.15609E-07         0.21172E-10         0.00000E+00
    0.14945E-07         0.22321E-10         0.00000E+00
    0.15011E-07         0.39770E-10         0.00000E+00
    0.15096E-07         0.42508E-10         0.00000E+00
    0.15181E-07         0.40446E-10         0.00000E+00
    0.15260E-07         0.36826E-10         0.00000E+00
    0.15332E-07         0.32967E-10         0.00000E+00
    0.15396E-07         0.29439E-10         0.00000E+00
    0.15453E-07         0.26483E-10         0.00000E+00
    0.15505E-07         0.24170E-10         0.00000E+00
    0.15552E-07         0.22475E-10         0.00000E+00
    0.15597E-07         0.21287E-10         0.00000E+00
    0.15640E-07         0.20382E-10         0.00000E+00
    0.15681E-07         0.19306E-10         0.00000E+00
    0.15718E-07         0.17023E-10         0.00000E+00
    0.15748E-07         0.10809E-10         0.00000E+00
POINT_DATA        496
VECTORS vDarcyNodal double 
    0.26294E-09         0.20232E-10         0.00000E+00
    0.26345E-09         0.36219E-10         0.00000E+00
    0.26478E-09         0.63336E-10         0.00000E+00
    0.26671E-09         0.81780E-10         0.00000E+00
    0.26905E-09         0.93393E-10         0.00000E+00
    0.27164E-09         0.99586E-10         0.00000E+00
    0.27434E-09         0.10143E-09         0.00000E+00
    0.27705E-09         0.99731E-10         0.00000E+00
    0.27968E-09         0.95071E-10         0.00000E+00
    0.28216E-09         0.87875E-10         0.00000E+00
    0.28442E-09         0.78428E-10         0.00000E+00
    0.28641E-09         0.66904E-10         0.00000E+00
    0.28805E-09         0.53374E-10         0.00000E+00
    0.28931E-09         0.37809E-10         0.00000E+00
    0.29012E-09         0.20075E-10         0.00000E+00
    0.29041E-09         0.10642E-10         0.00000E+00
    0.52683E-09         0.19717E-10         0.00000E+00
    0.52784E-09         0.35287E-10         0.00000E+00
    0.53049E-09         0.61689E-10         0.00000E+00
    0.53433E-09         0.79631E-10         0.00000E+00
    0.53898E-09         0.90918E-10         0.00000E+00
    0.54411E-09         0.96931E-10         0.00000E+00
    0.54948E-09         0.98714E-10         0.00000E+00
    0.55486E-09         0.97048E-10         0.00000E+00
    0.56009E-09         0.92505E-10         0.00000E+00
    0.56502E-09         0.85495E-10         0.00000E+00
    0.56951E-09         0.76297E-10         0.00000E+00
    0.57344E-09         0.65079E-10         0.00000E+00
    0.57672E-09         0.51913E-10         0.00000E+00
    0.57922E-09         0.36770E-10         0.00000E+00
    0.58081E-09         0.19522E-10         0.00000E+00
    0.58139E-09         0.10349E-10         0.00000E+00
    0.10574E-08         0.18185E-10         0.00000E+00
    0.10594E-08         0.32516E-10         0.00000E+00
    0.10647E-08         0.56787E-10         0.00000E+00
    0.10722E-08         0.73237E-10         0.00000E+00
    0.10814E-08         0.83557E-10         0.00000E+00
    0.10916E-08         0.89034E-10         0.00000E+00
    0.11021E-08         0.90633E-10         0.00000E+00
    0.11128E-08         0.89073E-10         0.00000E+00
    0.11231E-08         0.84877E-10         0.00000E+00
    0.11328E-08         0.78422E-10         0.00000E+00
    0.11416E-08         0.69962E-10         0.00000E+00
    0.11494E-08         0.59656E-10         0.00000E+00
    0.11559E-08         0.47570E-10         0.00000E+00
    0.11608E-08         0.33683E-10         0.00000E+00
    0.11639E-08         0.17879E-10         0.00000E+00
    0.11651E-08         0.94759E-11         0.00000E+00
    0.15954E-08         0.15670E-10         0.00000E+00
    0.15984E-08         0.27968E-10         0.00000E+00
    0.16061E-08         0.48749E-10         0.00000E+00
    0.16172E-08         0.62758E-10         0.00000E+00
    0.16307E-08         0.71501E-10         0.00000E+00
    0.16456E-08         0.76106E-10         0.00000E+00
    0.16611E-08         0.77410E-10         0.00000E+00
    0.16766E-08         0.76027E-10         0.00000E+00
    0.16917E-08         0.72403E-10         0.00000E+00
    0.17059E-08         0.66855E-10         0.00000E+00
    0.17189E-08         0.59604E-10         0.00000E+00
    0.17303E-08         0.50786E-10         0.00000E+00
    0.17397E-08         0.40466E-10         0.00000E+00
    0.17469E-08         0.28631E-10         0.00000E+00
    0.17516E-08         0.15188E-10         0.00000E+00
    0.17532E-08         0.80464E-11         0.00000E+00
    0.21444E-08         0.12230E-10         0.00000E+00
    0.21482E-08         0.21751E-10         0.00000E+00
    0.21581E-08         0.37771E-10         0.00000E+00
    0.21725E-08         0.48463E-10         0.00000E+00
    0.21899E-08         0.55069E-10         0.00000E+00
    0.22091E-08         0.58499E-10         0.00000E+00
    0.22291E-08         0.59412E-10         0.00000E+00
    0.22492E-08         0.58280E-10         0.00000E+00
    0.22687E-08         0.55439E-10         0.00000E+00
    0.22870E-08         0.51129E-10         0.00000E+00
    0.23036E-08         0.45521E-10         0.00000E+00
    0.23183E-08         0.38725E-10         0.00000E+00
    0.23305E-08         0.30801E-10         0.00000E+00
    0.23398E-08         0.21755E-10         0.00000E+00
    0.23457E-08         0.11523E-10         0.00000E+00
    0.23479E-08         0.60979E-11         0.00000E+00
    0.27073E-08         0.79446E-11         0.00000E+00
    0.27119E-08         0.14017E-10         0.00000E+00
    0.27239E-08         0.24133E-10         0.00000E+00
    0.27412E-08         0.30724E-10         0.00000E+00
    0.27620E-08         0.34704E-10         0.00000E+00
    0.27850E-08         0.36702E-10         0.00000E+00
    0.28089E-08         0.37152E-10         0.00000E+00
    0.28329E-08         0.36345E-10         0.00000E+00
    0.28561E-08         0.34481E-10         0.00000E+00
    0.28780E-08         0.31706E-10         0.00000E+00
    0.28979E-08         0.28126E-10         0.00000E+00
    0.29154E-08         0.23824E-10         0.00000E+00
    0.29299E-08         0.18857E-10         0.00000E+00
    0.29410E-08         0.13251E-10         0.00000E+00
    0.29482E-08         0.69863E-11         0.00000E+00
    0.29507E-08         0.36832E-11         0.00000E+00
    0.32870E-08         0.29199E-11         0.00000E+00
    0.32923E-08         0.49615E-11         0.00000E+00
    0.33060E-08         0.81893E-11         0.00000E+00
    0.33257E-08         0.10024E-10         0.00000E+00
    0.33494E-08         0.10976E-10         0.00000E+00
    0.33755E-08         0.11342E-10         0.00000E+00
    0.34026E-08         0.11281E-10         0.00000E+00
    0.34298E-08         0.10875E-10         0.00000E+00
    0.34561E-08         0.10162E-10         0.00000E+00
    0.34808E-08         0.91743E-11         0.00000E+00
    0.35033E-08         0.79478E-11         0.00000E+00
    0.35231E-08         0.65322E-11         0.00000E+00
    0.35395E-08         0.49863E-11         0.00000E+00
    0.35521E-08         0.33663E-11         0.00000E+00
    0.35602E-08         0.17068E-11         0.00000E+00
    0.35631E-08         0.86944E-12         0.00000E+00
    0.38858E-08        -0.27154E-11         0.00000E+00
    0.38915E-08        -0.51767E-11         0.00000E+00
    0.39065E-08        -0.96223E-11         0.00000E+00
    0.39281E-08        -0.13051E-10         0.00000E+00
    0.39540E-08        -0.15423E-10         0.00000E+00
    0.39824E-08        -0.16825E-10         0.00000E+00
    0.40119E-08        -0.17410E-10         0.00000E+00
    0.40414E-08        -0.17340E-10         0.00000E+00
    0.40699E-08        -0.16758E-10         0.00000E+00
    0.40966E-08        -0.15758E-10         0.00000E+00
    0.41210E-08        -0.14381E-10         0.00000E+00
    0.41425E-08        -0.12610E-10         0.00000E+00
    0.41603E-08        -0.10381E-10         0.00000E+00
    0.41740E-08        -0.75990E-11         0.00000E+00
    0.41828E-08        -0.41592E-11         0.00000E+00
    0.41860E-08        -0.22621E-11         0.00000E+00
    0.45051E-08        -0.88083E-11         0.00000E+00
    0.45112E-08        -0.16114E-10         0.00000E+00
    0.45271E-08        -0.28788E-10         0.00000E+00
    0.45499E-08        -0.37816E-10         0.00000E+00
    0.45771E-08        -0.43684E-10         0.00000E+00
    0.46069E-08        -0.46914E-10         0.00000E+00
    0.46378E-08        -0.48004E-10         0.00000E+00
    0.46686E-08        -0.47385E-10         0.00000E+00
    0.46984E-08        -0.45397E-10         0.00000E+00
    0.47263E-08        -0.42271E-10         0.00000E+00
    0.47518E-08        -0.38127E-10         0.00000E+00
    0.47741E-08        -0.32979E-10         0.00000E+00
    0.47928E-08        -0.26752E-10         0.00000E+00
    0.48071E-08        -0.19298E-10         0.00000E+00
    0.48163E-08        -0.10430E-10         0.00000E+00
    0.48197E-08        -0.56172E-11         0.00000E+00
    0.51460E-08        -0.15182E-10         0.00000E+00
    0.51522E-08        -0.27524E-10         0.00000E+00
    0.51685E-08        -0.48720E-10         0.00000E+00
    0.51917E-08        -0.63485E-10         0.00000E+00
    0.52194E-08        -0.72889E-10         0.00000E+00
    0.52496E-08        -0.77925E-10         0.00000E+00
    0.52808E-08        -0.79467E-10         0.00000E+00
    0.53118E-08        -0.78231E-10         0.00000E+00
    0.53418E-08        -0.74767E-10         0.00000E+00
    0.53699E-08        -0.69446E-10         0.00000E+00
    0.53955E-08        -0.62469E-10         0.00000E+00
    0.54180E-08        -0.53876E-10         0.00000E+00
    0.54368E-08        -0.43570E-10         0.00000E+00
    0.54512E-08        -0.31342E-10         0.00000E+00
    0.54606E-08        -0.16902E-10         0.00000E+00
    0.54640E-08        -0.90894E-11         0.00000E+00
    0.58084E-08        -0.21638E-10         0.00000E+00
    0.58146E-08        -0.39043E-10         0.00000E+00
    0.58306E-08        -0.68762E-10         0.00000E+00
    0.58535E-08        -0.89190E-10         0.00000E+00
    0.58806E-08        -0.10202E-09         0.00000E+00
    0.59101E-08        -0.10876E-09         0.00000E+00
    0.59405E-08        -0.11066E-09         0.00000E+00
    0.59706E-08        -0.10875E-09         0.00000E+00
    0.59996E-08        -0.10379E-09         0.00000E+00
    0.60268E-08        -0.96283E-10         0.00000E+00
    0.60516E-08        -0.86513E-10         0.00000E+00
    0.60733E-08        -0.74539E-10         0.00000E+00
    0.60916E-08        -0.60231E-10         0.00000E+00
    0.61056E-08        -0.43304E-10         0.00000E+00
    0.61147E-08        -0.23352E-10         0.00000E+00
    0.61180E-08        -0.12562E-10         0.00000E+00
    0.64915E-08        -0.27956E-10         0.00000E+00
    0.64974E-08        -0.50268E-10         0.00000E+00
    0.65127E-08        -0.88196E-10         0.00000E+00
    0.65343E-08        -0.11399E-09         0.00000E+00
    0.65598E-08        -0.12999E-09         0.00000E+00
    0.65874E-08        -0.13824E-09         0.00000E+00
    0.66157E-08        -0.14039E-09         0.00000E+00
    0.66437E-08        -0.13775E-09         0.00000E+00
    0.66705E-08        -0.13132E-09         0.00000E+00
    0.66957E-08        -0.12172E-09         0.00000E+00
    0.67186E-08        -0.10931E-09         0.00000E+00
    0.67387E-08        -0.94161E-10         0.00000E+00
    0.67557E-08        -0.76093E-10         0.00000E+00
    0.67687E-08        -0.54734E-10         0.00000E+00
    0.67772E-08        -0.29541E-10         0.00000E+00
    0.67804E-08        -0.15910E-10         0.00000E+00
    0.71934E-08        -0.33898E-10         0.00000E+00
    0.71988E-08        -0.60769E-10         0.00000E+00
    0.72126E-08        -0.10626E-09         0.00000E+00
    0.72321E-08        -0.13688E-09         0.00000E+00
    0.72549E-08        -0.15565E-09         0.00000E+00
    0.72794E-08        -0.16512E-09         0.00000E+00
    0.73043E-08        -0.16737E-09         0.00000E+00
    0.73289E-08        -0.16399E-09         0.00000E+00
    0.73524E-08        -0.15617E-09         0.00000E+00
    0.73744E-08        -0.14467E-09         0.00000E+00
    0.73944E-08        -0.12989E-09         0.00000E+00
    0.74120E-08        -0.11191E-09         0.00000E+00
    0.74269E-08        -0.90494E-10         0.00000E+00
    0.74384E-08        -0.65161E-10         0.00000E+00
    0.74460E-08        -0.35222E-10         0.00000E+00
    0.74488E-08        -0.19002E-10         0.00000E+00
    0.79111E-08        -0.39216E-10         0.00000E+00
    0.79158E-08        -0.70094E-10         0.00000E+00
    0.79276E-08        -0.12215E-09         0.00000E+00
    0.79440E-08        -0.15682E-09         0.00000E+00
    0.79629E-08        -0.17781E-09         0.00000E+00
    0.79831E-08        -0.18816E-09         0.00000E+00
    0.80034E-08        -0.19034E-09         0.00000E+00
    0.80233E-08        -0.18622E-09         0.00000E+00
    0.80423E-08        -0.17716E-09         0.00000E+00
    0.80600E-08        -0.16403E-09         0.00000E+00
    0.80761E-08        -0.14728E-09         0.00000E+00
    0.80903E-08        -0.12696E-09         0.00000E+00
    0.81024E-08        -0.10277E-09         0.00000E+00
    0.81118E-08        -0.74115E-10         0.00000E+00
    0.81181E-08        -0.40143E-10         0.00000E+00
    0.81205E-08        -0.21706E-10         0.00000E+00
    0.86407E-08        -0.43651E-10         0.00000E+00
    0.86444E-08        -0.77782E-10         0.00000E+00
    0.86534E-08        -0.13507E-09         0.00000E+00
    0.86658E-08        -0.17280E-09         0.00000E+00
    0.86798E-08        -0.19531E-09         0.00000E+00
    0.86945E-08        -0.20613E-09         0.00000E+00
    0.87090E-08        -0.20806E-09         0.00000E+00
    0.87231E-08        -0.20323E-09         0.00000E+00
    0.87364E-08        -0.19315E-09         0.00000E+00
    0.87487E-08        -0.17876E-09         0.00000E+00
    0.87600E-08        -0.16054E-09         0.00000E+00
    0.87700E-08        -0.13850E-09         0.00000E+00
    0.87786E-08        -0.11227E-09         0.00000E+00
    0.87854E-08        -0.81138E-10         0.00000E+00
    0.87900E-08        -0.44061E-10         0.00000E+00
    0.87918E-08        -0.23892E-10         0.00000E+00
    0.93768E-08        -0.46945E-10         0.00000E+00
    0.93792E-08        -0.83376E-10         0.00000E+00
    0.93849E-08        -0.14424E-09         0.00000E+00
    0.93923E-08        -0.18381E-09         0.00000E+00
    0.94004E-08        -0.20703E-09         0.00000E+00
    0.94085E-08        -0.21786E-09         0.00000E+00
    0.94162E-08        -0.21939E-09         0.00000E+00
    0.94234E-08        -0.21392E-09         0.00000E+00
    0.94300E-08        -0.20309E-09         0.00000E+00
    0.94361E-08        -0.18790E-09         0.00000E+00
    0.94417E-08        -0.16882E-09         0.00000E+00
    0.94467E-08        -0.14581E-09         0.00000E+00
    0.94512E-08        -0.11842E-09         0.00000E+00
    0.94549E-08        -0.85803E-10         0.00000E+00
    0.94576E-08        -0.46745E-10         0.00000E+00
    0.94587E-08        -0.25434E-10         0.00000E+00
    0.10113E-07        -0.48852E-10         0.00000E+00
    0.10114E-07        -0.86443E-10         0.00000E+00
    0.10116E-07        -0.14890E-09         0.00000E+00
    0.10117E-07        -0.18893E-09         0.00000E+00
    0.10119E-07        -0.21198E-09         0.00000E+00
    0.10119E-07        -0.22233E-09         0.00000E+00
    0.10119E-07        -0.22331E-09         0.00000E+00
    0.10119E-07        -0.21734E-09         0.00000E+00
    0.10118E-07        -0.20612E-09         0.00000E+00
    0.10117E-07        -0.19066E-09         0.00000E+00
    0.10116E-07        -0.17140E-09         0.00000E+00
    0.10116E-07        -0.14826E-09         0.00000E+00
    0.10116E-07        -0.12070E-09         0.00000E+00
    0.10116E-07        -0.87740E-10         0.00000E+00
    0.10116E-07        -0.47990E-10         0.00000E+00
    0.10116E-07        -0.26221E-10         0.00000E+00
    0.10841E-07        -0.49142E-10         0.00000E+00
    0.10841E-07        -0.86590E-10         0.00000E+00
    0.10838E-07        -0.14843E-09         0.00000E+00
    0.10833E-07        -0.18739E-09         0.00000E+00
    0.10827E-07        -0.20932E-09         0.00000E+00
    0.10820E-07        -0.21873E-09         0.00000E+00
    0.10811E-07        -0.21906E-09         0.00000E+00
    0.10802E-07        -0.21277E-09         0.00000E+00
    0.10794E-07        -0.20157E-09         0.00000E+00
    0.10785E-07        -0.18643E-09         0.00000E+00
    0.10778E-07        -0.16775E-09         0.00000E+00
    0.10771E-07        -0.14539E-09         0.00000E+00
    0.10766E-07        -0.11873E-09         0.00000E+00
    0.10763E-07        -0.86653E-10         0.00000E+00
    0.10761E-07        -0.47628E-10         0.00000E+00
    0.10760E-07        -0.26159E-10         0.00000E+00
    0.11554E-07        -0.47622E-10         0.00000E+00
    0.11551E-07        -0.83494E-10         0.00000E+00
    0.11544E-07        -0.14229E-09         0.00000E+00
    0.11532E-07        -0.17860E-09         0.00000E+00
    0.11518E-07        -0.19848E-09         0.00000E+00
    0.11502E-07        -0.20653E-09         0.00000E+00
    0.11485E-07        -0.20616E-09         0.00000E+00
    0.11468E-07        -0.19982E-09         0.00000E+00
    0.11451E-07        -0.18909E-09         0.00000E+00
    0.11435E-07        -0.17491E-09         0.00000E+00
    0.11420E-07        -0.15759E-09         0.00000E+00
    0.11408E-07        -0.13694E-09         0.00000E+00
    0.11398E-07        -0.11226E-09         0.00000E+00
    0.11390E-07        -0.82350E-10         0.00000E+00
    0.11386E-07        -0.45544E-10         0.00000E+00
    0.11384E-07        -0.25176E-10         0.00000E+00
    0.12240E-07        -0.44146E-10         0.00000E+00
    0.12235E-07        -0.76925E-10         0.00000E+00
    0.12223E-07        -0.13017E-09         0.00000E+00
    0.12205E-07        -0.16224E-09         0.00000E+00
    0.12182E-07        -0.17920E-09         0.00000E+00
    0.12158E-07        -0.18556E-09         0.00000E+00
    0.12132E-07        -0.18457E-09         0.00000E+00
    0.12106E-07        -0.17848E-09         0.00000E+00
    0.12082E-07        -0.16874E-09         0.00000E+00
    0.12058E-07        -0.15615E-09         0.00000E+00
    0.12038E-07        -0.14096E-09         0.00000E+00
    0.12019E-07        -0.12290E-09         0.00000E+00
    0.12004E-07        -0.10125E-09         0.00000E+00
    0.11993E-07        -0.74768E-10         0.00000E+00
    0.11986E-07        -0.41681E-10         0.00000E+00
    0.11983E-07        -0.23232E-10         0.00000E+00
    0.12889E-07        -0.38632E-10         0.00000E+00
    0.12882E-07        -0.66779E-10         0.00000E+00
    0.12865E-07        -0.11197E-09         0.00000E+00
    0.12840E-07        -0.13833E-09         0.00000E+00
    0.12810E-07        -0.15166E-09         0.00000E+00
    0.12778E-07        -0.15615E-09         0.00000E+00
    0.12744E-07        -0.15471E-09         0.00000E+00
    0.12711E-07        -0.14927E-09         0.00000E+00
    0.12679E-07        -0.14104E-09         0.00000E+00
    0.12650E-07        -0.13065E-09         0.00000E+00
    0.12623E-07        -0.11826E-09         0.00000E+00
    0.12599E-07        -0.10359E-09         0.00000E+00
    0.12580E-07        -0.85914E-10         0.00000E+00
    0.12565E-07        -0.63999E-10         0.00000E+00
    0.12555E-07        -0.36060E-10         0.00000E+00
    0.12552E-07        -0.20324E-10         0.00000E+00
    0.13490E-07        -0.31078E-10         0.00000E+00
    0.13481E-07        -0.53113E-10         0.00000E+00
    0.13459E-07        -0.87919E-10         0.00000E+00
    0.13428E-07        -0.10731E-09         0.00000E+00
    0.13392E-07        -0.11654E-09         0.00000E+00
    0.13352E-07        -0.11919E-09         0.00000E+00
    0.13312E-07        -0.11761E-09         0.00000E+00
    0.13273E-07        -0.11328E-09         0.00000E+00
    0.13236E-07        -0.10707E-09         0.00000E+00
    0.13201E-07        -0.99406E-10         0.00000E+00
    0.13170E-07        -0.90368E-10         0.00000E+00
    0.13142E-07        -0.79687E-10         0.00000E+00
    0.13119E-07        -0.66712E-10         0.00000E+00
    0.13101E-07        -0.50318E-10         0.00000E+00
    0.13089E-07        -0.28791E-10         0.00000E+00
    0.13085E-07        -0.16489E-10         0.00000E+00
    0.14031E-07        -0.21588E-10         0.00000E+00
    0.14020E-07        -0.36180E-10         0.00000E+00
    0.13995E-07        -0.58606E-10         0.00000E+00
    0.13958E-07        -0.70162E-10         0.00000E+00
    0.13917E-07        -0.75157E-10         0.00000E+00
    0.13872E-07        -0.76253E-10         0.00000E+00
    0.13828E-07        -0.75006E-10         0.00000E+00
    0.13785E-07        -0.72286E-10         0.00000E+00
    0.13744E-07        -0.68549E-10         0.00000E+00
    0.13706E-07        -0.63996E-10         0.00000E+00
    0.13672E-07        -0.58636E-10         0.00000E+00
    0.13642E-07        -0.52275E-10         0.00000E+00
    0.13616E-07        -0.44434E-10         0.00000E+00
    0.13596E-07        -0.34207E-10         0.00000E+00
    0.13582E-07        -0.20082E-10         0.00000E+00
    0.13577E-07        -0.11812E-10         0.00000E+00
    0.14499E-07        -0.10389E-10         0.00000E+00
    0.14487E-07        -0.16482E-10         0.00000E+00
    0.14459E-07        -0.25102E-10         0.00000E+00
    0.14419E-07        -0.28510E-10         0.00000E+00
    0.14374E-07        -0.29594E-10         0.00000E+00
    0.14328E-07        -0.29728E-10         0.00000E+00
    0.14282E-07        -0.29433E-10         0.00000E+00
    0.14238E-07        -0.28831E-10         0.00000E+00
    0.14197E-07        -0.27907E-10         0.00000E+00
    0.14159E-07        -0.26631E-10         0.00000E+00
    0.14124E-07        -0.24982E-10         0.00000E+00
    0.14093E-07        -0.22912E-10         0.00000E+00
    0.14066E-07        -0.20223E-10         0.00000E+00
    0.14045E-07        -0.16384E-10         0.00000E+00
    0.14031E-07        -0.10256E-10         0.00000E+00
    0.14025E-07        -0.64301E-11         0.00000E+00
    0.14883E-07         0.21340E-11         0.00000E+00
    0.14870E-07         0.51657E-11         0.00000E+00
    0.14840E-07         0.10926E-10         0.00000E+00
    0.14800E-07         0.15219E-10         0.00000E+00
    0.14755E-07         0.17164E-10         0.00000E+00
    0.14711E-07         0.17082E-10         0.00000E+00
    0.14667E-07         0.15711E-10         0.00000E+00
    0.14627E-07         0.13759E-10         0.00000E+00
    0.14589E-07         0.11721E-10         0.00000E+00
    0.14553E-07         0.98346E-11         0.00000E+00
    0.14521E-07         0.80998E-11         0.00000E+00
    0.14492E-07         0.63502E-11         0.00000E+00
    0.14466E-07         0.43788E-11         0.00000E+00
    0.14445E-07         0.21660E-11         0.00000E+00
    0.14430E-07         0.23857E-12         0.00000E+00
    0.14425E-07        -0.54039E-12         0.00000E+00
    0.15169E-07         0.15385E-10         0.00000E+00
    0.15157E-07         0.27526E-10         0.00000E+00
    0.15127E-07         0.47017E-10         0.00000E+00
    0.15090E-07         0.57564E-10         0.00000E+00
    0.15051E-07         0.61034E-10         0.00000E+00
    0.15013E-07         0.59849E-10         0.00000E+00
    0.14977E-07         0.56127E-10         0.00000E+00
    0.14944E-07         0.51385E-10         0.00000E+00
    0.14913E-07         0.46528E-10         0.00000E+00
    0.14885E-07         0.41935E-10         0.00000E+00
    0.14859E-07         0.37542E-10         0.00000E+00
    0.14834E-07         0.32923E-10         0.00000E+00
    0.14812E-07         0.27373E-10         0.00000E+00
    0.14794E-07         0.20128E-10         0.00000E+00
    0.14780E-07         0.10791E-10         0.00000E+00
    0.14774E-07         0.55912E-11         0.00000E+00
    0.15347E-07         0.28464E-10         0.00000E+00
    0.15335E-07         0.48742E-10         0.00000E+00
    0.15311E-07         0.79562E-10         0.00000E+00
    0.15282E-07         0.93685E-10         0.00000E+00
    0.15254E-07         0.96621E-10         0.00000E+00
    0.15229E-07         0.93157E-10         0.00000E+00
    0.15206E-07         0.86686E-10         0.00000E+00
    0.15185E-07         0.79316E-10         0.00000E+00
    0.15167E-07         0.72185E-10         0.00000E+00
    0.15149E-07         0.65715E-10         0.00000E+00
    0.15133E-07         0.59759E-10         0.00000E+00
    0.15118E-07         0.53652E-10         0.00000E+00
    0.15103E-07         0.46204E-10         0.00000E+00
    0.15089E-07         0.35750E-10         0.00000E+00
    0.15078E-07         0.20571E-10         0.00000E+00
    0.15072E-07         0.11601E-10         0.00000E+00
    0.15403E-07         0.39944E-10         0.00000E+00
    0.15394E-07         0.65890E-10         0.00000E+00
    0.15381E-07         0.10312E-09         0.00000E+00
    0.15369E-07         0.11680E-09         0.00000E+00
    0.15360E-07         0.11699E-09         0.00000E+00
    0.15355E-07         0.11058E-09         0.00000E+00
    0.15351E-07         0.10166E-09         0.00000E+00
    0.15349E-07         0.92487E-10         0.00000E+00
    0.15347E-07         0.84142E-10         0.00000E+00
    0.15345E-07         0.76980E-10         0.00000E+00
    0.15342E-07         0.70792E-10         0.00000E+00
    0.15340E-07         0.64812E-10         0.00000E+00
    0.15336E-07         0.57575E-10         0.00000E+00
    0.15330E-07         0.46592E-10         0.00000E+00
    0.15324E-07         0.28373E-10         0.00000E+00
    0.15320E-07         0.16969E-10         0.00000E+00
    0.15324E-07         0.47214E-10         0.00000E+00
    0.15323E-07         0.73871E-10         0.00000E+00
    0.15331E-07         0.10902E-09         0.00000E+00
    0.15348E-07         0.11743E-09         0.00000E+00
    0.15369E-07         0.11364E-09         0.00000E+00
    0.15391E-07         0.10504E-09         0.00000E+00
    0.15413E-07         0.95253E-10         0.00000E+00
    0.15433E-07         0.86014E-10         0.00000E+00
    0.15452E-07         0.78100E-10         0.00000E+00
    0.15469E-07         0.71709E-10         0.00000E+00
    0.15484E-07         0.66630E-10         0.00000E+00
    0.15498E-07         0.62218E-10         0.00000E+00
    0.15509E-07         0.57167E-10         0.00000E+00
    0.15518E-07         0.48947E-10         0.00000E+00
    0.15521E-07         0.32176E-10         0.00000E+00
    0.15520E-07         0.20726E-10         0.00000E+00
    0.15086E-07         0.44648E-10         0.00000E+00
    0.15111E-07         0.62098E-10         0.00000E+00
    0.15164E-07         0.82286E-10         0.00000E+00
    0.15225E-07         0.82961E-10         0.00000E+00
    0.15286E-07         0.77278E-10         0.00000E+00
    0.15343E-07         0.69798E-10         0.00000E+00
    0.15394E-07         0.62411E-10         0.00000E+00
    0.15441E-07         0.55926E-10         0.00000E+00
    0.15483E-07         0.50657E-10         0.00000E+00
    0.15521E-07         0.46648E-10         0.00000E+00
    0.15557E-07         0.43764E-10         0.00000E+00
    0.15590E-07         0.41672E-10         0.00000E+00
    0.15621E-07         0.39691E-10         0.00000E+00
    0.15649E-07         0.36332E-10         0.00000E+00
    0.15672E-07         0.27833E-10         0.00000E+00
    0.15683E-07         0.21618E-10         0.00000E+00
    0.14923E-07         0.00000E+00         0.00000E+00
    0.14969E-07         0.00000E+00         0.00000E+00
    0.15052E-07        -0.41408E-22         0.00000E+00
    0.15140E-07         0.61148E-26         0.00000E+00
    0.15223E-07         0.45555E-22         0.00000E+00
    0.15298E-07         0.00000E+00         0.00000E+00
    0.15365E-07         0.00000E+00         0.00000E+00
    0.15426E-07        -0.41430E-22         0.00000E+00
    0.15480E-07        -0.41430E-22         0.00000E+00
    0.15529E-07         0.41436E-22         0.00000E+00
    0.15575E-07         0.49724E-22         0.00000E+00
    0.15619E-07        -0.49730E-22         0.00000E+00
    0.15661E-07        -0.41413E-23         0.00000E+00
    0.15701E-07         0.49735E-22         0.00000E+00
    0.15736E-07         0.82897E-23         0.00000E+00
    0.15759E-07         0.00000E+00         0.00000E+00
CELL_DATA        450
TENSORS stressef double 
    0.99583E+07         0.41688E+03         0.00000E+00
    0.41688E+03        -0.12307E+08         0.00000E+00
    0.00000E+00         0.00000E+00        -0.46970E+06
 
    0.88494E+07         0.86773E+03         0.00000E+00
    0.86773E+03        -0.12301E+08         0.00000E+00
    0.00000E+00         0.00000E+00        -0.69025E+06
 
    0.77957E+07         0.15808E+04         0.00000E+00
    0.15808E+04        -0.12290E+08         0.00000E+00
    0.00000E+00         0.00000E+00        -0.89879E+06
 
    0.67960E+07         0.33211E+04         0.00000E+00
    0.33211E+04        -0.12274E+08         0.00000E+00
    0.00000E+00         0.00000E+00        -0.10955E+07
 
    0.58470E+07         0.66718E+04         0.00000E+00
    0.66718E+04        -0.12251E+08         0.00000E+00
    0.00000E+00         0.00000E+00        -0.12808E+07
 
    0.49439E+07         0.12058E+05         0.00000E+00
    0.12058E+05        -0.12219E+08         0.00000E+00
    0.00000E+00         0.00000E+00        -0.14551E+07
 
    0.40805E+07         0.19770E+05         0.00000E+00
    0.19770E+05        -0.12174E+08         0.00000E+00
    0.00000E+00         0.00000E+00        -0.16187E+07
 
    0.32499E+07         0.29982E+05         0.00000E+00
    0.29982E+05        -0.12111E+08         0.00000E+00
    0.00000E+00         0.00000E+00        -0.17721E+07
 
    0.24450E+07         0.42767E+05         0.00000E+00
    0.42767E+05        -0.12025E+08         0.00000E+00
    0.00000E+00         0.00000E+00        -0.19160E+07
 
    0.16582E+07         0.58114E+05         0.00000E+00
    0.58114E+05        -0.11913E+08         0.00000E+00
    0.00000E+00         0.00000E+00        -0.20509E+07
 
    0.88211E+06         0.75943E+05         0.00000E+00
    0.75943E+05        -0.11768E+08         0.00000E+00
    0.00000E+00         0.00000E+00        -0.21772E+07
 
    0.10956E+06         0.96107E+05         0.00000E+00
    0.96107E+05        -0.11587E+08         0.00000E+00
    0.00000E+00         0.00000E+00        -0.22955E+07
 
   -0.66611E+06         0.11841E+06         0.00000E+00
    0.11841E+06        -0.11366E+08         0.00000E+00
    0.00000E+00         0.00000E+00        -0.24064E+07
 
   -0.14510E+07         0.14260E+06         0.00000E+00
    0.14260E+06        -0.11100E+08         0.00000E+00
    0.00000E+00         0.00000E+00        -0.25101E+07
 
   -0.22504E+07         0.16840E+06         0.00000E+00
    0.16840E+06        -0.10786E+08         0.00000E+00
    0.00000E+00         0.00000E+00        -0.26073E+07
 
    0.98856E+07         0.10424E+04         0.00000E+00
    0.10424E+04        -0.12381E+08         0.00000E+00
    0.00000E+00         0.00000E+00        -0.49904E+06
 
    0.87761E+07         0.20527E+04         0.00000E+00
    0.20527E+04        -0.12376E+08         0.00000E+00
    0.00000E+00         0.00000E+00        -0.71991E+06
 
    0.77233E+07         0.39370E+04         0.00000E+00
    0.39370E+04        -0.12366E+08         0.00000E+00
    0.00000E+00         0.00000E+00        -0.92864E+06
 
    0.67257E+07         0.89771E+04         0.00000E+00
    0.89771E+04        -0.12353E+08         0.00000E+00
    0.00000E+00         0.00000E+00        -0.11254E+07
 
    0.57798E+07         0.18910E+05         0.00000E+00
    0.18910E+05        -0.12333E+08         0.00000E+00
    0.00000E+00         0.00000E+00        -0.13107E+07
 
    0.48803E+07         0.35001E+05         0.00000E+00
    0.35001E+05        -0.12304E+08         0.00000E+00
    0.00000E+00         0.00000E+00        -0.14848E+07
 
    0.40210E+07         0.58111E+05         0.00000E+00
    0.58111E+05        -0.12262E+08         0.00000E+00
    0.00000E+00         0.00000E+00        -0.16482E+07
 
    0.31949E+07         0.88752E+05         0.00000E+00
    0.88752E+05        -0.12202E+08         0.00000E+00
    0.00000E+00         0.00000E+00        -0.18014E+07
 
    0.23944E+07         0.12714E+06         0.00000E+00
    0.12714E+06        -0.12120E+08         0.00000E+00
    0.00000E+00         0.00000E+00        -0.19450E+07
 
    0.16120E+07         0.17324E+06         0.00000E+00
    0.17324E+06        -0.12010E+08         0.00000E+00
    0.00000E+00         0.00000E+00        -0.20796E+07
 
    0.84013E+06         0.22680E+06         0.00000E+00
    0.22680E+06        -0.11868E+08         0.00000E+00
    0.00000E+00         0.00000E+00        -0.22056E+07
 
    0.71567E+05         0.28739E+06         0.00000E+00
    0.28739E+06        -0.11690E+08         0.00000E+00
    0.00000E+00         0.00000E+00        -0.23236E+07
 
   -0.70046E+06         0.35440E+06         0.00000E+00
    0.35440E+06        -0.11470E+08         0.00000E+00
    0.00000E+00         0.00000E+00        -0.24342E+07
 
   -0.14821E+07         0.42710E+06         0.00000E+00
    0.42710E+06        -0.11206E+08         0.00000E+00
    0.00000E+00         0.00000E+00        -0.25377E+07
 
   -0.22787E+07         0.50463E+06         0.00000E+00
    0.50463E+06        -0.10894E+08         0.00000E+00
    0.00000E+00         0.00000E+00        -0.26346E+07
 
    0.97390E+07         0.10453E+04         0.00000E+00
    0.10453E+04        -0.12529E+08         0.00000E+00
    0.00000E+00         0.00000E+00        -0.55808E+06
 
    0.86284E+07         0.15915E+04         0.00000E+00
    0.15915E+04        -0.12526E+08         0.00000E+00
    0.00000E+00         0.00000E+00        -0.77957E+06
 
    0.75776E+07         0.38858E+04         0.00000E+00
    0.38858E+04        -0.12521E+08         0.00000E+00
    0.00000E+00         0.00000E+00        -0.98861E+06
 
    0.65844E+07         0.11686E+05         0.00000E+00
    0.11686E+05        -0.12512E+08         0.00000E+00
    0.00000E+00         0.00000E+00        -0.11855E+07
 
    0.56447E+07         0.27845E+05         0.00000E+00
    0.27845E+05        -0.12498E+08         0.00000E+00
    0.00000E+00         0.00000E+00        -0.13706E+07
 
    0.47526E+07         0.54437E+05         0.00000E+00
    0.54437E+05        -0.12475E+08         0.00000E+00
    0.00000E+00         0.00000E+00        -0.15444E+07
 
    0.39017E+07         0.92864E+05         0.00000E+00
    0.92864E+05        -0.12439E+08         0.00000E+00
    0.00000E+00         0.00000E+00        -0.17074E+07
 
    0.30843E+07         0.14395E+06         0.00000E+00
    0.14395E+06        -0.12385E+08         0.00000E+00
    0.00000E+00         0.00000E+00        -0.18601E+07
 
    0.22928E+07         0.20805E+06         0.00000E+00
    0.20805E+06        -0.12309E+08         0.00000E+00
    0.00000E+00         0.00000E+00        -0.20032E+07
 
    0.15193E+07         0.28507E+06         0.00000E+00
    0.28507E+06        -0.12205E+08         0.00000E+00
    0.00000E+00         0.00000E+00        -0.21371E+07
 
    0.75598E+06         0.37459E+06         0.00000E+00
    0.37459E+06        -0.12068E+08         0.00000E+00
    0.00000E+00         0.00000E+00        -0.22625E+07
 
   -0.45658E+04         0.47587E+06         0.00000E+00
    0.47587E+06        -0.11895E+08         0.00000E+00
    0.00000E+00         0.00000E+00        -0.23799E+07
 
   -0.76928E+06         0.58791E+06         0.00000E+00
    0.58791E+06        -0.11680E+08         0.00000E+00
    0.00000E+00         0.00000E+00        -0.24898E+07
 
   -0.15444E+07         0.70948E+06         0.00000E+00
    0.70948E+06        -0.11419E+08         0.00000E+00
    0.00000E+00         0.00000E+00        -0.25927E+07
 
   -0.23355E+07         0.83915E+06         0.00000E+00
    0.83915E+06        -0.11110E+08         0.00000E+00
    0.00000E+00         0.00000E+00        -0.26891E+07
 
    0.95157E+07         0.16474E+02         0.00000E+00
    0.16474E+02        -0.12754E+08         0.00000E+00
    0.00000E+00         0.00000E+00        -0.64757E+06
 
    0.84041E+07        -0.15952E+04         0.00000E+00
   -0.15952E+04        -0.12753E+08         0.00000E+00
    0.00000E+00         0.00000E+00        -0.86986E+06
 
    0.73568E+07        -0.14897E+03         0.00000E+00
   -0.14897E+03        -0.12753E+08         0.00000E+00
    0.00000E+00         0.00000E+00        -0.10793E+07
 
    0.63705E+07         0.95195E+04         0.00000E+00
    0.95195E+04        -0.12752E+08         0.00000E+00
    0.00000E+00         0.00000E+00        -0.12762E+07
 
    0.54403E+07         0.31319E+05         0.00000E+00
    0.31319E+05        -0.12745E+08         0.00000E+00
    0.00000E+00         0.00000E+00        -0.14610E+07
 
    0.45598E+07         0.68075E+05         0.00000E+00
    0.68075E+05        -0.12731E+08         0.00000E+00
    0.00000E+00         0.00000E+00        -0.16343E+07
 
    0.37215E+07         0.12169E+06         0.00000E+00
    0.12169E+06        -0.12704E+08         0.00000E+00
    0.00000E+00         0.00000E+00        -0.17966E+07
 
    0.29176E+07         0.19326E+06         0.00000E+00
    0.19326E+06        -0.12660E+08         0.00000E+00
    0.00000E+00         0.00000E+00        -0.19485E+07
 
    0.21397E+07         0.28322E+06         0.00000E+00
    0.28322E+06        -0.12593E+08         0.00000E+00
    0.00000E+00         0.00000E+00        -0.20906E+07
 
    0.13797E+07         0.39144E+06         0.00000E+00
    0.39144E+06        -0.12497E+08         0.00000E+00
    0.00000E+00         0.00000E+00        -0.22235E+07
 
    0.62929E+06         0.51729E+06         0.00000E+00
    0.51729E+06        -0.12369E+08         0.00000E+00
    0.00000E+00         0.00000E+00        -0.23479E+07
 
   -0.11913E+06         0.65971E+06         0.00000E+00
    0.65971E+06        -0.12203E+08         0.00000E+00
    0.00000E+00         0.00000E+00        -0.24644E+07
 
   -0.87276E+06         0.81730E+06         0.00000E+00
    0.81730E+06        -0.11994E+08         0.00000E+00
    0.00000E+00         0.00000E+00        -0.25734E+07
 
   -0.16381E+07         0.98833E+06         0.00000E+00
    0.98833E+06        -0.11739E+08         0.00000E+00
    0.00000E+00         0.00000E+00        -0.26754E+07
 
   -0.24208E+07         0.11708E+07         0.00000E+00
    0.11708E+07        -0.11434E+08         0.00000E+00
    0.00000E+00         0.00000E+00        -0.27710E+07
 
    0.92121E+07        -0.24434E+04         0.00000E+00
   -0.24434E+04        -0.13055E+08         0.00000E+00
    0.00000E+00         0.00000E+00        -0.76855E+06
 
    0.81000E+07        -0.85585E+04         0.00000E+00
   -0.85585E+04        -0.13059E+08         0.00000E+00
    0.00000E+00         0.00000E+00        -0.99174E+06
 
    0.70580E+07        -0.96992E+04         0.00000E+00
   -0.96992E+04        -0.13065E+08         0.00000E+00
    0.00000E+00         0.00000E+00        -0.12015E+07
 
    0.60817E+07         0.60849E+03         0.00000E+00
    0.60849E+03        -0.13073E+08         0.00000E+00
    0.00000E+00         0.00000E+00        -0.13983E+07
 
    0.51649E+07         0.27240E+05         0.00000E+00
    0.27240E+05        -0.13078E+08         0.00000E+00
    0.00000E+00         0.00000E+00        -0.15825E+07
 
    0.43001E+07         0.73698E+05         0.00000E+00
    0.73698E+05        -0.13075E+08         0.00000E+00
    0.00000E+00         0.00000E+00        -0.17550E+07
 
    0.34792E+07         0.14231E+06         0.00000E+00
    0.14231E+06        -0.13060E+08         0.00000E+00
    0.00000E+00         0.00000E+00        -0.19162E+07
 
    0.26936E+07         0.23440E+06         0.00000E+00
    0.23440E+06        -0.13028E+08         0.00000E+00
    0.00000E+00         0.00000E+00        -0.20668E+07
 
    0.19342E+07         0.35046E+06         0.00000E+00
    0.35046E+06        -0.12972E+08         0.00000E+00
    0.00000E+00         0.00000E+00        -0.22076E+07
 
    0.11924E+07         0.49025E+06         0.00000E+00
    0.49025E+06        -0.12888E+08         0.00000E+00
    0.00000E+00         0.00000E+00        -0.23392E+07
 
    0.45950E+06         0.65292E+06         0.00000E+00
    0.65292E+06        -0.12770E+08         0.00000E+00
    0.00000E+00         0.00000E+00        -0.24622E+07
 
   -0.27253E+06         0.83709E+06         0.00000E+00
    0.83709E+06        -0.12614E+08         0.00000E+00
    0.00000E+00         0.00000E+00        -0.25773E+07
 
   -0.10112E+07         0.10409E+07         0.00000E+00
    0.10409E+07        -0.12414E+08         0.00000E+00
    0.00000E+00         0.00000E+00        -0.26850E+07
 
   -0.17633E+07         0.12622E+07         0.00000E+00
    0.12622E+07        -0.12166E+08         0.00000E+00
    0.00000E+00         0.00000E+00        -0.27858E+07
 
   -0.25347E+07         0.14984E+07         0.00000E+00
    0.14984E+07        -0.11866E+08         0.00000E+00
    0.00000E+00         0.00000E+00        -0.28802E+07
 
    0.88230E+07        -0.67196E+04         0.00000E+00
   -0.67196E+04        -0.13435E+08         0.00000E+00
    0.00000E+00         0.00000E+00        -0.92244E+06
 
    0.77117E+07        -0.20309E+05         0.00000E+00
   -0.20309E+05        -0.13444E+08         0.00000E+00
    0.00000E+00         0.00000E+00        -0.11464E+07
 
    0.66778E+07        -0.26233E+05         0.00000E+00
   -0.26233E+05        -0.13459E+08         0.00000E+00
    0.00000E+00         0.00000E+00        -0.13563E+07
 
    0.57150E+07        -0.16835E+05         0.00000E+00
   -0.16835E+05        -0.13478E+08         0.00000E+00
    0.00000E+00         0.00000E+00        -0.15526E+07
 
    0.48158E+07         0.13614E+05         0.00000E+00
    0.13614E+05        -0.13496E+08         0.00000E+00
    0.00000E+00         0.00000E+00        -0.17360E+07
 
    0.39716E+07         0.69191E+05         0.00000E+00
    0.69191E+05        -0.13507E+08         0.00000E+00
    0.00000E+00         0.00000E+00        -0.19071E+07
 
    0.31732E+07         0.15257E+06         0.00000E+00
    0.15257E+06        -0.13507E+08         0.00000E+00
    0.00000E+00         0.00000E+00        -0.20668E+07
 
    0.24109E+07         0.26523E+06         0.00000E+00
    0.26523E+06        -0.13489E+08         0.00000E+00
    0.00000E+00         0.00000E+00        -0.22157E+07
 
    0.16752E+07         0.40766E+06         0.00000E+00
    0.40766E+06        -0.13448E+08         0.00000E+00
    0.00000E+00         0.00000E+00        -0.23546E+07
 
    0.95656E+06         0.57947E+06         0.00000E+00
    0.57947E+06        -0.13378E+08         0.00000E+00
    0.00000E+00         0.00000E+00        -0.24843E+07
 
    0.24592E+06         0.77958E+06         0.00000E+00
    0.77958E+06        -0.13273E+08         0.00000E+00
    0.00000E+00         0.00000E+00        -0.26054E+07
 
   -0.46529E+06         0.10062E+07         0.00000E+00
    0.10062E+07        -0.13128E+08         0.00000E+00
    0.00000E+00         0.00000E+00        -0.27187E+07
 
   -0.11850E+07         0.12572E+07         0.00000E+00
    0.12572E+07        -0.12938E+08         0.00000E+00
    0.00000E+00         0.00000E+00        -0.28246E+07
 
   -0.19202E+07         0.15298E+07         0.00000E+00
    0.15298E+07        -0.12699E+08         0.00000E+00
    0.00000E+00         0.00000E+00        -0.29239E+07
 
   -0.26772E+07         0.18208E+07         0.00000E+00
    0.18208E+07        -0.12407E+08         0.00000E+00
    0.00000E+00         0.00000E+00        -0.30169E+07
 
    0.83424E+07        -0.13179E+05         0.00000E+00
   -0.13179E+05        -0.13897E+08         0.00000E+00
    0.00000E+00         0.00000E+00        -0.11109E+07
 
    0.72342E+07        -0.37804E+05         0.00000E+00
   -0.37804E+05        -0.13911E+08         0.00000E+00
    0.00000E+00         0.00000E+00        -0.13354E+07
 
    0.62117E+07        -0.51133E+05         0.00000E+00
   -0.51133E+05        -0.13937E+08         0.00000E+00
    0.00000E+00         0.00000E+00        -0.15450E+07
 
    0.52668E+07        -0.44486E+05         0.00000E+00
   -0.44486E+05        -0.13968E+08         0.00000E+00
    0.00000E+00         0.00000E+00        -0.17403E+07
 
    0.43902E+07        -0.11426E+05         0.00000E+00
   -0.11426E+05        -0.14001E+08         0.00000E+00
    0.00000E+00         0.00000E+00        -0.19222E+07
 
    0.35719E+07         0.52579E+05         0.00000E+00
    0.52579E+05        -0.14029E+08         0.00000E+00
    0.00000E+00         0.00000E+00        -0.20915E+07
 
    0.28013E+07         0.15044E+06         0.00000E+00
    0.15044E+06        -0.14046E+08         0.00000E+00
    0.00000E+00         0.00000E+00        -0.22489E+07
 
    0.20680E+07         0.28372E+06         0.00000E+00
    0.28372E+06        -0.14045E+08         0.00000E+00
    0.00000E+00         0.00000E+00        -0.23955E+07
 
    0.13613E+07         0.45282E+06         0.00000E+00
    0.45282E+06        -0.14021E+08         0.00000E+00
    0.00000E+00         0.00000E+00        -0.25319E+07
 
    0.67117E+06         0.65718E+06         0.00000E+00
    0.65718E+06        -0.13967E+08         0.00000E+00
    0.00000E+00         0.00000E+00        -0.26591E+07
 
   -0.12241E+05         0.89542E+06         0.00000E+00
    0.89542E+06        -0.13877E+08         0.00000E+00
    0.00000E+00         0.00000E+00        -0.27778E+07
 
   -0.69800E+06         0.11654E+07         0.00000E+00
    0.11654E+07        -0.13746E+08         0.00000E+00
    0.00000E+00         0.00000E+00        -0.28888E+07
 
   -0.13945E+07         0.14646E+07         0.00000E+00
    0.14646E+07        -0.13568E+08         0.00000E+00
    0.00000E+00         0.00000E+00        -0.29926E+07
 
   -0.21091E+07         0.17895E+07         0.00000E+00
    0.17895E+07        -0.13340E+08         0.00000E+00
    0.00000E+00         0.00000E+00        -0.30898E+07
 
   -0.28485E+07         0.21366E+07         0.00000E+00
    0.21366E+07        -0.13057E+08         0.00000E+00
    0.00000E+00         0.00000E+00        -0.31810E+07
 
    0.77631E+07        -0.22164E+05         0.00000E+00
   -0.22164E+05        -0.14443E+08         0.00000E+00
    0.00000E+00         0.00000E+00        -0.13359E+07
 
    0.66616E+07        -0.61929E+05         0.00000E+00
   -0.61929E+05        -0.14463E+08         0.00000E+00
    0.00000E+00         0.00000E+00        -0.15604E+07
 
    0.56550E+07        -0.85670E+05         0.00000E+00
   -0.85670E+05        -0.14500E+08         0.00000E+00
    0.00000E+00         0.00000E+00        -0.17690E+07
 
    0.47331E+07        -0.83880E+05         0.00000E+00
   -0.83880E+05        -0.14547E+08         0.00000E+00
    0.00000E+00         0.00000E+00        -0.19627E+07
 
    0.38847E+07        -0.49581E+05         0.00000E+00
   -0.49581E+05        -0.14596E+08         0.00000E+00
    0.00000E+00         0.00000E+00        -0.21424E+07
 
    0.30981E+07         0.22065E+05         0.00000E+00
    0.22065E+05        -0.14643E+08         0.00000E+00
    0.00000E+00         0.00000E+00        -0.23090E+07
 
    0.23614E+07         0.13409E+06         0.00000E+00
    0.13409E+06        -0.14679E+08         0.00000E+00
    0.00000E+00         0.00000E+00        -0.24635E+07
 
    0.16630E+07         0.28803E+06         0.00000E+00
    0.28803E+06        -0.14697E+08         0.00000E+00
    0.00000E+00         0.00000E+00        -0.26068E+07
 
    0.99119E+06         0.48413E+06         0.00000E+00
    0.48413E+06        -0.14692E+08         0.00000E+00
    0.00000E+00         0.00000E+00        -0.27401E+07
 
    0.33506E+06         0.72160E+06         0.00000E+00
    0.72160E+06        -0.14655E+08         0.00000E+00
    0.00000E+00         0.00000E+00        -0.28641E+07
 
   -0.31587E+06         0.99873E+06         0.00000E+00
    0.99873E+06        -0.14582E+08         0.00000E+00
    0.00000E+00         0.00000E+00        -0.29797E+07
 
   -0.97131E+06         0.13130E+07         0.00000E+00
    0.13130E+07        -0.14467E+08         0.00000E+00
    0.00000E+00         0.00000E+00        -0.30877E+07
 
   -0.16401E+07         0.16614E+07         0.00000E+00
    0.16614E+07        -0.14304E+08         0.00000E+00
    0.00000E+00         0.00000E+00        -0.31887E+07
 
   -0.23303E+07         0.20400E+07         0.00000E+00
    0.20400E+07        -0.14087E+08         0.00000E+00
    0.00000E+00         0.00000E+00        -0.32835E+07
 
   -0.30486E+07         0.24446E+07         0.00000E+00
    0.24446E+07        -0.13814E+08         0.00000E+00
    0.00000E+00         0.00000E+00        -0.33725E+07
 
    0.70773E+07        -0.33985E+05         0.00000E+00
   -0.33985E+05        -0.15075E+08         0.00000E+00
    0.00000E+00         0.00000E+00        -0.15996E+07
 
    0.59872E+07        -0.93482E+05         0.00000E+00
   -0.93482E+05        -0.15103E+08         0.00000E+00
    0.00000E+00         0.00000E+00        -0.18232E+07
 
    0.50021E+07        -0.13098E+06         0.00000E+00
   -0.13098E+06        -0.15152E+08         0.00000E+00
    0.00000E+00         0.00000E+00        -0.20300E+07
 
    0.41093E+07        -0.13638E+06         0.00000E+00
   -0.13638E+06        -0.15215E+08         0.00000E+00
    0.00000E+00         0.00000E+00        -0.22211E+07
 
    0.32955E+07        -0.10235E+06         0.00000E+00
   -0.10235E+06        -0.15283E+08         0.00000E+00
    0.00000E+00         0.00000E+00        -0.23975E+07
 
    0.25472E+07        -0.23928E+05         0.00000E+00
   -0.23928E+05        -0.15349E+08         0.00000E+00
    0.00000E+00         0.00000E+00        -0.25604E+07
 
    0.18511E+07         0.10190E+06         0.00000E+00
    0.10190E+06        -0.15406E+08         0.00000E+00
    0.00000E+00         0.00000E+00        -0.27110E+07
 
    0.11939E+07         0.27651E+06         0.00000E+00
    0.27651E+06        -0.15445E+08         0.00000E+00
    0.00000E+00         0.00000E+00        -0.28503E+07
 
    0.56320E+06         0.49994E+06         0.00000E+00
    0.49994E+06        -0.15460E+08         0.00000E+00
    0.00000E+00         0.00000E+00        -0.29794E+07
 
   -0.52997E+05         0.77109E+06         0.00000E+00
    0.77109E+06        -0.15444E+08         0.00000E+00
    0.00000E+00         0.00000E+00        -0.30993E+07
 
   -0.66589E+06         0.10879E+07         0.00000E+00
    0.10879E+07        -0.15389E+08         0.00000E+00
    0.00000E+00         0.00000E+00        -0.32111E+07
 
   -0.12859E+07         0.14475E+07         0.00000E+00
    0.14475E+07        -0.15291E+08         0.00000E+00
    0.00000E+00         0.00000E+00        -0.33154E+07
 
   -0.19223E+07         0.18462E+07         0.00000E+00
    0.18462E+07        -0.15144E+08         0.00000E+00
    0.00000E+00         0.00000E+00        -0.34132E+07
 
   -0.25838E+07         0.22798E+07         0.00000E+00
    0.22798E+07        -0.14941E+08         0.00000E+00
    0.00000E+00         0.00000E+00        -0.35050E+07
 
   -0.32775E+07         0.27435E+07         0.00000E+00
    0.27435E+07        -0.14679E+08         0.00000E+00
    0.00000E+00         0.00000E+00        -0.35914E+07
 
    0.62764E+07        -0.48916E+05         0.00000E+00
   -0.48916E+05        -0.15798E+08         0.00000E+00
    0.00000E+00         0.00000E+00        -0.19043E+07
 
    0.52039E+07        -0.13315E+06         0.00000E+00
   -0.13315E+06        -0.15833E+08         0.00000E+00
    0.00000E+00         0.00000E+00        -0.21259E+07
 
    0.42472E+07        -0.18803E+06         0.00000E+00
   -0.18803E+06        -0.15895E+08         0.00000E+00
    0.00000E+00         0.00000E+00        -0.23296E+07
 
    0.33908E+07        -0.20311E+06         0.00000E+00
   -0.20311E+06        -0.15975E+08         0.00000E+00
    0.00000E+00         0.00000E+00        -0.25168E+07
 
    0.26190E+07        -0.17097E+06         0.00000E+00
   -0.17097E+06        -0.16063E+08         0.00000E+00
    0.00000E+00         0.00000E+00        -0.26888E+07
 
    0.19163E+07        -0.86707E+05         0.00000E+00
   -0.86707E+05        -0.16151E+08         0.00000E+00
    0.00000E+00         0.00000E+00        -0.28469E+07
 
    0.12677E+07         0.52510E+05         0.00000E+00
    0.52510E+05        -0.16229E+08         0.00000E+00
    0.00000E+00         0.00000E+00        -0.29923E+07
 
    0.65876E+06         0.24780E+06         0.00000E+00
    0.24780E+06        -0.16291E+08         0.00000E+00
    0.00000E+00         0.00000E+00        -0.31264E+07
 
    0.75755E+05         0.49886E+06         0.00000E+00
    0.49886E+06        -0.16327E+08         0.00000E+00
    0.00000E+00         0.00000E+00        -0.32503E+07
 
   -0.49423E+06         0.80424E+06         0.00000E+00
    0.80424E+06        -0.16332E+08         0.00000E+00
    0.00000E+00         0.00000E+00        -0.33652E+07
 
   -0.10632E+07         0.11615E+07         0.00000E+00
    0.11615E+07        -0.16297E+08         0.00000E+00
    0.00000E+00         0.00000E+00        -0.34721E+07
 
   -0.16423E+07         0.15673E+07         0.00000E+00
    0.15673E+07        -0.16218E+08         0.00000E+00
    0.00000E+00         0.00000E+00        -0.35720E+07
 
   -0.22414E+07         0.20175E+07         0.00000E+00
    0.20175E+07        -0.16087E+08         0.00000E+00
    0.00000E+00         0.00000E+00        -0.36658E+07
 
   -0.28697E+07         0.25075E+07         0.00000E+00
    0.25075E+07        -0.15900E+08         0.00000E+00
    0.00000E+00         0.00000E+00        -0.37540E+07
 
   -0.35350E+07         0.30318E+07         0.00000E+00
    0.30318E+07        -0.15651E+08         0.00000E+00
    0.00000E+00         0.00000E+00        -0.38373E+07
 
    0.53514E+07        -0.67184E+05         0.00000E+00
   -0.67184E+05        -0.16614E+08         0.00000E+00
    0.00000E+00         0.00000E+00        -0.22525E+07
 
    0.43045E+07        -0.18150E+06         0.00000E+00
   -0.18150E+06        -0.16657E+08         0.00000E+00
    0.00000E+00         0.00000E+00        -0.24704E+07
 
    0.33844E+07        -0.25758E+06         0.00000E+00
   -0.25758E+06        -0.16732E+08         0.00000E+00
    0.00000E+00         0.00000E+00        -0.26696E+07
 
    0.25727E+07        -0.28496E+06         0.00000E+00
   -0.28496E+06        -0.16830E+08         0.00000E+00
    0.00000E+00         0.00000E+00        -0.28514E+07
 
    0.18511E+07        -0.25639E+06         0.00000E+00
   -0.25639E+06        -0.16938E+08         0.00000E+00
    0.00000E+00         0.00000E+00        -0.30174E+07
 
    0.12021E+07        -0.16725E+06         0.00000E+00
   -0.16725E+06        -0.17048E+08         0.00000E+00
    0.00000E+00         0.00000E+00        -0.31691E+07
 
    0.60889E+06        -0.15082E+05         0.00000E+00
   -0.15082E+05        -0.17149E+08         0.00000E+00
    0.00000E+00         0.00000E+00        -0.33080E+07
 
    0.55589E+05         0.20083E+06         0.00000E+00
    0.20083E+06        -0.17233E+08         0.00000E+00
    0.00000E+00         0.00000E+00        -0.34355E+07
 
   -0.47269E+06         0.47977E+06         0.00000E+00
    0.47977E+06        -0.17292E+08         0.00000E+00
    0.00000E+00         0.00000E+00        -0.35529E+07
 
   -0.98982E+06         0.81985E+06         0.00000E+00
    0.81985E+06        -0.17318E+08         0.00000E+00
    0.00000E+00         0.00000E+00        -0.36616E+07
 
   -0.15087E+07         0.12182E+07         0.00000E+00
    0.12182E+07        -0.17305E+08         0.00000E+00
    0.00000E+00         0.00000E+00        -0.37628E+07
 
   -0.20411E+07         0.16711E+07         0.00000E+00
    0.16711E+07        -0.17246E+08         0.00000E+00
    0.00000E+00         0.00000E+00        -0.38573E+07
 
   -0.25977E+07         0.21739E+07         0.00000E+00
    0.21739E+07        -0.17133E+08         0.00000E+00
    0.00000E+00         0.00000E+00        -0.39462E+07
 
   -0.31882E+07         0.27216E+07         0.00000E+00
    0.27216E+07        -0.16963E+08         0.00000E+00
    0.00000E+00         0.00000E+00        -0.40302E+07
 
   -0.38208E+07         0.33080E+07         0.00000E+00
    0.33080E+07        -0.16728E+08         0.00000E+00
    0.00000E+00         0.00000E+00        -0.41099E+07
 
    0.42929E+07        -0.88960E+05         0.00000E+00
   -0.88960E+05        -0.17525E+08         0.00000E+00
    0.00000E+00         0.00000E+00        -0.26464E+07
 
    0.32813E+07        -0.23891E+06         0.00000E+00
   -0.23891E+06        -0.17576E+08         0.00000E+00
    0.00000E+00         0.00000E+00        -0.28589E+07
 
    0.24077E+07        -0.34014E+06         0.00000E+00
   -0.34014E+06        -0.17666E+08         0.00000E+00
    0.00000E+00         0.00000E+00        -0.30516E+07
 
    0.16503E+07        -0.38249E+06         0.00000E+00
   -0.38249E+06        -0.17781E+08         0.00000E+00
    0.00000E+00         0.00000E+00        -0.32261E+07
 
    0.98823E+06        -0.35919E+06         0.00000E+00
   -0.35919E+06        -0.17910E+08         0.00000E+00
    0.00000E+00         0.00000E+00        -0.33843E+07
 
    0.40173E+06        -0.26615E+06         0.00000E+00
   -0.26615E+06        -0.18041E+08         0.00000E+00
    0.00000E+00         0.00000E+00        -0.35279E+07
 
   -0.12774E+06        -0.10150E+06         0.00000E+00
   -0.10150E+06        -0.18165E+08         0.00000E+00
    0.00000E+00         0.00000E+00        -0.36585E+07
 
   -0.61750E+06         0.13493E+06         0.00000E+00
    0.13493E+06        -0.18272E+08         0.00000E+00
    0.00000E+00         0.00000E+00        -0.37779E+07
 
   -0.10836E+07         0.44188E+06         0.00000E+00
    0.44188E+06        -0.18354E+08         0.00000E+00
    0.00000E+00         0.00000E+00        -0.38875E+07
 
   -0.15409E+07         0.81701E+06         0.00000E+00
    0.81701E+06        -0.18403E+08         0.00000E+00
    0.00000E+00         0.00000E+00        -0.39887E+07
 
   -0.20031E+07         0.12570E+07         0.00000E+00
    0.12570E+07        -0.18411E+08         0.00000E+00
    0.00000E+00         0.00000E+00        -0.40828E+07
 
   -0.24828E+07         0.17577E+07         0.00000E+00
    0.17577E+07        -0.18372E+08         0.00000E+00
    0.00000E+00         0.00000E+00        -0.41710E+07
 
   -0.29913E+07         0.23141E+07         0.00000E+00
    0.23141E+07        -0.18279E+08         0.00000E+00
    0.00000E+00         0.00000E+00        -0.42541E+07
 
   -0.35390E+07         0.29206E+07         0.00000E+00
    0.29206E+07        -0.18127E+08         0.00000E+00
    0.00000E+00         0.00000E+00        -0.43331E+07
 
   -0.41346E+07         0.35706E+07         0.00000E+00
    0.35706E+07        -0.17908E+08         0.00000E+00
    0.00000E+00         0.00000E+00        -0.44086E+07
 
    0.30918E+07        -0.11435E+06         0.00000E+00
   -0.11435E+06        -0.18535E+08         0.00000E+00
    0.00000E+00         0.00000E+00        -0.30886E+07
 
    0.21272E+07        -0.30561E+06         0.00000E+00
   -0.30561E+06        -0.18594E+08         0.00000E+00
    0.00000E+00         0.00000E+00        -0.32933E+07
 
    0.13114E+07        -0.43592E+06         0.00000E+00
   -0.43592E+06        -0.18697E+08         0.00000E+00
    0.00000E+00         0.00000E+00        -0.34771E+07
 
    0.61911E+06        -0.49588E+06         0.00000E+00
   -0.49588E+06        -0.18830E+08         0.00000E+00
    0.00000E+00         0.00000E+00        -0.36421E+07
 
    0.26799E+05        -0.47949E+06         0.00000E+00
   -0.47949E+06        -0.18979E+08         0.00000E+00
    0.00000E+00         0.00000E+00        -0.37904E+07
 
   -0.48757E+06        -0.38352E+06         0.00000E+00
   -0.38352E+06        -0.19131E+08         0.00000E+00
    0.00000E+00         0.00000E+00        -0.39238E+07
 
   -0.94433E+06        -0.20687E+06         0.00000E+00
   -0.20687E+06        -0.19277E+08         0.00000E+00
    0.00000E+00         0.00000E+00        -0.40443E+07
 
   -0.13622E+07         0.49863E+05         0.00000E+00
    0.49863E+05        -0.19407E+08         0.00000E+00
    0.00000E+00         0.00000E+00        -0.41538E+07
 
   -0.17583E+07         0.38483E+06         0.00000E+00
    0.38483E+06        -0.19511E+08         0.00000E+00
    0.00000E+00         0.00000E+00        -0.42538E+07
 
   -0.21485E+07         0.79515E+06         0.00000E+00
    0.79515E+06        -0.19582E+08         0.00000E+00
    0.00000E+00         0.00000E+00        -0.43461E+07
 
   -0.25472E+07         0.12770E+07         0.00000E+00
    0.12770E+07        -0.19612E+08         0.00000E+00
    0.00000E+00         0.00000E+00        -0.44318E+07
 
   -0.29678E+07         0.18260E+07         0.00000E+00
    0.18260E+07        -0.19594E+08         0.00000E+00
    0.00000E+00         0.00000E+00        -0.45124E+07
 
   -0.34223E+07         0.24367E+07         0.00000E+00
    0.24367E+07        -0.19522E+08         0.00000E+00
    0.00000E+00         0.00000E+00        -0.45888E+07
 
   -0.39218E+07         0.31030E+07         0.00000E+00
    0.31030E+07        -0.19388E+08         0.00000E+00
    0.00000E+00         0.00000E+00        -0.46620E+07
 
   -0.44757E+07         0.38179E+07         0.00000E+00
    0.38179E+07        -0.19188E+08         0.00000E+00
    0.00000E+00         0.00000E+00        -0.47326E+07
 
    0.17390E+07        -0.14337E+06         0.00000E+00
   -0.14337E+06        -0.19645E+08         0.00000E+00
    0.00000E+00         0.00000E+00        -0.35813E+07
 
    0.83514E+06        -0.38157E+06         0.00000E+00
   -0.38157E+06        -0.19712E+08         0.00000E+00
    0.00000E+00         0.00000E+00        -0.37754E+07
 
    0.90103E+05        -0.54481E+06         0.00000E+00
   -0.54481E+06        -0.19828E+08         0.00000E+00
    0.00000E+00         0.00000E+00        -0.39476E+07
 
   -0.52483E+06        -0.62485E+06         0.00000E+00
   -0.62485E+06        -0.19978E+08         0.00000E+00
    0.00000E+00         0.00000E+00        -0.41005E+07
 
   -0.10361E+07        -0.61691E+06         0.00000E+00
   -0.61691E+06        -0.20145E+08         0.00000E+00
    0.00000E+00         0.00000E+00        -0.42363E+07
 
   -0.14681E+07        -0.51890E+06         0.00000E+00
   -0.51890E+06        -0.20318E+08         0.00000E+00
    0.00000E+00         0.00000E+00        -0.43572E+07
 
   -0.18426E+07        -0.33079E+06         0.00000E+00
   -0.33079E+06        -0.20485E+08         0.00000E+00
    0.00000E+00         0.00000E+00        -0.44654E+07
 
   -0.21799E+07        -0.54053E+05         0.00000E+00
   -0.54053E+05        -0.20635E+08         0.00000E+00
    0.00000E+00         0.00000E+00        -0.45630E+07
 
   -0.24979E+07         0.30872E+06         0.00000E+00
    0.30872E+06        -0.20760E+08         0.00000E+00
    0.00000E+00         0.00000E+00        -0.46517E+07
 
   -0.28134E+07         0.75407E+06         0.00000E+00
    0.75407E+06        -0.20853E+08         0.00000E+00
    0.00000E+00         0.00000E+00        -0.47332E+07
 
   -0.31416E+07         0.12778E+07         0.00000E+00
    0.12778E+07        -0.20904E+08         0.00000E+00
    0.00000E+00         0.00000E+00        -0.48092E+07
 
   -0.34963E+07         0.18751E+07         0.00000E+00
    0.18751E+07        -0.20908E+08         0.00000E+00
    0.00000E+00         0.00000E+00        -0.48809E+07
 
   -0.38906E+07         0.25404E+07         0.00000E+00
    0.25404E+07        -0.20857E+08         0.00000E+00
    0.00000E+00         0.00000E+00        -0.49494E+07
 
   -0.43361E+07         0.32672E+07         0.00000E+00
    0.32672E+07        -0.20743E+08         0.00000E+00
    0.00000E+00         0.00000E+00        -0.50159E+07
 
   -0.48431E+07         0.40481E+07         0.00000E+00
    0.40481E+07        -0.20562E+08         0.00000E+00
    0.00000E+00         0.00000E+00        -0.50810E+07
 
    0.22626E+06        -0.17596E+06         0.00000E+00
   -0.17596E+06        -0.20858E+08         0.00000E+00
    0.00000E+00         0.00000E+00        -0.41264E+07
 
   -0.60098E+06        -0.46652E+06         0.00000E+00
   -0.46652E+06        -0.20932E+08         0.00000E+00
    0.00000E+00         0.00000E+00        -0.43065E+07
 
   -0.12605E+07        -0.66626E+06         0.00000E+00
   -0.66626E+06        -0.21060E+08         0.00000E+00
    0.00000E+00         0.00000E+00        -0.44641E+07
 
   -0.17847E+07        -0.76862E+06         0.00000E+00
   -0.76862E+06        -0.21225E+08         0.00000E+00
    0.00000E+00         0.00000E+00        -0.46019E+07
 
   -0.22029E+07        -0.77044E+06         0.00000E+00
   -0.77044E+06        -0.21409E+08         0.00000E+00
    0.00000E+00         0.00000E+00        -0.47224E+07
 
   -0.25414E+07        -0.67118E+06         0.00000E+00
   -0.67118E+06        -0.21600E+08         0.00000E+00
    0.00000E+00         0.00000E+00        -0.48282E+07
 
   -0.28240E+07        -0.47213E+06         0.00000E+00
   -0.47213E+06        -0.21784E+08         0.00000E+00
    0.00000E+00         0.00000E+00        -0.49217E+07
 
   -0.30716E+07        -0.17586E+06         0.00000E+00
   -0.17586E+06        -0.21954E+08         0.00000E+00
    0.00000E+00         0.00000E+00        -0.50051E+07
 
   -0.33033E+07         0.21420E+06         0.00000E+00
    0.21420E+06        -0.22098E+08         0.00000E+00
    0.00000E+00         0.00000E+00        -0.50804E+07
 
   -0.35364E+07         0.69404E+06         0.00000E+00
    0.69404E+06        -0.22211E+08         0.00000E+00
    0.00000E+00         0.00000E+00        -0.51494E+07
 
   -0.37867E+07         0.12591E+07         0.00000E+00
    0.12591E+07        -0.22283E+08         0.00000E+00
    0.00000E+00         0.00000E+00        -0.52139E+07
 
   -0.40686E+07         0.19044E+07         0.00000E+00
    0.19044E+07        -0.22308E+08         0.00000E+00
    0.00000E+00         0.00000E+00        -0.52752E+07
 
   -0.43960E+07         0.26241E+07         0.00000E+00
    0.26241E+07        -0.22278E+08         0.00000E+00
    0.00000E+00         0.00000E+00        -0.53347E+07
 
   -0.47812E+07         0.34116E+07         0.00000E+00
    0.34116E+07        -0.22186E+08         0.00000E+00
    0.00000E+00         0.00000E+00        -0.53934E+07
 
   -0.52357E+07         0.42593E+07         0.00000E+00
    0.42593E+07        -0.22025E+08         0.00000E+00
    0.00000E+00         0.00000E+00        -0.54522E+07
 
   -0.14537E+07        -0.21194E+06         0.00000E+00
   -0.21194E+06        -0.22174E+08         0.00000E+00
    0.00000E+00         0.00000E+00        -0.47255E+07
 
   -0.21863E+07        -0.55988E+06         0.00000E+00
   -0.55988E+06        -0.22254E+08         0.00000E+00
    0.00000E+00         0.00000E+00        -0.48880E+07
 
   -0.27439E+07        -0.79926E+06         0.00000E+00
   -0.79926E+06        -0.22393E+08         0.00000E+00
    0.00000E+00         0.00000E+00        -0.50273E+07
 
   -0.31627E+07        -0.92575E+06         0.00000E+00
   -0.92575E+06        -0.22570E+08         0.00000E+00
    0.00000E+00         0.00000E+00        -0.51465E+07
 
   -0.34748E+07        -0.93835E+06         0.00000E+00
   -0.93835E+06        -0.22768E+08         0.00000E+00
    0.00000E+00         0.00000E+00        -0.52486E+07
 
   -0.37086E+07        -0.83844E+06         0.00000E+00
   -0.83844E+06        -0.22973E+08         0.00000E+00
    0.00000E+00         0.00000E+00        -0.53364E+07
 
   -0.38890E+07        -0.62899E+06         0.00000E+00
   -0.62899E+06        -0.23173E+08         0.00000E+00
    0.00000E+00         0.00000E+00        -0.54125E+07
 
   -0.40381E+07        -0.31385E+06         0.00000E+00
   -0.31385E+06        -0.23358E+08         0.00000E+00
    0.00000E+00         0.00000E+00        -0.54793E+07
 
   -0.41752E+07         0.10263E+06         0.00000E+00
    0.10263E+06        -0.23519E+08         0.00000E+00
    0.00000E+00         0.00000E+00        -0.55389E+07
 
   -0.43182E+07         0.61587E+06         0.00000E+00
    0.61587E+06        -0.23649E+08         0.00000E+00
    0.00000E+00         0.00000E+00        -0.55935E+07
 
   -0.44830E+07         0.12211E+07         0.00000E+00
    0.12211E+07        -0.23740E+08         0.00000E+00
    0.00000E+00         0.00000E+00        -0.56447E+07
 
   -0.46849E+07         0.19132E+07         0.00000E+00
    0.19132E+07        -0.23786E+08         0.00000E+00
    0.00000E+00         0.00000E+00        -0.56941E+07
 
   -0.49382E+07         0.26866E+07         0.00000E+00
    0.26866E+07        -0.23778E+08         0.00000E+00
    0.00000E+00         0.00000E+00        -0.57432E+07
 
   -0.52564E+07         0.35346E+07         0.00000E+00
    0.35346E+07        -0.23709E+08         0.00000E+00
    0.00000E+00         0.00000E+00        -0.57930E+07
 
   -0.56521E+07         0.44493E+07         0.00000E+00
    0.44493E+07        -0.23571E+08         0.00000E+00
    0.00000E+00         0.00000E+00        -0.58445E+07
 
   -0.33069E+07        -0.25102E+06         0.00000E+00
   -0.25102E+06        -0.23593E+08         0.00000E+00
    0.00000E+00         0.00000E+00        -0.53800E+07
 
   -0.39244E+07        -0.66072E+06         0.00000E+00
   -0.66072E+06        -0.23678E+08         0.00000E+00
    0.00000E+00         0.00000E+00        -0.55205E+07
 
   -0.43620E+07        -0.94223E+06         0.00000E+00
   -0.94223E+06        -0.23825E+08         0.00000E+00
    0.00000E+00         0.00000E+00        -0.56374E+07
 
   -0.46597E+07        -0.10941E+07         0.00000E+00
   -0.10941E+07        -0.24012E+08         0.00000E+00
    0.00000E+00         0.00000E+00        -0.57343E+07
 
   -0.48521E+07        -0.11180E+07         0.00000E+00
   -0.11180E+07        -0.24221E+08         0.00000E+00
    0.00000E+00         0.00000E+00        -0.58145E+07
 
   -0.49695E+07        -0.10178E+07         0.00000E+00
   -0.10178E+07        -0.24436E+08         0.00000E+00
    0.00000E+00         0.00000E+00        -0.58811E+07
 
   -0.50378E+07        -0.79846E+06         0.00000E+00
   -0.79846E+06        -0.24646E+08         0.00000E+00
    0.00000E+00         0.00000E+00        -0.59368E+07
 
   -0.50795E+07        -0.46537E+06         0.00000E+00
   -0.46537E+06        -0.24842E+08         0.00000E+00
    0.00000E+00         0.00000E+00        -0.59844E+07
 
   -0.51141E+07        -0.23875E+05         0.00000E+00
   -0.23875E+05        -0.25016E+08         0.00000E+00
    0.00000E+00         0.00000E+00        -0.60260E+07
 
   -0.51592E+07         0.52096E+06         0.00000E+00
    0.52096E+06        -0.25160E+08         0.00000E+00
    0.00000E+00         0.00000E+00        -0.60639E+07
 
   -0.52312E+07         0.11643E+07         0.00000E+00
    0.11643E+07        -0.25269E+08         0.00000E+00
    0.00000E+00         0.00000E+00        -0.60999E+07
 
   -0.53454E+07         0.19013E+07         0.00000E+00
    0.19013E+07        -0.25333E+08         0.00000E+00
    0.00000E+00         0.00000E+00        -0.61358E+07
 
   -0.55171E+07         0.27266E+07         0.00000E+00
    0.27266E+07        -0.25347E+08         0.00000E+00
    0.00000E+00         0.00000E+00        -0.61729E+07
 
   -0.57607E+07         0.36340E+07         0.00000E+00
    0.36340E+07        -0.25302E+08         0.00000E+00
    0.00000E+00         0.00000E+00        -0.62126E+07
 
   -0.60905E+07         0.46157E+07         0.00000E+00
    0.46157E+07        -0.25189E+08         0.00000E+00
    0.00000E+00         0.00000E+00        -0.62559E+07
 
   -0.53374E+07        -0.29279E+06         0.00000E+00
   -0.29279E+06        -0.25114E+08         0.00000E+00
    0.00000E+00         0.00000E+00        -0.60903E+07
 
   -0.58171E+07        -0.76773E+06         0.00000E+00
   -0.76773E+06        -0.25203E+08         0.00000E+00
    0.00000E+00         0.00000E+00        -0.62040E+07
 
   -0.61151E+07        -0.10930E+07         0.00000E+00
   -0.10930E+07        -0.25355E+08         0.00000E+00
    0.00000E+00         0.00000E+00        -0.62941E+07
 
   -0.62748E+07        -0.12706E+07         0.00000E+00
   -0.12706E+07        -0.25548E+08         0.00000E+00
    0.00000E+00         0.00000E+00        -0.63645E+07
 
   -0.63336E+07        -0.13057E+07         0.00000E+00
   -0.13057E+07        -0.25761E+08         0.00000E+00
    0.00000E+00         0.00000E+00        -0.64190E+07
 
   -0.63230E+07        -0.12052E+07         0.00000E+00
   -0.12052E+07        -0.25981E+08         0.00000E+00
    0.00000E+00         0.00000E+00        -0.64609E+07
 
   -0.62696E+07        -0.97649E+06         0.00000E+00
   -0.97649E+06        -0.26196E+08         0.00000E+00
    0.00000E+00         0.00000E+00        -0.64932E+07
 
   -0.61956E+07        -0.62670E+06         0.00000E+00
   -0.62670E+06        -0.26398E+08         0.00000E+00
    0.00000E+00         0.00000E+00        -0.65187E+07
 
   -0.61202E+07        -0.16223E+06         0.00000E+00
   -0.16223E+06        -0.26579E+08         0.00000E+00
    0.00000E+00         0.00000E+00        -0.65399E+07
 
   -0.60603E+07         0.41146E+06         0.00000E+00
    0.41146E+06        -0.26734E+08         0.00000E+00
    0.00000E+00         0.00000E+00        -0.65588E+07
 
   -0.60320E+07         0.10898E+07         0.00000E+00
    0.10898E+07        -0.26856E+08         0.00000E+00
    0.00000E+00         0.00000E+00        -0.65776E+07
 
   -0.60508E+07         0.18684E+07         0.00000E+00
    0.18684E+07        -0.26939E+08         0.00000E+00
    0.00000E+00         0.00000E+00        -0.65980E+07
 
   -0.61326E+07         0.27429E+07         0.00000E+00
    0.27429E+07        -0.26976E+08         0.00000E+00
    0.00000E+00         0.00000E+00        -0.66216E+07
 
   -0.62933E+07         0.37077E+07         0.00000E+00
    0.37077E+07        -0.26956E+08         0.00000E+00
    0.00000E+00         0.00000E+00        -0.66498E+07
 
   -0.65488E+07         0.47555E+07         0.00000E+00
    0.47555E+07        -0.26870E+08         0.00000E+00
    0.00000E+00         0.00000E+00        -0.66838E+07
 
   -0.75471E+07        -0.33666E+06         0.00000E+00
   -0.33666E+06        -0.26735E+08         0.00000E+00
    0.00000E+00         0.00000E+00        -0.68564E+07
 
   -0.78641E+07        -0.87915E+06         0.00000E+00
   -0.87915E+06        -0.26826E+08         0.00000E+00
    0.00000E+00         0.00000E+00        -0.69379E+07
 
   -0.80012E+07        -0.12485E+07         0.00000E+00
   -0.12485E+07        -0.26980E+08         0.00000E+00
    0.00000E+00         0.00000E+00        -0.69962E+07
 
   -0.80054E+07        -0.14512E+07         0.00000E+00
   -0.14512E+07        -0.27173E+08         0.00000E+00
    0.00000E+00         0.00000E+00        -0.70357E+07
 
   -0.79164E+07        -0.14966E+07         0.00000E+00
   -0.14966E+07        -0.27386E+08         0.00000E+00
    0.00000E+00         0.00000E+00        -0.70604E+07
 
   -0.77667E+07        -0.13953E+07         0.00000E+00
   -0.13953E+07        -0.27603E+08         0.00000E+00
    0.00000E+00         0.00000E+00        -0.70739E+07
 
   -0.75828E+07        -0.11577E+07         0.00000E+00
   -0.11577E+07        -0.27815E+08         0.00000E+00
    0.00000E+00         0.00000E+00        -0.70796E+07
 
   -0.73859E+07        -0.79281E+06         0.00000E+00
   -0.79281E+06        -0.28015E+08         0.00000E+00
    0.00000E+00         0.00000E+00        -0.70802E+07
 
   -0.71938E+07        -0.30828E+06         0.00000E+00
   -0.30828E+06        -0.28197E+08         0.00000E+00
    0.00000E+00         0.00000E+00        -0.70782E+07
 
   -0.70224E+07         0.29034E+06         0.00000E+00
    0.29034E+06        -0.28357E+08         0.00000E+00
    0.00000E+00         0.00000E+00        -0.70759E+07
 
   -0.68868E+07         0.99900E+06         0.00000E+00
    0.99900E+06        -0.28490E+08         0.00000E+00
    0.00000E+00         0.00000E+00        -0.70754E+07
 
   -0.68022E+07         0.18146E+07         0.00000E+00
    0.18146E+07        -0.28590E+08         0.00000E+00
    0.00000E+00         0.00000E+00        -0.70784E+07
 
   -0.67852E+07         0.27340E+07         0.00000E+00
    0.27340E+07        -0.28648E+08         0.00000E+00
    0.00000E+00         0.00000E+00        -0.70867E+07
 
   -0.68533E+07         0.37531E+07         0.00000E+00
    0.37531E+07        -0.28656E+08         0.00000E+00
    0.00000E+00         0.00000E+00        -0.71018E+07
 
   -0.70250E+07         0.48652E+07         0.00000E+00
    0.48652E+07        -0.28601E+08         0.00000E+00
    0.00000E+00         0.00000E+00        -0.71251E+07
 
   -0.99352E+07        -0.38193E+06         0.00000E+00
   -0.38193E+06        -0.28452E+08         0.00000E+00
    0.00000E+00         0.00000E+00        -0.76774E+07
 
   -0.10062E+08        -0.99272E+06         0.00000E+00
   -0.99272E+06        -0.28542E+08         0.00000E+00
    0.00000E+00         0.00000E+00        -0.77209E+07
 
   -0.10015E+08        -0.14050E+07         0.00000E+00
   -0.14050E+07        -0.28694E+08         0.00000E+00
    0.00000E+00         0.00000E+00        -0.77420E+07
 
   -0.98460E+07        -0.16307E+07         0.00000E+00
   -0.16307E+07        -0.28882E+08         0.00000E+00
    0.00000E+00         0.00000E+00        -0.77456E+07
 
   -0.95955E+07        -0.16843E+07         0.00000E+00
   -0.16843E+07        -0.29085E+08         0.00000E+00
    0.00000E+00         0.00000E+00        -0.77361E+07
 
   -0.92967E+07        -0.15811E+07         0.00000E+00
   -0.15811E+07        -0.29291E+08         0.00000E+00
    0.00000E+00         0.00000E+00        -0.77176E+07
 
   -0.89748E+07        -0.13349E+07         0.00000E+00
   -0.13349E+07        -0.29491E+08         0.00000E+00
    0.00000E+00         0.00000E+00        -0.76932E+07
 
   -0.86493E+07        -0.95719E+06         0.00000E+00
   -0.95719E+06        -0.29681E+08         0.00000E+00
    0.00000E+00         0.00000E+00        -0.76660E+07
 
   -0.83356E+07        -0.45658E+06         0.00000E+00
   -0.45658E+06        -0.29856E+08         0.00000E+00
    0.00000E+00         0.00000E+00        -0.76384E+07
 
   -0.80473E+07         0.16148E+06         0.00000E+00
    0.16148E+06        -0.30015E+08         0.00000E+00
    0.00000E+00         0.00000E+00        -0.76125E+07
 
   -0.77977E+07         0.89406E+06         0.00000E+00
    0.89406E+06        -0.30155E+08         0.00000E+00
    0.00000E+00         0.00000E+00        -0.75905E+07
 
   -0.76017E+07         0.17399E+07         0.00000E+00
    0.17399E+07        -0.30269E+08         0.00000E+00
    0.00000E+00         0.00000E+00        -0.75741E+07
 
   -0.74761E+07         0.26982E+07         0.00000E+00
    0.26982E+07        -0.30350E+08         0.00000E+00
    0.00000E+00         0.00000E+00        -0.75652E+07
 
   -0.74405E+07         0.37667E+07         0.00000E+00
    0.37667E+07        -0.30387E+08         0.00000E+00
    0.00000E+00         0.00000E+00        -0.75655E+07
 
   -0.75164E+07         0.49407E+07         0.00000E+00
    0.49407E+07        -0.30367E+08         0.00000E+00
    0.00000E+00         0.00000E+00        -0.75766E+07
 
   -0.12498E+08        -0.42771E+06         0.00000E+00
   -0.42771E+06        -0.30259E+08         0.00000E+00
    0.00000E+00         0.00000E+00        -0.85514E+07
 
   -0.12405E+08        -0.11056E+07         0.00000E+00
   -0.11056E+07        -0.30347E+08         0.00000E+00
    0.00000E+00         0.00000E+00        -0.85504E+07
 
   -0.12150E+08        -0.15575E+07         0.00000E+00
   -0.15575E+07        -0.30492E+08         0.00000E+00
    0.00000E+00         0.00000E+00        -0.85284E+07
 
   -0.11789E+08        -0.18022E+07         0.00000E+00
   -0.18022E+07        -0.30666E+08         0.00000E+00
    0.00000E+00         0.00000E+00        -0.84910E+07
 
   -0.11364E+08        -0.18606E+07         0.00000E+00
   -0.18606E+07        -0.30851E+08         0.00000E+00
    0.00000E+00         0.00000E+00        -0.84429E+07
 
   -0.10907E+08        -0.17536E+07         0.00000E+00
   -0.17536E+07        -0.31035E+08         0.00000E+00
    0.00000E+00         0.00000E+00        -0.83884E+07
 
   -0.10442E+08        -0.14992E+07         0.00000E+00
   -0.14992E+07        -0.31212E+08         0.00000E+00
    0.00000E+00         0.00000E+00        -0.83308E+07
 
   -0.99849E+07        -0.11116E+07         0.00000E+00
   -0.11116E+07        -0.31380E+08         0.00000E+00
    0.00000E+00         0.00000E+00        -0.82729E+07
 
   -0.95465E+07        -0.60025E+06         0.00000E+00
   -0.60025E+06        -0.31539E+08         0.00000E+00
    0.00000E+00         0.00000E+00        -0.82171E+07
 
   -0.91374E+07         0.29846E+05         0.00000E+00
    0.29846E+05        -0.31690E+08         0.00000E+00
    0.00000E+00         0.00000E+00        -0.81655E+07
 
   -0.87683E+07         0.77759E+06         0.00000E+00
    0.77759E+06        -0.31831E+08         0.00000E+00
    0.00000E+00         0.00000E+00        -0.81198E+07
 
   -0.84526E+07         0.16445E+07         0.00000E+00
    0.16445E+07        -0.31957E+08         0.00000E+00
    0.00000E+00         0.00000E+00        -0.80819E+07
 
   -0.82076E+07         0.26330E+07         0.00000E+00
    0.26330E+07        -0.32061E+08         0.00000E+00
    0.00000E+00         0.00000E+00        -0.80538E+07
 
   -0.80550E+07         0.37444E+07         0.00000E+00
    0.37444E+07        -0.32131E+08         0.00000E+00
    0.00000E+00         0.00000E+00        -0.80373E+07
 
   -0.80207E+07         0.49762E+07         0.00000E+00
    0.49762E+07        -0.32151E+08         0.00000E+00
    0.00000E+00         0.00000E+00        -0.80344E+07
 
   -0.15227E+08        -0.47298E+06         0.00000E+00
   -0.47298E+06        -0.32151E+08         0.00000E+00
    0.00000E+00         0.00000E+00        -0.94757E+07
 
   -0.14882E+08        -0.12144E+07         0.00000E+00
   -0.12144E+07        -0.32233E+08         0.00000E+00
    0.00000E+00         0.00000E+00        -0.94230E+07
 
   -0.14393E+08        -0.17000E+07         0.00000E+00
   -0.17000E+07        -0.32364E+08         0.00000E+00
    0.00000E+00         0.00000E+00        -0.93516E+07
 
   -0.13822E+08        -0.19571E+07         0.00000E+00
   -0.19571E+07        -0.32516E+08         0.00000E+00
    0.00000E+00         0.00000E+00        -0.92676E+07
 
   -0.13211E+08        -0.20151E+07         0.00000E+00
   -0.20151E+07        -0.32671E+08         0.00000E+00
    0.00000E+00         0.00000E+00        -0.91764E+07
 
   -0.12591E+08        -0.19015E+07         0.00000E+00
   -0.19015E+07        -0.32819E+08         0.00000E+00
    0.00000E+00         0.00000E+00        -0.90821E+07
 
   -0.11981E+08        -0.16394E+07         0.00000E+00
   -0.16394E+07        -0.32960E+08         0.00000E+00
    0.00000E+00         0.00000E+00        -0.89882E+07
 
   -0.11392E+08        -0.12458E+07         0.00000E+00
   -0.12458E+07        -0.33094E+08         0.00000E+00
    0.00000E+00         0.00000E+00        -0.88971E+07
 
   -0.10828E+08        -0.73087E+06         0.00000E+00
   -0.73087E+06        -0.33226E+08         0.00000E+00
    0.00000E+00         0.00000E+00        -0.88109E+07
 
   -0.10297E+08        -0.98505E+05         0.00000E+00
   -0.98505E+05        -0.33360E+08         0.00000E+00
    0.00000E+00         0.00000E+00        -0.87314E+07
 
   -0.98038E+07         0.65280E+06         0.00000E+00
    0.65280E+06        -0.33496E+08         0.00000E+00
    0.00000E+00         0.00000E+00        -0.86600E+07
 
   -0.93603E+07         0.15285E+07         0.00000E+00
    0.15285E+07        -0.33633E+08         0.00000E+00
    0.00000E+00         0.00000E+00        -0.85986E+07
 
   -0.89837E+07         0.25357E+07         0.00000E+00
    0.25357E+07        -0.33762E+08         0.00000E+00
    0.00000E+00         0.00000E+00        -0.85491E+07
 
   -0.86984E+07         0.36805E+07         0.00000E+00
    0.36805E+07        -0.33869E+08         0.00000E+00
    0.00000E+00         0.00000E+00        -0.85135E+07
 
   -0.85356E+07         0.49648E+07         0.00000E+00
    0.49648E+07        -0.33936E+08         0.00000E+00
    0.00000E+00         0.00000E+00        -0.84943E+07
 
   -0.18112E+08        -0.51655E+06         0.00000E+00
   -0.51655E+06        -0.34119E+08         0.00000E+00
    0.00000E+00         0.00000E+00        -0.10446E+08
 
   -0.17478E+08        -0.13148E+07         0.00000E+00
   -0.13148E+07        -0.34192E+08         0.00000E+00
    0.00000E+00         0.00000E+00        -0.10334E+08
 
   -0.16729E+08        -0.18246E+07         0.00000E+00
   -0.18246E+07        -0.34302E+08         0.00000E+00
    0.00000E+00         0.00000E+00        -0.10206E+08
 
   -0.15930E+08        -0.20846E+07         0.00000E+00
   -0.20846E+07        -0.34419E+08         0.00000E+00
    0.00000E+00         0.00000E+00        -0.10070E+08
 
   -0.15125E+08        -0.21346E+07         0.00000E+00
   -0.21346E+07        -0.34529E+08         0.00000E+00
    0.00000E+00         0.00000E+00        -0.99309E+07
 
   -0.14340E+08        -0.20110E+07         0.00000E+00
   -0.20110E+07        -0.34627E+08         0.00000E+00
    0.00000E+00         0.00000E+00        -0.97934E+07
 
   -0.13587E+08        -0.17422E+07         0.00000E+00
   -0.17422E+07        -0.34715E+08         0.00000E+00
    0.00000E+00         0.00000E+00        -0.96604E+07
 
   -0.12869E+08        -0.13478E+07         0.00000E+00
   -0.13478E+07        -0.34801E+08         0.00000E+00
    0.00000E+00         0.00000E+00        -0.95341E+07
 
   -0.12184E+08        -0.83846E+06         0.00000E+00
   -0.83846E+06        -0.34894E+08         0.00000E+00
    0.00000E+00         0.00000E+00        -0.94157E+07
 
   -0.11532E+08        -0.21635E+06         0.00000E+00
   -0.21635E+06        -0.35001E+08         0.00000E+00
    0.00000E+00         0.00000E+00        -0.93066E+07
 
   -0.10912E+08         0.52354E+06         0.00000E+00
    0.52354E+06        -0.35127E+08         0.00000E+00
    0.00000E+00         0.00000E+00        -0.92078E+07
 
   -0.10333E+08         0.13918E+07         0.00000E+00
    0.13918E+07        -0.35271E+08         0.00000E+00
    0.00000E+00         0.00000E+00        -0.91207E+07
 
   -0.98112E+07         0.24022E+07         0.00000E+00
    0.24022E+07        -0.35426E+08         0.00000E+00
    0.00000E+00         0.00000E+00        -0.90474E+07
 
   -0.93739E+07         0.35680E+07         0.00000E+00
    0.35680E+07        -0.35577E+08         0.00000E+00
    0.00000E+00         0.00000E+00        -0.89901E+07
 
   -0.90592E+07         0.48971E+07         0.00000E+00
    0.48971E+07        -0.35700E+08         0.00000E+00
    0.00000E+00         0.00000E+00        -0.89519E+07
 
   -0.21137E+08        -0.55705E+06         0.00000E+00
   -0.55705E+06        -0.36152E+08         0.00000E+00
    0.00000E+00         0.00000E+00        -0.11458E+08
 
   -0.20173E+08        -0.14012E+07         0.00000E+00
   -0.14012E+07        -0.36211E+08         0.00000E+00
    0.00000E+00         0.00000E+00        -0.11277E+08
 
   -0.19135E+08        -0.19210E+07         0.00000E+00
   -0.19210E+07        -0.36290E+08         0.00000E+00
    0.00000E+00         0.00000E+00        -0.11085E+08
 
   -0.18094E+08        -0.21702E+07         0.00000E+00
   -0.21702E+07        -0.36359E+08         0.00000E+00
    0.00000E+00         0.00000E+00        -0.10891E+08
 
   -0.17091E+08        -0.22029E+07         0.00000E+00
   -0.22029E+07        -0.36407E+08         0.00000E+00
    0.00000E+00         0.00000E+00        -0.10700E+08
 
   -0.16144E+08        -0.20653E+07         0.00000E+00
   -0.20653E+07        -0.36435E+08         0.00000E+00
    0.00000E+00         0.00000E+00        -0.10516E+08
 
   -0.15255E+08        -0.17917E+07         0.00000E+00
   -0.17917E+07        -0.36454E+08         0.00000E+00
    0.00000E+00         0.00000E+00        -0.10342E+08
 
   -0.14418E+08        -0.14038E+07         0.00000E+00
   -0.14038E+07        -0.36476E+08         0.00000E+00
    0.00000E+00         0.00000E+00        -0.10179E+08
 
   -0.13619E+08        -0.91171E+06         0.00000E+00
   -0.91171E+06        -0.36517E+08         0.00000E+00
    0.00000E+00         0.00000E+00        -0.10027E+08
 
   -0.12850E+08        -0.31541E+06         0.00000E+00
   -0.31541E+06        -0.36587E+08         0.00000E+00
    0.00000E+00         0.00000E+00        -0.98873E+07
 
   -0.12104E+08         0.39436E+06         0.00000E+00
    0.39436E+06        -0.36694E+08         0.00000E+00
    0.00000E+00         0.00000E+00        -0.97597E+07
 
   -0.11383E+08         0.12346E+07         0.00000E+00
    0.12346E+07        -0.36843E+08         0.00000E+00
    0.00000E+00         0.00000E+00        -0.96451E+07
 
   -0.10700E+08         0.22277E+07         0.00000E+00
    0.22277E+07        -0.37027E+08         0.00000E+00
    0.00000E+00         0.00000E+00        -0.95455E+07
 
   -0.10087E+08         0.33972E+07         0.00000E+00
    0.33972E+07        -0.37230E+08         0.00000E+00
    0.00000E+00         0.00000E+00        -0.94634E+07
 
   -0.95904E+07         0.47606E+07         0.00000E+00
    0.47606E+07        -0.37422E+08         0.00000E+00
    0.00000E+00         0.00000E+00        -0.94025E+07
 
   -0.24278E+08        -0.59286E+06         0.00000E+00
   -0.59286E+06        -0.38238E+08         0.00000E+00
    0.00000E+00         0.00000E+00        -0.12503E+08
 
   -0.22938E+08        -0.14664E+07         0.00000E+00
   -0.14664E+07        -0.38279E+08         0.00000E+00
    0.00000E+00         0.00000E+00        -0.12244E+08
 
   -0.21583E+08        -0.19751E+07         0.00000E+00
   -0.19751E+07        -0.38314E+08         0.00000E+00
    0.00000E+00         0.00000E+00        -0.11979E+08
 
   -0.20288E+08        -0.21953E+07         0.00000E+00
   -0.21953E+07        -0.38315E+08         0.00000E+00
    0.00000E+00         0.00000E+00        -0.11721E+08
 
   -0.19090E+08        -0.21995E+07         0.00000E+00
   -0.21995E+07        -0.38278E+08         0.00000E+00
    0.00000E+00         0.00000E+00        -0.11474E+08
 
   -0.17992E+08        -0.20451E+07         0.00000E+00
   -0.20451E+07        -0.38216E+08         0.00000E+00
    0.00000E+00         0.00000E+00        -0.11242E+08
 
   -0.16982E+08        -0.17709E+07         0.00000E+00
   -0.17709E+07        -0.38146E+08         0.00000E+00
    0.00000E+00         0.00000E+00        -0.11026E+08
 
   -0.16039E+08        -0.13992E+07         0.00000E+00
   -0.13992E+07        -0.38090E+08         0.00000E+00
    0.00000E+00         0.00000E+00        -0.10826E+08
 
   -0.15140E+08        -0.93866E+06         0.00000E+00
   -0.93866E+06        -0.38065E+08         0.00000E+00
    0.00000E+00         0.00000E+00        -0.10641E+08
 
   -0.14263E+08        -0.38652E+06         0.00000E+00
   -0.38652E+06        -0.38087E+08         0.00000E+00
    0.00000E+00         0.00000E+00        -0.10470E+08
 
   -0.13394E+08         0.27073E+06         0.00000E+00
    0.27073E+06        -0.38170E+08         0.00000E+00
    0.00000E+00         0.00000E+00        -0.10313E+08
 
   -0.12526E+08         0.10571E+07         0.00000E+00
    0.10571E+07        -0.38320E+08         0.00000E+00
    0.00000E+00         0.00000E+00        -0.10169E+08
 
   -0.11667E+08         0.20061E+07         0.00000E+00
    0.20061E+07        -0.38536E+08         0.00000E+00
    0.00000E+00         0.00000E+00        -0.10040E+08
 
   -0.10849E+08         0.31556E+07         0.00000E+00
    0.31556E+07        -0.38800E+08         0.00000E+00
    0.00000E+00         0.00000E+00        -0.99299E+07
 
   -0.10130E+08         0.45385E+07         0.00000E+00
    0.45385E+07        -0.39079E+08         0.00000E+00
    0.00000E+00         0.00000E+00        -0.98418E+07
 
   -0.27508E+08        -0.62188E+06         0.00000E+00
   -0.62188E+06        -0.40364E+08         0.00000E+00
    0.00000E+00         0.00000E+00        -0.13575E+08
 
   -0.25737E+08        -0.14992E+07         0.00000E+00
   -0.14992E+07        -0.40379E+08         0.00000E+00
    0.00000E+00         0.00000E+00        -0.13223E+08
 
   -0.24035E+08        -0.19663E+07         0.00000E+00
   -0.19663E+07        -0.40350E+08         0.00000E+00
    0.00000E+00         0.00000E+00        -0.12877E+08
 
   -0.22485E+08        -0.21345E+07         0.00000E+00
   -0.21345E+07        -0.40256E+08         0.00000E+00
    0.00000E+00         0.00000E+00        -0.12548E+08
 
   -0.21106E+08        -0.20999E+07         0.00000E+00
   -0.20999E+07        -0.40107E+08         0.00000E+00
    0.00000E+00         0.00000E+00        -0.12242E+08
 
   -0.19877E+08        -0.19295E+07         0.00000E+00
   -0.19295E+07        -0.39931E+08         0.00000E+00
    0.00000E+00         0.00000E+00        -0.11962E+08
 
   -0.18767E+08        -0.16630E+07         0.00000E+00
   -0.16630E+07        -0.39756E+08         0.00000E+00
    0.00000E+00         0.00000E+00        -0.11705E+08
 
   -0.17738E+08        -0.13204E+07         0.00000E+00
   -0.13204E+07        -0.39608E+08         0.00000E+00
    0.00000E+00         0.00000E+00        -0.11469E+08
 
   -0.16754E+08        -0.90800E+06         0.00000E+00
   -0.90800E+06        -0.39508E+08         0.00000E+00
    0.00000E+00         0.00000E+00        -0.11252E+08
 
   -0.15784E+08        -0.42029E+06         0.00000E+00
   -0.42029E+06        -0.39474E+08         0.00000E+00
    0.00000E+00         0.00000E+00        -0.11052E+08
 
   -0.14800E+08         0.15939E+06         0.00000E+00
    0.15939E+06        -0.39524E+08         0.00000E+00
    0.00000E+00         0.00000E+00        -0.10865E+08
 
   -0.13784E+08         0.86124E+06         0.00000E+00
    0.86124E+06        -0.39671E+08         0.00000E+00
    0.00000E+00         0.00000E+00        -0.10691E+08
 
   -0.12734E+08         0.17310E+07         0.00000E+00
    0.17310E+07        -0.39919E+08         0.00000E+00
    0.00000E+00         0.00000E+00        -0.10531E+08
 
   -0.11676E+08         0.28271E+07         0.00000E+00
    0.28271E+07        -0.40258E+08         0.00000E+00
    0.00000E+00         0.00000E+00        -0.10387E+08
 
   -0.10681E+08         0.42077E+07         0.00000E+00
    0.42077E+07        -0.40646E+08         0.00000E+00
    0.00000E+00         0.00000E+00        -0.10265E+08
 
   -0.30789E+08        -0.64086E+06         0.00000E+00
   -0.64086E+06        -0.42514E+08         0.00000E+00
    0.00000E+00         0.00000E+00        -0.14661E+08
 
   -0.28515E+08        -0.14803E+07         0.00000E+00
   -0.14803E+07        -0.42487E+08         0.00000E+00
    0.00000E+00         0.00000E+00        -0.14200E+08
 
   -0.26446E+08        -0.18623E+07         0.00000E+00
   -0.18623E+07        -0.42361E+08         0.00000E+00
    0.00000E+00         0.00000E+00        -0.13761E+08
 
   -0.24656E+08        -0.19540E+07         0.00000E+00
   -0.19540E+07        -0.42132E+08         0.00000E+00
    0.00000E+00         0.00000E+00        -0.13358E+08
 
   -0.23124E+08        -0.18769E+07         0.00000E+00
   -0.18769E+07        -0.41841E+08         0.00000E+00
    0.00000E+00         0.00000E+00        -0.12993E+08
 
   -0.21796E+08        -0.16993E+07         0.00000E+00
   -0.16993E+07        -0.41532E+08         0.00000E+00
    0.00000E+00         0.00000E+00        -0.12666E+08
 
   -0.20611E+08        -0.14547E+07         0.00000E+00
   -0.14547E+07        -0.41242E+08         0.00000E+00
    0.00000E+00         0.00000E+00        -0.12371E+08
 
   -0.19519E+08        -0.11578E+07         0.00000E+00
   -0.11578E+07        -0.40996E+08         0.00000E+00
    0.00000E+00         0.00000E+00        -0.12103E+08
 
   -0.18470E+08        -0.81135E+06         0.00000E+00
   -0.81135E+06        -0.40815E+08         0.00000E+00
    0.00000E+00         0.00000E+00        -0.11857E+08
 
   -0.17425E+08        -0.40828E+06         0.00000E+00
   -0.40828E+06        -0.40721E+08         0.00000E+00
    0.00000E+00         0.00000E+00        -0.11629E+08
 
   -0.16343E+08         0.68790E+05         0.00000E+00
    0.68790E+05        -0.40731E+08         0.00000E+00
    0.00000E+00         0.00000E+00        -0.11415E+08
 
   -0.15187E+08         0.65214E+06         0.00000E+00
    0.65214E+06        -0.40866E+08         0.00000E+00
    0.00000E+00         0.00000E+00        -0.11211E+08
 
   -0.13935E+08         0.13980E+07         0.00000E+00
    0.13980E+07        -0.41145E+08         0.00000E+00
    0.00000E+00         0.00000E+00        -0.11016E+08
 
   -0.12597E+08         0.23920E+07         0.00000E+00
    0.23920E+07        -0.41570E+08         0.00000E+00
    0.00000E+00         0.00000E+00        -0.10833E+08
 
   -0.11253E+08         0.37354E+07         0.00000E+00
    0.37354E+07        -0.42098E+08         0.00000E+00
    0.00000E+00         0.00000E+00        -0.10670E+08
 
   -0.34065E+08        -0.64270E+06         0.00000E+00
   -0.64270E+06        -0.44668E+08         0.00000E+00
    0.00000E+00         0.00000E+00        -0.15747E+08
 
   -0.31198E+08        -0.13709E+07         0.00000E+00
   -0.13709E+07        -0.44565E+08         0.00000E+00
    0.00000E+00         0.00000E+00        -0.15152E+08
 
   -0.28764E+08        -0.16102E+07         0.00000E+00
   -0.16102E+07        -0.44279E+08         0.00000E+00
    0.00000E+00         0.00000E+00        -0.14609E+08
 
   -0.26781E+08        -0.16133E+07         0.00000E+00
   -0.16133E+07        -0.43866E+08         0.00000E+00
    0.00000E+00         0.00000E+00        -0.14129E+08
 
   -0.25145E+08        -0.15076E+07         0.00000E+00
   -0.15076E+07        -0.43408E+08         0.00000E+00
    0.00000E+00         0.00000E+00        -0.13710E+08
 
   -0.23752E+08        -0.13434E+07         0.00000E+00
   -0.13434E+07        -0.42959E+08         0.00000E+00
    0.00000E+00         0.00000E+00        -0.13342E+08
 
   -0.22522E+08        -0.11415E+07         0.00000E+00
   -0.11415E+07        -0.42554E+08         0.00000E+00
    0.00000E+00         0.00000E+00        -0.13015E+08
 
   -0.21389E+08        -0.90926E+06         0.00000E+00
   -0.90926E+06        -0.42215E+08         0.00000E+00
    0.00000E+00         0.00000E+00        -0.12721E+08
 
   -0.20298E+08        -0.64618E+06         0.00000E+00
   -0.64618E+06        -0.41960E+08         0.00000E+00
    0.00000E+00         0.00000E+00        -0.12452E+08
 
   -0.19198E+08        -0.34539E+06         0.00000E+00
   -0.34539E+06        -0.41806E+08         0.00000E+00
    0.00000E+00         0.00000E+00        -0.12201E+08
 
   -0.18039E+08         0.79982E+04         0.00000E+00
    0.79982E+04        -0.41773E+08         0.00000E+00
    0.00000E+00         0.00000E+00        -0.11962E+08
 
   -0.16766E+08         0.44206E+06         0.00000E+00
    0.44206E+06        -0.41887E+08         0.00000E+00
    0.00000E+00         0.00000E+00        -0.11731E+08
 
   -0.15319E+08         0.10110E+07         0.00000E+00
    0.10110E+07        -0.42181E+08         0.00000E+00
    0.00000E+00         0.00000E+00        -0.11500E+08
 
   -0.13664E+08         0.18288E+07         0.00000E+00
    0.18288E+07        -0.42697E+08         0.00000E+00
    0.00000E+00         0.00000E+00        -0.11272E+08
 
   -0.11866E+08         0.30731E+07         0.00000E+00
    0.30731E+07        -0.43405E+08         0.00000E+00
    0.00000E+00         0.00000E+00        -0.11054E+08
 
   -0.37236E+08        -0.60309E+06         0.00000E+00
   -0.60309E+06        -0.46792E+08         0.00000E+00
    0.00000E+00         0.00000E+00        -0.16806E+08
 
   -0.33679E+08        -0.10782E+07         0.00000E+00
   -0.10782E+07        -0.46511E+08         0.00000E+00
    0.00000E+00         0.00000E+00        -0.16038E+08
 
   -0.30957E+08        -0.11366E+07         0.00000E+00
   -0.11366E+07        -0.45961E+08         0.00000E+00
    0.00000E+00         0.00000E+00        -0.15384E+08
 
   -0.28867E+08        -0.10837E+07         0.00000E+00
   -0.10837E+07        -0.45333E+08         0.00000E+00
    0.00000E+00         0.00000E+00        -0.14840E+08
 
   -0.27180E+08        -0.98719E+06         0.00000E+00
   -0.98719E+06        -0.44714E+08         0.00000E+00
    0.00000E+00         0.00000E+00        -0.14379E+08
 
   -0.25759E+08        -0.86770E+06         0.00000E+00
   -0.86770E+06        -0.44144E+08         0.00000E+00
    0.00000E+00         0.00000E+00        -0.13981E+08
 
   -0.24508E+08        -0.73259E+06         0.00000E+00
   -0.73259E+06        -0.43646E+08         0.00000E+00
    0.00000E+00         0.00000E+00        -0.13631E+08
 
   -0.23356E+08        -0.58357E+06         0.00000E+00
   -0.58357E+06        -0.43233E+08         0.00000E+00
    0.00000E+00         0.00000E+00        -0.13318E+08
 
   -0.22242E+08        -0.41884E+06         0.00000E+00
   -0.41884E+06        -0.42918E+08         0.00000E+00
    0.00000E+00         0.00000E+00        -0.13032E+08
 
   -0.21110E+08        -0.23330E+06         0.00000E+00
   -0.23330E+06        -0.42716E+08         0.00000E+00
    0.00000E+00         0.00000E+00        -0.12765E+08
 
   -0.19901E+08        -0.17246E+05         0.00000E+00
   -0.17246E+05        -0.42645E+08         0.00000E+00
    0.00000E+00         0.00000E+00        -0.12509E+08
 
   -0.18546E+08         0.24757E+06         0.00000E+00
    0.24757E+06        -0.42732E+08         0.00000E+00
    0.00000E+00         0.00000E+00        -0.12256E+08
 
   -0.16952E+08         0.59827E+06         0.00000E+00
    0.59827E+06        -0.43019E+08         0.00000E+00
    0.00000E+00         0.00000E+00        -0.11994E+08
 
   -0.14972E+08         0.11276E+07         0.00000E+00
    0.11276E+07        -0.43584E+08         0.00000E+00
    0.00000E+00         0.00000E+00        -0.11711E+08
 
   -0.12571E+08         0.21386E+07         0.00000E+00
    0.21386E+07        -0.44531E+08         0.00000E+00
    0.00000E+00         0.00000E+00        -0.11420E+08
 
   -0.40077E+08        -0.36648E+06         0.00000E+00
   -0.36648E+06        -0.48681E+08         0.00000E+00
    0.00000E+00         0.00000E+00        -0.17752E+08
 
   -0.35878E+08        -0.43944E+06         0.00000E+00
   -0.43944E+06        -0.47981E+08         0.00000E+00
    0.00000E+00         0.00000E+00        -0.16772E+08
 
   -0.33071E+08        -0.41795E+06         0.00000E+00
   -0.41795E+06        -0.47170E+08         0.00000E+00
    0.00000E+00         0.00000E+00        -0.16048E+08
 
   -0.30951E+08        -0.38555E+06         0.00000E+00
   -0.38555E+06        -0.46386E+08         0.00000E+00
    0.00000E+00         0.00000E+00        -0.15467E+08
 
   -0.29255E+08        -0.34570E+06         0.00000E+00
   -0.34570E+06        -0.45665E+08         0.00000E+00
    0.00000E+00         0.00000E+00        -0.14984E+08
 
   -0.27831E+08        -0.30144E+06         0.00000E+00
   -0.30144E+06        -0.45024E+08         0.00000E+00
    0.00000E+00         0.00000E+00        -0.14571E+08
 
   -0.26578E+08        -0.25360E+06         0.00000E+00
   -0.25360E+06        -0.44473E+08         0.00000E+00
    0.00000E+00         0.00000E+00        -0.14210E+08
 
   -0.25423E+08        -0.20206E+06         0.00000E+00
   -0.20206E+06        -0.44020E+08         0.00000E+00
    0.00000E+00         0.00000E+00        -0.13889E+08
 
   -0.24303E+08        -0.14587E+06         0.00000E+00
   -0.14587E+06        -0.43674E+08         0.00000E+00
    0.00000E+00         0.00000E+00        -0.13595E+08
 
   -0.23159E+08        -0.83178E+05         0.00000E+00
   -0.83178E+05        -0.43446E+08         0.00000E+00
    0.00000E+00         0.00000E+00        -0.13321E+08
 
   -0.21930E+08        -0.10637E+05         0.00000E+00
   -0.10637E+05        -0.43352E+08         0.00000E+00
    0.00000E+00         0.00000E+00        -0.13057E+08
 
   -0.20538E+08         0.77829E+05         0.00000E+00
    0.77829E+05        -0.43419E+08         0.00000E+00
    0.00000E+00         0.00000E+00        -0.12791E+08
 
   -0.18866E+08         0.19528E+06         0.00000E+00
    0.19528E+06        -0.43691E+08         0.00000E+00
    0.00000E+00         0.00000E+00        -0.12511E+08
 
   -0.16712E+08         0.37107E+06         0.00000E+00
    0.37107E+06        -0.44256E+08         0.00000E+00
    0.00000E+00         0.00000E+00        -0.12194E+08
 
   -0.13502E+08         0.79492E+06         0.00000E+00
    0.79492E+06        -0.45357E+08         0.00000E+00
    0.00000E+00         0.00000E+00        -0.11772E+08
 
TENSORS stresstot double 
   -0.37735E+08         0.41688E+03         0.00000E+00
    0.41688E+03        -0.60000E+08         0.00000E+00
    0.00000E+00         0.00000E+00        -0.48163E+08
 
   -0.38849E+08         0.86773E+03         0.00000E+00
    0.86773E+03        -0.59999E+08         0.00000E+00
    0.00000E+00         0.00000E+00        -0.48389E+08
 
   -0.39912E+08         0.15808E+04         0.00000E+00
    0.15808E+04        -0.59997E+08         0.00000E+00
    0.00000E+00         0.00000E+00        -0.48606E+08
 
   -0.40923E+08         0.33211E+04         0.00000E+00
    0.33211E+04        -0.59992E+08         0.00000E+00
    0.00000E+00         0.00000E+00        -0.48814E+08
 
   -0.41884E+08         0.66718E+04         0.00000E+00
    0.66718E+04        -0.59983E+08         0.00000E+00
    0.00000E+00         0.00000E+00        -0.49012E+08
 
   -0.42801E+08         0.12058E+05         0.00000E+00
    0.12058E+05        -0.59964E+08         0.00000E+00
    0.00000E+00         0.00000E+00        -0.49200E+08
 
   -0.43679E+08         0.19770E+05         0.00000E+00
    0.19770E+05        -0.59933E+08         0.00000E+00
    0.00000E+00         0.00000E+00        -0.49378E+08
 
   -0.44523E+08         0.29982E+05         0.00000E+00
    0.29982E+05        -0.59884E+08         0.00000E+00
    0.00000E+00         0.00000E+00        -0.49545E+08
 
   -0.45341E+08         0.42767E+05         0.00000E+00
    0.42767E+05        -0.59811E+08         0.00000E+00
    0.00000E+00         0.00000E+00        -0.49702E+08
 
   -0.46140E+08         0.58114E+05         0.00000E+00
    0.58114E+05        -0.59711E+08         0.00000E+00
    0.00000E+00         0.00000E+00        -0.49849E+08
 
   -0.46927E+08         0.75943E+05         0.00000E+00
    0.75943E+05        -0.59577E+08         0.00000E+00
    0.00000E+00         0.00000E+00        -0.49986E+08
 
   -0.47709E+08         0.96107E+05         0.00000E+00
    0.96107E+05        -0.59406E+08         0.00000E+00
    0.00000E+00         0.00000E+00        -0.50114E+08
 
   -0.48492E+08         0.11841E+06         0.00000E+00
    0.11841E+06        -0.59191E+08         0.00000E+00
    0.00000E+00         0.00000E+00        -0.50232E+08
 
   -0.49282E+08         0.14260E+06         0.00000E+00
    0.14260E+06        -0.58931E+08         0.00000E+00
    0.00000E+00         0.00000E+00        -0.50341E+08
 
   -0.50084E+08         0.16840E+06         0.00000E+00
    0.16840E+06        -0.58620E+08         0.00000E+00
    0.00000E+00         0.00000E+00        -0.50441E+08
 
   -0.37734E+08         0.10424E+04         0.00000E+00
    0.10424E+04        -0.60000E+08         0.00000E+00
    0.00000E+00         0.00000E+00        -0.48119E+08
 
   -0.38848E+08         0.20527E+04         0.00000E+00
    0.20527E+04        -0.60000E+08         0.00000E+00
    0.00000E+00         0.00000E+00        -0.48344E+08
 
   -0.39909E+08         0.39370E+04         0.00000E+00
    0.39370E+04        -0.59999E+08         0.00000E+00
    0.00000E+00         0.00000E+00        -0.48561E+08
 
   -0.40918E+08         0.89771E+04         0.00000E+00
    0.89771E+04        -0.59996E+08         0.00000E+00
    0.00000E+00         0.00000E+00        -0.48769E+08
 
   -0.41876E+08         0.18910E+05         0.00000E+00
    0.18910E+05        -0.59989E+08         0.00000E+00
    0.00000E+00         0.00000E+00        -0.48966E+08
 
   -0.42788E+08         0.35001E+05         0.00000E+00
    0.35001E+05        -0.59973E+08         0.00000E+00
    0.00000E+00         0.00000E+00        -0.49153E+08
 
   -0.43661E+08         0.58111E+05         0.00000E+00
    0.58111E+05        -0.59944E+08         0.00000E+00
    0.00000E+00         0.00000E+00        -0.49330E+08
 
   -0.44500E+08         0.88752E+05         0.00000E+00
    0.88752E+05        -0.59897E+08         0.00000E+00
    0.00000E+00         0.00000E+00        -0.49496E+08
 
   -0.45313E+08         0.12714E+06         0.00000E+00
    0.12714E+06        -0.59827E+08         0.00000E+00
    0.00000E+00         0.00000E+00        -0.49652E+08
 
   -0.46107E+08         0.17324E+06         0.00000E+00
    0.17324E+06        -0.59729E+08         0.00000E+00
    0.00000E+00         0.00000E+00        -0.49798E+08
 
   -0.46889E+08         0.22680E+06         0.00000E+00
    0.22680E+06        -0.59597E+08         0.00000E+00
    0.00000E+00         0.00000E+00        -0.49935E+08
 
   -0.47666E+08         0.28739E+06         0.00000E+00
    0.28739E+06        -0.59428E+08         0.00000E+00
    0.00000E+00         0.00000E+00        -0.50061E+08
 
   -0.48445E+08         0.35440E+06         0.00000E+00
    0.35440E+06        -0.59215E+08         0.00000E+00
    0.00000E+00         0.00000E+00        -0.50179E+08
 
   -0.49232E+08         0.42710E+06         0.00000E+00
    0.42710E+06        -0.58956E+08         0.00000E+00
    0.00000E+00         0.00000E+00        -0.50287E+08
 
   -0.50031E+08         0.50463E+06         0.00000E+00
    0.50463E+06        -0.58646E+08         0.00000E+00
    0.00000E+00         0.00000E+00        -0.50387E+08
 
   -0.37732E+08         0.10453E+04         0.00000E+00
    0.10453E+04        -0.60001E+08         0.00000E+00
    0.00000E+00         0.00000E+00        -0.48029E+08
 
   -0.38847E+08         0.15915E+04         0.00000E+00
    0.15915E+04        -0.60002E+08         0.00000E+00
    0.00000E+00         0.00000E+00        -0.48255E+08
 
   -0.39905E+08         0.38858E+04         0.00000E+00
    0.38858E+04        -0.60004E+08         0.00000E+00
    0.00000E+00         0.00000E+00        -0.48472E+08
 
   -0.40908E+08         0.11686E+05         0.00000E+00
    0.11686E+05        -0.60004E+08         0.00000E+00
    0.00000E+00         0.00000E+00        -0.48678E+08
 
   -0.41859E+08         0.27845E+05         0.00000E+00
    0.27845E+05        -0.60001E+08         0.00000E+00
    0.00000E+00         0.00000E+00        -0.48874E+08
 
   -0.42762E+08         0.54437E+05         0.00000E+00
    0.54437E+05        -0.59990E+08         0.00000E+00
    0.00000E+00         0.00000E+00        -0.49059E+08
 
   -0.43625E+08         0.92864E+05         0.00000E+00
    0.92864E+05        -0.59965E+08         0.00000E+00
    0.00000E+00         0.00000E+00        -0.49234E+08
 
   -0.44454E+08         0.14395E+06         0.00000E+00
    0.14395E+06        -0.59923E+08         0.00000E+00
    0.00000E+00         0.00000E+00        -0.49398E+08
 
   -0.45256E+08         0.20805E+06         0.00000E+00
    0.20805E+06        -0.59858E+08         0.00000E+00
    0.00000E+00         0.00000E+00        -0.49552E+08
 
   -0.46040E+08         0.28507E+06         0.00000E+00
    0.28507E+06        -0.59764E+08         0.00000E+00
    0.00000E+00         0.00000E+00        -0.49697E+08
 
   -0.46813E+08         0.37459E+06         0.00000E+00
    0.37459E+06        -0.59637E+08         0.00000E+00
    0.00000E+00         0.00000E+00        -0.49831E+08
 
   -0.47581E+08         0.47587E+06         0.00000E+00
    0.47587E+06        -0.59471E+08         0.00000E+00
    0.00000E+00         0.00000E+00        -0.49956E+08
 
   -0.48352E+08         0.58791E+06         0.00000E+00
    0.58791E+06        -0.59262E+08         0.00000E+00
    0.00000E+00         0.00000E+00        -0.50072E+08
 
   -0.49131E+08         0.70948E+06         0.00000E+00
    0.70948E+06        -0.59006E+08         0.00000E+00
    0.00000E+00         0.00000E+00        -0.50180E+08
 
   -0.49925E+08         0.83915E+06         0.00000E+00
    0.83915E+06        -0.58699E+08         0.00000E+00
    0.00000E+00         0.00000E+00        -0.50278E+08
 
   -0.37732E+08         0.16474E+02         0.00000E+00
    0.16474E+02        -0.60001E+08         0.00000E+00
    0.00000E+00         0.00000E+00        -0.47895E+08
 
   -0.38847E+08        -0.15952E+04         0.00000E+00
   -0.15952E+04        -0.60005E+08         0.00000E+00
    0.00000E+00         0.00000E+00        -0.48121E+08
 
   -0.39901E+08        -0.14897E+03         0.00000E+00
   -0.14897E+03        -0.60011E+08         0.00000E+00
    0.00000E+00         0.00000E+00        -0.48337E+08
 
   -0.40895E+08         0.95195E+04         0.00000E+00
    0.95195E+04        -0.60017E+08         0.00000E+00
    0.00000E+00         0.00000E+00        -0.48541E+08
 
   -0.41834E+08         0.31319E+05         0.00000E+00
    0.31319E+05        -0.60019E+08         0.00000E+00
    0.00000E+00         0.00000E+00        -0.48735E+08
 
   -0.42724E+08         0.68075E+05         0.00000E+00
    0.68075E+05        -0.60015E+08         0.00000E+00
    0.00000E+00         0.00000E+00        -0.48918E+08
 
   -0.43572E+08         0.12169E+06         0.00000E+00
    0.12169E+06        -0.59997E+08         0.00000E+00
    0.00000E+00         0.00000E+00        -0.49090E+08
 
   -0.44385E+08         0.19326E+06         0.00000E+00
    0.19326E+06        -0.59962E+08         0.00000E+00
    0.00000E+00         0.00000E+00        -0.49251E+08
 
   -0.45172E+08         0.28322E+06         0.00000E+00
    0.28322E+06        -0.59904E+08         0.00000E+00
    0.00000E+00         0.00000E+00        -0.49402E+08
 
   -0.45940E+08         0.39144E+06         0.00000E+00
    0.39144E+06        -0.59817E+08         0.00000E+00
    0.00000E+00         0.00000E+00        -0.49543E+08
 
   -0.46698E+08         0.51729E+06         0.00000E+00
    0.51729E+06        -0.59696E+08         0.00000E+00
    0.00000E+00         0.00000E+00        -0.49675E+08
 
   -0.47452E+08         0.65971E+06         0.00000E+00
    0.65971E+06        -0.59536E+08         0.00000E+00
    0.00000E+00         0.00000E+00        -0.49798E+08
 
   -0.48211E+08         0.81730E+06         0.00000E+00
    0.81730E+06        -0.59332E+08         0.00000E+00
    0.00000E+00         0.00000E+00        -0.49912E+08
 
   -0.48980E+08         0.98833E+06         0.00000E+00
    0.98833E+06        -0.59081E+08         0.00000E+00
    0.00000E+00         0.00000E+00        -0.50017E+08
 
   -0.49764E+08         0.11708E+07         0.00000E+00
    0.11708E+07        -0.58778E+08         0.00000E+00
    0.00000E+00         0.00000E+00        -0.50115E+08
 
   -0.37735E+08        -0.24434E+04         0.00000E+00
   -0.24434E+04        -0.60002E+08         0.00000E+00
    0.00000E+00         0.00000E+00        -0.47716E+08
 
   -0.38850E+08        -0.85585E+04         0.00000E+00
   -0.85585E+04        -0.60008E+08         0.00000E+00
    0.00000E+00         0.00000E+00        -0.47942E+08
 
   -0.39896E+08        -0.96992E+04         0.00000E+00
   -0.96992E+04        -0.60020E+08         0.00000E+00
    0.00000E+00         0.00000E+00        -0.48156E+08
 
   -0.40878E+08         0.60849E+03         0.00000E+00
    0.60849E+03        -0.60033E+08         0.00000E+00
    0.00000E+00         0.00000E+00        -0.48358E+08
 
   -0.41801E+08         0.27240E+05         0.00000E+00
    0.27240E+05        -0.60044E+08         0.00000E+00
    0.00000E+00         0.00000E+00        -0.48548E+08
 
   -0.42673E+08         0.73698E+05         0.00000E+00
    0.73698E+05        -0.60048E+08         0.00000E+00
    0.00000E+00         0.00000E+00        -0.48728E+08
 
   -0.43500E+08         0.14231E+06         0.00000E+00
    0.14231E+06        -0.60040E+08         0.00000E+00
    0.00000E+00         0.00000E+00        -0.48896E+08
 
   -0.44292E+08         0.23440E+06         0.00000E+00
    0.23440E+06        -0.60014E+08         0.00000E+00
    0.00000E+00         0.00000E+00        -0.49053E+08
 
   -0.45058E+08         0.35046E+06         0.00000E+00
    0.35046E+06        -0.59965E+08         0.00000E+00
    0.00000E+00         0.00000E+00        -0.49200E+08
 
   -0.45806E+08         0.49025E+06         0.00000E+00
    0.49025E+06        -0.59886E+08         0.00000E+00
    0.00000E+00         0.00000E+00        -0.49337E+08
 
   -0.46544E+08         0.65292E+06         0.00000E+00
    0.65292E+06        -0.59774E+08         0.00000E+00
    0.00000E+00         0.00000E+00        -0.49465E+08
 
   -0.47280E+08         0.83709E+06         0.00000E+00
    0.83709E+06        -0.59621E+08         0.00000E+00
    0.00000E+00         0.00000E+00        -0.49585E+08
 
   -0.48022E+08         0.10409E+07         0.00000E+00
    0.10409E+07        -0.59425E+08         0.00000E+00
    0.00000E+00         0.00000E+00        -0.49696E+08
 
   -0.48777E+08         0.12622E+07         0.00000E+00
    0.12622E+07        -0.59179E+08         0.00000E+00
    0.00000E+00         0.00000E+00        -0.49799E+08
 
   -0.49550E+08         0.14984E+07         0.00000E+00
    0.14984E+07        -0.58881E+08         0.00000E+00
    0.00000E+00         0.00000E+00        -0.49895E+08
 
   -0.37745E+08        -0.67196E+04         0.00000E+00
   -0.67196E+04        -0.60003E+08         0.00000E+00
    0.00000E+00         0.00000E+00        -0.47490E+08
 
   -0.38857E+08        -0.20309E+05         0.00000E+00
   -0.20309E+05        -0.60013E+08         0.00000E+00
    0.00000E+00         0.00000E+00        -0.47716E+08
 
   -0.39894E+08        -0.26233E+05         0.00000E+00
   -0.26233E+05        -0.60031E+08         0.00000E+00
    0.00000E+00         0.00000E+00        -0.47928E+08
 
   -0.40859E+08        -0.16835E+05         0.00000E+00
   -0.16835E+05        -0.60052E+08         0.00000E+00
    0.00000E+00         0.00000E+00        -0.48127E+08
 
   -0.41762E+08         0.13614E+05         0.00000E+00
    0.13614E+05        -0.60073E+08         0.00000E+00
    0.00000E+00         0.00000E+00        -0.48313E+08
 
   -0.42609E+08         0.69191E+05         0.00000E+00
    0.69191E+05        -0.60088E+08         0.00000E+00
    0.00000E+00         0.00000E+00        -0.48488E+08
 
   -0.43411E+08         0.15257E+06         0.00000E+00
    0.15257E+06        -0.60091E+08         0.00000E+00
    0.00000E+00         0.00000E+00        -0.48651E+08
 
   -0.44177E+08         0.26523E+06         0.00000E+00
    0.26523E+06        -0.60077E+08         0.00000E+00
    0.00000E+00         0.00000E+00        -0.48803E+08
 
   -0.44915E+08         0.40766E+06         0.00000E+00
    0.40766E+06        -0.60039E+08         0.00000E+00
    0.00000E+00         0.00000E+00        -0.48945E+08
 
   -0.45637E+08         0.57947E+06         0.00000E+00
    0.57947E+06        -0.59971E+08         0.00000E+00
    0.00000E+00         0.00000E+00        -0.49078E+08
 
   -0.46350E+08         0.77958E+06         0.00000E+00
    0.77958E+06        -0.59869E+08         0.00000E+00
    0.00000E+00         0.00000E+00        -0.49201E+08
 
   -0.47063E+08         0.10062E+07         0.00000E+00
    0.10062E+07        -0.59726E+08         0.00000E+00
    0.00000E+00         0.00000E+00        -0.49317E+08
 
   -0.47785E+08         0.12572E+07         0.00000E+00
    0.12572E+07        -0.59538E+08         0.00000E+00
    0.00000E+00         0.00000E+00        -0.49425E+08
 
   -0.48521E+08         0.15298E+07         0.00000E+00
    0.15298E+07        -0.59300E+08         0.00000E+00
    0.00000E+00         0.00000E+00        -0.49525E+08
 
   -0.49279E+08         0.18208E+07         0.00000E+00
    0.18208E+07        -0.59009E+08         0.00000E+00
    0.00000E+00         0.00000E+00        -0.49619E+08
 
   -0.37765E+08        -0.13179E+05         0.00000E+00
   -0.13179E+05        -0.60004E+08         0.00000E+00
    0.00000E+00         0.00000E+00        -0.47218E+08
 
   -0.38873E+08        -0.37804E+05         0.00000E+00
   -0.37804E+05        -0.60018E+08         0.00000E+00
    0.00000E+00         0.00000E+00        -0.47443E+08
 
   -0.39895E+08        -0.51133E+05         0.00000E+00
   -0.51133E+05        -0.60044E+08         0.00000E+00
    0.00000E+00         0.00000E+00        -0.47652E+08
 
   -0.40840E+08        -0.44486E+05         0.00000E+00
   -0.44486E+05        -0.60075E+08         0.00000E+00
    0.00000E+00         0.00000E+00        -0.47847E+08
 
   -0.41716E+08        -0.11426E+05         0.00000E+00
   -0.11426E+05        -0.60108E+08         0.00000E+00
    0.00000E+00         0.00000E+00        -0.48029E+08
 
   -0.42534E+08         0.52579E+05         0.00000E+00
    0.52579E+05        -0.60135E+08         0.00000E+00
    0.00000E+00         0.00000E+00        -0.48198E+08
 
   -0.43304E+08         0.15044E+06         0.00000E+00
    0.15044E+06        -0.60152E+08         0.00000E+00
    0.00000E+00         0.00000E+00        -0.48355E+08
 
   -0.44037E+08         0.28372E+06         0.00000E+00
    0.28372E+06        -0.60151E+08         0.00000E+00
    0.00000E+00         0.00000E+00        -0.48501E+08
 
   -0.44743E+08         0.45282E+06         0.00000E+00
    0.45282E+06        -0.60126E+08         0.00000E+00
    0.00000E+00         0.00000E+00        -0.48637E+08
 
   -0.45433E+08         0.65718E+06         0.00000E+00
    0.65718E+06        -0.60071E+08         0.00000E+00
    0.00000E+00         0.00000E+00        -0.48763E+08
 
   -0.46116E+08         0.89542E+06         0.00000E+00
    0.89542E+06        -0.59981E+08         0.00000E+00
    0.00000E+00         0.00000E+00        -0.48882E+08
 
   -0.46801E+08         0.11654E+07         0.00000E+00
    0.11654E+07        -0.59849E+08         0.00000E+00
    0.00000E+00         0.00000E+00        -0.48992E+08
 
   -0.47498E+08         0.14646E+07         0.00000E+00
    0.14646E+07        -0.59671E+08         0.00000E+00
    0.00000E+00         0.00000E+00        -0.49096E+08
 
   -0.48212E+08         0.17895E+07         0.00000E+00
    0.17895E+07        -0.59443E+08         0.00000E+00
    0.00000E+00         0.00000E+00        -0.49193E+08
 
   -0.48951E+08         0.21366E+07         0.00000E+00
    0.21366E+07        -0.59159E+08         0.00000E+00
    0.00000E+00         0.00000E+00        -0.49284E+08
 
   -0.37799E+08        -0.22164E+05         0.00000E+00
   -0.22164E+05        -0.60005E+08         0.00000E+00
    0.00000E+00         0.00000E+00        -0.46899E+08
 
   -0.38900E+08        -0.61929E+05         0.00000E+00
   -0.61929E+05        -0.60025E+08         0.00000E+00
    0.00000E+00         0.00000E+00        -0.47121E+08
 
   -0.39903E+08        -0.85670E+05         0.00000E+00
   -0.85670E+05        -0.60058E+08         0.00000E+00
    0.00000E+00         0.00000E+00        -0.47327E+08
 
   -0.40822E+08        -0.83880E+05         0.00000E+00
   -0.83880E+05        -0.60101E+08         0.00000E+00
    0.00000E+00         0.00000E+00        -0.47518E+08
 
   -0.41666E+08        -0.49581E+05         0.00000E+00
   -0.49581E+05        -0.60147E+08         0.00000E+00
    0.00000E+00         0.00000E+00        -0.47693E+08
 
   -0.42448E+08         0.22065E+05         0.00000E+00
    0.22065E+05        -0.60189E+08         0.00000E+00
    0.00000E+00         0.00000E+00        -0.47855E+08
 
   -0.43180E+08         0.13409E+06         0.00000E+00
    0.13409E+06        -0.60220E+08         0.00000E+00
    0.00000E+00         0.00000E+00        -0.48005E+08
 
   -0.43874E+08         0.28803E+06         0.00000E+00
    0.28803E+06        -0.60234E+08         0.00000E+00
    0.00000E+00         0.00000E+00        -0.48144E+08
 
   -0.44542E+08         0.48413E+06         0.00000E+00
    0.48413E+06        -0.60224E+08         0.00000E+00
    0.00000E+00         0.00000E+00        -0.48273E+08
 
   -0.45194E+08         0.72160E+06         0.00000E+00
    0.72160E+06        -0.60184E+08         0.00000E+00
    0.00000E+00         0.00000E+00        -0.48393E+08
 
   -0.45841E+08         0.99873E+06         0.00000E+00
    0.99873E+06        -0.60107E+08         0.00000E+00
    0.00000E+00         0.00000E+00        -0.48505E+08
 
   -0.46493E+08         0.13130E+07         0.00000E+00
    0.13130E+07        -0.59989E+08         0.00000E+00
    0.00000E+00         0.00000E+00        -0.48609E+08
 
   -0.47159E+08         0.16614E+07         0.00000E+00
    0.16614E+07        -0.59823E+08         0.00000E+00
    0.00000E+00         0.00000E+00        -0.48708E+08
 
   -0.47848E+08         0.20400E+07         0.00000E+00
    0.20400E+07        -0.59605E+08         0.00000E+00
    0.00000E+00         0.00000E+00        -0.48801E+08
 
   -0.48565E+08         0.24446E+07         0.00000E+00
    0.24446E+07        -0.59330E+08         0.00000E+00
    0.00000E+00         0.00000E+00        -0.48889E+08
 
   -0.37854E+08        -0.33985E+05         0.00000E+00
   -0.33985E+05        -0.60007E+08         0.00000E+00
    0.00000E+00         0.00000E+00        -0.46531E+08
 
   -0.38941E+08        -0.93482E+05         0.00000E+00
   -0.93482E+05        -0.60031E+08         0.00000E+00
    0.00000E+00         0.00000E+00        -0.46751E+08
 
   -0.39921E+08        -0.13098E+06         0.00000E+00
   -0.13098E+06        -0.60075E+08         0.00000E+00
    0.00000E+00         0.00000E+00        -0.46953E+08
 
   -0.40806E+08        -0.13638E+06         0.00000E+00
   -0.13638E+06        -0.60130E+08         0.00000E+00
    0.00000E+00         0.00000E+00        -0.47137E+08
 
   -0.41612E+08        -0.10235E+06         0.00000E+00
   -0.10235E+06        -0.60191E+08         0.00000E+00
    0.00000E+00         0.00000E+00        -0.47305E+08
 
   -0.42351E+08        -0.23928E+05         0.00000E+00
   -0.23928E+05        -0.60248E+08         0.00000E+00
    0.00000E+00         0.00000E+00        -0.47459E+08
 
   -0.43039E+08         0.10190E+06         0.00000E+00
    0.10190E+06        -0.60296E+08         0.00000E+00
    0.00000E+00         0.00000E+00        -0.47601E+08
 
   -0.43687E+08         0.27651E+06         0.00000E+00
    0.27651E+06        -0.60326E+08         0.00000E+00
    0.00000E+00         0.00000E+00        -0.47731E+08
 
   -0.44309E+08         0.49994E+06         0.00000E+00
    0.49994E+06        -0.60333E+08         0.00000E+00
    0.00000E+00         0.00000E+00        -0.47852E+08
 
   -0.44918E+08         0.77109E+06         0.00000E+00
    0.77109E+06        -0.60308E+08         0.00000E+00
    0.00000E+00         0.00000E+00        -0.47964E+08
 
   -0.45524E+08         0.10879E+07         0.00000E+00
    0.10879E+07        -0.60247E+08         0.00000E+00
    0.00000E+00         0.00000E+00        -0.48069E+08
 
   -0.46137E+08         0.14475E+07         0.00000E+00
    0.14475E+07        -0.60143E+08         0.00000E+00
    0.00000E+00         0.00000E+00        -0.48167E+08
 
   -0.46769E+08         0.18462E+07         0.00000E+00
    0.18462E+07        -0.59990E+08         0.00000E+00
    0.00000E+00         0.00000E+00        -0.48260E+08
 
   -0.47427E+08         0.22798E+07         0.00000E+00
    0.22798E+07        -0.59784E+08         0.00000E+00
    0.00000E+00         0.00000E+00        -0.48348E+08
 
   -0.48119E+08         0.27435E+07         0.00000E+00
    0.27435E+07        -0.59521E+08         0.00000E+00
    0.00000E+00         0.00000E+00        -0.48433E+08
 
   -0.37934E+08        -0.48916E+05         0.00000E+00
   -0.48916E+05        -0.60008E+08         0.00000E+00
    0.00000E+00         0.00000E+00        -0.46114E+08
 
   -0.39001E+08        -0.13315E+06         0.00000E+00
   -0.13315E+06        -0.60039E+08         0.00000E+00
    0.00000E+00         0.00000E+00        -0.46331E+08
 
   -0.39950E+08        -0.18803E+06         0.00000E+00
   -0.18803E+06        -0.60092E+08         0.00000E+00
    0.00000E+00         0.00000E+00        -0.46527E+08
 
   -0.40796E+08        -0.20311E+06         0.00000E+00
   -0.20311E+06        -0.60161E+08         0.00000E+00
    0.00000E+00         0.00000E+00        -0.46703E+08
 
   -0.41555E+08        -0.17097E+06         0.00000E+00
   -0.17097E+06        -0.60237E+08         0.00000E+00
    0.00000E+00         0.00000E+00        -0.46863E+08
 
   -0.42245E+08        -0.86707E+05         0.00000E+00
   -0.86707E+05        -0.60312E+08         0.00000E+00
    0.00000E+00         0.00000E+00        -0.47008E+08
 
   -0.42880E+08         0.52510E+05         0.00000E+00
    0.52510E+05        -0.60377E+08         0.00000E+00
    0.00000E+00         0.00000E+00        -0.47140E+08
 
   -0.43476E+08         0.24780E+06         0.00000E+00
    0.24780E+06        -0.60425E+08         0.00000E+00
    0.00000E+00         0.00000E+00        -0.47261E+08
 
   -0.44046E+08         0.49886E+06         0.00000E+00
    0.49886E+06        -0.60449E+08         0.00000E+00
    0.00000E+00         0.00000E+00        -0.47372E+08
 
   -0.44605E+08         0.80424E+06         0.00000E+00
    0.80424E+06        -0.60442E+08         0.00000E+00
    0.00000E+00         0.00000E+00        -0.47476E+08
 
   -0.45163E+08         0.11615E+07         0.00000E+00
    0.11615E+07        -0.60397E+08         0.00000E+00
    0.00000E+00         0.00000E+00        -0.47572E+08
 
   -0.45733E+08         0.15673E+07         0.00000E+00
    0.15673E+07        -0.60309E+08         0.00000E+00
    0.00000E+00         0.00000E+00        -0.47663E+08
 
   -0.46325E+08         0.20175E+07         0.00000E+00
    0.20175E+07        -0.60171E+08         0.00000E+00
    0.00000E+00         0.00000E+00        -0.47750E+08
 
   -0.46948E+08         0.25075E+07         0.00000E+00
    0.25075E+07        -0.59979E+08         0.00000E+00
    0.00000E+00         0.00000E+00        -0.47833E+08
 
   -0.47611E+08         0.30318E+07         0.00000E+00
    0.30318E+07        -0.59727E+08         0.00000E+00
    0.00000E+00         0.00000E+00        -0.47913E+08
 
   -0.38045E+08        -0.67184E+05         0.00000E+00
   -0.67184E+05        -0.60010E+08         0.00000E+00
    0.00000E+00         0.00000E+00        -0.45648E+08
 
   -0.39085E+08        -0.18150E+06         0.00000E+00
   -0.18150E+06        -0.60046E+08         0.00000E+00
    0.00000E+00         0.00000E+00        -0.45860E+08
 
   -0.39994E+08        -0.25758E+06         0.00000E+00
   -0.25758E+06        -0.60111E+08         0.00000E+00
    0.00000E+00         0.00000E+00        -0.46048E+08
 
   -0.40792E+08        -0.28496E+06         0.00000E+00
   -0.28496E+06        -0.60194E+08         0.00000E+00
    0.00000E+00         0.00000E+00        -0.46216E+08
 
   -0.41497E+08        -0.25639E+06         0.00000E+00
   -0.25639E+06        -0.60286E+08         0.00000E+00
    0.00000E+00         0.00000E+00        -0.46366E+08
 
   -0.42129E+08        -0.16725E+06         0.00000E+00
   -0.16725E+06        -0.60378E+08         0.00000E+00
    0.00000E+00         0.00000E+00        -0.46500E+08
 
   -0.42704E+08        -0.15082E+05         0.00000E+00
   -0.15082E+05        -0.60462E+08         0.00000E+00
    0.00000E+00         0.00000E+00        -0.46621E+08
 
   -0.43240E+08         0.20083E+06         0.00000E+00
    0.20083E+06        -0.60529E+08         0.00000E+00
    0.00000E+00         0.00000E+00        -0.46731E+08
 
   -0.43752E+08         0.47977E+06         0.00000E+00
    0.47977E+06        -0.60572E+08         0.00000E+00
    0.00000E+00         0.00000E+00        -0.46832E+08
 
   -0.44254E+08         0.81985E+06         0.00000E+00
    0.81985E+06        -0.60583E+08         0.00000E+00
    0.00000E+00         0.00000E+00        -0.46926E+08
 
   -0.44759E+08         0.12182E+07         0.00000E+00
    0.12182E+07        -0.60556E+08         0.00000E+00
    0.00000E+00         0.00000E+00        -0.47013E+08
 
   -0.45280E+08         0.16711E+07         0.00000E+00
    0.16711E+07        -0.60484E+08         0.00000E+00
    0.00000E+00         0.00000E+00        -0.47096E+08
 
   -0.45827E+08         0.21739E+07         0.00000E+00
    0.21739E+07        -0.60363E+08         0.00000E+00
    0.00000E+00         0.00000E+00        -0.47175E+08
 
   -0.46411E+08         0.27216E+07         0.00000E+00
    0.27216E+07        -0.60185E+08         0.00000E+00
    0.00000E+00         0.00000E+00        -0.47253E+08
 
   -0.47039E+08         0.33080E+07         0.00000E+00
    0.33080E+07        -0.59947E+08         0.00000E+00
    0.00000E+00         0.00000E+00        -0.47328E+08
 
   -0.38193E+08        -0.88960E+05         0.00000E+00
   -0.88960E+05        -0.60011E+08         0.00000E+00
    0.00000E+00         0.00000E+00        -0.45133E+08
 
   -0.39197E+08        -0.23891E+06         0.00000E+00
   -0.23891E+06        -0.60054E+08         0.00000E+00
    0.00000E+00         0.00000E+00        -0.45337E+08
 
   -0.40057E+08        -0.34014E+06         0.00000E+00
   -0.34014E+06        -0.60130E+08         0.00000E+00
    0.00000E+00         0.00000E+00        -0.45516E+08
 
   -0.40797E+08        -0.38249E+06         0.00000E+00
   -0.38249E+06        -0.60228E+08         0.00000E+00
    0.00000E+00         0.00000E+00        -0.45673E+08
 
   -0.41439E+08        -0.35919E+06         0.00000E+00
   -0.35919E+06        -0.60337E+08         0.00000E+00
    0.00000E+00         0.00000E+00        -0.45811E+08
 
   -0.42004E+08        -0.26615E+06         0.00000E+00
   -0.26615E+06        -0.60447E+08         0.00000E+00
    0.00000E+00         0.00000E+00        -0.45934E+08
 
   -0.42512E+08        -0.10150E+06         0.00000E+00
   -0.10150E+06        -0.60549E+08         0.00000E+00
    0.00000E+00         0.00000E+00        -0.46043E+08
 
   -0.42981E+08         0.13493E+06         0.00000E+00
    0.13493E+06        -0.60635E+08         0.00000E+00
    0.00000E+00         0.00000E+00        -0.46141E+08
 
   -0.43427E+08         0.44188E+06         0.00000E+00
    0.44188E+06        -0.60697E+08         0.00000E+00
    0.00000E+00         0.00000E+00        -0.46231E+08
 
   -0.43865E+08         0.81701E+06         0.00000E+00
    0.81701E+06        -0.60727E+08         0.00000E+00
    0.00000E+00         0.00000E+00        -0.46313E+08
 
   -0.44311E+08         0.12570E+07         0.00000E+00
    0.12570E+07        -0.60719E+08         0.00000E+00
    0.00000E+00         0.00000E+00        -0.46390E+08
 
   -0.44776E+08         0.17577E+07         0.00000E+00
    0.17577E+07        -0.60665E+08         0.00000E+00
    0.00000E+00         0.00000E+00        -0.46464E+08
 
   -0.45273E+08         0.23141E+07         0.00000E+00
    0.23141E+07        -0.60561E+08         0.00000E+00
    0.00000E+00         0.00000E+00        -0.46536E+08
 
   -0.45812E+08         0.29206E+07         0.00000E+00
    0.29206E+07        -0.60400E+08         0.00000E+00
    0.00000E+00         0.00000E+00        -0.46606E+08
 
   -0.46403E+08         0.35706E+07         0.00000E+00
    0.35706E+07        -0.60177E+08         0.00000E+00
    0.00000E+00         0.00000E+00        -0.46677E+08
 
   -0.38386E+08        -0.11435E+06         0.00000E+00
   -0.11435E+06        -0.60013E+08         0.00000E+00
    0.00000E+00         0.00000E+00        -0.44567E+08
 
   -0.39342E+08        -0.30561E+06         0.00000E+00
   -0.30561E+06        -0.60063E+08         0.00000E+00
    0.00000E+00         0.00000E+00        -0.44762E+08
 
   -0.40141E+08        -0.43592E+06         0.00000E+00
   -0.43592E+06        -0.60150E+08         0.00000E+00
    0.00000E+00         0.00000E+00        -0.44930E+08
 
   -0.40813E+08        -0.49588E+06         0.00000E+00
   -0.49588E+06        -0.60262E+08         0.00000E+00
    0.00000E+00         0.00000E+00        -0.45074E+08
 
   -0.41382E+08        -0.47949E+06         0.00000E+00
   -0.47949E+06        -0.60387E+08         0.00000E+00
    0.00000E+00         0.00000E+00        -0.45199E+08
 
   -0.41872E+08        -0.38352E+06         0.00000E+00
   -0.38352E+06        -0.60515E+08         0.00000E+00
    0.00000E+00         0.00000E+00        -0.45308E+08
 
   -0.42303E+08        -0.20687E+06         0.00000E+00
   -0.20687E+06        -0.60636E+08         0.00000E+00
    0.00000E+00         0.00000E+00        -0.45403E+08
 
   -0.42697E+08         0.49863E+05         0.00000E+00
    0.49863E+05        -0.60741E+08         0.00000E+00
    0.00000E+00         0.00000E+00        -0.45488E+08
 
   -0.43069E+08         0.38483E+06         0.00000E+00
    0.38483E+06        -0.60822E+08         0.00000E+00
    0.00000E+00         0.00000E+00        -0.45565E+08
 
   -0.43438E+08         0.79515E+06         0.00000E+00
    0.79515E+06        -0.60871E+08         0.00000E+00
    0.00000E+00         0.00000E+00        -0.45636E+08
 
   -0.43817E+08         0.12770E+07         0.00000E+00
    0.12770E+07        -0.60882E+08         0.00000E+00
    0.00000E+00         0.00000E+00        -0.45702E+08
 
   -0.44221E+08         0.18260E+07         0.00000E+00
    0.18260E+07        -0.60847E+08         0.00000E+00
    0.00000E+00         0.00000E+00        -0.45766E+08
 
   -0.44662E+08         0.24367E+07         0.00000E+00
    0.24367E+07        -0.60762E+08         0.00000E+00
    0.00000E+00         0.00000E+00        -0.45829E+08
 
   -0.45152E+08         0.31030E+07         0.00000E+00
    0.31030E+07        -0.60618E+08         0.00000E+00
    0.00000E+00         0.00000E+00        -0.45892E+08
 
   -0.45700E+08         0.38179E+07         0.00000E+00
    0.38179E+07        -0.60412E+08         0.00000E+00
    0.00000E+00         0.00000E+00        -0.45957E+08
 
   -0.38630E+08        -0.14337E+06         0.00000E+00
   -0.14337E+06        -0.60015E+08         0.00000E+00
    0.00000E+00         0.00000E+00        -0.43950E+08
 
   -0.39524E+08        -0.38157E+06         0.00000E+00
   -0.38157E+06        -0.60071E+08         0.00000E+00
    0.00000E+00         0.00000E+00        -0.44134E+08
 
   -0.40251E+08        -0.54481E+06         0.00000E+00
   -0.54481E+06        -0.60169E+08         0.00000E+00
    0.00000E+00         0.00000E+00        -0.44288E+08
 
   -0.40842E+08        -0.62485E+06         0.00000E+00
   -0.62485E+06        -0.60295E+08         0.00000E+00
    0.00000E+00         0.00000E+00        -0.44418E+08
 
   -0.41328E+08        -0.61691E+06         0.00000E+00
   -0.61691E+06        -0.60437E+08         0.00000E+00
    0.00000E+00         0.00000E+00        -0.44528E+08
 
   -0.41732E+08        -0.51890E+06         0.00000E+00
   -0.51890E+06        -0.60582E+08         0.00000E+00
    0.00000E+00         0.00000E+00        -0.44621E+08
 
   -0.42079E+08        -0.33079E+06         0.00000E+00
   -0.33079E+06        -0.60720E+08         0.00000E+00
    0.00000E+00         0.00000E+00        -0.44701E+08
 
   -0.42388E+08        -0.54053E+05         0.00000E+00
   -0.54053E+05        -0.60844E+08         0.00000E+00
    0.00000E+00         0.00000E+00        -0.44772E+08
 
   -0.42681E+08         0.30872E+06         0.00000E+00
    0.30872E+06        -0.60943E+08         0.00000E+00
    0.00000E+00         0.00000E+00        -0.44834E+08
 
   -0.42972E+08         0.75407E+06         0.00000E+00
    0.75407E+06        -0.61011E+08         0.00000E+00
    0.00000E+00         0.00000E+00        -0.44892E+08
 
   -0.43279E+08         0.12778E+07         0.00000E+00
    0.12778E+07        -0.61041E+08         0.00000E+00
    0.00000E+00         0.00000E+00        -0.44946E+08
 
   -0.43615E+08         0.18751E+07         0.00000E+00
    0.18751E+07        -0.61026E+08         0.00000E+00
    0.00000E+00         0.00000E+00        -0.44999E+08
 
   -0.43994E+08         0.25404E+07         0.00000E+00
    0.25404E+07        -0.60960E+08         0.00000E+00
    0.00000E+00         0.00000E+00        -0.45053E+08
 
   -0.44429E+08         0.32672E+07         0.00000E+00
    0.32672E+07        -0.60836E+08         0.00000E+00
    0.00000E+00         0.00000E+00        -0.45108E+08
 
   -0.44930E+08         0.40481E+07         0.00000E+00
    0.40481E+07        -0.60648E+08         0.00000E+00
    0.00000E+00         0.00000E+00        -0.45168E+08
 
   -0.38932E+08        -0.17596E+06         0.00000E+00
   -0.17596E+06        -0.60016E+08         0.00000E+00
    0.00000E+00         0.00000E+00        -0.43284E+08
 
   -0.39748E+08        -0.46652E+06         0.00000E+00
   -0.46652E+06        -0.60078E+08         0.00000E+00
    0.00000E+00         0.00000E+00        -0.43453E+08
 
   -0.40388E+08        -0.66626E+06         0.00000E+00
   -0.66626E+06        -0.60187E+08         0.00000E+00
    0.00000E+00         0.00000E+00        -0.43591E+08
 
   -0.40887E+08        -0.76862E+06         0.00000E+00
   -0.76862E+06        -0.60327E+08         0.00000E+00
    0.00000E+00         0.00000E+00        -0.43704E+08
 
   -0.41277E+08        -0.77044E+06         0.00000E+00
   -0.77044E+06        -0.60483E+08         0.00000E+00
    0.00000E+00         0.00000E+00        -0.43796E+08
 
   -0.41586E+08        -0.67118E+06         0.00000E+00
   -0.67118E+06        -0.60644E+08         0.00000E+00
    0.00000E+00         0.00000E+00        -0.43872E+08
 
   -0.41838E+08        -0.47213E+06         0.00000E+00
   -0.47213E+06        -0.60799E+08         0.00000E+00
    0.00000E+00         0.00000E+00        -0.43936E+08
 
   -0.42057E+08        -0.17586E+06         0.00000E+00
   -0.17586E+06        -0.60939E+08         0.00000E+00
    0.00000E+00         0.00000E+00        -0.43990E+08
 
   -0.42261E+08         0.21420E+06         0.00000E+00
    0.21420E+06        -0.61056E+08         0.00000E+00
    0.00000E+00         0.00000E+00        -0.44038E+08
 
   -0.42468E+08         0.69404E+06         0.00000E+00
    0.69404E+06        -0.61142E+08         0.00000E+00
    0.00000E+00         0.00000E+00        -0.44081E+08
 
   -0.42695E+08         0.12591E+07         0.00000E+00
    0.12591E+07        -0.61191E+08         0.00000E+00
    0.00000E+00         0.00000E+00        -0.44122E+08
 
   -0.42957E+08         0.19044E+07         0.00000E+00
    0.19044E+07        -0.61196E+08         0.00000E+00
    0.00000E+00         0.00000E+00        -0.44164E+08
 
   -0.43268E+08         0.26241E+07         0.00000E+00
    0.26241E+07        -0.61150E+08         0.00000E+00
    0.00000E+00         0.00000E+00        -0.44207E+08
 
   -0.43642E+08         0.34116E+07         0.00000E+00
    0.34116E+07        -0.61047E+08         0.00000E+00
    0.00000E+00         0.00000E+00        -0.44254E+08
 
   -0.44090E+08         0.42593E+07         0.00000E+00
    0.42593E+07        -0.60879E+08         0.00000E+00
    0.00000E+00         0.00000E+00        -0.44306E+08
 
   -0.39297E+08        -0.21194E+06         0.00000E+00
   -0.21194E+06        -0.60018E+08         0.00000E+00
    0.00000E+00         0.00000E+00        -0.42569E+08
 
   -0.40018E+08        -0.55988E+06         0.00000E+00
   -0.55988E+06        -0.60086E+08         0.00000E+00
    0.00000E+00         0.00000E+00        -0.42720E+08
 
   -0.40555E+08        -0.79926E+06         0.00000E+00
   -0.79926E+06        -0.60204E+08         0.00000E+00
    0.00000E+00         0.00000E+00        -0.42838E+08
 
   -0.40948E+08        -0.92575E+06         0.00000E+00
   -0.92575E+06        -0.60355E+08         0.00000E+00
    0.00000E+00         0.00000E+00        -0.42931E+08
 
   -0.41230E+08        -0.93835E+06         0.00000E+00
   -0.93835E+06        -0.60524E+08         0.00000E+00
    0.00000E+00         0.00000E+00        -0.43004E+08
 
   -0.41433E+08        -0.83844E+06         0.00000E+00
   -0.83844E+06        -0.60698E+08         0.00000E+00
    0.00000E+00         0.00000E+00        -0.43061E+08
 
   -0.41583E+08        -0.62899E+06         0.00000E+00
   -0.62899E+06        -0.60867E+08         0.00000E+00
    0.00000E+00         0.00000E+00        -0.43106E+08
 
   -0.41702E+08        -0.31385E+06         0.00000E+00
   -0.31385E+06        -0.61022E+08         0.00000E+00
    0.00000E+00         0.00000E+00        -0.43143E+08
 
   -0.41810E+08         0.10263E+06         0.00000E+00
    0.10263E+06        -0.61154E+08         0.00000E+00
    0.00000E+00         0.00000E+00        -0.43174E+08
 
   -0.41926E+08         0.61587E+06         0.00000E+00
    0.61587E+06        -0.61257E+08         0.00000E+00
    0.00000E+00         0.00000E+00        -0.43202E+08
 
   -0.42067E+08         0.12211E+07         0.00000E+00
    0.12211E+07        -0.61325E+08         0.00000E+00
    0.00000E+00         0.00000E+00        -0.43229E+08
 
   -0.42249E+08         0.19132E+07         0.00000E+00
    0.19132E+07        -0.61349E+08         0.00000E+00
    0.00000E+00         0.00000E+00        -0.43258E+08
 
   -0.42485E+08         0.26866E+07         0.00000E+00
    0.26866E+07        -0.61325E+08         0.00000E+00
    0.00000E+00         0.00000E+00        -0.43290E+08
 
   -0.42791E+08         0.35346E+07         0.00000E+00
    0.35346E+07        -0.61244E+08         0.00000E+00
    0.00000E+00         0.00000E+00        -0.43328E+08
 
   -0.43180E+08         0.44493E+07         0.00000E+00
    0.44493E+07        -0.61099E+08         0.00000E+00
    0.00000E+00         0.00000E+00        -0.43373E+08
 
   -0.39733E+08        -0.25102E+06         0.00000E+00
   -0.25102E+06        -0.60019E+08         0.00000E+00
    0.00000E+00         0.00000E+00        -0.41806E+08
 
   -0.40338E+08        -0.66072E+06         0.00000E+00
   -0.66072E+06        -0.60092E+08         0.00000E+00
    0.00000E+00         0.00000E+00        -0.41934E+08
 
   -0.40755E+08        -0.94223E+06         0.00000E+00
   -0.94223E+06        -0.60218E+08         0.00000E+00
    0.00000E+00         0.00000E+00        -0.42030E+08
 
   -0.41026E+08        -0.10941E+07         0.00000E+00
   -0.10941E+07        -0.60378E+08         0.00000E+00
    0.00000E+00         0.00000E+00        -0.42101E+08
 
   -0.41189E+08        -0.11180E+07         0.00000E+00
   -0.11180E+07        -0.60557E+08         0.00000E+00
    0.00000E+00         0.00000E+00        -0.42151E+08
 
   -0.41276E+08        -0.10178E+07         0.00000E+00
   -0.10178E+07        -0.60742E+08         0.00000E+00
    0.00000E+00         0.00000E+00        -0.42187E+08
 
   -0.41313E+08        -0.79846E+06         0.00000E+00
   -0.79846E+06        -0.60921E+08         0.00000E+00
    0.00000E+00         0.00000E+00        -0.42212E+08
 
   -0.41324E+08        -0.46537E+06         0.00000E+00
   -0.46537E+06        -0.61087E+08         0.00000E+00
    0.00000E+00         0.00000E+00        -0.42229E+08
 
   -0.41330E+08        -0.23875E+05         0.00000E+00
   -0.23875E+05        -0.61232E+08         0.00000E+00
    0.00000E+00         0.00000E+00        -0.42242E+08
 
   -0.41349E+08         0.52096E+06         0.00000E+00
    0.52096E+06        -0.61350E+08         0.00000E+00
    0.00000E+00         0.00000E+00        -0.42254E+08
 
   -0.41397E+08         0.11643E+07         0.00000E+00
    0.11643E+07        -0.61435E+08         0.00000E+00
    0.00000E+00         0.00000E+00        -0.42266E+08
 
   -0.41491E+08         0.19013E+07         0.00000E+00
    0.19013E+07        -0.61479E+08         0.00000E+00
    0.00000E+00         0.00000E+00        -0.42281E+08
 
   -0.41646E+08         0.27266E+07         0.00000E+00
    0.27266E+07        -0.61476E+08         0.00000E+00
    0.00000E+00         0.00000E+00        -0.42302E+08
 
   -0.41877E+08         0.36340E+07         0.00000E+00
    0.36340E+07        -0.61419E+08         0.00000E+00
    0.00000E+00         0.00000E+00        -0.42329E+08
 
   -0.42200E+08         0.46157E+07         0.00000E+00
    0.46157E+07        -0.61299E+08         0.00000E+00
    0.00000E+00         0.00000E+00        -0.42366E+08
 
   -0.40243E+08        -0.29279E+06         0.00000E+00
   -0.29279E+06        -0.60020E+08         0.00000E+00
    0.00000E+00         0.00000E+00        -0.40996E+08
 
   -0.40711E+08        -0.76773E+06         0.00000E+00
   -0.76773E+06        -0.60097E+08         0.00000E+00
    0.00000E+00         0.00000E+00        -0.41098E+08
 
   -0.40989E+08        -0.10930E+07         0.00000E+00
   -0.10930E+07        -0.60229E+08         0.00000E+00
    0.00000E+00         0.00000E+00        -0.41168E+08
 
   -0.41123E+08        -0.12706E+07         0.00000E+00
   -0.12706E+07        -0.60396E+08         0.00000E+00
    0.00000E+00         0.00000E+00        -0.41212E+08
 
   -0.41153E+08        -0.13057E+07         0.00000E+00
   -0.13057E+07        -0.60581E+08         0.00000E+00
    0.00000E+00         0.00000E+00        -0.41238E+08
 
   -0.41113E+08        -0.12052E+07         0.00000E+00
   -0.12052E+07        -0.60771E+08         0.00000E+00
    0.00000E+00         0.00000E+00        -0.41250E+08
 
   -0.41029E+08        -0.97649E+06         0.00000E+00
   -0.97649E+06        -0.60956E+08         0.00000E+00
    0.00000E+00         0.00000E+00        -0.41253E+08
 
   -0.40926E+08        -0.62670E+06         0.00000E+00
   -0.62670E+06        -0.61129E+08         0.00000E+00
    0.00000E+00         0.00000E+00        -0.41249E+08
 
   -0.40823E+08        -0.16223E+06         0.00000E+00
   -0.16223E+06        -0.61282E+08         0.00000E+00
    0.00000E+00         0.00000E+00        -0.41243E+08
 
   -0.40738E+08         0.41146E+06         0.00000E+00
    0.41146E+06        -0.61412E+08         0.00000E+00
    0.00000E+00         0.00000E+00        -0.41237E+08
 
   -0.40687E+08         0.10898E+07         0.00000E+00
    0.10898E+07        -0.61511E+08         0.00000E+00
    0.00000E+00         0.00000E+00        -0.41233E+08
 
   -0.40686E+08         0.18684E+07         0.00000E+00
    0.18684E+07        -0.61575E+08         0.00000E+00
    0.00000E+00         0.00000E+00        -0.41233E+08
 
   -0.40752E+08         0.27429E+07         0.00000E+00
    0.27429E+07        -0.61595E+08         0.00000E+00
    0.00000E+00         0.00000E+00        -0.41241E+08
 
   -0.40901E+08         0.37077E+07         0.00000E+00
    0.37077E+07        -0.61563E+08         0.00000E+00
    0.00000E+00         0.00000E+00        -0.41257E+08
 
   -0.41150E+08         0.47555E+07         0.00000E+00
    0.47555E+07        -0.61471E+08         0.00000E+00
    0.00000E+00         0.00000E+00        -0.41285E+08
 
   -0.40833E+08        -0.33666E+06         0.00000E+00
   -0.33666E+06        -0.60021E+08         0.00000E+00
    0.00000E+00         0.00000E+00        -0.40142E+08
 
   -0.41139E+08        -0.87915E+06         0.00000E+00
   -0.87915E+06        -0.60100E+08         0.00000E+00
    0.00000E+00         0.00000E+00        -0.40213E+08
 
   -0.41257E+08        -0.12485E+07         0.00000E+00
   -0.12485E+07        -0.60236E+08         0.00000E+00
    0.00000E+00         0.00000E+00        -0.40252E+08
 
   -0.41237E+08        -0.14512E+07         0.00000E+00
   -0.14512E+07        -0.60405E+08         0.00000E+00
    0.00000E+00         0.00000E+00        -0.40267E+08
 
   -0.41121E+08        -0.14966E+07         0.00000E+00
   -0.14966E+07        -0.60591E+08         0.00000E+00
    0.00000E+00         0.00000E+00        -0.40265E+08
 
   -0.40944E+08        -0.13953E+07         0.00000E+00
   -0.13953E+07        -0.60780E+08         0.00000E+00
    0.00000E+00         0.00000E+00        -0.40252E+08
 
   -0.40733E+08        -0.11577E+07         0.00000E+00
   -0.11577E+07        -0.60965E+08         0.00000E+00
    0.00000E+00         0.00000E+00        -0.40230E+08
 
   -0.40510E+08        -0.79281E+06         0.00000E+00
   -0.79281E+06        -0.61139E+08         0.00000E+00
    0.00000E+00         0.00000E+00        -0.40204E+08
 
   -0.40292E+08        -0.30828E+06         0.00000E+00
   -0.30828E+06        -0.61296E+08         0.00000E+00
    0.00000E+00         0.00000E+00        -0.40177E+08
 
   -0.40098E+08         0.29034E+06         0.00000E+00
    0.29034E+06        -0.61433E+08         0.00000E+00
    0.00000E+00         0.00000E+00        -0.40151E+08
 
   -0.39941E+08         0.99900E+06         0.00000E+00
    0.99900E+06        -0.61545E+08         0.00000E+00
    0.00000E+00         0.00000E+00        -0.40130E+08
 
   -0.39838E+08         0.18146E+07         0.00000E+00
    0.18146E+07        -0.61626E+08         0.00000E+00
    0.00000E+00         0.00000E+00        -0.40115E+08
 
   -0.39806E+08         0.27340E+07         0.00000E+00
    0.27340E+07        -0.61670E+08         0.00000E+00
    0.00000E+00         0.00000E+00        -0.40108E+08
 
   -0.39864E+08         0.37531E+07         0.00000E+00
    0.37531E+07        -0.61666E+08         0.00000E+00
    0.00000E+00         0.00000E+00        -0.40112E+08
 
   -0.40029E+08         0.48652E+07         0.00000E+00
    0.48652E+07        -0.61605E+08         0.00000E+00
    0.00000E+00         0.00000E+00        -0.40129E+08
 
   -0.41505E+08        -0.38193E+06         0.00000E+00
   -0.38193E+06        -0.60021E+08         0.00000E+00
    0.00000E+00         0.00000E+00        -0.39247E+08
 
   -0.41622E+08        -0.99272E+06         0.00000E+00
   -0.99272E+06        -0.60102E+08         0.00000E+00
    0.00000E+00         0.00000E+00        -0.39280E+08
 
   -0.41558E+08        -0.14050E+07         0.00000E+00
   -0.14050E+07        -0.60237E+08         0.00000E+00
    0.00000E+00         0.00000E+00        -0.39284E+08
 
   -0.41367E+08        -0.16307E+07         0.00000E+00
   -0.16307E+07        -0.60403E+08         0.00000E+00
    0.00000E+00         0.00000E+00        -0.39267E+08
 
   -0.41094E+08        -0.16843E+07         0.00000E+00
   -0.16843E+07        -0.60583E+08         0.00000E+00
    0.00000E+00         0.00000E+00        -0.39234E+08
 
   -0.40771E+08        -0.15811E+07         0.00000E+00
   -0.15811E+07        -0.60765E+08         0.00000E+00
    0.00000E+00         0.00000E+00        -0.39192E+08
 
   -0.40425E+08        -0.13349E+07         0.00000E+00
   -0.13349E+07        -0.60942E+08         0.00000E+00
    0.00000E+00         0.00000E+00        -0.39144E+08
 
   -0.40077E+08        -0.95719E+06         0.00000E+00
   -0.95719E+06        -0.61108E+08         0.00000E+00
    0.00000E+00         0.00000E+00        -0.39093E+08
 
   -0.39741E+08        -0.45658E+06         0.00000E+00
   -0.45658E+06        -0.61262E+08         0.00000E+00
    0.00000E+00         0.00000E+00        -0.39044E+08
 
   -0.39433E+08         0.16148E+06         0.00000E+00
    0.16148E+06        -0.61401E+08         0.00000E+00
    0.00000E+00         0.00000E+00        -0.38998E+08
 
   -0.39165E+08         0.89406E+06         0.00000E+00
    0.89406E+06        -0.61522E+08         0.00000E+00
    0.00000E+00         0.00000E+00        -0.38958E+08
 
   -0.38953E+08         0.17399E+07         0.00000E+00
    0.17399E+07        -0.61620E+08         0.00000E+00
    0.00000E+00         0.00000E+00        -0.38926E+08
 
   -0.38814E+08         0.26982E+07         0.00000E+00
    0.26982E+07        -0.61688E+08         0.00000E+00
    0.00000E+00         0.00000E+00        -0.38904E+08
 
   -0.38769E+08         0.37667E+07         0.00000E+00
    0.37667E+07        -0.61716E+08         0.00000E+00
    0.00000E+00         0.00000E+00        -0.38894E+08
 
   -0.38840E+08         0.49407E+07         0.00000E+00
    0.49407E+07        -0.61690E+08         0.00000E+00
    0.00000E+00         0.00000E+00        -0.38900E+08
 
   -0.42260E+08        -0.42771E+06         0.00000E+00
   -0.42771E+06        -0.60021E+08         0.00000E+00
    0.00000E+00         0.00000E+00        -0.38313E+08
 
   -0.42158E+08        -0.11056E+07         0.00000E+00
   -0.11056E+07        -0.60101E+08         0.00000E+00
    0.00000E+00         0.00000E+00        -0.38304E+08
 
   -0.41889E+08        -0.15575E+07         0.00000E+00
   -0.15575E+07        -0.60231E+08         0.00000E+00
    0.00000E+00         0.00000E+00        -0.38268E+08
 
   -0.41511E+08        -0.18022E+07         0.00000E+00
   -0.18022E+07        -0.60388E+08         0.00000E+00
    0.00000E+00         0.00000E+00        -0.38213E+08
 
   -0.41067E+08        -0.18606E+07         0.00000E+00
   -0.18606E+07        -0.60554E+08         0.00000E+00
    0.00000E+00         0.00000E+00        -0.38146E+08
 
   -0.40591E+08        -0.17536E+07         0.00000E+00
   -0.17536E+07        -0.60719E+08         0.00000E+00
    0.00000E+00         0.00000E+00        -0.38072E+08
 
   -0.40107E+08        -0.14992E+07         0.00000E+00
   -0.14992E+07        -0.60876E+08         0.00000E+00
    0.00000E+00         0.00000E+00        -0.37996E+08
 
   -0.39631E+08        -0.11116E+07         0.00000E+00
   -0.11116E+07        -0.61026E+08         0.00000E+00
    0.00000E+00         0.00000E+00        -0.37919E+08
 
   -0.39176E+08        -0.60025E+06         0.00000E+00
   -0.60025E+06        -0.61168E+08         0.00000E+00
    0.00000E+00         0.00000E+00        -0.37846E+08
 
   -0.38750E+08         0.29846E+05         0.00000E+00
    0.29846E+05        -0.61303E+08         0.00000E+00
    0.00000E+00         0.00000E+00        -0.37778E+08
 
   -0.38367E+08         0.77759E+06         0.00000E+00
    0.77759E+06        -0.61429E+08         0.00000E+00
    0.00000E+00         0.00000E+00        -0.37718E+08
 
   -0.38038E+08         0.16445E+07         0.00000E+00
    0.16445E+07        -0.61543E+08         0.00000E+00
    0.00000E+00         0.00000E+00        -0.37667E+08
 
   -0.37782E+08         0.26330E+07         0.00000E+00
    0.26330E+07        -0.61636E+08         0.00000E+00
    0.00000E+00         0.00000E+00        -0.37628E+08
 
   -0.37622E+08         0.37444E+07         0.00000E+00
    0.37444E+07        -0.61698E+08         0.00000E+00
    0.00000E+00         0.00000E+00        -0.37604E+08
 
   -0.37583E+08         0.49762E+07         0.00000E+00
    0.49762E+07        -0.61713E+08         0.00000E+00
    0.00000E+00         0.00000E+00        -0.37596E+08
 
   -0.43097E+08        -0.47298E+06         0.00000E+00
   -0.47298E+06        -0.60020E+08         0.00000E+00
    0.00000E+00         0.00000E+00        -0.37345E+08
 
   -0.42745E+08        -0.12144E+07         0.00000E+00
   -0.12144E+07        -0.60096E+08         0.00000E+00
    0.00000E+00         0.00000E+00        -0.37286E+08
 
   -0.42246E+08        -0.17000E+07         0.00000E+00
   -0.17000E+07        -0.60217E+08         0.00000E+00
    0.00000E+00         0.00000E+00        -0.37204E+08
 
   -0.41662E+08        -0.19571E+07         0.00000E+00
   -0.19571E+07        -0.60356E+08         0.00000E+00
    0.00000E+00         0.00000E+00        -0.37108E+08
 
   -0.41038E+08        -0.20151E+07         0.00000E+00
   -0.20151E+07        -0.60498E+08         0.00000E+00
    0.00000E+00         0.00000E+00        -0.37003E+08
 
   -0.40405E+08        -0.19015E+07         0.00000E+00
   -0.19015E+07        -0.60632E+08         0.00000E+00
    0.00000E+00         0.00000E+00        -0.36895E+08
 
   -0.39781E+08        -0.16394E+07         0.00000E+00
   -0.16394E+07        -0.60759E+08         0.00000E+00
    0.00000E+00         0.00000E+00        -0.36788E+08
 
   -0.39178E+08        -0.12458E+07         0.00000E+00
   -0.12458E+07        -0.60881E+08         0.00000E+00
    0.00000E+00         0.00000E+00        -0.36684E+08
 
   -0.38603E+08        -0.73087E+06         0.00000E+00
   -0.73087E+06        -0.61001E+08         0.00000E+00
    0.00000E+00         0.00000E+00        -0.36585E+08
 
   -0.38060E+08        -0.98505E+05         0.00000E+00
   -0.98505E+05        -0.61123E+08         0.00000E+00
    0.00000E+00         0.00000E+00        -0.36494E+08
 
   -0.37556E+08         0.65280E+06         0.00000E+00
    0.65280E+06        -0.61249E+08         0.00000E+00
    0.00000E+00         0.00000E+00        -0.36413E+08
 
   -0.37104E+08         0.15285E+07         0.00000E+00
    0.15285E+07        -0.61376E+08         0.00000E+00
    0.00000E+00         0.00000E+00        -0.36342E+08
 
   -0.36719E+08         0.25357E+07         0.00000E+00
    0.25357E+07        -0.61497E+08         0.00000E+00
    0.00000E+00         0.00000E+00        -0.36284E+08
 
   -0.36428E+08         0.36805E+07         0.00000E+00
    0.36805E+07        -0.61598E+08         0.00000E+00
    0.00000E+00         0.00000E+00        -0.36243E+08
 
   -0.36262E+08         0.49648E+07         0.00000E+00
    0.49648E+07        -0.61662E+08         0.00000E+00
    0.00000E+00         0.00000E+00        -0.36220E+08
 
   -0.44013E+08        -0.51655E+06         0.00000E+00
   -0.51655E+06        -0.60019E+08         0.00000E+00
    0.00000E+00         0.00000E+00        -0.36347E+08
 
   -0.43375E+08        -0.13148E+07         0.00000E+00
   -0.13148E+07        -0.60089E+08         0.00000E+00
    0.00000E+00         0.00000E+00        -0.36231E+08
 
   -0.42620E+08        -0.18246E+07         0.00000E+00
   -0.18246E+07        -0.60193E+08         0.00000E+00
    0.00000E+00         0.00000E+00        -0.36097E+08
 
   -0.41815E+08        -0.20846E+07         0.00000E+00
   -0.20846E+07        -0.60304E+08         0.00000E+00
    0.00000E+00         0.00000E+00        -0.35954E+08
 
   -0.41002E+08        -0.21346E+07         0.00000E+00
   -0.21346E+07        -0.60406E+08         0.00000E+00
    0.00000E+00         0.00000E+00        -0.35808E+08
 
   -0.40210E+08        -0.20110E+07         0.00000E+00
   -0.20110E+07        -0.60496E+08         0.00000E+00
    0.00000E+00         0.00000E+00        -0.35663E+08
 
   -0.39449E+08        -0.17422E+07         0.00000E+00
   -0.17422E+07        -0.60577E+08         0.00000E+00
    0.00000E+00         0.00000E+00        -0.35523E+08
 
   -0.38724E+08        -0.13478E+07         0.00000E+00
   -0.13478E+07        -0.60656E+08         0.00000E+00
    0.00000E+00         0.00000E+00        -0.35389E+08
 
   -0.38033E+08        -0.83846E+06         0.00000E+00
   -0.83846E+06        -0.60743E+08         0.00000E+00
    0.00000E+00         0.00000E+00        -0.35264E+08
 
   -0.37374E+08        -0.21635E+06         0.00000E+00
   -0.21635E+06        -0.60843E+08         0.00000E+00
    0.00000E+00         0.00000E+00        -0.35149E+08
 
   -0.36748E+08         0.52354E+06         0.00000E+00
    0.52354E+06        -0.60963E+08         0.00000E+00
    0.00000E+00         0.00000E+00        -0.35044E+08
 
   -0.36164E+08         0.13918E+07         0.00000E+00
    0.13918E+07        -0.61102E+08         0.00000E+00
    0.00000E+00         0.00000E+00        -0.34952E+08
 
   -0.35638E+08         0.24022E+07         0.00000E+00
    0.24022E+07        -0.61252E+08         0.00000E+00
    0.00000E+00         0.00000E+00        -0.34874E+08
 
   -0.35197E+08         0.35680E+07         0.00000E+00
    0.35680E+07        -0.61400E+08         0.00000E+00
    0.00000E+00         0.00000E+00        -0.34813E+08
 
   -0.34880E+08         0.48971E+07         0.00000E+00
    0.48971E+07        -0.61521E+08         0.00000E+00
    0.00000E+00         0.00000E+00        -0.34773E+08
 
   -0.45003E+08        -0.55705E+06         0.00000E+00
   -0.55705E+06        -0.60018E+08         0.00000E+00
    0.00000E+00         0.00000E+00        -0.35324E+08
 
   -0.44038E+08        -0.14012E+07         0.00000E+00
   -0.14012E+07        -0.60077E+08         0.00000E+00
    0.00000E+00         0.00000E+00        -0.35142E+08
 
   -0.43000E+08        -0.19210E+07         0.00000E+00
   -0.19210E+07        -0.60155E+08         0.00000E+00
    0.00000E+00         0.00000E+00        -0.34950E+08
 
   -0.41957E+08        -0.21702E+07         0.00000E+00
   -0.21702E+07        -0.60223E+08         0.00000E+00
    0.00000E+00         0.00000E+00        -0.34754E+08
 
   -0.40953E+08        -0.22029E+07         0.00000E+00
   -0.22029E+07        -0.60270E+08         0.00000E+00
    0.00000E+00         0.00000E+00        -0.34562E+08
 
   -0.40006E+08        -0.20653E+07         0.00000E+00
   -0.20653E+07        -0.60297E+08         0.00000E+00
    0.00000E+00         0.00000E+00        -0.34377E+08
 
   -0.39116E+08        -0.17917E+07         0.00000E+00
   -0.17917E+07        -0.60314E+08         0.00000E+00
    0.00000E+00         0.00000E+00        -0.34203E+08
 
   -0.38277E+08        -0.14038E+07         0.00000E+00
   -0.14038E+07        -0.60336E+08         0.00000E+00
    0.00000E+00         0.00000E+00        -0.34038E+08
 
   -0.37478E+08        -0.91171E+06         0.00000E+00
   -0.91171E+06        -0.60375E+08         0.00000E+00
    0.00000E+00         0.00000E+00        -0.33886E+08
 
   -0.36707E+08        -0.31541E+06         0.00000E+00
   -0.31541E+06        -0.60444E+08         0.00000E+00
    0.00000E+00         0.00000E+00        -0.33745E+08
 
   -0.35960E+08         0.39436E+06         0.00000E+00
    0.39436E+06        -0.60551E+08         0.00000E+00
    0.00000E+00         0.00000E+00        -0.33616E+08
 
   -0.35238E+08         0.12346E+07         0.00000E+00
    0.12346E+07        -0.60698E+08         0.00000E+00
    0.00000E+00         0.00000E+00        -0.33500E+08
 
   -0.34554E+08         0.22277E+07         0.00000E+00
    0.22277E+07        -0.60881E+08         0.00000E+00
    0.00000E+00         0.00000E+00        -0.33399E+08
 
   -0.33940E+08         0.33972E+07         0.00000E+00
    0.33972E+07        -0.61083E+08         0.00000E+00
    0.00000E+00         0.00000E+00        -0.33316E+08
 
   -0.33443E+08         0.47606E+07         0.00000E+00
    0.47606E+07        -0.61274E+08         0.00000E+00
    0.00000E+00         0.00000E+00        -0.33255E+08
 
   -0.46055E+08        -0.59286E+06         0.00000E+00
   -0.59286E+06        -0.60015E+08         0.00000E+00
    0.00000E+00         0.00000E+00        -0.34280E+08
 
   -0.44718E+08        -0.14664E+07         0.00000E+00
   -0.14664E+07        -0.60059E+08         0.00000E+00
    0.00000E+00         0.00000E+00        -0.34023E+08
 
   -0.43366E+08        -0.19751E+07         0.00000E+00
   -0.19751E+07        -0.60098E+08         0.00000E+00
    0.00000E+00         0.00000E+00        -0.33763E+08
 
   -0.42077E+08        -0.21953E+07         0.00000E+00
   -0.21953E+07        -0.60104E+08         0.00000E+00
    0.00000E+00         0.00000E+00        -0.33509E+08
 
   -0.40884E+08        -0.21995E+07         0.00000E+00
   -0.21995E+07        -0.60072E+08         0.00000E+00
    0.00000E+00         0.00000E+00        -0.33268E+08
 
   -0.39792E+08        -0.20451E+07         0.00000E+00
   -0.20451E+07        -0.60015E+08         0.00000E+00
    0.00000E+00         0.00000E+00        -0.33041E+08
 
   -0.38787E+08        -0.17709E+07         0.00000E+00
   -0.17709E+07        -0.59951E+08         0.00000E+00
    0.00000E+00         0.00000E+00        -0.32830E+08
 
   -0.37848E+08        -0.13992E+07         0.00000E+00
   -0.13992E+07        -0.59899E+08         0.00000E+00
    0.00000E+00         0.00000E+00        -0.32635E+08
 
   -0.36953E+08        -0.93866E+06         0.00000E+00
   -0.93866E+06        -0.59878E+08         0.00000E+00
    0.00000E+00         0.00000E+00        -0.32454E+08
 
   -0.36080E+08        -0.38652E+06         0.00000E+00
   -0.38652E+06        -0.59904E+08         0.00000E+00
    0.00000E+00         0.00000E+00        -0.32287E+08
 
   -0.35214E+08         0.27073E+06         0.00000E+00
    0.27073E+06        -0.59990E+08         0.00000E+00
    0.00000E+00         0.00000E+00        -0.32133E+08
 
   -0.34348E+08         0.10571E+07         0.00000E+00
    0.10571E+07        -0.60143E+08         0.00000E+00
    0.00000E+00         0.00000E+00        -0.31992E+08
 
   -0.33492E+08         0.20061E+07         0.00000E+00
    0.20061E+07        -0.60361E+08         0.00000E+00
    0.00000E+00         0.00000E+00        -0.31866E+08
 
   -0.32676E+08         0.31556E+07         0.00000E+00
    0.31556E+07        -0.60627E+08         0.00000E+00
    0.00000E+00         0.00000E+00        -0.31756E+08
 
   -0.31957E+08         0.45385E+07         0.00000E+00
    0.45385E+07        -0.60906E+08         0.00000E+00
    0.00000E+00         0.00000E+00        -0.31669E+08
 
   -0.47156E+08        -0.62188E+06         0.00000E+00
   -0.62188E+06        -0.60012E+08         0.00000E+00
    0.00000E+00         0.00000E+00        -0.33222E+08
 
   -0.45389E+08        -0.14992E+07         0.00000E+00
   -0.14992E+07        -0.60031E+08         0.00000E+00
    0.00000E+00         0.00000E+00        -0.32876E+08
 
   -0.43697E+08        -0.19663E+07         0.00000E+00
   -0.19663E+07        -0.60012E+08         0.00000E+00
    0.00000E+00         0.00000E+00        -0.32539E+08
 
   -0.42157E+08        -0.21345E+07         0.00000E+00
   -0.21345E+07        -0.59928E+08         0.00000E+00
    0.00000E+00         0.00000E+00        -0.32220E+08
 
   -0.40789E+08        -0.20999E+07         0.00000E+00
   -0.20999E+07        -0.59790E+08         0.00000E+00
    0.00000E+00         0.00000E+00        -0.31926E+08
 
   -0.39571E+08        -0.19295E+07         0.00000E+00
   -0.19295E+07        -0.59625E+08         0.00000E+00
    0.00000E+00         0.00000E+00        -0.31656E+08
 
   -0.38471E+08        -0.16630E+07         0.00000E+00
   -0.16630E+07        -0.59460E+08         0.00000E+00
    0.00000E+00         0.00000E+00        -0.31409E+08
 
   -0.37451E+08        -0.13204E+07         0.00000E+00
   -0.13204E+07        -0.59321E+08         0.00000E+00
    0.00000E+00         0.00000E+00        -0.31182E+08
 
   -0.36475E+08        -0.90800E+06         0.00000E+00
   -0.90800E+06        -0.59229E+08         0.00000E+00
    0.00000E+00         0.00000E+00        -0.30974E+08
 
   -0.35513E+08        -0.42029E+06         0.00000E+00
   -0.42029E+06        -0.59203E+08         0.00000E+00
    0.00000E+00         0.00000E+00        -0.30781E+08
 
   -0.34536E+08         0.15939E+06         0.00000E+00
    0.15939E+06        -0.59260E+08         0.00000E+00
    0.00000E+00         0.00000E+00        -0.30601E+08
 
   -0.33526E+08         0.86124E+06         0.00000E+00
    0.86124E+06        -0.59413E+08         0.00000E+00
    0.00000E+00         0.00000E+00        -0.30433E+08
 
   -0.32481E+08         0.17310E+07         0.00000E+00
    0.17310E+07        -0.59667E+08         0.00000E+00
    0.00000E+00         0.00000E+00        -0.30278E+08
 
   -0.31427E+08         0.28271E+07         0.00000E+00
    0.28271E+07        -0.60009E+08         0.00000E+00
    0.00000E+00         0.00000E+00        -0.30138E+08
 
   -0.30434E+08         0.42077E+07         0.00000E+00
    0.42077E+07        -0.60399E+08         0.00000E+00
    0.00000E+00         0.00000E+00        -0.30019E+08
 
   -0.48281E+08        -0.64086E+06         0.00000E+00
   -0.64086E+06        -0.60006E+08         0.00000E+00
    0.00000E+00         0.00000E+00        -0.32153E+08
 
   -0.46015E+08        -0.14803E+07         0.00000E+00
   -0.14803E+07        -0.59987E+08         0.00000E+00
    0.00000E+00         0.00000E+00        -0.31700E+08
 
   -0.43959E+08        -0.18623E+07         0.00000E+00
   -0.18623E+07        -0.59874E+08         0.00000E+00
    0.00000E+00         0.00000E+00        -0.31274E+08
 
   -0.42183E+08        -0.19540E+07         0.00000E+00
   -0.19540E+07        -0.59660E+08         0.00000E+00
    0.00000E+00         0.00000E+00        -0.30885E+08
 
   -0.40667E+08        -0.18769E+07         0.00000E+00
   -0.18769E+07        -0.59384E+08         0.00000E+00
    0.00000E+00         0.00000E+00        -0.30536E+08
 
   -0.39353E+08        -0.16993E+07         0.00000E+00
   -0.16993E+07        -0.59089E+08         0.00000E+00
    0.00000E+00         0.00000E+00        -0.30223E+08
 
   -0.38182E+08        -0.14547E+07         0.00000E+00
   -0.14547E+07        -0.58812E+08         0.00000E+00
    0.00000E+00         0.00000E+00        -0.29941E+08
 
   -0.37101E+08        -0.11578E+07         0.00000E+00
   -0.11578E+07        -0.58578E+08         0.00000E+00
    0.00000E+00         0.00000E+00        -0.29685E+08
 
   -0.36064E+08        -0.81135E+06         0.00000E+00
   -0.81135E+06        -0.58409E+08         0.00000E+00
    0.00000E+00         0.00000E+00        -0.29450E+08
 
   -0.35028E+08        -0.40828E+06         0.00000E+00
   -0.40828E+06        -0.58324E+08         0.00000E+00
    0.00000E+00         0.00000E+00        -0.29232E+08
 
   -0.33955E+08         0.68790E+05         0.00000E+00
    0.68790E+05        -0.58343E+08         0.00000E+00
    0.00000E+00         0.00000E+00        -0.29027E+08
 
   -0.32808E+08         0.65214E+06         0.00000E+00
    0.65214E+06        -0.58487E+08         0.00000E+00
    0.00000E+00         0.00000E+00        -0.28831E+08
 
   -0.31563E+08         0.13980E+07         0.00000E+00
    0.13980E+07        -0.58773E+08         0.00000E+00
    0.00000E+00         0.00000E+00        -0.28644E+08
 
   -0.30231E+08         0.23920E+07         0.00000E+00
    0.23920E+07        -0.59204E+08         0.00000E+00
    0.00000E+00         0.00000E+00        -0.28467E+08
 
   -0.28890E+08         0.37354E+07         0.00000E+00
    0.37354E+07        -0.59735E+08         0.00000E+00
    0.00000E+00         0.00000E+00        -0.28307E+08
 
   -0.49393E+08        -0.64270E+06         0.00000E+00
   -0.64270E+06        -0.59996E+08         0.00000E+00
    0.00000E+00         0.00000E+00        -0.31074E+08
 
   -0.46536E+08        -0.13709E+07         0.00000E+00
   -0.13709E+07        -0.59902E+08         0.00000E+00
    0.00000E+00         0.00000E+00        -0.30490E+08
 
   -0.44117E+08        -0.16102E+07         0.00000E+00
   -0.16102E+07        -0.59632E+08         0.00000E+00
    0.00000E+00         0.00000E+00        -0.29961E+08
 
   -0.42150E+08        -0.16133E+07         0.00000E+00
   -0.16133E+07        -0.59235E+08         0.00000E+00
    0.00000E+00         0.00000E+00        -0.29498E+08
 
   -0.40530E+08        -0.15076E+07         0.00000E+00
   -0.15076E+07        -0.58793E+08         0.00000E+00
    0.00000E+00         0.00000E+00        -0.29096E+08
 
   -0.39153E+08        -0.13434E+07         0.00000E+00
   -0.13434E+07        -0.58360E+08         0.00000E+00
    0.00000E+00         0.00000E+00        -0.28743E+08
 
   -0.37936E+08        -0.11415E+07         0.00000E+00
   -0.11415E+07        -0.57969E+08         0.00000E+00
    0.00000E+00         0.00000E+00        -0.28430E+08
 
   -0.36816E+08        -0.90926E+06         0.00000E+00
   -0.90926E+06        -0.57642E+08         0.00000E+00
    0.00000E+00         0.00000E+00        -0.28148E+08
 
   -0.35736E+08        -0.64618E+06         0.00000E+00
   -0.64618E+06        -0.57398E+08         0.00000E+00
    0.00000E+00         0.00000E+00        -0.27890E+08
 
   -0.34647E+08        -0.34539E+06         0.00000E+00
   -0.34539E+06        -0.57254E+08         0.00000E+00
    0.00000E+00         0.00000E+00        -0.27649E+08
 
   -0.33498E+08         0.79982E+04         0.00000E+00
    0.79982E+04        -0.57231E+08         0.00000E+00
    0.00000E+00         0.00000E+00        -0.27421E+08
 
   -0.32233E+08         0.44206E+06         0.00000E+00
    0.44206E+06        -0.57354E+08         0.00000E+00
    0.00000E+00         0.00000E+00        -0.27198E+08
 
   -0.30795E+08         0.10110E+07         0.00000E+00
    0.10110E+07        -0.57657E+08         0.00000E+00
    0.00000E+00         0.00000E+00        -0.26975E+08
 
   -0.29146E+08         0.18288E+07         0.00000E+00
    0.18288E+07        -0.58178E+08         0.00000E+00
    0.00000E+00         0.00000E+00        -0.26754E+08
 
   -0.27352E+08         0.30731E+07         0.00000E+00
    0.30731E+07        -0.58891E+08         0.00000E+00
    0.00000E+00         0.00000E+00        -0.26540E+08
 
   -0.50410E+08        -0.60309E+06         0.00000E+00
   -0.60309E+06        -0.59966E+08         0.00000E+00
    0.00000E+00         0.00000E+00        -0.29980E+08
 
   -0.46862E+08        -0.10782E+07         0.00000E+00
   -0.10782E+07        -0.59694E+08         0.00000E+00
    0.00000E+00         0.00000E+00        -0.29221E+08
 
   -0.44154E+08        -0.11366E+07         0.00000E+00
   -0.11366E+07        -0.59158E+08         0.00000E+00
    0.00000E+00         0.00000E+00        -0.28580E+08
 
   -0.42078E+08        -0.10837E+07         0.00000E+00
   -0.10837E+07        -0.58544E+08         0.00000E+00
    0.00000E+00         0.00000E+00        -0.28051E+08
 
   -0.40404E+08        -0.98719E+06         0.00000E+00
   -0.98719E+06        -0.57938E+08         0.00000E+00
    0.00000E+00         0.00000E+00        -0.27603E+08
 
   -0.38996E+08        -0.86770E+06         0.00000E+00
   -0.86770E+06        -0.57381E+08         0.00000E+00
    0.00000E+00         0.00000E+00        -0.27217E+08
 
   -0.37756E+08        -0.73259E+06         0.00000E+00
   -0.73259E+06        -0.56893E+08         0.00000E+00
    0.00000E+00         0.00000E+00        -0.26878E+08
 
   -0.36614E+08        -0.58357E+06         0.00000E+00
   -0.58357E+06        -0.56490E+08         0.00000E+00
    0.00000E+00         0.00000E+00        -0.26575E+08
 
   -0.35509E+08        -0.41884E+06         0.00000E+00
   -0.41884E+06        -0.56185E+08         0.00000E+00
    0.00000E+00         0.00000E+00        -0.26299E+08
 
   -0.34385E+08        -0.23330E+06         0.00000E+00
   -0.23330E+06        -0.55991E+08         0.00000E+00
    0.00000E+00         0.00000E+00        -0.26040E+08
 
   -0.33184E+08        -0.17246E+05         0.00000E+00
   -0.17246E+05        -0.55928E+08         0.00000E+00
    0.00000E+00         0.00000E+00        -0.25792E+08
 
   -0.31836E+08         0.24757E+06         0.00000E+00
    0.24757E+06        -0.56022E+08         0.00000E+00
    0.00000E+00         0.00000E+00        -0.25546E+08
 
   -0.30249E+08         0.59827E+06         0.00000E+00
    0.59827E+06        -0.56316E+08         0.00000E+00
    0.00000E+00         0.00000E+00        -0.25291E+08
 
   -0.28275E+08         0.11276E+07         0.00000E+00
    0.11276E+07        -0.56887E+08         0.00000E+00
    0.00000E+00         0.00000E+00        -0.25014E+08
 
   -0.25878E+08         0.21386E+07         0.00000E+00
    0.21386E+07        -0.57838E+08         0.00000E+00
    0.00000E+00         0.00000E+00        -0.24727E+08
 
   -0.51128E+08        -0.36648E+06         0.00000E+00
   -0.36648E+06        -0.59732E+08         0.00000E+00
    0.00000E+00         0.00000E+00        -0.28802E+08
 
   -0.46933E+08        -0.43944E+06         0.00000E+00
   -0.43944E+06        -0.59036E+08         0.00000E+00
    0.00000E+00         0.00000E+00        -0.27827E+08
 
   -0.44132E+08        -0.41795E+06         0.00000E+00
   -0.41795E+06        -0.58231E+08         0.00000E+00
    0.00000E+00         0.00000E+00        -0.27109E+08
 
   -0.42018E+08        -0.38555E+06         0.00000E+00
   -0.38555E+06        -0.57453E+08         0.00000E+00
    0.00000E+00         0.00000E+00        -0.26534E+08
 
   -0.40328E+08        -0.34570E+06         0.00000E+00
   -0.34570E+06        -0.56738E+08         0.00000E+00
    0.00000E+00         0.00000E+00        -0.26056E+08
 
   -0.38908E+08        -0.30144E+06         0.00000E+00
   -0.30144E+06        -0.56102E+08         0.00000E+00
    0.00000E+00         0.00000E+00        -0.25648E+08
 
   -0.37660E+08        -0.25360E+06         0.00000E+00
   -0.25360E+06        -0.55555E+08         0.00000E+00
    0.00000E+00         0.00000E+00        -0.25292E+08
 
   -0.36508E+08        -0.20206E+06         0.00000E+00
   -0.20206E+06        -0.55106E+08         0.00000E+00
    0.00000E+00         0.00000E+00        -0.24974E+08
 
   -0.35392E+08        -0.14587E+06         0.00000E+00
   -0.14587E+06        -0.54763E+08         0.00000E+00
    0.00000E+00         0.00000E+00        -0.24684E+08
 
   -0.34252E+08        -0.83178E+05         0.00000E+00
   -0.83178E+05        -0.54538E+08         0.00000E+00
    0.00000E+00         0.00000E+00        -0.24413E+08
 
   -0.33026E+08        -0.10637E+05         0.00000E+00
   -0.10637E+05        -0.54448E+08         0.00000E+00
    0.00000E+00         0.00000E+00        -0.24152E+08
 
   -0.31636E+08         0.77829E+05         0.00000E+00
    0.77829E+05        -0.54518E+08         0.00000E+00
    0.00000E+00         0.00000E+00        -0.23890E+08
 
   -0.29967E+08         0.19528E+06         0.00000E+00
    0.19528E+06        -0.54793E+08         0.00000E+00
    0.00000E+00         0.00000E+00        -0.23613E+08
 
   -0.27816E+08         0.37107E+06         0.00000E+00
    0.37107E+06        -0.55360E+08         0.00000E+00
    0.00000E+00         0.00000E+00        -0.23297E+08
 
   -0.24608E+08         0.79492E+06         0.00000E+00
    0.79492E+06        -0.56462E+08         0.00000E+00
    0.00000E+00         0.00000E+00        -0.22877E+08
 
SCALARS stressS double 
LOOKUP_TABLE default
  -48632845.9884727     
  -49078950.1745700     
  -49504788.6409857     
  -49909604.0143083     
  -50293087.6361684     
  -50655283.2565649     
  -50996503.3774137     
  -51317256.9198608     
  -51618186.9058581     
  -51900016.8923391     
  -52163504.9683520     
  -52409404.2156757     
  -52638428.6362311     
  -52851223.6598510     
  -53048340.4589019     
  -48617689.6802824     
  -49064187.5158664     
  -49489927.8215648     
  -49894256.3918020     
  -50276955.6106880     
  -50638149.2160610     
  -50978219.7270275     
  -51297737.1764773     
  -51597397.8140743     
  -51877971.4991693     
  -52140256.5805117     
  -52385041.1547344     
  -52613069.7029510     
  -52825014.2193477     
  -53021449.0624917     
  -48587583.4127844     
  -49034791.1370086     
  -49460267.3199280     
  -49863563.3495143     
  -50244642.9005480     
  -50603788.8753572     
  -50941523.0267309     
  -51258536.8416236     
  -51555632.3021334     
  -51833671.2061128     
  -52093531.8177826     
  -52336071.7235150     
  -52562095.8844550     
  -52772329.0008417     
  -52967391.4277668     
  -48542939.7505958     
  -48991018.8953439     
  -49415929.6061691     
  -49817529.7678269     
  -50196052.9755690     
  -50552018.8276183     
  -50886155.9084220     
  -51199335.9502354     
  -51492517.7184220     
  -51766699.2488646     
  -52022877.1691256     
  -52262011.9539497     
  -52484998.0957930     
  -52692638.3074577     
  -52885621.0113713     
  -48484377.1077700     
  -48933257.4537815     
  -49357098.8200905     
  -49756164.1135919     
  -50131042.9788831     
  -50482566.7173212     
  -50811735.8729531     
  -51119658.8575737     
  -51407500.0700100     
  -51676436.0689865     
  -51927618.4812024     
  -52162142.4632557     
  -52381019.6840450     
  -52585154.9486950     
  -52775325.7403424     
  -48412718.9447160     
  -48862021.9226323     
  -49284021.1357918     
  -49679479.6963511     
  -50049425.9590590     
  -50395074.4675056     
  -50717759.4824987     
  -51018879.3307981     
  -51299849.9235726     
  -51562065.9218968     
  -51806868.1703327     
  -52035516.1777432     
  -52249164.5944578     
  -52448842.8125736     
  -52635436.9955573     
  -48328992.2141171     
  -48777955.0196008     
  -49197004.9733510     
  -49587496.1312378     
  -49950973.6769132     
  -50289102.4407112     
  -50603607.8225874     
  -50896227.2118213     
  -51168670.1361711     
  -51422585.5246919     
  -51659534.6339869     
  -51880968.3686491     
  -52088207.9223250     
  -52282427.8725552     
  -52464641.0737295     
  -48234424.6214634     
  -48681825.4142971     
  -49096420.7969387     
  -49480240.8001832     
  -49835419.8159801     
  -50164134.3888815     
  -50468553.1061815     
  -50750796.5317009     
  -51012905.2933237     
  -51256814.6054913     
  -51484333.6926261     
  -51697128.7833344     
  -51896708.5698784     
  -52084411.2698778     
  -52261392.6799094     
  -48130440.1346050     
  -48574524.8128120     
  -48982700.1418733     
  -49357750.0170257     
  -49702463.3495721     
  -50019582.9819221     
  -50311766.2376618     
  -50581554.9131017     
  -50831352.6970352     
  -51063408.1863820     
  -51279801.8624485     
  -51482435.6168540     
  -51673023.6725816     
  -51853084.0318255     
  -52023929.8891331     
  -48018652.0348246     
  -48457063.2107866     
  -48856333.3950819     
  -49220069.4919508     
  -49551771.7171100     
  -49854795.6178243     
  -50132325.0846058     
  -50387354.0458608     
  -50622674.7123780     
  -50840870.4111718     
  -51044311.2445928     
  -51235151.0497711     
  -51415324.4241291     
  -51586542.9228119     
  -51750289.9114858     
  -47900852.6523138     
  -48330561.5986934     
  -48717865.7091187     
  -49067253.5489947     
  -49382983.3299895     
  -49669060.1025508     
  -49929223.1157838     
  -50166940.9610113     
  -50385412.2514851     
  -50587569.7245845     
  -50776085.8274003     
  -50953378.0912406     
  -51121612.9283550     
  -51282706.8919833     
  -51438324.9117836     
  -47778998.7782692     
  -48196241.2400355     
  -48567890.2525486     
  -48899362.3666075     
  -49195708.7512798     
  -49461609.6357293     
  -49701377.9493872     
  -49918969.7607107     
  -50117999.1542018     
  -50301755.2325144     
  -50473219.0512403     
  -50635078.5308357     
  -50789739.7598424     
  -50939333.5991291     
  -51085717.0925561     
  -47655191.6054954     
  -48055408.4610852     
  -48407037.7785307     
  -48716456.2692075     
  -48989529.6566955     
  -49231626.3344387     
  -49447639.2082893     
  -49642013.3855708     
  -49818777.2237567     
  -49981574.1397681     
  -50133692.6025917     
  -50278091.9450106     
  -50417422.0522107     
  -50554035.5992876     
  -50689992.2748469     
  -47531649.9363981     
  -47909433.6865747     
  -48235961.2104940     
  -48518585.7706310     
  -48763994.3591249     
  -48978242.2502731     
  -49166794.8874380     
  -49334574.9173360     
  -49486011.7062420     
  -49625090.2955523     
  -49755396.6168629     
  -49880155.9611092     
  -50002262.1930974     
  -50124295.9851806     
  -50248531.3438154     
  -47410675.3340996     
  -47759723.2195178     
  -48055313.5654724     
  -48305775.6136557     
  -48518608.2216414     
  -48700536.4509475     
  -48857575.1851220     
  -48995097.8249097     
  -49117907.0830074     
  -49230304.1107992     
  -49336151.8212233     
  -49438928.4030239     
  -49541767.6397356     
  -49647483.6772094     
  -49758579.2152354     
  -47294607.9046598     
  -47607681.9686890     
  -47865717.0003900     
  -48078000.3876393     
  -48252816.6240428     
  -48397526.1961679     
  -48518652.4106759     
  -48621974.4688963     
  -48712623.2033565     
  -48795174.4925256     
  -48873734.6996551     
  -48952012.5946705     
  -49033373.0464845     
  -49120869.1783645     
  -49217251.4865975     
  -47185771.5071737     
  -47454664.9125907     
  -47667719.9613049     
  -47835148.3108554     
  -47965977.1743413     
  -48068149.4635840     
  -48148635.1250456     
  -48213552.0940299     
  -48268292.0646941     
  -48317644.0368927     
  -48365907.5961051     
  -48416988.0702809     
  -48474466.9034140     
  -48541642.5556446     
  -48621539.7336056     
  -47086407.3928185     
  -47301914.4211523     
  -47461738.1340838     
  -47576968.2204977     
  -47657316.3967253     
  -47711234.9702728     
  -47746054.0640343     
  -47768135.4852595     
  -47783036.0166374     
  -47795669.6323124     
  -47810456.9042358     
  -47831450.3567744     
  -47862426.3381351     
  -47906936.7660403     
  -47968317.5726804     
  -46998595.5138388     
  -47150479.3628673     
  -47247972.7625277     
  -47302992.3629735     
  -47325863.9220119     
  -47325454.2572039     
  -47309336.6182526     
  -47283985.5000728     
  -47254988.9298570     
  -47227261.9830909     
  -47205244.2839026     
  -47193065.5239867     
  -47194665.7899488     
  -47213861.3314980     
  -47254351.1960249     
  -46924162.8266432     
  -47001109.6578584     
  -47026296.2326247     
  -47012423.6245362     
  -46970353.8845935     
  -46909248.2295666     
  -46836765.7410446     
  -46759312.9420409     
  -46682323.0819923     
  -46610539.5481187     
  -46548278.4062891     
  -46499648.0904581     
  -46468708.1640718     
  -46459553.9476857     
  -46476320.1361420     
  -46864577.3728555     
  -46854115.4968627     
  -46796088.3535594     
  -46703969.3998958     
  -46589078.3119922     
  -46460717.7512673     
  -46326418.3459035     
  -46192267.9558618     
  -46063286.3651057     
  -45943805.1705569     
  -45837818.3201272     
  -45749274.9918728     
  -45682291.2273021     
  -45641261.1660070     
  -45630856.5434904     
  -46820824.7088597     
  -46709171.5915850     
  -46555995.0759860     
  -46375593.7413561     
  -46179670.2995278     
  -45977464.8683631     
  -45776078.1944583     
  -45580926.7691243     
  -45396257.0390326     
  -45225657.2992978     
  -45072524.3564517     
  -44940454.2757722     
  -44833528.1865653     
  -44756464.4499266     
  -44714614.2799177     
  -46793257.1350007     
  -46565028.6913026     
  -46303559.7160469     
  -46024142.1129550     
  -45738785.7176384     
  -45456369.5844648     
  -45183120.6545223     
  -44923280.8993418     
  -44679826.4754439     
  -44455151.5186398     
  -44251678.6378837     
  -44072375.8051152     
  -43921151.4376200     
  -43803076.0541613     
  -43724382.9673324     
  -46781390.5850985     
  -46419056.4056865     
  -46034634.9466002     
  -45644765.1691396     
  -45261643.2888653     
  -44893291.6600281     
  -44544375.2632944     
  -44217239.9910224     
  -43912922.3804846     
  -43632030.3593858     
  -43375503.0593224     
  -43145284.9527020     
  -42944885.3930958     
  -42779744.8373872     
  -42657267.4506158     
  -46783587.2548061     
  -46266453.8511326     
  -45742401.2401141     
  -45230025.1944370     
  -44741383.9417868     
  -44282710.5113035     
  -43855993.9159084     
  -43460668.1447959     
  -43094982.6870185     
  -42757031.1087016     
  -42445607.8794717     
  -42161036.7986006     
  -41906031.8141549     
  -41686341.1953199     
  -41510966.4892310     
  -46796451.7224437     
  -46098759.4717561     
  -45415641.3998600     
  -44768519.6928839     
  -44168258.4098148     
  -43617383.9296407     
  -43113398.9831537     
  -42651483.1613612     
  -42226167.8257210     
  -41832260.6784418     
  -41465575.1041989     
  -41123935.4053209     
  -40808401.1835604     
  -40524786.4867626     
  -40284201.3178784     
  -46813502.5704541     
  -45900669.7954989     
  -45035586.3874780     
  -44242883.7478418     
  -43528840.1667867     
  -42888281.9263161     
  -42311431.7387982     
  -41787850.6395611     
  -41307573.5199494     
  -40861503.2868550     
  -40441680.2706436     
  -40041874.2251339     
  -39660011.6518704     
  -39300476.5852470     
  -38977513.3653463     
  -46821034.4273613     
  -45642642.9437488     
  -44570001.0002579     
  -43627530.2660219     
  -42806230.3755481     
  -42085129.8271020     
  -41444852.2058655     
  -40868492.3685344     
  -40341357.1799004     
  -39850301.3315947     
  -39383112.6810425     
  -38928314.5336420     
  -38475525.1229316     
  -38025963.8856119     
  -37594405.6862332     
  -46785249.2488187     
  -45259173.3367909     
  -43964064.7308926     
  -42890843.0733337     
  -41981974.2268264     
  -41197939.3470812     
  -40509245.9543317     
  -39893093.1647974     
  -39330716.6817228     
  -38805514.7203028     
  -38301457.0942696     
  -37801345.7332336     
  -37285280.1040462     
  -36725144.5180827     
  -36147885.8416910     
  -46554026.0167084     
  -44598703.8119494     
  -43157273.1591049     
  -42001792.9610552     
  -41040543.7426636     
  -40219351.8856305     
  -39502232.7771435     
  -38862742.1238030     
  -38279691.4229494     
  -37734425.0969153     
  -37208542.8953670     
  -36681187.2675046     
  -36124053.2336771     
  -35491057.0294579     
  -34649035.4804244     
SCALARS 2waySource double 
LOOKUP_TABLE default
 -1.684885593827815E-004
 -1.650877396205941E-004
 -1.631332816627555E-004
 -1.623371221786072E-004
 -1.624452553694141E-004
 -1.632336614149801E-004
 -1.645044139060773E-004
 -1.660820254240373E-004
 -1.678100619095784E-004
 -1.695480358088260E-004
 -1.711685739525264E-004
 -1.725548476197106E-004
 -1.735982483361287E-004
 -1.741962929219524E-004
 -1.742507445760646E-004
 -1.685382914178075E-004
 -1.653069483197985E-004
 -1.634943864922237E-004
 -1.628157940776523E-004
 -1.630203949356417E-004
 -1.638872989963367E-004
 -1.652215569921613E-004
 -1.668504732668644E-004
 -1.686202024838122E-004
 -1.703926360229368E-004
 -1.720425703979190E-004
 -1.734551420322251E-004
 -1.745235092763002E-004
 -1.751467628939416E-004
 -1.752280498468546E-004
 -1.684348319082627E-004
 -1.655471415155570E-004
 -1.640201768878137E-004
 -1.635764081293671E-004
 -1.639722363078696E-004
 -1.649936773185406E-004
 -1.664523101899498E-004
 -1.681815295763128E-004
 -1.700331161843880E-004
 -1.718741205853366E-004
 -1.735840439392796E-004
 -1.750522924750164E-004
 -1.761758801878326E-004
 -1.768573554204635E-004
 -1.770029312522211E-004
 -1.681805579713392E-004
 -1.658054193006194E-004
 -1.647022877983831E-004
 -1.646051783479369E-004
 -1.652817767057983E-004
 -1.665288841908980E-004
 -1.681682194107245E-004
 -1.700425944603546E-004
 -1.720124602275370E-004
 -1.739528000304300E-004
 -1.757503414036013E-004
 -1.773010512634478E-004
 -1.785078789961706E-004
 -1.792787145211803E-004
 -1.795245336041322E-004
 -1.677814779040346E-004
 -1.660795927486853E-004
 -1.655301529079960E-004
 -1.658833118887492E-004
 -1.669223697331178E-004
 -1.684589303170755E-004
 -1.703285372728865E-004
 -1.723867755904939E-004
 -1.745058077657001E-004
 -1.765713020581604E-004
 -1.784797045134302E-004
 -1.801358046980449E-004
 -1.814505466840385E-004
 -1.823390410467578E-004
 -1.827187400832929E-004
 -1.672471559622332E-004
 -1.663678645280023E-004
 -1.664905495112470E-004
 -1.673865013662892E-004
 -1.688592267688220E-004
 -1.707393033386268E-004
 -1.728798584686994E-004
 -1.751526213567019E-004
 -1.774444853106927E-004
 -1.796545114588905E-004
 -1.816913035762856E-004
 -1.834706856579886E-004
 -1.849136182615057E-004
 -1.859442959352205E-004
 -1.864883759155289E-004
 -1.665906233829575E-004
 -1.666684377690620E-004
 -1.675670457864438E-004
 -1.690843171995924E-004
 -1.710488324725761E-004
 -1.733144609300534E-004
 -1.757557255645397E-004
 -1.782638588472505E-004
 -1.807434497018650E-004
 -1.831095825089612E-004
 -1.852853730374970E-004
 -1.871998124111633E-004
 -1.887858378575842E-004
 -1.899785576123529E-004
 -1.907135667583839E-004
 -1.658282720528620E-004
 -1.669790709442644E-004
 -1.687393851814510E-004
 -1.709395474542282E-004
 -1.734383308652136E-004
 -1.761173252124118E-004
 -1.788762707510345E-004
 -1.816292034879104E-004
 -1.843012714292348E-004
 -1.868260898182589E-004
 -1.891435137321562E-004
 -1.911977174593147E-004
 -1.929354812768910E-004
 -1.943045973429805E-004
 -1.952523173895709E-004
 -1.649797247954664E-004
 -1.672965995945985E-004
 -1.699828495701169E-004
 -1.729075420909265E-004
 -1.759649493047197E-004
 -1.790688522237379E-004
 -1.821479705722723E-004
 -1.851423183518206E-004
 -1.880003017345734E-004
 -1.906763935463370E-004
 -1.931292359060955E-004
 -1.953200388239992E-004
 -1.972111574380116E-004
 -1.987647441168471E-004
 -1.999413840918290E-004
 -1.640676738601159E-004
 -1.676164487021334E-004
 -1.712676492104729E-004
 -1.749356268042250E-004
 -1.785555367541250E-004
 -1.820777593161015E-004
 -1.854635993800482E-004
 -1.886820091824538E-004
 -1.917071081213699E-004
 -1.945163012350423E-004
 -1.970888225308805E-004
 -1.994045508025376E-004
 -2.014429639948609E-004
 -2.031821139610844E-004
 -2.045975171191444E-004
 -1.631176768490435E-004
 -1.679321620794758E-004
 -1.725583927827181E-004
 -1.769626579552650E-004
 -1.811262990875572E-004
 -1.850404991243693E-004
 -1.887024721649992E-004
 -1.921127451037538E-004
 -1.952732658508049E-004
 -1.981861104848852E-004
 -2.008525934665311E-004
 -2.032726113090325E-004
 -2.054440716019047E-004
 -2.073622768604649E-004
 -2.090191471894321E-004
 -1.621578970462625E-004
 -1.682349769085518E-004
 -1.738136940868146E-004
 -1.789187933532343E-004
 -1.835828165218983E-004
 -1.878415698521468E-004
 -1.917310672688495E-004
 -1.952855937349132E-004
 -1.985365907921765E-004
 -2.015121136387118E-004
 -2.042366471159433E-004
 -2.067310980890352E-004
 -2.090128054231916E-004
 -2.110954274559484E-004
 -2.129885817364180E-004
 -1.612187730078542E-004
 -1.685134719194289E-004
 -1.749859721817311E-004
 -1.807255522913120E-004
 -1.858204248968207E-004
 -1.903542463813795E-004
 -1.944041128050110E-004
 -1.980396517957556E-004
 -2.013228907733614E-004
 -2.043086369872670E-004
 -2.070451470965889E-004
 -2.095748962930018E-004
 -2.119352816676475E-004
 -2.141591134885587E-004
 -2.162747627258202E-004
 -1.603326005345044E-004
 -1.687533158431222E-004
 -1.760214972625548E-004
 -1.822962302351638E-004
 -1.877250312535077E-004
 -1.924418030787542E-004
 -1.965662057168254E-004
 -2.002040370693586E-004
 -2.034482976314002E-004
 -2.063806725261810E-004
 -2.090732072494194E-004
 -2.115899855066254E-004
 -2.139886417234477E-004
 -2.163215591939389E-004
 -2.186366187991825E-004
 -1.595330091123139E-004
 -1.689371375824281E-004
 -1.768607232118710E-004
 -1.835367161304979E-004
 -1.891744121404443E-004
 -1.939592746550870E-004
 -1.980540074296106E-004
 -2.016004836834458E-004
 -2.047222201282857E-004
 -2.075271402228573E-004
 -2.101104097272296E-004
 -2.125571563993158E-004
 -2.149449080888982E-004
 -2.173456008446688E-004
 -2.198270216442179E-004
 -1.588543150683815E-004
 -1.690445294182285E-004
 -1.774389264619035E-004
 -1.843467296851689E-004
 -1.900400066291063E-004
 -1.947557630627570E-004
 -1.986990231051238E-004
 -2.020465493377323E-004
 -2.049509290526713E-004
 -2.075447941515965E-004
 -2.099449695318816E-004
 -2.122563675546597E-004
 -2.145754668137489E-004
 -2.169932305074805E-004
 -2.195973319127219E-004
 -1.583307356284778E-004
 -1.690521770664356E-004
 -1.776871350990347E-004
 -1.846214469328897E-004
 -1.901891603251660E-004
 -1.946772427066838E-004
 -1.983309208766719E-004
 -2.013594003665686E-004
 -2.039417515713602E-004
 -2.062327590203641E-004
 -2.083685374787126E-004
 -2.104717347737569E-004
 -2.126561636229572E-004
 -2.150307248752699E-004
 -2.177024967055606E-004
 -1.579954522450511E-004
 -1.689340815287527E-004
 -1.775332751825826E-004
 -1.842534072444445E-004
 -1.894876952207150E-004
 -1.935697392171190E-004
 -1.967812820887847E-004
 -1.993600898948039E-004
 -2.015078154607357E-004
 -2.033976586568106E-004
 -2.051816165334087E-004
 -2.069971325195085E-004
 -2.089729894709474E-004
 -2.112343227642731E-004
 -2.139066424525410E-004
 -1.578795177898839E-004
 -1.686617904351400E-004
 -1.769033718712994E-004
 -1.831344819743719E-004
 -1.878025641006359E-004
 -1.912826544757261E-004
 -1.938875941204508E-004
 -1.958781900425658E-004
 -1.974732513696767E-004
 -1.988592815864116E-004
 -2.001995601778153E-004
 -2.016423860769632E-004
 -2.033283314049844E-004
 -2.053964125597076E-004
 -2.079890984691921E-004
 -1.580106085116196E-004
 -1.682044779383769E-004
 -1.757225017421574E-004
 -1.811575151705650E-004
 -1.850041849104234E-004
 -1.876718791059223E-004
 -1.894972082980688E-004
 -1.907565902115816E-004
 -1.916787431162594E-004
 -1.924567307491121E-004
 -1.932591345117625E-004
 -1.942400510645167E-004
 -1.955477831970942E-004
 -1.973322058340074E-004
 -1.997507926754562E-004
 -1.584116221935711E-004
 -1.675285765309903E-004
 -1.739149636936591E-004
 -1.782169881169618E-004
 -1.809678232137409E-004
 -1.826021741345280E-004
 -1.834708998365357E-004
 -1.838562471296825E-004
 -1.839873281276090E-004
 -1.840550373743947E-004
 -1.842256688208276E-004
 -1.846528234538430E-004
 -1.854875565365678E-004
 -1.868869139443964E-004
 -1.890209880767015E-004
 -1.590991042141800E-004
 -1.665964182235125E-004
 -1.714027474445418E-004
 -1.742076558267523E-004
 -1.755730803479558E-004
 -1.759481319778714E-004
 -1.756856167796449E-004
 -1.750606987945469E-004
 -1.742904124407788E-004
 -1.735522964895034E-004
 -1.730009023092446E-004
 -1.727817108915723E-004
 -1.730426206324763E-004
 -1.739435254364177E-004
 -1.756643856127482E-004
 -1.600814129575744E-004
 -1.653628645826055E-004
 -1.681006806664310E-004
 -1.690194543928234E-004
 -1.687001448205659E-004
 -1.675929044812840E-004
 -1.660360639780236E-004
 -1.642802787073752E-004
 -1.625140941153085E-004
 -1.608875030890976E-004
 -1.595317682161417E-004
 -1.585752370458616E-004
 -1.581558558667966E-004
 -1.584314282698334E-004
 -1.595887286083871E-004
 -1.613563298964341E-004
 -1.637679094579248E-004
 -1.639052776990648E-004
 -1.625259186688732E-004
 -1.602210432832690E-004
 -1.574240002809317E-004
 -1.544350888748473E-004
 -1.514562419693675E-004
 -1.486260526777394E-004
 -1.460494126127879E-004
 -1.438205146781696E-004
 -1.420402021100495E-004
 -1.408287624475749E-004
 -1.403364237487964E-004
 -1.407532460776289E-004
 -1.629073449593804E-004
 -1.617208576407283E-004
 -1.586715116713519E-004
 -1.545616474803880E-004
 -1.499840639346227E-004
 -1.453263247132178E-004
 -1.408136798606994E-004
 -1.365654206729914E-004
 -1.326433438660542E-004
 -1.290867061509989E-004
 -1.259368292202956E-004
 -1.232548083324885E-004
 -1.211349083702394E-004
 -1.197131536467021E-004
 -1.191788031732363E-004
 -1.646960421853113E-004
 -1.590657472293319E-004
 -1.521652630992074E-004
 -1.448822519131728E-004
 -1.377913498683648E-004
 -1.311753077556537E-004
 -1.251231106046451E-004
 -1.196262857116710E-004
 -1.146408700989510E-004
 -1.101195041258059E-004
 -1.060322737041920E-004
 -1.023862994326724E-004
 -9.923768777116165E-005
 -9.670291209288409E-005
 -9.496140333804513E-005
 -1.666445319564367E-004
 -1.554971056385336E-004
 -1.439658963445535E-004
 -1.331010040631649E-004
 -1.233776507233643E-004
 -1.148397908337857E-004
 -1.073429720223118E-004
 -1.007069461686098E-004
 -9.475901469413881E-005
 -8.934926091482914E-005
 -8.435881227304755E-005
 -7.971335910693680E-005
 -7.542079195129516E-005
 -7.155858439587506E-005
 -6.829650126077337E-005
 -1.685603770179239E-004
 -1.503389195179555E-004
 -1.332648288235423E-004
 -1.186198437073912E-004
 -1.064294373466882E-004
 -9.620550062634626E-005
 -8.749850147081489E-005
 -7.993411935251158E-005
 -7.320677073282803E-005
 -6.706123659101936E-005
 -6.127863692736277E-005
 -5.567465109483283E-005
 -5.012101905885759E-005
 -4.471318758468305E-005
 -3.951524513420436E-005
 -1.698687360063355E-004
 -1.417801399601462E-004
 -1.185633321224228E-004
 -1.007519476649431E-004
 -8.666515556757606E-005
 -7.522616034976573E-005
 -6.568478160829691E-005
 -5.750016439797309E-005
 -5.025644305381083E-005
 -4.360975328598508E-005
 -3.724991113843159E-005
 -3.086920745589614E-005
 -2.414496780450582E-005
 -1.675479888341109E-005
 -9.295662004932635E-006
 -1.662633411446509E-004
 -1.251449015389183E-004
 -9.848865241056772E-005
 -7.899403687607948E-005
 -6.397904206820201E-005
 -5.198239900472160E-005
 -4.208903839424125E-005
 -3.366423785259519E-005
 -2.622860059060644E-005
 -1.938485108150118E-005
 -1.276444493645606E-005
 -5.974602552926539E-006
  1.474341442815477E-006
  1.031845649843330E-005
  2.164129923794157E-005
SCALARS poroP double 
LOOKUP_TABLE default
  3.812625265577417E-007
  4.642132227784086E-007
  3.576802389862683E-007
  5.837215377217937E-007
  7.262479816294548E-007
  8.097873883753918E-007
  6.659619603521209E-007
  1.002700890643659E-006
  1.188157076802168E-006
  1.279994538377089E-006
  1.092716044732936E-006
  1.566417829650816E-006
  1.801983779610235E-006
  1.917420291060468E-006
  1.678244688886395E-006
  2.319105322579079E-006
  2.611916111049269E-006
  2.780931635672432E-006
  2.480629759745150E-006
  3.320261968845371E-006
  3.670657991078640E-006
  3.957421680936599E-006
  3.590043429830391E-006
  4.627404648421079E-006
  4.975133849478253E-006
  5.510929637655389E-006
  5.126381387417802E-006
  0.000000000000000E+000
  0.000000000000000E+000
  0.000000000000000E+000
  0.000000000000000E+000
  0.000000000000000E+000
  0.000000000000000E+000
  0.000000000000000E+000
  0.000000000000000E+000
  0.000000000000000E+000
  0.000000000000000E+000
  0.000000000000000E+000
  0.000000000000000E+000
  0.000000000000000E+000
  0.000000000000000E+000
  0.000000000000000E+000
  0.000000000000000E+000
  0.000000000000000E+000
  0.000000000000000E+000
  0.000000000000000E+000
  0.000000000000000E+000
  0.000000000000000E+000
  0.000000000000000E+000
  0.000000000000000E+000
  0.000000000000000E+000
  0.000000000000000E+000
  0.000000000000000E+000
  5.043953088544103E-008
  0.000000000000000E+000
  7.803873639574575E-008
  1.578793373738755E-007
  2.359231502621378E-007
  1.555085853654121E-007
  3.122982960402620E-007
  4.221263074553911E-007
  4.900857948792546E-007
  3.804919485569650E-007
  6.273017813865523E-007
  7.721250641063891E-007
  8.319501209151955E-007
  6.881363031537837E-007
  1.057909369125047E-006
  1.245510016143218E-006
  1.302917960454953E-006
  1.116543455355035E-006
  1.652137756189509E-006
  1.894579696440173E-006
  1.962089065462990E-006
  1.720170952217103E-006
  2.484589844376709E-006
  2.799980426835245E-006
  2.904972025170194E-006
  2.587403747668005E-006
  3.682208122941052E-006
  4.088173174679842E-006
  4.303244279162079E-006
  3.884352794114156E-006
  5.444580000019730E-006
  5.869499549403989E-006
  6.381395038372541E-006
  5.917055535058653E-006
  0.000000000000000E+000
  0.000000000000000E+000
  0.000000000000000E+000
  0.000000000000000E+000
  0.000000000000000E+000
  0.000000000000000E+000
  0.000000000000000E+000
  0.000000000000000E+000
  0.000000000000000E+000
  0.000000000000000E+000
  0.000000000000000E+000
  0.000000000000000E+000
  0.000000000000000E+000
  0.000000000000000E+000
  0.000000000000000E+000
  0.000000000000000E+000
  0.000000000000000E+000
  0.000000000000000E+000
  0.000000000000000E+000
  0.000000000000000E+000
  0.000000000000000E+000
  0.000000000000000E+000
  0.000000000000000E+000
  0.000000000000000E+000
  0.000000000000000E+000
  0.000000000000000E+000
  5.757290731843795E-008
  0.000000000000000E+000
  8.634271314781867E-008
  1.686186950150240E-007
  2.397730384293252E-007
  1.579440275336172E-007
  3.179531237091717E-007
  4.261102450159866E-007
  4.819052507827354E-007
  3.752756986910300E-007
  6.239584323058663E-007
  7.632192707506688E-007
  8.039819089905196E-007
  6.674117155258321E-007
  1.044159430913683E-006
  1.223561825943274E-006
  1.250984846196653E-006
  1.075331678470492E-006
  1.637705695721062E-006
  1.872684325574938E-006
  1.894590349505460E-006
  1.663855289313616E-006
  2.506568883671776E-006
  2.826614572330829E-006
  2.863214033312541E-006
  2.546563033399051E-006
  3.858126603241165E-006
  4.312418613917358E-006
  4.422842961969049E-006
  3.969510207493202E-006
  6.144492627119382E-006
  6.690554333273513E-006
  7.095845302053521E-006
  6.539675916732030E-006
  0.000000000000000E+000
  0.000000000000000E+000
  0.000000000000000E+000
  0.000000000000000E+000
  0.000000000000000E+000
  0.000000000000000E+000
  0.000000000000000E+000
  0.000000000000000E+000
  0.000000000000000E+000
  0.000000000000000E+000
  0.000000000000000E+000
  0.000000000000000E+000
  0.000000000000000E+000
  0.000000000000000E+000
  0.000000000000000E+000
  0.000000000000000E+000
  0.000000000000000E+000
  0.000000000000000E+000
  0.000000000000000E+000
  0.000000000000000E+000
  0.000000000000000E+000
  0.000000000000000E+000
  0.000000000000000E+000
  0.000000000000000E+000
  0.000000000000000E+000
  0.000000000000000E+000
  5.003803352449974E-008
  0.000000000000000E+000
  7.057306707123438E-008
  1.513736259912149E-007
  2.172224477187042E-007
  1.375392343921142E-007
  2.891876714035136E-007
  3.912977484789181E-007
  4.389944145906700E-007
  3.390661277629029E-007
  5.734920942377639E-007
  7.013174461013148E-007
  7.286414739285821E-007
  6.044213703910116E-007
  9.634073905583818E-007
  1.126468981308128E-006
  1.130916904836808E-006
  9.732117313993626E-007
  1.525455076788219E-006
  1.741622028766103E-006
  1.724093396750978E-006
  1.515180019557889E-006
  2.380448716102848E-006
  2.685709771882657E-006
  2.655937850084368E-006
  2.359710231003009E-006
  3.802772701146506E-006
  4.279661177938414E-006
  4.276399687547837E-006
  3.806441661618758E-006
  6.583378344706018E-006
  7.313966673944459E-006
  7.595603686744130E-006
  6.868766572117749E-006
  0.000000000000000E+000
  0.000000000000000E+000
  0.000000000000000E+000
  0.000000000000000E+000
  0.000000000000000E+000
  0.000000000000000E+000
  0.000000000000000E+000
  0.000000000000000E+000
  0.000000000000000E+000
  0.000000000000000E+000
  0.000000000000000E+000
  0.000000000000000E+000
  0.000000000000000E+000
  0.000000000000000E+000
  0.000000000000000E+000
  0.000000000000000E+000
  0.000000000000000E+000
  0.000000000000000E+000
  0.000000000000000E+000
  0.000000000000000E+000
  0.000000000000000E+000
  0.000000000000000E+000
  0.000000000000000E+000
  0.000000000000000E+000
  0.000000000000000E+000
  0.000000000000000E+000
  2.070229225325561E-008
  0.000000000000000E+000
  2.421729357356888E-008
  1.003343027081885E-007
  1.624542747788237E-007
  8.800534040315286E-008
  2.211248531459289E-007
  3.141362869343474E-007
  3.555987943088894E-007
  2.650265605515104E-007
  4.740803113781707E-007
  5.869869669254326E-007
  6.065051166364908E-007
  4.973022702641418E-007
  8.185213788879955E-007
  9.607280676203989E-007
  9.518729106647167E-007
  8.154501910627468E-007
  1.322505960377240E-006
  1.512240410032365E-006
  1.465987177312828E-006
  1.285611120482793E-006
  2.116004211318403E-006
  2.392445071666982E-006
  2.303847762286837E-006
  2.042128087842031E-006
  3.505071490397151E-006
  3.971067504604111E-006
  3.847519833978330E-006
  3.403061308233355E-006
  6.667247123417464E-006
  7.605540312825424E-006
  7.594284032070061E-006
  6.688518902558704E-006
  0.000000000000000E+000
  0.000000000000000E+000
  0.000000000000000E+000
  0.000000000000000E+000
  0.000000000000000E+000
  0.000000000000000E+000
  0.000000000000000E+000
  0.000000000000000E+000
  0.000000000000000E+000
  0.000000000000000E+000
  0.000000000000000E+000
  0.000000000000000E+000
  0.000000000000000E+000
  0.000000000000000E+000
  0.000000000000000E+000
  0.000000000000000E+000
  0.000000000000000E+000
  0.000000000000000E+000
  0.000000000000000E+000
  0.000000000000000E+000
  0.000000000000000E+000
  0.000000000000000E+000
  0.000000000000000E+000
  0.000000000000000E+000
  0.000000000000000E+000
  0.000000000000000E+000
  0.000000000000000E+000
  0.000000000000000E+000
  0.000000000000000E+000
  1.305548248607059E-008
  7.344631609003669E-008
  1.041634803463392E-008
  1.071402803549938E-007
  1.891784253665382E-007
  2.247788400074390E-007
  1.453267151635542E-007
  3.234451544166746E-007
  4.210272757893417E-007
  4.351777706633465E-007
  3.412101397098913E-007
  6.157518771188166E-007
  7.360190295798499E-007
  7.228956714532951E-007
  6.080518701140875E-007
  1.042219418960874E-006
  1.202153223958059E-006
  1.145708541558595E-006
  9.948606827033131E-007
  1.731557725037782E-006
  1.970619718439001E-006
  1.844854691518958E-006
  1.623608967962094E-006
  2.994140655776806E-006
  3.418989963339758E-006
  3.196486810488576E-006
  2.805430706444425E-006
  6.158963660590496E-006
  7.325905962744102E-006
  6.947034294732422E-006
  5.863292495709136E-006
  0.000000000000000E+000
  0.000000000000000E+000
  0.000000000000000E+000
  0.000000000000000E+000
  0.000000000000000E+000
  0.000000000000000E+000
  0.000000000000000E+000
  0.000000000000000E+000
  0.000000000000000E+000
  0.000000000000000E+000
  0.000000000000000E+000
  0.000000000000000E+000
  0.000000000000000E+000
  0.000000000000000E+000
  0.000000000000000E+000
  0.000000000000000E+000
  0.000000000000000E+000
  0.000000000000000E+000
  0.000000000000000E+000
  0.000000000000000E+000
  0.000000000000000E+000
  0.000000000000000E+000
  0.000000000000000E+000
  0.000000000000000E+000
  0.000000000000000E+000
  0.000000000000000E+000
  0.000000000000000E+000
  0.000000000000000E+000
  0.000000000000000E+000
  0.000000000000000E+000
  0.000000000000000E+000
  0.000000000000000E+000
  0.000000000000000E+000
  2.094395022111207E-008
  6.196659457359456E-008
  3.637995680574254E-009
  1.228251961957312E-007
  2.054303109226064E-007
  2.171956593762992E-007
  1.376374610254868E-007
  3.629975436030545E-007
  4.622627345162816E-007
  4.476636532983506E-007
  3.527948914585775E-007
  7.092710822652077E-007
  8.422251777432000E-007
  7.945352190174656E-007
  6.692724753114798E-007
  1.269830569360965E-006
  1.469655186082466E-006
  1.350127758953847E-006
  1.166597268545354E-006
  2.323220245409191E-006
  2.691725912009687E-006
  2.401069701641621E-006
  2.077586222464963E-006
  5.111775603059904E-006
  6.372995184631093E-006
  5.607015101297222E-006
  4.544722972590350E-006
  0.000000000000000E+000
  0.000000000000000E+000
  0.000000000000000E+000
  7.676421297992088E-010
  0.000000000000000E+000
  0.000000000000000E+000
  0.000000000000000E+000
  0.000000000000000E+000
  0.000000000000000E+000
  0.000000000000000E+000
  0.000000000000000E+000
  0.000000000000000E+000
  0.000000000000000E+000
  0.000000000000000E+000
  0.000000000000000E+000
  0.000000000000000E+000
  0.000000000000000E+000
  0.000000000000000E+000
  0.000000000000000E+000
  0.000000000000000E+000
  0.000000000000000E+000
  0.000000000000000E+000
  0.000000000000000E+000
  0.000000000000000E+000
  0.000000000000000E+000
  0.000000000000000E+000
  0.000000000000000E+000
  0.000000000000000E+000
  0.000000000000000E+000
  0.000000000000000E+000
  0.000000000000000E+000
  0.000000000000000E+000
  0.000000000000000E+000
  0.000000000000000E+000
  0.000000000000000E+000
  0.000000000000000E+000
  0.000000000000000E+000
  0.000000000000000E+000
  0.000000000000000E+000
  0.000000000000000E+000
  7.421314578685733E-008
  1.544802092455804E-007
  1.473755710319001E-007
  7.035614305375564E-008
  3.583183496143955E-007
  4.702673855203649E-007
  4.436513868841139E-007
  3.374966697243672E-007
  8.019573882455721E-007
  9.678717879137981E-007
  8.891059627888356E-007
  7.356746620907552E-007
  1.586766321111882E-006
  1.882207304279747E-006
  1.639366951472170E-006
  1.383419798128818E-006
  3.640720955470144E-006
  4.727007277453536E-006
  3.566938150639974E-006
  2.811855642902026E-006
  0.000000000000000E+000
   1.00000000000000     
  0.500000000000000     
SCALARS elementIsPlast double 
LOOKUP_TABLE default
  0.000000000000000E+000
  0.000000000000000E+000
  0.000000000000000E+000
  0.000000000000000E+000
  0.000000000000000E+000
  0.000000000000000E+000
  0.000000000000000E+000
  0.000000000000000E+000
  0.000000000000000E+000
  0.000000000000000E+000
  0.000000000000000E+000
  0.000000000000000E+000
  0.000000000000000E+000
  0.000000000000000E+000
  0.000000000000000E+000
  0.000000000000000E+000
  0.000000000000000E+000
  0.000000000000000E+000
  0.000000000000000E+000
  0.000000000000000E+000
  0.000000000000000E+000
  0.000000000000000E+000
  0.000000000000000E+000
  0.000000000000000E+000
  0.000000000000000E+000
  0.000000000000000E+000
  0.000000000000000E+000
  0.000000000000000E+000
  0.000000000000000E+000
  0.000000000000000E+000
  0.000000000000000E+000
  0.000000000000000E+000
  0.000000000000000E+000
  0.000000000000000E+000
  0.000000000000000E+000
  0.000000000000000E+000
  0.000000000000000E+000
  0.000000000000000E+000
  0.000000000000000E+000
  0.000000000000000E+000
  0.000000000000000E+000
  0.000000000000000E+000
  0.000000000000000E+000
  0.000000000000000E+000
  0.000000000000000E+000
  0.000000000000000E+000
  0.000000000000000E+000
  0.000000000000000E+000
  0.000000000000000E+000
  0.000000000000000E+000
  0.000000000000000E+000
  0.000000000000000E+000
  0.000000000000000E+000
  0.000000000000000E+000
  0.000000000000000E+000
  0.000000000000000E+000
  0.000000000000000E+000
  0.000000000000000E+000
  0.000000000000000E+000
  0.000000000000000E+000
  0.000000000000000E+000
  0.000000000000000E+000
  0.000000000000000E+000
  0.000000000000000E+000
  0.000000000000000E+000
  0.000000000000000E+000
  0.000000000000000E+000
  0.000000000000000E+000
  0.000000000000000E+000
  0.000000000000000E+000
  0.000000000000000E+000
  0.000000000000000E+000
  0.000000000000000E+000
  0.000000000000000E+000
  0.000000000000000E+000
  0.000000000000000E+000
  0.000000000000000E+000
  0.000000000000000E+000
  0.000000000000000E+000
  0.000000000000000E+000
  0.000000000000000E+000
  0.000000000000000E+000
  0.000000000000000E+000
  0.000000000000000E+000
  0.000000000000000E+000
  0.000000000000000E+000
  0.000000000000000E+000
  0.000000000000000E+000
  0.000000000000000E+000
  0.000000000000000E+000
  0.000000000000000E+000
  0.000000000000000E+000
  0.000000000000000E+000
  0.000000000000000E+000
  0.000000000000000E+000
  0.000000000000000E+000
  0.000000000000000E+000
  0.000000000000000E+000
  0.000000000000000E+000
  0.000000000000000E+000
  0.000000000000000E+000
  0.000000000000000E+000
  0.000000000000000E+000
  0.000000000000000E+000
  0.000000000000000E+000
  0.000000000000000E+000
  0.000000000000000E+000
  0.000000000000000E+000
  0.000000000000000E+000
  0.000000000000000E+000
  0.000000000000000E+000
  0.000000000000000E+000
  0.000000000000000E+000
  0.000000000000000E+000
  0.000000000000000E+000
  0.000000000000000E+000
  0.000000000000000E+000
  0.000000000000000E+000
  0.000000000000000E+000
  0.000000000000000E+000
  0.000000000000000E+000
  0.000000000000000E+000
  0.000000000000000E+000
  0.000000000000000E+000
  0.000000000000000E+000
  0.000000000000000E+000
  0.000000000000000E+000
  0.000000000000000E+000
  0.000000000000000E+000
  0.000000000000000E+000
  0.000000000000000E+000
  0.000000000000000E+000
  0.000000000000000E+000
  0.000000000000000E+000
  0.000000000000000E+000
  0.000000000000000E+000
  0.000000000000000E+000
  0.000000000000000E+000
  0.000000000000000E+000
  0.000000000000000E+000
  0.000000000000000E+000
  0.000000000000000E+000
  0.000000000000000E+000
  0.000000000000000E+000
  0.000000000000000E+000
  0.000000000000000E+000
  0.000000000000000E+000
  0.000000000000000E+000
  0.000000000000000E+000
  0.000000000000000E+000
  0.000000000000000E+000
  0.000000000000000E+000
  0.000000000000000E+000
  0.000000000000000E+000
  0.000000000000000E+000
  0.000000000000000E+000
  0.000000000000000E+000
  0.000000000000000E+000
  0.000000000000000E+000
  0.000000000000000E+000
  0.000000000000000E+000
  0.000000000000000E+000
  0.000000000000000E+000
  0.000000000000000E+000
  0.000000000000000E+000
  0.000000000000000E+000
  0.000000000000000E+000
  0.000000000000000E+000
  0.000000000000000E+000
  0.000000000000000E+000
  0.000000000000000E+000
  0.000000000000000E+000
  0.000000000000000E+000
  0.000000000000000E+000
  0.000000000000000E+000
  0.000000000000000E+000
  0.000000000000000E+000
  0.000000000000000E+000
  0.000000000000000E+000
  0.000000000000000E+000
  0.000000000000000E+000
  0.000000000000000E+000
  0.000000000000000E+000
  0.000000000000000E+000
  0.000000000000000E+000
  0.000000000000000E+000
  0.000000000000000E+000
  0.000000000000000E+000
  0.000000000000000E+000
  0.000000000000000E+000
  0.000000000000000E+000
  0.000000000000000E+000
  0.000000000000000E+000
  0.000000000000000E+000
  0.000000000000000E+000
  0.000000000000000E+000
  0.000000000000000E+000
  0.000000000000000E+000
  0.000000000000000E+000
  0.000000000000000E+000
  0.000000000000000E+000
  0.000000000000000E+000
  0.000000000000000E+000
  0.000000000000000E+000
  0.000000000000000E+000
  0.000000000000000E+000
  0.000000000000000E+000
  0.000000000000000E+000
  0.000000000000000E+000
  0.000000000000000E+000
  0.000000000000000E+000
  0.000000000000000E+000
  0.000000000000000E+000
  0.000000000000000E+000
  0.000000000000000E+000
  0.000000000000000E+000
  0.000000000000000E+000
  0.000000000000000E+000
  0.000000000000000E+000
  0.000000000000000E+000
  0.000000000000000E+000
  0.000000000000000E+000
  0.000000000000000E+000
  0.000000000000000E+000
  0.000000000000000E+000
  0.000000000000000E+000
  0.000000000000000E+000
  0.000000000000000E+000
  0.000000000000000E+000
  0.000000000000000E+000
  0.000000000000000E+000
  0.000000000000000E+000
  0.000000000000000E+000
  0.000000000000000E+000
  0.000000000000000E+000
  0.000000000000000E+000
  0.000000000000000E+000
  0.000000000000000E+000
  0.000000000000000E+000
  0.000000000000000E+000
  0.000000000000000E+000
  0.000000000000000E+000
  0.000000000000000E+000
  0.000000000000000E+000
  0.000000000000000E+000
  0.000000000000000E+000
  0.000000000000000E+000
  0.000000000000000E+000
  0.000000000000000E+000
  0.000000000000000E+000
  0.000000000000000E+000
  0.000000000000000E+000
  0.000000000000000E+000
  0.000000000000000E+000
  0.000000000000000E+000
  0.000000000000000E+000
  0.000000000000000E+000
  0.000000000000000E+000
  0.000000000000000E+000
  0.000000000000000E+000
  0.000000000000000E+000
  0.000000000000000E+000
  0.000000000000000E+000
  0.000000000000000E+000
  0.000000000000000E+000
  0.000000000000000E+000
  0.000000000000000E+000
  0.000000000000000E+000
  0.000000000000000E+000
  0.000000000000000E+000
  0.000000000000000E+000
  0.000000000000000E+000
  0.000000000000000E+000
  0.000000000000000E+000
  0.000000000000000E+000
  0.000000000000000E+000
  0.000000000000000E+000
  0.000000000000000E+000
  0.000000000000000E+000
  0.000000000000000E+000
  0.000000000000000E+000
  0.000000000000000E+000
  0.000000000000000E+000
  0.000000000000000E+000
  0.000000000000000E+000
  0.000000000000000E+000
  0.000000000000000E+000
  0.000000000000000E+000
  0.000000000000000E+000
  0.000000000000000E+000
  0.000000000000000E+000
  0.000000000000000E+000
  0.000000000000000E+000
  0.000000000000000E+000
  0.000000000000000E+000
  0.000000000000000E+000
  0.000000000000000E+000
  0.000000000000000E+000
  0.000000000000000E+000
  0.000000000000000E+000
  0.000000000000000E+000
  0.000000000000000E+000
  0.000000000000000E+000
  0.000000000000000E+000
  0.000000000000000E+000
  0.000000000000000E+000
  0.000000000000000E+000
  0.000000000000000E+000
  0.000000000000000E+000
  0.000000000000000E+000
  0.000000000000000E+000
  0.000000000000000E+000
  0.000000000000000E+000
  0.000000000000000E+000
  0.000000000000000E+000
  0.000000000000000E+000
  0.000000000000000E+000
  0.000000000000000E+000
  0.000000000000000E+000
  0.000000000000000E+000
  0.000000000000000E+000
  0.000000000000000E+000
  0.000000000000000E+000
  0.000000000000000E+000
  0.000000000000000E+000
  0.000000000000000E+000
  0.000000000000000E+000
  0.000000000000000E+000
  0.000000000000000E+000
  0.000000000000000E+000
  0.000000000000000E+000
  0.000000000000000E+000
  0.000000000000000E+000
  0.000000000000000E+000
  0.000000000000000E+000
  0.000000000000000E+000
  0.000000000000000E+000
  0.000000000000000E+000
  0.000000000000000E+000
  0.000000000000000E+000
  0.000000000000000E+000
  0.000000000000000E+000
  0.000000000000000E+000
  0.000000000000000E+000
  0.000000000000000E+000
  0.000000000000000E+000
  0.000000000000000E+000
  0.000000000000000E+000
  0.000000000000000E+000
  0.000000000000000E+000
  0.000000000000000E+000
  0.000000000000000E+000
  0.000000000000000E+000
  0.000000000000000E+000
  0.000000000000000E+000
  0.000000000000000E+000
  0.000000000000000E+000
  0.000000000000000E+000
  0.000000000000000E+000
  0.000000000000000E+000
  0.000000000000000E+000
  0.000000000000000E+000
  0.000000000000000E+000
  0.000000000000000E+000
  0.000000000000000E+000
  0.000000000000000E+000
  0.000000000000000E+000
  0.000000000000000E+000
  0.000000000000000E+000
  0.000000000000000E+000
  0.000000000000000E+000
  0.000000000000000E+000
  0.000000000000000E+000
  0.000000000000000E+000
  0.000000000000000E+000
  0.000000000000000E+000
  0.000000000000000E+000
  0.000000000000000E+000
  0.000000000000000E+000
  0.000000000000000E+000
  0.000000000000000E+000
  0.000000000000000E+000
  0.000000000000000E+000
  0.000000000000000E+000
  0.000000000000000E+000
  0.000000000000000E+000
  0.000000000000000E+000
  0.000000000000000E+000
  0.000000000000000E+000
  0.000000000000000E+000
  0.000000000000000E+000
  0.000000000000000E+000
  0.000000000000000E+000
  0.000000000000000E+000
  0.000000000000000E+000
  0.000000000000000E+000
  0.000000000000000E+000
  0.000000000000000E+000
  0.000000000000000E+000
  0.000000000000000E+000
  0.000000000000000E+000
  0.000000000000000E+000
  0.000000000000000E+000
  0.000000000000000E+000
  0.000000000000000E+000
  0.000000000000000E+000
  0.000000000000000E+000
  0.000000000000000E+000
  0.000000000000000E+000
  0.000000000000000E+000
  0.000000000000000E+000
  0.000000000000000E+000
  0.000000000000000E+000
  0.000000000000000E+000
  0.000000000000000E+000
  0.000000000000000E+000
  0.000000000000000E+000
  0.000000000000000E+000
  0.000000000000000E+000
  0.000000000000000E+000
  0.000000000000000E+000
  0.000000000000000E+000
  0.000000000000000E+000
  0.000000000000000E+000
  0.000000000000000E+000
  0.000000000000000E+000
  0.000000000000000E+000
  0.000000000000000E+000
  0.000000000000000E+000
  0.000000000000000E+000
  0.000000000000000E+000
  0.000000000000000E+000
  0.000000000000000E+000
  0.000000000000000E+000
  0.000000000000000E+000
  0.000000000000000E+000
  0.000000000000000E+000
  0.000000000000000E+000
  0.000000000000000E+000
  0.000000000000000E+000
  0.000000000000000E+000
  0.000000000000000E+000
  0.000000000000000E+000
  0.000000000000000E+000
  0.000000000000000E+000
  0.000000000000000E+000
  0.000000000000000E+000
  0.000000000000000E+000
  0.000000000000000E+000
  0.000000000000000E+000
SCALARS poroL double 
LOOKUP_TABLE default
  0.155992773891304     
  0.155989380830094     
  0.155986172484450     
  0.155983145455943     
  0.155980294856255     
  0.155977614589973     
  0.155975097633111     
  0.155972736301747     
  0.155970522505709     
  0.155968447982820     
  0.155966504509712     
  0.155964684085663     
  0.155962979086345     
  0.155961382384760     
  0.155959887437095     
  0.155992322502982     
  0.155988924419874     
  0.155985713302705     
  0.155982685418087     
  0.155979835555268     
  0.155977157313264     
  0.155974643383038     
  0.155972285819200     
  0.155970076296248     
  0.155968006344964     
  0.155966067565044     
  0.155964251810501     
  0.155962551344753     
  0.155960958962697     
  0.155959468077460     
  0.155991414083123     
  0.155988006597793     
  0.155984790543913     
  0.155981761515361     
  0.155978913654446     
  0.155976239947604     
  0.155973732514778     
  0.155971382887111     
  0.155969182268186     
  0.155967121774600     
  0.155965192652143     
  0.155963386464259     
  0.155961695249794     
  0.155960111647363     
  0.155958628983959     
  0.155990037455524     
  0.155986617470170     
  0.155983395525674     
  0.155980366199912     
  0.155977522659749     
  0.155974856969309     
  0.155972360389856     
  0.155970023666171     
  0.155967837294952     
  0.155965791771374     
  0.155963877810350     
  0.155962086539415     
  0.155960409660399     
  0.155958839577260     
  0.155957369487632     
  0.155988176132692     
  0.155984742471434     
  0.155981515495579     
  0.155978488415819     
  0.155975653089419     
  0.155973000344765     
  0.155970520294657     
  0.155968202633627     
  0.155966036915292     
  0.155964012806310     
  0.155962120313950     
  0.155960349984544     
  0.155958693070244     
  0.155957141661549     
  0.155955688783053     
  0.155985808651365     
  0.155982362696669     
  0.155979133958496     
  0.155976113919222     
  0.155973292785523     
  0.155970659832428     
  0.155968203732384     
  0.155965912865213     
  0.155963775605601     
  0.155961780585330     
  0.155959916927917     
  0.155958174453454     
  0.155956543851449     
  0.155955016819300     
  0.155953586163777     
  0.155982909025224     
  0.155979455349098     
  0.155976231115785     
  0.155973225706777     
  0.155970427329768     
  0.155967823384762     
  0.155965400810578     
  0.155963146408350     
  0.155961047139517     
  0.155959090396474     
  0.155957264244374     
  0.155955557632693     
  0.155953960574907     
  0.155952464294212     
  0.155951061332565     
  0.155979447318809     
  0.155975994305494     
  0.155972784418407     
  0.155969804553390     
  0.155967040563529     
  0.155964477649110     
  0.155962100722258     
  0.155959894743849     
  0.155957845031332     
  0.155955937536857     
  0.155954159095455     
  0.155952497642968     
  0.155950942402939     
  0.155949484040842     
  0.155948114782935     
  0.155975390347026     
  0.155971950802645     
  0.155968769235832     
  0.155965829659871     
  0.155963115211555     
  0.155960608565770     
  0.155958292317807     
  0.155956149332225     
  0.155954163058407     
  0.155952317813841     
  0.155950599036624     
  0.155948993508420     
  0.155947489548349     
  0.155946077176918     
  0.155944748247401     
  0.155970702504483     
  0.155967294247706     
  0.155964159642170     
  0.155961279410602     
  0.155958633608008     
  0.155956202060520     
  0.155953964763495     
  0.155951902239187     
  0.155949995856061     
  0.155948228113038     
  0.155946582892514     
  0.155945045685625     
  0.155943603792046     
  0.155942246494585     
  0.155940965206318     
  0.155965346728251     
  0.155961993154541     
  0.155958929320204     
  0.155956132240383     
  0.155953578522475     
  0.155951244827624     
  0.155949108281023     
  0.155947146833131     
  0.155945339576338     
  0.155943667023414     
  0.155942111354851     
  0.155940656641722     
  0.155939289048976     
  0.155937997021237     
  0.155936771449466     
  0.155959285596262     
  0.155956016206874     
  0.155953052582772     
  0.155950367608474     
  0.155947934082344     
  0.155945725197878     
  0.155943714960681     
  0.155941878545280     
  0.155940192599513     
  0.155938635506954     
  0.155937187619026     
  0.155935831467926     
  0.155934551969089     
  0.155933336617913     
  0.155932175680261     
  0.155952482561499     
  0.155949333447297     
  0.155946505509492     
  0.155943967076538     
  0.155941686786583     
  0.155939634084698     
  0.155937779638795     
  0.155936095680694     
  0.155934556284289     
  0.155933137596925     
  0.155931818042086     
  0.155930578510850     
  0.155929402556329     
  0.155928276599768     
  0.155927190149663     
  0.155944903319089     
  0.155941917588903     
  0.155939267195197     
  0.155936915485977     
  0.155934826604839     
  0.155932965999834     
  0.155931300828150     
  0.155929800265677     
  0.155928435739115     
  0.155927181104641     
  0.155926012800384     
  0.155924909999206     
  0.155923854783855     
  0.155922832358826     
  0.155921831303176     
  0.155936517299451     
  0.155933745443707     
  0.155931321105004     
  0.155929202229432     
  0.155927348155178     
  0.155925720129309     
  0.155924281688249     
  0.155922998914215     
  0.155921840593159     
  0.155920778309708     
  0.155919786519373     
  0.155918842637448     
  0.155917927177755     
  0.155917023963644     
  0.155916120419698     
  0.155927299275570     
  0.155924799459390     
  0.155922656530334     
  0.155920822611752     
  0.155919251954516     
  0.155917901460188     
  0.155916731021007     
  0.155915703693179     
  0.155914785740806     
  0.155913946602673     
  0.155913158841063     
  0.155912398130314     
  0.155911643333877     
  0.155910876703497     
  0.155910084214867     
  0.155917231066433     
  0.155915069353979     
  0.155913270141395     
  0.155911779298593     
  0.155910545738674     
  0.155909521950472     
  0.155908664276976     
  0.155907932963078     
  0.155907292028271     
  0.155906709041648     
  0.155906154885726     
  0.155905603592613     
  0.155905032322814     
  0.155904421535684     
  0.155903755373835     
  0.155906303311880     
  0.155904553838129     
  0.155903167636623     
  0.155902083857979     
  0.155901245855813     
  0.155900601738747     
  0.155900104558148     
  0.155899712168277     
  0.155899386844498     
  0.155899094775174     
  0.155898805553169     
  0.155898491786221     
  0.155898128925648     
  0.155897695383143     
  0.155897172968582     
  0.155894517287568     
  0.155893262419210     
  0.155892365501401     
  0.155891758414563     
  0.155891378749608     
  0.155891170398436     
  0.155891083605848     
  0.155891074547478     
  0.155891104570515     
  0.155891139271712     
  0.155891147594223     
  0.155891101110233     
  0.155890973627178     
  0.155890741215125     
  0.155890382702871     
  0.155881886724414     
  0.155881217295154     
  0.155880892912785     
  0.155880837462748     
  0.155880982570196     
  0.155881268254517     
  0.155881642766151     
  0.155882061731221     
  0.155882486831012     
  0.155882884280705     
  0.155883223363913     
  0.155883475248904     
  0.155883612272234     
  0.155883607825188     
  0.155883436913595     
  0.155868439599125     
  0.155868455378012     
  0.155868793874052     
  0.155869369931090     
  0.155870108984974     
  0.155870947798632     
  0.155871833928907     
  0.155872724186416     
  0.155873582477931     
  0.155874377430341     
  0.155875080142661     
  0.155875662353304     
  0.155876095261801     
  0.155876349196452     
  0.155876394240834     
  0.155854219880373     
  0.155855030555437     
  0.155856129751391     
  0.155857421668494     
  0.155858825311158     
  0.155860275257919     
  0.155861720434588     
  0.155863121455206     
  0.155864447218008     
  0.155865671343494     
  0.155866768880063     
  0.155867713592338     
  0.155868476123431     
  0.155869023309217     
  0.155869318860342     
  0.155839289267383     
  0.155841016441063     
  0.155842982551661     
  0.155845078652301     
  0.155847217155884     
  0.155849332380487     
  0.155851377922319     
  0.155853322111314     
  0.155855142776436     
  0.155856822131892     
  0.155858342177861     
  0.155859680851791     
  0.155860809221281     
  0.155861690190244     
  0.155862279148852     
  0.155823729089343     
  0.155826510165922     
  0.155829459601665     
  0.155832451425974     
  0.155835391808152     
  0.155838218457032     
  0.155840895023285     
  0.155843403313545     
  0.155845735482124     
  0.155847887124606     
  0.155849851299521     
  0.155851613269302     
  0.155853146252838     
  0.155854408891328     
  0.155855345618700     
  0.155807642839196     
  0.155811638448620     
  0.155815700921030     
  0.155819681586926     
  0.155823482599010     
  0.155827052402331     
  0.155830373630910     
  0.155833449774892     
  0.155836294192166     
  0.155838921771647     
  0.155841341977705     
  0.155843552189013     
  0.155845530907986     
  0.155847232871418     
  0.155848587861806     
  0.155791160705285     
  0.155796568777068     
  0.155801891917109     
  0.155806951483877     
  0.155811654039254     
  0.155815974178409     
  0.155819928117800     
  0.155823551902580     
  0.155826887667523     
  0.155829975853205     
  0.155832849051347     
  0.155835523794967     
  0.155837990707366     
  0.155840202527869     
  0.155842070114816     
  0.155774449588526     
  0.155781533330371     
  0.155788286538470     
  0.155794497983966     
  0.155800106032882     
  0.155805143466697     
  0.155809682519261     
  0.155813802864228     
  0.155817581736704     
  0.155821090112282     
  0.155824390023424     
  0.155827529427267     
  0.155830522871031     
  0.155833332987419     
  0.155835843746514     
  0.155757744935785     
  0.155766885035568     
  0.155775250789968     
  0.155782627149973     
  0.155789069465494     
  0.155794732896862     
  0.155799764497107     
  0.155804294464922     
  0.155808436991315     
  0.155812294658690     
  0.155815962641831     
  0.155819529696303     
  0.155823074658945     
  0.155826584415845     
  0.155829936790623     
  0.155741450658592     
  0.155753263220432     
  0.155763329013247     
  0.155771692877893     
  0.155778787360235     
  0.155784912882288     
  0.155790295716229     
  0.155795112043423     
  0.155799507578267     
  0.155803611532580     
  0.155807548532549     
  0.155811451659268     
  0.155815473709924     
  0.155819828502975     
  0.155824301362619     
  0.155726898956394     
  0.155741973476131     
  0.155753105892949     
  0.155762039048916     
  0.155769475043228     
  0.155775829626070     
  0.155781379653254     
  0.155786329031769     
  0.155790841407362     
  0.155795060966191     
  0.155799129856750     
  0.155803208949341     
  0.155807516035318     
  0.155812404860535     
  0.155818896981578     
