# vtk DataFile Version 3.0
vtk output
ASCII
DATASET UNSTRUCTURED_GRID
POINTS       496 double 
  0.00000000E+00  3.00000000E+02  0.00000000E+00
  0.00000000E+00  2.80000000E+02  0.00000000E+00
  0.00000000E+00  2.60000000E+02  0.00000000E+00
  0.00000000E+00  2.40000000E+02  0.00000000E+00
  0.00000000E+00  2.20000000E+02  0.00000000E+00
  0.00000000E+00  2.00000000E+02  0.00000000E+00
  0.00000000E+00  1.80000000E+02  0.00000000E+00
  0.00000000E+00  1.60000000E+02  0.00000000E+00
  0.00000000E+00  1.40000000E+02  0.00000000E+00
  0.00000000E+00  1.20000000E+02  0.00000000E+00
  0.00000000E+00  1.00000000E+02  0.00000000E+00
  0.00000000E+00  8.00000000E+01  0.00000000E+00
  0.00000000E+00  6.00000000E+01  0.00000000E+00
  0.00000000E+00  4.00000000E+01  0.00000000E+00
  0.00000000E+00  2.00000000E+01  0.00000000E+00
  0.00000000E+00  4.99600361E-14  0.00000000E+00
  2.00000000E+01  3.00000000E+02  0.00000000E+00
  2.00000000E+01  2.80000000E+02  0.00000000E+00
  2.00000000E+01  2.60000000E+02  0.00000000E+00
  2.00000000E+01  2.40000000E+02  0.00000000E+00
  2.00000000E+01  2.20000000E+02  0.00000000E+00
  2.00000000E+01  2.00000000E+02  0.00000000E+00
  2.00000000E+01  1.80000000E+02  0.00000000E+00
  2.00000000E+01  1.60000000E+02  0.00000000E+00
  2.00000000E+01  1.40000000E+02  0.00000000E+00
  2.00000000E+01  1.20000000E+02  0.00000000E+00
  2.00000000E+01  1.00000000E+02  0.00000000E+00
  2.00000000E+01  8.00000000E+01  0.00000000E+00
  2.00000000E+01  6.00000000E+01  0.00000000E+00
  2.00000000E+01  4.00000000E+01  0.00000000E+00
  2.00000000E+01  2.00000000E+01  0.00000000E+00
  2.00000000E+01  4.99600361E-14  0.00000000E+00
  4.00000000E+01  3.00000000E+02  0.00000000E+00
  4.00000000E+01  2.80000000E+02  0.00000000E+00
  4.00000000E+01  2.60000000E+02  0.00000000E+00
  4.00000000E+01  2.40000000E+02  0.00000000E+00
  4.00000000E+01  2.20000000E+02  0.00000000E+00
  4.00000000E+01  2.00000000E+02  0.00000000E+00
  4.00000000E+01  1.80000000E+02  0.00000000E+00
  4.00000000E+01  1.60000000E+02  0.00000000E+00
  4.00000000E+01  1.40000000E+02  0.00000000E+00
  4.00000000E+01  1.20000000E+02  0.00000000E+00
  4.00000000E+01  1.00000000E+02  0.00000000E+00
  4.00000000E+01  8.00000000E+01  0.00000000E+00
  4.00000000E+01  6.00000000E+01  0.00000000E+00
  4.00000000E+01  4.00000000E+01  0.00000000E+00
  4.00000000E+01  2.00000000E+01  0.00000000E+00
  4.00000000E+01  4.99600361E-14  0.00000000E+00
  6.00000000E+01  3.00000000E+02  0.00000000E+00
  6.00000000E+01  2.80000000E+02  0.00000000E+00
  6.00000000E+01  2.60000000E+02  0.00000000E+00
  6.00000000E+01  2.40000000E+02  0.00000000E+00
  6.00000000E+01  2.20000000E+02  0.00000000E+00
  6.00000000E+01  2.00000000E+02  0.00000000E+00
  6.00000000E+01  1.80000000E+02  0.00000000E+00
  6.00000000E+01  1.60000000E+02  0.00000000E+00
  6.00000000E+01  1.40000000E+02  0.00000000E+00
  6.00000000E+01  1.20000000E+02  0.00000000E+00
  6.00000000E+01  1.00000000E+02  0.00000000E+00
  6.00000000E+01  8.00000000E+01  0.00000000E+00
  6.00000000E+01  6.00000000E+01  0.00000000E+00
  6.00000000E+01  4.00000000E+01  0.00000000E+00
  6.00000000E+01  2.00000000E+01  0.00000000E+00
  6.00000000E+01  4.99600361E-14  0.00000000E+00
  8.00000000E+01  3.00000000E+02  0.00000000E+00
  8.00000000E+01  2.80000000E+02  0.00000000E+00
  8.00000000E+01  2.60000000E+02  0.00000000E+00
  8.00000000E+01  2.40000000E+02  0.00000000E+00
  8.00000000E+01  2.20000000E+02  0.00000000E+00
  8.00000000E+01  2.00000000E+02  0.00000000E+00
  8.00000000E+01  1.80000000E+02  0.00000000E+00
  8.00000000E+01  1.60000000E+02  0.00000000E+00
  8.00000000E+01  1.40000000E+02  0.00000000E+00
  8.00000000E+01  1.20000000E+02  0.00000000E+00
  8.00000000E+01  1.00000000E+02  0.00000000E+00
  8.00000000E+01  8.00000000E+01  0.00000000E+00
  8.00000000E+01  6.00000000E+01  0.00000000E+00
  8.00000000E+01  4.00000000E+01  0.00000000E+00
  8.00000000E+01  2.00000000E+01  0.00000000E+00
  8.00000000E+01  4.99600361E-14  0.00000000E+00
  1.00000000E+02  3.00000000E+02  0.00000000E+00
  1.00000000E+02  2.80000000E+02  0.00000000E+00
  1.00000000E+02  2.60000000E+02  0.00000000E+00
  1.00000000E+02  2.40000000E+02  0.00000000E+00
  1.00000000E+02  2.20000000E+02  0.00000000E+00
  1.00000000E+02  2.00000000E+02  0.00000000E+00
  1.00000000E+02  1.80000000E+02  0.00000000E+00
  1.00000000E+02  1.60000000E+02  0.00000000E+00
  1.00000000E+02  1.40000000E+02  0.00000000E+00
  1.00000000E+02  1.20000000E+02  0.00000000E+00
  1.00000000E+02  1.00000000E+02  0.00000000E+00
  1.00000000E+02  8.00000000E+01  0.00000000E+00
  1.00000000E+02  6.00000000E+01  0.00000000E+00
  1.00000000E+02  4.00000000E+01  0.00000000E+00
  1.00000000E+02  2.00000000E+01  0.00000000E+00
  1.00000000E+02  4.99600361E-14  0.00000000E+00
  1.20000000E+02  3.00000000E+02  0.00000000E+00
  1.20000000E+02  2.80000000E+02  0.00000000E+00
  1.20000000E+02  2.60000000E+02  0.00000000E+00
  1.20000000E+02  2.40000000E+02  0.00000000E+00
  1.20000000E+02  2.20000000E+02  0.00000000E+00
  1.20000000E+02  2.00000000E+02  0.00000000E+00
  1.20000000E+02  1.80000000E+02  0.00000000E+00
  1.20000000E+02  1.60000000E+02  0.00000000E+00
  1.20000000E+02  1.40000000E+02  0.00000000E+00
  1.20000000E+02  1.20000000E+02  0.00000000E+00
  1.20000000E+02  1.00000000E+02  0.00000000E+00
  1.20000000E+02  8.00000000E+01  0.00000000E+00
  1.20000000E+02  6.00000000E+01  0.00000000E+00
  1.20000000E+02  4.00000000E+01  0.00000000E+00
  1.20000000E+02  2.00000000E+01  0.00000000E+00
  1.20000000E+02  4.99600361E-14  0.00000000E+00
  1.40000000E+02  3.00000000E+02  0.00000000E+00
  1.40000000E+02  2.80000000E+02  0.00000000E+00
  1.40000000E+02  2.60000000E+02  0.00000000E+00
  1.40000000E+02  2.40000000E+02  0.00000000E+00
  1.40000000E+02  2.20000000E+02  0.00000000E+00
  1.40000000E+02  2.00000000E+02  0.00000000E+00
  1.40000000E+02  1.80000000E+02  0.00000000E+00
  1.40000000E+02  1.60000000E+02  0.00000000E+00
  1.40000000E+02  1.40000000E+02  0.00000000E+00
  1.40000000E+02  1.20000000E+02  0.00000000E+00
  1.40000000E+02  1.00000000E+02  0.00000000E+00
  1.40000000E+02  8.00000000E+01  0.00000000E+00
  1.40000000E+02  6.00000000E+01  0.00000000E+00
  1.40000000E+02  4.00000000E+01  0.00000000E+00
  1.40000000E+02  2.00000000E+01  0.00000000E+00
  1.40000000E+02  4.99600361E-14  0.00000000E+00
  1.60000000E+02  3.00000000E+02  0.00000000E+00
  1.60000000E+02  2.80000000E+02  0.00000000E+00
  1.60000000E+02  2.60000000E+02  0.00000000E+00
  1.60000000E+02  2.40000000E+02  0.00000000E+00
  1.60000000E+02  2.20000000E+02  0.00000000E+00
  1.60000000E+02  2.00000000E+02  0.00000000E+00
  1.60000000E+02  1.80000000E+02  0.00000000E+00
  1.60000000E+02  1.60000000E+02  0.00000000E+00
  1.60000000E+02  1.40000000E+02  0.00000000E+00
  1.60000000E+02  1.20000000E+02  0.00000000E+00
  1.60000000E+02  1.00000000E+02  0.00000000E+00
  1.60000000E+02  8.00000000E+01  0.00000000E+00
  1.60000000E+02  6.00000000E+01  0.00000000E+00
  1.60000000E+02  4.00000000E+01  0.00000000E+00
  1.60000000E+02  2.00000000E+01  0.00000000E+00
  1.60000000E+02  4.99600361E-14  0.00000000E+00
  1.80000000E+02  3.00000000E+02  0.00000000E+00
  1.80000000E+02  2.80000000E+02  0.00000000E+00
  1.80000000E+02  2.60000000E+02  0.00000000E+00
  1.80000000E+02  2.40000000E+02  0.00000000E+00
  1.80000000E+02  2.20000000E+02  0.00000000E+00
  1.80000000E+02  2.00000000E+02  0.00000000E+00
  1.80000000E+02  1.80000000E+02  0.00000000E+00
  1.80000000E+02  1.60000000E+02  0.00000000E+00
  1.80000000E+02  1.40000000E+02  0.00000000E+00
  1.80000000E+02  1.20000000E+02  0.00000000E+00
  1.80000000E+02  1.00000000E+02  0.00000000E+00
  1.80000000E+02  8.00000000E+01  0.00000000E+00
  1.80000000E+02  6.00000000E+01  0.00000000E+00
  1.80000000E+02  4.00000000E+01  0.00000000E+00
  1.80000000E+02  2.00000000E+01  0.00000000E+00
  1.80000000E+02  4.99600361E-14  0.00000000E+00
  2.00000000E+02  3.00000000E+02  0.00000000E+00
  2.00000000E+02  2.80000000E+02  0.00000000E+00
  2.00000000E+02  2.60000000E+02  0.00000000E+00
  2.00000000E+02  2.40000000E+02  0.00000000E+00
  2.00000000E+02  2.20000000E+02  0.00000000E+00
  2.00000000E+02  2.00000000E+02  0.00000000E+00
  2.00000000E+02  1.80000000E+02  0.00000000E+00
  2.00000000E+02  1.60000000E+02  0.00000000E+00
  2.00000000E+02  1.40000000E+02  0.00000000E+00
  2.00000000E+02  1.20000000E+02  0.00000000E+00
  2.00000000E+02  1.00000000E+02  0.00000000E+00
  2.00000000E+02  8.00000000E+01  0.00000000E+00
  2.00000000E+02  6.00000000E+01  0.00000000E+00
  2.00000000E+02  4.00000000E+01  0.00000000E+00
  2.00000000E+02  2.00000000E+01  0.00000000E+00
  2.00000000E+02  4.99600361E-14  0.00000000E+00
  2.20000000E+02  3.00000000E+02  0.00000000E+00
  2.20000000E+02  2.80000000E+02  0.00000000E+00
  2.20000000E+02  2.60000000E+02  0.00000000E+00
  2.20000000E+02  2.40000000E+02  0.00000000E+00
  2.20000000E+02  2.20000000E+02  0.00000000E+00
  2.20000000E+02  2.00000000E+02  0.00000000E+00
  2.20000000E+02  1.80000000E+02  0.00000000E+00
  2.20000000E+02  1.60000000E+02  0.00000000E+00
  2.20000000E+02  1.40000000E+02  0.00000000E+00
  2.20000000E+02  1.20000000E+02  0.00000000E+00
  2.20000000E+02  1.00000000E+02  0.00000000E+00
  2.20000000E+02  8.00000000E+01  0.00000000E+00
  2.20000000E+02  6.00000000E+01  0.00000000E+00
  2.20000000E+02  4.00000000E+01  0.00000000E+00
  2.20000000E+02  2.00000000E+01  0.00000000E+00
  2.20000000E+02  4.99600361E-14  0.00000000E+00
  2.40000000E+02  3.00000000E+02  0.00000000E+00
  2.40000000E+02  2.80000000E+02  0.00000000E+00
  2.40000000E+02  2.60000000E+02  0.00000000E+00
  2.40000000E+02  2.40000000E+02  0.00000000E+00
  2.40000000E+02  2.20000000E+02  0.00000000E+00
  2.40000000E+02  2.00000000E+02  0.00000000E+00
  2.40000000E+02  1.80000000E+02  0.00000000E+00
  2.40000000E+02  1.60000000E+02  0.00000000E+00
  2.40000000E+02  1.40000000E+02  0.00000000E+00
  2.40000000E+02  1.20000000E+02  0.00000000E+00
  2.40000000E+02  1.00000000E+02  0.00000000E+00
  2.40000000E+02  8.00000000E+01  0.00000000E+00
  2.40000000E+02  6.00000000E+01  0.00000000E+00
  2.40000000E+02  4.00000000E+01  0.00000000E+00
  2.40000000E+02  2.00000000E+01  0.00000000E+00
  2.40000000E+02  4.99600361E-14  0.00000000E+00
  2.60000000E+02  3.00000000E+02  0.00000000E+00
  2.60000000E+02  2.80000000E+02  0.00000000E+00
  2.60000000E+02  2.60000000E+02  0.00000000E+00
  2.60000000E+02  2.40000000E+02  0.00000000E+00
  2.60000000E+02  2.20000000E+02  0.00000000E+00
  2.60000000E+02  2.00000000E+02  0.00000000E+00
  2.60000000E+02  1.80000000E+02  0.00000000E+00
  2.60000000E+02  1.60000000E+02  0.00000000E+00
  2.60000000E+02  1.40000000E+02  0.00000000E+00
  2.60000000E+02  1.20000000E+02  0.00000000E+00
  2.60000000E+02  1.00000000E+02  0.00000000E+00
  2.60000000E+02  8.00000000E+01  0.00000000E+00
  2.60000000E+02  6.00000000E+01  0.00000000E+00
  2.60000000E+02  4.00000000E+01  0.00000000E+00
  2.60000000E+02  2.00000000E+01  0.00000000E+00
  2.60000000E+02  4.99600361E-14  0.00000000E+00
  2.80000000E+02  3.00000000E+02  0.00000000E+00
  2.80000000E+02  2.80000000E+02  0.00000000E+00
  2.80000000E+02  2.60000000E+02  0.00000000E+00
  2.80000000E+02  2.40000000E+02  0.00000000E+00
  2.80000000E+02  2.20000000E+02  0.00000000E+00
  2.80000000E+02  2.00000000E+02  0.00000000E+00
  2.80000000E+02  1.80000000E+02  0.00000000E+00
  2.80000000E+02  1.60000000E+02  0.00000000E+00
  2.80000000E+02  1.40000000E+02  0.00000000E+00
  2.80000000E+02  1.20000000E+02  0.00000000E+00
  2.80000000E+02  1.00000000E+02  0.00000000E+00
  2.80000000E+02  8.00000000E+01  0.00000000E+00
  2.80000000E+02  6.00000000E+01  0.00000000E+00
  2.80000000E+02  4.00000000E+01  0.00000000E+00
  2.80000000E+02  2.00000000E+01  0.00000000E+00
  2.80000000E+02  4.99600361E-14  0.00000000E+00
  3.00000000E+02  3.00000000E+02  0.00000000E+00
  3.00000000E+02  2.80000000E+02  0.00000000E+00
  3.00000000E+02  2.60000000E+02  0.00000000E+00
  3.00000000E+02  2.40000000E+02  0.00000000E+00
  3.00000000E+02  2.20000000E+02  0.00000000E+00
  3.00000000E+02  2.00000000E+02  0.00000000E+00
  3.00000000E+02  1.80000000E+02  0.00000000E+00
  3.00000000E+02  1.60000000E+02  0.00000000E+00
  3.00000000E+02  1.40000000E+02  0.00000000E+00
  3.00000000E+02  1.20000000E+02  0.00000000E+00
  3.00000000E+02  1.00000000E+02  0.00000000E+00
  3.00000000E+02  8.00000000E+01  0.00000000E+00
  3.00000000E+02  6.00000000E+01  0.00000000E+00
  3.00000000E+02  4.00000000E+01  0.00000000E+00
  3.00000000E+02  2.00000000E+01  0.00000000E+00
  3.00000000E+02  4.99600361E-14  0.00000000E+00
  3.20000000E+02  3.00000000E+02  0.00000000E+00
  3.20000000E+02  2.80000000E+02  0.00000000E+00
  3.20000000E+02  2.60000000E+02  0.00000000E+00
  3.20000000E+02  2.40000000E+02  0.00000000E+00
  3.20000000E+02  2.20000000E+02  0.00000000E+00
  3.20000000E+02  2.00000000E+02  0.00000000E+00
  3.20000000E+02  1.80000000E+02  0.00000000E+00
  3.20000000E+02  1.60000000E+02  0.00000000E+00
  3.20000000E+02  1.40000000E+02  0.00000000E+00
  3.20000000E+02  1.20000000E+02  0.00000000E+00
  3.20000000E+02  1.00000000E+02  0.00000000E+00
  3.20000000E+02  8.00000000E+01  0.00000000E+00
  3.20000000E+02  6.00000000E+01  0.00000000E+00
  3.20000000E+02  4.00000000E+01  0.00000000E+00
  3.20000000E+02  2.00000000E+01  0.00000000E+00
  3.20000000E+02  4.99600361E-14  0.00000000E+00
  3.40000000E+02  3.00000000E+02  0.00000000E+00
  3.40000000E+02  2.80000000E+02  0.00000000E+00
  3.40000000E+02  2.60000000E+02  0.00000000E+00
  3.40000000E+02  2.40000000E+02  0.00000000E+00
  3.40000000E+02  2.20000000E+02  0.00000000E+00
  3.40000000E+02  2.00000000E+02  0.00000000E+00
  3.40000000E+02  1.80000000E+02  0.00000000E+00
  3.40000000E+02  1.60000000E+02  0.00000000E+00
  3.40000000E+02  1.40000000E+02  0.00000000E+00
  3.40000000E+02  1.20000000E+02  0.00000000E+00
  3.40000000E+02  1.00000000E+02  0.00000000E+00
  3.40000000E+02  8.00000000E+01  0.00000000E+00
  3.40000000E+02  6.00000000E+01  0.00000000E+00
  3.40000000E+02  4.00000000E+01  0.00000000E+00
  3.40000000E+02  2.00000000E+01  0.00000000E+00
  3.40000000E+02  4.99600361E-14  0.00000000E+00
  3.60000000E+02  3.00000000E+02  0.00000000E+00
  3.60000000E+02  2.80000000E+02  0.00000000E+00
  3.60000000E+02  2.60000000E+02  0.00000000E+00
  3.60000000E+02  2.40000000E+02  0.00000000E+00
  3.60000000E+02  2.20000000E+02  0.00000000E+00
  3.60000000E+02  2.00000000E+02  0.00000000E+00
  3.60000000E+02  1.80000000E+02  0.00000000E+00
  3.60000000E+02  1.60000000E+02  0.00000000E+00
  3.60000000E+02  1.40000000E+02  0.00000000E+00
  3.60000000E+02  1.20000000E+02  0.00000000E+00
  3.60000000E+02  1.00000000E+02  0.00000000E+00
  3.60000000E+02  8.00000000E+01  0.00000000E+00
  3.60000000E+02  6.00000000E+01  0.00000000E+00
  3.60000000E+02  4.00000000E+01  0.00000000E+00
  3.60000000E+02  2.00000000E+01  0.00000000E+00
  3.60000000E+02  4.99600361E-14  0.00000000E+00
  3.80000000E+02  3.00000000E+02  0.00000000E+00
  3.80000000E+02  2.80000000E+02  0.00000000E+00
  3.80000000E+02  2.60000000E+02  0.00000000E+00
  3.80000000E+02  2.40000000E+02  0.00000000E+00
  3.80000000E+02  2.20000000E+02  0.00000000E+00
  3.80000000E+02  2.00000000E+02  0.00000000E+00
  3.80000000E+02  1.80000000E+02  0.00000000E+00
  3.80000000E+02  1.60000000E+02  0.00000000E+00
  3.80000000E+02  1.40000000E+02  0.00000000E+00
  3.80000000E+02  1.20000000E+02  0.00000000E+00
  3.80000000E+02  1.00000000E+02  0.00000000E+00
  3.80000000E+02  8.00000000E+01  0.00000000E+00
  3.80000000E+02  6.00000000E+01  0.00000000E+00
  3.80000000E+02  4.00000000E+01  0.00000000E+00
  3.80000000E+02  2.00000000E+01  0.00000000E+00
  3.80000000E+02  4.99600361E-14  0.00000000E+00
  4.00000000E+02  3.00000000E+02  0.00000000E+00
  4.00000000E+02  2.80000000E+02  0.00000000E+00
  4.00000000E+02  2.60000000E+02  0.00000000E+00
  4.00000000E+02  2.40000000E+02  0.00000000E+00
  4.00000000E+02  2.20000000E+02  0.00000000E+00
  4.00000000E+02  2.00000000E+02  0.00000000E+00
  4.00000000E+02  1.80000000E+02  0.00000000E+00
  4.00000000E+02  1.60000000E+02  0.00000000E+00
  4.00000000E+02  1.40000000E+02  0.00000000E+00
  4.00000000E+02  1.20000000E+02  0.00000000E+00
  4.00000000E+02  1.00000000E+02  0.00000000E+00
  4.00000000E+02  8.00000000E+01  0.00000000E+00
  4.00000000E+02  6.00000000E+01  0.00000000E+00
  4.00000000E+02  4.00000000E+01  0.00000000E+00
  4.00000000E+02  2.00000000E+01  0.00000000E+00
  4.00000000E+02  4.99600361E-14  0.00000000E+00
  4.20000000E+02  3.00000000E+02  0.00000000E+00
  4.20000000E+02  2.80000000E+02  0.00000000E+00
  4.20000000E+02  2.60000000E+02  0.00000000E+00
  4.20000000E+02  2.40000000E+02  0.00000000E+00
  4.20000000E+02  2.20000000E+02  0.00000000E+00
  4.20000000E+02  2.00000000E+02  0.00000000E+00
  4.20000000E+02  1.80000000E+02  0.00000000E+00
  4.20000000E+02  1.60000000E+02  0.00000000E+00
  4.20000000E+02  1.40000000E+02  0.00000000E+00
  4.20000000E+02  1.20000000E+02  0.00000000E+00
  4.20000000E+02  1.00000000E+02  0.00000000E+00
  4.20000000E+02  8.00000000E+01  0.00000000E+00
  4.20000000E+02  6.00000000E+01  0.00000000E+00
  4.20000000E+02  4.00000000E+01  0.00000000E+00
  4.20000000E+02  2.00000000E+01  0.00000000E+00
  4.20000000E+02  4.99600361E-14  0.00000000E+00
  4.40000000E+02  3.00000000E+02  0.00000000E+00
  4.40000000E+02  2.80000000E+02  0.00000000E+00
  4.40000000E+02  2.60000000E+02  0.00000000E+00
  4.40000000E+02  2.40000000E+02  0.00000000E+00
  4.40000000E+02  2.20000000E+02  0.00000000E+00
  4.40000000E+02  2.00000000E+02  0.00000000E+00
  4.40000000E+02  1.80000000E+02  0.00000000E+00
  4.40000000E+02  1.60000000E+02  0.00000000E+00
  4.40000000E+02  1.40000000E+02  0.00000000E+00
  4.40000000E+02  1.20000000E+02  0.00000000E+00
  4.40000000E+02  1.00000000E+02  0.00000000E+00
  4.40000000E+02  8.00000000E+01  0.00000000E+00
  4.40000000E+02  6.00000000E+01  0.00000000E+00
  4.40000000E+02  4.00000000E+01  0.00000000E+00
  4.40000000E+02  2.00000000E+01  0.00000000E+00
  4.40000000E+02  4.99600361E-14  0.00000000E+00
  4.60000000E+02  3.00000000E+02  0.00000000E+00
  4.60000000E+02  2.80000000E+02  0.00000000E+00
  4.60000000E+02  2.60000000E+02  0.00000000E+00
  4.60000000E+02  2.40000000E+02  0.00000000E+00
  4.60000000E+02  2.20000000E+02  0.00000000E+00
  4.60000000E+02  2.00000000E+02  0.00000000E+00
  4.60000000E+02  1.80000000E+02  0.00000000E+00
  4.60000000E+02  1.60000000E+02  0.00000000E+00
  4.60000000E+02  1.40000000E+02  0.00000000E+00
  4.60000000E+02  1.20000000E+02  0.00000000E+00
  4.60000000E+02  1.00000000E+02  0.00000000E+00
  4.60000000E+02  8.00000000E+01  0.00000000E+00
  4.60000000E+02  6.00000000E+01  0.00000000E+00
  4.60000000E+02  4.00000000E+01  0.00000000E+00
  4.60000000E+02  2.00000000E+01  0.00000000E+00
  4.60000000E+02  4.99600361E-14  0.00000000E+00
  4.80000000E+02  3.00000000E+02  0.00000000E+00
  4.80000000E+02  2.80000000E+02  0.00000000E+00
  4.80000000E+02  2.60000000E+02  0.00000000E+00
  4.80000000E+02  2.40000000E+02  0.00000000E+00
  4.80000000E+02  2.20000000E+02  0.00000000E+00
  4.80000000E+02  2.00000000E+02  0.00000000E+00
  4.80000000E+02  1.80000000E+02  0.00000000E+00
  4.80000000E+02  1.60000000E+02  0.00000000E+00
  4.80000000E+02  1.40000000E+02  0.00000000E+00
  4.80000000E+02  1.20000000E+02  0.00000000E+00
  4.80000000E+02  1.00000000E+02  0.00000000E+00
  4.80000000E+02  8.00000000E+01  0.00000000E+00
  4.80000000E+02  6.00000000E+01  0.00000000E+00
  4.80000000E+02  4.00000000E+01  0.00000000E+00
  4.80000000E+02  2.00000000E+01  0.00000000E+00
  4.80000000E+02  4.99600361E-14  0.00000000E+00
  5.00000000E+02  3.00000000E+02  0.00000000E+00
  5.00000000E+02  2.80000000E+02  0.00000000E+00
  5.00000000E+02  2.60000000E+02  0.00000000E+00
  5.00000000E+02  2.40000000E+02  0.00000000E+00
  5.00000000E+02  2.20000000E+02  0.00000000E+00
  5.00000000E+02  2.00000000E+02  0.00000000E+00
  5.00000000E+02  1.80000000E+02  0.00000000E+00
  5.00000000E+02  1.60000000E+02  0.00000000E+00
  5.00000000E+02  1.40000000E+02  0.00000000E+00
  5.00000000E+02  1.20000000E+02  0.00000000E+00
  5.00000000E+02  1.00000000E+02  0.00000000E+00
  5.00000000E+02  8.00000000E+01  0.00000000E+00
  5.00000000E+02  6.00000000E+01  0.00000000E+00
  5.00000000E+02  4.00000000E+01  0.00000000E+00
  5.00000000E+02  2.00000000E+01  0.00000000E+00
  5.00000000E+02  4.99600361E-14  0.00000000E+00
  5.20000000E+02  3.00000000E+02  0.00000000E+00
  5.20000000E+02  2.80000000E+02  0.00000000E+00
  5.20000000E+02  2.60000000E+02  0.00000000E+00
  5.20000000E+02  2.40000000E+02  0.00000000E+00
  5.20000000E+02  2.20000000E+02  0.00000000E+00
  5.20000000E+02  2.00000000E+02  0.00000000E+00
  5.20000000E+02  1.80000000E+02  0.00000000E+00
  5.20000000E+02  1.60000000E+02  0.00000000E+00
  5.20000000E+02  1.40000000E+02  0.00000000E+00
  5.20000000E+02  1.20000000E+02  0.00000000E+00
  5.20000000E+02  1.00000000E+02  0.00000000E+00
  5.20000000E+02  8.00000000E+01  0.00000000E+00
  5.20000000E+02  6.00000000E+01  0.00000000E+00
  5.20000000E+02  4.00000000E+01  0.00000000E+00
  5.20000000E+02  2.00000000E+01  0.00000000E+00
  5.20000000E+02  4.99600361E-14  0.00000000E+00
  5.40000000E+02  3.00000000E+02  0.00000000E+00
  5.40000000E+02  2.80000000E+02  0.00000000E+00
  5.40000000E+02  2.60000000E+02  0.00000000E+00
  5.40000000E+02  2.40000000E+02  0.00000000E+00
  5.40000000E+02  2.20000000E+02  0.00000000E+00
  5.40000000E+02  2.00000000E+02  0.00000000E+00
  5.40000000E+02  1.80000000E+02  0.00000000E+00
  5.40000000E+02  1.60000000E+02  0.00000000E+00
  5.40000000E+02  1.40000000E+02  0.00000000E+00
  5.40000000E+02  1.20000000E+02  0.00000000E+00
  5.40000000E+02  1.00000000E+02  0.00000000E+00
  5.40000000E+02  8.00000000E+01  0.00000000E+00
  5.40000000E+02  6.00000000E+01  0.00000000E+00
  5.40000000E+02  4.00000000E+01  0.00000000E+00
  5.40000000E+02  2.00000000E+01  0.00000000E+00
  5.40000000E+02  4.99600361E-14  0.00000000E+00
  5.60000000E+02  3.00000000E+02  0.00000000E+00
  5.60000000E+02  2.80000000E+02  0.00000000E+00
  5.60000000E+02  2.60000000E+02  0.00000000E+00
  5.60000000E+02  2.40000000E+02  0.00000000E+00
  5.60000000E+02  2.20000000E+02  0.00000000E+00
  5.60000000E+02  2.00000000E+02  0.00000000E+00
  5.60000000E+02  1.80000000E+02  0.00000000E+00
  5.60000000E+02  1.60000000E+02  0.00000000E+00
  5.60000000E+02  1.40000000E+02  0.00000000E+00
  5.60000000E+02  1.20000000E+02  0.00000000E+00
  5.60000000E+02  1.00000000E+02  0.00000000E+00
  5.60000000E+02  8.00000000E+01  0.00000000E+00
  5.60000000E+02  6.00000000E+01  0.00000000E+00
  5.60000000E+02  4.00000000E+01  0.00000000E+00
  5.60000000E+02  2.00000000E+01  0.00000000E+00
  5.60000000E+02  4.99600361E-14  0.00000000E+00
  5.80000000E+02  3.00000000E+02  0.00000000E+00
  5.80000000E+02  2.80000000E+02  0.00000000E+00
  5.80000000E+02  2.60000000E+02  0.00000000E+00
  5.80000000E+02  2.40000000E+02  0.00000000E+00
  5.80000000E+02  2.20000000E+02  0.00000000E+00
  5.80000000E+02  2.00000000E+02  0.00000000E+00
  5.80000000E+02  1.80000000E+02  0.00000000E+00
  5.80000000E+02  1.60000000E+02  0.00000000E+00
  5.80000000E+02  1.40000000E+02  0.00000000E+00
  5.80000000E+02  1.20000000E+02  0.00000000E+00
  5.80000000E+02  1.00000000E+02  0.00000000E+00
  5.80000000E+02  8.00000000E+01  0.00000000E+00
  5.80000000E+02  6.00000000E+01  0.00000000E+00
  5.80000000E+02  4.00000000E+01  0.00000000E+00
  5.80000000E+02  2.00000000E+01  0.00000000E+00
  5.80000000E+02  4.99600361E-14  0.00000000E+00
  6.00000000E+02  3.00000000E+02  0.00000000E+00
  6.00000000E+02  2.80000000E+02  0.00000000E+00
  6.00000000E+02  2.60000000E+02  0.00000000E+00
  6.00000000E+02  2.40000000E+02  0.00000000E+00
  6.00000000E+02  2.20000000E+02  0.00000000E+00
  6.00000000E+02  2.00000000E+02  0.00000000E+00
  6.00000000E+02  1.80000000E+02  0.00000000E+00
  6.00000000E+02  1.60000000E+02  0.00000000E+00
  6.00000000E+02  1.40000000E+02  0.00000000E+00
  6.00000000E+02  1.20000000E+02  0.00000000E+00
  6.00000000E+02  1.00000000E+02  0.00000000E+00
  6.00000000E+02  8.00000000E+01  0.00000000E+00
  6.00000000E+02  6.00000000E+01  0.00000000E+00
  6.00000000E+02  4.00000000E+01  0.00000000E+00
  6.00000000E+02  2.00000000E+01  0.00000000E+00
  6.00000000E+02  4.99600361E-14  0.00000000E+00
CELLS       450      2250
         4           0           1          17          16
         4           1           2          18          17
         4           2           3          19          18
         4           3           4          20          19
         4           4           5          21          20
         4           5           6          22          21
         4           6           7          23          22
         4           7           8          24          23
         4           8           9          25          24
         4           9          10          26          25
         4          10          11          27          26
         4          11          12          28          27
         4          12          13          29          28
         4          13          14          30          29
         4          14          15          31          30
         4          16          17          33          32
         4          17          18          34          33
         4          18          19          35          34
         4          19          20          36          35
         4          20          21          37          36
         4          21          22          38          37
         4          22          23          39          38
         4          23          24          40          39
         4          24          25          41          40
         4          25          26          42          41
         4          26          27          43          42
         4          27          28          44          43
         4          28          29          45          44
         4          29          30          46          45
         4          30          31          47          46
         4          32          33          49          48
         4          33          34          50          49
         4          34          35          51          50
         4          35          36          52          51
         4          36          37          53          52
         4          37          38          54          53
         4          38          39          55          54
         4          39          40          56          55
         4          40          41          57          56
         4          41          42          58          57
         4          42          43          59          58
         4          43          44          60          59
         4          44          45          61          60
         4          45          46          62          61
         4          46          47          63          62
         4          48          49          65          64
         4          49          50          66          65
         4          50          51          67          66
         4          51          52          68          67
         4          52          53          69          68
         4          53          54          70          69
         4          54          55          71          70
         4          55          56          72          71
         4          56          57          73          72
         4          57          58          74          73
         4          58          59          75          74
         4          59          60          76          75
         4          60          61          77          76
         4          61          62          78          77
         4          62          63          79          78
         4          64          65          81          80
         4          65          66          82          81
         4          66          67          83          82
         4          67          68          84          83
         4          68          69          85          84
         4          69          70          86          85
         4          70          71          87          86
         4          71          72          88          87
         4          72          73          89          88
         4          73          74          90          89
         4          74          75          91          90
         4          75          76          92          91
         4          76          77          93          92
         4          77          78          94          93
         4          78          79          95          94
         4          80          81          97          96
         4          81          82          98          97
         4          82          83          99          98
         4          83          84         100          99
         4          84          85         101         100
         4          85          86         102         101
         4          86          87         103         102
         4          87          88         104         103
         4          88          89         105         104
         4          89          90         106         105
         4          90          91         107         106
         4          91          92         108         107
         4          92          93         109         108
         4          93          94         110         109
         4          94          95         111         110
         4          96          97         113         112
         4          97          98         114         113
         4          98          99         115         114
         4          99         100         116         115
         4         100         101         117         116
         4         101         102         118         117
         4         102         103         119         118
         4         103         104         120         119
         4         104         105         121         120
         4         105         106         122         121
         4         106         107         123         122
         4         107         108         124         123
         4         108         109         125         124
         4         109         110         126         125
         4         110         111         127         126
         4         112         113         129         128
         4         113         114         130         129
         4         114         115         131         130
         4         115         116         132         131
         4         116         117         133         132
         4         117         118         134         133
         4         118         119         135         134
         4         119         120         136         135
         4         120         121         137         136
         4         121         122         138         137
         4         122         123         139         138
         4         123         124         140         139
         4         124         125         141         140
         4         125         126         142         141
         4         126         127         143         142
         4         128         129         145         144
         4         129         130         146         145
         4         130         131         147         146
         4         131         132         148         147
         4         132         133         149         148
         4         133         134         150         149
         4         134         135         151         150
         4         135         136         152         151
         4         136         137         153         152
         4         137         138         154         153
         4         138         139         155         154
         4         139         140         156         155
         4         140         141         157         156
         4         141         142         158         157
         4         142         143         159         158
         4         144         145         161         160
         4         145         146         162         161
         4         146         147         163         162
         4         147         148         164         163
         4         148         149         165         164
         4         149         150         166         165
         4         150         151         167         166
         4         151         152         168         167
         4         152         153         169         168
         4         153         154         170         169
         4         154         155         171         170
         4         155         156         172         171
         4         156         157         173         172
         4         157         158         174         173
         4         158         159         175         174
         4         160         161         177         176
         4         161         162         178         177
         4         162         163         179         178
         4         163         164         180         179
         4         164         165         181         180
         4         165         166         182         181
         4         166         167         183         182
         4         167         168         184         183
         4         168         169         185         184
         4         169         170         186         185
         4         170         171         187         186
         4         171         172         188         187
         4         172         173         189         188
         4         173         174         190         189
         4         174         175         191         190
         4         176         177         193         192
         4         177         178         194         193
         4         178         179         195         194
         4         179         180         196         195
         4         180         181         197         196
         4         181         182         198         197
         4         182         183         199         198
         4         183         184         200         199
         4         184         185         201         200
         4         185         186         202         201
         4         186         187         203         202
         4         187         188         204         203
         4         188         189         205         204
         4         189         190         206         205
         4         190         191         207         206
         4         192         193         209         208
         4         193         194         210         209
         4         194         195         211         210
         4         195         196         212         211
         4         196         197         213         212
         4         197         198         214         213
         4         198         199         215         214
         4         199         200         216         215
         4         200         201         217         216
         4         201         202         218         217
         4         202         203         219         218
         4         203         204         220         219
         4         204         205         221         220
         4         205         206         222         221
         4         206         207         223         222
         4         208         209         225         224
         4         209         210         226         225
         4         210         211         227         226
         4         211         212         228         227
         4         212         213         229         228
         4         213         214         230         229
         4         214         215         231         230
         4         215         216         232         231
         4         216         217         233         232
         4         217         218         234         233
         4         218         219         235         234
         4         219         220         236         235
         4         220         221         237         236
         4         221         222         238         237
         4         222         223         239         238
         4         224         225         241         240
         4         225         226         242         241
         4         226         227         243         242
         4         227         228         244         243
         4         228         229         245         244
         4         229         230         246         245
         4         230         231         247         246
         4         231         232         248         247
         4         232         233         249         248
         4         233         234         250         249
         4         234         235         251         250
         4         235         236         252         251
         4         236         237         253         252
         4         237         238         254         253
         4         238         239         255         254
         4         240         241         257         256
         4         241         242         258         257
         4         242         243         259         258
         4         243         244         260         259
         4         244         245         261         260
         4         245         246         262         261
         4         246         247         263         262
         4         247         248         264         263
         4         248         249         265         264
         4         249         250         266         265
         4         250         251         267         266
         4         251         252         268         267
         4         252         253         269         268
         4         253         254         270         269
         4         254         255         271         270
         4         256         257         273         272
         4         257         258         274         273
         4         258         259         275         274
         4         259         260         276         275
         4         260         261         277         276
         4         261         262         278         277
         4         262         263         279         278
         4         263         264         280         279
         4         264         265         281         280
         4         265         266         282         281
         4         266         267         283         282
         4         267         268         284         283
         4         268         269         285         284
         4         269         270         286         285
         4         270         271         287         286
         4         272         273         289         288
         4         273         274         290         289
         4         274         275         291         290
         4         275         276         292         291
         4         276         277         293         292
         4         277         278         294         293
         4         278         279         295         294
         4         279         280         296         295
         4         280         281         297         296
         4         281         282         298         297
         4         282         283         299         298
         4         283         284         300         299
         4         284         285         301         300
         4         285         286         302         301
         4         286         287         303         302
         4         288         289         305         304
         4         289         290         306         305
         4         290         291         307         306
         4         291         292         308         307
         4         292         293         309         308
         4         293         294         310         309
         4         294         295         311         310
         4         295         296         312         311
         4         296         297         313         312
         4         297         298         314         313
         4         298         299         315         314
         4         299         300         316         315
         4         300         301         317         316
         4         301         302         318         317
         4         302         303         319         318
         4         304         305         321         320
         4         305         306         322         321
         4         306         307         323         322
         4         307         308         324         323
         4         308         309         325         324
         4         309         310         326         325
         4         310         311         327         326
         4         311         312         328         327
         4         312         313         329         328
         4         313         314         330         329
         4         314         315         331         330
         4         315         316         332         331
         4         316         317         333         332
         4         317         318         334         333
         4         318         319         335         334
         4         320         321         337         336
         4         321         322         338         337
         4         322         323         339         338
         4         323         324         340         339
         4         324         325         341         340
         4         325         326         342         341
         4         326         327         343         342
         4         327         328         344         343
         4         328         329         345         344
         4         329         330         346         345
         4         330         331         347         346
         4         331         332         348         347
         4         332         333         349         348
         4         333         334         350         349
         4         334         335         351         350
         4         336         337         353         352
         4         337         338         354         353
         4         338         339         355         354
         4         339         340         356         355
         4         340         341         357         356
         4         341         342         358         357
         4         342         343         359         358
         4         343         344         360         359
         4         344         345         361         360
         4         345         346         362         361
         4         346         347         363         362
         4         347         348         364         363
         4         348         349         365         364
         4         349         350         366         365
         4         350         351         367         366
         4         352         353         369         368
         4         353         354         370         369
         4         354         355         371         370
         4         355         356         372         371
         4         356         357         373         372
         4         357         358         374         373
         4         358         359         375         374
         4         359         360         376         375
         4         360         361         377         376
         4         361         362         378         377
         4         362         363         379         378
         4         363         364         380         379
         4         364         365         381         380
         4         365         366         382         381
         4         366         367         383         382
         4         368         369         385         384
         4         369         370         386         385
         4         370         371         387         386
         4         371         372         388         387
         4         372         373         389         388
         4         373         374         390         389
         4         374         375         391         390
         4         375         376         392         391
         4         376         377         393         392
         4         377         378         394         393
         4         378         379         395         394
         4         379         380         396         395
         4         380         381         397         396
         4         381         382         398         397
         4         382         383         399         398
         4         384         385         401         400
         4         385         386         402         401
         4         386         387         403         402
         4         387         388         404         403
         4         388         389         405         404
         4         389         390         406         405
         4         390         391         407         406
         4         391         392         408         407
         4         392         393         409         408
         4         393         394         410         409
         4         394         395         411         410
         4         395         396         412         411
         4         396         397         413         412
         4         397         398         414         413
         4         398         399         415         414
         4         400         401         417         416
         4         401         402         418         417
         4         402         403         419         418
         4         403         404         420         419
         4         404         405         421         420
         4         405         406         422         421
         4         406         407         423         422
         4         407         408         424         423
         4         408         409         425         424
         4         409         410         426         425
         4         410         411         427         426
         4         411         412         428         427
         4         412         413         429         428
         4         413         414         430         429
         4         414         415         431         430
         4         416         417         433         432
         4         417         418         434         433
         4         418         419         435         434
         4         419         420         436         435
         4         420         421         437         436
         4         421         422         438         437
         4         422         423         439         438
         4         423         424         440         439
         4         424         425         441         440
         4         425         426         442         441
         4         426         427         443         442
         4         427         428         444         443
         4         428         429         445         444
         4         429         430         446         445
         4         430         431         447         446
         4         432         433         449         448
         4         433         434         450         449
         4         434         435         451         450
         4         435         436         452         451
         4         436         437         453         452
         4         437         438         454         453
         4         438         439         455         454
         4         439         440         456         455
         4         440         441         457         456
         4         441         442         458         457
         4         442         443         459         458
         4         443         444         460         459
         4         444         445         461         460
         4         445         446         462         461
         4         446         447         463         462
         4         448         449         465         464
         4         449         450         466         465
         4         450         451         467         466
         4         451         452         468         467
         4         452         453         469         468
         4         453         454         470         469
         4         454         455         471         470
         4         455         456         472         471
         4         456         457         473         472
         4         457         458         474         473
         4         458         459         475         474
         4         459         460         476         475
         4         460         461         477         476
         4         461         462         478         477
         4         462         463         479         478
         4         464         465         481         480
         4         465         466         482         481
         4         466         467         483         482
         4         467         468         484         483
         4         468         469         485         484
         4         469         470         486         485
         4         470         471         487         486
         4         471         472         488         487
         4         472         473         489         488
         4         473         474         490         489
         4         474         475         491         490
         4         475         476         492         491
         4         476         477         493         492
         4         477         478         494         493
         4         478         479         495         494
CELL_TYPES        450
9
9
9
9
9
9
9
9
9
9
9
9
9
9
9
9
9
9
9
9
9
9
9
9
9
9
9
9
9
9
9
9
9
9
9
9
9
9
9
9
9
9
9
9
9
9
9
9
9
9
9
9
9
9
9
9
9
9
9
9
9
9
9
9
9
9
9
9
9
9
9
9
9
9
9
9
9
9
9
9
9
9
9
9
9
9
9
9
9
9
9
9
9
9
9
9
9
9
9
9
9
9
9
9
9
9
9
9
9
9
9
9
9
9
9
9
9
9
9
9
9
9
9
9
9
9
9
9
9
9
9
9
9
9
9
9
9
9
9
9
9
9
9
9
9
9
9
9
9
9
9
9
9
9
9
9
9
9
9
9
9
9
9
9
9
9
9
9
9
9
9
9
9
9
9
9
9
9
9
9
9
9
9
9
9
9
9
9
9
9
9
9
9
9
9
9
9
9
9
9
9
9
9
9
9
9
9
9
9
9
9
9
9
9
9
9
9
9
9
9
9
9
9
9
9
9
9
9
9
9
9
9
9
9
9
9
9
9
9
9
9
9
9
9
9
9
9
9
9
9
9
9
9
9
9
9
9
9
9
9
9
9
9
9
9
9
9
9
9
9
9
9
9
9
9
9
9
9
9
9
9
9
9
9
9
9
9
9
9
9
9
9
9
9
9
9
9
9
9
9
9
9
9
9
9
9
9
9
9
9
9
9
9
9
9
9
9
9
9
9
9
9
9
9
9
9
9
9
9
9
9
9
9
9
9
9
9
9
9
9
9
9
9
9
9
9
9
9
9
9
9
9
9
9
9
9
9
9
9
9
9
9
9
9
9
9
9
9
9
9
9
9
9
9
9
9
9
9
9
9
9
9
9
9
9
9
9
9
9
9
9
9
9
9
9
9
9
9
9
9
9
9
9
9
9
9
9
9
9
9
9
9
9
9
9
9
9
9
9
9
9
9
9
9
9
9
9
9
9
9
9
9
9
9
9
9
9
9
9
9
9
9
9
9
9
9
9
9
9
9
POINT_DATA       496
SCALARS p double 
LOOKUP_TABLE default
   40697002.6658473     
   40693581.9923300     
   40684148.0567756     
   40669826.9304702     
   40651708.4785856     
   40630835.4278093     
   40608196.9616155     
   40584725.9106421     
   40561298.6983174     
   40538737.2900788     
   40517812.4778564     
   40499247.9097712     
   40483724.3482519     
   40471883.7082088     
   40464332.4908420     
   40461644.2884415     
   40656229.4819841     
   40652798.8019191     
   40643341.2720491     
   40628989.8748524     
   40610839.2977458     
   40589935.4161520     
   40567269.2552056     
   40543774.5015778     
   40520327.7297366     
   40497750.5952136     
   40476813.3307183     
   40458238.9590559     
   40442707.7097964     
   40430861.1947515     
   40423305.9609031     
   40420616.0988784     
   40533942.2534102     
   40530482.2818020     
   40520955.8926374     
   40506516.4820555     
   40488272.9306806     
   40467280.3280529     
   40444535.0286193     
   40420973.1228872     
   40397471.5006617     
   40374850.7717119     
   40353879.3923074     
   40335278.4236684     
   40319726.4205646     
   40307864.0153978     
   40300297.8255912     
   40297603.3705318     
   40330240.6509319     
   40326734.2724100     
   40317099.4892176     
   40302522.6584745     
   40284135.4089896     
   40263007.4180876     
   40240143.2746266     
   40216482.5322604     
   40192902.1511630     
   40170220.6151607     
   40149203.0940141     
   40130567.0973016     
   40114988.1371368     
   40103104.9822580     
   40095524.1465642     
   40092823.3117272     
   40045299.7376117     
   40041733.4038674     
   40031960.1064410     
   40017210.1341957     
   39998645.0744655     
   39977353.4283568     
   39954349.9681868     
   39930577.9702705     
   39906913.5517160     
   39884171.4290773     
   39863111.4990901     
   39844445.7170849     
   39828844.8173152     
   39816944.4820085     
   39809350.6234590     
   39806643.4971081     
   39679383.1743484     
   39675748.2278851     
   39665819.1903967     
   39650879.0783798     
   39632124.7978308     
   39610666.3488802     
   39587529.3292087     
   39563659.9078610     
   39539931.5383507     
   39517152.7698426     
   39496075.5970112     
   39477403.8626875     
   39461801.2930166     
   39449898.8034941     
   39442300.7673579     
   39439589.9871142     
   39232861.2868176     
   39229155.1811110     
   39219069.2645556     
   39203945.3364321     
   39185018.6582099     
   39163421.4526316     
   39140189.1579841     
   39116268.6575498     
   39092527.8040380     
   39069765.6497475     
   39048722.8743404     
   39030091.9731461     
   39014526.8303822     
   39002651.3548722     
   38995066.9027464     
   38992358.2547025     
   38706233.5802773     
   38702460.9660367     
   38692235.9391287     
   38676961.8720403     
   38657912.6640038     
   38636241.1830592     
   38612989.8181057     
   38589102.4201668     
   38565437.0154205     
   38542778.7650659     
   38521852.7274923     
   38503336.0460521     
   38487869.2416713     
   38476066.3353062     
   38468523.5635837     
   38465826.4853033     
   38100155.1814109     
   38096328.8281324     
   38086003.7310474     
   38070643.8889289     
   38051558.9868569     
   38029918.3620235     
   38006766.3307143     
   37983038.2268785     
   37959576.6109001     
   37937147.2020978     
   37916454.1681902     
   37898154.4687640     
   37882870.9984433     
   37871204.3112608     
   37863742.7343692     
   37861070.7013902     
   37415466.5875884     
   37411608.1090176     
   37401245.0726336     
   37385897.0074892     
   37366903.0799091     
   37345442.0845191     
   37322552.9411028     
   37299155.1321104     
   37276068.6306812     
   37254032.9676232     
   37233725.1650867     
   37215776.3235020     
   37200786.6875603     
   37189339.0395832     
   37182010.2794310     
   37179381.0555401     
   36653226.0160232     
   36649366.3675094     
   36639051.7987853     
   36623847.7826274     
   36605112.9617498     
   36584025.5754812     
   36561609.4260940     
   36538758.9187191     
   36516262.8335116     
   36494826.5929591     
   36475092.8667217     
   36457660.4092335     
   36443101.0523526     
   36431974.7804343     
   36424842.8047918     
   36422278.5371609     
   35814743.5708506     
   35810923.2858874     
   35800768.3277117     
   35785875.7736750     
   35767609.8708234     
   35747135.2056783     
   35725448.3303523     
   35703407.4944020     
   35681760.2704693     
   35661168.9746629     
   35642233.8634942     
   35625514.1349265     
   35611546.7726075     
   35600863.2545203     
   35594004.1086234     
   35591531.2499249     
   34901616.3879222     
   34897885.5204395     
   34888025.6916200     
   34873646.3176814     
   34856099.4339571     
   34836519.8004698     
   34815862.2540138     
   34794936.0898695     
   34774436.4151215     
   34754972.5417107     
   34737093.5714732     
   34721311.3628649     
   34708121.0607478     
   34698019.3228390     
   34691520.3003857     
   34689169.3412744     
   33915763.8780977     
   33912181.6162806     
   33902775.5341927     
   33889143.1165760     
   33872602.4497010     
   33854239.3293211     
   33834950.2647813     
   33815481.3166341     
   33796462.8935633     
   33778440.7805637     
   33761903.7605475     
   33747308.2192525     
   33735100.0896524     
   33725734.4053605     
   33719692.6073578     
   33717497.6042713     
   32859462.1732140     
   32856096.0897400     
   32847323.1742098     
   32834699.7292764     
   32819484.3646259     
   32802692.0373917     
   32785142.4766294     
   32767503.1070070     
   32750326.8188844     
   32734085.1076911     
   32719197.2056025     
   32706055.8444230     
   32695050.2223420     
   32686586.6100858     
   32681106.8428191     
   32679104.7279811     
   31735376.8882037     
   31732301.7906890     
   31724358.8423672     
   31713029.0643928     
   31699482.5205445     
   31684639.0745981     
   31669221.8255453     
   31653803.5420538     
   31638846.7138030     
   31624738.0555891     
   31611818.4142651     
   31600409.0291255     
   31590834.9879094     
   31583446.5185957     
   31578638.4855267     
   31576868.1484172     
   30546593.3518824     
   30543889.6957463     
   30536986.2343248     
   30527249.9998380     
   30515730.2737640     
   30503225.6924076     
   30490342.0800536     
   30477541.5749095     
   30465184.0033459     
   30453561.7348120     
   30442929.3808223     
   30433529.6796900     
   30425616.7450614     
   30419477.5720642     
   30415452.3189153     
   30413953.4513905     
   29296643.5323538     
   29294395.3556308     
   29288747.5903675     
   29280910.3135736     
   29271777.1331480     
   29261998.1120384     
   29252041.1481703     
   29242242.6753627     
   29232849.0765645     
   29224050.5529040     
   29216009.3365721     
   29208884.0776753     
   29202851.9990323     
   29198130.0273145     
   29194995.6050535     
   29193807.3057926     
   27989528.9968656     
   27987821.3313982     
   27983644.6137440     
   27978005.1942802     
   27971604.1277515     
   27964915.2133816     
   27958248.7765606     
   27951802.4527986     
   27945700.9515382     
   27940027.2139976     
   27934847.5172787     
   27930232.9552421     
   27926279.3958846     
   27923127.5117640     
   27920983.8282473     
   27920142.9661553     
   26629739.4092770     
   26628655.1124343     
   26626154.6785951     
   26622990.7079555     
   26619633.6867690     
   26616354.2381002     
   26613287.7692387     
   26610483.3502705     
   26607939.6297149     
   26605631.0948546     
   26603528.0573596     
   26601613.5061937     
   26599899.5197471     
   26598445.3067291     
   26597378.1425562     
   26596917.4825822     
   25222266.2958554     
   25221882.2256957     
   25221241.9568879     
   25220791.7158670     
   25220733.3727478     
   25221109.7163382     
   25221867.8586375     
   25222903.5287511     
   25224090.2923736     
   25225298.2035660     
   25226406.2637987     
   25227312.6115022     
   25227945.7775438     
   25228279.6402080     
   25228353.8026417     
   25228299.8996040     
   23772612.1282146     
   23772994.5410653     
   23774363.3136192     
   23776803.8478622     
   23780212.8105833     
   23784384.7650424     
   23789071.3007164     
   23794017.0559433     
   23798978.5741654     
   23803732.0949438     
   23808075.7497208     
   23811830.8067113     
   23814845.8942636     
   23817007.4846445     
   23818259.0523266     
   23818629.9149243     
   22286795.2304226     
   22287994.1887698     
   22291469.0795802     
   22296889.1837110     
   22303813.0168758     
   22311773.6791386     
   22320329.0717422     
   22329084.4482480     
   22337696.2537173     
   22345865.3789527     
   22353326.2710134     
   22359836.9085594     
   22365173.8953732     
   22369136.6457094     
   22371564.1867784     
   22372366.6963532     
   20771351.7136772     
   20773394.1020522     
   20778999.1001522     
   20787365.1783144     
   20797686.8973042     
   20809234.1932040     
   20821386.1177204     
   20833632.4527236     
   20845556.8521739     
   20856811.8826897     
   20867092.7020087     
   20876113.8410904     
   20883592.9828367     
   20889246.3103968     
   20892800.7715985     
   20894027.7892246     
   19233336.7804108     
   19236217.1211401     
   19243874.7304375     
   19254985.8474160     
   19268368.6353967     
   19283046.6840435     
   19298253.3207008     
   19313401.6759837     
   19328040.8792549     
   19341810.2194217     
   19354396.5605689     
   19365497.2207811     
   19374790.5343450     
   19381918.7199089     
   19386491.2368209     
   19388118.2032759     
   17680329.7734080     
   17683997.1291037     
   17693487.5270928     
   17706912.7466240     
   17722727.4511086     
   17739755.5595522     
   17757142.6013897     
   17774280.3132613     
   17790730.9017342     
   17806160.6161158     
   17820283.0637750     
   17832809.9748117     
   17843407.8208463     
   17851663.3101189     
   17857069.1239765     
   17859049.6511328     
   16120451.3849388     
   16124788.4327464     
   16135684.6279785     
   16150669.4147795     
   16167896.6783393     
   16186084.7932261     
   16204380.0148806     
   16222222.0181266     
   16239237.3630260     
   16255158.3980720     
   16269759.0957983     
   16282799.1675131     
   16293969.5987729     
   16302835.7261818     
   16308789.8718554     
   16311048.9699699     
   14562410.3868627     
   14567194.9641213     
   14578746.5306732     
   14594063.1794646     
   14611160.6169665     
   14628815.4002060     
   14646290.6190586     
   14663146.4564751     
   14679117.2463855     
   14694029.3200600     
   14707740.3458510     
   14720086.2877676     
   14730823.8792658     
   14739556.9233764     
   14745630.0833866     
   14748052.1266822     
   13015623.3037254     
   13020438.8802173     
   13031336.0429531     
   13045032.6609603     
   13059769.7702823     
   13074610.2131511     
   13089050.5519307     
   13102823.2590187     
   13115789.1955278     
   13127872.9945574     
   13139018.1277524     
   13149147.5478197     
   13158117.2183918     
   13165643.4362992     
   13171172.1525823     
   13173566.1659242     
   11490509.9020083     
   11494520.8562023     
   11502298.5403317     
   11511337.4716033     
   11520649.3980063     
   11529778.7077323     
   11538509.3162597     
   11546744.8008657     
   11554450.2120506     
   11561619.5203566     
   11568253.9925936     
   11574343.4122008     
   11579842.7348845     
   11584631.4732515     
   11588420.1661932     
   11590491.0678946     
   10000000.0000000     
   10000000.0000000     
   10000000.0000000     
   10000000.0000000     
   10000000.0000000     
   10000000.0000000     
   10000000.0000000     
   10000000.0000000     
   10000000.0000000     
   10000000.0000000     
   10000000.0000000     
   10000000.0000000     
   10000000.0000000     
  10000000.00000000     
   10000000.0000000     
   10000000.0000000     
VECTORS u double 
    0.00000E+00        -0.23965E-01         0.00000E+00
    0.00000E+00        -0.22242E-01         0.00000E+00
    0.00000E+00        -0.20539E-01         0.00000E+00
    0.00000E+00        -0.18854E-01         0.00000E+00
    0.00000E+00        -0.17184E-01         0.00000E+00
    0.00000E+00        -0.15530E-01         0.00000E+00
    0.00000E+00        -0.13890E-01         0.00000E+00
    0.00000E+00        -0.12265E-01         0.00000E+00
    0.00000E+00        -0.10655E-01         0.00000E+00
    0.00000E+00        -0.90609E-02         0.00000E+00
    0.00000E+00        -0.74856E-02         0.00000E+00
    0.00000E+00        -0.59314E-02         0.00000E+00
    0.00000E+00        -0.44017E-02         0.00000E+00
    0.00000E+00        -0.29001E-02         0.00000E+00
    0.00000E+00        -0.14313E-02         0.00000E+00
    0.00000E+00         0.00000E+00         0.00000E+00
    0.99569E-03        -0.24011E-01         0.00000E+00
    0.90686E-03        -0.22286E-01         0.00000E+00
    0.82443E-03        -0.20580E-01         0.00000E+00
    0.74776E-03        -0.18892E-01         0.00000E+00
    0.67615E-03        -0.17221E-01         0.00000E+00
    0.60886E-03        -0.15564E-01         0.00000E+00
    0.54508E-03        -0.13921E-01         0.00000E+00
    0.48403E-03        -0.12293E-01         0.00000E+00
    0.42489E-03        -0.10679E-01         0.00000E+00
    0.36688E-03        -0.90822E-02         0.00000E+00
    0.30919E-03        -0.75037E-02         0.00000E+00
    0.25108E-03        -0.59461E-02         0.00000E+00
    0.19179E-03        -0.44129E-02         0.00000E+00
    0.13063E-03        -0.29077E-02         0.00000E+00
    0.66914E-04        -0.14351E-02         0.00000E+00
    0.00000E+00         0.00000E+00         0.00000E+00
    0.19855E-02        -0.24150E-01         0.00000E+00
    0.18081E-02        -0.22417E-01         0.00000E+00
    0.16435E-02        -0.20704E-01         0.00000E+00
    0.14906E-02        -0.19008E-01         0.00000E+00
    0.13477E-02        -0.17329E-01         0.00000E+00
    0.12136E-02        -0.15664E-01         0.00000E+00
    0.10864E-02        -0.14012E-01         0.00000E+00
    0.96478E-03        -0.12375E-01         0.00000E+00
    0.84695E-03        -0.10753E-01         0.00000E+00
    0.73135E-03        -0.91463E-02         0.00000E+00
    0.61641E-03        -0.75579E-02         0.00000E+00
    0.50059E-03        -0.59902E-02         0.00000E+00
    0.38243E-03        -0.44464E-02         0.00000E+00
    0.26050E-03        -0.29304E-02         0.00000E+00
    0.13345E-03        -0.14467E-02         0.00000E+00
    0.00000E+00         0.00000E+00         0.00000E+00
    0.29635E-02        -0.24380E-01         0.00000E+00
    0.26980E-02        -0.22635E-01         0.00000E+00
    0.24520E-02        -0.20909E-01         0.00000E+00
    0.22234E-02        -0.19201E-01         0.00000E+00
    0.20102E-02        -0.17508E-01         0.00000E+00
    0.18100E-02        -0.15830E-01         0.00000E+00
    0.16204E-02        -0.14165E-01         0.00000E+00
    0.14390E-02        -0.12513E-01         0.00000E+00
    0.12633E-02        -0.10875E-01         0.00000E+00
    0.10910E-02        -0.92528E-02         0.00000E+00
    0.91967E-03        -0.76481E-02         0.00000E+00
    0.74699E-03        -0.60635E-02         0.00000E+00
    0.57077E-03        -0.45022E-02         0.00000E+00
    0.38886E-03        -0.29682E-02         0.00000E+00
    0.19925E-03        -0.14658E-02         0.00000E+00
    0.00000E+00         0.00000E+00         0.00000E+00
    0.39237E-02        -0.24701E-01         0.00000E+00
    0.35710E-02        -0.22939E-01         0.00000E+00
    0.32444E-02        -0.21196E-01         0.00000E+00
    0.29414E-02        -0.19471E-01         0.00000E+00
    0.26589E-02        -0.17760E-01         0.00000E+00
    0.23939E-02        -0.16062E-01         0.00000E+00
    0.21431E-02        -0.14377E-01         0.00000E+00
    0.19033E-02        -0.12705E-01         0.00000E+00
    0.16712E-02        -0.11046E-01         0.00000E+00
    0.14435E-02        -0.94016E-02         0.00000E+00
    0.12170E-02        -0.77740E-02         0.00000E+00
    0.98873E-03        -0.61658E-02         0.00000E+00
    0.75566E-03        -0.45802E-02         0.00000E+00
    0.51496E-03        -0.30210E-02         0.00000E+00
    0.26393E-03        -0.14926E-02         0.00000E+00
    0.00000E+00         0.00000E+00         0.00000E+00
    0.48601E-02        -0.25113E-01         0.00000E+00
    0.44212E-02        -0.23329E-01         0.00000E+00
    0.40154E-02        -0.21564E-01         0.00000E+00
    0.36394E-02        -0.19816E-01         0.00000E+00
    0.32893E-02        -0.18081E-01         0.00000E+00
    0.29612E-02        -0.16359E-01         0.00000E+00
    0.26510E-02        -0.14649E-01         0.00000E+00
    0.23545E-02        -0.12951E-01         0.00000E+00
    0.20677E-02        -0.11265E-01         0.00000E+00
    0.17863E-02        -0.95921E-02         0.00000E+00
    0.15065E-02        -0.79354E-02         0.00000E+00
    0.12243E-02        -0.62969E-02         0.00000E+00
    0.93598E-03        -0.46800E-02         0.00000E+00
    0.63806E-03        -0.30885E-02         0.00000E+00
    0.32713E-03        -0.15269E-02         0.00000E+00
    0.00000E+00         0.00000E+00         0.00000E+00
    0.57665E-02        -0.25614E-01         0.00000E+00
    0.52428E-02        -0.23804E-01         0.00000E+00
    0.47595E-02        -0.22012E-01         0.00000E+00
    0.43124E-02        -0.20236E-01         0.00000E+00
    0.38967E-02        -0.18473E-01         0.00000E+00
    0.35077E-02        -0.16721E-01         0.00000E+00
    0.31402E-02        -0.14980E-01         0.00000E+00
    0.27894E-02        -0.13250E-01         0.00000E+00
    0.24500E-02        -0.11531E-01         0.00000E+00
    0.21172E-02        -0.98239E-02         0.00000E+00
    0.17861E-02        -0.81315E-02         0.00000E+00
    0.14521E-02        -0.64563E-02         0.00000E+00
    0.11106E-02        -0.48014E-02         0.00000E+00
    0.75742E-03        -0.31707E-02         0.00000E+00
    0.38850E-03        -0.15686E-02         0.00000E+00
    0.00000E+00         0.00000E+00         0.00000E+00
    0.66365E-02        -0.26203E-01         0.00000E+00
    0.60298E-02        -0.24362E-01         0.00000E+00
    0.54711E-02        -0.22539E-01         0.00000E+00
    0.49552E-02        -0.20730E-01         0.00000E+00
    0.44764E-02        -0.18933E-01         0.00000E+00
    0.40291E-02        -0.17147E-01         0.00000E+00
    0.36071E-02        -0.15370E-01         0.00000E+00
    0.32045E-02        -0.13602E-01         0.00000E+00
    0.28153E-02        -0.11843E-01         0.00000E+00
    0.24337E-02        -0.10096E-01         0.00000E+00
    0.20540E-02        -0.83619E-02         0.00000E+00
    0.16706E-02        -0.66435E-02         0.00000E+00
    0.12784E-02        -0.49439E-02         0.00000E+00
    0.87232E-03        -0.32671E-02         0.00000E+00
    0.44767E-03        -0.16175E-02         0.00000E+00
    0.00000E+00         0.00000E+00         0.00000E+00
    0.74637E-02        -0.26878E-01         0.00000E+00
    0.67762E-02        -0.25002E-01         0.00000E+00
    0.61445E-02        -0.23142E-01         0.00000E+00
    0.55626E-02        -0.21296E-01         0.00000E+00
    0.50238E-02        -0.19461E-01         0.00000E+00
    0.45212E-02        -0.17634E-01         0.00000E+00
    0.40478E-02        -0.15815E-01         0.00000E+00
    0.35967E-02        -0.14004E-01         0.00000E+00
    0.31609E-02        -0.12201E-01         0.00000E+00
    0.27336E-02        -0.10408E-01         0.00000E+00
    0.23082E-02        -0.86258E-02         0.00000E+00
    0.18785E-02        -0.68578E-02         0.00000E+00
    0.14383E-02        -0.51071E-02         0.00000E+00
    0.98206E-03        -0.33776E-02         0.00000E+00
    0.50431E-03        -0.16736E-02         0.00000E+00
    0.00000E+00         0.00000E+00         0.00000E+00
    0.82414E-02        -0.27637E-01         0.00000E+00
    0.74756E-02        -0.25721E-01         0.00000E+00
    0.67741E-02        -0.23821E-01         0.00000E+00
    0.61295E-02        -0.21932E-01         0.00000E+00
    0.55340E-02        -0.20053E-01         0.00000E+00
    0.49798E-02        -0.18182E-01         0.00000E+00
    0.44587E-02        -0.16316E-01         0.00000E+00
    0.39627E-02        -0.14457E-01         0.00000E+00
    0.34839E-02        -0.12604E-01         0.00000E+00
    0.30144E-02        -0.10758E-01         0.00000E+00
    0.25469E-02        -0.89222E-02         0.00000E+00
    0.20741E-02        -0.70985E-02         0.00000E+00
    0.15893E-02        -0.52904E-02         0.00000E+00
    0.10860E-02        -0.35016E-02         0.00000E+00
    0.55808E-03        -0.17365E-02         0.00000E+00
    0.00000E+00         0.00000E+00         0.00000E+00
    0.89627E-02        -0.28478E-01         0.00000E+00
    0.81218E-02        -0.26517E-01         0.00000E+00
    0.73539E-02        -0.24572E-01         0.00000E+00
    0.66504E-02        -0.22637E-01         0.00000E+00
    0.60024E-02        -0.20710E-01         0.00000E+00
    0.54006E-02        -0.18788E-01         0.00000E+00
    0.48360E-02        -0.16871E-01         0.00000E+00
    0.42993E-02        -0.14957E-01         0.00000E+00
    0.37815E-02        -0.13048E-01         0.00000E+00
    0.32739E-02        -0.11145E-01         0.00000E+00
    0.27681E-02        -0.92499E-02         0.00000E+00
    0.22561E-02        -0.73647E-02         0.00000E+00
    0.17302E-02        -0.54930E-02         0.00000E+00
    0.11833E-02        -0.36386E-02         0.00000E+00
    0.60866E-03        -0.18060E-02         0.00000E+00
    0.00000E+00         0.00000E+00         0.00000E+00
    0.96206E-02        -0.29396E-01         0.00000E+00
    0.87082E-02        -0.27388E-01         0.00000E+00
    0.78780E-02        -0.25393E-01         0.00000E+00
    0.71200E-02        -0.23407E-01         0.00000E+00
    0.64240E-02        -0.21427E-01         0.00000E+00
    0.57795E-02        -0.19450E-01         0.00000E+00
    0.51760E-02        -0.17476E-01         0.00000E+00
    0.46032E-02        -0.15504E-01         0.00000E+00
    0.40511E-02        -0.13534E-01         0.00000E+00
    0.35099E-02        -0.11568E-01         0.00000E+00
    0.29701E-02        -0.96075E-02         0.00000E+00
    0.24231E-02        -0.76551E-02         0.00000E+00
    0.18602E-02        -0.57140E-02         0.00000E+00
    0.12735E-02        -0.37882E-02         0.00000E+00
    0.65574E-03        -0.18819E-02         0.00000E+00
    0.00000E+00         0.00000E+00         0.00000E+00
    0.10208E-01        -0.30390E-01         0.00000E+00
    0.92282E-02        -0.28329E-01         0.00000E+00
    0.83404E-02        -0.26280E-01         0.00000E+00
    0.75329E-02        -0.24239E-01         0.00000E+00
    0.67941E-02        -0.22201E-01         0.00000E+00
    0.61120E-02        -0.20165E-01         0.00000E+00
    0.54749E-02        -0.18130E-01         0.00000E+00
    0.48713E-02        -0.16094E-01         0.00000E+00
    0.42899E-02        -0.14058E-01         0.00000E+00
    0.37200E-02        -0.12024E-01         0.00000E+00
    0.31511E-02        -0.99934E-02         0.00000E+00
    0.25736E-02        -0.79684E-02         0.00000E+00
    0.19781E-02        -0.59525E-02         0.00000E+00
    0.13559E-02        -0.39495E-02         0.00000E+00
    0.69902E-03        -0.19638E-02         0.00000E+00
    0.00000E+00         0.00000E+00         0.00000E+00
    0.10717E-01        -0.31454E-01         0.00000E+00
    0.96749E-02        -0.29337E-01         0.00000E+00
    0.87350E-02        -0.27230E-01         0.00000E+00
    0.78837E-02        -0.25129E-01         0.00000E+00
    0.71078E-02        -0.23030E-01         0.00000E+00
    0.63940E-02        -0.20930E-01         0.00000E+00
    0.57291E-02        -0.18829E-01         0.00000E+00
    0.51003E-02        -0.16725E-01         0.00000E+00
    0.44953E-02        -0.14619E-01         0.00000E+00
    0.39020E-02        -0.12512E-01         0.00000E+00
    0.33093E-02        -0.10406E-01         0.00000E+00
    0.27063E-02        -0.83031E-02         0.00000E+00
    0.20830E-02        -0.62073E-02         0.00000E+00
    0.14298E-02        -0.41219E-02         0.00000E+00
    0.73819E-03        -0.20512E-02         0.00000E+00
    0.00000E+00         0.00000E+00         0.00000E+00
    0.11140E-01        -0.32583E-01         0.00000E+00
    0.10042E-01        -0.30406E-01         0.00000E+00
    0.90556E-02        -0.28238E-01         0.00000E+00
    0.81669E-02        -0.26073E-01         0.00000E+00
    0.73605E-02        -0.23909E-01         0.00000E+00
    0.66214E-02        -0.21741E-01         0.00000E+00
    0.59350E-02        -0.19569E-01         0.00000E+00
    0.52873E-02        -0.17393E-01         0.00000E+00
    0.46646E-02        -0.15212E-01         0.00000E+00
    0.40538E-02        -0.13027E-01         0.00000E+00
    0.34428E-02        -0.10842E-01         0.00000E+00
    0.28198E-02        -0.86572E-02         0.00000E+00
    0.21739E-02        -0.64768E-02         0.00000E+00
    0.14947E-02        -0.43042E-02         0.00000E+00
    0.77298E-03        -0.21437E-02         0.00000E+00
    0.00000E+00         0.00000E+00         0.00000E+00
    0.11469E-01        -0.33771E-01         0.00000E+00
    0.10321E-01        -0.31531E-01         0.00000E+00
    0.92961E-02        -0.29298E-01         0.00000E+00
    0.83771E-02        -0.27066E-01         0.00000E+00
    0.75472E-02        -0.24832E-01         0.00000E+00
    0.67899E-02        -0.22593E-01         0.00000E+00
    0.60890E-02        -0.20347E-01         0.00000E+00
    0.54290E-02        -0.18094E-01         0.00000E+00
    0.47952E-02        -0.15834E-01         0.00000E+00
    0.41733E-02        -0.13569E-01         0.00000E+00
    0.35500E-02        -0.11299E-01         0.00000E+00
    0.29128E-02        -0.90287E-02         0.00000E+00
    0.22498E-02        -0.67595E-02         0.00000E+00
    0.15499E-02        -0.44955E-02         0.00000E+00
    0.80308E-03        -0.22408E-02         0.00000E+00
    0.00000E+00         0.00000E+00         0.00000E+00
    0.11697E-01        -0.35011E-01         0.00000E+00
    0.10507E-01        -0.32705E-01         0.00000E+00
    0.94503E-02        -0.30404E-01         0.00000E+00
    0.85089E-02        -0.28102E-01         0.00000E+00
    0.76635E-02        -0.25795E-01         0.00000E+00
    0.68956E-02        -0.23480E-01         0.00000E+00
    0.61876E-02        -0.21156E-01         0.00000E+00
    0.55226E-02        -0.18823E-01         0.00000E+00
    0.48845E-02        -0.16481E-01         0.00000E+00
    0.42581E-02        -0.14131E-01         0.00000E+00
    0.36290E-02        -0.11775E-01         0.00000E+00
    0.29838E-02        -0.94149E-02         0.00000E+00
    0.23097E-02        -0.70535E-02         0.00000E+00
    0.15948E-02        -0.46945E-02         0.00000E+00
    0.82820E-03        -0.23418E-02         0.00000E+00
    0.00000E+00         0.00000E+00         0.00000E+00
    0.11815E-01        -0.36296E-01         0.00000E+00
    0.10591E-01        -0.33921E-01         0.00000E+00
    0.95122E-02        -0.31549E-01         0.00000E+00
    0.85572E-02        -0.29173E-01         0.00000E+00
    0.77047E-02        -0.26789E-01         0.00000E+00
    0.69346E-02        -0.24396E-01         0.00000E+00
    0.62274E-02        -0.21992E-01         0.00000E+00
    0.55650E-02        -0.19576E-01         0.00000E+00
    0.49299E-02        -0.17149E-01         0.00000E+00
    0.43061E-02        -0.14711E-01         0.00000E+00
    0.36780E-02        -0.12265E-01         0.00000E+00
    0.30313E-02        -0.98129E-02         0.00000E+00
    0.23524E-02        -0.73566E-02         0.00000E+00
    0.16286E-02        -0.48997E-02         0.00000E+00
    0.84799E-03        -0.24460E-02         0.00000E+00
    0.00000E+00         0.00000E+00         0.00000E+00
    0.11814E-01        -0.37616E-01         0.00000E+00
    0.10567E-01        -0.35170E-01         0.00000E+00
    0.94757E-02        -0.32723E-01         0.00000E+00
    0.85168E-02        -0.30271E-01         0.00000E+00
    0.76666E-02        -0.27808E-01         0.00000E+00
    0.69031E-02        -0.25334E-01         0.00000E+00
    0.62052E-02        -0.22846E-01         0.00000E+00
    0.55532E-02        -0.20345E-01         0.00000E+00
    0.49289E-02        -0.17830E-01         0.00000E+00
    0.43149E-02        -0.15303E-01         0.00000E+00
    0.36950E-02        -0.12766E-01         0.00000E+00
    0.30538E-02        -0.10219E-01         0.00000E+00
    0.23768E-02        -0.76663E-02         0.00000E+00
    0.16505E-02        -0.51095E-02         0.00000E+00
    0.86207E-03        -0.25527E-02         0.00000E+00
    0.00000E+00         0.00000E+00         0.00000E+00
    0.11688E-01        -0.38961E-01         0.00000E+00
    0.10428E-01        -0.36441E-01         0.00000E+00
    0.93353E-02        -0.33918E-01         0.00000E+00
    0.83829E-02        -0.31387E-01         0.00000E+00
    0.75450E-02        -0.28843E-01         0.00000E+00
    0.67975E-02        -0.26284E-01         0.00000E+00
    0.61176E-02        -0.23711E-01         0.00000E+00
    0.54845E-02        -0.21122E-01         0.00000E+00
    0.48788E-02        -0.18519E-01         0.00000E+00
    0.42822E-02        -0.15902E-01         0.00000E+00
    0.36778E-02        -0.13272E-01         0.00000E+00
    0.30493E-02        -0.10631E-01         0.00000E+00
    0.23814E-02        -0.79798E-02         0.00000E+00
    0.16596E-02        -0.53221E-02         0.00000E+00
    0.86996E-03        -0.26608E-02         0.00000E+00
    0.00000E+00         0.00000E+00         0.00000E+00
    0.11428E-01        -0.40319E-01         0.00000E+00
    0.10168E-01        -0.37724E-01         0.00000E+00
    0.90854E-02        -0.35123E-01         0.00000E+00
    0.81511E-02        -0.32509E-01         0.00000E+00
    0.73362E-02        -0.29882E-01         0.00000E+00
    0.66145E-02        -0.27238E-01         0.00000E+00
    0.59617E-02        -0.24578E-01         0.00000E+00
    0.53559E-02        -0.21901E-01         0.00000E+00
    0.47767E-02        -0.19208E-01         0.00000E+00
    0.42053E-02        -0.16500E-01         0.00000E+00
    0.36239E-02        -0.13778E-01         0.00000E+00
    0.30157E-02        -0.11042E-01         0.00000E+00
    0.23645E-02        -0.82938E-02         0.00000E+00
    0.16546E-02        -0.55354E-02         0.00000E+00
    0.87106E-03        -0.27695E-02         0.00000E+00
    0.00000E+00         0.00000E+00         0.00000E+00
    0.11025E-01        -0.41676E-01         0.00000E+00
    0.97792E-02        -0.39005E-01         0.00000E+00
    0.87211E-02        -0.36323E-01         0.00000E+00
    0.78174E-02        -0.33627E-01         0.00000E+00
    0.70368E-02        -0.30914E-01         0.00000E+00
    0.63511E-02        -0.28183E-01         0.00000E+00
    0.57347E-02        -0.25435E-01         0.00000E+00
    0.51646E-02        -0.22670E-01         0.00000E+00
    0.46198E-02        -0.19889E-01         0.00000E+00
    0.40812E-02        -0.17091E-01         0.00000E+00
    0.35306E-02        -0.14278E-01         0.00000E+00
    0.29505E-02        -0.11449E-01         0.00000E+00
    0.23239E-02        -0.86047E-02         0.00000E+00
    0.16340E-02        -0.57470E-02         0.00000E+00
    0.86459E-03        -0.28777E-02         0.00000E+00
    0.00000E+00         0.00000E+00         0.00000E+00
    0.10474E-01        -0.43018E-01         0.00000E+00
    0.92574E-02        -0.40269E-01         0.00000E+00
    0.82382E-02        -0.37505E-01         0.00000E+00
    0.73784E-02        -0.34724E-01         0.00000E+00
    0.66441E-02        -0.31925E-01         0.00000E+00
    0.60047E-02        -0.29107E-01         0.00000E+00
    0.54337E-02        -0.26271E-01         0.00000E+00
    0.49075E-02        -0.23419E-01         0.00000E+00
    0.44048E-02        -0.20550E-01         0.00000E+00
    0.39065E-02        -0.17665E-01         0.00000E+00
    0.33942E-02        -0.14764E-01         0.00000E+00
    0.28502E-02        -0.11845E-01         0.00000E+00
    0.22567E-02        -0.89086E-02         0.00000E+00
    0.15958E-02        -0.59545E-02         0.00000E+00
    0.84947E-03        -0.29841E-02         0.00000E+00
    0.00000E+00         0.00000E+00         0.00000E+00
    0.97652E-02        -0.44327E-01         0.00000E+00
    0.85969E-02        -0.41499E-01         0.00000E+00
    0.76330E-02        -0.38652E-01         0.00000E+00
    0.68317E-02        -0.35786E-01         0.00000E+00
    0.61558E-02        -0.32899E-01         0.00000E+00
    0.55731E-02        -0.29994E-01         0.00000E+00
    0.50562E-02        -0.27072E-01         0.00000E+00
    0.45815E-02        -0.24135E-01         0.00000E+00
    0.41280E-02        -0.21182E-01         0.00000E+00
    0.36770E-02        -0.18214E-01         0.00000E+00
    0.32106E-02        -0.15229E-01         0.00000E+00
    0.27108E-02        -0.12225E-01         0.00000E+00
    0.21595E-02        -0.92008E-02         0.00000E+00
    0.15373E-02        -0.61550E-02         0.00000E+00
    0.82429E-03        -0.30875E-02         0.00000E+00
    0.00000E+00         0.00000E+00         0.00000E+00
    0.88938E-02        -0.45584E-01         0.00000E+00
    0.77936E-02        -0.42676E-01         0.00000E+00
    0.69032E-02        -0.39746E-01         0.00000E+00
    0.61756E-02        -0.36793E-01         0.00000E+00
    0.55705E-02        -0.33819E-01         0.00000E+00
    0.50544E-02        -0.30829E-01         0.00000E+00
    0.45996E-02        -0.27823E-01         0.00000E+00
    0.41832E-02        -0.24804E-01         0.00000E+00
    0.37853E-02        -0.21772E-01         0.00000E+00
    0.33881E-02        -0.18726E-01         0.00000E+00
    0.29745E-02        -0.15663E-01         0.00000E+00
    0.25271E-02        -0.12581E-01         0.00000E+00
    0.20274E-02        -0.94765E-02         0.00000E+00
    0.14549E-02        -0.63455E-02         0.00000E+00
    0.78706E-03        -0.31865E-02         0.00000E+00
    0.00000E+00         0.00000E+00         0.00000E+00
    0.78536E-02        -0.46765E-01         0.00000E+00
    0.68447E-02        -0.43778E-01         0.00000E+00
    0.60477E-02        -0.40763E-01         0.00000E+00
    0.54099E-02        -0.37724E-01         0.00000E+00
    0.48878E-02        -0.34665E-01         0.00000E+00
    0.44471E-02        -0.31591E-01         0.00000E+00
    0.40613E-02        -0.28506E-01         0.00000E+00
    0.37087E-02        -0.25411E-01         0.00000E+00
    0.33716E-02        -0.22306E-01         0.00000E+00
    0.30337E-02        -0.19189E-01         0.00000E+00
    0.26794E-02        -0.16058E-01         0.00000E+00
    0.22924E-02        -0.12907E-01         0.00000E+00
    0.18543E-02        -0.97302E-02         0.00000E+00
    0.13436E-02        -0.65227E-02         0.00000E+00
    0.73506E-03        -0.32797E-02         0.00000E+00
    0.00000E+00         0.00000E+00         0.00000E+00
    0.66395E-02        -0.47845E-01         0.00000E+00
    0.57488E-02        -0.44778E-01         0.00000E+00
    0.50676E-02        -0.41680E-01         0.00000E+00
    0.45359E-02        -0.38555E-01         0.00000E+00
    0.41077E-02        -0.35413E-01         0.00000E+00
    0.37499E-02        -0.32261E-01         0.00000E+00
    0.34381E-02        -0.29102E-01         0.00000E+00
    0.31536E-02        -0.25939E-01         0.00000E+00
    0.28811E-02        -0.22770E-01         0.00000E+00
    0.26068E-02        -0.19593E-01         0.00000E+00
    0.23174E-02        -0.16403E-01         0.00000E+00
    0.19982E-02        -0.13193E-01         0.00000E+00
    0.16320E-02        -0.99558E-02         0.00000E+00
    0.11968E-02        -0.66827E-02         0.00000E+00
    0.66441E-03        -0.33656E-02         0.00000E+00
    0.00000E+00         0.00000E+00         0.00000E+00
    0.52475E-02        -0.48793E-01         0.00000E+00
    0.45073E-02        -0.45648E-01         0.00000E+00
    0.39663E-02        -0.42465E-01         0.00000E+00
    0.35561E-02        -0.39258E-01         0.00000E+00
    0.32307E-02        -0.36038E-01         0.00000E+00
    0.29608E-02        -0.32816E-01         0.00000E+00
    0.27262E-02        -0.29593E-01         0.00000E+00
    0.25123E-02        -0.26372E-01         0.00000E+00
    0.23070E-02        -0.23150E-01         0.00000E+00
    0.20995E-02        -0.19924E-01         0.00000E+00
    0.18792E-02        -0.16686E-01         0.00000E+00
    0.16343E-02        -0.13431E-01         0.00000E+00
    0.13498E-02        -0.10146E-01         0.00000E+00
    0.10050E-02        -0.68213E-02         0.00000E+00
    0.56939E-03        -0.34424E-02         0.00000E+00
    0.00000E+00         0.00000E+00         0.00000E+00
    0.36750E-02        -0.49571E-01         0.00000E+00
    0.31257E-02        -0.46346E-01         0.00000E+00
    0.27504E-02        -0.43082E-01         0.00000E+00
    0.24737E-02        -0.39798E-01         0.00000E+00
    0.22563E-02        -0.36513E-01         0.00000E+00
    0.20766E-02        -0.33233E-01         0.00000E+00
    0.19207E-02        -0.29961E-01         0.00000E+00
    0.17783E-02        -0.26695E-01         0.00000E+00
    0.16413E-02        -0.23433E-01         0.00000E+00
    0.15025E-02        -0.20170E-01         0.00000E+00
    0.13544E-02        -0.16899E-01         0.00000E+00
    0.11887E-02        -0.13610E-01         0.00000E+00
    0.99432E-03        -0.10294E-01         0.00000E+00
    0.75494E-03        -0.69328E-02         0.00000E+00
    0.44100E-03        -0.35078E-02         0.00000E+00
    0.00000E+00         0.00000E+00         0.00000E+00
    0.19214E-02        -0.50124E-01         0.00000E+00
    0.16169E-02        -0.46822E-01         0.00000E+00
    0.14280E-02        -0.43484E-01         0.00000E+00
    0.12898E-02        -0.40143E-01         0.00000E+00
    0.11816E-02        -0.36812E-01         0.00000E+00
    0.10922E-02        -0.33493E-01         0.00000E+00
    0.10147E-02        -0.30189E-01         0.00000E+00
    0.94378E-03        -0.26895E-01         0.00000E+00
    0.87547E-03        -0.23608E-01         0.00000E+00
    0.80606E-03        -0.20323E-01         0.00000E+00
    0.73180E-03        -0.17031E-01         0.00000E+00
    0.64834E-03        -0.13723E-01         0.00000E+00
    0.54988E-03        -0.10388E-01         0.00000E+00
    0.42722E-03        -0.70078E-02         0.00000E+00
    0.26307E-03        -0.35585E-02         0.00000E+00
    0.00000E+00         0.00000E+00         0.00000E+00
    0.00000E+00        -0.50359E-01         0.00000E+00
    0.00000E+00        -0.46997E-01         0.00000E+00
    0.00000E+00        -0.43625E-01         0.00000E+00
    0.00000E+00        -0.40262E-01         0.00000E+00
    0.00000E+00        -0.36914E-01         0.00000E+00
    0.00000E+00        -0.33582E-01         0.00000E+00
    0.00000E+00        -0.30266E-01         0.00000E+00
    0.00000E+00        -0.26963E-01         0.00000E+00
    0.00000E+00        -0.23668E-01         0.00000E+00
    0.00000E+00        -0.20374E-01         0.00000E+00
    0.00000E+00        -0.17076E-01         0.00000E+00
    0.00000E+00        -0.13762E-01         0.00000E+00
    0.00000E+00        -0.10421E-01         0.00000E+00
    0.00000E+00        -0.70348E-02         0.00000E+00
    0.00000E+00        -0.35797E-02         0.00000E+00
    0.00000E+00         0.00000E+00         0.00000E+00
CELL_DATA        450
VECTORS vDarcy double 
    0.29109E-09        -0.24454E-10         0.00000E+00
    0.29119E-09        -0.67423E-10         0.00000E+00
    0.29137E-09        -0.10233E-09         0.00000E+00
    0.29158E-09        -0.12943E-09         0.00000E+00
    0.29179E-09        -0.14908E-09         0.00000E+00
    0.29199E-09        -0.16166E-09         0.00000E+00
    0.29216E-09        -0.16758E-09         0.00000E+00
    0.29230E-09        -0.16725E-09         0.00000E+00
    0.29242E-09        -0.16105E-09         0.00000E+00
    0.29251E-09        -0.14935E-09         0.00000E+00
    0.29258E-09        -0.13250E-09         0.00000E+00
    0.29263E-09        -0.11079E-09         0.00000E+00
    0.29267E-09        -0.84503E-10         0.00000E+00
    0.29270E-09        -0.53891E-10         0.00000E+00
    0.29271E-09        -0.19185E-10         0.00000E+00
    0.87302E-09        -0.24594E-10         0.00000E+00
    0.87332E-09        -0.67752E-10         0.00000E+00
    0.87384E-09        -0.10275E-09         0.00000E+00
    0.87444E-09        -0.12988E-09         0.00000E+00
    0.87505E-09        -0.14950E-09         0.00000E+00
    0.87561E-09        -0.16204E-09         0.00000E+00
    0.87610E-09        -0.16790E-09         0.00000E+00
    0.87650E-09        -0.16751E-09         0.00000E+00
    0.87683E-09        -0.16126E-09         0.00000E+00
    0.87707E-09        -0.14952E-09         0.00000E+00
    0.87726E-09        -0.13263E-09         0.00000E+00
    0.87741E-09        -0.11089E-09         0.00000E+00
    0.87752E-09        -0.84580E-10         0.00000E+00
    0.87759E-09        -0.53944E-10         0.00000E+00
    0.87763E-09        -0.19207E-10         0.00000E+00
    0.14542E-08        -0.24863E-10         0.00000E+00
    0.14547E-08        -0.68384E-10         0.00000E+00
    0.14555E-08        -0.10355E-09         0.00000E+00
    0.14564E-08        -0.13072E-09         0.00000E+00
    0.14574E-08        -0.15030E-09         0.00000E+00
    0.14582E-08        -0.16274E-09         0.00000E+00
    0.14589E-08        -0.16849E-09         0.00000E+00
    0.14595E-08        -0.16799E-09         0.00000E+00
    0.14599E-08        -0.16163E-09         0.00000E+00
    0.14603E-08        -0.14980E-09         0.00000E+00
    0.14605E-08        -0.13285E-09         0.00000E+00
    0.14607E-08        -0.11106E-09         0.00000E+00
    0.14608E-08        -0.84710E-10         0.00000E+00
    0.14609E-08        -0.54034E-10         0.00000E+00
    0.14610E-08        -0.19246E-10         0.00000E+00
    0.20341E-08        -0.25242E-10         0.00000E+00
    0.20347E-08        -0.69263E-10         0.00000E+00
    0.20357E-08        -0.10466E-09         0.00000E+00
    0.20369E-08        -0.13186E-09         0.00000E+00
    0.20380E-08        -0.15136E-09         0.00000E+00
    0.20390E-08        -0.16366E-09         0.00000E+00
    0.20398E-08        -0.16924E-09         0.00000E+00
    0.20404E-08        -0.16856E-09         0.00000E+00
    0.20409E-08        -0.16206E-09         0.00000E+00
    0.20412E-08        -0.15012E-09         0.00000E+00
    0.20414E-08        -0.13307E-09         0.00000E+00
    0.20415E-08        -0.11123E-09         0.00000E+00
    0.20416E-08        -0.84844E-10         0.00000E+00
    0.20417E-08        -0.54132E-10         0.00000E+00
    0.20417E-08        -0.19291E-10         0.00000E+00
    0.26120E-08        -0.25700E-10         0.00000E+00
    0.26127E-08        -0.70311E-10         0.00000E+00
    0.26138E-08        -0.10595E-09         0.00000E+00
    0.26150E-08        -0.13317E-09         0.00000E+00
    0.26162E-08        -0.15254E-09         0.00000E+00
    0.26172E-08        -0.16463E-09         0.00000E+00
    0.26179E-08        -0.16998E-09         0.00000E+00
    0.26184E-08        -0.16909E-09         0.00000E+00
    0.26186E-08        -0.16240E-09         0.00000E+00
    0.26188E-08        -0.15033E-09         0.00000E+00
    0.26188E-08        -0.13320E-09         0.00000E+00
    0.26187E-08        -0.11131E-09         0.00000E+00
    0.26187E-08        -0.84910E-10         0.00000E+00
    0.26186E-08        -0.54192E-10         0.00000E+00
    0.26186E-08        -0.19326E-10         0.00000E+00
    0.31872E-08        -0.26198E-10         0.00000E+00
    0.31879E-08        -0.71423E-10         0.00000E+00
    0.31890E-08        -0.10728E-09         0.00000E+00
    0.31901E-08        -0.13445E-09         0.00000E+00
    0.31911E-08        -0.15362E-09         0.00000E+00
    0.31918E-08        -0.16544E-09         0.00000E+00
    0.31922E-08        -0.17050E-09         0.00000E+00
    0.31923E-08        -0.16935E-09         0.00000E+00
    0.31922E-08        -0.16247E-09         0.00000E+00
    0.31919E-08        -0.15026E-09         0.00000E+00
    0.31915E-08        -0.13307E-09         0.00000E+00
    0.31912E-08        -0.11118E-09         0.00000E+00
    0.31909E-08        -0.84819E-10         0.00000E+00
    0.31906E-08        -0.54156E-10         0.00000E+00
    0.31905E-08        -0.19331E-10         0.00000E+00
    0.37588E-08        -0.26688E-10         0.00000E+00
    0.37593E-08        -0.72476E-10         0.00000E+00
    0.37602E-08        -0.10846E-09         0.00000E+00
    0.37610E-08        -0.13550E-09         0.00000E+00
    0.37615E-08        -0.15438E-09         0.00000E+00
    0.37617E-08        -0.16584E-09         0.00000E+00
    0.37615E-08        -0.17056E-09         0.00000E+00
    0.37610E-08        -0.16912E-09         0.00000E+00
    0.37603E-08        -0.16203E-09         0.00000E+00
    0.37594E-08        -0.14971E-09         0.00000E+00
    0.37584E-08        -0.13251E-09         0.00000E+00
    0.37576E-08        -0.11069E-09         0.00000E+00
    0.37569E-08        -0.84460E-10         0.00000E+00
    0.37564E-08        -0.53957E-10         0.00000E+00
    0.37561E-08        -0.19281E-10         0.00000E+00
    0.43255E-08        -0.27115E-10         0.00000E+00
    0.43258E-08        -0.73325E-10         0.00000E+00
    0.43263E-08        -0.10930E-09         0.00000E+00
    0.43265E-08        -0.13605E-09         0.00000E+00
    0.43264E-08        -0.15452E-09         0.00000E+00
    0.43258E-08        -0.16554E-09         0.00000E+00
    0.43247E-08        -0.16986E-09         0.00000E+00
    0.43233E-08        -0.16811E-09         0.00000E+00
    0.43216E-08        -0.16084E-09         0.00000E+00
    0.43198E-08        -0.14846E-09         0.00000E+00
    0.43181E-08        -0.13132E-09         0.00000E+00
    0.43166E-08        -0.10968E-09         0.00000E+00
    0.43153E-08        -0.83712E-10         0.00000E+00
    0.43145E-08        -0.53517E-10         0.00000E+00
    0.43140E-08        -0.19150E-10         0.00000E+00
    0.48861E-08        -0.27420E-10         0.00000E+00
    0.48861E-08        -0.73812E-10         0.00000E+00
    0.48860E-08        -0.10956E-09         0.00000E+00
    0.48854E-08        -0.13585E-09         0.00000E+00
    0.48843E-08        -0.15376E-09         0.00000E+00
    0.48825E-08        -0.16424E-09         0.00000E+00
    0.48802E-08        -0.16811E-09         0.00000E+00
    0.48776E-08        -0.16604E-09         0.00000E+00
    0.48747E-08        -0.15861E-09         0.00000E+00
    0.48718E-08        -0.14624E-09         0.00000E+00
    0.48690E-08        -0.12929E-09         0.00000E+00
    0.48666E-08        -0.10798E-09         0.00000E+00
    0.48647E-08        -0.82440E-10         0.00000E+00
    0.48633E-08        -0.52751E-10         0.00000E+00
    0.48626E-08        -0.18907E-10         0.00000E+00
    0.54389E-08        -0.27536E-10         0.00000E+00
    0.54385E-08        -0.73769E-10         0.00000E+00
    0.54376E-08        -0.10899E-09         0.00000E+00
    0.54360E-08        -0.13459E-09         0.00000E+00
    0.54335E-08        -0.15178E-09         0.00000E+00
    0.54303E-08        -0.16161E-09         0.00000E+00
    0.54265E-08        -0.16496E-09         0.00000E+00
    0.54223E-08        -0.16258E-09         0.00000E+00
    0.54179E-08        -0.15505E-09         0.00000E+00
    0.54136E-08        -0.14281E-09         0.00000E+00
    0.54096E-08        -0.12619E-09         0.00000E+00
    0.54061E-08        -0.10539E-09         0.00000E+00
    0.54033E-08        -0.80508E-10         0.00000E+00
    0.54013E-08        -0.51572E-10         0.00000E+00
    0.54003E-08        -0.18521E-10         0.00000E+00
    0.59823E-08        -0.27398E-10         0.00000E+00
    0.59813E-08        -0.73020E-10         0.00000E+00
    0.59794E-08        -0.10736E-09         0.00000E+00
    0.59764E-08        -0.13198E-09         0.00000E+00
    0.59723E-08        -0.14825E-09         0.00000E+00
    0.59674E-08        -0.15730E-09         0.00000E+00
    0.59617E-08        -0.16011E-09         0.00000E+00
    0.59556E-08        -0.15744E-09         0.00000E+00
    0.59495E-08        -0.14989E-09         0.00000E+00
    0.59435E-08        -0.13791E-09         0.00000E+00
    0.59379E-08        -0.12180E-09         0.00000E+00
    0.59332E-08        -0.10173E-09         0.00000E+00
    0.59294E-08        -0.77778E-10         0.00000E+00
    0.59267E-08        -0.49894E-10         0.00000E+00
    0.59253E-08        -0.17963E-10         0.00000E+00
    0.65141E-08        -0.26935E-10         0.00000E+00
    0.65124E-08        -0.71391E-10         0.00000E+00
    0.65093E-08        -0.10441E-09         0.00000E+00
    0.65047E-08        -0.12773E-09         0.00000E+00
    0.64987E-08        -0.14286E-09         0.00000E+00
    0.64917E-08        -0.15102E-09         0.00000E+00
    0.64838E-08        -0.15324E-09         0.00000E+00
    0.64756E-08        -0.15031E-09         0.00000E+00
    0.64674E-08        -0.14284E-09         0.00000E+00
    0.64595E-08        -0.13128E-09         0.00000E+00
    0.64522E-08        -0.11590E-09         0.00000E+00
    0.64460E-08        -0.96844E-10         0.00000E+00
    0.64410E-08        -0.74119E-10         0.00000E+00
    0.64376E-08        -0.47634E-10         0.00000E+00
    0.64358E-08        -0.17201E-10         0.00000E+00
    0.70319E-08        -0.26084E-10         0.00000E+00
    0.70295E-08        -0.68713E-10         0.00000E+00
    0.70250E-08        -0.99902E-10         0.00000E+00
    0.70185E-08        -0.12157E-09         0.00000E+00
    0.70104E-08        -0.13531E-09         0.00000E+00
    0.70010E-08        -0.14245E-09         0.00000E+00
    0.69908E-08        -0.14405E-09         0.00000E+00
    0.69801E-08        -0.14092E-09         0.00000E+00
    0.69696E-08        -0.13367E-09         0.00000E+00
    0.69595E-08        -0.12272E-09         0.00000E+00
    0.69504E-08        -0.10832E-09         0.00000E+00
    0.69425E-08        -0.90564E-10         0.00000E+00
    0.69363E-08        -0.69414E-10         0.00000E+00
    0.69320E-08        -0.44716E-10         0.00000E+00
    0.69297E-08        -0.16209E-10         0.00000E+00
    0.75333E-08        -0.24780E-10         0.00000E+00
    0.75301E-08        -0.64829E-10         0.00000E+00
    0.75240E-08        -0.93629E-10         0.00000E+00
    0.75154E-08        -0.11324E-09         0.00000E+00
    0.75049E-08        -0.12536E-09         0.00000E+00
    0.74930E-08        -0.13136E-09         0.00000E+00
    0.74801E-08        -0.13232E-09         0.00000E+00
    0.74669E-08        -0.12906E-09         0.00000E+00
    0.74538E-08        -0.12217E-09         0.00000E+00
    0.74415E-08        -0.11205E-09         0.00000E+00
    0.74303E-08        -0.98895E-10         0.00000E+00
    0.74207E-08        -0.82767E-10         0.00000E+00
    0.74131E-08        -0.63568E-10         0.00000E+00
    0.74078E-08        -0.41078E-10         0.00000E+00
    0.74051E-08        -0.14964E-10         0.00000E+00
    0.80155E-08        -0.22968E-10         0.00000E+00
    0.80113E-08        -0.59604E-10         0.00000E+00
    0.80035E-08        -0.85408E-10         0.00000E+00
    0.79928E-08        -0.10255E-09         0.00000E+00
    0.79797E-08        -0.11280E-09         0.00000E+00
    0.79650E-08        -0.11754E-09         0.00000E+00
    0.79494E-08        -0.11786E-09         0.00000E+00
    0.79334E-08        -0.11456E-09         0.00000E+00
    0.79178E-08        -0.10821E-09         0.00000E+00
    0.79031E-08        -0.99140E-10         0.00000E+00
    0.78898E-08        -0.87527E-10         0.00000E+00
    0.78784E-08        -0.73369E-10         0.00000E+00
    0.78694E-08        -0.56514E-10         0.00000E+00
    0.78631E-08        -0.36677E-10         0.00000E+00
    0.78598E-08        -0.13449E-10         0.00000E+00
    0.84755E-08        -0.20603E-10         0.00000E+00
    0.84703E-08        -0.52931E-10         0.00000E+00
    0.84607E-08        -0.75104E-10         0.00000E+00
    0.84476E-08        -0.89364E-10         0.00000E+00
    0.84319E-08        -0.97497E-10         0.00000E+00
    0.84144E-08        -0.10089E-09         0.00000E+00
    0.83960E-08        -0.10060E-09         0.00000E+00
    0.83773E-08        -0.97374E-10         0.00000E+00
    0.83591E-08        -0.91728E-10         0.00000E+00
    0.83420E-08        -0.83960E-10         0.00000E+00
    0.83266E-08        -0.74181E-10         0.00000E+00
    0.83135E-08        -0.62338E-10         0.00000E+00
    0.83030E-08        -0.48223E-10         0.00000E+00
    0.82957E-08        -0.31488E-10         0.00000E+00
    0.82919E-08        -0.11654E-10         0.00000E+00
    0.89101E-08        -0.17652E-10         0.00000E+00
    0.89038E-08        -0.44742E-10         0.00000E+00
    0.88924E-08        -0.62644E-10         0.00000E+00
    0.88770E-08        -0.73620E-10         0.00000E+00
    0.88587E-08        -0.79432E-10         0.00000E+00
    0.88385E-08        -0.81417E-10         0.00000E+00
    0.88173E-08        -0.80555E-10         0.00000E+00
    0.87960E-08        -0.77533E-10         0.00000E+00
    0.87753E-08        -0.72790E-10         0.00000E+00
    0.87560E-08        -0.66562E-10         0.00000E+00
    0.87386E-08        -0.58903E-10         0.00000E+00
    0.87237E-08        -0.49707E-10         0.00000E+00
    0.87119E-08        -0.38714E-10         0.00000E+00
    0.87036E-08        -0.25520E-10         0.00000E+00
    0.86993E-08        -0.95782E-11         0.00000E+00
    0.93160E-08        -0.14100E-10         0.00000E+00
    0.93087E-08        -0.35017E-10         0.00000E+00
    0.92955E-08        -0.48034E-10         0.00000E+00
    0.92778E-08        -0.55367E-10         0.00000E+00
    0.92570E-08        -0.58694E-10         0.00000E+00
    0.92343E-08        -0.59248E-10         0.00000E+00
    0.92106E-08        -0.57899E-10         0.00000E+00
    0.91869E-08        -0.55227E-10         0.00000E+00
    0.91640E-08        -0.51581E-10         0.00000E+00
    0.91427E-08        -0.47121E-10         0.00000E+00
    0.91235E-08        -0.41842E-10         0.00000E+00
    0.91071E-08        -0.35590E-10         0.00000E+00
    0.90941E-08        -0.28063E-10         0.00000E+00
    0.90850E-08        -0.18812E-10         0.00000E+00
    0.90801E-08        -0.72321E-11         0.00000E+00
    0.96896E-08        -0.99498E-11         0.00000E+00
    0.96813E-08        -0.23795E-10         0.00000E+00
    0.96665E-08        -0.31373E-10         0.00000E+00
    0.96468E-08        -0.34775E-10         0.00000E+00
    0.96238E-08        -0.35524E-10         0.00000E+00
    0.95989E-08        -0.34685E-10         0.00000E+00
    0.95731E-08        -0.32967E-10         0.00000E+00
    0.95475E-08        -0.30809E-10         0.00000E+00
    0.95229E-08        -0.28447E-10         0.00000E+00
    0.94999E-08        -0.25954E-10         0.00000E+00
    0.94794E-08        -0.23268E-10         0.00000E+00
    0.94618E-08        -0.20198E-10         0.00000E+00
    0.94478E-08        -0.16415E-10         0.00000E+00
    0.94379E-08        -0.11443E-10         0.00000E+00
    0.94327E-08        -0.46383E-11         0.00000E+00
    0.10028E-07        -0.52320E-11         0.00000E+00
    0.10018E-07        -0.11191E-10         0.00000E+00
    0.10002E-07        -0.12878E-10         0.00000E+00
    0.99808E-08        -0.12170E-10         0.00000E+00
    0.99561E-08        -0.10344E-10         0.00000E+00
    0.99295E-08        -0.82251E-11         0.00000E+00
    0.99023E-08        -0.63025E-11         0.00000E+00
    0.98754E-08        -0.48352E-11         0.00000E+00
    0.98497E-08        -0.39219E-11         0.00000E+00
    0.98258E-08        -0.35455E-11         0.00000E+00
    0.98044E-08        -0.35926E-11         0.00000E+00
    0.97860E-08        -0.38514E-11         0.00000E+00
    0.97713E-08        -0.39923E-11         0.00000E+00
    0.97609E-08        -0.35385E-11         0.00000E+00
    0.97554E-08        -0.18336E-11         0.00000E+00
    0.10326E-07        -0.59042E-14         0.00000E+00
    0.10316E-07         0.25953E-11         0.00000E+00
    0.10299E-07         0.70906E-11         0.00000E+00
    0.10276E-07         0.11937E-10         0.00000E+00
    0.10251E-07         0.16204E-10         0.00000E+00
    0.10223E-07         0.19398E-10         0.00000E+00
    0.10196E-07         0.21311E-10         0.00000E+00
    0.10168E-07         0.21905E-10         0.00000E+00
    0.10142E-07         0.21240E-10         0.00000E+00
    0.10118E-07         0.19424E-10         0.00000E+00
    0.10097E-07         0.16609E-10         0.00000E+00
    0.10078E-07         0.12999E-10         0.00000E+00
    0.10063E-07         0.88915E-11         0.00000E+00
    0.10053E-07         0.47237E-11         0.00000E+00
    0.10047E-07         0.11294E-11         0.00000E+00
    0.10582E-07         0.56326E-11         0.00000E+00
    0.10571E-07         0.17253E-10         0.00000E+00
    0.10554E-07         0.28000E-10         0.00000E+00
    0.10531E-07         0.36806E-10         0.00000E+00
    0.10505E-07         0.43218E-10         0.00000E+00
    0.10478E-07         0.47171E-10         0.00000E+00
    0.10451E-07         0.48808E-10         0.00000E+00
    0.10424E-07         0.48354E-10         0.00000E+00
    0.10399E-07         0.46037E-10         0.00000E+00
    0.10376E-07         0.42054E-10         0.00000E+00
    0.10356E-07         0.36573E-10         0.00000E+00
    0.10338E-07         0.29756E-10         0.00000E+00
    0.10323E-07         0.21819E-10         0.00000E+00
    0.10313E-07         0.13108E-10         0.00000E+00
    0.10307E-07         0.41805E-11         0.00000E+00
    0.10791E-07         0.11543E-10         0.00000E+00
    0.10780E-07         0.32336E-10         0.00000E+00
    0.10763E-07         0.49098E-10         0.00000E+00
    0.10740E-07         0.61421E-10         0.00000E+00
    0.10716E-07         0.69481E-10         0.00000E+00
    0.10691E-07         0.73755E-10         0.00000E+00
    0.10666E-07         0.74805E-10         0.00000E+00
    0.10642E-07         0.73149E-10         0.00000E+00
    0.10619E-07         0.69190E-10         0.00000E+00
    0.10598E-07         0.63199E-10         0.00000E+00
    0.10580E-07         0.55328E-10         0.00000E+00
    0.10563E-07         0.45655E-10         0.00000E+00
    0.10550E-07         0.34256E-10         0.00000E+00
    0.10540E-07         0.21310E-10         0.00000E+00
    0.10535E-07         0.72301E-11         0.00000E+00
    0.10949E-07         0.17527E-10         0.00000E+00
    0.10939E-07         0.47224E-10         0.00000E+00
    0.10923E-07         0.69355E-10         0.00000E+00
    0.10903E-07         0.84411E-10         0.00000E+00
    0.10881E-07         0.93392E-10         0.00000E+00
    0.10859E-07         0.97431E-10         0.00000E+00
    0.10839E-07         0.97563E-10         0.00000E+00
    0.10819E-07         0.94607E-10         0.00000E+00
    0.10801E-07         0.89128E-10         0.00000E+00
    0.10784E-07         0.81447E-10         0.00000E+00
    0.10769E-07         0.71671E-10         0.00000E+00
    0.10755E-07         0.59742E-10         0.00000E+00
    0.10744E-07         0.45528E-10         0.00000E+00
    0.10735E-07         0.28949E-10         0.00000E+00
    0.10730E-07         0.10166E-10         0.00000E+00
    0.11054E-07         0.23309E-10         0.00000E+00
    0.11045E-07         0.61047E-10         0.00000E+00
    0.11031E-07         0.87355E-10         0.00000E+00
    0.11015E-07         0.10396E-09         0.00000E+00
    0.10998E-07         0.11289E-09         0.00000E+00
    0.10983E-07         0.11606E-09         0.00000E+00
    0.10969E-07         0.11497E-09         0.00000E+00
    0.10955E-07         0.11071E-09         0.00000E+00
    0.10944E-07         0.10398E-09         0.00000E+00
    0.10933E-07         0.95119E-10         0.00000E+00
    0.10922E-07         0.84149E-10         0.00000E+00
    0.10913E-07         0.70844E-10         0.00000E+00
    0.10905E-07         0.54792E-10         0.00000E+00
    0.10898E-07         0.35540E-10         0.00000E+00
    0.10894E-07         0.12849E-10         0.00000E+00
    0.11101E-07         0.28489E-10         0.00000E+00
    0.11095E-07         0.72564E-10         0.00000E+00
    0.11085E-07         0.10113E-09         0.00000E+00
    0.11075E-07         0.11762E-09         0.00000E+00
    0.11067E-07         0.12537E-09         0.00000E+00
    0.11060E-07         0.12704E-09         0.00000E+00
    0.11055E-07         0.12454E-09         0.00000E+00
    0.11051E-07         0.11916E-09         0.00000E+00
    0.11047E-07         0.11163E-09         0.00000E+00
    0.11044E-07         0.10228E-09         0.00000E+00
    0.11041E-07         0.91047E-10         0.00000E+00
    0.11038E-07         0.77522E-10         0.00000E+00
    0.11034E-07         0.60976E-10         0.00000E+00
    0.11030E-07         0.40458E-10         0.00000E+00
    0.11028E-07         0.15100E-10         0.00000E+00
    0.11087E-07         0.32458E-10         0.00000E+00
    0.11084E-07         0.79886E-10         0.00000E+00
    0.11081E-07         0.10784E-09         0.00000E+00
    0.11081E-07         0.12217E-09         0.00000E+00
    0.11085E-07         0.12759E-09         0.00000E+00
    0.11090E-07         0.12734E-09         0.00000E+00
    0.11097E-07         0.12353E-09         0.00000E+00
    0.11105E-07         0.11744E-09         0.00000E+00
    0.11113E-07         0.10978E-09         0.00000E+00
    0.11120E-07         0.10081E-09         0.00000E+00
    0.11126E-07         0.90393E-10         0.00000E+00
    0.11131E-07         0.78012E-10         0.00000E+00
    0.11133E-07         0.62671E-10         0.00000E+00
    0.11134E-07         0.42831E-10         0.00000E+00
    0.11133E-07         0.16671E-10         0.00000E+00
    0.11006E-07         0.34155E-10         0.00000E+00
    0.11009E-07         0.79875E-10         0.00000E+00
    0.11019E-07         0.10324E-09         0.00000E+00
    0.11034E-07         0.11329E-09         0.00000E+00
    0.11053E-07         0.11565E-09         0.00000E+00
    0.11075E-07         0.11360E-09         0.00000E+00
    0.11097E-07         0.10903E-09         0.00000E+00
    0.11120E-07         0.10301E-09         0.00000E+00
    0.11141E-07         0.96106E-10         0.00000E+00
    0.11161E-07         0.88493E-10         0.00000E+00
    0.11178E-07         0.80021E-10         0.00000E+00
    0.11193E-07         0.70168E-10         0.00000E+00
    0.11204E-07         0.57894E-10         0.00000E+00
    0.11211E-07         0.41313E-10         0.00000E+00
    0.11213E-07         0.17150E-10         0.00000E+00
    0.10853E-07         0.31396E-10         0.00000E+00
    0.10868E-07         0.66437E-10         0.00000E+00
    0.10897E-07         0.80893E-10         0.00000E+00
    0.10934E-07         0.85575E-10         0.00000E+00
    0.10975E-07         0.85301E-10         0.00000E+00
    0.11016E-07         0.82465E-10         0.00000E+00
    0.11057E-07         0.78332E-10         0.00000E+00
    0.11096E-07         0.73578E-10         0.00000E+00
    0.11133E-07         0.68534E-10         0.00000E+00
    0.11167E-07         0.63292E-10         0.00000E+00
    0.11198E-07         0.57739E-10         0.00000E+00
    0.11226E-07         0.51512E-10         0.00000E+00
    0.11248E-07         0.43846E-10         0.00000E+00
    0.11265E-07         0.33175E-10         0.00000E+00
    0.11273E-07         0.15899E-10         0.00000E+00
    0.10616E-07         0.14265E-10         0.00000E+00
    0.10660E-07         0.27666E-10         0.00000E+00
    0.10721E-07         0.32157E-10         0.00000E+00
    0.10788E-07         0.33131E-10         0.00000E+00
    0.10854E-07         0.32485E-10         0.00000E+00
    0.10919E-07         0.31069E-10         0.00000E+00
    0.10980E-07         0.29309E-10         0.00000E+00
    0.11037E-07         0.27424E-10         0.00000E+00
    0.11091E-07         0.25518E-10         0.00000E+00
    0.11141E-07         0.23615E-10         0.00000E+00
    0.11187E-07         0.21676E-10         0.00000E+00
    0.11228E-07         0.19577E-10         0.00000E+00
    0.11266E-07         0.17048E-10         0.00000E+00
    0.11297E-07         0.13489E-10         0.00000E+00
    0.11319E-07         0.73735E-11         0.00000E+00
POINT_DATA        496
VECTORS vDarcyNodal double 
    0.29105E-09        -0.24418E-10         0.00000E+00
    0.29111E-09        -0.45878E-10         0.00000E+00
    0.29127E-09        -0.84778E-10         0.00000E+00
    0.29147E-09        -0.11577E-09         0.00000E+00
    0.29169E-09        -0.13914E-09         0.00000E+00
    0.29189E-09        -0.15527E-09         0.00000E+00
    0.29208E-09        -0.16453E-09         0.00000E+00
    0.29224E-09        -0.16734E-09         0.00000E+00
    0.29237E-09        -0.16409E-09         0.00000E+00
    0.29247E-09        -0.15515E-09         0.00000E+00
    0.29255E-09        -0.14089E-09         0.00000E+00
    0.29261E-09        -0.12161E-09         0.00000E+00
    0.29266E-09        -0.97623E-10         0.00000E+00
    0.29269E-09        -0.69179E-10         0.00000E+00
    0.29271E-09        -0.36528E-10         0.00000E+00
    0.29272E-09        -0.19179E-10         0.00000E+00
    0.58198E-09        -0.24489E-10         0.00000E+00
    0.58211E-09        -0.45998E-10         0.00000E+00
    0.58241E-09        -0.84970E-10         0.00000E+00
    0.58280E-09        -0.11599E-09         0.00000E+00
    0.58322E-09        -0.13937E-09         0.00000E+00
    0.58362E-09        -0.15547E-09         0.00000E+00
    0.58398E-09        -0.16471E-09         0.00000E+00
    0.58428E-09        -0.16749E-09         0.00000E+00
    0.58453E-09        -0.16421E-09         0.00000E+00
    0.58472E-09        -0.15525E-09         0.00000E+00
    0.58487E-09        -0.14097E-09         0.00000E+00
    0.58498E-09        -0.12168E-09         0.00000E+00
    0.58506E-09        -0.97671E-10         0.00000E+00
    0.58513E-09        -0.69214E-10         0.00000E+00
    0.58517E-09        -0.36548E-10         0.00000E+00
    0.58518E-09        -0.19191E-10         0.00000E+00
    0.11635E-08        -0.24698E-10         0.00000E+00
    0.11637E-08        -0.46348E-10         0.00000E+00
    0.11643E-08        -0.85529E-10         0.00000E+00
    0.11650E-08        -0.11663E-09         0.00000E+00
    0.11658E-08        -0.14001E-09         0.00000E+00
    0.11666E-08        -0.15607E-09         0.00000E+00
    0.11672E-08        -0.16523E-09         0.00000E+00
    0.11678E-08        -0.16792E-09         0.00000E+00
    0.11682E-08        -0.16456E-09         0.00000E+00
    0.11686E-08        -0.15553E-09         0.00000E+00
    0.11688E-08        -0.14118E-09         0.00000E+00
    0.11690E-08        -0.12184E-09         0.00000E+00
    0.11691E-08        -0.97800E-10         0.00000E+00
    0.11692E-08        -0.69309E-10         0.00000E+00
    0.11693E-08        -0.36603E-10         0.00000E+00
    0.11693E-08        -0.19224E-10         0.00000E+00
    0.17440E-08        -0.25029E-10         0.00000E+00
    0.17443E-08        -0.46899E-10         0.00000E+00
    0.17451E-08        -0.86404E-10         0.00000E+00
    0.17461E-08        -0.11763E-09         0.00000E+00
    0.17472E-08        -0.14101E-09         0.00000E+00
    0.17482E-08        -0.15697E-09         0.00000E+00
    0.17490E-08        -0.16601E-09         0.00000E+00
    0.17497E-08        -0.16855E-09         0.00000E+00
    0.17502E-08        -0.16506E-09         0.00000E+00
    0.17506E-08        -0.15591E-09         0.00000E+00
    0.17509E-08        -0.14147E-09         0.00000E+00
    0.17510E-08        -0.12206E-09         0.00000E+00
    0.17512E-08        -0.97969E-10         0.00000E+00
    0.17513E-08        -0.69435E-10         0.00000E+00
    0.17513E-08        -0.36677E-10         0.00000E+00
    0.17513E-08        -0.19269E-10         0.00000E+00
    0.23228E-08        -0.25456E-10         0.00000E+00
    0.23232E-08        -0.47606E-10         0.00000E+00
    0.23242E-08        -0.87514E-10         0.00000E+00
    0.23254E-08        -0.11888E-09         0.00000E+00
    0.23266E-08        -0.14222E-09         0.00000E+00
    0.23276E-08        -0.15805E-09         0.00000E+00
    0.23285E-08        -0.16689E-09         0.00000E+00
    0.23292E-08        -0.16925E-09         0.00000E+00
    0.23296E-08        -0.16557E-09         0.00000E+00
    0.23299E-08        -0.15627E-09         0.00000E+00
    0.23300E-08        -0.14172E-09         0.00000E+00
    0.23301E-08        -0.12224E-09         0.00000E+00
    0.23301E-08        -0.98106E-10         0.00000E+00
    0.23301E-08        -0.69541E-10         0.00000E+00
    0.23301E-08        -0.36745E-10         0.00000E+00
    0.23302E-08        -0.19313E-10         0.00000E+00
    0.28994E-08        -0.25944E-10         0.00000E+00
    0.28998E-08        -0.48405E-10         0.00000E+00
    0.29008E-08        -0.88745E-10         0.00000E+00
    0.29020E-08        -0.12023E-09         0.00000E+00
    0.29031E-08        -0.14349E-09         0.00000E+00
    0.29041E-08        -0.15912E-09         0.00000E+00
    0.29048E-08        -0.16771E-09         0.00000E+00
    0.29052E-08        -0.16982E-09         0.00000E+00
    0.29054E-08        -0.16592E-09         0.00000E+00
    0.29054E-08        -0.15646E-09         0.00000E+00
    0.29053E-08        -0.14180E-09         0.00000E+00
    0.29050E-08        -0.12227E-09         0.00000E+00
    0.29048E-08        -0.98117E-10         0.00000E+00
    0.29047E-08        -0.69561E-10         0.00000E+00
    0.29046E-08        -0.36772E-10         0.00000E+00
    0.29046E-08        -0.19339E-10         0.00000E+00
    0.34728E-08        -0.26451E-10         0.00000E+00
    0.34732E-08        -0.49216E-10         0.00000E+00
    0.34740E-08        -0.89956E-10         0.00000E+00
    0.34751E-08        -0.12150E-09         0.00000E+00
    0.34760E-08        -0.14459E-09         0.00000E+00
    0.34766E-08        -0.15995E-09         0.00000E+00
    0.34769E-08        -0.16823E-09         0.00000E+00
    0.34768E-08        -0.17004E-09         0.00000E+00
    0.34765E-08        -0.16590E-09         0.00000E+00
    0.34759E-08        -0.15627E-09         0.00000E+00
    0.34753E-08        -0.14153E-09         0.00000E+00
    0.34747E-08        -0.12198E-09         0.00000E+00
    0.34741E-08        -0.97883E-10         0.00000E+00
    0.34737E-08        -0.69414E-10         0.00000E+00
    0.34734E-08        -0.36715E-10         0.00000E+00
    0.34733E-08        -0.19323E-10         0.00000E+00
    0.40419E-08        -0.26924E-10         0.00000E+00
    0.40422E-08        -0.49947E-10         0.00000E+00
    0.40429E-08        -0.90983E-10         0.00000E+00
    0.40436E-08        -0.12246E-09         0.00000E+00
    0.40440E-08        -0.14528E-09         0.00000E+00
    0.40440E-08        -0.16027E-09         0.00000E+00
    0.40435E-08        -0.16817E-09         0.00000E+00
    0.40427E-08        -0.16964E-09         0.00000E+00
    0.40416E-08        -0.16525E-09         0.00000E+00
    0.40403E-08        -0.15547E-09         0.00000E+00
    0.40389E-08        -0.14070E-09         0.00000E+00
    0.40376E-08        -0.12122E-09         0.00000E+00
    0.40365E-08        -0.97269E-10         0.00000E+00
    0.40357E-08        -0.69003E-10         0.00000E+00
    0.40352E-08        -0.36523E-10         0.00000E+00
    0.40350E-08        -0.19240E-10         0.00000E+00
    0.46056E-08        -0.27306E-10         0.00000E+00
    0.46058E-08        -0.50493E-10         0.00000E+00
    0.46061E-08        -0.91641E-10         0.00000E+00
    0.46062E-08        -0.12289E-09         0.00000E+00
    0.46058E-08        -0.14529E-09         0.00000E+00
    0.46049E-08        -0.15980E-09         0.00000E+00
    0.46034E-08        -0.16724E-09         0.00000E+00
    0.46015E-08        -0.16834E-09         0.00000E+00
    0.45993E-08        -0.16370E-09         0.00000E+00
    0.45970E-08        -0.15382E-09         0.00000E+00
    0.45946E-08        -0.13908E-09         0.00000E+00
    0.45925E-08        -0.11979E-09         0.00000E+00
    0.45907E-08        -0.96125E-10         0.00000E+00
    0.45893E-08        -0.68225E-10         0.00000E+00
    0.45885E-08        -0.36143E-10         0.00000E+00
    0.45882E-08        -0.19060E-10         0.00000E+00
    0.51625E-08        -0.27533E-10         0.00000E+00
    0.51625E-08        -0.50739E-10         0.00000E+00
    0.51622E-08        -0.91727E-10         0.00000E+00
    0.51614E-08        -0.12251E-09         0.00000E+00
    0.51600E-08        -0.14432E-09         0.00000E+00
    0.51578E-08        -0.15821E-09         0.00000E+00
    0.51550E-08        -0.16511E-09         0.00000E+00
    0.51517E-08        -0.16581E-09         0.00000E+00
    0.51481E-08        -0.16095E-09         0.00000E+00
    0.51445E-08        -0.15103E-09         0.00000E+00
    0.51409E-08        -0.13645E-09         0.00000E+00
    0.51377E-08        -0.11748E-09         0.00000E+00
    0.51350E-08        -0.94290E-10         0.00000E+00
    0.51330E-08        -0.66966E-10         0.00000E+00
    0.51317E-08        -0.35514E-10         0.00000E+00
    0.51313E-08        -0.18754E-10         0.00000E+00
    0.57107E-08        -0.27539E-10         0.00000E+00
    0.57104E-08        -0.50566E-10         0.00000E+00
    0.57094E-08        -0.91033E-10         0.00000E+00
    0.57076E-08        -0.12107E-09         0.00000E+00
    0.57048E-08        -0.14205E-09         0.00000E+00
    0.57011E-08        -0.15517E-09         0.00000E+00
    0.56966E-08        -0.16146E-09         0.00000E+00
    0.56916E-08        -0.16174E-09         0.00000E+00
    0.56863E-08        -0.15669E-09         0.00000E+00
    0.56810E-08        -0.14684E-09         0.00000E+00
    0.56760E-08        -0.13255E-09         0.00000E+00
    0.56715E-08        -0.11410E-09         0.00000E+00
    0.56678E-08        -0.91604E-10         0.00000E+00
    0.56649E-08        -0.65114E-10         0.00000E+00
    0.56631E-08        -0.34579E-10         0.00000E+00
    0.56625E-08        -0.18289E-10         0.00000E+00
    0.62484E-08        -0.27256E-10         0.00000E+00
    0.62478E-08        -0.49852E-10         0.00000E+00
    0.62459E-08        -0.89345E-10         0.00000E+00
    0.62428E-08        -0.11827E-09         0.00000E+00
    0.62383E-08        -0.13818E-09         0.00000E+00
    0.62327E-08        -0.15038E-09         0.00000E+00
    0.62263E-08        -0.15596E-09         0.00000E+00
    0.62193E-08        -0.15581E-09         0.00000E+00
    0.62120E-08        -0.15064E-09         0.00000E+00
    0.62048E-08        -0.14096E-09         0.00000E+00
    0.61981E-08        -0.12715E-09         0.00000E+00
    0.61921E-08        -0.10944E-09         0.00000E+00
    0.61871E-08        -0.87907E-10         0.00000E+00
    0.61833E-08        -0.62558E-10         0.00000E+00
    0.61810E-08        -0.33278E-10         0.00000E+00
    0.61802E-08        -0.17636E-10         0.00000E+00
    0.67734E-08        -0.26615E-10         0.00000E+00
    0.67724E-08        -0.48475E-10         0.00000E+00
    0.67695E-08        -0.86453E-10         0.00000E+00
    0.67648E-08        -0.11387E-09         0.00000E+00
    0.67584E-08        -0.13241E-09         0.00000E+00
    0.67507E-08        -0.14350E-09         0.00000E+00
    0.67420E-08        -0.14830E-09         0.00000E+00
    0.67326E-08        -0.14773E-09         0.00000E+00
    0.67231E-08        -0.14251E-09         0.00000E+00
    0.67138E-08        -0.13317E-09         0.00000E+00
    0.67052E-08        -0.12003E-09         0.00000E+00
    0.66975E-08        -0.10331E-09         0.00000E+00
    0.66911E-08        -0.83056E-10         0.00000E+00
    0.66863E-08        -0.59195E-10         0.00000E+00
    0.66833E-08        -0.31557E-10         0.00000E+00
    0.66822E-08        -0.16766E-10         0.00000E+00
    0.72833E-08        -0.25552E-10         0.00000E+00
    0.72818E-08        -0.46321E-10         0.00000E+00
    0.72777E-08        -0.82162E-10         0.00000E+00
    0.72712E-08        -0.10760E-09         0.00000E+00
    0.72627E-08        -0.12447E-09         0.00000E+00
    0.72526E-08        -0.13427E-09         0.00000E+00
    0.72414E-08        -0.13821E-09         0.00000E+00
    0.72295E-08        -0.13724E-09         0.00000E+00
    0.72175E-08        -0.13208E-09         0.00000E+00
    0.72059E-08        -0.12323E-09         0.00000E+00
    0.71951E-08        -0.11101E-09         0.00000E+00
    0.71856E-08        -0.95571E-10         0.00000E+00
    0.71777E-08        -0.76923E-10         0.00000E+00
    0.71718E-08        -0.54936E-10         0.00000E+00
    0.71680E-08        -0.29368E-10         0.00000E+00
    0.71668E-08        -0.15652E-10         0.00000E+00
    0.77753E-08        -0.24007E-10         0.00000E+00
    0.77734E-08        -0.43287E-10         0.00000E+00
    0.77680E-08        -0.76297E-10         0.00000E+00
    0.77595E-08        -0.99267E-10         0.00000E+00
    0.77487E-08        -0.11413E-09         0.00000E+00
    0.77360E-08        -0.12245E-09         0.00000E+00
    0.77220E-08        -0.12547E-09         0.00000E+00
    0.77074E-08        -0.12414E-09         0.00000E+00
    0.76928E-08        -0.11915E-09         0.00000E+00
    0.76788E-08        -0.11099E-09         0.00000E+00
    0.76658E-08        -0.99934E-10         0.00000E+00
    0.76543E-08        -0.86091E-10         0.00000E+00
    0.76448E-08        -0.69413E-10         0.00000E+00
    0.76377E-08        -0.49711E-10         0.00000E+00
    0.76332E-08        -0.26674E-10         0.00000E+00
    0.76317E-08        -0.14276E-10         0.00000E+00
    0.82467E-08        -0.21929E-10         0.00000E+00
    0.82442E-08        -0.39285E-10         0.00000E+00
    0.82374E-08        -0.68716E-10         0.00000E+00
    0.82269E-08        -0.88693E-10         0.00000E+00
    0.82135E-08        -0.10122E-09         0.00000E+00
    0.81981E-08        -0.10789E-09         0.00000E+00
    0.81814E-08        -0.10993E-09         0.00000E+00
    0.81640E-08        -0.10829E-09         0.00000E+00
    0.81467E-08        -0.10362E-09         0.00000E+00
    0.81302E-08        -0.96357E-10         0.00000E+00
    0.81149E-08        -0.86733E-10         0.00000E+00
    0.81015E-08        -0.74806E-10         0.00000E+00
    0.80904E-08        -0.60471E-10         0.00000E+00
    0.80820E-08        -0.43480E-10         0.00000E+00
    0.80768E-08        -0.23451E-10         0.00000E+00
    0.80750E-08        -0.12622E-10         0.00000E+00
    0.86943E-08        -0.19278E-10         0.00000E+00
    0.86912E-08        -0.34250E-10         0.00000E+00
    0.86829E-08        -0.59320E-10         0.00000E+00
    0.86703E-08        -0.75776E-10         0.00000E+00
    0.86544E-08        -0.85643E-10         0.00000E+00
    0.86362E-08        -0.90504E-10         0.00000E+00
    0.86167E-08        -0.91558E-10         0.00000E+00
    0.85966E-08        -0.89682E-10         0.00000E+00
    0.85767E-08        -0.85481E-10         0.00000E+00
    0.85577E-08        -0.79331E-10         0.00000E+00
    0.85403E-08        -0.71408E-10         0.00000E+00
    0.85249E-08        -0.61713E-10         0.00000E+00
    0.85123E-08        -0.50091E-10         0.00000E+00
    0.85027E-08        -0.36232E-10         0.00000E+00
    0.84967E-08        -0.19691E-10         0.00000E+00
    0.84946E-08        -0.10686E-10         0.00000E+00
    0.91148E-08        -0.16028E-10         0.00000E+00
    0.91112E-08        -0.28145E-10         0.00000E+00
    0.91013E-08        -0.48067E-10         0.00000E+00
    0.90866E-08        -0.60490E-10         0.00000E+00
    0.90683E-08        -0.67411E-10         0.00000E+00
    0.90475E-08        -0.70346E-10         0.00000E+00
    0.90253E-08        -0.70415E-10         0.00000E+00
    0.90026E-08        -0.68407E-10         0.00000E+00
    0.89803E-08        -0.64843E-10         0.00000E+00
    0.89590E-08        -0.60022E-10         0.00000E+00
    0.89396E-08        -0.54058E-10         0.00000E+00
    0.89225E-08        -0.46897E-10         0.00000E+00
    0.89084E-08        -0.38331E-10         0.00000E+00
    0.88977E-08        -0.28002E-10         0.00000E+00
    0.88909E-08        -0.15407E-10         0.00000E+00
    0.88886E-08        -0.84708E-11         0.00000E+00
    0.95049E-08        -0.12172E-10         0.00000E+00
    0.95007E-08        -0.20972E-10         0.00000E+00
    0.94894E-08        -0.34984E-10         0.00000E+00
    0.94726E-08        -0.42912E-10         0.00000E+00
    0.94520E-08        -0.46652E-10         0.00000E+00
    0.94289E-08        -0.47597E-10         0.00000E+00
    0.94043E-08        -0.46733E-10         0.00000E+00
    0.93794E-08        -0.44719E-10         0.00000E+00
    0.93550E-08        -0.41966E-10         0.00000E+00
    0.93319E-08        -0.38681E-10         0.00000E+00
    0.93107E-08        -0.34906E-10         0.00000E+00
    0.92922E-08        -0.30536E-10         0.00000E+00
    0.92768E-08        -0.25323E-10         0.00000E+00
    0.92651E-08        -0.18873E-10         0.00000E+00
    0.92577E-08        -0.10637E-10         0.00000E+00
    0.92551E-08        -0.59935E-11         0.00000E+00
    0.98609E-08        -0.77276E-11         0.00000E+00
    0.98562E-08        -0.12774E-10         0.00000E+00
    0.98436E-08        -0.20185E-10         0.00000E+00
    0.98251E-08        -0.23237E-10         0.00000E+00
    0.98025E-08        -0.23649E-10         0.00000E+00
    0.97774E-08        -0.22613E-10         0.00000E+00
    0.97510E-08        -0.20921E-10         0.00000E+00
    0.97244E-08        -0.19058E-10         0.00000E+00
    0.96985E-08        -0.17291E-10         0.00000E+00
    0.96740E-08        -0.15721E-10         0.00000E+00
    0.96517E-08        -0.14317E-10         0.00000E+00
    0.96321E-08        -0.12931E-10         0.00000E+00
    0.96157E-08        -0.11290E-10         0.00000E+00
    0.96033E-08        -0.89852E-11         0.00000E+00
    0.95954E-08        -0.54446E-11         0.00000E+00
    0.95926E-08        -0.32832E-11         0.00000E+00
    0.10179E-07        -0.27367E-11         0.00000E+00
    0.10174E-07        -0.36495E-11         0.00000E+00
    0.10160E-07        -0.38853E-11         0.00000E+00
    0.10141E-07        -0.18120E-11         0.00000E+00
    0.10117E-07         0.11330E-11         0.00000E+00
    0.10090E-07         0.40421E-11         0.00000E+00
    0.10063E-07         0.63914E-11         0.00000E+00
    0.10035E-07         0.79186E-11         0.00000E+00
    0.10009E-07         0.85325E-11         0.00000E+00
    0.99835E-08         0.82521E-11         0.00000E+00
    0.99607E-08         0.71777E-11         0.00000E+00
    0.99406E-08         0.54856E-11         0.00000E+00
    0.99238E-08         0.34457E-11         0.00000E+00
    0.99110E-08         0.14539E-11         0.00000E+00
    0.99027E-08         0.72189E-13         0.00000E+00
    0.98998E-08        -0.38414E-12         0.00000E+00
    0.10457E-07         0.27245E-11         0.00000E+00
    0.10451E-07         0.62381E-11         0.00000E+00
    0.10437E-07         0.13570E-10         0.00000E+00
    0.10416E-07         0.20838E-10         0.00000E+00
    0.10391E-07         0.27006E-10         0.00000E+00
    0.10364E-07         0.31558E-10         0.00000E+00
    0.10337E-07         0.34315E-10         0.00000E+00
    0.10310E-07         0.35296E-10         0.00000E+00
    0.10283E-07         0.34611E-10         0.00000E+00
    0.10259E-07         0.32411E-10         0.00000E+00
    0.10236E-07         0.28854E-10         0.00000E+00
    0.10216E-07         0.24121E-10         0.00000E+00
    0.10200E-07         0.18444E-10         0.00000E+00
    0.10187E-07         0.12161E-10         0.00000E+00
    0.10179E-07         0.57806E-11         0.00000E+00
    0.10176E-07         0.26427E-11         0.00000E+00
    0.10689E-07         0.85403E-11         0.00000E+00
    0.10683E-07         0.16646E-10         0.00000E+00
    0.10668E-07         0.31681E-10         0.00000E+00
    0.10648E-07         0.43966E-10         0.00000E+00
    0.10623E-07         0.53017E-10         0.00000E+00
    0.10597E-07         0.58830E-10         0.00000E+00
    0.10571E-07         0.61662E-10         0.00000E+00
    0.10545E-07         0.61864E-10         0.00000E+00
    0.10521E-07         0.59778E-10         0.00000E+00
    0.10498E-07         0.55679E-10         0.00000E+00
    0.10477E-07         0.49772E-10         0.00000E+00
    0.10458E-07         0.42207E-10         0.00000E+00
    0.10443E-07         0.33130E-10         0.00000E+00
    0.10430E-07         0.22766E-10         0.00000E+00
    0.10422E-07         0.11507E-10         0.00000E+00
    0.10419E-07         0.57181E-11         0.00000E+00
    0.10873E-07         0.14545E-10         0.00000E+00
    0.10867E-07         0.27232E-10         0.00000E+00
    0.10853E-07         0.49752E-10         0.00000E+00
    0.10833E-07         0.66551E-10         0.00000E+00
    0.10810E-07         0.77883E-10         0.00000E+00
    0.10787E-07         0.84404E-10         0.00000E+00
    0.10763E-07         0.86896E-10         0.00000E+00
    0.10741E-07         0.86089E-10         0.00000E+00
    0.10720E-07         0.82561E-10         0.00000E+00
    0.10700E-07         0.76709E-10         0.00000E+00
    0.10682E-07         0.68753E-10         0.00000E+00
    0.10666E-07         0.58775E-10         0.00000E+00
    0.10652E-07         0.46780E-10         0.00000E+00
    0.10641E-07         0.32800E-10         0.00000E+00
    0.10634E-07         0.17033E-10         0.00000E+00
    0.10631E-07         0.87420E-11         0.00000E+00
    0.11005E-07         0.20509E-10         0.00000E+00
    0.10999E-07         0.37518E-10         0.00000E+00
    0.10986E-07         0.66825E-10         0.00000E+00
    0.10968E-07         0.87213E-10         0.00000E+00
    0.10949E-07         0.99919E-10         0.00000E+00
    0.10930E-07         0.10642E-09         0.00000E+00
    0.10912E-07         0.10810E-09         0.00000E+00
    0.10895E-07         0.10608E-09         0.00000E+00
    0.10879E-07         0.10117E-09         0.00000E+00
    0.10865E-07         0.93866E-10         0.00000E+00
    0.10852E-07         0.84364E-10         0.00000E+00
    0.10839E-07         0.72637E-10         0.00000E+00
    0.10829E-07         0.58490E-10         0.00000E+00
    0.10820E-07         0.41676E-10         0.00000E+00
    0.10813E-07         0.22082E-10         0.00000E+00
    0.10811E-07         0.11590E-10         0.00000E+00
    0.11080E-07         0.26108E-10         0.00000E+00
    0.11075E-07         0.46837E-10         0.00000E+00
    0.11065E-07         0.81576E-10         0.00000E+00
    0.11051E-07         0.10410E-09         0.00000E+00
    0.11038E-07         0.11693E-09         0.00000E+00
    0.11027E-07         0.12253E-09         0.00000E+00
    0.11016E-07         0.12293E-09         0.00000E+00
    0.11007E-07         0.11960E-09         0.00000E+00
    0.10999E-07         0.11352E-09         0.00000E+00
    0.10992E-07         0.10524E-09         0.00000E+00
    0.10985E-07         0.94904E-10         0.00000E+00
    0.10979E-07         0.82355E-10         0.00000E+00
    0.10972E-07         0.67145E-10         0.00000E+00
    0.10966E-07         0.48655E-10         0.00000E+00
    0.10962E-07         0.26307E-10         0.00000E+00
    0.10960E-07         0.14108E-10         0.00000E+00
    0.11096E-07         0.30869E-10         0.00000E+00
    0.11092E-07         0.54215E-10         0.00000E+00
    0.11086E-07         0.92116E-10         0.00000E+00
    0.11080E-07         0.11466E-09         0.00000E+00
    0.11076E-07         0.12607E-09         0.00000E+00
    0.11075E-07         0.12988E-09         0.00000E+00
    0.11075E-07         0.12865E-09         0.00000E+00
    0.11077E-07         0.12410E-09         0.00000E+00
    0.11079E-07         0.11727E-09         0.00000E+00
    0.11081E-07         0.10868E-09         0.00000E+00
    0.11083E-07         0.98424E-10         0.00000E+00
    0.11084E-07         0.86213E-10         0.00000E+00
    0.11084E-07         0.71352E-10         0.00000E+00
    0.11083E-07         0.52778E-10         0.00000E+00
    0.11081E-07         0.29250E-10         0.00000E+00
    0.11080E-07         0.16091E-10         0.00000E+00
    0.11047E-07         0.34048E-10         0.00000E+00
    0.11046E-07         0.58129E-10         0.00000E+00
    0.11047E-07         0.95614E-10         0.00000E+00
    0.11053E-07         0.11536E-09         0.00000E+00
    0.11063E-07         0.12369E-09         0.00000E+00
    0.11075E-07         0.12504E-09         0.00000E+00
    0.11090E-07         0.12221E-09         0.00000E+00
    0.11105E-07         0.11686E-09         0.00000E+00
    0.11120E-07         0.10995E-09         0.00000E+00
    0.11134E-07         0.10191E-09         0.00000E+00
    0.11147E-07         0.92775E-10         0.00000E+00
    0.11158E-07         0.82192E-10         0.00000E+00
    0.11166E-07         0.69331E-10         0.00000E+00
    0.11171E-07         0.52724E-10         0.00000E+00
    0.11173E-07         0.30252E-10         0.00000E+00
    0.11173E-07         0.17250E-10         0.00000E+00
    0.10928E-07         0.34262E-10         0.00000E+00
    0.10931E-07         0.55901E-10         0.00000E+00
    0.10946E-07         0.87506E-10         0.00000E+00
    0.10970E-07         0.10118E-09         0.00000E+00
    0.10998E-07         0.10526E-09         0.00000E+00
    0.11030E-07         0.10421E-09         0.00000E+00
    0.11062E-07         0.10042E-09         0.00000E+00
    0.11093E-07         0.95177E-10         0.00000E+00
    0.11123E-07         0.89170E-10         0.00000E+00
    0.11151E-07         0.82693E-10         0.00000E+00
    0.11177E-07         0.75739E-10         0.00000E+00
    0.11200E-07         0.67998E-10         0.00000E+00
    0.11219E-07         0.58733E-10         0.00000E+00
    0.11233E-07         0.46484E-10         0.00000E+00
    0.11242E-07         0.28211E-10         0.00000E+00
    0.11244E-07         0.17050E-10         0.00000E+00
    0.10726E-07         0.28532E-10         0.00000E+00
    0.10744E-07         0.41933E-10         0.00000E+00
    0.10784E-07         0.59826E-10         0.00000E+00
    0.10834E-07         0.65292E-10         0.00000E+00
    0.10888E-07         0.65620E-10         0.00000E+00
    0.10941E-07         0.63557E-10         0.00000E+00
    0.10994E-07         0.60381E-10         0.00000E+00
    0.11043E-07         0.56736E-10         0.00000E+00
    0.11090E-07         0.52944E-10         0.00000E+00
    0.11134E-07         0.49135E-10         0.00000E+00
    0.11174E-07         0.45294E-10         0.00000E+00
    0.11211E-07         0.41255E-10         0.00000E+00
    0.11243E-07         0.36627E-10         0.00000E+00
    0.11271E-07         0.30538E-10         0.00000E+00
    0.11291E-07         0.20863E-10         0.00000E+00
    0.11300E-07         0.14748E-10         0.00000E+00
    0.10602E-07         0.00000E+00         0.00000E+00
    0.10631E-07         0.00000E+00         0.00000E+00
    0.10688E-07        -0.28991E-22         0.00000E+00
    0.10754E-07         0.32443E-26         0.00000E+00
    0.10821E-07         0.33136E-22         0.00000E+00
    0.10887E-07         0.00000E+00         0.00000E+00
    0.10950E-07         0.00000E+00         0.00000E+00
    0.11010E-07        -0.29003E-22         0.00000E+00
    0.11065E-07        -0.29003E-22         0.00000E+00
    0.11117E-07         0.29006E-22         0.00000E+00
    0.11165E-07         0.33150E-22         0.00000E+00
    0.11209E-07        -0.37298E-22         0.00000E+00
    0.11248E-07        -0.41426E-23         0.00000E+00
    0.11283E-07         0.37300E-22         0.00000E+00
    0.11311E-07         0.82894E-23         0.00000E+00
    0.11326E-07         0.00000E+00         0.00000E+00
CELL_DATA        450
TENSORS stressef double 
    0.67617E+07        -0.24235E+04         0.00000E+00
   -0.24235E+04        -0.19328E+08         0.00000E+00
    0.00000E+00         0.00000E+00        -0.25132E+07
 
    0.57143E+07        -0.60933E+04         0.00000E+00
   -0.60933E+04        -0.19343E+08         0.00000E+00
    0.00000E+00         0.00000E+00        -0.27258E+07
 
    0.47382E+07        -0.79205E+04         0.00000E+00
   -0.79205E+04        -0.19369E+08         0.00000E+00
    0.00000E+00         0.00000E+00        -0.29262E+07
 
    0.38267E+07        -0.76551E+04         0.00000E+00
   -0.76551E+04        -0.19401E+08         0.00000E+00
    0.00000E+00         0.00000E+00        -0.31149E+07
 
    0.29721E+07        -0.51153E+04         0.00000E+00
   -0.51153E+04        -0.19434E+08         0.00000E+00
    0.00000E+00         0.00000E+00        -0.32923E+07
 
    0.21665E+07        -0.17859E+03         0.00000E+00
   -0.17859E+03        -0.19461E+08         0.00000E+00
    0.00000E+00         0.00000E+00        -0.34589E+07
 
    0.14018E+07         0.72282E+04         0.00000E+00
    0.72282E+04        -0.19477E+08         0.00000E+00
    0.00000E+00         0.00000E+00        -0.36151E+07
 
    0.66953E+06         0.17136E+05         0.00000E+00
    0.17136E+05        -0.19477E+08         0.00000E+00
    0.00000E+00         0.00000E+00        -0.37615E+07
 
   -0.38526E+05         0.29544E+05         0.00000E+00
    0.29544E+05        -0.19454E+08         0.00000E+00
    0.00000E+00         0.00000E+00        -0.38984E+07
 
   -0.73062E+06         0.44422E+05         0.00000E+00
    0.44422E+05        -0.19402E+08         0.00000E+00
    0.00000E+00         0.00000E+00        -0.40265E+07
 
   -0.14148E+07         0.61720E+05         0.00000E+00
    0.61720E+05        -0.19316E+08         0.00000E+00
    0.00000E+00         0.00000E+00        -0.41461E+07
 
   -0.20988E+07         0.81374E+05         0.00000E+00
    0.81374E+05        -0.19190E+08         0.00000E+00
    0.00000E+00         0.00000E+00        -0.42577E+07
 
   -0.27901E+07         0.10331E+06         0.00000E+00
    0.10331E+06        -0.19019E+08         0.00000E+00
    0.00000E+00         0.00000E+00        -0.43619E+07
 
   -0.34959E+07         0.12745E+06         0.00000E+00
    0.12745E+06        -0.18799E+08         0.00000E+00
    0.00000E+00         0.00000E+00        -0.44589E+07
 
   -0.42230E+07         0.15372E+06         0.00000E+00
    0.15372E+06        -0.18523E+08         0.00000E+00
    0.00000E+00         0.00000E+00        -0.45492E+07
 
    0.66711E+07        -0.73710E+04         0.00000E+00
   -0.73710E+04        -0.19410E+08         0.00000E+00
    0.00000E+00         0.00000E+00        -0.25477E+07
 
    0.56271E+07        -0.18552E+05         0.00000E+00
   -0.18552E+05        -0.19425E+08         0.00000E+00
    0.00000E+00         0.00000E+00        -0.27596E+07
 
    0.46549E+07        -0.24169E+05         0.00000E+00
   -0.24169E+05        -0.19452E+08         0.00000E+00
    0.00000E+00         0.00000E+00        -0.29594E+07
 
    0.37477E+07        -0.23479E+05         0.00000E+00
   -0.23479E+05        -0.19485E+08         0.00000E+00
    0.00000E+00         0.00000E+00        -0.31474E+07
 
    0.28978E+07        -0.15942E+05         0.00000E+00
   -0.15942E+05        -0.19519E+08         0.00000E+00
    0.00000E+00         0.00000E+00        -0.33242E+07
 
    0.20970E+07        -0.11935E+04         0.00000E+00
   -0.11935E+04        -0.19547E+08         0.00000E+00
    0.00000E+00         0.00000E+00        -0.34901E+07
 
    0.13372E+07         0.20981E+05         0.00000E+00
    0.20981E+05        -0.19565E+08         0.00000E+00
    0.00000E+00         0.00000E+00        -0.36456E+07
 
    0.60994E+06         0.50672E+05         0.00000E+00
    0.50672E+05        -0.19566E+08         0.00000E+00
    0.00000E+00         0.00000E+00        -0.37912E+07
 
   -0.93169E+05         0.87869E+05         0.00000E+00
    0.87869E+05        -0.19544E+08         0.00000E+00
    0.00000E+00         0.00000E+00        -0.39275E+07
 
   -0.78039E+06         0.13248E+06         0.00000E+00
    0.13248E+06        -0.19494E+08         0.00000E+00
    0.00000E+00         0.00000E+00        -0.40549E+07
 
   -0.14598E+07         0.18436E+06         0.00000E+00
    0.18436E+06        -0.19409E+08         0.00000E+00
    0.00000E+00         0.00000E+00        -0.41738E+07
 
   -0.21391E+07         0.24331E+06         0.00000E+00
    0.24331E+06        -0.19285E+08         0.00000E+00
    0.00000E+00         0.00000E+00        -0.42849E+07
 
   -0.28260E+07         0.30910E+06         0.00000E+00
    0.30910E+06        -0.19116E+08         0.00000E+00
    0.00000E+00         0.00000E+00        -0.43885E+07
 
   -0.35275E+07         0.38150E+06         0.00000E+00
    0.38150E+06        -0.18897E+08         0.00000E+00
    0.00000E+00         0.00000E+00        -0.44850E+07
 
   -0.42504E+07         0.46029E+06         0.00000E+00
    0.46029E+06        -0.18623E+08         0.00000E+00
    0.00000E+00         0.00000E+00        -0.45747E+07
 
    0.64897E+07        -0.12619E+05         0.00000E+00
   -0.12619E+05        -0.19573E+08         0.00000E+00
    0.00000E+00         0.00000E+00        -0.26166E+07
 
    0.54524E+07        -0.31823E+05         0.00000E+00
   -0.31823E+05        -0.19589E+08         0.00000E+00
    0.00000E+00         0.00000E+00        -0.28273E+07
 
    0.44882E+07        -0.41638E+05         0.00000E+00
   -0.41638E+05        -0.19617E+08         0.00000E+00
    0.00000E+00         0.00000E+00        -0.30258E+07
 
    0.35897E+07        -0.40842E+05         0.00000E+00
   -0.40842E+05        -0.19652E+08         0.00000E+00
    0.00000E+00         0.00000E+00        -0.32125E+07
 
    0.27490E+07        -0.28551E+05         0.00000E+00
   -0.28551E+05        -0.19688E+08         0.00000E+00
    0.00000E+00         0.00000E+00        -0.33879E+07
 
    0.19580E+07        -0.41752E+04         0.00000E+00
   -0.41752E+04        -0.19720E+08         0.00000E+00
    0.00000E+00         0.00000E+00        -0.35523E+07
 
    0.12081E+07         0.32629E+05         0.00000E+00
    0.32629E+05        -0.19740E+08         0.00000E+00
    0.00000E+00         0.00000E+00        -0.37064E+07
 
    0.49082E+06         0.82001E+05         0.00000E+00
    0.82001E+05        -0.19744E+08         0.00000E+00
    0.00000E+00         0.00000E+00        -0.38507E+07
 
   -0.20238E+06         0.14391E+06         0.00000E+00
    0.14391E+06        -0.19725E+08         0.00000E+00
    0.00000E+00         0.00000E+00        -0.39855E+07
 
   -0.87985E+06         0.21820E+06         0.00000E+00
    0.21820E+06        -0.19678E+08         0.00000E+00
    0.00000E+00         0.00000E+00        -0.41116E+07
 
   -0.15497E+07         0.30461E+06         0.00000E+00
    0.30461E+06        -0.19597E+08         0.00000E+00
    0.00000E+00         0.00000E+00        -0.42293E+07
 
   -0.22198E+07         0.40280E+06         0.00000E+00
    0.40280E+06        -0.19476E+08         0.00000E+00
    0.00000E+00         0.00000E+00        -0.43392E+07
 
   -0.28977E+07         0.51239E+06         0.00000E+00
    0.51239E+06        -0.19310E+08         0.00000E+00
    0.00000E+00         0.00000E+00        -0.44416E+07
 
   -0.35905E+07         0.63299E+06         0.00000E+00
    0.63299E+06        -0.19095E+08         0.00000E+00
    0.00000E+00         0.00000E+00        -0.45370E+07
 
   -0.43051E+07         0.76421E+06         0.00000E+00
    0.76421E+06        -0.18824E+08         0.00000E+00
    0.00000E+00         0.00000E+00        -0.46259E+07
 
    0.62167E+07        -0.18366E+05         0.00000E+00
   -0.18366E+05        -0.19817E+08         0.00000E+00
    0.00000E+00         0.00000E+00        -0.27201E+07
 
    0.51898E+07        -0.46442E+05         0.00000E+00
   -0.46442E+05        -0.19835E+08         0.00000E+00
    0.00000E+00         0.00000E+00        -0.29290E+07
 
    0.42376E+07        -0.61129E+05         0.00000E+00
   -0.61129E+05        -0.19865E+08         0.00000E+00
    0.00000E+00         0.00000E+00        -0.31255E+07
 
    0.33524E+07        -0.60752E+05         0.00000E+00
   -0.60752E+05        -0.19903E+08         0.00000E+00
    0.00000E+00         0.00000E+00        -0.33102E+07
 
    0.25259E+07        -0.44112E+05         0.00000E+00
   -0.44112E+05        -0.19943E+08         0.00000E+00
    0.00000E+00         0.00000E+00        -0.34834E+07
 
    0.17495E+07        -0.10414E+05         0.00000E+00
   -0.10414E+05        -0.19978E+08         0.00000E+00
    0.00000E+00         0.00000E+00        -0.36457E+07
 
    0.10145E+07         0.40793E+05         0.00000E+00
    0.40793E+05        -0.20003E+08         0.00000E+00
    0.00000E+00         0.00000E+00        -0.37976E+07
 
    0.31227E+06         0.10968E+06         0.00000E+00
    0.10968E+06        -0.20011E+08         0.00000E+00
    0.00000E+00         0.00000E+00        -0.39397E+07
 
   -0.36601E+06         0.19617E+06         0.00000E+00
    0.19617E+06        -0.19997E+08         0.00000E+00
    0.00000E+00         0.00000E+00        -0.40725E+07
 
   -0.10288E+07         0.30004E+06         0.00000E+00
    0.30004E+06        -0.19954E+08         0.00000E+00
    0.00000E+00         0.00000E+00        -0.41966E+07
 
   -0.16844E+07         0.42089E+06         0.00000E+00
    0.42089E+06        -0.19877E+08         0.00000E+00
    0.00000E+00         0.00000E+00        -0.43124E+07
 
   -0.23406E+07         0.55824E+06         0.00000E+00
    0.55824E+06        -0.19761E+08         0.00000E+00
    0.00000E+00         0.00000E+00        -0.44204E+07
 
   -0.30050E+07         0.71154E+06         0.00000E+00
    0.71154E+06        -0.19601E+08         0.00000E+00
    0.00000E+00         0.00000E+00        -0.45211E+07
 
   -0.36849E+07         0.88023E+06         0.00000E+00
    0.88023E+06        -0.19390E+08         0.00000E+00
    0.00000E+00         0.00000E+00        -0.46150E+07
 
   -0.43870E+07         0.10637E+07         0.00000E+00
    0.10637E+07        -0.19125E+08         0.00000E+00
    0.00000E+00         0.00000E+00        -0.47023E+07
 
    0.58513E+07        -0.24806E+05         0.00000E+00
   -0.24806E+05        -0.20143E+08         0.00000E+00
    0.00000E+00         0.00000E+00        -0.28584E+07
 
    0.48387E+07        -0.62934E+05         0.00000E+00
   -0.62934E+05        -0.20162E+08         0.00000E+00
    0.00000E+00         0.00000E+00        -0.30647E+07
 
    0.39028E+07        -0.83427E+05         0.00000E+00
   -0.83427E+05        -0.20196E+08         0.00000E+00
    0.00000E+00         0.00000E+00        -0.32585E+07
 
    0.30355E+07        -0.84197E+05         0.00000E+00
   -0.84197E+05        -0.20237E+08         0.00000E+00
    0.00000E+00         0.00000E+00        -0.34403E+07
 
    0.22280E+07        -0.63765E+05         0.00000E+00
   -0.63765E+05        -0.20281E+08         0.00000E+00
    0.00000E+00         0.00000E+00        -0.36106E+07
 
    0.14714E+07        -0.21166E+05         0.00000E+00
   -0.21166E+05        -0.20321E+08         0.00000E+00
    0.00000E+00         0.00000E+00        -0.37700E+07
 
    0.75657E+06         0.44128E+05         0.00000E+00
    0.44128E+05        -0.20352E+08         0.00000E+00
    0.00000E+00         0.00000E+00        -0.39190E+07
 
    0.74467E+05         0.13229E+06         0.00000E+00
    0.13229E+06        -0.20365E+08         0.00000E+00
    0.00000E+00         0.00000E+00        -0.40582E+07
 
   -0.58382E+06         0.24319E+06         0.00000E+00
    0.24319E+06        -0.20357E+08         0.00000E+00
    0.00000E+00         0.00000E+00        -0.41882E+07
 
   -0.12270E+07         0.37649E+06         0.00000E+00
    0.37649E+06        -0.20321E+08         0.00000E+00
    0.00000E+00         0.00000E+00        -0.43095E+07
 
   -0.18634E+07         0.53166E+06         0.00000E+00
    0.53166E+06        -0.20250E+08         0.00000E+00
    0.00000E+00         0.00000E+00        -0.44227E+07
 
   -0.25011E+07         0.70805E+06         0.00000E+00
    0.70805E+06        -0.20141E+08         0.00000E+00
    0.00000E+00         0.00000E+00        -0.45283E+07
 
   -0.31477E+07         0.90493E+06         0.00000E+00
    0.90493E+06        -0.19986E+08         0.00000E+00
    0.00000E+00         0.00000E+00        -0.46268E+07
 
   -0.38104E+07         0.11215E+07         0.00000E+00
    0.11215E+07        -0.19782E+08         0.00000E+00
    0.00000E+00         0.00000E+00        -0.47186E+07
 
   -0.44959E+07         0.13572E+07         0.00000E+00
    0.13572E+07        -0.19524E+08         0.00000E+00
    0.00000E+00         0.00000E+00        -0.48040E+07
 
    0.53923E+07        -0.32129E+05         0.00000E+00
   -0.32129E+05        -0.20550E+08         0.00000E+00
    0.00000E+00         0.00000E+00        -0.30315E+07
 
    0.43981E+07        -0.81806E+05         0.00000E+00
   -0.81806E+05        -0.20571E+08         0.00000E+00
    0.00000E+00         0.00000E+00        -0.32346E+07
 
    0.34832E+07        -0.10929E+06         0.00000E+00
   -0.10929E+06        -0.20608E+08         0.00000E+00
    0.00000E+00         0.00000E+00        -0.34249E+07
 
    0.26387E+07        -0.11213E+06         0.00000E+00
   -0.11213E+06        -0.20654E+08         0.00000E+00
    0.00000E+00         0.00000E+00        -0.36030E+07
 
    0.18554E+07        -0.88608E+05         0.00000E+00
   -0.88608E+05        -0.20703E+08         0.00000E+00
    0.00000E+00         0.00000E+00        -0.37696E+07
 
    0.11238E+07        -0.37641E+05         0.00000E+00
   -0.37641E+05        -0.20750E+08         0.00000E+00
    0.00000E+00         0.00000E+00        -0.39252E+07
 
    0.43436E+06         0.41341E+05         0.00000E+00
    0.41341E+05        -0.20787E+08         0.00000E+00
    0.00000E+00         0.00000E+00        -0.40704E+07
 
   -0.22234E+06         0.14848E+06         0.00000E+00
    0.14848E+06        -0.20807E+08         0.00000E+00
    0.00000E+00         0.00000E+00        -0.42059E+07
 
   -0.85549E+06         0.28356E+06         0.00000E+00
    0.28356E+06        -0.20806E+08         0.00000E+00
    0.00000E+00         0.00000E+00        -0.43324E+07
 
   -0.14740E+07         0.44611E+06         0.00000E+00
    0.44611E+06        -0.20777E+08         0.00000E+00
    0.00000E+00         0.00000E+00        -0.44503E+07
 
   -0.20864E+07         0.63543E+06         0.00000E+00
    0.63543E+06        -0.20715E+08         0.00000E+00
    0.00000E+00         0.00000E+00        -0.45602E+07
 
   -0.27009E+07         0.85069E+06         0.00000E+00
    0.85069E+06        -0.20613E+08         0.00000E+00
    0.00000E+00         0.00000E+00        -0.46627E+07
 
   -0.33252E+07         0.10910E+07         0.00000E+00
    0.10910E+07        -0.20466E+08         0.00000E+00
    0.00000E+00         0.00000E+00        -0.47583E+07
 
   -0.39664E+07         0.13553E+07         0.00000E+00
    0.13553E+07        -0.20271E+08         0.00000E+00
    0.00000E+00         0.00000E+00        -0.48474E+07
 
   -0.46312E+07         0.16427E+07         0.00000E+00
    0.16427E+07        -0.20021E+08         0.00000E+00
    0.00000E+00         0.00000E+00        -0.49304E+07
 
    0.48383E+07        -0.40515E+05         0.00000E+00
   -0.40515E+05        -0.21037E+08         0.00000E+00
    0.00000E+00         0.00000E+00        -0.32397E+07
 
    0.38670E+07        -0.10354E+06         0.00000E+00
   -0.10354E+06        -0.21060E+08         0.00000E+00
    0.00000E+00         0.00000E+00        -0.34386E+07
 
    0.29780E+07        -0.13944E+06         0.00000E+00
   -0.13944E+06        -0.21101E+08         0.00000E+00
    0.00000E+00         0.00000E+00        -0.36246E+07
 
    0.21617E+07        -0.14544E+06         0.00000E+00
   -0.14544E+06        -0.21153E+08         0.00000E+00
    0.00000E+00         0.00000E+00        -0.37982E+07
 
    0.14079E+07        -0.11968E+06         0.00000E+00
   -0.11968E+06        -0.21209E+08         0.00000E+00
    0.00000E+00         0.00000E+00        -0.39601E+07
 
    0.70677E+06        -0.60983E+05         0.00000E+00
   -0.60983E+05        -0.21262E+08         0.00000E+00
    0.00000E+00         0.00000E+00        -0.41111E+07
 
    0.48130E+05         0.31207E+05         0.00000E+00
    0.31207E+05        -0.21307E+08         0.00000E+00
    0.00000E+00         0.00000E+00        -0.42517E+07
 
   -0.57780E+06         0.15696E+06         0.00000E+00
    0.15696E+06        -0.21336E+08         0.00000E+00
    0.00000E+00         0.00000E+00        -0.43827E+07
 
   -0.11806E+07         0.31593E+06         0.00000E+00
    0.31593E+06        -0.21343E+08         0.00000E+00
    0.00000E+00         0.00000E+00        -0.45047E+07
 
   -0.17694E+07         0.50749E+06         0.00000E+00
    0.50749E+06        -0.21323E+08         0.00000E+00
    0.00000E+00         0.00000E+00        -0.46184E+07
 
   -0.23529E+07         0.73076E+06         0.00000E+00
    0.73076E+06        -0.21269E+08         0.00000E+00
    0.00000E+00         0.00000E+00        -0.47243E+07
 
   -0.29396E+07         0.98469E+06         0.00000E+00
    0.98469E+06        -0.21176E+08         0.00000E+00
    0.00000E+00         0.00000E+00        -0.48231E+07
 
   -0.35370E+07         0.12681E+07         0.00000E+00
    0.12681E+07        -0.21039E+08         0.00000E+00
    0.00000E+00         0.00000E+00        -0.49153E+07
 
   -0.41525E+07         0.15799E+07         0.00000E+00
    0.15799E+07        -0.20853E+08         0.00000E+00
    0.00000E+00         0.00000E+00        -0.50012E+07
 
   -0.47928E+07         0.19188E+07         0.00000E+00
    0.19188E+07        -0.20613E+08         0.00000E+00
    0.00000E+00         0.00000E+00        -0.50812E+07
 
    0.41878E+07        -0.50139E+05         0.00000E+00
   -0.50139E+05        -0.21604E+08         0.00000E+00
    0.00000E+00         0.00000E+00        -0.34832E+07
 
    0.32443E+07        -0.12861E+06         0.00000E+00
   -0.12861E+06        -0.21630E+08         0.00000E+00
    0.00000E+00         0.00000E+00        -0.36771E+07
 
    0.23866E+07        -0.17455E+06         0.00000E+00
   -0.17455E+06        -0.21675E+08         0.00000E+00
    0.00000E+00         0.00000E+00        -0.38577E+07
 
    0.16039E+07        -0.18499E+06         0.00000E+00
   -0.18499E+06        -0.21733E+08         0.00000E+00
    0.00000E+00         0.00000E+00        -0.40258E+07
 
    0.88542E+06        -0.15795E+06         0.00000E+00
   -0.15795E+06        -0.21796E+08         0.00000E+00
    0.00000E+00         0.00000E+00        -0.41821E+07
 
    0.22038E+06        -0.92248E+05         0.00000E+00
   -0.92248E+05        -0.21857E+08         0.00000E+00
    0.00000E+00         0.00000E+00        -0.43274E+07
 
   -0.40181E+06         0.12596E+05         0.00000E+00
    0.12596E+05        -0.21910E+08         0.00000E+00
    0.00000E+00         0.00000E+00        -0.44625E+07
 
   -0.99146E+06         0.15653E+06         0.00000E+00
    0.15653E+06        -0.21949E+08         0.00000E+00
    0.00000E+00         0.00000E+00        -0.45880E+07
 
   -0.15585E+07         0.33906E+06         0.00000E+00
    0.33906E+06        -0.21965E+08         0.00000E+00
    0.00000E+00         0.00000E+00        -0.47048E+07
 
   -0.21124E+07         0.55934E+06         0.00000E+00
    0.55934E+06        -0.21955E+08         0.00000E+00
    0.00000E+00         0.00000E+00        -0.48135E+07
 
   -0.26622E+07         0.81629E+06         0.00000E+00
    0.81629E+06        -0.21911E+08         0.00000E+00
    0.00000E+00         0.00000E+00        -0.49147E+07
 
   -0.32163E+07         0.11086E+07         0.00000E+00
    0.11086E+07        -0.21829E+08         0.00000E+00
    0.00000E+00         0.00000E+00        -0.50091E+07
 
   -0.37825E+07         0.14350E+07         0.00000E+00
    0.14350E+07        -0.21703E+08         0.00000E+00
    0.00000E+00         0.00000E+00        -0.50971E+07
 
   -0.43681E+07         0.17938E+07         0.00000E+00
    0.17938E+07        -0.21528E+08         0.00000E+00
    0.00000E+00         0.00000E+00        -0.51793E+07
 
   -0.49798E+07         0.21839E+07         0.00000E+00
    0.21839E+07        -0.21300E+08         0.00000E+00
    0.00000E+00         0.00000E+00        -0.52559E+07
 
    0.34388E+07        -0.61159E+05         0.00000E+00
   -0.61159E+05        -0.22250E+08         0.00000E+00
    0.00000E+00         0.00000E+00        -0.37622E+07
 
    0.25289E+07        -0.15742E+06         0.00000E+00
   -0.15742E+06        -0.22279E+08         0.00000E+00
    0.00000E+00         0.00000E+00        -0.39499E+07
 
    0.17082E+07        -0.21523E+06         0.00000E+00
   -0.21523E+06        -0.22329E+08         0.00000E+00
    0.00000E+00         0.00000E+00        -0.41241E+07
 
    0.96512E+06        -0.23152E+06         0.00000E+00
   -0.23152E+06        -0.22393E+08         0.00000E+00
    0.00000E+00         0.00000E+00        -0.42856E+07
 
    0.28787E+06        -0.20427E+06         0.00000E+00
   -0.20427E+06        -0.22464E+08         0.00000E+00
    0.00000E+00         0.00000E+00        -0.44353E+07
 
   -0.33509E+06        -0.13238E+06         0.00000E+00
   -0.13238E+06        -0.22534E+08         0.00000E+00
    0.00000E+00         0.00000E+00        -0.45739E+07
 
   -0.91502E+06        -0.15510E+05         0.00000E+00
   -0.15510E+05        -0.22597E+08         0.00000E+00
    0.00000E+00         0.00000E+00        -0.47024E+07
 
   -0.14627E+07         0.14612E+06         0.00000E+00
    0.14612E+06        -0.22645E+08         0.00000E+00
    0.00000E+00         0.00000E+00        -0.48215E+07
 
   -0.19886E+07         0.35180E+06         0.00000E+00
    0.35180E+06        -0.22672E+08         0.00000E+00
    0.00000E+00         0.00000E+00        -0.49321E+07
 
   -0.25024E+07         0.60045E+06         0.00000E+00
    0.60045E+06        -0.22672E+08         0.00000E+00
    0.00000E+00         0.00000E+00        -0.50350E+07
 
   -0.30134E+07         0.89075E+06         0.00000E+00
    0.89075E+06        -0.22640E+08         0.00000E+00
    0.00000E+00         0.00000E+00        -0.51307E+07
 
   -0.35302E+07         0.12212E+07         0.00000E+00
    0.12212E+07        -0.22569E+08         0.00000E+00
    0.00000E+00         0.00000E+00        -0.52199E+07
 
   -0.40608E+07         0.15900E+07         0.00000E+00
    0.15900E+07        -0.22455E+08         0.00000E+00
    0.00000E+00         0.00000E+00        -0.53032E+07
 
   -0.46125E+07         0.19956E+07         0.00000E+00
    0.19956E+07        -0.22293E+08         0.00000E+00
    0.00000E+00         0.00000E+00        -0.53811E+07
 
   -0.51918E+07         0.24362E+07         0.00000E+00
    0.24362E+07        -0.22078E+08         0.00000E+00
    0.00000E+00         0.00000E+00        -0.54539E+07
 
    0.25897E+07        -0.73718E+05         0.00000E+00
   -0.73718E+05        -0.22974E+08         0.00000E+00
    0.00000E+00         0.00000E+00        -0.40769E+07
 
    0.17194E+07        -0.19034E+06         0.00000E+00
   -0.19034E+06        -0.23006E+08         0.00000E+00
    0.00000E+00         0.00000E+00        -0.42573E+07
 
    0.94214E+06        -0.26203E+06         0.00000E+00
   -0.26203E+06        -0.23061E+08         0.00000E+00
    0.00000E+00         0.00000E+00        -0.44238E+07
 
    0.24507E+06        -0.28568E+06         0.00000E+00
   -0.28568E+06        -0.23133E+08         0.00000E+00
    0.00000E+00         0.00000E+00        -0.45775E+07
 
   -0.38460E+06        -0.25938E+06         0.00000E+00
   -0.25938E+06        -0.23212E+08         0.00000E+00
    0.00000E+00         0.00000E+00        -0.47193E+07
 
   -0.95928E+06        -0.18220E+06         0.00000E+00
   -0.18220E+06        -0.23291E+08         0.00000E+00
    0.00000E+00         0.00000E+00        -0.48501E+07
 
   -0.14909E+07        -0.53978E+05         0.00000E+00
   -0.53978E+05        -0.23364E+08         0.00000E+00
    0.00000E+00         0.00000E+00        -0.49709E+07
 
   -0.19909E+07         0.12479E+06         0.00000E+00
    0.12479E+06        -0.23422E+08         0.00000E+00
    0.00000E+00         0.00000E+00        -0.50827E+07
 
   -0.24700E+07         0.35315E+06         0.00000E+00
    0.35315E+06        -0.23461E+08         0.00000E+00
    0.00000E+00         0.00000E+00        -0.51861E+07
 
   -0.29384E+07         0.62976E+06         0.00000E+00
    0.62976E+06        -0.23473E+08         0.00000E+00
    0.00000E+00         0.00000E+00        -0.52822E+07
 
   -0.34057E+07         0.95300E+06         0.00000E+00
    0.95300E+06        -0.23452E+08         0.00000E+00
    0.00000E+00         0.00000E+00        -0.53716E+07
 
   -0.38805E+07         0.13211E+07         0.00000E+00
    0.13211E+07        -0.23394E+08         0.00000E+00
    0.00000E+00         0.00000E+00        -0.54549E+07
 
   -0.43710E+07         0.17320E+07         0.00000E+00
    0.17320E+07        -0.23293E+08         0.00000E+00
    0.00000E+00         0.00000E+00        -0.55328E+07
 
   -0.48846E+07         0.21838E+07         0.00000E+00
    0.21838E+07        -0.23145E+08         0.00000E+00
    0.00000E+00         0.00000E+00        -0.56059E+07
 
   -0.54278E+07         0.26744E+07         0.00000E+00
    0.26744E+07        -0.22944E+08         0.00000E+00
    0.00000E+00         0.00000E+00        -0.56743E+07
 
    0.16386E+07        -0.87942E+05         0.00000E+00
   -0.87942E+05        -0.23775E+08         0.00000E+00
    0.00000E+00         0.00000E+00        -0.44273E+07
 
    0.81475E+06        -0.22769E+06         0.00000E+00
   -0.22769E+06        -0.23810E+08         0.00000E+00
    0.00000E+00         0.00000E+00        -0.45990E+07
 
    0.87857E+05        -0.31537E+06         0.00000E+00
   -0.31537E+06        -0.23871E+08         0.00000E+00
    0.00000E+00         0.00000E+00        -0.47566E+07
 
   -0.55634E+06        -0.34801E+06         0.00000E+00
   -0.34801E+06        -0.23950E+08         0.00000E+00
    0.00000E+00         0.00000E+00        -0.49012E+07
 
   -0.11317E+07        -0.32388E+06         0.00000E+00
   -0.32388E+06        -0.24037E+08         0.00000E+00
    0.00000E+00         0.00000E+00        -0.50338E+07
 
   -0.16516E+07        -0.24232E+06         0.00000E+00
   -0.24232E+06        -0.24126E+08         0.00000E+00
    0.00000E+00         0.00000E+00        -0.51556E+07
 
   -0.21287E+07        -0.10349E+06         0.00000E+00
   -0.10349E+06        -0.24209E+08         0.00000E+00
    0.00000E+00         0.00000E+00        -0.52676E+07
 
   -0.25750E+07         0.91805E+05         0.00000E+00
    0.91805E+05        -0.24279E+08         0.00000E+00
    0.00000E+00         0.00000E+00        -0.53707E+07
 
   -0.30017E+07         0.34230E+06         0.00000E+00
    0.34230E+06        -0.24329E+08         0.00000E+00
    0.00000E+00         0.00000E+00        -0.54661E+07
 
   -0.34194E+07         0.64633E+06         0.00000E+00
    0.64633E+06        -0.24353E+08         0.00000E+00
    0.00000E+00         0.00000E+00        -0.55544E+07
 
   -0.38378E+07         0.10020E+07         0.00000E+00
    0.10020E+07        -0.24345E+08         0.00000E+00
    0.00000E+00         0.00000E+00        -0.56365E+07
 
   -0.42659E+07         0.14072E+07         0.00000E+00
    0.14072E+07        -0.24300E+08         0.00000E+00
    0.00000E+00         0.00000E+00        -0.57132E+07
 
   -0.47120E+07         0.18597E+07         0.00000E+00
    0.18597E+07        -0.24213E+08         0.00000E+00
    0.00000E+00         0.00000E+00        -0.57851E+07
 
   -0.51835E+07         0.23571E+07         0.00000E+00
    0.23571E+07        -0.24080E+08         0.00000E+00
    0.00000E+00         0.00000E+00        -0.58527E+07
 
   -0.56868E+07         0.28970E+07         0.00000E+00
    0.28970E+07        -0.23895E+08         0.00000E+00
    0.00000E+00         0.00000E+00        -0.59163E+07
 
    0.58373E+06        -0.10393E+06         0.00000E+00
   -0.10393E+06        -0.24652E+08         0.00000E+00
    0.00000E+00         0.00000E+00        -0.48136E+07
 
   -0.18603E+06        -0.26971E+06         0.00000E+00
   -0.26971E+06        -0.24690E+08         0.00000E+00
    0.00000E+00         0.00000E+00        -0.49751E+07
 
   -0.85503E+06        -0.37559E+06         0.00000E+00
   -0.37559E+06        -0.24756E+08         0.00000E+00
    0.00000E+00         0.00000E+00        -0.51223E+07
 
   -0.14390E+07        -0.41885E+06         0.00000E+00
   -0.41885E+06        -0.24842E+08         0.00000E+00
    0.00000E+00         0.00000E+00        -0.52562E+07
 
   -0.19530E+07        -0.39813E+06         0.00000E+00
   -0.39813E+06        -0.24939E+08         0.00000E+00
    0.00000E+00         0.00000E+00        -0.53783E+07
 
   -0.24113E+07        -0.31317E+06         0.00000E+00
   -0.31317E+06        -0.25037E+08         0.00000E+00
    0.00000E+00         0.00000E+00        -0.54897E+07
 
   -0.28274E+07        -0.16452E+06         0.00000E+00
   -0.16452E+06        -0.25130E+08         0.00000E+00
    0.00000E+00         0.00000E+00        -0.55915E+07
 
   -0.32139E+07         0.46629E+05         0.00000E+00
    0.46629E+05        -0.25211E+08         0.00000E+00
    0.00000E+00         0.00000E+00        -0.56849E+07
 
   -0.35825E+07         0.31861E+06         0.00000E+00
    0.31861E+06        -0.25272E+08         0.00000E+00
    0.00000E+00         0.00000E+00        -0.57710E+07
 
   -0.39440E+07         0.64944E+06         0.00000E+00
    0.64944E+06        -0.25309E+08         0.00000E+00
    0.00000E+00         0.00000E+00        -0.58505E+07
 
   -0.43085E+07         0.10369E+07         0.00000E+00
    0.10369E+07        -0.25314E+08         0.00000E+00
    0.00000E+00         0.00000E+00        -0.59246E+07
 
   -0.46853E+07         0.14786E+07         0.00000E+00
    0.14786E+07        -0.25284E+08         0.00000E+00
    0.00000E+00         0.00000E+00        -0.59938E+07
 
   -0.50825E+07         0.19719E+07         0.00000E+00
    0.19719E+07        -0.25212E+08         0.00000E+00
    0.00000E+00         0.00000E+00        -0.60589E+07
 
   -0.55079E+07         0.25142E+07         0.00000E+00
    0.25142E+07        -0.25094E+08         0.00000E+00
    0.00000E+00         0.00000E+00        -0.61204E+07
 
   -0.59679E+07         0.31027E+07         0.00000E+00
    0.31027E+07        -0.24926E+08         0.00000E+00
    0.00000E+00         0.00000E+00        -0.61788E+07
 
   -0.57653E+06        -0.12174E+06         0.00000E+00
   -0.12174E+06        -0.25602E+08         0.00000E+00
    0.00000E+00         0.00000E+00        -0.52357E+07
 
   -0.12837E+07        -0.31653E+06         0.00000E+00
   -0.31653E+06        -0.25643E+08         0.00000E+00
    0.00000E+00         0.00000E+00        -0.53853E+07
 
   -0.18866E+07        -0.44283E+06         0.00000E+00
   -0.44283E+06        -0.25715E+08         0.00000E+00
    0.00000E+00         0.00000E+00        -0.55203E+07
 
   -0.24025E+07        -0.49836E+06         0.00000E+00
   -0.49836E+06        -0.25808E+08         0.00000E+00
    0.00000E+00         0.00000E+00        -0.56421E+07
 
   -0.28476E+07        -0.48229E+06         0.00000E+00
   -0.48229E+06        -0.25913E+08         0.00000E+00
    0.00000E+00         0.00000E+00        -0.57521E+07
 
   -0.32373E+07        -0.39488E+06         0.00000E+00
   -0.39488E+06        -0.26021E+08         0.00000E+00
    0.00000E+00         0.00000E+00        -0.58516E+07
 
   -0.35859E+07        -0.23722E+06         0.00000E+00
   -0.23722E+06        -0.26124E+08         0.00000E+00
    0.00000E+00         0.00000E+00        -0.59419E+07
 
   -0.39064E+07        -0.10983E+05         0.00000E+00
   -0.10983E+05        -0.26215E+08         0.00000E+00
    0.00000E+00         0.00000E+00        -0.60243E+07
 
   -0.42111E+07         0.28174E+06         0.00000E+00
    0.28174E+06        -0.26288E+08         0.00000E+00
    0.00000E+00         0.00000E+00        -0.60998E+07
 
   -0.45111E+07         0.63858E+06         0.00000E+00
    0.63858E+06        -0.26337E+08         0.00000E+00
    0.00000E+00         0.00000E+00        -0.61696E+07
 
   -0.48166E+07         0.10570E+07         0.00000E+00
    0.10570E+07        -0.26356E+08         0.00000E+00
    0.00000E+00         0.00000E+00        -0.62345E+07
 
   -0.51372E+07         0.15343E+07         0.00000E+00
    0.15343E+07        -0.26340E+08         0.00000E+00
    0.00000E+00         0.00000E+00        -0.62954E+07
 
   -0.54812E+07         0.20676E+07         0.00000E+00
    0.20676E+07        -0.26284E+08         0.00000E+00
    0.00000E+00         0.00000E+00        -0.63530E+07
 
   -0.58565E+07         0.26539E+07         0.00000E+00
    0.26539E+07        -0.26183E+08         0.00000E+00
    0.00000E+00         0.00000E+00        -0.64079E+07
 
   -0.62696E+07         0.32901E+07         0.00000E+00
    0.32901E+07        -0.26033E+08         0.00000E+00
    0.00000E+00         0.00000E+00        -0.64606E+07
 
   -0.18435E+07        -0.14142E+06         0.00000E+00
   -0.14142E+06        -0.26624E+08         0.00000E+00
    0.00000E+00         0.00000E+00        -0.56935E+07
 
   -0.24788E+07        -0.36819E+06         0.00000E+00
   -0.36819E+06        -0.26668E+08         0.00000E+00
    0.00000E+00         0.00000E+00        -0.58293E+07
 
   -0.30067E+07        -0.51707E+06         0.00000E+00
   -0.51707E+06        -0.26745E+08         0.00000E+00
    0.00000E+00         0.00000E+00        -0.59503E+07
 
   -0.34459E+07        -0.58645E+06         0.00000E+00
   -0.58645E+06        -0.26845E+08         0.00000E+00
    0.00000E+00         0.00000E+00        -0.60581E+07
 
   -0.38144E+07        -0.57619E+06         0.00000E+00
   -0.57619E+06        -0.26957E+08         0.00000E+00
    0.00000E+00         0.00000E+00        -0.61543E+07
 
   -0.41282E+07        -0.48727E+06         0.00000E+00
   -0.48727E+06        -0.27073E+08         0.00000E+00
    0.00000E+00         0.00000E+00        -0.62403E+07
 
   -0.44026E+07        -0.32143E+06         0.00000E+00
   -0.32143E+06        -0.27186E+08         0.00000E+00
    0.00000E+00         0.00000E+00        -0.63177E+07
 
   -0.46510E+07        -0.80939E+05         0.00000E+00
   -0.80939E+05        -0.27287E+08         0.00000E+00
    0.00000E+00         0.00000E+00        -0.63876E+07
 
   -0.48860E+07         0.23162E+06         0.00000E+00
    0.23162E+06        -0.27371E+08         0.00000E+00
    0.00000E+00         0.00000E+00        -0.64514E+07
 
   -0.51190E+07         0.61350E+06         0.00000E+00
    0.61350E+06        -0.27432E+08         0.00000E+00
    0.00000E+00         0.00000E+00        -0.65102E+07
 
   -0.53605E+07         0.10618E+07         0.00000E+00
    0.10618E+07        -0.27465E+08         0.00000E+00
    0.00000E+00         0.00000E+00        -0.65650E+07
 
   -0.56202E+07         0.15737E+07         0.00000E+00
    0.15737E+07        -0.27463E+08         0.00000E+00
    0.00000E+00         0.00000E+00        -0.66167E+07
 
   -0.59066E+07         0.21458E+07         0.00000E+00
    0.21458E+07        -0.27424E+08         0.00000E+00
    0.00000E+00         0.00000E+00        -0.66661E+07
 
   -0.62278E+07         0.27751E+07         0.00000E+00
    0.27751E+07        -0.27341E+08         0.00000E+00
    0.00000E+00         0.00000E+00        -0.67137E+07
 
   -0.65906E+07         0.34580E+07         0.00000E+00
    0.34580E+07        -0.27210E+08         0.00000E+00
    0.00000E+00         0.00000E+00        -0.67602E+07
 
   -0.32182E+07        -0.16293E+06         0.00000E+00
   -0.16293E+06        -0.27715E+08         0.00000E+00
    0.00000E+00         0.00000E+00        -0.61866E+07
 
   -0.37713E+07        -0.42458E+06         0.00000E+00
   -0.42458E+06        -0.27761E+08         0.00000E+00
    0.00000E+00         0.00000E+00        -0.63065E+07
 
   -0.42144E+07        -0.59808E+06         0.00000E+00
   -0.59808E+06        -0.27843E+08         0.00000E+00
    0.00000E+00         0.00000E+00        -0.64115E+07
 
   -0.45682E+07        -0.68272E+06         0.00000E+00
   -0.68272E+06        -0.27949E+08         0.00000E+00
    0.00000E+00         0.00000E+00        -0.65034E+07
 
   -0.48517E+07        -0.67930E+06         0.00000E+00
   -0.67930E+06        -0.28068E+08         0.00000E+00
    0.00000E+00         0.00000E+00        -0.65839E+07
 
   -0.50824E+07        -0.58972E+06         0.00000E+00
   -0.58972E+06        -0.28192E+08         0.00000E+00
    0.00000E+00         0.00000E+00        -0.66548E+07
 
   -0.52757E+07        -0.41654E+06         0.00000E+00
   -0.41654E+06        -0.28312E+08         0.00000E+00
    0.00000E+00         0.00000E+00        -0.67175E+07
 
   -0.54458E+07        -0.16273E+06         0.00000E+00
   -0.16273E+06        -0.28422E+08         0.00000E+00
    0.00000E+00         0.00000E+00        -0.67736E+07
 
   -0.56055E+07         0.16859E+06         0.00000E+00
    0.16859E+06        -0.28516E+08         0.00000E+00
    0.00000E+00         0.00000E+00        -0.68243E+07
 
   -0.57663E+07         0.57427E+06         0.00000E+00
    0.57427E+06        -0.28589E+08         0.00000E+00
    0.00000E+00         0.00000E+00        -0.68710E+07
 
   -0.59388E+07         0.10512E+07         0.00000E+00
    0.10512E+07        -0.28634E+08         0.00000E+00
    0.00000E+00         0.00000E+00        -0.69146E+07
 
   -0.61328E+07         0.15961E+07         0.00000E+00
    0.15961E+07        -0.28648E+08         0.00000E+00
    0.00000E+00         0.00000E+00        -0.69561E+07
 
   -0.63573E+07         0.22058E+07         0.00000E+00
    0.22058E+07        -0.28625E+08         0.00000E+00
    0.00000E+00         0.00000E+00        -0.69964E+07
 
   -0.66203E+07         0.28767E+07         0.00000E+00
    0.28767E+07        -0.28560E+08         0.00000E+00
    0.00000E+00         0.00000E+00        -0.70362E+07
 
   -0.69291E+07         0.36050E+07         0.00000E+00
    0.36050E+07        -0.28450E+08         0.00000E+00
    0.00000E+00         0.00000E+00        -0.70759E+07
 
   -0.47010E+07        -0.18621E+06         0.00000E+00
   -0.18621E+06        -0.28872E+08         0.00000E+00
    0.00000E+00         0.00000E+00        -0.67145E+07
 
   -0.51606E+07        -0.48542E+06         0.00000E+00
   -0.48542E+06        -0.28921E+08         0.00000E+00
    0.00000E+00         0.00000E+00        -0.68163E+07
 
   -0.55085E+07        -0.68530E+06         0.00000E+00
   -0.68530E+06        -0.29006E+08         0.00000E+00
    0.00000E+00         0.00000E+00        -0.69030E+07
 
   -0.57673E+07        -0.78637E+06         0.00000E+00
   -0.78637E+06        -0.29117E+08         0.00000E+00
    0.00000E+00         0.00000E+00        -0.69768E+07
 
   -0.59576E+07        -0.79063E+06         0.00000E+00
   -0.79063E+06        -0.29241E+08         0.00000E+00
    0.00000E+00         0.00000E+00        -0.70397E+07
 
   -0.60975E+07        -0.70112E+06         0.00000E+00
   -0.70112E+06        -0.29370E+08         0.00000E+00
    0.00000E+00         0.00000E+00        -0.70936E+07
 
   -0.62032E+07        -0.52143E+06         0.00000E+00
   -0.52143E+06        -0.29497E+08         0.00000E+00
    0.00000E+00         0.00000E+00        -0.71400E+07
 
   -0.62891E+07        -0.25534E+06         0.00000E+00
   -0.25534E+06        -0.29614E+08         0.00000E+00
    0.00000E+00         0.00000E+00        -0.71807E+07
 
   -0.63681E+07         0.93420E+05         0.00000E+00
    0.93420E+05        -0.29717E+08         0.00000E+00
    0.00000E+00         0.00000E+00        -0.72169E+07
 
   -0.64515E+07         0.52133E+06         0.00000E+00
    0.52133E+06        -0.29799E+08         0.00000E+00
    0.00000E+00         0.00000E+00        -0.72502E+07
 
   -0.65501E+07         0.10250E+07         0.00000E+00
    0.10250E+07        -0.29857E+08         0.00000E+00
    0.00000E+00         0.00000E+00        -0.72814E+07
 
   -0.66737E+07         0.16013E+07         0.00000E+00
    0.16013E+07        -0.29885E+08         0.00000E+00
    0.00000E+00         0.00000E+00        -0.73118E+07
 
   -0.68316E+07         0.22467E+07         0.00000E+00
    0.22467E+07        -0.29880E+08         0.00000E+00
    0.00000E+00         0.00000E+00        -0.73422E+07
 
   -0.70323E+07         0.29577E+07         0.00000E+00
    0.29577E+07        -0.29835E+08         0.00000E+00
    0.00000E+00         0.00000E+00        -0.73734E+07
 
   -0.72834E+07         0.37301E+07         0.00000E+00
    0.37301E+07        -0.29746E+08         0.00000E+00
    0.00000E+00         0.00000E+00        -0.74059E+07
 
   -0.62918E+07        -0.21112E+06         0.00000E+00
   -0.21112E+06        -0.30091E+08         0.00000E+00
    0.00000E+00         0.00000E+00        -0.72767E+07
 
   -0.66453E+07        -0.55023E+06         0.00000E+00
   -0.55023E+06        -0.30142E+08         0.00000E+00
    0.00000E+00         0.00000E+00        -0.73575E+07
 
   -0.68868E+07        -0.77790E+06         0.00000E+00
   -0.77790E+06        -0.30231E+08         0.00000E+00
    0.00000E+00         0.00000E+00        -0.74236E+07
 
   -0.70409E+07        -0.89617E+06         0.00000E+00
   -0.89617E+06        -0.30344E+08         0.00000E+00
    0.00000E+00         0.00000E+00        -0.74770E+07
 
   -0.71292E+07        -0.90862E+06         0.00000E+00
   -0.90862E+06        -0.30472E+08         0.00000E+00
    0.00000E+00         0.00000E+00        -0.75202E+07
 
   -0.71710E+07        -0.81972E+06         0.00000E+00
   -0.81972E+06        -0.30604E+08         0.00000E+00
    0.00000E+00         0.00000E+00        -0.75550E+07
 
   -0.71828E+07        -0.63432E+06         0.00000E+00
   -0.63432E+06        -0.30734E+08         0.00000E+00
    0.00000E+00         0.00000E+00        -0.75834E+07
 
   -0.71788E+07        -0.35714E+06         0.00000E+00
   -0.35714E+06        -0.30856E+08         0.00000E+00
    0.00000E+00         0.00000E+00        -0.76070E+07
 
   -0.71719E+07         0.74397E+04         0.00000E+00
    0.74397E+04        -0.30965E+08         0.00000E+00
    0.00000E+00         0.00000E+00        -0.76274E+07
 
   -0.71731E+07         0.45556E+06         0.00000E+00
    0.45556E+06        -0.31056E+08         0.00000E+00
    0.00000E+00         0.00000E+00        -0.76459E+07
 
   -0.71931E+07         0.98380E+06         0.00000E+00
    0.98380E+06        -0.31125E+08         0.00000E+00
    0.00000E+00         0.00000E+00        -0.76637E+07
 
   -0.72416E+07         0.15890E+07         0.00000E+00
    0.15890E+07        -0.31168E+08         0.00000E+00
    0.00000E+00         0.00000E+00        -0.76819E+07
 
   -0.73283E+07         0.22679E+07         0.00000E+00
    0.22679E+07        -0.31179E+08         0.00000E+00
    0.00000E+00         0.00000E+00        -0.77015E+07
 
   -0.74621E+07         0.30169E+07         0.00000E+00
    0.30169E+07        -0.31155E+08         0.00000E+00
    0.00000E+00         0.00000E+00        -0.77233E+07
 
   -0.76515E+07         0.38317E+07         0.00000E+00
    0.38317E+07        -0.31089E+08         0.00000E+00
    0.00000E+00         0.00000E+00        -0.77480E+07
 
   -0.79895E+07        -0.23745E+06         0.00000E+00
   -0.23745E+06        -0.31370E+08         0.00000E+00
    0.00000E+00         0.00000E+00        -0.78720E+07
 
   -0.82234E+07        -0.61830E+06         0.00000E+00
   -0.61830E+06        -0.31422E+08         0.00000E+00
    0.00000E+00         0.00000E+00        -0.79291E+07
 
   -0.83465E+07        -0.87459E+06         0.00000E+00
   -0.87459E+06        -0.31512E+08         0.00000E+00
    0.00000E+00         0.00000E+00        -0.79718E+07
 
   -0.83853E+07        -0.10103E+07         0.00000E+00
   -0.10103E+07        -0.31627E+08         0.00000E+00
    0.00000E+00         0.00000E+00        -0.80024E+07
 
   -0.83632E+07        -0.10310E+07         0.00000E+00
   -0.10310E+07        -0.31754E+08         0.00000E+00
    0.00000E+00         0.00000E+00        -0.80235E+07
 
   -0.82997E+07        -0.94302E+06         0.00000E+00
   -0.94302E+06        -0.31887E+08         0.00000E+00
    0.00000E+00         0.00000E+00        -0.80373E+07
 
   -0.82116E+07        -0.75263E+06         0.00000E+00
   -0.75263E+06        -0.32017E+08         0.00000E+00
    0.00000E+00         0.00000E+00        -0.80458E+07
 
   -0.81128E+07        -0.46574E+06         0.00000E+00
   -0.46574E+06        -0.32141E+08         0.00000E+00
    0.00000E+00         0.00000E+00        -0.80507E+07
 
   -0.80154E+07        -0.87368E+05         0.00000E+00
   -0.87368E+05        -0.32253E+08         0.00000E+00
    0.00000E+00         0.00000E+00        -0.80536E+07
 
   -0.79301E+07         0.37836E+06         0.00000E+00
    0.37836E+06        -0.32350E+08         0.00000E+00
    0.00000E+00         0.00000E+00        -0.80560E+07
 
   -0.78669E+07         0.92812E+06         0.00000E+00
    0.92812E+06        -0.32429E+08         0.00000E+00
    0.00000E+00         0.00000E+00        -0.80591E+07
 
   -0.78357E+07         0.15591E+07         0.00000E+00
    0.15591E+07        -0.32485E+08         0.00000E+00
    0.00000E+00         0.00000E+00        -0.80641E+07
 
   -0.78462E+07         0.22685E+07         0.00000E+00
    0.22685E+07        -0.32514E+08         0.00000E+00
    0.00000E+00         0.00000E+00        -0.80720E+07
 
   -0.79082E+07         0.30530E+07         0.00000E+00
    0.30530E+07        -0.32510E+08         0.00000E+00
    0.00000E+00         0.00000E+00        -0.80837E+07
 
   -0.80313E+07         0.39083E+07         0.00000E+00
    0.39083E+07        -0.32468E+08         0.00000E+00
    0.00000E+00         0.00000E+00        -0.81000E+07
 
   -0.97919E+07        -0.26491E+06         0.00000E+00
   -0.26491E+06        -0.32704E+08         0.00000E+00
    0.00000E+00         0.00000E+00        -0.84992E+07
 
   -0.98914E+07        -0.68866E+06         0.00000E+00
   -0.68866E+06        -0.32756E+08         0.00000E+00
    0.00000E+00         0.00000E+00        -0.85295E+07
 
   -0.98832E+07        -0.97365E+06         0.00000E+00
   -0.97365E+06        -0.32846E+08         0.00000E+00
    0.00000E+00         0.00000E+00        -0.85458E+07
 
   -0.97964E+07        -0.11263E+07         0.00000E+00
   -0.11263E+07        -0.32958E+08         0.00000E+00
    0.00000E+00         0.00000E+00        -0.85509E+07
 
   -0.96552E+07        -0.11548E+07         0.00000E+00
   -0.11548E+07        -0.33083E+08         0.00000E+00
    0.00000E+00         0.00000E+00        -0.85476E+07
 
   -0.94798E+07        -0.10676E+07         0.00000E+00
   -0.10676E+07        -0.33211E+08         0.00000E+00
    0.00000E+00         0.00000E+00        -0.85382E+07
 
   -0.92867E+07        -0.87285E+06         0.00000E+00
   -0.87285E+06        -0.33338E+08         0.00000E+00
    0.00000E+00         0.00000E+00        -0.85248E+07
 
   -0.90888E+07        -0.57784E+06         0.00000E+00
   -0.57784E+06        -0.33458E+08         0.00000E+00
    0.00000E+00         0.00000E+00        -0.85094E+07
 
   -0.88972E+07        -0.18824E+06         0.00000E+00
   -0.18824E+06        -0.33570E+08         0.00000E+00
    0.00000E+00         0.00000E+00        -0.84934E+07
 
   -0.87216E+07         0.29171E+06         0.00000E+00
    0.29171E+06        -0.33670E+08         0.00000E+00
    0.00000E+00         0.00000E+00        -0.84783E+07
 
   -0.85712E+07         0.85908E+06         0.00000E+00
    0.85908E+06        -0.33756E+08         0.00000E+00
    0.00000E+00         0.00000E+00        -0.84655E+07
 
   -0.84555E+07         0.15118E+07         0.00000E+00
    0.15118E+07        -0.33825E+08         0.00000E+00
    0.00000E+00         0.00000E+00        -0.84561E+07
 
   -0.83846E+07         0.22478E+07         0.00000E+00
    0.22478E+07        -0.33872E+08         0.00000E+00
    0.00000E+00         0.00000E+00        -0.84513E+07
 
   -0.83692E+07         0.30646E+07         0.00000E+00
    0.30646E+07        -0.33891E+08         0.00000E+00
    0.00000E+00         0.00000E+00        -0.84520E+07
 
   -0.84206E+07         0.39582E+07         0.00000E+00
    0.39582E+07        -0.33875E+08         0.00000E+00
    0.00000E+00         0.00000E+00        -0.84591E+07
 
   -0.11696E+08        -0.29311E+06         0.00000E+00
   -0.29311E+06        -0.34087E+08         0.00000E+00
    0.00000E+00         0.00000E+00        -0.91567E+07
 
   -0.11645E+08        -0.76001E+06         0.00000E+00
   -0.76001E+06        -0.34139E+08         0.00000E+00
    0.00000E+00         0.00000E+00        -0.91567E+07
 
   -0.11492E+08        -0.10727E+07         0.00000E+00
   -0.10727E+07        -0.34226E+08         0.00000E+00
    0.00000E+00         0.00000E+00        -0.91435E+07
 
   -0.11268E+08        -0.12409E+07         0.00000E+00
   -0.12409E+07        -0.34333E+08         0.00000E+00
    0.00000E+00         0.00000E+00        -0.91202E+07
 
   -0.11000E+08        -0.12758E+07         0.00000E+00
   -0.12758E+07        -0.34450E+08         0.00000E+00
    0.00000E+00         0.00000E+00        -0.90899E+07
 
   -0.10707E+08        -0.11888E+07         0.00000E+00
   -0.11888E+07        -0.34569E+08         0.00000E+00
    0.00000E+00         0.00000E+00        -0.90551E+07
 
   -0.10405E+08        -0.99030E+06         0.00000E+00
   -0.99030E+06        -0.34685E+08         0.00000E+00
    0.00000E+00         0.00000E+00        -0.90180E+07
 
   -0.10105E+08        -0.68908E+06         0.00000E+00
   -0.68908E+06        -0.34798E+08         0.00000E+00
    0.00000E+00         0.00000E+00        -0.89805E+07
 
   -0.98165E+07        -0.29151E+06         0.00000E+00
   -0.29151E+06        -0.34904E+08         0.00000E+00
    0.00000E+00         0.00000E+00        -0.89441E+07
 
   -0.95478E+07         0.19830E+06         0.00000E+00
    0.19830E+06        -0.35004E+08         0.00000E+00
    0.00000E+00         0.00000E+00        -0.89103E+07
 
   -0.93065E+07         0.77814E+06         0.00000E+00
    0.77814E+06        -0.35095E+08         0.00000E+00
    0.00000E+00         0.00000E+00        -0.88803E+07
 
   -0.91016E+07         0.14471E+07         0.00000E+00
    0.14471E+07        -0.35176E+08         0.00000E+00
    0.00000E+00         0.00000E+00        -0.88554E+07
 
   -0.89435E+07         0.22048E+07         0.00000E+00
    0.22048E+07        -0.35240E+08         0.00000E+00
    0.00000E+00         0.00000E+00        -0.88367E+07
 
   -0.88443E+07         0.30497E+07         0.00000E+00
    0.30497E+07        -0.35283E+08         0.00000E+00
    0.00000E+00         0.00000E+00        -0.88254E+07
 
   -0.88172E+07         0.39788E+07         0.00000E+00
    0.39788E+07        -0.35295E+08         0.00000E+00
    0.00000E+00         0.00000E+00        -0.88225E+07
 
   -0.13697E+08        -0.32156E+06         0.00000E+00
   -0.32156E+06        -0.35515E+08         0.00000E+00
    0.00000E+00         0.00000E+00        -0.98425E+07
 
   -0.13477E+08        -0.83067E+06         0.00000E+00
   -0.83067E+06        -0.35565E+08         0.00000E+00
    0.00000E+00         0.00000E+00        -0.98084E+07
 
   -0.13165E+08        -0.11688E+07         0.00000E+00
   -0.11688E+07        -0.35646E+08         0.00000E+00
    0.00000E+00         0.00000E+00        -0.97621E+07
 
   -0.12794E+08        -0.13497E+07         0.00000E+00
   -0.13497E+07        -0.35744E+08         0.00000E+00
    0.00000E+00         0.00000E+00        -0.97075E+07
 
   -0.12391E+08        -0.13886E+07         0.00000E+00
   -0.13886E+07        -0.35847E+08         0.00000E+00
    0.00000E+00         0.00000E+00        -0.96476E+07
 
   -0.11976E+08        -0.13006E+07         0.00000E+00
   -0.13006E+07        -0.35950E+08         0.00000E+00
    0.00000E+00         0.00000E+00        -0.95851E+07
 
   -0.11562E+08        -0.10989E+07         0.00000E+00
   -0.10989E+07        -0.36050E+08         0.00000E+00
    0.00000E+00         0.00000E+00        -0.95224E+07
 
   -0.11159E+08        -0.79385E+06         0.00000E+00
   -0.79385E+06        -0.36147E+08         0.00000E+00
    0.00000E+00         0.00000E+00        -0.94613E+07
 
   -0.10773E+08        -0.39245E+06         0.00000E+00
   -0.39245E+06        -0.36243E+08         0.00000E+00
    0.00000E+00         0.00000E+00        -0.94031E+07
 
   -0.10409E+08         0.10156E+06         0.00000E+00
    0.10156E+06        -0.36337E+08         0.00000E+00
    0.00000E+00         0.00000E+00        -0.93493E+07
 
   -0.10074E+08         0.68722E+06         0.00000E+00
    0.68722E+06        -0.36430E+08         0.00000E+00
    0.00000E+00         0.00000E+00        -0.93010E+07
 
   -0.97757E+07         0.13655E+07         0.00000E+00
    0.13655E+07        -0.36521E+08         0.00000E+00
    0.00000E+00         0.00000E+00        -0.92594E+07
 
   -0.95241E+07         0.21381E+07         0.00000E+00
    0.21381E+07        -0.36604E+08         0.00000E+00
    0.00000E+00         0.00000E+00        -0.92257E+07
 
   -0.93330E+07         0.30058E+07         0.00000E+00
    0.30058E+07        -0.36673E+08         0.00000E+00
    0.00000E+00         0.00000E+00        -0.92012E+07
 
   -0.92188E+07         0.39670E+07         0.00000E+00
    0.39670E+07        -0.36717E+08         0.00000E+00
    0.00000E+00         0.00000E+00        -0.91872E+07
 
   -0.15788E+08        -0.34968E+06         0.00000E+00
   -0.34968E+06        -0.36983E+08         0.00000E+00
    0.00000E+00         0.00000E+00        -0.10554E+08
 
   -0.15380E+08        -0.89852E+06         0.00000E+00
   -0.89852E+06        -0.37028E+08         0.00000E+00
    0.00000E+00         0.00000E+00        -0.10482E+08
 
   -0.14893E+08        -0.12580E+07         0.00000E+00
   -0.12580E+07        -0.37100E+08         0.00000E+00
    0.00000E+00         0.00000E+00        -0.10399E+08
 
   -0.14364E+08        -0.14471E+07         0.00000E+00
   -0.14471E+07        -0.37182E+08         0.00000E+00
    0.00000E+00         0.00000E+00        -0.10309E+08
 
   -0.13820E+08        -0.14864E+07         0.00000E+00
   -0.14864E+07        -0.37265E+08         0.00000E+00
    0.00000E+00         0.00000E+00        -0.10217E+08
 
   -0.13281E+08        -0.13956E+07         0.00000E+00
   -0.13956E+07        -0.37344E+08         0.00000E+00
    0.00000E+00         0.00000E+00        -0.10125E+08
 
   -0.12755E+08        -0.11911E+07         0.00000E+00
   -0.11911E+07        -0.37419E+08         0.00000E+00
    0.00000E+00         0.00000E+00        -0.10035E+08
 
   -0.12250E+08        -0.88516E+06         0.00000E+00
   -0.88516E+06        -0.37493E+08         0.00000E+00
    0.00000E+00         0.00000E+00        -0.99486E+07
 
   -0.11767E+08        -0.48521E+06         0.00000E+00
   -0.48521E+06        -0.37570E+08         0.00000E+00
    0.00000E+00         0.00000E+00        -0.98675E+07
 
   -0.11309E+08         0.57685E+04         0.00000E+00
    0.57685E+04        -0.37654E+08         0.00000E+00
    0.00000E+00         0.00000E+00        -0.97925E+07
 
   -0.10878E+08         0.58867E+06         0.00000E+00
    0.58867E+06        -0.37745E+08         0.00000E+00
    0.00000E+00         0.00000E+00        -0.97247E+07
 
   -0.10481E+08         0.12672E+07         0.00000E+00
    0.12672E+07        -0.37845E+08         0.00000E+00
    0.00000E+00         0.00000E+00        -0.96652E+07
 
   -0.10129E+08         0.20461E+07         0.00000E+00
    0.20461E+07        -0.37948E+08         0.00000E+00
    0.00000E+00         0.00000E+00        -0.96153E+07
 
   -0.98361E+07         0.29297E+07         0.00000E+00
    0.29297E+07        -0.38045E+08         0.00000E+00
    0.00000E+00         0.00000E+00        -0.95763E+07
 
   -0.96236E+07         0.39187E+07         0.00000E+00
    0.39187E+07        -0.38126E+08         0.00000E+00
    0.00000E+00         0.00000E+00        -0.95499E+07
 
   -0.17962E+08        -0.37679E+06         0.00000E+00
   -0.37679E+06        -0.38482E+08         0.00000E+00
    0.00000E+00         0.00000E+00        -0.11289E+08
 
   -0.17343E+08        -0.96086E+06         0.00000E+00
   -0.96086E+06        -0.38522E+08         0.00000E+00
    0.00000E+00         0.00000E+00        -0.11173E+08
 
   -0.16665E+08        -0.13351E+07         0.00000E+00
   -0.13351E+07        -0.38580E+08         0.00000E+00
    0.00000E+00         0.00000E+00        -0.11049E+08
 
   -0.15967E+08        -0.15256E+07         0.00000E+00
   -0.15256E+07        -0.38640E+08         0.00000E+00
    0.00000E+00         0.00000E+00        -0.10921E+08
 
   -0.15279E+08        -0.15602E+07         0.00000E+00
   -0.15602E+07        -0.38693E+08         0.00000E+00
    0.00000E+00         0.00000E+00        -0.10794E+08
 
   -0.14615E+08        -0.14641E+07         0.00000E+00
   -0.14641E+07        -0.38737E+08         0.00000E+00
    0.00000E+00         0.00000E+00        -0.10670E+08
 
   -0.13981E+08        -0.12575E+07         0.00000E+00
   -0.12575E+07        -0.38777E+08         0.00000E+00
    0.00000E+00         0.00000E+00        -0.10552E+08
 
   -0.13378E+08        -0.95458E+06         0.00000E+00
   -0.95458E+06        -0.38818E+08         0.00000E+00
    0.00000E+00         0.00000E+00        -0.10439E+08
 
   -0.12802E+08        -0.56279E+06         0.00000E+00
   -0.56279E+06        -0.38869E+08         0.00000E+00
    0.00000E+00         0.00000E+00        -0.10334E+08
 
   -0.12251E+08        -0.83935E+05         0.00000E+00
   -0.83935E+05        -0.38935E+08         0.00000E+00
    0.00000E+00         0.00000E+00        -0.10237E+08
 
   -0.11724E+08         0.48532E+06         0.00000E+00
    0.48532E+06        -0.39022E+08         0.00000E+00
    0.00000E+00         0.00000E+00        -0.10149E+08
 
   -0.11224E+08         0.11523E+07         0.00000E+00
    0.11523E+07        -0.39128E+08         0.00000E+00
    0.00000E+00         0.00000E+00        -0.10070E+08
 
   -0.10762E+08         0.19264E+07         0.00000E+00
    0.19264E+07        -0.39252E+08         0.00000E+00
    0.00000E+00         0.00000E+00        -0.10003E+08
 
   -0.10356E+08         0.28165E+07         0.00000E+00
    0.28165E+07        -0.39383E+08         0.00000E+00
    0.00000E+00         0.00000E+00        -0.99477E+07
 
   -0.10030E+08         0.38278E+07         0.00000E+00
    0.38278E+07        -0.39506E+08         0.00000E+00
    0.00000E+00         0.00000E+00        -0.99072E+07
 
   -0.20207E+08        -0.40205E+06         0.00000E+00
   -0.40205E+06        -0.40007E+08         0.00000E+00
    0.00000E+00         0.00000E+00        -0.12043E+08
 
   -0.19352E+08        -0.10141E+07         0.00000E+00
   -0.10141E+07        -0.40039E+08         0.00000E+00
    0.00000E+00         0.00000E+00        -0.11878E+08
 
   -0.18465E+08        -0.13932E+07         0.00000E+00
   -0.13932E+07        -0.40078E+08         0.00000E+00
    0.00000E+00         0.00000E+00        -0.11709E+08
 
   -0.17591E+08        -0.15756E+07         0.00000E+00
   -0.15756E+07        -0.40105E+08         0.00000E+00
    0.00000E+00         0.00000E+00        -0.11539E+08
 
   -0.16756E+08        -0.15986E+07         0.00000E+00
   -0.15986E+07        -0.40116E+08         0.00000E+00
    0.00000E+00         0.00000E+00        -0.11375E+08
 
   -0.15972E+08        -0.14945E+07         0.00000E+00
   -0.14945E+07        -0.40114E+08         0.00000E+00
    0.00000E+00         0.00000E+00        -0.11217E+08
 
   -0.15236E+08        -0.12873E+07         0.00000E+00
   -0.12873E+07        -0.40106E+08         0.00000E+00
    0.00000E+00         0.00000E+00        -0.11069E+08
 
   -0.14542E+08        -0.99243E+06         0.00000E+00
   -0.99243E+06        -0.40105E+08         0.00000E+00
    0.00000E+00         0.00000E+00        -0.10929E+08
 
   -0.13880E+08        -0.61716E+06         0.00000E+00
   -0.61716E+06        -0.40121E+08         0.00000E+00
    0.00000E+00         0.00000E+00        -0.10800E+08
 
   -0.13241E+08        -0.16160E+06         0.00000E+00
   -0.16160E+06        -0.40163E+08         0.00000E+00
    0.00000E+00         0.00000E+00        -0.10681E+08
 
   -0.12618E+08         0.38058E+06         0.00000E+00
    0.38058E+06        -0.40239E+08         0.00000E+00
    0.00000E+00         0.00000E+00        -0.10571E+08
 
   -0.12012E+08         0.10212E+07         0.00000E+00
    0.10212E+07        -0.40351E+08         0.00000E+00
    0.00000E+00         0.00000E+00        -0.10473E+08
 
   -0.11432E+08         0.17757E+07         0.00000E+00
    0.17757E+07        -0.40498E+08         0.00000E+00
    0.00000E+00         0.00000E+00        -0.10386E+08
 
   -0.10896E+08         0.26602E+07         0.00000E+00
    0.26602E+07        -0.40667E+08         0.00000E+00
    0.00000E+00         0.00000E+00        -0.10313E+08
 
   -0.10437E+08         0.36863E+07         0.00000E+00
    0.36863E+07        -0.40841E+08         0.00000E+00
    0.00000E+00         0.00000E+00        -0.10256E+08
 
   -0.22509E+08        -0.42446E+06         0.00000E+00
   -0.42446E+06        -0.41551E+08         0.00000E+00
    0.00000E+00         0.00000E+00        -0.12812E+08
 
   -0.21388E+08        -0.10534E+07         0.00000E+00
   -0.10534E+07        -0.41571E+08         0.00000E+00
    0.00000E+00         0.00000E+00        -0.12592E+08
 
   -0.20274E+08        -0.14227E+07         0.00000E+00
   -0.14227E+07        -0.41581E+08         0.00000E+00
    0.00000E+00         0.00000E+00        -0.12371E+08
 
   -0.19217E+08        -0.15840E+07         0.00000E+00
   -0.15840E+07        -0.41564E+08         0.00000E+00
    0.00000E+00         0.00000E+00        -0.12156E+08
 
   -0.18241E+08        -0.15876E+07         0.00000E+00
   -0.15876E+07        -0.41518E+08         0.00000E+00
    0.00000E+00         0.00000E+00        -0.11952E+08
 
   -0.17345E+08        -0.14733E+07         0.00000E+00
   -0.14733E+07        -0.41454E+08         0.00000E+00
    0.00000E+00         0.00000E+00        -0.11760E+08
 
   -0.16519E+08        -0.12683E+07         0.00000E+00
   -0.12683E+07        -0.41387E+08         0.00000E+00
    0.00000E+00         0.00000E+00        -0.11581E+08
 
   -0.15745E+08        -0.98840E+06         0.00000E+00
   -0.98840E+06        -0.41333E+08         0.00000E+00
    0.00000E+00         0.00000E+00        -0.11416E+08
 
   -0.15007E+08        -0.63976E+06         0.00000E+00
   -0.63976E+06        -0.41305E+08         0.00000E+00
    0.00000E+00         0.00000E+00        -0.11262E+08
 
   -0.14287E+08        -0.22059E+06         0.00000E+00
   -0.22059E+06        -0.41316E+08         0.00000E+00
    0.00000E+00         0.00000E+00        -0.11121E+08
 
   -0.13573E+08         0.27850E+06         0.00000E+00
    0.27850E+06        -0.41376E+08         0.00000E+00
    0.00000E+00         0.00000E+00        -0.10990E+08
 
   -0.12858E+08         0.87429E+06         0.00000E+00
    0.87429E+06        -0.41492E+08         0.00000E+00
    0.00000E+00         0.00000E+00        -0.10870E+08
 
   -0.12149E+08         0.15901E+07         0.00000E+00
    0.15901E+07        -0.41663E+08         0.00000E+00
    0.00000E+00         0.00000E+00        -0.10762E+08
 
   -0.11465E+08         0.24522E+07         0.00000E+00
    0.24522E+07        -0.41878E+08         0.00000E+00
    0.00000E+00         0.00000E+00        -0.10669E+08
 
   -0.10846E+08         0.34829E+07         0.00000E+00
    0.34829E+07        -0.42115E+08         0.00000E+00
    0.00000E+00         0.00000E+00        -0.10592E+08
 
   -0.24853E+08        -0.44265E+06         0.00000E+00
   -0.44265E+06        -0.43105E+08         0.00000E+00
    0.00000E+00         0.00000E+00        -0.13591E+08
 
   -0.23428E+08        -0.10710E+07         0.00000E+00
   -0.10710E+07        -0.43108E+08         0.00000E+00
    0.00000E+00         0.00000E+00        -0.13307E+08
 
   -0.22068E+08        -0.14091E+07         0.00000E+00
   -0.14091E+07        -0.43076E+08         0.00000E+00
    0.00000E+00         0.00000E+00        -0.13029E+08
 
   -0.20829E+08        -0.15331E+07         0.00000E+00
   -0.15331E+07        -0.42995E+08         0.00000E+00
    0.00000E+00         0.00000E+00        -0.12765E+08
 
   -0.19721E+08        -0.15098E+07         0.00000E+00
   -0.15098E+07        -0.42873E+08         0.00000E+00
    0.00000E+00         0.00000E+00        -0.12519E+08
 
   -0.18730E+08        -0.13856E+07         0.00000E+00
   -0.13856E+07        -0.42733E+08         0.00000E+00
    0.00000E+00         0.00000E+00        -0.12292E+08
 
   -0.17829E+08        -0.11886E+07         0.00000E+00
   -0.11886E+07        -0.42594E+08         0.00000E+00
    0.00000E+00         0.00000E+00        -0.12085E+08
 
   -0.16991E+08        -0.93273E+06         0.00000E+00
   -0.93273E+06        -0.42478E+08         0.00000E+00
    0.00000E+00         0.00000E+00        -0.11894E+08
 
   -0.16189E+08        -0.62242E+06         0.00000E+00
   -0.62242E+06        -0.42399E+08         0.00000E+00
    0.00000E+00         0.00000E+00        -0.11718E+08
 
   -0.15400E+08        -0.25401E+06         0.00000E+00
   -0.25401E+06        -0.42373E+08         0.00000E+00
    0.00000E+00         0.00000E+00        -0.11554E+08
 
   -0.14601E+08         0.18416E+06         0.00000E+00
    0.18416E+06        -0.42412E+08         0.00000E+00
    0.00000E+00         0.00000E+00        -0.11403E+08
 
   -0.13779E+08         0.71325E+06         0.00000E+00
    0.71325E+06        -0.42527E+08         0.00000E+00
    0.00000E+00         0.00000E+00        -0.11261E+08
 
   -0.12931E+08         0.13654E+07         0.00000E+00
    0.13654E+07        -0.42724E+08         0.00000E+00
    0.00000E+00         0.00000E+00        -0.11131E+08
 
   -0.12074E+08         0.21815E+07         0.00000E+00
    0.21815E+07        -0.42994E+08         0.00000E+00
    0.00000E+00         0.00000E+00        -0.11014E+08
 
   -0.11258E+08         0.32019E+07         0.00000E+00
    0.32019E+07        -0.43309E+08         0.00000E+00
    0.00000E+00         0.00000E+00        -0.10913E+08
 
   -0.27212E+08        -0.45443E+06         0.00000E+00
   -0.45443E+06        -0.44660E+08         0.00000E+00
    0.00000E+00         0.00000E+00        -0.14375E+08
 
   -0.25435E+08        -0.10535E+07         0.00000E+00
   -0.10535E+07        -0.44636E+08         0.00000E+00
    0.00000E+00         0.00000E+00        -0.14014E+08
 
   -0.23816E+08        -0.13297E+07         0.00000E+00
   -0.13297E+07        -0.44539E+08         0.00000E+00
    0.00000E+00         0.00000E+00        -0.13671E+08
 
   -0.22406E+08        -0.13990E+07         0.00000E+00
   -0.13990E+07        -0.44366E+08         0.00000E+00
    0.00000E+00         0.00000E+00        -0.13354E+08
 
   -0.21190E+08        -0.13458E+07         0.00000E+00
   -0.13458E+07        -0.44147E+08         0.00000E+00
    0.00000E+00         0.00000E+00        -0.13067E+08
 
   -0.20125E+08        -0.12178E+07         0.00000E+00
   -0.12178E+07        -0.43916E+08         0.00000E+00
    0.00000E+00         0.00000E+00        -0.12808E+08
 
   -0.19170E+08        -0.10386E+07         0.00000E+00
   -0.10386E+07        -0.43698E+08         0.00000E+00
    0.00000E+00         0.00000E+00        -0.12574E+08
 
   -0.18285E+08        -0.81831E+06         0.00000E+00
   -0.81831E+06        -0.43515E+08         0.00000E+00
    0.00000E+00         0.00000E+00        -0.12360E+08
 
   -0.17436E+08        -0.55890E+06         0.00000E+00
   -0.55890E+06        -0.43382E+08         0.00000E+00
    0.00000E+00         0.00000E+00        -0.12164E+08
 
   -0.16590E+08        -0.25558E+06         0.00000E+00
   -0.25558E+06        -0.43315E+08         0.00000E+00
    0.00000E+00         0.00000E+00        -0.11981E+08
 
   -0.15720E+08         0.10386E+06         0.00000E+00
    0.10386E+06        -0.43328E+08         0.00000E+00
    0.00000E+00         0.00000E+00        -0.11810E+08
 
   -0.14796E+08         0.54211E+06         0.00000E+00
    0.54211E+06        -0.43438E+08         0.00000E+00
    0.00000E+00         0.00000E+00        -0.11647E+08
 
   -0.13802E+08         0.10988E+07         0.00000E+00
    0.10988E+07        -0.43658E+08         0.00000E+00
    0.00000E+00         0.00000E+00        -0.11492E+08
 
   -0.12745E+08         0.18345E+07         0.00000E+00
    0.18345E+07        -0.43991E+08         0.00000E+00
    0.00000E+00         0.00000E+00        -0.11347E+08
 
   -0.11681E+08         0.28202E+07         0.00000E+00
    0.28202E+07        -0.44406E+08         0.00000E+00
    0.00000E+00         0.00000E+00        -0.11217E+08
 
   -0.29553E+08        -0.45482E+06         0.00000E+00
   -0.45482E+06        -0.46205E+08         0.00000E+00
    0.00000E+00         0.00000E+00        -0.15152E+08
 
   -0.27361E+08        -0.97333E+06         0.00000E+00
   -0.97333E+06        -0.46130E+08         0.00000E+00
    0.00000E+00         0.00000E+00        -0.14698E+08
 
   -0.25485E+08        -0.11470E+07         0.00000E+00
   -0.11470E+07        -0.45923E+08         0.00000E+00
    0.00000E+00         0.00000E+00        -0.14282E+08
 
   -0.23939E+08        -0.11526E+07         0.00000E+00
   -0.11526E+07        -0.45622E+08         0.00000E+00
    0.00000E+00         0.00000E+00        -0.13912E+08
 
   -0.22647E+08        -0.10792E+07         0.00000E+00
   -0.10792E+07        -0.45289E+08         0.00000E+00
    0.00000E+00         0.00000E+00        -0.13587E+08
 
   -0.21537E+08        -0.96178E+06         0.00000E+00
   -0.96178E+06        -0.44961E+08         0.00000E+00
    0.00000E+00         0.00000E+00        -0.13300E+08
 
   -0.20548E+08        -0.81477E+06         0.00000E+00
   -0.81477E+06        -0.44666E+08         0.00000E+00
    0.00000E+00         0.00000E+00        -0.13043E+08
 
   -0.19634E+08        -0.64329E+06         0.00000E+00
   -0.64329E+06        -0.44419E+08         0.00000E+00
    0.00000E+00         0.00000E+00        -0.12811E+08
 
   -0.18753E+08        -0.44707E+06         0.00000E+00
   -0.44707E+06        -0.44235E+08         0.00000E+00
    0.00000E+00         0.00000E+00        -0.12598E+08
 
   -0.17868E+08        -0.22129E+06         0.00000E+00
   -0.22129E+06        -0.44128E+08         0.00000E+00
    0.00000E+00         0.00000E+00        -0.12399E+08
 
   -0.16942E+08         0.44463E+05         0.00000E+00
    0.44463E+05        -0.44113E+08         0.00000E+00
    0.00000E+00         0.00000E+00        -0.12211E+08
 
   -0.15934E+08         0.36994E+06         0.00000E+00
    0.36994E+06        -0.44209E+08         0.00000E+00
    0.00000E+00         0.00000E+00        -0.12029E+08
 
   -0.14801E+08         0.79348E+06         0.00000E+00
    0.79348E+06        -0.44442E+08         0.00000E+00
    0.00000E+00         0.00000E+00        -0.11849E+08
 
   -0.13516E+08         0.13959E+07         0.00000E+00
    0.13959E+07        -0.44840E+08         0.00000E+00
    0.00000E+00         0.00000E+00        -0.11671E+08
 
   -0.12129E+08         0.23033E+07         0.00000E+00
    0.23033E+07        -0.45385E+08         0.00000E+00
    0.00000E+00         0.00000E+00        -0.11503E+08
 
   -0.31810E+08        -0.42665E+06         0.00000E+00
   -0.42665E+06        -0.47721E+08         0.00000E+00
    0.00000E+00         0.00000E+00        -0.15906E+08
 
   -0.29133E+08        -0.76457E+06         0.00000E+00
   -0.76457E+06        -0.47521E+08         0.00000E+00
    0.00000E+00         0.00000E+00        -0.15331E+08
 
   -0.27055E+08        -0.80853E+06         0.00000E+00
   -0.80853E+06        -0.47129E+08         0.00000E+00
    0.00000E+00         0.00000E+00        -0.14837E+08
 
   -0.25433E+08        -0.77338E+06         0.00000E+00
   -0.77338E+06        -0.46679E+08         0.00000E+00
    0.00000E+00         0.00000E+00        -0.14422E+08
 
   -0.24106E+08        -0.70616E+06         0.00000E+00
   -0.70616E+06        -0.46234E+08         0.00000E+00
    0.00000E+00         0.00000E+00        -0.14068E+08
 
   -0.22975E+08        -0.62107E+06         0.00000E+00
   -0.62107E+06        -0.45823E+08         0.00000E+00
    0.00000E+00         0.00000E+00        -0.13760E+08
 
   -0.21972E+08        -0.52314E+06         0.00000E+00
   -0.52314E+06        -0.45464E+08         0.00000E+00
    0.00000E+00         0.00000E+00        -0.13487E+08
 
   -0.21044E+08        -0.41352E+06         0.00000E+00
   -0.41352E+06        -0.45167E+08         0.00000E+00
    0.00000E+00         0.00000E+00        -0.13242E+08
 
   -0.20147E+08        -0.29094E+06         0.00000E+00
   -0.29094E+06        -0.44943E+08         0.00000E+00
    0.00000E+00         0.00000E+00        -0.13018E+08
 
   -0.19239E+08        -0.15187E+06         0.00000E+00
   -0.15187E+06        -0.44804E+08         0.00000E+00
    0.00000E+00         0.00000E+00        -0.12809E+08
 
   -0.18278E+08         0.10490E+05         0.00000E+00
    0.10490E+05        -0.44763E+08         0.00000E+00
    0.00000E+00         0.00000E+00        -0.12608E+08
 
   -0.17211E+08         0.20896E+06         0.00000E+00
    0.20896E+06        -0.44841E+08         0.00000E+00
    0.00000E+00         0.00000E+00        -0.12411E+08
 
   -0.15973E+08         0.46981E+06         0.00000E+00
    0.46981E+06        -0.45070E+08         0.00000E+00
    0.00000E+00         0.00000E+00        -0.12209E+08
 
   -0.14457E+08         0.85890E+06         0.00000E+00
    0.85890E+06        -0.45504E+08         0.00000E+00
    0.00000E+00         0.00000E+00        -0.11992E+08
 
   -0.12639E+08         0.15926E+07         0.00000E+00
    0.15926E+07        -0.46220E+08         0.00000E+00
    0.00000E+00         0.00000E+00        -0.11772E+08
 
   -0.33827E+08        -0.25949E+06         0.00000E+00
   -0.25949E+06        -0.49064E+08         0.00000E+00
    0.00000E+00         0.00000E+00        -0.16578E+08
 
   -0.30697E+08        -0.31147E+06         0.00000E+00
   -0.31147E+06        -0.48568E+08         0.00000E+00
    0.00000E+00         0.00000E+00        -0.15853E+08
 
   -0.28560E+08        -0.29715E+06         0.00000E+00
   -0.29715E+06        -0.47992E+08         0.00000E+00
    0.00000E+00         0.00000E+00        -0.15310E+08
 
   -0.26919E+08        -0.27506E+06         0.00000E+00
   -0.27506E+06        -0.47433E+08         0.00000E+00
    0.00000E+00         0.00000E+00        -0.14870E+08
 
   -0.25586E+08        -0.24732E+06         0.00000E+00
   -0.24732E+06        -0.46918E+08         0.00000E+00
    0.00000E+00         0.00000E+00        -0.14501E+08
 
   -0.24454E+08        -0.21590E+06         0.00000E+00
   -0.21590E+06        -0.46458E+08         0.00000E+00
    0.00000E+00         0.00000E+00        -0.14182E+08
 
   -0.23450E+08        -0.18132E+06         0.00000E+00
   -0.18132E+06        -0.46063E+08         0.00000E+00
    0.00000E+00         0.00000E+00        -0.13903E+08
 
   -0.22521E+08        -0.14348E+06         0.00000E+00
   -0.14348E+06        -0.45739E+08         0.00000E+00
    0.00000E+00         0.00000E+00        -0.13652E+08
 
   -0.21620E+08        -0.10173E+06         0.00000E+00
   -0.10173E+06        -0.45494E+08         0.00000E+00
    0.00000E+00         0.00000E+00        -0.13423E+08
 
   -0.20706E+08        -0.54747E+05         0.00000E+00
   -0.54747E+05        -0.45337E+08         0.00000E+00
    0.00000E+00         0.00000E+00        -0.13209E+08
 
   -0.19731E+08        -0.22027E+03         0.00000E+00
   -0.22027E+03        -0.45282E+08         0.00000E+00
    0.00000E+00         0.00000E+00        -0.13003E+08
 
   -0.18638E+08         0.66124E+05         0.00000E+00
    0.66124E+05        -0.45347E+08         0.00000E+00
    0.00000E+00         0.00000E+00        -0.12797E+08
 
   -0.17346E+08         0.15352E+06         0.00000E+00
    0.15352E+06        -0.45565E+08         0.00000E+00
    0.00000E+00         0.00000E+00        -0.12582E+08
 
   -0.15707E+08         0.28279E+06         0.00000E+00
    0.28279E+06        -0.46000E+08         0.00000E+00
    0.00000E+00         0.00000E+00        -0.12341E+08
 
   -0.13310E+08         0.58960E+06         0.00000E+00
    0.58960E+06        -0.46826E+08         0.00000E+00
    0.00000E+00         0.00000E+00        -0.12027E+08
 
TENSORS stresstot double 
   -0.33913E+08        -0.24235E+04         0.00000E+00
   -0.24235E+04        -0.60003E+08         0.00000E+00
    0.00000E+00         0.00000E+00        -0.43188E+08
 
   -0.34954E+08        -0.60933E+04         0.00000E+00
   -0.60933E+04        -0.60012E+08         0.00000E+00
    0.00000E+00         0.00000E+00        -0.43394E+08
 
   -0.35918E+08        -0.79205E+04         0.00000E+00
   -0.79205E+04        -0.60026E+08         0.00000E+00
    0.00000E+00         0.00000E+00        -0.43583E+08
 
   -0.36814E+08        -0.76551E+04         0.00000E+00
   -0.76551E+04        -0.60042E+08         0.00000E+00
    0.00000E+00         0.00000E+00        -0.43755E+08
 
   -0.37649E+08        -0.51153E+04         0.00000E+00
   -0.51153E+04        -0.60055E+08         0.00000E+00
    0.00000E+00         0.00000E+00        -0.43913E+08
 
   -0.38433E+08        -0.17859E+03         0.00000E+00
   -0.17859E+03        -0.60060E+08         0.00000E+00
    0.00000E+00         0.00000E+00        -0.44058E+08
 
   -0.39174E+08         0.72282E+04         0.00000E+00
    0.72282E+04        -0.60053E+08         0.00000E+00
    0.00000E+00         0.00000E+00        -0.44191E+08
 
   -0.39883E+08         0.17136E+05         0.00000E+00
    0.17136E+05        -0.60029E+08         0.00000E+00
    0.00000E+00         0.00000E+00        -0.44314E+08
 
   -0.40568E+08         0.29544E+05         0.00000E+00
    0.29544E+05        -0.59983E+08         0.00000E+00
    0.00000E+00         0.00000E+00        -0.44428E+08
 
   -0.41238E+08         0.44422E+05         0.00000E+00
    0.44422E+05        -0.59909E+08         0.00000E+00
    0.00000E+00         0.00000E+00        -0.44534E+08
 
   -0.41903E+08         0.61720E+05         0.00000E+00
    0.61720E+05        -0.59804E+08         0.00000E+00
    0.00000E+00         0.00000E+00        -0.44634E+08
 
   -0.42570E+08         0.81374E+05         0.00000E+00
    0.81374E+05        -0.59661E+08         0.00000E+00
    0.00000E+00         0.00000E+00        -0.44729E+08
 
   -0.43247E+08         0.10331E+06         0.00000E+00
    0.10331E+06        -0.59477E+08         0.00000E+00
    0.00000E+00         0.00000E+00        -0.44819E+08
 
   -0.43943E+08         0.12745E+06         0.00000E+00
    0.12745E+06        -0.59246E+08         0.00000E+00
    0.00000E+00         0.00000E+00        -0.44906E+08
 
   -0.44665E+08         0.15372E+06         0.00000E+00
    0.15372E+06        -0.58965E+08         0.00000E+00
    0.00000E+00         0.00000E+00        -0.44992E+08
 
   -0.33922E+08        -0.73710E+04         0.00000E+00
   -0.73710E+04        -0.60003E+08         0.00000E+00
    0.00000E+00         0.00000E+00        -0.43141E+08
 
   -0.34960E+08        -0.18552E+05         0.00000E+00
   -0.18552E+05        -0.60012E+08         0.00000E+00
    0.00000E+00         0.00000E+00        -0.43346E+08
 
   -0.35920E+08        -0.24169E+05         0.00000E+00
   -0.24169E+05        -0.60027E+08         0.00000E+00
    0.00000E+00         0.00000E+00        -0.43534E+08
 
   -0.36811E+08        -0.23479E+05         0.00000E+00
   -0.23479E+05        -0.60044E+08         0.00000E+00
    0.00000E+00         0.00000E+00        -0.43706E+08
 
   -0.37641E+08        -0.15942E+05         0.00000E+00
   -0.15942E+05        -0.60058E+08         0.00000E+00
    0.00000E+00         0.00000E+00        -0.43863E+08
 
   -0.38420E+08        -0.11935E+04         0.00000E+00
   -0.11935E+04        -0.60065E+08         0.00000E+00
    0.00000E+00         0.00000E+00        -0.44007E+08
 
   -0.39157E+08         0.20981E+05         0.00000E+00
    0.20981E+05        -0.60059E+08         0.00000E+00
    0.00000E+00         0.00000E+00        -0.44140E+08
 
   -0.39861E+08         0.50672E+05         0.00000E+00
    0.50672E+05        -0.60037E+08         0.00000E+00
    0.00000E+00         0.00000E+00        -0.44262E+08
 
   -0.40541E+08         0.87869E+05         0.00000E+00
    0.87869E+05        -0.59992E+08         0.00000E+00
    0.00000E+00         0.00000E+00        -0.44375E+08
 
   -0.41206E+08         0.13248E+06         0.00000E+00
    0.13248E+06        -0.59920E+08         0.00000E+00
    0.00000E+00         0.00000E+00        -0.44481E+08
 
   -0.41866E+08         0.18436E+06         0.00000E+00
    0.18436E+06        -0.59816E+08         0.00000E+00
    0.00000E+00         0.00000E+00        -0.44580E+08
 
   -0.42528E+08         0.24331E+06         0.00000E+00
    0.24331E+06        -0.59674E+08         0.00000E+00
    0.00000E+00         0.00000E+00        -0.44674E+08
 
   -0.43201E+08         0.30910E+06         0.00000E+00
    0.30910E+06        -0.59492E+08         0.00000E+00
    0.00000E+00         0.00000E+00        -0.44764E+08
 
   -0.43893E+08         0.38150E+06         0.00000E+00
    0.38150E+06        -0.59263E+08         0.00000E+00
    0.00000E+00         0.00000E+00        -0.44851E+08
 
   -0.44611E+08         0.46029E+06         0.00000E+00
    0.46029E+06        -0.58984E+08         0.00000E+00
    0.00000E+00         0.00000E+00        -0.44935E+08
 
   -0.33941E+08        -0.12619E+05         0.00000E+00
   -0.12619E+05        -0.60003E+08         0.00000E+00
    0.00000E+00         0.00000E+00        -0.43047E+08
 
   -0.34971E+08        -0.31823E+05         0.00000E+00
   -0.31823E+05        -0.60013E+08         0.00000E+00
    0.00000E+00         0.00000E+00        -0.43251E+08
 
   -0.35924E+08        -0.41638E+05         0.00000E+00
   -0.41638E+05        -0.60029E+08         0.00000E+00
    0.00000E+00         0.00000E+00        -0.43438E+08
 
   -0.36806E+08        -0.40842E+05         0.00000E+00
   -0.40842E+05        -0.60048E+08         0.00000E+00
    0.00000E+00         0.00000E+00        -0.43608E+08
 
   -0.37627E+08        -0.28551E+05         0.00000E+00
   -0.28551E+05        -0.60064E+08         0.00000E+00
    0.00000E+00         0.00000E+00        -0.43764E+08
 
   -0.38396E+08        -0.41752E+04         0.00000E+00
   -0.41752E+04        -0.60073E+08         0.00000E+00
    0.00000E+00         0.00000E+00        -0.43906E+08
 
   -0.39122E+08         0.32629E+05         0.00000E+00
    0.32629E+05        -0.60071E+08         0.00000E+00
    0.00000E+00         0.00000E+00        -0.44037E+08
 
   -0.39816E+08         0.82001E+05         0.00000E+00
    0.82001E+05        -0.60051E+08         0.00000E+00
    0.00000E+00         0.00000E+00        -0.44158E+08
 
   -0.40486E+08         0.14391E+06         0.00000E+00
    0.14391E+06        -0.60009E+08         0.00000E+00
    0.00000E+00         0.00000E+00        -0.44269E+08
 
   -0.41142E+08         0.21820E+06         0.00000E+00
    0.21820E+06        -0.59940E+08         0.00000E+00
    0.00000E+00         0.00000E+00        -0.44374E+08
 
   -0.41792E+08         0.30461E+06         0.00000E+00
    0.30461E+06        -0.59839E+08         0.00000E+00
    0.00000E+00         0.00000E+00        -0.44472E+08
 
   -0.42445E+08         0.40280E+06         0.00000E+00
    0.40280E+06        -0.59701E+08         0.00000E+00
    0.00000E+00         0.00000E+00        -0.44564E+08
 
   -0.43109E+08         0.51239E+06         0.00000E+00
    0.51239E+06        -0.59522E+08         0.00000E+00
    0.00000E+00         0.00000E+00        -0.44653E+08
 
   -0.43792E+08         0.63299E+06         0.00000E+00
    0.63299E+06        -0.59296E+08         0.00000E+00
    0.00000E+00         0.00000E+00        -0.44739E+08
 
   -0.44502E+08         0.76421E+06         0.00000E+00
    0.76421E+06        -0.59021E+08         0.00000E+00
    0.00000E+00         0.00000E+00        -0.44822E+08
 
   -0.33969E+08        -0.18366E+05         0.00000E+00
   -0.18366E+05        -0.60003E+08         0.00000E+00
    0.00000E+00         0.00000E+00        -0.42906E+08
 
   -0.34990E+08        -0.46442E+05         0.00000E+00
   -0.46442E+05        -0.60014E+08         0.00000E+00
    0.00000E+00         0.00000E+00        -0.43108E+08
 
   -0.35930E+08        -0.61129E+05         0.00000E+00
   -0.61129E+05        -0.60033E+08         0.00000E+00
    0.00000E+00         0.00000E+00        -0.43293E+08
 
   -0.36798E+08        -0.60752E+05         0.00000E+00
   -0.60752E+05        -0.60054E+08         0.00000E+00
    0.00000E+00         0.00000E+00        -0.43461E+08
 
   -0.37605E+08        -0.44112E+05         0.00000E+00
   -0.44112E+05        -0.60074E+08         0.00000E+00
    0.00000E+00         0.00000E+00        -0.43614E+08
 
   -0.38359E+08        -0.10414E+05         0.00000E+00
   -0.10414E+05        -0.60087E+08         0.00000E+00
    0.00000E+00         0.00000E+00        -0.43754E+08
 
   -0.39071E+08         0.40793E+05         0.00000E+00
    0.40793E+05        -0.60088E+08         0.00000E+00
    0.00000E+00         0.00000E+00        -0.43883E+08
 
   -0.39749E+08         0.10968E+06         0.00000E+00
    0.10968E+06        -0.60072E+08         0.00000E+00
    0.00000E+00         0.00000E+00        -0.44001E+08
 
   -0.40405E+08         0.19617E+06         0.00000E+00
    0.19617E+06        -0.60035E+08         0.00000E+00
    0.00000E+00         0.00000E+00        -0.44111E+08
 
   -0.41045E+08         0.30004E+06         0.00000E+00
    0.30004E+06        -0.59971E+08         0.00000E+00
    0.00000E+00         0.00000E+00        -0.44213E+08
 
   -0.41681E+08         0.42089E+06         0.00000E+00
    0.42089E+06        -0.59874E+08         0.00000E+00
    0.00000E+00         0.00000E+00        -0.44309E+08
 
   -0.42320E+08         0.55824E+06         0.00000E+00
    0.55824E+06        -0.59741E+08         0.00000E+00
    0.00000E+00         0.00000E+00        -0.44400E+08
 
   -0.42971E+08         0.71154E+06         0.00000E+00
    0.71154E+06        -0.59567E+08         0.00000E+00
    0.00000E+00         0.00000E+00        -0.44487E+08
 
   -0.43641E+08         0.88023E+06         0.00000E+00
    0.88023E+06        -0.59346E+08         0.00000E+00
    0.00000E+00         0.00000E+00        -0.44571E+08
 
   -0.44338E+08         0.10637E+07         0.00000E+00
    0.10637E+07        -0.59076E+08         0.00000E+00
    0.00000E+00         0.00000E+00        -0.44653E+08
 
   -0.34009E+08        -0.24806E+05         0.00000E+00
   -0.24806E+05        -0.60004E+08         0.00000E+00
    0.00000E+00         0.00000E+00        -0.42719E+08
 
   -0.35015E+08        -0.62934E+05         0.00000E+00
   -0.62934E+05        -0.60016E+08         0.00000E+00
    0.00000E+00         0.00000E+00        -0.42919E+08
 
   -0.35939E+08        -0.83427E+05         0.00000E+00
   -0.83427E+05        -0.60037E+08         0.00000E+00
    0.00000E+00         0.00000E+00        -0.43100E+08
 
   -0.36789E+08        -0.84197E+05         0.00000E+00
   -0.84197E+05        -0.60062E+08         0.00000E+00
    0.00000E+00         0.00000E+00        -0.43265E+08
 
   -0.37577E+08        -0.63765E+05         0.00000E+00
   -0.63765E+05        -0.60086E+08         0.00000E+00
    0.00000E+00         0.00000E+00        -0.43415E+08
 
   -0.38311E+08        -0.21166E+05         0.00000E+00
   -0.21166E+05        -0.60104E+08         0.00000E+00
    0.00000E+00         0.00000E+00        -0.43552E+08
 
   -0.39002E+08         0.44128E+05         0.00000E+00
    0.44128E+05        -0.60111E+08         0.00000E+00
    0.00000E+00         0.00000E+00        -0.43678E+08
 
   -0.39661E+08         0.13229E+06         0.00000E+00
    0.13229E+06        -0.60101E+08         0.00000E+00
    0.00000E+00         0.00000E+00        -0.43793E+08
 
   -0.40296E+08         0.24319E+06         0.00000E+00
    0.24319E+06        -0.60069E+08         0.00000E+00
    0.00000E+00         0.00000E+00        -0.43900E+08
 
   -0.40917E+08         0.37649E+06         0.00000E+00
    0.37649E+06        -0.60011E+08         0.00000E+00
    0.00000E+00         0.00000E+00        -0.44000E+08
 
   -0.41534E+08         0.53166E+06         0.00000E+00
    0.53166E+06        -0.59921E+08         0.00000E+00
    0.00000E+00         0.00000E+00        -0.44093E+08
 
   -0.42154E+08         0.70805E+06         0.00000E+00
    0.70805E+06        -0.59794E+08         0.00000E+00
    0.00000E+00         0.00000E+00        -0.44181E+08
 
   -0.42787E+08         0.90493E+06         0.00000E+00
    0.90493E+06        -0.59626E+08         0.00000E+00
    0.00000E+00         0.00000E+00        -0.44266E+08
 
   -0.43440E+08         0.11215E+07         0.00000E+00
    0.11215E+07        -0.59412E+08         0.00000E+00
    0.00000E+00         0.00000E+00        -0.44348E+08
 
   -0.44120E+08         0.13572E+07         0.00000E+00
    0.13572E+07        -0.59148E+08         0.00000E+00
    0.00000E+00         0.00000E+00        -0.44428E+08
 
   -0.34062E+08        -0.32129E+05         0.00000E+00
   -0.32129E+05        -0.60004E+08         0.00000E+00
    0.00000E+00         0.00000E+00        -0.42486E+08
 
   -0.35049E+08        -0.81806E+05         0.00000E+00
   -0.81806E+05        -0.60018E+08         0.00000E+00
    0.00000E+00         0.00000E+00        -0.42682E+08
 
   -0.35952E+08        -0.10929E+06         0.00000E+00
   -0.10929E+06        -0.60043E+08         0.00000E+00
    0.00000E+00         0.00000E+00        -0.42860E+08
 
   -0.36779E+08        -0.11213E+06         0.00000E+00
   -0.11213E+06        -0.60072E+08         0.00000E+00
    0.00000E+00         0.00000E+00        -0.43021E+08
 
   -0.37542E+08        -0.88608E+05         0.00000E+00
   -0.88608E+05        -0.60101E+08         0.00000E+00
    0.00000E+00         0.00000E+00        -0.43167E+08
 
   -0.38252E+08        -0.37641E+05         0.00000E+00
   -0.37641E+05        -0.60125E+08         0.00000E+00
    0.00000E+00         0.00000E+00        -0.43301E+08
 
   -0.38918E+08         0.41341E+05         0.00000E+00
    0.41341E+05        -0.60138E+08         0.00000E+00
    0.00000E+00         0.00000E+00        -0.43422E+08
 
   -0.39550E+08         0.14848E+06         0.00000E+00
    0.14848E+06        -0.60135E+08         0.00000E+00
    0.00000E+00         0.00000E+00        -0.43534E+08
 
   -0.40160E+08         0.28356E+06         0.00000E+00
    0.28356E+06        -0.60111E+08         0.00000E+00
    0.00000E+00         0.00000E+00        -0.43637E+08
 
   -0.40757E+08         0.44611E+06         0.00000E+00
    0.44611E+06        -0.60060E+08         0.00000E+00
    0.00000E+00         0.00000E+00        -0.43733E+08
 
   -0.41350E+08         0.63543E+06         0.00000E+00
    0.63543E+06        -0.59978E+08         0.00000E+00
    0.00000E+00         0.00000E+00        -0.43823E+08
 
   -0.41947E+08         0.85069E+06         0.00000E+00
    0.85069E+06        -0.59859E+08         0.00000E+00
    0.00000E+00         0.00000E+00        -0.43909E+08
 
   -0.42557E+08         0.10910E+07         0.00000E+00
    0.10910E+07        -0.59699E+08         0.00000E+00
    0.00000E+00         0.00000E+00        -0.43991E+08
 
   -0.43189E+08         0.13553E+07         0.00000E+00
    0.13553E+07        -0.59493E+08         0.00000E+00
    0.00000E+00         0.00000E+00        -0.44070E+08
 
   -0.43849E+08         0.16427E+07         0.00000E+00
    0.16427E+07        -0.59238E+08         0.00000E+00
    0.00000E+00         0.00000E+00        -0.44148E+08
 
   -0.34129E+08        -0.40515E+05         0.00000E+00
   -0.40515E+05        -0.60005E+08         0.00000E+00
    0.00000E+00         0.00000E+00        -0.42207E+08
 
   -0.35094E+08        -0.10354E+06         0.00000E+00
   -0.10354E+06        -0.60021E+08         0.00000E+00
    0.00000E+00         0.00000E+00        -0.42399E+08
 
   -0.35970E+08        -0.13944E+06         0.00000E+00
   -0.13944E+06        -0.60049E+08         0.00000E+00
    0.00000E+00         0.00000E+00        -0.42573E+08
 
   -0.36769E+08        -0.14544E+06         0.00000E+00
   -0.14544E+06        -0.60084E+08         0.00000E+00
    0.00000E+00         0.00000E+00        -0.42729E+08
 
   -0.37503E+08        -0.11968E+06         0.00000E+00
   -0.11968E+06        -0.60119E+08         0.00000E+00
    0.00000E+00         0.00000E+00        -0.42871E+08
 
   -0.38181E+08        -0.60983E+05         0.00000E+00
   -0.60983E+05        -0.60150E+08         0.00000E+00
    0.00000E+00         0.00000E+00        -0.42999E+08
 
   -0.38817E+08         0.31207E+05         0.00000E+00
    0.31207E+05        -0.60171E+08         0.00000E+00
    0.00000E+00         0.00000E+00        -0.43116E+08
 
   -0.39419E+08         0.15696E+06         0.00000E+00
    0.15696E+06        -0.60176E+08         0.00000E+00
    0.00000E+00         0.00000E+00        -0.43224E+08
 
   -0.39998E+08         0.31593E+06         0.00000E+00
    0.31593E+06        -0.60161E+08         0.00000E+00
    0.00000E+00         0.00000E+00        -0.43322E+08
 
   -0.40565E+08         0.50749E+06         0.00000E+00
    0.50749E+06        -0.60118E+08         0.00000E+00
    0.00000E+00         0.00000E+00        -0.43414E+08
 
   -0.41129E+08         0.73076E+06         0.00000E+00
    0.73076E+06        -0.60045E+08         0.00000E+00
    0.00000E+00         0.00000E+00        -0.43500E+08
 
   -0.41699E+08         0.98469E+06         0.00000E+00
    0.98469E+06        -0.59935E+08         0.00000E+00
    0.00000E+00         0.00000E+00        -0.43582E+08
 
   -0.42282E+08         0.12681E+07         0.00000E+00
    0.12681E+07        -0.59785E+08         0.00000E+00
    0.00000E+00         0.00000E+00        -0.43661E+08
 
   -0.42888E+08         0.15799E+07         0.00000E+00
    0.15799E+07        -0.59589E+08         0.00000E+00
    0.00000E+00         0.00000E+00        -0.43737E+08
 
   -0.43523E+08         0.19188E+07         0.00000E+00
    0.19188E+07        -0.59344E+08         0.00000E+00
    0.00000E+00         0.00000E+00        -0.43812E+08
 
   -0.34214E+08        -0.50139E+05         0.00000E+00
   -0.50139E+05        -0.60005E+08         0.00000E+00
    0.00000E+00         0.00000E+00        -0.41885E+08
 
   -0.35150E+08        -0.12861E+06         0.00000E+00
   -0.12861E+06        -0.60024E+08         0.00000E+00
    0.00000E+00         0.00000E+00        -0.42071E+08
 
   -0.35995E+08        -0.17455E+06         0.00000E+00
   -0.17455E+06        -0.60057E+08         0.00000E+00
    0.00000E+00         0.00000E+00        -0.42239E+08
 
   -0.36760E+08        -0.18499E+06         0.00000E+00
   -0.18499E+06        -0.60097E+08         0.00000E+00
    0.00000E+00         0.00000E+00        -0.42390E+08
 
   -0.37458E+08        -0.15795E+06         0.00000E+00
   -0.15795E+06        -0.60140E+08         0.00000E+00
    0.00000E+00         0.00000E+00        -0.42526E+08
 
   -0.38101E+08        -0.92248E+05         0.00000E+00
   -0.92248E+05        -0.60179E+08         0.00000E+00
    0.00000E+00         0.00000E+00        -0.42649E+08
 
   -0.38700E+08         0.12596E+05         0.00000E+00
    0.12596E+05        -0.60208E+08         0.00000E+00
    0.00000E+00         0.00000E+00        -0.42760E+08
 
   -0.39266E+08         0.15653E+06         0.00000E+00
    0.15653E+06        -0.60223E+08         0.00000E+00
    0.00000E+00         0.00000E+00        -0.42862E+08
 
   -0.39810E+08         0.33906E+06         0.00000E+00
    0.33906E+06        -0.60217E+08         0.00000E+00
    0.00000E+00         0.00000E+00        -0.42956E+08
 
   -0.40342E+08         0.55934E+06         0.00000E+00
    0.55934E+06        -0.60184E+08         0.00000E+00
    0.00000E+00         0.00000E+00        -0.43043E+08
 
   -0.40872E+08         0.81629E+06         0.00000E+00
    0.81629E+06        -0.60121E+08         0.00000E+00
    0.00000E+00         0.00000E+00        -0.43125E+08
 
   -0.41409E+08         0.11086E+07         0.00000E+00
    0.11086E+07        -0.60022E+08         0.00000E+00
    0.00000E+00         0.00000E+00        -0.43202E+08
 
   -0.41962E+08         0.14350E+07         0.00000E+00
    0.14350E+07        -0.59882E+08         0.00000E+00
    0.00000E+00         0.00000E+00        -0.43277E+08
 
   -0.42538E+08         0.17938E+07         0.00000E+00
    0.17938E+07        -0.59698E+08         0.00000E+00
    0.00000E+00         0.00000E+00        -0.43349E+08
 
   -0.43145E+08         0.21839E+07         0.00000E+00
    0.21839E+07        -0.59465E+08         0.00000E+00
    0.00000E+00         0.00000E+00        -0.43421E+08
 
   -0.34317E+08        -0.61159E+05         0.00000E+00
   -0.61159E+05        -0.60006E+08         0.00000E+00
    0.00000E+00         0.00000E+00        -0.41518E+08
 
   -0.35220E+08        -0.15742E+06         0.00000E+00
   -0.15742E+06        -0.60027E+08         0.00000E+00
    0.00000E+00         0.00000E+00        -0.41699E+08
 
   -0.36028E+08        -0.21523E+06         0.00000E+00
   -0.21523E+06        -0.60065E+08         0.00000E+00
    0.00000E+00         0.00000E+00        -0.41860E+08
 
   -0.36754E+08        -0.23152E+06         0.00000E+00
   -0.23152E+06        -0.60112E+08         0.00000E+00
    0.00000E+00         0.00000E+00        -0.42004E+08
 
   -0.37411E+08        -0.20427E+06         0.00000E+00
   -0.20427E+06        -0.60163E+08         0.00000E+00
    0.00000E+00         0.00000E+00        -0.42134E+08
 
   -0.38011E+08        -0.13238E+06         0.00000E+00
   -0.13238E+06        -0.60211E+08         0.00000E+00
    0.00000E+00         0.00000E+00        -0.42250E+08
 
   -0.38568E+08        -0.15510E+05         0.00000E+00
   -0.15510E+05        -0.60250E+08         0.00000E+00
    0.00000E+00         0.00000E+00        -0.42355E+08
 
   -0.39092E+08         0.14612E+06         0.00000E+00
    0.14612E+06        -0.60274E+08         0.00000E+00
    0.00000E+00         0.00000E+00        -0.42451E+08
 
   -0.39595E+08         0.35180E+06         0.00000E+00
    0.35180E+06        -0.60279E+08         0.00000E+00
    0.00000E+00         0.00000E+00        -0.42539E+08
 
   -0.40088E+08         0.60045E+06         0.00000E+00
    0.60045E+06        -0.60258E+08         0.00000E+00
    0.00000E+00         0.00000E+00        -0.42620E+08
 
   -0.40579E+08         0.89075E+06         0.00000E+00
    0.89075E+06        -0.60206E+08         0.00000E+00
    0.00000E+00         0.00000E+00        -0.42697E+08
 
   -0.41080E+08         0.12212E+07         0.00000E+00
    0.12212E+07        -0.60119E+08         0.00000E+00
    0.00000E+00         0.00000E+00        -0.42769E+08
 
   -0.41597E+08         0.15900E+07         0.00000E+00
    0.15900E+07        -0.59991E+08         0.00000E+00
    0.00000E+00         0.00000E+00        -0.42839E+08
 
   -0.42139E+08         0.19956E+07         0.00000E+00
    0.19956E+07        -0.59820E+08         0.00000E+00
    0.00000E+00         0.00000E+00        -0.42908E+08
 
   -0.42713E+08         0.24362E+07         0.00000E+00
    0.24362E+07        -0.59599E+08         0.00000E+00
    0.00000E+00         0.00000E+00        -0.42975E+08
 
   -0.34443E+08        -0.73718E+05         0.00000E+00
   -0.73718E+05        -0.60007E+08         0.00000E+00
    0.00000E+00         0.00000E+00        -0.41109E+08
 
   -0.35306E+08        -0.19034E+06         0.00000E+00
   -0.19034E+06        -0.60031E+08         0.00000E+00
    0.00000E+00         0.00000E+00        -0.41283E+08
 
   -0.36070E+08        -0.26203E+06         0.00000E+00
   -0.26203E+06        -0.60074E+08         0.00000E+00
    0.00000E+00         0.00000E+00        -0.41436E+08
 
   -0.36750E+08        -0.28568E+06         0.00000E+00
   -0.28568E+06        -0.60128E+08         0.00000E+00
    0.00000E+00         0.00000E+00        -0.41573E+08
 
   -0.37360E+08        -0.25938E+06         0.00000E+00
   -0.25938E+06        -0.60187E+08         0.00000E+00
    0.00000E+00         0.00000E+00        -0.41695E+08
 
   -0.37913E+08        -0.18220E+06         0.00000E+00
   -0.18220E+06        -0.60245E+08         0.00000E+00
    0.00000E+00         0.00000E+00        -0.41804E+08
 
   -0.38421E+08        -0.53978E+05         0.00000E+00
   -0.53978E+05        -0.60294E+08         0.00000E+00
    0.00000E+00         0.00000E+00        -0.41901E+08
 
   -0.38898E+08         0.12479E+06         0.00000E+00
    0.12479E+06        -0.60330E+08         0.00000E+00
    0.00000E+00         0.00000E+00        -0.41990E+08
 
   -0.39355E+08         0.35315E+06         0.00000E+00
    0.35315E+06        -0.60346E+08         0.00000E+00
    0.00000E+00         0.00000E+00        -0.42071E+08
 
   -0.39803E+08         0.62976E+06         0.00000E+00
    0.62976E+06        -0.60337E+08         0.00000E+00
    0.00000E+00         0.00000E+00        -0.42147E+08
 
   -0.40251E+08         0.95300E+06         0.00000E+00
    0.95300E+06        -0.60298E+08         0.00000E+00
    0.00000E+00         0.00000E+00        -0.42217E+08
 
   -0.40710E+08         0.13211E+07         0.00000E+00
    0.13211E+07        -0.60223E+08         0.00000E+00
    0.00000E+00         0.00000E+00        -0.42284E+08
 
   -0.41187E+08         0.17320E+07         0.00000E+00
    0.17320E+07        -0.60110E+08         0.00000E+00
    0.00000E+00         0.00000E+00        -0.42349E+08
 
   -0.41692E+08         0.21838E+07         0.00000E+00
    0.21838E+07        -0.59952E+08         0.00000E+00
    0.00000E+00         0.00000E+00        -0.42413E+08
 
   -0.42230E+08         0.26744E+07         0.00000E+00
    0.26744E+07        -0.59746E+08         0.00000E+00
    0.00000E+00         0.00000E+00        -0.42476E+08
 
   -0.34593E+08        -0.87942E+05         0.00000E+00
   -0.87942E+05        -0.60007E+08         0.00000E+00
    0.00000E+00         0.00000E+00        -0.40659E+08
 
   -0.35410E+08        -0.22769E+06         0.00000E+00
   -0.22769E+06        -0.60035E+08         0.00000E+00
    0.00000E+00         0.00000E+00        -0.40824E+08
 
   -0.36125E+08        -0.31537E+06         0.00000E+00
   -0.31537E+06        -0.60083E+08         0.00000E+00
    0.00000E+00         0.00000E+00        -0.40969E+08
 
   -0.36752E+08        -0.34801E+06         0.00000E+00
   -0.34801E+06        -0.60145E+08         0.00000E+00
    0.00000E+00         0.00000E+00        -0.41097E+08
 
   -0.37308E+08        -0.32388E+06         0.00000E+00
   -0.32388E+06        -0.60213E+08         0.00000E+00
    0.00000E+00         0.00000E+00        -0.41210E+08
 
   -0.37806E+08        -0.24232E+06         0.00000E+00
   -0.24232E+06        -0.60281E+08         0.00000E+00
    0.00000E+00         0.00000E+00        -0.41310E+08
 
   -0.38261E+08        -0.10349E+06         0.00000E+00
   -0.10349E+06        -0.60341E+08         0.00000E+00
    0.00000E+00         0.00000E+00        -0.41400E+08
 
   -0.38685E+08         0.91805E+05         0.00000E+00
    0.91805E+05        -0.60389E+08         0.00000E+00
    0.00000E+00         0.00000E+00        -0.41481E+08
 
   -0.39090E+08         0.34230E+06         0.00000E+00
    0.34230E+06        -0.60417E+08         0.00000E+00
    0.00000E+00         0.00000E+00        -0.41555E+08
 
   -0.39488E+08         0.64633E+06         0.00000E+00
    0.64633E+06        -0.60421E+08         0.00000E+00
    0.00000E+00         0.00000E+00        -0.41623E+08
 
   -0.39888E+08         0.10020E+07         0.00000E+00
    0.10020E+07        -0.60395E+08         0.00000E+00
    0.00000E+00         0.00000E+00        -0.41687E+08
 
   -0.40300E+08         0.14072E+07         0.00000E+00
    0.14072E+07        -0.60335E+08         0.00000E+00
    0.00000E+00         0.00000E+00        -0.41748E+08
 
   -0.40734E+08         0.18597E+07         0.00000E+00
    0.18597E+07        -0.60235E+08         0.00000E+00
    0.00000E+00         0.00000E+00        -0.41807E+08
 
   -0.41196E+08         0.23571E+07         0.00000E+00
    0.23571E+07        -0.60093E+08         0.00000E+00
    0.00000E+00         0.00000E+00        -0.41866E+08
 
   -0.41695E+08         0.28970E+07         0.00000E+00
    0.28970E+07        -0.59903E+08         0.00000E+00
    0.00000E+00         0.00000E+00        -0.41925E+08
 
   -0.34773E+08        -0.10393E+06         0.00000E+00
   -0.10393E+06        -0.60008E+08         0.00000E+00
    0.00000E+00         0.00000E+00        -0.40170E+08
 
   -0.35535E+08        -0.26971E+06         0.00000E+00
   -0.26971E+06        -0.60039E+08         0.00000E+00
    0.00000E+00         0.00000E+00        -0.40325E+08
 
   -0.36192E+08        -0.37559E+06         0.00000E+00
   -0.37559E+06        -0.60093E+08         0.00000E+00
    0.00000E+00         0.00000E+00        -0.40459E+08
 
   -0.36760E+08        -0.41885E+06         0.00000E+00
   -0.41885E+06        -0.60163E+08         0.00000E+00
    0.00000E+00         0.00000E+00        -0.40577E+08
 
   -0.37255E+08        -0.39813E+06         0.00000E+00
   -0.39813E+06        -0.60240E+08         0.00000E+00
    0.00000E+00         0.00000E+00        -0.40680E+08
 
   -0.37693E+08        -0.31317E+06         0.00000E+00
   -0.31317E+06        -0.60318E+08         0.00000E+00
    0.00000E+00         0.00000E+00        -0.40771E+08
 
   -0.38087E+08        -0.16452E+06         0.00000E+00
   -0.16452E+06        -0.60390E+08         0.00000E+00
    0.00000E+00         0.00000E+00        -0.40851E+08
 
   -0.38453E+08         0.46629E+05         0.00000E+00
    0.46629E+05        -0.60449E+08         0.00000E+00
    0.00000E+00         0.00000E+00        -0.40924E+08
 
   -0.38801E+08         0.31861E+06         0.00000E+00
    0.31861E+06        -0.60490E+08         0.00000E+00
    0.00000E+00         0.00000E+00        -0.40989E+08
 
   -0.39143E+08         0.64944E+06         0.00000E+00
    0.64944E+06        -0.60508E+08         0.00000E+00
    0.00000E+00         0.00000E+00        -0.41049E+08
 
   -0.39490E+08         0.10369E+07         0.00000E+00
    0.10369E+07        -0.60496E+08         0.00000E+00
    0.00000E+00         0.00000E+00        -0.41106E+08
 
   -0.39852E+08         0.14786E+07         0.00000E+00
    0.14786E+07        -0.60450E+08         0.00000E+00
    0.00000E+00         0.00000E+00        -0.41160E+08
 
   -0.40237E+08         0.19719E+07         0.00000E+00
    0.19719E+07        -0.60367E+08         0.00000E+00
    0.00000E+00         0.00000E+00        -0.41214E+08
 
   -0.40654E+08         0.25142E+07         0.00000E+00
    0.25142E+07        -0.60240E+08         0.00000E+00
    0.00000E+00         0.00000E+00        -0.41267E+08
 
   -0.41109E+08         0.31027E+07         0.00000E+00
    0.31027E+07        -0.60068E+08         0.00000E+00
    0.00000E+00         0.00000E+00        -0.41320E+08
 
   -0.34983E+08        -0.12174E+06         0.00000E+00
   -0.12174E+06        -0.60009E+08         0.00000E+00
    0.00000E+00         0.00000E+00        -0.39643E+08
 
   -0.35684E+08        -0.31653E+06         0.00000E+00
   -0.31653E+06        -0.60043E+08         0.00000E+00
    0.00000E+00         0.00000E+00        -0.39786E+08
 
   -0.36275E+08        -0.44283E+06         0.00000E+00
   -0.44283E+06        -0.60103E+08         0.00000E+00
    0.00000E+00         0.00000E+00        -0.39909E+08
 
   -0.36775E+08        -0.49836E+06         0.00000E+00
   -0.49836E+06        -0.60181E+08         0.00000E+00
    0.00000E+00         0.00000E+00        -0.40015E+08
 
   -0.37202E+08        -0.48229E+06         0.00000E+00
   -0.48229E+06        -0.60268E+08         0.00000E+00
    0.00000E+00         0.00000E+00        -0.40107E+08
 
   -0.37573E+08        -0.39488E+06         0.00000E+00
   -0.39488E+06        -0.60356E+08         0.00000E+00
    0.00000E+00         0.00000E+00        -0.40187E+08
 
   -0.37901E+08        -0.23722E+06         0.00000E+00
   -0.23722E+06        -0.60439E+08         0.00000E+00
    0.00000E+00         0.00000E+00        -0.40257E+08
 
   -0.38202E+08        -0.10983E+05         0.00000E+00
   -0.10983E+05        -0.60510E+08         0.00000E+00
    0.00000E+00         0.00000E+00        -0.40320E+08
 
   -0.38487E+08         0.28174E+06         0.00000E+00
    0.28174E+06        -0.60564E+08         0.00000E+00
    0.00000E+00         0.00000E+00        -0.40376E+08
 
   -0.38769E+08         0.63858E+06         0.00000E+00
    0.63858E+06        -0.60595E+08         0.00000E+00
    0.00000E+00         0.00000E+00        -0.40428E+08
 
   -0.39059E+08         0.10570E+07         0.00000E+00
    0.10570E+07        -0.60598E+08         0.00000E+00
    0.00000E+00         0.00000E+00        -0.40476E+08
 
   -0.39365E+08         0.15343E+07         0.00000E+00
    0.15343E+07        -0.60568E+08         0.00000E+00
    0.00000E+00         0.00000E+00        -0.40523E+08
 
   -0.39698E+08         0.20676E+07         0.00000E+00
    0.20676E+07        -0.60501E+08         0.00000E+00
    0.00000E+00         0.00000E+00        -0.40570E+08
 
   -0.40065E+08         0.26539E+07         0.00000E+00
    0.26539E+07        -0.60392E+08         0.00000E+00
    0.00000E+00         0.00000E+00        -0.40617E+08
 
   -0.40474E+08         0.32901E+07         0.00000E+00
    0.32901E+07        -0.60238E+08         0.00000E+00
    0.00000E+00         0.00000E+00        -0.40665E+08
 
   -0.35229E+08        -0.14142E+06         0.00000E+00
   -0.14142E+06        -0.60010E+08         0.00000E+00
    0.00000E+00         0.00000E+00        -0.39079E+08
 
   -0.35858E+08        -0.36819E+06         0.00000E+00
   -0.36819E+06        -0.60047E+08         0.00000E+00
    0.00000E+00         0.00000E+00        -0.39209E+08
 
   -0.36375E+08        -0.51707E+06         0.00000E+00
   -0.51707E+06        -0.60113E+08         0.00000E+00
    0.00000E+00         0.00000E+00        -0.39319E+08
 
   -0.36800E+08        -0.58645E+06         0.00000E+00
   -0.58645E+06        -0.60199E+08         0.00000E+00
    0.00000E+00         0.00000E+00        -0.39412E+08
 
   -0.37152E+08        -0.57619E+06         0.00000E+00
   -0.57619E+06        -0.60294E+08         0.00000E+00
    0.00000E+00         0.00000E+00        -0.39492E+08
 
   -0.37447E+08        -0.48727E+06         0.00000E+00
   -0.48727E+06        -0.60393E+08         0.00000E+00
    0.00000E+00         0.00000E+00        -0.39560E+08
 
   -0.37703E+08        -0.32143E+06         0.00000E+00
   -0.32143E+06        -0.60486E+08         0.00000E+00
    0.00000E+00         0.00000E+00        -0.39618E+08
 
   -0.37933E+08        -0.80939E+05         0.00000E+00
   -0.80939E+05        -0.60570E+08         0.00000E+00
    0.00000E+00         0.00000E+00        -0.39670E+08
 
   -0.38151E+08         0.23162E+06         0.00000E+00
    0.23162E+06        -0.60636E+08         0.00000E+00
    0.00000E+00         0.00000E+00        -0.39716E+08
 
   -0.38367E+08         0.61350E+06         0.00000E+00
    0.61350E+06        -0.60681E+08         0.00000E+00
    0.00000E+00         0.00000E+00        -0.39759E+08
 
   -0.38594E+08         0.10618E+07         0.00000E+00
    0.10618E+07        -0.60698E+08         0.00000E+00
    0.00000E+00         0.00000E+00        -0.39799E+08
 
   -0.38841E+08         0.15737E+07         0.00000E+00
    0.15737E+07        -0.60684E+08         0.00000E+00
    0.00000E+00         0.00000E+00        -0.39838E+08
 
   -0.39117E+08         0.21458E+07         0.00000E+00
    0.21458E+07        -0.60634E+08         0.00000E+00
    0.00000E+00         0.00000E+00        -0.39877E+08
 
   -0.39431E+08         0.27751E+07         0.00000E+00
    0.27751E+07        -0.60544E+08         0.00000E+00
    0.00000E+00         0.00000E+00        -0.39917E+08
 
   -0.39790E+08         0.34580E+07         0.00000E+00
    0.34580E+07        -0.60410E+08         0.00000E+00
    0.00000E+00         0.00000E+00        -0.39960E+08
 
   -0.35514E+08        -0.16293E+06         0.00000E+00
   -0.16293E+06        -0.60010E+08         0.00000E+00
    0.00000E+00         0.00000E+00        -0.38482E+08
 
   -0.36061E+08        -0.42458E+06         0.00000E+00
   -0.42458E+06        -0.60051E+08         0.00000E+00
    0.00000E+00         0.00000E+00        -0.38597E+08
 
   -0.36494E+08        -0.59808E+06         0.00000E+00
   -0.59808E+06        -0.60123E+08         0.00000E+00
    0.00000E+00         0.00000E+00        -0.38691E+08
 
   -0.36835E+08        -0.68272E+06         0.00000E+00
   -0.68272E+06        -0.60216E+08         0.00000E+00
    0.00000E+00         0.00000E+00        -0.38770E+08
 
   -0.37103E+08        -0.67930E+06         0.00000E+00
   -0.67930E+06        -0.60319E+08         0.00000E+00
    0.00000E+00         0.00000E+00        -0.38836E+08
 
   -0.37318E+08        -0.58972E+06         0.00000E+00
   -0.58972E+06        -0.60427E+08         0.00000E+00
    0.00000E+00         0.00000E+00        -0.38890E+08
 
   -0.37495E+08        -0.41654E+06         0.00000E+00
   -0.41654E+06        -0.60531E+08         0.00000E+00
    0.00000E+00         0.00000E+00        -0.38936E+08
 
   -0.37648E+08        -0.16273E+06         0.00000E+00
   -0.16273E+06        -0.60625E+08         0.00000E+00
    0.00000E+00         0.00000E+00        -0.38976E+08
 
   -0.37793E+08         0.16859E+06         0.00000E+00
    0.16859E+06        -0.60703E+08         0.00000E+00
    0.00000E+00         0.00000E+00        -0.39011E+08
 
   -0.37939E+08         0.57427E+06         0.00000E+00
    0.57427E+06        -0.60761E+08         0.00000E+00
    0.00000E+00         0.00000E+00        -0.39043E+08
 
   -0.38098E+08         0.10512E+07         0.00000E+00
    0.10512E+07        -0.60793E+08         0.00000E+00
    0.00000E+00         0.00000E+00        -0.39074E+08
 
   -0.38281E+08         0.15961E+07         0.00000E+00
    0.15961E+07        -0.60796E+08         0.00000E+00
    0.00000E+00         0.00000E+00        -0.39104E+08
 
   -0.38496E+08         0.22058E+07         0.00000E+00
    0.22058E+07        -0.60764E+08         0.00000E+00
    0.00000E+00         0.00000E+00        -0.39135E+08
 
   -0.38753E+08         0.28767E+07         0.00000E+00
    0.28767E+07        -0.60693E+08         0.00000E+00
    0.00000E+00         0.00000E+00        -0.39169E+08
 
   -0.39058E+08         0.36050E+07         0.00000E+00
    0.36050E+07        -0.60579E+08         0.00000E+00
    0.00000E+00         0.00000E+00        -0.39205E+08
 
   -0.35841E+08        -0.18621E+06         0.00000E+00
   -0.18621E+06        -0.60011E+08         0.00000E+00
    0.00000E+00         0.00000E+00        -0.37854E+08
 
   -0.36295E+08        -0.48542E+06         0.00000E+00
   -0.48542E+06        -0.60055E+08         0.00000E+00
    0.00000E+00         0.00000E+00        -0.37951E+08
 
   -0.36634E+08        -0.68530E+06         0.00000E+00
   -0.68530E+06        -0.60132E+08         0.00000E+00
    0.00000E+00         0.00000E+00        -0.38028E+08
 
   -0.36881E+08        -0.78637E+06         0.00000E+00
   -0.78637E+06        -0.60231E+08         0.00000E+00
    0.00000E+00         0.00000E+00        -0.38091E+08
 
   -0.37058E+08        -0.79063E+06         0.00000E+00
   -0.79063E+06        -0.60342E+08         0.00000E+00
    0.00000E+00         0.00000E+00        -0.38140E+08
 
   -0.37184E+08        -0.70112E+06         0.00000E+00
   -0.70112E+06        -0.60457E+08         0.00000E+00
    0.00000E+00         0.00000E+00        -0.38180E+08
 
   -0.37276E+08        -0.52143E+06         0.00000E+00
   -0.52143E+06        -0.60570E+08         0.00000E+00
    0.00000E+00         0.00000E+00        -0.38213E+08
 
   -0.37348E+08        -0.25534E+06         0.00000E+00
   -0.25534E+06        -0.60673E+08         0.00000E+00
    0.00000E+00         0.00000E+00        -0.38240E+08
 
   -0.37414E+08         0.93420E+05         0.00000E+00
    0.93420E+05        -0.60762E+08         0.00000E+00
    0.00000E+00         0.00000E+00        -0.38263E+08
 
   -0.37485E+08         0.52133E+06         0.00000E+00
    0.52133E+06        -0.60833E+08         0.00000E+00
    0.00000E+00         0.00000E+00        -0.38283E+08
 
   -0.37572E+08         0.10250E+07         0.00000E+00
    0.10250E+07        -0.60879E+08         0.00000E+00
    0.00000E+00         0.00000E+00        -0.38304E+08
 
   -0.37686E+08         0.16013E+07         0.00000E+00
    0.16013E+07        -0.60898E+08         0.00000E+00
    0.00000E+00         0.00000E+00        -0.38324E+08
 
   -0.37836E+08         0.22467E+07         0.00000E+00
    0.22467E+07        -0.60884E+08         0.00000E+00
    0.00000E+00         0.00000E+00        -0.38347E+08
 
   -0.38032E+08         0.29577E+07         0.00000E+00
    0.29577E+07        -0.60834E+08         0.00000E+00
    0.00000E+00         0.00000E+00        -0.38373E+08
 
   -0.38280E+08         0.37301E+07         0.00000E+00
    0.37301E+07        -0.60742E+08         0.00000E+00
    0.00000E+00         0.00000E+00        -0.38402E+08
 
   -0.36212E+08        -0.21112E+06         0.00000E+00
   -0.21112E+06        -0.60012E+08         0.00000E+00
    0.00000E+00         0.00000E+00        -0.37197E+08
 
   -0.36561E+08        -0.55023E+06         0.00000E+00
   -0.55023E+06        -0.60058E+08         0.00000E+00
    0.00000E+00         0.00000E+00        -0.37274E+08
 
   -0.36795E+08        -0.77790E+06         0.00000E+00
   -0.77790E+06        -0.60139E+08         0.00000E+00
    0.00000E+00         0.00000E+00        -0.37332E+08
 
   -0.36940E+08        -0.89617E+06         0.00000E+00
   -0.89617E+06        -0.60243E+08         0.00000E+00
    0.00000E+00         0.00000E+00        -0.37376E+08
 
   -0.37017E+08        -0.90862E+06         0.00000E+00
   -0.90862E+06        -0.60360E+08         0.00000E+00
    0.00000E+00         0.00000E+00        -0.37408E+08
 
   -0.37048E+08        -0.81972E+06         0.00000E+00
   -0.81972E+06        -0.60481E+08         0.00000E+00
    0.00000E+00         0.00000E+00        -0.37432E+08
 
   -0.37048E+08        -0.63432E+06         0.00000E+00
   -0.63432E+06        -0.60600E+08         0.00000E+00
    0.00000E+00         0.00000E+00        -0.37449E+08
 
   -0.37033E+08        -0.35714E+06         0.00000E+00
   -0.35714E+06        -0.60711E+08         0.00000E+00
    0.00000E+00         0.00000E+00        -0.37461E+08
 
   -0.37016E+08         0.74397E+04         0.00000E+00
    0.74397E+04        -0.60809E+08         0.00000E+00
    0.00000E+00         0.00000E+00        -0.37471E+08
 
   -0.37007E+08         0.45556E+06         0.00000E+00
    0.45556E+06        -0.60890E+08         0.00000E+00
    0.00000E+00         0.00000E+00        -0.37480E+08
 
   -0.37018E+08         0.98380E+06         0.00000E+00
    0.98380E+06        -0.60951E+08         0.00000E+00
    0.00000E+00         0.00000E+00        -0.37489E+08
 
   -0.37059E+08         0.15890E+07         0.00000E+00
    0.15890E+07        -0.60986E+08         0.00000E+00
    0.00000E+00         0.00000E+00        -0.37500E+08
 
   -0.37140E+08         0.22679E+07         0.00000E+00
    0.22679E+07        -0.60991E+08         0.00000E+00
    0.00000E+00         0.00000E+00        -0.37513E+08
 
   -0.37269E+08         0.30169E+07         0.00000E+00
    0.30169E+07        -0.60962E+08         0.00000E+00
    0.00000E+00         0.00000E+00        -0.37530E+08
 
   -0.37456E+08         0.38317E+07         0.00000E+00
    0.38317E+07        -0.60893E+08         0.00000E+00
    0.00000E+00         0.00000E+00        -0.37553E+08
 
   -0.36632E+08        -0.23745E+06         0.00000E+00
   -0.23745E+06        -0.60012E+08         0.00000E+00
    0.00000E+00         0.00000E+00        -0.36514E+08
 
   -0.36862E+08        -0.61830E+06         0.00000E+00
   -0.61830E+06        -0.60061E+08         0.00000E+00
    0.00000E+00         0.00000E+00        -0.36568E+08
 
   -0.36979E+08        -0.87459E+06         0.00000E+00
   -0.87459E+06        -0.60145E+08         0.00000E+00
    0.00000E+00         0.00000E+00        -0.36605E+08
 
   -0.37011E+08        -0.10103E+07         0.00000E+00
   -0.10103E+07        -0.60252E+08         0.00000E+00
    0.00000E+00         0.00000E+00        -0.36628E+08
 
   -0.36981E+08        -0.10310E+07         0.00000E+00
   -0.10310E+07        -0.60372E+08         0.00000E+00
    0.00000E+00         0.00000E+00        -0.36641E+08
 
   -0.36909E+08        -0.94302E+06         0.00000E+00
   -0.94302E+06        -0.60496E+08         0.00000E+00
    0.00000E+00         0.00000E+00        -0.36647E+08
 
   -0.36813E+08        -0.75263E+06         0.00000E+00
   -0.75263E+06        -0.60618E+08         0.00000E+00
    0.00000E+00         0.00000E+00        -0.36647E+08
 
   -0.36706E+08        -0.46574E+06         0.00000E+00
   -0.46574E+06        -0.60734E+08         0.00000E+00
    0.00000E+00         0.00000E+00        -0.36644E+08
 
   -0.36601E+08        -0.87368E+05         0.00000E+00
   -0.87368E+05        -0.60838E+08         0.00000E+00
    0.00000E+00         0.00000E+00        -0.36639E+08
 
   -0.36509E+08         0.37836E+06         0.00000E+00
    0.37836E+06        -0.60929E+08         0.00000E+00
    0.00000E+00         0.00000E+00        -0.36635E+08
 
   -0.36439E+08         0.92812E+06         0.00000E+00
    0.92812E+06        -0.61001E+08         0.00000E+00
    0.00000E+00         0.00000E+00        -0.36632E+08
 
   -0.36403E+08         0.15591E+07         0.00000E+00
    0.15591E+07        -0.61052E+08         0.00000E+00
    0.00000E+00         0.00000E+00        -0.36631E+08
 
   -0.36409E+08         0.22685E+07         0.00000E+00
    0.22685E+07        -0.61076E+08         0.00000E+00
    0.00000E+00         0.00000E+00        -0.36635E+08
 
   -0.36468E+08         0.30530E+07         0.00000E+00
    0.30530E+07        -0.61070E+08         0.00000E+00
    0.00000E+00         0.00000E+00        -0.36643E+08
 
   -0.36589E+08         0.39083E+07         0.00000E+00
    0.39083E+07        -0.61026E+08         0.00000E+00
    0.00000E+00         0.00000E+00        -0.36657E+08
 
   -0.37101E+08        -0.26491E+06         0.00000E+00
   -0.26491E+06        -0.60013E+08         0.00000E+00
    0.00000E+00         0.00000E+00        -0.35808E+08
 
   -0.37198E+08        -0.68866E+06         0.00000E+00
   -0.68866E+06        -0.60063E+08         0.00000E+00
    0.00000E+00         0.00000E+00        -0.35836E+08
 
   -0.37186E+08        -0.97365E+06         0.00000E+00
   -0.97365E+06        -0.60148E+08         0.00000E+00
    0.00000E+00         0.00000E+00        -0.35848E+08
 
   -0.37094E+08        -0.11263E+07         0.00000E+00
   -0.11263E+07        -0.60256E+08         0.00000E+00
    0.00000E+00         0.00000E+00        -0.35849E+08
 
   -0.36948E+08        -0.11548E+07         0.00000E+00
   -0.11548E+07        -0.60376E+08         0.00000E+00
    0.00000E+00         0.00000E+00        -0.35841E+08
 
   -0.36768E+08        -0.10676E+07         0.00000E+00
   -0.10676E+07        -0.60499E+08         0.00000E+00
    0.00000E+00         0.00000E+00        -0.35826E+08
 
   -0.36570E+08        -0.87285E+06         0.00000E+00
   -0.87285E+06        -0.60621E+08         0.00000E+00
    0.00000E+00         0.00000E+00        -0.35808E+08
 
   -0.36368E+08        -0.57784E+06         0.00000E+00
   -0.57784E+06        -0.60737E+08         0.00000E+00
    0.00000E+00         0.00000E+00        -0.35788E+08
 
   -0.36172E+08        -0.18824E+06         0.00000E+00
   -0.18824E+06        -0.60844E+08         0.00000E+00
    0.00000E+00         0.00000E+00        -0.35768E+08
 
   -0.35993E+08         0.29171E+06         0.00000E+00
    0.29171E+06        -0.60941E+08         0.00000E+00
    0.00000E+00         0.00000E+00        -0.35749E+08
 
   -0.35839E+08         0.85908E+06         0.00000E+00
    0.85908E+06        -0.61024E+08         0.00000E+00
    0.00000E+00         0.00000E+00        -0.35733E+08
 
   -0.35720E+08         0.15118E+07         0.00000E+00
    0.15118E+07        -0.61090E+08         0.00000E+00
    0.00000E+00         0.00000E+00        -0.35721E+08
 
   -0.35647E+08         0.22478E+07         0.00000E+00
    0.22478E+07        -0.61134E+08         0.00000E+00
    0.00000E+00         0.00000E+00        -0.35713E+08
 
   -0.35629E+08         0.30646E+07         0.00000E+00
    0.30646E+07        -0.61151E+08         0.00000E+00
    0.00000E+00         0.00000E+00        -0.35712E+08
 
   -0.35679E+08         0.39582E+07         0.00000E+00
    0.39582E+07        -0.61134E+08         0.00000E+00
    0.00000E+00         0.00000E+00        -0.35718E+08
 
   -0.37622E+08        -0.29311E+06         0.00000E+00
   -0.29311E+06        -0.60013E+08         0.00000E+00
    0.00000E+00         0.00000E+00        -0.35082E+08
 
   -0.37569E+08        -0.76001E+06         0.00000E+00
   -0.76001E+06        -0.60063E+08         0.00000E+00
    0.00000E+00         0.00000E+00        -0.35081E+08
 
   -0.37414E+08        -0.10727E+07         0.00000E+00
   -0.10727E+07        -0.60148E+08         0.00000E+00
    0.00000E+00         0.00000E+00        -0.35066E+08
 
   -0.37189E+08        -0.12409E+07         0.00000E+00
   -0.12409E+07        -0.60254E+08         0.00000E+00
    0.00000E+00         0.00000E+00        -0.35041E+08
 
   -0.36919E+08        -0.12758E+07         0.00000E+00
   -0.12758E+07        -0.60369E+08         0.00000E+00
    0.00000E+00         0.00000E+00        -0.35009E+08
 
   -0.36625E+08        -0.11888E+07         0.00000E+00
   -0.11888E+07        -0.60487E+08         0.00000E+00
    0.00000E+00         0.00000E+00        -0.34973E+08
 
   -0.36322E+08        -0.99030E+06         0.00000E+00
   -0.99030E+06        -0.60603E+08         0.00000E+00
    0.00000E+00         0.00000E+00        -0.34935E+08
 
   -0.36021E+08        -0.68908E+06         0.00000E+00
   -0.68908E+06        -0.60714E+08         0.00000E+00
    0.00000E+00         0.00000E+00        -0.34897E+08
 
   -0.35732E+08        -0.29151E+06         0.00000E+00
   -0.29151E+06        -0.60820E+08         0.00000E+00
    0.00000E+00         0.00000E+00        -0.34860E+08
 
   -0.35463E+08         0.19830E+06         0.00000E+00
    0.19830E+06        -0.60919E+08         0.00000E+00
    0.00000E+00         0.00000E+00        -0.34826E+08
 
   -0.35221E+08         0.77814E+06         0.00000E+00
    0.77814E+06        -0.61010E+08         0.00000E+00
    0.00000E+00         0.00000E+00        -0.34795E+08
 
   -0.35016E+08         0.14471E+07         0.00000E+00
    0.14471E+07        -0.61090E+08         0.00000E+00
    0.00000E+00         0.00000E+00        -0.34770E+08
 
   -0.34857E+08         0.22048E+07         0.00000E+00
    0.22048E+07        -0.61154E+08         0.00000E+00
    0.00000E+00         0.00000E+00        -0.34750E+08
 
   -0.34757E+08         0.30497E+07         0.00000E+00
    0.30497E+07        -0.61196E+08         0.00000E+00
    0.00000E+00         0.00000E+00        -0.34739E+08
 
   -0.34730E+08         0.39788E+07         0.00000E+00
    0.39788E+07        -0.61208E+08         0.00000E+00
    0.00000E+00         0.00000E+00        -0.34735E+08
 
   -0.38194E+08        -0.32156E+06         0.00000E+00
   -0.32156E+06        -0.60013E+08         0.00000E+00
    0.00000E+00         0.00000E+00        -0.34340E+08
 
   -0.37975E+08        -0.83067E+06         0.00000E+00
   -0.83067E+06        -0.60063E+08         0.00000E+00
    0.00000E+00         0.00000E+00        -0.34306E+08
 
   -0.37663E+08        -0.11688E+07         0.00000E+00
   -0.11688E+07        -0.60144E+08         0.00000E+00
    0.00000E+00         0.00000E+00        -0.34260E+08
 
   -0.37293E+08        -0.13497E+07         0.00000E+00
   -0.13497E+07        -0.60243E+08         0.00000E+00
    0.00000E+00         0.00000E+00        -0.34207E+08
 
   -0.36892E+08        -0.13886E+07         0.00000E+00
   -0.13886E+07        -0.60349E+08         0.00000E+00
    0.00000E+00         0.00000E+00        -0.34149E+08
 
   -0.36480E+08        -0.13006E+07         0.00000E+00
   -0.13006E+07        -0.60454E+08         0.00000E+00
    0.00000E+00         0.00000E+00        -0.34089E+08
 
   -0.36069E+08        -0.10989E+07         0.00000E+00
   -0.10989E+07        -0.60557E+08         0.00000E+00
    0.00000E+00         0.00000E+00        -0.34029E+08
 
   -0.35669E+08        -0.79385E+06         0.00000E+00
   -0.79385E+06        -0.60657E+08         0.00000E+00
    0.00000E+00         0.00000E+00        -0.33971E+08
 
   -0.35286E+08        -0.39245E+06         0.00000E+00
   -0.39245E+06        -0.60756E+08         0.00000E+00
    0.00000E+00         0.00000E+00        -0.33916E+08
 
   -0.34925E+08         0.10156E+06         0.00000E+00
    0.10156E+06        -0.60853E+08         0.00000E+00
    0.00000E+00         0.00000E+00        -0.33865E+08
 
   -0.34593E+08         0.68722E+06         0.00000E+00
    0.68722E+06        -0.60949E+08         0.00000E+00
    0.00000E+00         0.00000E+00        -0.33819E+08
 
   -0.34296E+08         0.13655E+07         0.00000E+00
    0.13655E+07        -0.61042E+08         0.00000E+00
    0.00000E+00         0.00000E+00        -0.33780E+08
 
   -0.34046E+08         0.21381E+07         0.00000E+00
    0.21381E+07        -0.61126E+08         0.00000E+00
    0.00000E+00         0.00000E+00        -0.33748E+08
 
   -0.33856E+08         0.30058E+07         0.00000E+00
    0.30058E+07        -0.61196E+08         0.00000E+00
    0.00000E+00         0.00000E+00        -0.33724E+08
 
   -0.33742E+08         0.39670E+07         0.00000E+00
    0.39670E+07        -0.61241E+08         0.00000E+00
    0.00000E+00         0.00000E+00        -0.33711E+08
 
   -0.38818E+08        -0.34968E+06         0.00000E+00
   -0.34968E+06        -0.60013E+08         0.00000E+00
    0.00000E+00         0.00000E+00        -0.33584E+08
 
   -0.38412E+08        -0.89852E+06         0.00000E+00
   -0.89852E+06        -0.60060E+08         0.00000E+00
    0.00000E+00         0.00000E+00        -0.33513E+08
 
   -0.37928E+08        -0.12580E+07         0.00000E+00
   -0.12580E+07        -0.60135E+08         0.00000E+00
    0.00000E+00         0.00000E+00        -0.33434E+08
 
   -0.37403E+08        -0.14471E+07         0.00000E+00
   -0.14471E+07        -0.60222E+08         0.00000E+00
    0.00000E+00         0.00000E+00        -0.33349E+08
 
   -0.36865E+08        -0.14864E+07         0.00000E+00
   -0.14864E+07        -0.60310E+08         0.00000E+00
    0.00000E+00         0.00000E+00        -0.33262E+08
 
   -0.36332E+08        -0.13956E+07         0.00000E+00
   -0.13956E+07        -0.60395E+08         0.00000E+00
    0.00000E+00         0.00000E+00        -0.33176E+08
 
   -0.35814E+08        -0.11911E+07         0.00000E+00
   -0.11911E+07        -0.60477E+08         0.00000E+00
    0.00000E+00         0.00000E+00        -0.33093E+08
 
   -0.35315E+08        -0.88516E+06         0.00000E+00
   -0.88516E+06        -0.60558E+08         0.00000E+00
    0.00000E+00         0.00000E+00        -0.33014E+08
 
   -0.34839E+08        -0.48521E+06         0.00000E+00
   -0.48521E+06        -0.60642E+08         0.00000E+00
    0.00000E+00         0.00000E+00        -0.32939E+08
 
   -0.34387E+08         0.57685E+04         0.00000E+00
    0.57685E+04        -0.60731E+08         0.00000E+00
    0.00000E+00         0.00000E+00        -0.32870E+08
 
   -0.33962E+08         0.58867E+06         0.00000E+00
    0.58867E+06        -0.60829E+08         0.00000E+00
    0.00000E+00         0.00000E+00        -0.32808E+08
 
   -0.33569E+08         0.12672E+07         0.00000E+00
    0.12672E+07        -0.60933E+08         0.00000E+00
    0.00000E+00         0.00000E+00        -0.32753E+08
 
   -0.33220E+08         0.20461E+07         0.00000E+00
    0.20461E+07        -0.61039E+08         0.00000E+00
    0.00000E+00         0.00000E+00        -0.32707E+08
 
   -0.32930E+08         0.29297E+07         0.00000E+00
    0.29297E+07        -0.61139E+08         0.00000E+00
    0.00000E+00         0.00000E+00        -0.32670E+08
 
   -0.32719E+08         0.39187E+07         0.00000E+00
    0.39187E+07        -0.61221E+08         0.00000E+00
    0.00000E+00         0.00000E+00        -0.32645E+08
 
   -0.39492E+08        -0.37679E+06         0.00000E+00
   -0.37679E+06        -0.60012E+08         0.00000E+00
    0.00000E+00         0.00000E+00        -0.32819E+08
 
   -0.38876E+08        -0.96086E+06         0.00000E+00
   -0.96086E+06        -0.60055E+08         0.00000E+00
    0.00000E+00         0.00000E+00        -0.32706E+08
 
   -0.38203E+08        -0.13351E+07         0.00000E+00
   -0.13351E+07        -0.60119E+08         0.00000E+00
    0.00000E+00         0.00000E+00        -0.32588E+08
 
   -0.37514E+08        -0.15256E+07         0.00000E+00
   -0.15256E+07        -0.60187E+08         0.00000E+00
    0.00000E+00         0.00000E+00        -0.32468E+08
 
   -0.36835E+08        -0.15602E+07         0.00000E+00
   -0.15602E+07        -0.60248E+08         0.00000E+00
    0.00000E+00         0.00000E+00        -0.32350E+08
 
   -0.36181E+08        -0.14641E+07         0.00000E+00
   -0.14641E+07        -0.60303E+08         0.00000E+00
    0.00000E+00         0.00000E+00        -0.32236E+08
 
   -0.35557E+08        -0.12575E+07         0.00000E+00
   -0.12575E+07        -0.60353E+08         0.00000E+00
    0.00000E+00         0.00000E+00        -0.32128E+08
 
   -0.34964E+08        -0.95458E+06         0.00000E+00
   -0.95458E+06        -0.60405E+08         0.00000E+00
    0.00000E+00         0.00000E+00        -0.32026E+08
 
   -0.34398E+08        -0.56279E+06         0.00000E+00
   -0.56279E+06        -0.60466E+08         0.00000E+00
    0.00000E+00         0.00000E+00        -0.31931E+08
 
   -0.33857E+08        -0.83935E+05         0.00000E+00
   -0.83935E+05        -0.60541E+08         0.00000E+00
    0.00000E+00         0.00000E+00        -0.31843E+08
 
   -0.33338E+08         0.48532E+06         0.00000E+00
    0.48532E+06        -0.60636E+08         0.00000E+00
    0.00000E+00         0.00000E+00        -0.31763E+08
 
   -0.32845E+08         0.11523E+07         0.00000E+00
    0.11523E+07        -0.60750E+08         0.00000E+00
    0.00000E+00         0.00000E+00        -0.31692E+08
 
   -0.32389E+08         0.19264E+07         0.00000E+00
    0.19264E+07        -0.60879E+08         0.00000E+00
    0.00000E+00         0.00000E+00        -0.31630E+08
 
   -0.31986E+08         0.28165E+07         0.00000E+00
    0.28165E+07        -0.61014E+08         0.00000E+00
    0.00000E+00         0.00000E+00        -0.31578E+08
 
   -0.31663E+08         0.38278E+07         0.00000E+00
    0.38278E+07        -0.61139E+08         0.00000E+00
    0.00000E+00         0.00000E+00        -0.31540E+08
 
   -0.40210E+08        -0.40205E+06         0.00000E+00
   -0.40205E+06        -0.60011E+08         0.00000E+00
    0.00000E+00         0.00000E+00        -0.32046E+08
 
   -0.39360E+08        -0.10141E+07         0.00000E+00
   -0.10141E+07        -0.60047E+08         0.00000E+00
    0.00000E+00         0.00000E+00        -0.31886E+08
 
   -0.38481E+08        -0.13932E+07         0.00000E+00
   -0.13932E+07        -0.60094E+08         0.00000E+00
    0.00000E+00         0.00000E+00        -0.31725E+08
 
   -0.37618E+08        -0.15756E+07         0.00000E+00
   -0.15756E+07        -0.60133E+08         0.00000E+00
    0.00000E+00         0.00000E+00        -0.31566E+08
 
   -0.36796E+08        -0.15986E+07         0.00000E+00
   -0.15986E+07        -0.60156E+08         0.00000E+00
    0.00000E+00         0.00000E+00        -0.31414E+08
 
   -0.36025E+08        -0.14945E+07         0.00000E+00
   -0.14945E+07        -0.60167E+08         0.00000E+00
    0.00000E+00         0.00000E+00        -0.31270E+08
 
   -0.35303E+08        -0.12873E+07         0.00000E+00
   -0.12873E+07        -0.60173E+08         0.00000E+00
    0.00000E+00         0.00000E+00        -0.31135E+08
 
   -0.34622E+08        -0.99243E+06         0.00000E+00
   -0.99243E+06        -0.60185E+08         0.00000E+00
    0.00000E+00         0.00000E+00        -0.31010E+08
 
   -0.33973E+08        -0.61716E+06         0.00000E+00
   -0.61716E+06        -0.60214E+08         0.00000E+00
    0.00000E+00         0.00000E+00        -0.30893E+08
 
   -0.33346E+08        -0.16160E+06         0.00000E+00
   -0.16160E+06        -0.60268E+08         0.00000E+00
    0.00000E+00         0.00000E+00        -0.30786E+08
 
   -0.32734E+08         0.38058E+06         0.00000E+00
    0.38058E+06        -0.60355E+08         0.00000E+00
    0.00000E+00         0.00000E+00        -0.30687E+08
 
   -0.32137E+08         0.10212E+07         0.00000E+00
    0.10212E+07        -0.60476E+08         0.00000E+00
    0.00000E+00         0.00000E+00        -0.30598E+08
 
   -0.31564E+08         0.17757E+07         0.00000E+00
    0.17757E+07        -0.60630E+08         0.00000E+00
    0.00000E+00         0.00000E+00        -0.30518E+08
 
   -0.31034E+08         0.26602E+07         0.00000E+00
    0.26602E+07        -0.60805E+08         0.00000E+00
    0.00000E+00         0.00000E+00        -0.30450E+08
 
   -0.30578E+08         0.36863E+07         0.00000E+00
    0.36863E+07        -0.60982E+08         0.00000E+00
    0.00000E+00         0.00000E+00        -0.30396E+08
 
   -0.40968E+08        -0.42446E+06         0.00000E+00
   -0.42446E+06        -0.60009E+08         0.00000E+00
    0.00000E+00         0.00000E+00        -0.31271E+08
 
   -0.39853E+08        -0.10534E+07         0.00000E+00
   -0.10534E+07        -0.60036E+08         0.00000E+00
    0.00000E+00         0.00000E+00        -0.31056E+08
 
   -0.38749E+08        -0.14227E+07         0.00000E+00
   -0.14227E+07        -0.60056E+08         0.00000E+00
    0.00000E+00         0.00000E+00        -0.30846E+08
 
   -0.37706E+08        -0.15840E+07         0.00000E+00
   -0.15840E+07        -0.60052E+08         0.00000E+00
    0.00000E+00         0.00000E+00        -0.30644E+08
 
   -0.36744E+08        -0.15876E+07         0.00000E+00
   -0.15876E+07        -0.60021E+08         0.00000E+00
    0.00000E+00         0.00000E+00        -0.30455E+08
 
   -0.35864E+08        -0.14733E+07         0.00000E+00
   -0.14733E+07        -0.59974E+08         0.00000E+00
    0.00000E+00         0.00000E+00        -0.30279E+08
 
   -0.35054E+08        -0.12683E+07         0.00000E+00
   -0.12683E+07        -0.59923E+08         0.00000E+00
    0.00000E+00         0.00000E+00        -0.30117E+08
 
   -0.34297E+08        -0.98840E+06         0.00000E+00
   -0.98840E+06        -0.59884E+08         0.00000E+00
    0.00000E+00         0.00000E+00        -0.29967E+08
 
   -0.33573E+08        -0.63976E+06         0.00000E+00
   -0.63976E+06        -0.59871E+08         0.00000E+00
    0.00000E+00         0.00000E+00        -0.29829E+08
 
   -0.32868E+08        -0.22059E+06         0.00000E+00
   -0.22059E+06        -0.59896E+08         0.00000E+00
    0.00000E+00         0.00000E+00        -0.29701E+08
 
   -0.32166E+08         0.27850E+06         0.00000E+00
    0.27850E+06        -0.59969E+08         0.00000E+00
    0.00000E+00         0.00000E+00        -0.29583E+08
 
   -0.31463E+08         0.87429E+06         0.00000E+00
    0.87429E+06        -0.60096E+08         0.00000E+00
    0.00000E+00         0.00000E+00        -0.29474E+08
 
   -0.30762E+08         0.15901E+07         0.00000E+00
    0.15901E+07        -0.60276E+08         0.00000E+00
    0.00000E+00         0.00000E+00        -0.29375E+08
 
   -0.30084E+08         0.24522E+07         0.00000E+00
    0.24522E+07        -0.60498E+08         0.00000E+00
    0.00000E+00         0.00000E+00        -0.29288E+08
 
   -0.29468E+08         0.34829E+07         0.00000E+00
    0.34829E+07        -0.60737E+08         0.00000E+00
    0.00000E+00         0.00000E+00        -0.29215E+08
 
   -0.41755E+08        -0.44265E+06         0.00000E+00
   -0.44265E+06        -0.60007E+08         0.00000E+00
    0.00000E+00         0.00000E+00        -0.30494E+08
 
   -0.40337E+08        -0.10710E+07         0.00000E+00
   -0.10710E+07        -0.60018E+08         0.00000E+00
    0.00000E+00         0.00000E+00        -0.30217E+08
 
   -0.38990E+08        -0.14091E+07         0.00000E+00
   -0.14091E+07        -0.59998E+08         0.00000E+00
    0.00000E+00         0.00000E+00        -0.29951E+08
 
   -0.37766E+08        -0.15331E+07         0.00000E+00
   -0.15331E+07        -0.59932E+08         0.00000E+00
    0.00000E+00         0.00000E+00        -0.29702E+08
 
   -0.36675E+08        -0.15098E+07         0.00000E+00
   -0.15098E+07        -0.59827E+08         0.00000E+00
    0.00000E+00         0.00000E+00        -0.29473E+08
 
   -0.35701E+08        -0.13856E+07         0.00000E+00
   -0.13856E+07        -0.59704E+08         0.00000E+00
    0.00000E+00         0.00000E+00        -0.29264E+08
 
   -0.34818E+08        -0.11886E+07         0.00000E+00
   -0.11886E+07        -0.59584E+08         0.00000E+00
    0.00000E+00         0.00000E+00        -0.29074E+08
 
   -0.33998E+08        -0.93273E+06         0.00000E+00
   -0.93273E+06        -0.59484E+08         0.00000E+00
    0.00000E+00         0.00000E+00        -0.28900E+08
 
   -0.33212E+08        -0.62242E+06         0.00000E+00
   -0.62242E+06        -0.59422E+08         0.00000E+00
    0.00000E+00         0.00000E+00        -0.28740E+08
 
   -0.32438E+08        -0.25401E+06         0.00000E+00
   -0.25401E+06        -0.59410E+08         0.00000E+00
    0.00000E+00         0.00000E+00        -0.28592E+08
 
   -0.31653E+08         0.18416E+06         0.00000E+00
    0.18416E+06        -0.59463E+08         0.00000E+00
    0.00000E+00         0.00000E+00        -0.28454E+08
 
   -0.30843E+08         0.71325E+06         0.00000E+00
    0.71325E+06        -0.59591E+08         0.00000E+00
    0.00000E+00         0.00000E+00        -0.28325E+08
 
   -0.30004E+08         0.13654E+07         0.00000E+00
    0.13654E+07        -0.59797E+08         0.00000E+00
    0.00000E+00         0.00000E+00        -0.28204E+08
 
   -0.29154E+08         0.21815E+07         0.00000E+00
    0.21815E+07        -0.60074E+08         0.00000E+00
    0.00000E+00         0.00000E+00        -0.28094E+08
 
   -0.28342E+08         0.32019E+07         0.00000E+00
    0.32019E+07        -0.60393E+08         0.00000E+00
    0.00000E+00         0.00000E+00        -0.27997E+08
 
   -0.42556E+08        -0.45443E+06         0.00000E+00
   -0.45443E+06        -0.60004E+08         0.00000E+00
    0.00000E+00         0.00000E+00        -0.29718E+08
 
   -0.40787E+08        -0.10535E+07         0.00000E+00
   -0.10535E+07        -0.59988E+08         0.00000E+00
    0.00000E+00         0.00000E+00        -0.29366E+08
 
   -0.39181E+08        -0.13297E+07         0.00000E+00
   -0.13297E+07        -0.59903E+08         0.00000E+00
    0.00000E+00         0.00000E+00        -0.29036E+08
 
   -0.37787E+08        -0.13990E+07         0.00000E+00
   -0.13990E+07        -0.59747E+08         0.00000E+00
    0.00000E+00         0.00000E+00        -0.28735E+08
 
   -0.36588E+08        -0.13458E+07         0.00000E+00
   -0.13458E+07        -0.59545E+08         0.00000E+00
    0.00000E+00         0.00000E+00        -0.28466E+08
 
   -0.35542E+08        -0.12178E+07         0.00000E+00
   -0.12178E+07        -0.59332E+08         0.00000E+00
    0.00000E+00         0.00000E+00        -0.28225E+08
 
   -0.34604E+08        -0.10386E+07         0.00000E+00
   -0.10386E+07        -0.59132E+08         0.00000E+00
    0.00000E+00         0.00000E+00        -0.28008E+08
 
   -0.33736E+08        -0.81831E+06         0.00000E+00
   -0.81831E+06        -0.58966E+08         0.00000E+00
    0.00000E+00         0.00000E+00        -0.27811E+08
 
   -0.32903E+08        -0.55890E+06         0.00000E+00
   -0.55890E+06        -0.58849E+08         0.00000E+00
    0.00000E+00         0.00000E+00        -0.27630E+08
 
   -0.32072E+08        -0.25558E+06         0.00000E+00
   -0.25558E+06        -0.58796E+08         0.00000E+00
    0.00000E+00         0.00000E+00        -0.27463E+08
 
   -0.31215E+08         0.10386E+06         0.00000E+00
    0.10386E+06        -0.58823E+08         0.00000E+00
    0.00000E+00         0.00000E+00        -0.27305E+08
 
   -0.30303E+08         0.54211E+06         0.00000E+00
    0.54211E+06        -0.58945E+08         0.00000E+00
    0.00000E+00         0.00000E+00        -0.27154E+08
 
   -0.29319E+08         0.10988E+07         0.00000E+00
    0.10988E+07        -0.59175E+08         0.00000E+00
    0.00000E+00         0.00000E+00        -0.27009E+08
 
   -0.28269E+08         0.18345E+07         0.00000E+00
    0.18345E+07        -0.59515E+08         0.00000E+00
    0.00000E+00         0.00000E+00        -0.26871E+08
 
   -0.27209E+08         0.28202E+07         0.00000E+00
    0.28202E+07        -0.59935E+08         0.00000E+00
    0.00000E+00         0.00000E+00        -0.26746E+08
 
   -0.43345E+08        -0.45482E+06         0.00000E+00
   -0.45482E+06        -0.59997E+08         0.00000E+00
    0.00000E+00         0.00000E+00        -0.28943E+08
 
   -0.41160E+08        -0.97333E+06         0.00000E+00
   -0.97333E+06        -0.59929E+08         0.00000E+00
    0.00000E+00         0.00000E+00        -0.28498E+08
 
   -0.39298E+08        -0.11470E+07         0.00000E+00
   -0.11470E+07        -0.59735E+08         0.00000E+00
    0.00000E+00         0.00000E+00        -0.28094E+08
 
   -0.37766E+08        -0.11526E+07         0.00000E+00
   -0.11526E+07        -0.59450E+08         0.00000E+00
    0.00000E+00         0.00000E+00        -0.27740E+08
 
   -0.36491E+08        -0.10792E+07         0.00000E+00
   -0.10792E+07        -0.59132E+08         0.00000E+00
    0.00000E+00         0.00000E+00        -0.27431E+08
 
   -0.35397E+08        -0.96178E+06         0.00000E+00
   -0.96178E+06        -0.58821E+08         0.00000E+00
    0.00000E+00         0.00000E+00        -0.27159E+08
 
   -0.34424E+08        -0.81477E+06         0.00000E+00
   -0.81477E+06        -0.58541E+08         0.00000E+00
    0.00000E+00         0.00000E+00        -0.26918E+08
 
   -0.33524E+08        -0.64329E+06         0.00000E+00
   -0.64329E+06        -0.58309E+08         0.00000E+00
    0.00000E+00         0.00000E+00        -0.26701E+08
 
   -0.32657E+08        -0.44707E+06         0.00000E+00
   -0.44707E+06        -0.58139E+08         0.00000E+00
    0.00000E+00         0.00000E+00        -0.26502E+08
 
   -0.31785E+08        -0.22129E+06         0.00000E+00
   -0.22129E+06        -0.58045E+08         0.00000E+00
    0.00000E+00         0.00000E+00        -0.26316E+08
 
   -0.30871E+08         0.44463E+05         0.00000E+00
    0.44463E+05        -0.58042E+08         0.00000E+00
    0.00000E+00         0.00000E+00        -0.26140E+08
 
   -0.29873E+08         0.36994E+06         0.00000E+00
    0.36994E+06        -0.58149E+08         0.00000E+00
    0.00000E+00         0.00000E+00        -0.25968E+08
 
   -0.28749E+08         0.79348E+06         0.00000E+00
    0.79348E+06        -0.58391E+08         0.00000E+00
    0.00000E+00         0.00000E+00        -0.25797E+08
 
   -0.27472E+08         0.13959E+07         0.00000E+00
    0.13959E+07        -0.58796E+08         0.00000E+00
    0.00000E+00         0.00000E+00        -0.25627E+08
 
   -0.26088E+08         0.23033E+07         0.00000E+00
    0.23033E+07        -0.59345E+08         0.00000E+00
    0.00000E+00         0.00000E+00        -0.25462E+08
 
   -0.44066E+08        -0.42665E+06         0.00000E+00
   -0.42665E+06        -0.59976E+08         0.00000E+00
    0.00000E+00         0.00000E+00        -0.28161E+08
 
   -0.41395E+08        -0.76457E+06         0.00000E+00
   -0.76457E+06        -0.59783E+08         0.00000E+00
    0.00000E+00         0.00000E+00        -0.27593E+08
 
   -0.39327E+08        -0.80853E+06         0.00000E+00
   -0.80853E+06        -0.59401E+08         0.00000E+00
    0.00000E+00         0.00000E+00        -0.27109E+08
 
   -0.37717E+08        -0.77338E+06         0.00000E+00
   -0.77338E+06        -0.58963E+08         0.00000E+00
    0.00000E+00         0.00000E+00        -0.26707E+08
 
   -0.36402E+08        -0.70616E+06         0.00000E+00
   -0.70616E+06        -0.58530E+08         0.00000E+00
    0.00000E+00         0.00000E+00        -0.26364E+08
 
   -0.35283E+08        -0.62107E+06         0.00000E+00
   -0.62107E+06        -0.58131E+08         0.00000E+00
    0.00000E+00         0.00000E+00        -0.26068E+08
 
   -0.34292E+08        -0.52314E+06         0.00000E+00
   -0.52314E+06        -0.57783E+08         0.00000E+00
    0.00000E+00         0.00000E+00        -0.25806E+08
 
   -0.33374E+08        -0.41352E+06         0.00000E+00
   -0.41352E+06        -0.57497E+08         0.00000E+00
    0.00000E+00         0.00000E+00        -0.25572E+08
 
   -0.32487E+08        -0.29094E+06         0.00000E+00
   -0.29094E+06        -0.57283E+08         0.00000E+00
    0.00000E+00         0.00000E+00        -0.25358E+08
 
   -0.31588E+08        -0.15187E+06         0.00000E+00
   -0.15187E+06        -0.57153E+08         0.00000E+00
    0.00000E+00         0.00000E+00        -0.25158E+08
 
   -0.30635E+08         0.10490E+05         0.00000E+00
    0.10490E+05        -0.57121E+08         0.00000E+00
    0.00000E+00         0.00000E+00        -0.24966E+08
 
   -0.29577E+08         0.20896E+06         0.00000E+00
    0.20896E+06        -0.57207E+08         0.00000E+00
    0.00000E+00         0.00000E+00        -0.24776E+08
 
   -0.28345E+08         0.46981E+06         0.00000E+00
    0.46981E+06        -0.57442E+08         0.00000E+00
    0.00000E+00         0.00000E+00        -0.24581E+08
 
   -0.26835E+08         0.85890E+06         0.00000E+00
    0.85890E+06        -0.57882E+08         0.00000E+00
    0.00000E+00         0.00000E+00        -0.24370E+08
 
   -0.25020E+08         0.15926E+07         0.00000E+00
    0.15926E+07        -0.58601E+08         0.00000E+00
    0.00000E+00         0.00000E+00        -0.24153E+08
 
   -0.44574E+08        -0.25949E+06         0.00000E+00
   -0.25949E+06        -0.59810E+08         0.00000E+00
    0.00000E+00         0.00000E+00        -0.27325E+08
 
   -0.41446E+08        -0.31147E+06         0.00000E+00
   -0.31147E+06        -0.59317E+08         0.00000E+00
    0.00000E+00         0.00000E+00        -0.26602E+08
 
   -0.39313E+08        -0.29715E+06         0.00000E+00
   -0.29715E+06        -0.58746E+08         0.00000E+00
    0.00000E+00         0.00000E+00        -0.26064E+08
 
   -0.37677E+08        -0.27506E+06         0.00000E+00
   -0.27506E+06        -0.58191E+08         0.00000E+00
    0.00000E+00         0.00000E+00        -0.25628E+08
 
   -0.36348E+08        -0.24732E+06         0.00000E+00
   -0.24732E+06        -0.57680E+08         0.00000E+00
    0.00000E+00         0.00000E+00        -0.25263E+08
 
   -0.35221E+08        -0.21590E+06         0.00000E+00
   -0.21590E+06        -0.57225E+08         0.00000E+00
    0.00000E+00         0.00000E+00        -0.24949E+08
 
   -0.34221E+08        -0.18132E+06         0.00000E+00
   -0.18132E+06        -0.56834E+08         0.00000E+00
    0.00000E+00         0.00000E+00        -0.24674E+08
 
   -0.33296E+08        -0.14348E+06         0.00000E+00
   -0.14348E+06        -0.56514E+08         0.00000E+00
    0.00000E+00         0.00000E+00        -0.24427E+08
 
   -0.32399E+08        -0.10173E+06         0.00000E+00
   -0.10173E+06        -0.56273E+08         0.00000E+00
    0.00000E+00         0.00000E+00        -0.24202E+08
 
   -0.31488E+08        -0.54747E+05         0.00000E+00
   -0.54747E+05        -0.56120E+08         0.00000E+00
    0.00000E+00         0.00000E+00        -0.23991E+08
 
   -0.30516E+08        -0.22027E+03         0.00000E+00
   -0.22027E+03        -0.56068E+08         0.00000E+00
    0.00000E+00         0.00000E+00        -0.23788E+08
 
   -0.29427E+08         0.66124E+05         0.00000E+00
    0.66124E+05        -0.56136E+08         0.00000E+00
    0.00000E+00         0.00000E+00        -0.23586E+08
 
   -0.28137E+08         0.15352E+06         0.00000E+00
    0.15352E+06        -0.56357E+08         0.00000E+00
    0.00000E+00         0.00000E+00        -0.23373E+08
 
   -0.26500E+08         0.28279E+06         0.00000E+00
    0.28279E+06        -0.56794E+08         0.00000E+00
    0.00000E+00         0.00000E+00        -0.23135E+08
 
   -0.24104E+08         0.58960E+06         0.00000E+00
    0.58960E+06        -0.57620E+08         0.00000E+00
    0.00000E+00         0.00000E+00        -0.22822E+08
 
SCALARS stressS double 
LOOKUP_TABLE default
  -45701399.0098250     
  -46119971.0396711     
  -46508941.8443862     
  -46870155.0589530     
  -47205505.4789263     
  -47516908.1160109     
  -47806271.9957023     
  -48075478.2290296     
  -48326361.9250986     
  -48560697.5485309     
  -48780187.3658150     
  -48986452.6662070     
  -49181027.4846865     
  -49365354.5945249     
  -49540783.5726634     
  -45688739.2417355     
  -46106096.5371458     
  -46493741.7599253     
  -46853553.8049396     
  -47187458.1134479     
  -47497396.1307253     
  -47785299.4743150     
  -48053068.3443338     
  -48302553.7413777     
  -48535543.0950203     
  -48753748.9464947     
  -48958800.3720827     
  -49152236.8775411     
  -49335504.5364479     
  -49509954.1839311     
  -45663585.2679663     
  -46078482.1804082     
  -46463449.1029855     
  -46820435.1604786     
  -47151426.8198629     
  -47458418.1506923     
  -47743385.7345309     
  -48008267.7530508     
  -48254946.8174250     
  -48485236.1391587     
  -48700868.6844134     
  -48903488.9994546     
  -49094647.4426026     
  -49275796.6057559     
  -49448289.7532056     
  -45626268.1617344     
  -46037397.1595713     
  -46418278.7348070     
  -46770966.6351089     
  -47097538.2024598     
  -47400065.8349462     
  -47680593.0084425     
  -47941114.3836927     
  -48183559.5555421     
  -48409780.0385283     
  -48621539.1268409     
  -48820504.3162028     
  -49008242.0290649     
  -49186214.4402306     
  -49355778.2542818     
  -45577284.3201376     
  -45983244.9093118     
  -46358552.4582176     
  -46705398.8707747     
  -47025981.4182667     
  -47322475.7994592     
  -47597013.6477909     
  -47851664.0031657     
  -48088418.2944655     
  -48309178.4159426     
  -48515747.5266953     
  -48709823.2572534     
  -48892993.0695471     
  -49066731.5836128     
  -49232399.7524235     
  -45517294.9720524     
  -45916562.4508219     
  -46284698.1995240     
  -46624064.6750486     
  -46937007.0727545     
  -47225828.3819248     
  -47492768.7571743     
  -47739988.7096508     
  -47969555.6464389     
  -48183433.3222788     
  -48383473.8159916     
  -48571411.7052722     
  -48748860.1867096     
  -48917308.9702327     
  -49078123.8640793     
  -45447125.1203185     
  -45838019.1138337     
  -46197248.5291643     
  -46527377.3640708     
  -46830925.4060630     
  -47110345.6836226     
  -47368006.0911468     
  -47606174.6701624     
  -47827008.0475515     
  -48032542.5640211     
  -48224687.6757958     
  -48405221.2811096     
  -48575786.7100052     
  -48737891.2182317     
  -48892905.9381625     
  -45367761.5608484     
  -45748414.2862349     
  -46096838.1820841     
  -46415828.0967197     
  -46708103.4774760     
  -46976288.6260324     
  -47222896.9839458     
  -47450318.9003895     
  -47660812.3418159     
  -47856496.0289136     
  -48039344.5354107     
  -48211184.9595182     
  -48373694.8825198     
  -48528401.4569846     
  -48676681.6125602     
  -45280349.5176629     
  -45648673.7404268     
  -45984200.1467808     
  -46289981.7976637     
  -46568960.9823872     
  -46823952.6989373     
  -47057632.0336914     
  -47272524.8518545     
  -47471001.1998813     
  -47655270.8334281     
  -47827380.3288828     
  -47989211.3198111     
  -48142479.5235100     
  -48288734.3837588     
  -48429359.3451941     
  -45186187.3231629     
  -45539843.9821431     
  -45860159.7952445     
  -46150471.1791419     
  -46413964.2605071     
  -46653662.0172033     
  -46872415.2221724     
  -47072896.5507381     
  -47257597.1716174     
  -47428825.1296035     
  -47588704.8603683     
  -47739177.2662225     
  -47881999.9295887     
  -48018747.2441293     
  -48150810.4905517     
  -45086718.4599337     
  -45423083.9595746     
  -45725626.4231571     
  -45997988.2768045     
  -46243617.9734799     
  -46465761.2430094     
  -46667456.1162874     
  -46851531.0258534     
  -47020605.1926683     
  -47177090.4533724     
  -47323193.6906929     
  -47460919.1194967     
  -47592069.8579564     
  -47718248.4714579     
  -47840856.5003380     
  -44983520.1695076     
  -45299653.3594287     
  -45581581.4579385     
  -45833272.8084371     
  -46058453.8384829     
  -46260604.8642693     
  -46442959.7657344     
  -46608508.7716345     
  -46760003.4137155     
  -46899962.5805619     
  -47030678.5673386     
  -47154222.1034394     
  -47272445.5534068     
  -47386983.8175853     
  -47499252.8844325     
  -44878287.7337111     
  -45170896.6029620     
  -45429062.4657914     
  -45657096.5360747     
  -45859015.6909829     
  -46038543.2394647     
  -46199113.8788673     
  -46343882.0161780     
  -46475732.3037368     
  -46597290.9915815     
  -46710936.5943250     
  -46818808.4457599     
  -46922811.9763028     
  -47024619.9790625     
  -47125669.6938279     
  -44772813.4584236     
  -45038221.5381964     
  -45269141.9360732     
  -45470242.6439918     
  -45645839.9957749     
  -45799904.7088295     
  -45936072.8161633     
  -46057660.6038884     
  -46167682.1027197     
  -46268867.2461675     
  -46363678.5971912     
  -46454324.6050433     
  -46542767.6863649     
  -46630725.9957658     
  -46719668.5044896     
  -44668959.3546038     
  -44903071.6983355     
  -45102899.6189310     
  -45273478.9055816     
  -45419430.6989717     
  -45544972.9068384     
  -45653937.8745268     
  -45749795.3557120     
  -45835678.8755307     
  -45914412.8557013     
  -45988537.5087408     
  -46060328.5563201     
  -46131809.2694212     
  -46204753.1034385     
  -46280676.2203419     
  -44568622.5361437     
  -44766890.8423131     
  -44931386.8959387     
  -45067523.0461091     
  -45180226.9627197     
  -45273958.1523941     
  -45352733.2251677     
  -45420158.8358946     
  -45479469.6625370     
  -45533567.6413495     
  -45585058.1209432     
  -45636278.6582305     
  -45689316.8032650     
  -45746014.2982295     
  -45807956.5115250     
  -44473692.4538411     
  -44631078.2669018     
  -44755581.1911839     
  -44852998.1218319     
  -44928561.7661366     
  -44986961.3832587     
  -45032376.6856597     
  -45068523.5339782     
  -45098707.5588889     
  -45125880.1235019     
  -45152690.2700184     
  -45181526.4419876     
  -45214542.6992130     
  -45253665.6679555     
  -45300580.4019520     
  -44385999.2586683     
  -44496932.9843998     
  -44576327.6315708     
  -44630374.7713765     
  -44664608.4618178     
  -44683928.4595378     
  -44692644.2220533     
  -44694537.5745959     
  -44692938.0235490     
  -44690802.2630905     
  -44690788.5196521     
  -44695316.7850618     
  -44706607.4008557     
  -44726692.6199521     
  -44757398.4592744     
  -44307252.7920014     
  -44365584.0977289     
  -44394263.7678929     
  -44399895.5905286     
  -44388310.9549969     
  -44364591.6857224     
  -44333126.6671969     
  -44297698.2273588     
  -44261588.3861791     
  -44227691.9554385     
  -44198622.7857909     
  -44176800.4729789     
  -44164506.9741892     
  -44163905.5624639     
  -44177018.2537326     
  -44238971.7967720     
  -44237903.1806648     
  -44209720.6782277     
  -44161474.2044160     
  -44099290.9489498     
  -44028393.9902967     
  -43953176.6261148     
  -43877323.7823336     
  -43803963.4814757     
  -43735828.1755549     
  -43675406.2452269     
  -43625066.2772646     
  -43587139.7441616     
  -43563951.4825203     
  -43557792.2550612     
  -44182402.5963291     
  -44114391.3951845     
  -44022589.2825540     
  -43914557.1490749     
  -43796722.3247172     
  -43674389.3291911     
  -43551843.0630992     
  -43432524.9459232     
  -43319251.7198328     
  -43214445.6995394     
  -43120349.4617981     
  -43039202.6381987     
  -42973362.1089030     
  -42925350.4001866     
  -42897823.1264482     
  -44138424.9462386     
  -43995027.8475806     
  -43832132.4697366     
  -43657929.2642817     
  -43479157.8461262     
  -43301110.8132915     
  -43127791.0829429     
  -42962178.1142758     
  -42806547.7736213     
  -42662798.8964584     
  -42532753.0824555     
  -42418403.2651198     
  -42322088.0416432     
  -42246569.3159875     
  -42194995.4559186     
  -44107438.4352302     
  -43879052.8326096     
  -43636708.2814257     
  -43389431.0513950     
  -43144287.0164314     
  -42906396.9335946     
  -42679206.1212380     
  -42464905.1902429     
  -42264900.2794763     
  -42080266.7121246     
  -41912155.7497650     
  -41762137.0379262     
  -41632453.8893968     
  -41526151.9970147     
  -41447045.5730394     
  -44089211.7352141     
  -43764632.4615784     
  -43433339.6895982     
  -43105536.6494592     
  -42788597.6212741     
  -42487169.5055307     
  -42203687.7953006     
  -41939068.7924980     
  -41693394.2322652     
  -41466512.3761520     
  -41258557.8315724     
  -41070412.2368468     
  -40904082.0612644     
  -40762934.0316926     
  -40651684.7245565     
  -44082650.8519858     
  -43648288.9099793     
  -43217007.7866312     
  -42800710.7020146     
  -42406914.2950327     
  -42039173.7249816     
  -41698154.1229001     
  -41382797.6644585     
  -41091275.7963374     
  -40821705.1148023     
  -40572745.0290770     
  -40344176.7144509     
  -40137503.9167296     
  -39956393.2933190     
  -39806800.2668397     
  -44085364.1257187     
  -43523834.6123444     
  -42979420.0565703     
  -42466427.5284989     
  -41991821.6859778     
  -41556738.7995559     
  -41158809.7053252     
  -40794063.5681786     
  -40458110.7232492     
  -40146795.8810257     
  -39856714.6777991     
  -39585928.9802120     
  -39334837.8883272     
  -39107254.8705750     
  -38910771.5029097     
  -44092713.0496422     
  -43380106.8416963     
  -42706767.7790223     
  -42089755.4991883     
  -41533113.6362266     
  -41032742.4249076     
  -40581264.0448223     
  -40170832.3117571     
  -39793948.7662310     
  -39443750.0969611     
  -39114206.4764450     
  -38800551.0187657     
  -38501025.1085785     
  -38218530.1353616     
  -37963057.9239935     
  -44094867.7642874     
  -43195709.0687724     
  -42375527.3422197     
  -41651763.2753039     
  -41017957.0498760     
  -40459017.7793949     
  -39960907.6779910     
  -39511302.2390235     
  -39099430.8746417     
  -38715621.6365540     
  -38350876.8531548     
  -37996746.0887857     
  -37645599.8948540     
  -37298184.6247853     
  -36965043.6063584     
  -44067664.3849869     
  -42923571.5023360     
  -41945989.1866838     
  -41129101.1509780     
  -40432284.6966428     
  -39827472.8667832     
  -39293585.1442307     
  -38814217.9061632     
  -38375794.2407708     
  -37966255.1630938     
  -37573944.4407882     
  -37186383.2894664     
  -36789194.0557764     
  -36362180.3434550     
  -35924768.3821416     
  -43902798.1130007     
  -42455342.9971783     
  -41374285.0474043     
  -40498747.5950025     
  -39764025.8868806     
  -39131795.8583957     
  -38576488.0823026     
  -38079211.9482492     
  -37624752.8383132     
  -37199663.7523572     
  -36790663.6449489     
  -36382718.7003627     
  -35955491.3947932     
  -35475968.9289580     
  -34848830.6728453     
SCALARS 2waySource double 
LOOKUP_TABLE default
 -1.266357641957899E-004
 -1.293999316075494E-004
 -1.322794249269277E-004
 -1.352079798017475E-004
 -1.381322927016490E-004
 -1.410096721853982E-004
 -1.438060195160396E-004
 -1.464940944659434E-004
 -1.490520254616543E-004
 -1.514620264920288E-004
 -1.537092863954449E-004
 -1.557809992196975E-004
 -1.576655072849429E-004
 -1.593515313532523E-004
 -1.608274648923102E-004
 -1.264877263058611E-004
 -1.292916384160445E-004
 -1.321994729118846E-004
 -1.351470936087136E-004
 -1.380830519331810E-004
 -1.409662711597755E-004
 -1.437640573116456E-004
 -1.464503926176050E-004
 -1.490044707770105E-004
 -1.514094365901630E-004
 -1.536512957167826E-004
 -1.557179633997672E-004
 -1.575984239125000E-004
 -1.592819752375145E-004
 -1.607575360422720E-004
 -1.262058712523701E-004
 -1.290889693860491E-004
 -1.320524367975358E-004
 -1.350366459349549E-004
 -1.379940608300874E-004
 -1.408869963221559E-004
 -1.436856976916704E-004
 -1.463666967693773E-004
 -1.489114040564029E-004
 -1.513048997661912E-004
 -1.535348899390344E-004
 -1.555907968647586E-004
 -1.574629559646138E-004
 -1.591418940193258E-004
 -1.606176661750473E-004
 -1.257924059709929E-004
 -1.287909277263941E-004
 -1.318346406690675E-004
 -1.348707340592405E-004
 -1.378575763263618E-004
 -1.407625911049280E-004
 -1.435604437054657E-004
 -1.462314944347232E-004
 -1.487604788092174E-004
 -1.511353781761353E-004
 -1.533464475441979E-004
 -1.553853705266465E-004
 -1.572445142104398E-004
 -1.589162594925969E-004
 -1.603923849647504E-004
 -1.252517167109339E-004
 -1.283971016704674E-004
 -1.315416631980758E-004
 -1.346416056949502E-004
 -1.376630939185849E-004
 -1.405802872845366E-004
 -1.433736706985452E-004
 -1.460286389355104E-004
 -1.485342954006262E-004
 -1.508824296841328E-004
 -1.530666416544120E-004
 -1.550815829396915E-004
 -1.569222895476228E-004
 -1.585835820861502E-004
 -1.600595125893022E-004
 -1.245904102392806E-004
 -1.279077638556436E-004
 -1.311684881827109E-004
 -1.343398538820785E-004
 -1.373975805620403E-004
 -1.403240701597527E-004
 -1.431069187719733E-004
 -1.457376649076011E-004
 -1.482107361487814E-004
 -1.505225598755846E-004
 -1.526708070609473E-004
 -1.546537412242730E-004
 -1.564696474940682E-004
 -1.581163194165507E-004
 -1.595905836894710E-004
 -1.238173471477382E-004
 -1.273239825912036E-004
 -1.307096840486683E-004
 -1.339546554175601E-004
 -1.370457634513046E-004
 -1.399750100106625E-004
 -1.427382602479598E-004
 -1.453341861329973E-004
 -1.477633889117801E-004
 -1.500276678010577E-004
 -1.521294055336942E-004
 -1.540710443702236E-004
 -1.558546289704793E-004
 -1.574813951530887E-004
 -1.589513861118262E-004
 -1.229436620771807E-004
 -1.266477397304351E-004
 -1.301596066286454E-004
 -1.334740465707207E-004
 -1.365904677827265E-004
 -1.395116522710996E-004
 -1.422427339282793E-004
 -1.447903668640307E-004
 -1.471620497179048E-004
 -1.493655753697463E-004
 -1.514085786337385E-004
 -1.532981573453295E-004
 -1.550405448727824E-004
 -1.566408146250378E-004
 -1.581025996640043E-004
 -1.219827641817734E-004
 -1.258820482310928E-004
 -1.295126177477512E-004
 -1.328852278891066E-004
 -1.360129945325825E-004
 -1.389104567040992E-004
 -1.415928357533278E-004
 -1.440754556244422E-004
 -1.463732928249521E-004
 -1.485006281463987E-004
 -1.504707750504001E-004
 -1.522958621341546E-004
 -1.539866494489556E-004
 -1.555523608343128E-004
 -1.570005169596870E-004
 -1.209503095342899E-004
 -1.250310606462136E-004
 -1.287633100839471E-004
 -1.321748876645411E-004
 -1.352935269387313E-004
 -1.381462734932305E-004
 -1.407590531394906E-004
 -1.431563682483904E-004
 -1.453610945043968E-004
 -1.473943533374415E-004
 -1.492754375869285E-004
 -1.510217699154680E-004
 -1.526488754380162E-004
 -1.541703521995298E-004
 -1.555978256621739E-004
 -1.198641354787935E-004
 -1.241001577511728E-004
 -1.279067264297015E-004
 -1.313295310608763E-004
 -1.344115516978334E-004
 -1.371928415167161E-004
 -1.397104277859161E-004
 -1.419983046873082E-004
 -1.440874949174048E-004
 -1.460061591131867E-004
 -1.477797334965867E-004
 -1.494310772552633E-004
 -1.509806125208082E-004
 -1.524464416746747E-004
 -1.538444292660240E-004
 -1.187441452675676E-004
 -1.230960043254061E-004
 -1.269385588375278E-004
 -1.303357989440100E-004
 -1.333462778126636E-004
 -1.360232911010726E-004
 -1.384151290858252E-004
 -1.405653819252248E-004
 -1.425132807987223E-004
 -1.442940582824371E-004
 -1.459393111575639E-004
 -1.474773487198416E-004
 -1.489335101683737E-004
 -1.503304361611539E-004
 -1.516882822801288E-004
 -1.176121298422276E-004
 -1.220265568276936E-004
 -1.258553101452036E-004
 -1.291807569906361E-004
 -1.320770324101614E-004
 -1.346106301503919E-004
 -1.368410174158960E-004
 -1.388212632520977E-004
 -1.405986704466044E-004
 -1.422153989585380E-004
 -1.437090663849505E-004
 -1.451133090619157E-004
 -1.464582868443349E-004
 -1.477711157637882E-004
 -1.490762156840898E-004
 -1.164915125823469E-004
 -1.209010053895517E-004
 -1.246543969306612E-004
 -1.278521314561296E-004
 -1.305836084449840E-004
 -1.329281885153673E-004
 -1.349561734275472E-004
 -1.367297622166660E-004
 -1.383039819420696E-004
 -1.397275855627672E-004
 -1.410439034303080E-004
 -1.422916305760799E-004
 -1.435055302239355E-004
 -1.447170349385571E-004
 -1.459547303230380E-004
 -1.154070025875879E-004
 -1.197296302056065E-004
 -1.233341687581531E-004
 -1.263384625989469E-004
 -1.288465335275850E-004
 -1.309499904406774E-004
 -1.327293658667038E-004
 -1.342553978929728E-004
 -1.355902658827204E-004
 -1.367887757600492E-004
 -1.378994794747358E-004
 -1.389657059718535E-004
 -1.400264782653437E-004
 -1.411172925708090E-004
 -1.422707401008401E-004
 -1.143841430035136E-004
 -1.185235498667072E-004
 -1.218938130230257E-004
 -1.246291393205291E-004
 -1.268472213154003E-004
 -1.286510182887112E-004
 -1.301304261495819E-004
 -1.313638767766069E-004
 -1.324198856596956E-004
 -1.333585433655963E-004
 -1.342329279377867E-004
 -1.350904049605574E-004
 -1.359737793866504E-004
 -1.369222662599159E-004
 -1.379722541532636E-004
 -1.134487435016278E-004
 -1.172943359371198E-004
 -1.203331065137484E-004
 -1.227142674821840E-004
 -1.245679554998621E-004
 -1.260073214864400E-004
 -1.271304925713644E-004
 -1.280224759428222E-004
 -1.287570321451137E-004
 -1.293985048582243E-004
 -1.300035662349529E-004
 -1.306228247018238E-004
 -1.313022426011578E-004
 -1.320843184327009E-004
 -1.330089984317104E-004
 -1.126261906345410E-004
 -1.160534628246898E-004
 -1.186519615081497E-004
 -1.205843067204535E-004
 -1.219916389373744E-004
 -1.229959112818014E-004
 -1.237020802723904E-004
 -1.242003026636391E-004
 -1.245681668027282E-004
 -1.248729193267351E-004
 -1.251736091341455E-004
 -1.255230615782712E-004
 -1.259696063511723E-004
 -1.265584993183412E-004
 -1.273329931125767E-004
 -1.119406363701154E-004
 -1.148115518836776E-004
 -1.168496910836905E-004
 -1.182293813011566E-004
 -1.191012129094406E-004
 -1.195943623877162E-004
 -1.198189248930987E-004
 -1.198684088847830E-004
 -1.198223997563053E-004
 -1.197492906027515E-004
 -1.197089314916437E-004
 -1.197550560454856E-004
 -1.199373792653480E-004
 -1.203032953357399E-004
 -1.208991236986346E-004
 -1.114140726569117E-004
 -1.135773477979446E-004
 -1.149238763816648E-004
 -1.156381206762597E-004
 -1.158786076494293E-004
 -1.157800146725402E-004
 -1.154555393267631E-004
 -1.149997478057575E-004
 -1.144918306786222E-004
 -1.139990290549806E-004
 -1.135799563181977E-004
 -1.132875955004839E-004
 -1.131718387574815E-004
 -1.132815023557343E-004
 -1.136657712201652E-004
 -1.110653053722822E-004
 -1.123563213762549E-004
 -1.128686405730630E-004
 -1.127957991855356E-004
 -1.123030161966840E-004
 -1.115286306874572E-004
 -1.105864184749529E-004
 -1.095689802848747E-004
 -1.085519157727982E-004
 -1.075982727802804E-004
 -1.067627886718243E-004
 -1.060956045471842E-004
 -1.056453167128741E-004
 -1.054613436300697E-004
 -1.055956014368752E-004
 -1.109088371585768E-004
 -1.111487003544608E-004
 -1.106719856926507E-004
 -1.096813940944704E-004
 -1.083481784105266E-004
 -1.068123230771757E-004
 -1.051848386460430E-004
 -1.035521820538219E-004
 -1.019819799002885E-004
 -1.005290271024242E-004
 -9.924077477594713E-005
 -9.816191125632539E-005
 -9.733795943938289E-005
 -9.681800693008862E-005
 -9.665665654463744E-005
 -1.109536405840846E-004
 -1.099465306025526E-004
 -1.083115576117312E-004
 -1.062629178499784E-004
 -1.039782148806220E-004
 -1.015965448940678E-004
 -9.922125658566445E-005
 -9.692658570076493E-005
 -9.476607307840359E-005
 -9.278085356558322E-005
 -9.100674087089350E-005
 -8.947975506103861E-005
 -8.824023366831181E-005
 -8.733585457187969E-005
 -8.682395466014407E-005
 -1.112017102693989E-004
 -1.087289298382982E-004
 -1.057476063734334E-004
 -1.024899250087721E-004
 -9.914138979808973E-005
 -9.583601838757069E-005
 -9.266148402735087E-005
 -8.967063383655892E-005
 -8.689445493188317E-005
 -8.435341112344546E-005
 -8.206624171858011E-005
 -8.005642115936490E-005
 -7.835657230458603E-005
 -7.701170601691804E-005
 -7.608190042860451E-005
 -1.116460629615793E-004
 -1.074536117070317E-004
 -1.029106399062481E-004
 -9.828133690128750E-005
 -9.376117908449871E-005
 -8.946989921340573E-005
 -8.546521278793507E-005
 -8.176480626159060E-005
 -7.836602016331949E-005
 -7.526011861817510E-005
 -7.244226144029537E-005
 -6.991850785332431E-005
 -6.771084963285589E-005
 -6.585981264468864E-005
 -6.442805872858119E-005
 -1.122670189993910E-004
 -1.060400281455568E-004
 -9.967830317051842E-005
 -9.350577931125951E-005
 -8.772487744403905E-005
 -8.241771006787138E-005
 -7.758625153325272E-005
 -7.319378211427524E-005
 -6.919167921818400E-005
 -6.553306473632989E-005
 -6.218160316107352E-005
 -5.911994088175695E-005
 -5.635453396019570E-005
 -5.392006257912253E-005
 -5.187920811343747E-005
 -1.130239988635818E-004
 -1.043299987551116E-004
 -9.582990179680210E-005
 -8.795200478588343E-005
 -8.087365981031891E-005
 -7.458070892381238E-005
 -6.897636462335409E-005
 -6.395029084831820E-005
 -5.939805429347543E-005
 -5.522780401950817E-005
 -5.136385806746268E-005
 -4.775287676778602E-005
 -4.438158394938056E-005
 -4.127034480400061E-005
 -3.848337759518564E-005
 -1.138209810849202E-004
 -1.019858432766141E-004
 -9.095386348005137E-005
 -8.129775425932254E-005
 -7.301236872765068E-005
 -6.585386849502516E-005
 -5.959438757148465E-005
 -5.404024567783846E-005
 -4.902977016500771E-005
 -4.442526542631320E-005
 -4.010679419204669E-005
 -3.597166993490012E-005
 -3.194505829771014E-005
 -2.806057081360404E-005
 -2.433860695364844E-005
 -1.143838134931237E-004
 -9.813903531258621E-005
 -8.430975880074852E-005
 -7.316801737603011E-005
 -6.394890494883481E-005
 -5.615178615647787E-005
 -4.941948453030692E-005
 -4.348776978554982E-005
 -3.814845534936061E-005
 -3.322605369257083E-005
 -2.856070509029280E-005
 -2.399413576263558E-005
 -1.936208920916336E-005
 -1.450253709599881E-005
 -9.696844217401962E-006
 -1.127196174183284E-004
 -9.059518281565169E-005
 -7.520565584635702E-005
 -6.326456010234257E-005
 -5.356431474988356E-005
 -4.543917282858791E-005
 -3.846428664267169E-005
 -3.233816149806820E-005
 -2.682778293388547E-005
 -2.173647286072362E-005
 -1.688019160957562E-005
 -1.206352834328495E-005
 -7.046071072924057E-006
 -1.472031260585458E-006
  5.176769408572386E-006
SCALARS poroP double 
LOOKUP_TABLE default
  3.812625265577417E-007
  4.642132227784086E-007
  3.576802389862683E-007
  5.837215377217937E-007
  7.262479816294548E-007
  8.097873883753918E-007
  6.659619603521209E-007
  1.002700890643659E-006
  1.188157076802168E-006
  1.279994538377089E-006
  1.092716044732936E-006
  1.566417829650816E-006
  1.801983779610235E-006
  1.917420291060468E-006
  1.678244688886395E-006
  2.319105322579079E-006
  2.611916111049269E-006
  2.780931635672432E-006
  2.480629759745150E-006
  3.320261968845371E-006
  3.670657991078640E-006
  3.957421680936599E-006
  3.590043429830391E-006
  4.627404648421079E-006
  4.975133849478253E-006
  5.510929637655389E-006
  5.126381387417802E-006
  0.000000000000000E+000
  0.000000000000000E+000
  0.000000000000000E+000
  0.000000000000000E+000
  0.000000000000000E+000
  0.000000000000000E+000
  0.000000000000000E+000
  0.000000000000000E+000
  0.000000000000000E+000
  0.000000000000000E+000
  0.000000000000000E+000
  0.000000000000000E+000
  0.000000000000000E+000
  0.000000000000000E+000
  0.000000000000000E+000
  0.000000000000000E+000
  0.000000000000000E+000
  0.000000000000000E+000
  0.000000000000000E+000
  0.000000000000000E+000
  0.000000000000000E+000
  0.000000000000000E+000
  0.000000000000000E+000
  0.000000000000000E+000
  0.000000000000000E+000
  0.000000000000000E+000
  5.043953088544103E-008
  0.000000000000000E+000
  7.803873639574575E-008
  1.578793373738755E-007
  2.359231502621378E-007
  1.555085853654121E-007
  3.122982960402620E-007
  4.221263074553911E-007
  4.900857948792546E-007
  3.804919485569650E-007
  6.273017813865523E-007
  7.721250641063891E-007
  8.319501209151955E-007
  6.881363031537837E-007
  1.057909369125047E-006
  1.245510016143218E-006
  1.302917960454953E-006
  1.116543455355035E-006
  1.652137756189509E-006
  1.894579696440173E-006
  1.962089065462990E-006
  1.720170952217103E-006
  2.484589844376709E-006
  2.799980426835245E-006
  2.904972025170194E-006
  2.587403747668005E-006
  3.682208122941052E-006
  4.088173174679842E-006
  4.303244279162079E-006
  3.884352794114156E-006
  5.444580000019730E-006
  5.869499549403989E-006
  6.381395038372541E-006
  5.917055535058653E-006
  0.000000000000000E+000
  0.000000000000000E+000
  0.000000000000000E+000
  0.000000000000000E+000
  0.000000000000000E+000
  0.000000000000000E+000
  0.000000000000000E+000
  0.000000000000000E+000
  0.000000000000000E+000
  0.000000000000000E+000
  0.000000000000000E+000
  0.000000000000000E+000
  0.000000000000000E+000
  0.000000000000000E+000
  0.000000000000000E+000
  0.000000000000000E+000
  0.000000000000000E+000
  0.000000000000000E+000
  0.000000000000000E+000
  0.000000000000000E+000
  0.000000000000000E+000
  0.000000000000000E+000
  0.000000000000000E+000
  0.000000000000000E+000
  0.000000000000000E+000
  0.000000000000000E+000
  5.757290731843795E-008
  0.000000000000000E+000
  8.634271314781867E-008
  1.686186950150240E-007
  2.397730384293252E-007
  1.579440275336172E-007
  3.179531237091717E-007
  4.261102450159866E-007
  4.819052507827354E-007
  3.752756986910300E-007
  6.239584323058663E-007
  7.632192707506688E-007
  8.039819089905196E-007
  6.674117155258321E-007
  1.044159430913683E-006
  1.223561825943274E-006
  1.250984846196653E-006
  1.075331678470492E-006
  1.637705695721062E-006
  1.872684325574938E-006
  1.894590349505460E-006
  1.663855289313616E-006
  2.506568883671776E-006
  2.826614572330829E-006
  2.863214033312541E-006
  2.546563033399051E-006
  3.858126603241165E-006
  4.312418613917358E-006
  4.422842961969049E-006
  3.969510207493202E-006
  6.144492627119382E-006
  6.690554333273513E-006
  7.095845302053521E-006
  6.539675916732030E-006
  0.000000000000000E+000
  0.000000000000000E+000
  0.000000000000000E+000
  0.000000000000000E+000
  0.000000000000000E+000
  0.000000000000000E+000
  0.000000000000000E+000
  0.000000000000000E+000
  0.000000000000000E+000
  0.000000000000000E+000
  0.000000000000000E+000
  0.000000000000000E+000
  0.000000000000000E+000
  0.000000000000000E+000
  0.000000000000000E+000
  0.000000000000000E+000
  0.000000000000000E+000
  0.000000000000000E+000
  0.000000000000000E+000
  0.000000000000000E+000
  0.000000000000000E+000
  0.000000000000000E+000
  0.000000000000000E+000
  0.000000000000000E+000
  0.000000000000000E+000
  0.000000000000000E+000
  5.003803352449974E-008
  0.000000000000000E+000
  7.057306707123438E-008
  1.513736259912149E-007
  2.172224477187042E-007
  1.375392343921142E-007
  2.891876714035136E-007
  3.912977484789181E-007
  4.389944145906700E-007
  3.390661277629029E-007
  5.734920942377639E-007
  7.013174461013148E-007
  7.286414739285821E-007
  6.044213703910116E-007
  9.634073905583818E-007
  1.126468981308128E-006
  1.130916904836808E-006
  9.732117313993626E-007
  1.525455076788219E-006
  1.741622028766103E-006
  1.724093396750978E-006
  1.515180019557889E-006
  2.380448716102848E-006
  2.685709771882657E-006
  2.655937850084368E-006
  2.359710231003009E-006
  3.802772701146506E-006
  4.279661177938414E-006
  4.276399687547837E-006
  3.806441661618758E-006
  6.583378344706018E-006
  7.313966673944459E-006
  7.595603686744130E-006
  6.868766572117749E-006
  0.000000000000000E+000
  0.000000000000000E+000
  0.000000000000000E+000
  0.000000000000000E+000
  0.000000000000000E+000
  0.000000000000000E+000
  0.000000000000000E+000
  0.000000000000000E+000
  0.000000000000000E+000
  0.000000000000000E+000
  0.000000000000000E+000
  0.000000000000000E+000
  0.000000000000000E+000
  0.000000000000000E+000
  0.000000000000000E+000
  0.000000000000000E+000
  0.000000000000000E+000
  0.000000000000000E+000
  0.000000000000000E+000
  0.000000000000000E+000
  0.000000000000000E+000
  0.000000000000000E+000
  0.000000000000000E+000
  0.000000000000000E+000
  0.000000000000000E+000
  0.000000000000000E+000
  2.070229225325561E-008
  0.000000000000000E+000
  2.421729357356888E-008
  1.003343027081885E-007
  1.624542747788237E-007
  8.800534040315286E-008
  2.211248531459289E-007
  3.141362869343474E-007
  3.555987943088894E-007
  2.650265605515104E-007
  4.740803113781707E-007
  5.869869669254326E-007
  6.065051166364908E-007
  4.973022702641418E-007
  8.185213788879955E-007
  9.607280676203989E-007
  9.518729106647167E-007
  8.154501910627468E-007
  1.322505960377240E-006
  1.512240410032365E-006
  1.465987177312828E-006
  1.285611120482793E-006
  2.116004211318403E-006
  2.392445071666982E-006
  2.303847762286837E-006
  2.042128087842031E-006
  3.505071490397151E-006
  3.971067504604111E-006
  3.847519833978330E-006
  3.403061308233355E-006
  6.667247123417464E-006
  7.605540312825424E-006
  7.594284032070061E-006
  6.688518902558704E-006
  0.000000000000000E+000
  0.000000000000000E+000
  0.000000000000000E+000
  0.000000000000000E+000
  0.000000000000000E+000
  0.000000000000000E+000
  0.000000000000000E+000
  0.000000000000000E+000
  0.000000000000000E+000
  0.000000000000000E+000
  0.000000000000000E+000
  0.000000000000000E+000
  0.000000000000000E+000
  0.000000000000000E+000
  0.000000000000000E+000
  0.000000000000000E+000
  0.000000000000000E+000
  0.000000000000000E+000
  0.000000000000000E+000
  0.000000000000000E+000
  0.000000000000000E+000
  0.000000000000000E+000
  0.000000000000000E+000
  0.000000000000000E+000
  0.000000000000000E+000
  0.000000000000000E+000
  0.000000000000000E+000
  0.000000000000000E+000
  0.000000000000000E+000
  1.305548248607059E-008
  7.344631609003669E-008
  1.041634803463392E-008
  1.071402803549938E-007
  1.891784253665382E-007
  2.247788400074390E-007
  1.453267151635542E-007
  3.234451544166746E-007
  4.210272757893417E-007
  4.351777706633465E-007
  3.412101397098913E-007
  6.157518771188166E-007
  7.360190295798499E-007
  7.228956714532951E-007
  6.080518701140875E-007
  1.042219418960874E-006
  1.202153223958059E-006
  1.145708541558595E-006
  9.948606827033131E-007
  1.731557725037782E-006
  1.970619718439001E-006
  1.844854691518958E-006
  1.623608967962094E-006
  2.994140655776806E-006
  3.418989963339758E-006
  3.196486810488576E-006
  2.805430706444425E-006
  6.158963660590496E-006
  7.325905962744102E-006
  6.947034294732422E-006
  5.863292495709136E-006
  0.000000000000000E+000
  0.000000000000000E+000
  0.000000000000000E+000
  0.000000000000000E+000
  0.000000000000000E+000
  0.000000000000000E+000
  0.000000000000000E+000
  0.000000000000000E+000
  0.000000000000000E+000
  0.000000000000000E+000
  0.000000000000000E+000
  0.000000000000000E+000
  0.000000000000000E+000
  0.000000000000000E+000
  0.000000000000000E+000
  0.000000000000000E+000
  0.000000000000000E+000
  0.000000000000000E+000
  0.000000000000000E+000
  0.000000000000000E+000
  0.000000000000000E+000
  0.000000000000000E+000
  0.000000000000000E+000
  0.000000000000000E+000
  0.000000000000000E+000
  0.000000000000000E+000
  0.000000000000000E+000
  0.000000000000000E+000
  0.000000000000000E+000
  0.000000000000000E+000
  0.000000000000000E+000
  0.000000000000000E+000
  0.000000000000000E+000
  2.094395022111207E-008
  6.196659457359456E-008
  3.637995680574254E-009
  1.228251961957312E-007
  2.054303109226064E-007
  2.171956593762992E-007
  1.376374610254868E-007
  3.629975436030545E-007
  4.622627345162816E-007
  4.476636532983506E-007
  3.527948914585775E-007
  7.092710822652077E-007
  8.422251777432000E-007
  7.945352190174656E-007
  6.692724753114798E-007
  1.269830569360965E-006
  1.469655186082466E-006
  1.350127758953847E-006
  1.166597268545354E-006
  2.323220245409191E-006
  2.691725912009687E-006
  2.401069701641621E-006
  2.077586222464963E-006
  5.111775603059904E-006
  6.372995184631093E-006
  5.607015101297222E-006
  4.544722972590350E-006
  0.000000000000000E+000
  0.000000000000000E+000
  0.000000000000000E+000
  7.676421297992088E-010
  0.000000000000000E+000
  0.000000000000000E+000
  0.000000000000000E+000
  0.000000000000000E+000
  0.000000000000000E+000
  0.000000000000000E+000
  0.000000000000000E+000
  0.000000000000000E+000
  0.000000000000000E+000
  0.000000000000000E+000
  0.000000000000000E+000
  0.000000000000000E+000
  0.000000000000000E+000
  0.000000000000000E+000
  0.000000000000000E+000
  0.000000000000000E+000
  0.000000000000000E+000
  0.000000000000000E+000
  0.000000000000000E+000
  0.000000000000000E+000
  0.000000000000000E+000
  0.000000000000000E+000
  0.000000000000000E+000
  0.000000000000000E+000
  0.000000000000000E+000
  0.000000000000000E+000
  0.000000000000000E+000
  0.000000000000000E+000
  0.000000000000000E+000
  0.000000000000000E+000
  0.000000000000000E+000
  0.000000000000000E+000
  0.000000000000000E+000
  0.000000000000000E+000
  0.000000000000000E+000
  0.000000000000000E+000
  7.421314578685733E-008
  1.544802092455804E-007
  1.473755710319001E-007
  7.035614305375564E-008
  3.583183496143955E-007
  4.702673855203649E-007
  4.436513868841139E-007
  3.374966697243672E-007
  8.019573882455721E-007
  9.678717879137981E-007
  8.891059627888356E-007
  7.356746620907552E-007
  1.586766321111882E-006
  1.882207304279747E-006
  1.639366951472170E-006
  1.383419798128818E-006
  3.640720955470144E-006
  4.727007277453536E-006
  3.566938150639974E-006
  2.811855642902026E-006
  0.000000000000000E+000
   1.00000000000000     
  0.500000000000000     
SCALARS elementIsPlast double 
LOOKUP_TABLE default
  0.000000000000000E+000
  0.000000000000000E+000
  0.000000000000000E+000
  0.000000000000000E+000
  0.000000000000000E+000
  0.000000000000000E+000
  0.000000000000000E+000
  0.000000000000000E+000
  0.000000000000000E+000
  0.000000000000000E+000
  0.000000000000000E+000
  0.000000000000000E+000
  0.000000000000000E+000
  0.000000000000000E+000
  0.000000000000000E+000
  0.000000000000000E+000
  0.000000000000000E+000
  0.000000000000000E+000
  0.000000000000000E+000
  0.000000000000000E+000
  0.000000000000000E+000
  0.000000000000000E+000
  0.000000000000000E+000
  0.000000000000000E+000
  0.000000000000000E+000
  0.000000000000000E+000
  0.000000000000000E+000
  0.000000000000000E+000
  0.000000000000000E+000
  0.000000000000000E+000
  0.000000000000000E+000
  0.000000000000000E+000
  0.000000000000000E+000
  0.000000000000000E+000
  0.000000000000000E+000
  0.000000000000000E+000
  0.000000000000000E+000
  0.000000000000000E+000
  0.000000000000000E+000
  0.000000000000000E+000
  0.000000000000000E+000
  0.000000000000000E+000
  0.000000000000000E+000
  0.000000000000000E+000
  0.000000000000000E+000
  0.000000000000000E+000
  0.000000000000000E+000
  0.000000000000000E+000
  0.000000000000000E+000
  0.000000000000000E+000
  0.000000000000000E+000
  0.000000000000000E+000
  0.000000000000000E+000
  0.000000000000000E+000
  0.000000000000000E+000
  0.000000000000000E+000
  0.000000000000000E+000
  0.000000000000000E+000
  0.000000000000000E+000
  0.000000000000000E+000
  0.000000000000000E+000
  0.000000000000000E+000
  0.000000000000000E+000
  0.000000000000000E+000
  0.000000000000000E+000
  0.000000000000000E+000
  0.000000000000000E+000
  0.000000000000000E+000
  0.000000000000000E+000
  0.000000000000000E+000
  0.000000000000000E+000
  0.000000000000000E+000
  0.000000000000000E+000
  0.000000000000000E+000
  0.000000000000000E+000
  0.000000000000000E+000
  0.000000000000000E+000
  0.000000000000000E+000
  0.000000000000000E+000
  0.000000000000000E+000
  0.000000000000000E+000
  0.000000000000000E+000
  0.000000000000000E+000
  0.000000000000000E+000
  0.000000000000000E+000
  0.000000000000000E+000
  0.000000000000000E+000
  0.000000000000000E+000
  0.000000000000000E+000
  0.000000000000000E+000
  0.000000000000000E+000
  0.000000000000000E+000
  0.000000000000000E+000
  0.000000000000000E+000
  0.000000000000000E+000
  0.000000000000000E+000
  0.000000000000000E+000
  0.000000000000000E+000
  0.000000000000000E+000
  0.000000000000000E+000
  0.000000000000000E+000
  0.000000000000000E+000
  0.000000000000000E+000
  0.000000000000000E+000
  0.000000000000000E+000
  0.000000000000000E+000
  0.000000000000000E+000
  0.000000000000000E+000
  0.000000000000000E+000
  0.000000000000000E+000
  0.000000000000000E+000
  0.000000000000000E+000
  0.000000000000000E+000
  0.000000000000000E+000
  0.000000000000000E+000
  0.000000000000000E+000
  0.000000000000000E+000
  0.000000000000000E+000
  0.000000000000000E+000
  0.000000000000000E+000
  0.000000000000000E+000
  0.000000000000000E+000
  0.000000000000000E+000
  0.000000000000000E+000
  0.000000000000000E+000
  0.000000000000000E+000
  0.000000000000000E+000
  0.000000000000000E+000
  0.000000000000000E+000
  0.000000000000000E+000
  0.000000000000000E+000
  0.000000000000000E+000
  0.000000000000000E+000
  0.000000000000000E+000
  0.000000000000000E+000
  0.000000000000000E+000
  0.000000000000000E+000
  0.000000000000000E+000
  0.000000000000000E+000
  0.000000000000000E+000
  0.000000000000000E+000
  0.000000000000000E+000
  0.000000000000000E+000
  0.000000000000000E+000
  0.000000000000000E+000
  0.000000000000000E+000
  0.000000000000000E+000
  0.000000000000000E+000
  0.000000000000000E+000
  0.000000000000000E+000
  0.000000000000000E+000
  0.000000000000000E+000
  0.000000000000000E+000
  0.000000000000000E+000
  0.000000000000000E+000
  0.000000000000000E+000
  0.000000000000000E+000
  0.000000000000000E+000
  0.000000000000000E+000
  0.000000000000000E+000
  0.000000000000000E+000
  0.000000000000000E+000
  0.000000000000000E+000
  0.000000000000000E+000
  0.000000000000000E+000
  0.000000000000000E+000
  0.000000000000000E+000
  0.000000000000000E+000
  0.000000000000000E+000
  0.000000000000000E+000
  0.000000000000000E+000
  0.000000000000000E+000
  0.000000000000000E+000
  0.000000000000000E+000
  0.000000000000000E+000
  0.000000000000000E+000
  0.000000000000000E+000
  0.000000000000000E+000
  0.000000000000000E+000
  0.000000000000000E+000
  0.000000000000000E+000
  0.000000000000000E+000
  0.000000000000000E+000
  0.000000000000000E+000
  0.000000000000000E+000
  0.000000000000000E+000
  0.000000000000000E+000
  0.000000000000000E+000
  0.000000000000000E+000
  0.000000000000000E+000
  0.000000000000000E+000
  0.000000000000000E+000
  0.000000000000000E+000
  0.000000000000000E+000
  0.000000000000000E+000
  0.000000000000000E+000
  0.000000000000000E+000
  0.000000000000000E+000
  0.000000000000000E+000
  0.000000000000000E+000
  0.000000000000000E+000
  0.000000000000000E+000
  0.000000000000000E+000
  0.000000000000000E+000
  0.000000000000000E+000
  0.000000000000000E+000
  0.000000000000000E+000
  0.000000000000000E+000
  0.000000000000000E+000
  0.000000000000000E+000
  0.000000000000000E+000
  0.000000000000000E+000
  0.000000000000000E+000
  0.000000000000000E+000
  0.000000000000000E+000
  0.000000000000000E+000
  0.000000000000000E+000
  0.000000000000000E+000
  0.000000000000000E+000
  0.000000000000000E+000
  0.000000000000000E+000
  0.000000000000000E+000
  0.000000000000000E+000
  0.000000000000000E+000
  0.000000000000000E+000
  0.000000000000000E+000
  0.000000000000000E+000
  0.000000000000000E+000
  0.000000000000000E+000
  0.000000000000000E+000
  0.000000000000000E+000
  0.000000000000000E+000
  0.000000000000000E+000
  0.000000000000000E+000
  0.000000000000000E+000
  0.000000000000000E+000
  0.000000000000000E+000
  0.000000000000000E+000
  0.000000000000000E+000
  0.000000000000000E+000
  0.000000000000000E+000
  0.000000000000000E+000
  0.000000000000000E+000
  0.000000000000000E+000
  0.000000000000000E+000
  0.000000000000000E+000
  0.000000000000000E+000
  0.000000000000000E+000
  0.000000000000000E+000
  0.000000000000000E+000
  0.000000000000000E+000
  0.000000000000000E+000
  0.000000000000000E+000
  0.000000000000000E+000
  0.000000000000000E+000
  0.000000000000000E+000
  0.000000000000000E+000
  0.000000000000000E+000
  0.000000000000000E+000
  0.000000000000000E+000
  0.000000000000000E+000
  0.000000000000000E+000
  0.000000000000000E+000
  0.000000000000000E+000
  0.000000000000000E+000
  0.000000000000000E+000
  0.000000000000000E+000
  0.000000000000000E+000
  0.000000000000000E+000
  0.000000000000000E+000
  0.000000000000000E+000
  0.000000000000000E+000
  0.000000000000000E+000
  0.000000000000000E+000
  0.000000000000000E+000
  0.000000000000000E+000
  0.000000000000000E+000
  0.000000000000000E+000
  0.000000000000000E+000
  0.000000000000000E+000
  0.000000000000000E+000
  0.000000000000000E+000
  0.000000000000000E+000
  0.000000000000000E+000
  0.000000000000000E+000
  0.000000000000000E+000
  0.000000000000000E+000
  0.000000000000000E+000
  0.000000000000000E+000
  0.000000000000000E+000
  0.000000000000000E+000
  0.000000000000000E+000
  0.000000000000000E+000
  0.000000000000000E+000
  0.000000000000000E+000
  0.000000000000000E+000
  0.000000000000000E+000
  0.000000000000000E+000
  0.000000000000000E+000
  0.000000000000000E+000
  0.000000000000000E+000
  0.000000000000000E+000
  0.000000000000000E+000
  0.000000000000000E+000
  0.000000000000000E+000
  0.000000000000000E+000
  0.000000000000000E+000
  0.000000000000000E+000
  0.000000000000000E+000
  0.000000000000000E+000
  0.000000000000000E+000
  0.000000000000000E+000
  0.000000000000000E+000
  0.000000000000000E+000
  0.000000000000000E+000
  0.000000000000000E+000
  0.000000000000000E+000
  0.000000000000000E+000
  0.000000000000000E+000
  0.000000000000000E+000
  0.000000000000000E+000
  0.000000000000000E+000
  0.000000000000000E+000
  0.000000000000000E+000
  0.000000000000000E+000
  0.000000000000000E+000
  0.000000000000000E+000
  0.000000000000000E+000
  0.000000000000000E+000
  0.000000000000000E+000
  0.000000000000000E+000
  0.000000000000000E+000
  0.000000000000000E+000
  0.000000000000000E+000
  0.000000000000000E+000
  0.000000000000000E+000
  0.000000000000000E+000
  0.000000000000000E+000
  0.000000000000000E+000
  0.000000000000000E+000
  0.000000000000000E+000
  0.000000000000000E+000
  0.000000000000000E+000
  0.000000000000000E+000
  0.000000000000000E+000
  0.000000000000000E+000
  0.000000000000000E+000
  0.000000000000000E+000
  0.000000000000000E+000
  0.000000000000000E+000
  0.000000000000000E+000
  0.000000000000000E+000
  0.000000000000000E+000
  0.000000000000000E+000
  0.000000000000000E+000
  0.000000000000000E+000
  0.000000000000000E+000
  0.000000000000000E+000
  0.000000000000000E+000
  0.000000000000000E+000
  0.000000000000000E+000
  0.000000000000000E+000
  0.000000000000000E+000
  0.000000000000000E+000
  0.000000000000000E+000
  0.000000000000000E+000
  0.000000000000000E+000
  0.000000000000000E+000
  0.000000000000000E+000
  0.000000000000000E+000
  0.000000000000000E+000
  0.000000000000000E+000
  0.000000000000000E+000
  0.000000000000000E+000
  0.000000000000000E+000
  0.000000000000000E+000
  0.000000000000000E+000
  0.000000000000000E+000
  0.000000000000000E+000
  0.000000000000000E+000
  0.000000000000000E+000
  0.000000000000000E+000
  0.000000000000000E+000
  0.000000000000000E+000
  0.000000000000000E+000
  0.000000000000000E+000
  0.000000000000000E+000
  0.000000000000000E+000
  0.000000000000000E+000
  0.000000000000000E+000
  0.000000000000000E+000
  0.000000000000000E+000
  0.000000000000000E+000
  0.000000000000000E+000
  0.000000000000000E+000
  0.000000000000000E+000
  0.000000000000000E+000
  0.000000000000000E+000
  0.000000000000000E+000
  0.000000000000000E+000
  0.000000000000000E+000
  0.000000000000000E+000
  0.000000000000000E+000
  0.000000000000000E+000
  0.000000000000000E+000
  0.000000000000000E+000
  0.000000000000000E+000
  0.000000000000000E+000
  0.000000000000000E+000
  0.000000000000000E+000
  0.000000000000000E+000
  0.000000000000000E+000
  0.000000000000000E+000
  0.000000000000000E+000
  0.000000000000000E+000
  0.000000000000000E+000
  0.000000000000000E+000
  0.000000000000000E+000
  0.000000000000000E+000
  0.000000000000000E+000
  0.000000000000000E+000
  0.000000000000000E+000
  0.000000000000000E+000
  0.000000000000000E+000
  0.000000000000000E+000
  0.000000000000000E+000
  0.000000000000000E+000
  0.000000000000000E+000
  0.000000000000000E+000
  0.000000000000000E+000
  0.000000000000000E+000
  0.000000000000000E+000
  0.000000000000000E+000
  0.000000000000000E+000
  0.000000000000000E+000
  0.000000000000000E+000
  0.000000000000000E+000
  0.000000000000000E+000
  0.000000000000000E+000
  0.000000000000000E+000
  0.000000000000000E+000
  0.000000000000000E+000
  0.000000000000000E+000
  0.000000000000000E+000
  0.000000000000000E+000
  0.000000000000000E+000
  0.000000000000000E+000
  0.000000000000000E+000
  0.000000000000000E+000
  0.000000000000000E+000
SCALARS poroL double 
LOOKUP_TABLE default
  0.155961334647890     
  0.155958065357624     
  0.155954981805301     
  0.155952078354511     
  0.155949348647509     
  0.155946785778071     
  0.155944382458935     
  0.155942131180623     
  0.155940024358871     
  0.155938054468269     
  0.155936214160027     
  0.155934496362042     
  0.155932894359658     
  0.155931401855724     
  0.155930013008747     
  0.155960804799716     
  0.155957544600192     
  0.155954470839388     
  0.155951577698780     
  0.155948858645229     
  0.155946306606741     
  0.155943914142329     
  0.155941673602841     
  0.155939577280061     
  0.155937617541750     
  0.155935786950615     
  0.155934078365432     
  0.155932485022751     
  0.155931000597790     
  0.155929619243308     
  0.155959744343051     
  0.155956502583105     
  0.155953448650212     
  0.155950576359304     
  0.155947878824628     
  0.155945348641243     
  0.155942978059654     
  0.155940759150567     
  0.155938683957248     
  0.155936744633301     
  0.155934933563980     
  0.155933243469386     
  0.155931667488048     
  0.155930199239513     
  0.155928832864695     
  0.155958151798881     
  0.155954938343526     
  0.155951914764325     
  0.155949074320646     
  0.155946409593308     
  0.155943912674518     
  0.155941575349445     
  0.155939389266674     
  0.155937346095240     
  0.155935437666314     
  0.155933656097885     
  0.155931993900969     
  0.155930444065966     
  0.155929000127833     
  0.155927656208773     
  0.155956025052429     
  0.155952850540945     
  0.155949868574378     
  0.155947071660773     
  0.155944451661493     
  0.155941999992071     
  0.155939707812662     
  0.155937566205684     
  0.155935566338675     
  0.155933699610829     
  0.155931957781864     
  0.155930333082041     
  0.155928818302149     
  0.155927406862196     
  0.155926092857433     
  0.155953361476888     
  0.155950237580886     
  0.155947309461676     
  0.155944568671482     
  0.155942006159551     
  0.155939612486079     
  0.155937378023123     
  0.155935293140518     
  0.155933348375339     
  0.155931534583850     
  0.155929843075083     
  0.155928265725266     
  0.155926795072183     
  0.155925424388361     
  0.155924147731645     
  0.155950158097179     
  0.155947097778645     
  0.155944236958261     
  0.155941566017451     
  0.155939074792949     
  0.155936752805533     
  0.155934589472479     
  0.155932574302339     
  0.155930697071239     
  0.155928947980309     
  0.155927317794073     
  0.155925797959552     
  0.155924380705620     
  0.155923059121699     
  0.155921827214334     
  0.155946411792909     
  0.155943429562153     
  0.155940650947505     
  0.155938064932740     
  0.155935660033242     
  0.155933424540750     
  0.155931346747808     
  0.155929415151292     
  0.155927618635050     
  0.155925946632206     
  0.155924389267825     
  0.155922937482532     
  0.155921583137224     
  0.155920319098301     
  0.155919139301989     
  0.155942119539684     
  0.155939231713037     
  0.155936551902140     
  0.155934067453409     
  0.155931765343430     
  0.155929632440236     
  0.155927655739415     
  0.155925822575371     
  0.155924120808869     
  0.155922538992633     
  0.155921066516942     
  0.155919693736921     
  0.155918412082582     
  0.155917214151595     
  0.155916093783442     
  0.155937278688053     
  0.155934503645037     
  0.155931941158616     
  0.155929576684837     
  0.155927395435884     
  0.155925382657612     
  0.155923523876018     
  0.155921805114062     
  0.155920213081420     
  0.155918735340527     
  0.155917360452544     
  0.155916078106553     
  0.155914879234311     
  0.155913756111399     
  0.155912702443682     
  0.155931887279616     
  0.155929245719118     
  0.155926821226904     
  0.155924597102465     
  0.155922556561000     
  0.155920683026088     
  0.155918960384047     
  0.155917373202719     
  0.155915906919040     
  0.155914548000931     
  0.155913284089445     
  0.155912104126714     
  0.155910998473900     
  0.155909959021274     
  0.155908979289806     
  0.155925944400167     
  0.155923459594977     
  0.155921196135152     
  0.155919134884928     
  0.155917256824917     
  0.155915543357949     
  0.155913976567511     
  0.155912539433045     
  0.155911216008744     
  0.155909991574287     
  0.155908852766660     
  0.155907787701764     
  0.155906786092687     
  0.155905839368685     
  0.155904940795120     
  0.155919450570131     
  0.155917148619136     
  0.155915071809225     
  0.155913198279180     
  0.155911506535095     
  0.155909975766713     
  0.155908586104634     
  0.155907318824328     
  0.155906156506569     
  0.155905083166708     
  0.155904084366417     
  0.155903147321057     
  0.155902261013410     
  0.155901416320615     
  0.155900606155919     
  0.155912408172930     
  0.155910318250503     
  0.155908456488096     
  0.155906797998239     
  0.155905318573458     
  0.155903995010140     
  0.155902805357501     
  0.155901729099463     
  0.155900747283057     
  0.155899842611288     
  0.155898999520464     
  0.155898204261453     
  0.155897445001119     
  0.155896711954774     
  0.155895997553393     
  0.155904821922160     
  0.155902976525199     
  0.155901361177566     
  0.155899947653955     
  0.155898708798464     
  0.155897618853436     
  0.155896653691256     
  0.155895790959152     
  0.155895010156142     
  0.155894292668001     
  0.155893621789343     
  0.155892982761266     
  0.155892362848579     
  0.155891751473160     
  0.155891140410237     
  0.155896699368427     
  0.155895134563834     
  0.155893800147225     
  0.155892664230143     
  0.155891696480212     
  0.155890868453967     
  0.155890153800234     
  0.155889528347097     
  0.155888970099726     
  0.155888459186577     
  0.155887977796193     
  0.155887510145786     
  0.155887042516559     
  0.155886563380197     
  0.155886063627612     
  0.155888051446385     
  0.155886807126555     
  0.155885791479564     
  0.155884968606217     
  0.155884304777205     
  0.155883768772115     
  0.155883332039877     
  0.155882968698451     
  0.155882655413716     
  0.155882371212521     
  0.155882097291144     
  0.155881816878334     
  0.155881515202974     
  0.155881179601638     
  0.155880799782833     
  0.155878893061888     
  0.155878013224911     
  0.155877357686896     
  0.155876886149391     
  0.155876561270652     
  0.155876349018100     
  0.155876218765701     
  0.155876143163188     
  0.155876097837886     
  0.155876061010708     
  0.155876013115016     
  0.155875936502476     
  0.155875815306405     
  0.155875635512486     
  0.155875385261285     
  0.155869243718619     
  0.155868776806433     
  0.155868526423313     
  0.155868447406451     
  0.155868498583550     
  0.155868643152412     
  0.155868848684000     
  0.155869086795144     
  0.155869332587203     
  0.155869563973196     
  0.155869761020948     
  0.155869905429779     
  0.155869980238149     
  0.155869969831807     
  0.155869860287317     
  0.155859128184339     
  0.155859127540867     
  0.155859331339128     
  0.155859688947434     
  0.155860155129266     
  0.155860690468502     
  0.155861261223082     
  0.155861838695523     
  0.155862398279413     
  0.155862918367149     
  0.155863379298958     
  0.155863762512127     
  0.155864050021668     
  0.155864224328773     
  0.155864268808283     
  0.155848577201549     
  0.155849101762416     
  0.155849813160969     
  0.155850654448367     
  0.155851576060319     
  0.155852536300623     
  0.155853500937484     
  0.155854442095514     
  0.155855336715934     
  0.155856164864450     
  0.155856908129970     
  0.155857548316418     
  0.155858066596848     
  0.155858443266114     
  0.155858658173392     
  0.155837628262122     
  0.155838743672563     
  0.155840021145280     
  0.155841396157311     
  0.155842814524783     
  0.155844232914545     
  0.155845617956817     
  0.155846944353606     
  0.155848192463860     
  0.155849345776748     
  0.155850388571935     
  0.155851303989316     
  0.155852072714910     
  0.155852672480972     
  0.155853078534667     
  0.155826326502873     
  0.155828107009885     
  0.155830015171954     
  0.155831976980905     
  0.155833933384078     
  0.155835840644860     
  0.155837668476164     
  0.155839396825473     
  0.155841012171634     
  0.155842503902666     
  0.155843861051392     
  0.155845069556685     
  0.155846110258224     
  0.155846957961397     
  0.155847581879138     
  0.155814725870724     
  0.155817257606168     
  0.155819868973265     
  0.155822473576847     
  0.155825007588317     
  0.155827429312103     
  0.155829715235358     
  0.155831854532096     
  0.155833843544047     
  0.155835680888192     
  0.155837363209612     
  0.155838881433907     
  0.155840217731351     
  0.155841343694061     
  0.155842220575197     
  0.155802890918069     
  0.155806277732438     
  0.155809675441740     
  0.155812981061293     
  0.155816127386827     
  0.155819079813973     
  0.155821827810423     
  0.155824375505985     
  0.155826733921983     
  0.155828915057694     
  0.155830926935969     
  0.155832768843640     
  0.155834426470612     
  0.155835868402341     
  0.155837045244515     
  0.155790900211956     
  0.155795274267822     
  0.155799555911712     
  0.155803620184955     
  0.155807402264881     
  0.155810885399559     
  0.155814082281012     
  0.155817019646776     
  0.155819728546896     
  0.155822238803172     
  0.155824574601136     
  0.155826748597387     
  0.155828754855582     
  0.155830560266442     
  0.155832101676164     
  0.155778853832635     
  0.155784396129209     
  0.155789677101225     
  0.155794547630563     
  0.155798964428738     
  0.155802951156015     
  0.155806559582556     
  0.155809846911225     
  0.155812868744736     
  0.155815676320715     
  0.155818314536521     
  0.155820818220881     
  0.155823198241718     
  0.155825428253968     
  0.155827425556454     
  0.155766896531688     
  0.155773874769506     
  0.155780282825087     
  0.155785967256012     
  0.155790966399618     
  0.155795389799359     
  0.155799341692643     
  0.155802914744618     
  0.155806190548573     
  0.155809242642773     
  0.155812139394032     
  0.155814944597266     
  0.155817714888227     
  0.155820440892493     
  0.155823035088660     
  0.155755289298850     
  0.155764142900597     
  0.155771742399941     
  0.155778116124417     
  0.155783568594813     
  0.155788311648696     
  0.155792505360291     
  0.155796274876621     
  0.155799724144153     
  0.155802945661506     
  0.155806028817918     
  0.155809069072607     
  0.155812175881999     
  0.155815502203566     
  0.155818893415431     
  0.155744949689050     
  0.155756106629630     
  0.155764454799658     
  0.155771224993249     
  0.155776912162612     
  0.155781809816520     
  0.155786114041900     
  0.155789969898500     
  0.155793494343037     
  0.155796790804814     
  0.155799961428510     
  0.155803121752588     
  0.155806427901210     
  0.155810133030622     
  0.155814968439505     
