# vtk DataFile Version 3.0
vtk output
ASCII
DATASET UNSTRUCTURED_GRID
POINTS       496 double 
  0.00000000E+00  3.00000000E+02  0.00000000E+00
  0.00000000E+00  2.80000000E+02  0.00000000E+00
  0.00000000E+00  2.60000000E+02  0.00000000E+00
  0.00000000E+00  2.40000000E+02  0.00000000E+00
  0.00000000E+00  2.20000000E+02  0.00000000E+00
  0.00000000E+00  2.00000000E+02  0.00000000E+00
  0.00000000E+00  1.80000000E+02  0.00000000E+00
  0.00000000E+00  1.60000000E+02  0.00000000E+00
  0.00000000E+00  1.40000000E+02  0.00000000E+00
  0.00000000E+00  1.20000000E+02  0.00000000E+00
  0.00000000E+00  1.00000000E+02  0.00000000E+00
  0.00000000E+00  8.00000000E+01  0.00000000E+00
  0.00000000E+00  6.00000000E+01  0.00000000E+00
  0.00000000E+00  4.00000000E+01  0.00000000E+00
  0.00000000E+00  2.00000000E+01  0.00000000E+00
  0.00000000E+00  4.99600361E-14  0.00000000E+00
  2.00000000E+01  3.00000000E+02  0.00000000E+00
  2.00000000E+01  2.80000000E+02  0.00000000E+00
  2.00000000E+01  2.60000000E+02  0.00000000E+00
  2.00000000E+01  2.40000000E+02  0.00000000E+00
  2.00000000E+01  2.20000000E+02  0.00000000E+00
  2.00000000E+01  2.00000000E+02  0.00000000E+00
  2.00000000E+01  1.80000000E+02  0.00000000E+00
  2.00000000E+01  1.60000000E+02  0.00000000E+00
  2.00000000E+01  1.40000000E+02  0.00000000E+00
  2.00000000E+01  1.20000000E+02  0.00000000E+00
  2.00000000E+01  1.00000000E+02  0.00000000E+00
  2.00000000E+01  8.00000000E+01  0.00000000E+00
  2.00000000E+01  6.00000000E+01  0.00000000E+00
  2.00000000E+01  4.00000000E+01  0.00000000E+00
  2.00000000E+01  2.00000000E+01  0.00000000E+00
  2.00000000E+01  4.99600361E-14  0.00000000E+00
  4.00000000E+01  3.00000000E+02  0.00000000E+00
  4.00000000E+01  2.80000000E+02  0.00000000E+00
  4.00000000E+01  2.60000000E+02  0.00000000E+00
  4.00000000E+01  2.40000000E+02  0.00000000E+00
  4.00000000E+01  2.20000000E+02  0.00000000E+00
  4.00000000E+01  2.00000000E+02  0.00000000E+00
  4.00000000E+01  1.80000000E+02  0.00000000E+00
  4.00000000E+01  1.60000000E+02  0.00000000E+00
  4.00000000E+01  1.40000000E+02  0.00000000E+00
  4.00000000E+01  1.20000000E+02  0.00000000E+00
  4.00000000E+01  1.00000000E+02  0.00000000E+00
  4.00000000E+01  8.00000000E+01  0.00000000E+00
  4.00000000E+01  6.00000000E+01  0.00000000E+00
  4.00000000E+01  4.00000000E+01  0.00000000E+00
  4.00000000E+01  2.00000000E+01  0.00000000E+00
  4.00000000E+01  4.99600361E-14  0.00000000E+00
  6.00000000E+01  3.00000000E+02  0.00000000E+00
  6.00000000E+01  2.80000000E+02  0.00000000E+00
  6.00000000E+01  2.60000000E+02  0.00000000E+00
  6.00000000E+01  2.40000000E+02  0.00000000E+00
  6.00000000E+01  2.20000000E+02  0.00000000E+00
  6.00000000E+01  2.00000000E+02  0.00000000E+00
  6.00000000E+01  1.80000000E+02  0.00000000E+00
  6.00000000E+01  1.60000000E+02  0.00000000E+00
  6.00000000E+01  1.40000000E+02  0.00000000E+00
  6.00000000E+01  1.20000000E+02  0.00000000E+00
  6.00000000E+01  1.00000000E+02  0.00000000E+00
  6.00000000E+01  8.00000000E+01  0.00000000E+00
  6.00000000E+01  6.00000000E+01  0.00000000E+00
  6.00000000E+01  4.00000000E+01  0.00000000E+00
  6.00000000E+01  2.00000000E+01  0.00000000E+00
  6.00000000E+01  4.99600361E-14  0.00000000E+00
  8.00000000E+01  3.00000000E+02  0.00000000E+00
  8.00000000E+01  2.80000000E+02  0.00000000E+00
  8.00000000E+01  2.60000000E+02  0.00000000E+00
  8.00000000E+01  2.40000000E+02  0.00000000E+00
  8.00000000E+01  2.20000000E+02  0.00000000E+00
  8.00000000E+01  2.00000000E+02  0.00000000E+00
  8.00000000E+01  1.80000000E+02  0.00000000E+00
  8.00000000E+01  1.60000000E+02  0.00000000E+00
  8.00000000E+01  1.40000000E+02  0.00000000E+00
  8.00000000E+01  1.20000000E+02  0.00000000E+00
  8.00000000E+01  1.00000000E+02  0.00000000E+00
  8.00000000E+01  8.00000000E+01  0.00000000E+00
  8.00000000E+01  6.00000000E+01  0.00000000E+00
  8.00000000E+01  4.00000000E+01  0.00000000E+00
  8.00000000E+01  2.00000000E+01  0.00000000E+00
  8.00000000E+01  4.99600361E-14  0.00000000E+00
  1.00000000E+02  3.00000000E+02  0.00000000E+00
  1.00000000E+02  2.80000000E+02  0.00000000E+00
  1.00000000E+02  2.60000000E+02  0.00000000E+00
  1.00000000E+02  2.40000000E+02  0.00000000E+00
  1.00000000E+02  2.20000000E+02  0.00000000E+00
  1.00000000E+02  2.00000000E+02  0.00000000E+00
  1.00000000E+02  1.80000000E+02  0.00000000E+00
  1.00000000E+02  1.60000000E+02  0.00000000E+00
  1.00000000E+02  1.40000000E+02  0.00000000E+00
  1.00000000E+02  1.20000000E+02  0.00000000E+00
  1.00000000E+02  1.00000000E+02  0.00000000E+00
  1.00000000E+02  8.00000000E+01  0.00000000E+00
  1.00000000E+02  6.00000000E+01  0.00000000E+00
  1.00000000E+02  4.00000000E+01  0.00000000E+00
  1.00000000E+02  2.00000000E+01  0.00000000E+00
  1.00000000E+02  4.99600361E-14  0.00000000E+00
  1.20000000E+02  3.00000000E+02  0.00000000E+00
  1.20000000E+02  2.80000000E+02  0.00000000E+00
  1.20000000E+02  2.60000000E+02  0.00000000E+00
  1.20000000E+02  2.40000000E+02  0.00000000E+00
  1.20000000E+02  2.20000000E+02  0.00000000E+00
  1.20000000E+02  2.00000000E+02  0.00000000E+00
  1.20000000E+02  1.80000000E+02  0.00000000E+00
  1.20000000E+02  1.60000000E+02  0.00000000E+00
  1.20000000E+02  1.40000000E+02  0.00000000E+00
  1.20000000E+02  1.20000000E+02  0.00000000E+00
  1.20000000E+02  1.00000000E+02  0.00000000E+00
  1.20000000E+02  8.00000000E+01  0.00000000E+00
  1.20000000E+02  6.00000000E+01  0.00000000E+00
  1.20000000E+02  4.00000000E+01  0.00000000E+00
  1.20000000E+02  2.00000000E+01  0.00000000E+00
  1.20000000E+02  4.99600361E-14  0.00000000E+00
  1.40000000E+02  3.00000000E+02  0.00000000E+00
  1.40000000E+02  2.80000000E+02  0.00000000E+00
  1.40000000E+02  2.60000000E+02  0.00000000E+00
  1.40000000E+02  2.40000000E+02  0.00000000E+00
  1.40000000E+02  2.20000000E+02  0.00000000E+00
  1.40000000E+02  2.00000000E+02  0.00000000E+00
  1.40000000E+02  1.80000000E+02  0.00000000E+00
  1.40000000E+02  1.60000000E+02  0.00000000E+00
  1.40000000E+02  1.40000000E+02  0.00000000E+00
  1.40000000E+02  1.20000000E+02  0.00000000E+00
  1.40000000E+02  1.00000000E+02  0.00000000E+00
  1.40000000E+02  8.00000000E+01  0.00000000E+00
  1.40000000E+02  6.00000000E+01  0.00000000E+00
  1.40000000E+02  4.00000000E+01  0.00000000E+00
  1.40000000E+02  2.00000000E+01  0.00000000E+00
  1.40000000E+02  4.99600361E-14  0.00000000E+00
  1.60000000E+02  3.00000000E+02  0.00000000E+00
  1.60000000E+02  2.80000000E+02  0.00000000E+00
  1.60000000E+02  2.60000000E+02  0.00000000E+00
  1.60000000E+02  2.40000000E+02  0.00000000E+00
  1.60000000E+02  2.20000000E+02  0.00000000E+00
  1.60000000E+02  2.00000000E+02  0.00000000E+00
  1.60000000E+02  1.80000000E+02  0.00000000E+00
  1.60000000E+02  1.60000000E+02  0.00000000E+00
  1.60000000E+02  1.40000000E+02  0.00000000E+00
  1.60000000E+02  1.20000000E+02  0.00000000E+00
  1.60000000E+02  1.00000000E+02  0.00000000E+00
  1.60000000E+02  8.00000000E+01  0.00000000E+00
  1.60000000E+02  6.00000000E+01  0.00000000E+00
  1.60000000E+02  4.00000000E+01  0.00000000E+00
  1.60000000E+02  2.00000000E+01  0.00000000E+00
  1.60000000E+02  4.99600361E-14  0.00000000E+00
  1.80000000E+02  3.00000000E+02  0.00000000E+00
  1.80000000E+02  2.80000000E+02  0.00000000E+00
  1.80000000E+02  2.60000000E+02  0.00000000E+00
  1.80000000E+02  2.40000000E+02  0.00000000E+00
  1.80000000E+02  2.20000000E+02  0.00000000E+00
  1.80000000E+02  2.00000000E+02  0.00000000E+00
  1.80000000E+02  1.80000000E+02  0.00000000E+00
  1.80000000E+02  1.60000000E+02  0.00000000E+00
  1.80000000E+02  1.40000000E+02  0.00000000E+00
  1.80000000E+02  1.20000000E+02  0.00000000E+00
  1.80000000E+02  1.00000000E+02  0.00000000E+00
  1.80000000E+02  8.00000000E+01  0.00000000E+00
  1.80000000E+02  6.00000000E+01  0.00000000E+00
  1.80000000E+02  4.00000000E+01  0.00000000E+00
  1.80000000E+02  2.00000000E+01  0.00000000E+00
  1.80000000E+02  4.99600361E-14  0.00000000E+00
  2.00000000E+02  3.00000000E+02  0.00000000E+00
  2.00000000E+02  2.80000000E+02  0.00000000E+00
  2.00000000E+02  2.60000000E+02  0.00000000E+00
  2.00000000E+02  2.40000000E+02  0.00000000E+00
  2.00000000E+02  2.20000000E+02  0.00000000E+00
  2.00000000E+02  2.00000000E+02  0.00000000E+00
  2.00000000E+02  1.80000000E+02  0.00000000E+00
  2.00000000E+02  1.60000000E+02  0.00000000E+00
  2.00000000E+02  1.40000000E+02  0.00000000E+00
  2.00000000E+02  1.20000000E+02  0.00000000E+00
  2.00000000E+02  1.00000000E+02  0.00000000E+00
  2.00000000E+02  8.00000000E+01  0.00000000E+00
  2.00000000E+02  6.00000000E+01  0.00000000E+00
  2.00000000E+02  4.00000000E+01  0.00000000E+00
  2.00000000E+02  2.00000000E+01  0.00000000E+00
  2.00000000E+02  4.99600361E-14  0.00000000E+00
  2.20000000E+02  3.00000000E+02  0.00000000E+00
  2.20000000E+02  2.80000000E+02  0.00000000E+00
  2.20000000E+02  2.60000000E+02  0.00000000E+00
  2.20000000E+02  2.40000000E+02  0.00000000E+00
  2.20000000E+02  2.20000000E+02  0.00000000E+00
  2.20000000E+02  2.00000000E+02  0.00000000E+00
  2.20000000E+02  1.80000000E+02  0.00000000E+00
  2.20000000E+02  1.60000000E+02  0.00000000E+00
  2.20000000E+02  1.40000000E+02  0.00000000E+00
  2.20000000E+02  1.20000000E+02  0.00000000E+00
  2.20000000E+02  1.00000000E+02  0.00000000E+00
  2.20000000E+02  8.00000000E+01  0.00000000E+00
  2.20000000E+02  6.00000000E+01  0.00000000E+00
  2.20000000E+02  4.00000000E+01  0.00000000E+00
  2.20000000E+02  2.00000000E+01  0.00000000E+00
  2.20000000E+02  4.99600361E-14  0.00000000E+00
  2.40000000E+02  3.00000000E+02  0.00000000E+00
  2.40000000E+02  2.80000000E+02  0.00000000E+00
  2.40000000E+02  2.60000000E+02  0.00000000E+00
  2.40000000E+02  2.40000000E+02  0.00000000E+00
  2.40000000E+02  2.20000000E+02  0.00000000E+00
  2.40000000E+02  2.00000000E+02  0.00000000E+00
  2.40000000E+02  1.80000000E+02  0.00000000E+00
  2.40000000E+02  1.60000000E+02  0.00000000E+00
  2.40000000E+02  1.40000000E+02  0.00000000E+00
  2.40000000E+02  1.20000000E+02  0.00000000E+00
  2.40000000E+02  1.00000000E+02  0.00000000E+00
  2.40000000E+02  8.00000000E+01  0.00000000E+00
  2.40000000E+02  6.00000000E+01  0.00000000E+00
  2.40000000E+02  4.00000000E+01  0.00000000E+00
  2.40000000E+02  2.00000000E+01  0.00000000E+00
  2.40000000E+02  4.99600361E-14  0.00000000E+00
  2.60000000E+02  3.00000000E+02  0.00000000E+00
  2.60000000E+02  2.80000000E+02  0.00000000E+00
  2.60000000E+02  2.60000000E+02  0.00000000E+00
  2.60000000E+02  2.40000000E+02  0.00000000E+00
  2.60000000E+02  2.20000000E+02  0.00000000E+00
  2.60000000E+02  2.00000000E+02  0.00000000E+00
  2.60000000E+02  1.80000000E+02  0.00000000E+00
  2.60000000E+02  1.60000000E+02  0.00000000E+00
  2.60000000E+02  1.40000000E+02  0.00000000E+00
  2.60000000E+02  1.20000000E+02  0.00000000E+00
  2.60000000E+02  1.00000000E+02  0.00000000E+00
  2.60000000E+02  8.00000000E+01  0.00000000E+00
  2.60000000E+02  6.00000000E+01  0.00000000E+00
  2.60000000E+02  4.00000000E+01  0.00000000E+00
  2.60000000E+02  2.00000000E+01  0.00000000E+00
  2.60000000E+02  4.99600361E-14  0.00000000E+00
  2.80000000E+02  3.00000000E+02  0.00000000E+00
  2.80000000E+02  2.80000000E+02  0.00000000E+00
  2.80000000E+02  2.60000000E+02  0.00000000E+00
  2.80000000E+02  2.40000000E+02  0.00000000E+00
  2.80000000E+02  2.20000000E+02  0.00000000E+00
  2.80000000E+02  2.00000000E+02  0.00000000E+00
  2.80000000E+02  1.80000000E+02  0.00000000E+00
  2.80000000E+02  1.60000000E+02  0.00000000E+00
  2.80000000E+02  1.40000000E+02  0.00000000E+00
  2.80000000E+02  1.20000000E+02  0.00000000E+00
  2.80000000E+02  1.00000000E+02  0.00000000E+00
  2.80000000E+02  8.00000000E+01  0.00000000E+00
  2.80000000E+02  6.00000000E+01  0.00000000E+00
  2.80000000E+02  4.00000000E+01  0.00000000E+00
  2.80000000E+02  2.00000000E+01  0.00000000E+00
  2.80000000E+02  4.99600361E-14  0.00000000E+00
  3.00000000E+02  3.00000000E+02  0.00000000E+00
  3.00000000E+02  2.80000000E+02  0.00000000E+00
  3.00000000E+02  2.60000000E+02  0.00000000E+00
  3.00000000E+02  2.40000000E+02  0.00000000E+00
  3.00000000E+02  2.20000000E+02  0.00000000E+00
  3.00000000E+02  2.00000000E+02  0.00000000E+00
  3.00000000E+02  1.80000000E+02  0.00000000E+00
  3.00000000E+02  1.60000000E+02  0.00000000E+00
  3.00000000E+02  1.40000000E+02  0.00000000E+00
  3.00000000E+02  1.20000000E+02  0.00000000E+00
  3.00000000E+02  1.00000000E+02  0.00000000E+00
  3.00000000E+02  8.00000000E+01  0.00000000E+00
  3.00000000E+02  6.00000000E+01  0.00000000E+00
  3.00000000E+02  4.00000000E+01  0.00000000E+00
  3.00000000E+02  2.00000000E+01  0.00000000E+00
  3.00000000E+02  4.99600361E-14  0.00000000E+00
  3.20000000E+02  3.00000000E+02  0.00000000E+00
  3.20000000E+02  2.80000000E+02  0.00000000E+00
  3.20000000E+02  2.60000000E+02  0.00000000E+00
  3.20000000E+02  2.40000000E+02  0.00000000E+00
  3.20000000E+02  2.20000000E+02  0.00000000E+00
  3.20000000E+02  2.00000000E+02  0.00000000E+00
  3.20000000E+02  1.80000000E+02  0.00000000E+00
  3.20000000E+02  1.60000000E+02  0.00000000E+00
  3.20000000E+02  1.40000000E+02  0.00000000E+00
  3.20000000E+02  1.20000000E+02  0.00000000E+00
  3.20000000E+02  1.00000000E+02  0.00000000E+00
  3.20000000E+02  8.00000000E+01  0.00000000E+00
  3.20000000E+02  6.00000000E+01  0.00000000E+00
  3.20000000E+02  4.00000000E+01  0.00000000E+00
  3.20000000E+02  2.00000000E+01  0.00000000E+00
  3.20000000E+02  4.99600361E-14  0.00000000E+00
  3.40000000E+02  3.00000000E+02  0.00000000E+00
  3.40000000E+02  2.80000000E+02  0.00000000E+00
  3.40000000E+02  2.60000000E+02  0.00000000E+00
  3.40000000E+02  2.40000000E+02  0.00000000E+00
  3.40000000E+02  2.20000000E+02  0.00000000E+00
  3.40000000E+02  2.00000000E+02  0.00000000E+00
  3.40000000E+02  1.80000000E+02  0.00000000E+00
  3.40000000E+02  1.60000000E+02  0.00000000E+00
  3.40000000E+02  1.40000000E+02  0.00000000E+00
  3.40000000E+02  1.20000000E+02  0.00000000E+00
  3.40000000E+02  1.00000000E+02  0.00000000E+00
  3.40000000E+02  8.00000000E+01  0.00000000E+00
  3.40000000E+02  6.00000000E+01  0.00000000E+00
  3.40000000E+02  4.00000000E+01  0.00000000E+00
  3.40000000E+02  2.00000000E+01  0.00000000E+00
  3.40000000E+02  4.99600361E-14  0.00000000E+00
  3.60000000E+02  3.00000000E+02  0.00000000E+00
  3.60000000E+02  2.80000000E+02  0.00000000E+00
  3.60000000E+02  2.60000000E+02  0.00000000E+00
  3.60000000E+02  2.40000000E+02  0.00000000E+00
  3.60000000E+02  2.20000000E+02  0.00000000E+00
  3.60000000E+02  2.00000000E+02  0.00000000E+00
  3.60000000E+02  1.80000000E+02  0.00000000E+00
  3.60000000E+02  1.60000000E+02  0.00000000E+00
  3.60000000E+02  1.40000000E+02  0.00000000E+00
  3.60000000E+02  1.20000000E+02  0.00000000E+00
  3.60000000E+02  1.00000000E+02  0.00000000E+00
  3.60000000E+02  8.00000000E+01  0.00000000E+00
  3.60000000E+02  6.00000000E+01  0.00000000E+00
  3.60000000E+02  4.00000000E+01  0.00000000E+00
  3.60000000E+02  2.00000000E+01  0.00000000E+00
  3.60000000E+02  4.99600361E-14  0.00000000E+00
  3.80000000E+02  3.00000000E+02  0.00000000E+00
  3.80000000E+02  2.80000000E+02  0.00000000E+00
  3.80000000E+02  2.60000000E+02  0.00000000E+00
  3.80000000E+02  2.40000000E+02  0.00000000E+00
  3.80000000E+02  2.20000000E+02  0.00000000E+00
  3.80000000E+02  2.00000000E+02  0.00000000E+00
  3.80000000E+02  1.80000000E+02  0.00000000E+00
  3.80000000E+02  1.60000000E+02  0.00000000E+00
  3.80000000E+02  1.40000000E+02  0.00000000E+00
  3.80000000E+02  1.20000000E+02  0.00000000E+00
  3.80000000E+02  1.00000000E+02  0.00000000E+00
  3.80000000E+02  8.00000000E+01  0.00000000E+00
  3.80000000E+02  6.00000000E+01  0.00000000E+00
  3.80000000E+02  4.00000000E+01  0.00000000E+00
  3.80000000E+02  2.00000000E+01  0.00000000E+00
  3.80000000E+02  4.99600361E-14  0.00000000E+00
  4.00000000E+02  3.00000000E+02  0.00000000E+00
  4.00000000E+02  2.80000000E+02  0.00000000E+00
  4.00000000E+02  2.60000000E+02  0.00000000E+00
  4.00000000E+02  2.40000000E+02  0.00000000E+00
  4.00000000E+02  2.20000000E+02  0.00000000E+00
  4.00000000E+02  2.00000000E+02  0.00000000E+00
  4.00000000E+02  1.80000000E+02  0.00000000E+00
  4.00000000E+02  1.60000000E+02  0.00000000E+00
  4.00000000E+02  1.40000000E+02  0.00000000E+00
  4.00000000E+02  1.20000000E+02  0.00000000E+00
  4.00000000E+02  1.00000000E+02  0.00000000E+00
  4.00000000E+02  8.00000000E+01  0.00000000E+00
  4.00000000E+02  6.00000000E+01  0.00000000E+00
  4.00000000E+02  4.00000000E+01  0.00000000E+00
  4.00000000E+02  2.00000000E+01  0.00000000E+00
  4.00000000E+02  4.99600361E-14  0.00000000E+00
  4.20000000E+02  3.00000000E+02  0.00000000E+00
  4.20000000E+02  2.80000000E+02  0.00000000E+00
  4.20000000E+02  2.60000000E+02  0.00000000E+00
  4.20000000E+02  2.40000000E+02  0.00000000E+00
  4.20000000E+02  2.20000000E+02  0.00000000E+00
  4.20000000E+02  2.00000000E+02  0.00000000E+00
  4.20000000E+02  1.80000000E+02  0.00000000E+00
  4.20000000E+02  1.60000000E+02  0.00000000E+00
  4.20000000E+02  1.40000000E+02  0.00000000E+00
  4.20000000E+02  1.20000000E+02  0.00000000E+00
  4.20000000E+02  1.00000000E+02  0.00000000E+00
  4.20000000E+02  8.00000000E+01  0.00000000E+00
  4.20000000E+02  6.00000000E+01  0.00000000E+00
  4.20000000E+02  4.00000000E+01  0.00000000E+00
  4.20000000E+02  2.00000000E+01  0.00000000E+00
  4.20000000E+02  4.99600361E-14  0.00000000E+00
  4.40000000E+02  3.00000000E+02  0.00000000E+00
  4.40000000E+02  2.80000000E+02  0.00000000E+00
  4.40000000E+02  2.60000000E+02  0.00000000E+00
  4.40000000E+02  2.40000000E+02  0.00000000E+00
  4.40000000E+02  2.20000000E+02  0.00000000E+00
  4.40000000E+02  2.00000000E+02  0.00000000E+00
  4.40000000E+02  1.80000000E+02  0.00000000E+00
  4.40000000E+02  1.60000000E+02  0.00000000E+00
  4.40000000E+02  1.40000000E+02  0.00000000E+00
  4.40000000E+02  1.20000000E+02  0.00000000E+00
  4.40000000E+02  1.00000000E+02  0.00000000E+00
  4.40000000E+02  8.00000000E+01  0.00000000E+00
  4.40000000E+02  6.00000000E+01  0.00000000E+00
  4.40000000E+02  4.00000000E+01  0.00000000E+00
  4.40000000E+02  2.00000000E+01  0.00000000E+00
  4.40000000E+02  4.99600361E-14  0.00000000E+00
  4.60000000E+02  3.00000000E+02  0.00000000E+00
  4.60000000E+02  2.80000000E+02  0.00000000E+00
  4.60000000E+02  2.60000000E+02  0.00000000E+00
  4.60000000E+02  2.40000000E+02  0.00000000E+00
  4.60000000E+02  2.20000000E+02  0.00000000E+00
  4.60000000E+02  2.00000000E+02  0.00000000E+00
  4.60000000E+02  1.80000000E+02  0.00000000E+00
  4.60000000E+02  1.60000000E+02  0.00000000E+00
  4.60000000E+02  1.40000000E+02  0.00000000E+00
  4.60000000E+02  1.20000000E+02  0.00000000E+00
  4.60000000E+02  1.00000000E+02  0.00000000E+00
  4.60000000E+02  8.00000000E+01  0.00000000E+00
  4.60000000E+02  6.00000000E+01  0.00000000E+00
  4.60000000E+02  4.00000000E+01  0.00000000E+00
  4.60000000E+02  2.00000000E+01  0.00000000E+00
  4.60000000E+02  4.99600361E-14  0.00000000E+00
  4.80000000E+02  3.00000000E+02  0.00000000E+00
  4.80000000E+02  2.80000000E+02  0.00000000E+00
  4.80000000E+02  2.60000000E+02  0.00000000E+00
  4.80000000E+02  2.40000000E+02  0.00000000E+00
  4.80000000E+02  2.20000000E+02  0.00000000E+00
  4.80000000E+02  2.00000000E+02  0.00000000E+00
  4.80000000E+02  1.80000000E+02  0.00000000E+00
  4.80000000E+02  1.60000000E+02  0.00000000E+00
  4.80000000E+02  1.40000000E+02  0.00000000E+00
  4.80000000E+02  1.20000000E+02  0.00000000E+00
  4.80000000E+02  1.00000000E+02  0.00000000E+00
  4.80000000E+02  8.00000000E+01  0.00000000E+00
  4.80000000E+02  6.00000000E+01  0.00000000E+00
  4.80000000E+02  4.00000000E+01  0.00000000E+00
  4.80000000E+02  2.00000000E+01  0.00000000E+00
  4.80000000E+02  4.99600361E-14  0.00000000E+00
  5.00000000E+02  3.00000000E+02  0.00000000E+00
  5.00000000E+02  2.80000000E+02  0.00000000E+00
  5.00000000E+02  2.60000000E+02  0.00000000E+00
  5.00000000E+02  2.40000000E+02  0.00000000E+00
  5.00000000E+02  2.20000000E+02  0.00000000E+00
  5.00000000E+02  2.00000000E+02  0.00000000E+00
  5.00000000E+02  1.80000000E+02  0.00000000E+00
  5.00000000E+02  1.60000000E+02  0.00000000E+00
  5.00000000E+02  1.40000000E+02  0.00000000E+00
  5.00000000E+02  1.20000000E+02  0.00000000E+00
  5.00000000E+02  1.00000000E+02  0.00000000E+00
  5.00000000E+02  8.00000000E+01  0.00000000E+00
  5.00000000E+02  6.00000000E+01  0.00000000E+00
  5.00000000E+02  4.00000000E+01  0.00000000E+00
  5.00000000E+02  2.00000000E+01  0.00000000E+00
  5.00000000E+02  4.99600361E-14  0.00000000E+00
  5.20000000E+02  3.00000000E+02  0.00000000E+00
  5.20000000E+02  2.80000000E+02  0.00000000E+00
  5.20000000E+02  2.60000000E+02  0.00000000E+00
  5.20000000E+02  2.40000000E+02  0.00000000E+00
  5.20000000E+02  2.20000000E+02  0.00000000E+00
  5.20000000E+02  2.00000000E+02  0.00000000E+00
  5.20000000E+02  1.80000000E+02  0.00000000E+00
  5.20000000E+02  1.60000000E+02  0.00000000E+00
  5.20000000E+02  1.40000000E+02  0.00000000E+00
  5.20000000E+02  1.20000000E+02  0.00000000E+00
  5.20000000E+02  1.00000000E+02  0.00000000E+00
  5.20000000E+02  8.00000000E+01  0.00000000E+00
  5.20000000E+02  6.00000000E+01  0.00000000E+00
  5.20000000E+02  4.00000000E+01  0.00000000E+00
  5.20000000E+02  2.00000000E+01  0.00000000E+00
  5.20000000E+02  4.99600361E-14  0.00000000E+00
  5.40000000E+02  3.00000000E+02  0.00000000E+00
  5.40000000E+02  2.80000000E+02  0.00000000E+00
  5.40000000E+02  2.60000000E+02  0.00000000E+00
  5.40000000E+02  2.40000000E+02  0.00000000E+00
  5.40000000E+02  2.20000000E+02  0.00000000E+00
  5.40000000E+02  2.00000000E+02  0.00000000E+00
  5.40000000E+02  1.80000000E+02  0.00000000E+00
  5.40000000E+02  1.60000000E+02  0.00000000E+00
  5.40000000E+02  1.40000000E+02  0.00000000E+00
  5.40000000E+02  1.20000000E+02  0.00000000E+00
  5.40000000E+02  1.00000000E+02  0.00000000E+00
  5.40000000E+02  8.00000000E+01  0.00000000E+00
  5.40000000E+02  6.00000000E+01  0.00000000E+00
  5.40000000E+02  4.00000000E+01  0.00000000E+00
  5.40000000E+02  2.00000000E+01  0.00000000E+00
  5.40000000E+02  4.99600361E-14  0.00000000E+00
  5.60000000E+02  3.00000000E+02  0.00000000E+00
  5.60000000E+02  2.80000000E+02  0.00000000E+00
  5.60000000E+02  2.60000000E+02  0.00000000E+00
  5.60000000E+02  2.40000000E+02  0.00000000E+00
  5.60000000E+02  2.20000000E+02  0.00000000E+00
  5.60000000E+02  2.00000000E+02  0.00000000E+00
  5.60000000E+02  1.80000000E+02  0.00000000E+00
  5.60000000E+02  1.60000000E+02  0.00000000E+00
  5.60000000E+02  1.40000000E+02  0.00000000E+00
  5.60000000E+02  1.20000000E+02  0.00000000E+00
  5.60000000E+02  1.00000000E+02  0.00000000E+00
  5.60000000E+02  8.00000000E+01  0.00000000E+00
  5.60000000E+02  6.00000000E+01  0.00000000E+00
  5.60000000E+02  4.00000000E+01  0.00000000E+00
  5.60000000E+02  2.00000000E+01  0.00000000E+00
  5.60000000E+02  4.99600361E-14  0.00000000E+00
  5.80000000E+02  3.00000000E+02  0.00000000E+00
  5.80000000E+02  2.80000000E+02  0.00000000E+00
  5.80000000E+02  2.60000000E+02  0.00000000E+00
  5.80000000E+02  2.40000000E+02  0.00000000E+00
  5.80000000E+02  2.20000000E+02  0.00000000E+00
  5.80000000E+02  2.00000000E+02  0.00000000E+00
  5.80000000E+02  1.80000000E+02  0.00000000E+00
  5.80000000E+02  1.60000000E+02  0.00000000E+00
  5.80000000E+02  1.40000000E+02  0.00000000E+00
  5.80000000E+02  1.20000000E+02  0.00000000E+00
  5.80000000E+02  1.00000000E+02  0.00000000E+00
  5.80000000E+02  8.00000000E+01  0.00000000E+00
  5.80000000E+02  6.00000000E+01  0.00000000E+00
  5.80000000E+02  4.00000000E+01  0.00000000E+00
  5.80000000E+02  2.00000000E+01  0.00000000E+00
  5.80000000E+02  4.99600361E-14  0.00000000E+00
  6.00000000E+02  3.00000000E+02  0.00000000E+00
  6.00000000E+02  2.80000000E+02  0.00000000E+00
  6.00000000E+02  2.60000000E+02  0.00000000E+00
  6.00000000E+02  2.40000000E+02  0.00000000E+00
  6.00000000E+02  2.20000000E+02  0.00000000E+00
  6.00000000E+02  2.00000000E+02  0.00000000E+00
  6.00000000E+02  1.80000000E+02  0.00000000E+00
  6.00000000E+02  1.60000000E+02  0.00000000E+00
  6.00000000E+02  1.40000000E+02  0.00000000E+00
  6.00000000E+02  1.20000000E+02  0.00000000E+00
  6.00000000E+02  1.00000000E+02  0.00000000E+00
  6.00000000E+02  8.00000000E+01  0.00000000E+00
  6.00000000E+02  6.00000000E+01  0.00000000E+00
  6.00000000E+02  4.00000000E+01  0.00000000E+00
  6.00000000E+02  2.00000000E+01  0.00000000E+00
  6.00000000E+02  4.99600361E-14  0.00000000E+00
CELLS       450      2250
         4           0           1          17          16
         4           1           2          18          17
         4           2           3          19          18
         4           3           4          20          19
         4           4           5          21          20
         4           5           6          22          21
         4           6           7          23          22
         4           7           8          24          23
         4           8           9          25          24
         4           9          10          26          25
         4          10          11          27          26
         4          11          12          28          27
         4          12          13          29          28
         4          13          14          30          29
         4          14          15          31          30
         4          16          17          33          32
         4          17          18          34          33
         4          18          19          35          34
         4          19          20          36          35
         4          20          21          37          36
         4          21          22          38          37
         4          22          23          39          38
         4          23          24          40          39
         4          24          25          41          40
         4          25          26          42          41
         4          26          27          43          42
         4          27          28          44          43
         4          28          29          45          44
         4          29          30          46          45
         4          30          31          47          46
         4          32          33          49          48
         4          33          34          50          49
         4          34          35          51          50
         4          35          36          52          51
         4          36          37          53          52
         4          37          38          54          53
         4          38          39          55          54
         4          39          40          56          55
         4          40          41          57          56
         4          41          42          58          57
         4          42          43          59          58
         4          43          44          60          59
         4          44          45          61          60
         4          45          46          62          61
         4          46          47          63          62
         4          48          49          65          64
         4          49          50          66          65
         4          50          51          67          66
         4          51          52          68          67
         4          52          53          69          68
         4          53          54          70          69
         4          54          55          71          70
         4          55          56          72          71
         4          56          57          73          72
         4          57          58          74          73
         4          58          59          75          74
         4          59          60          76          75
         4          60          61          77          76
         4          61          62          78          77
         4          62          63          79          78
         4          64          65          81          80
         4          65          66          82          81
         4          66          67          83          82
         4          67          68          84          83
         4          68          69          85          84
         4          69          70          86          85
         4          70          71          87          86
         4          71          72          88          87
         4          72          73          89          88
         4          73          74          90          89
         4          74          75          91          90
         4          75          76          92          91
         4          76          77          93          92
         4          77          78          94          93
         4          78          79          95          94
         4          80          81          97          96
         4          81          82          98          97
         4          82          83          99          98
         4          83          84         100          99
         4          84          85         101         100
         4          85          86         102         101
         4          86          87         103         102
         4          87          88         104         103
         4          88          89         105         104
         4          89          90         106         105
         4          90          91         107         106
         4          91          92         108         107
         4          92          93         109         108
         4          93          94         110         109
         4          94          95         111         110
         4          96          97         113         112
         4          97          98         114         113
         4          98          99         115         114
         4          99         100         116         115
         4         100         101         117         116
         4         101         102         118         117
         4         102         103         119         118
         4         103         104         120         119
         4         104         105         121         120
         4         105         106         122         121
         4         106         107         123         122
         4         107         108         124         123
         4         108         109         125         124
         4         109         110         126         125
         4         110         111         127         126
         4         112         113         129         128
         4         113         114         130         129
         4         114         115         131         130
         4         115         116         132         131
         4         116         117         133         132
         4         117         118         134         133
         4         118         119         135         134
         4         119         120         136         135
         4         120         121         137         136
         4         121         122         138         137
         4         122         123         139         138
         4         123         124         140         139
         4         124         125         141         140
         4         125         126         142         141
         4         126         127         143         142
         4         128         129         145         144
         4         129         130         146         145
         4         130         131         147         146
         4         131         132         148         147
         4         132         133         149         148
         4         133         134         150         149
         4         134         135         151         150
         4         135         136         152         151
         4         136         137         153         152
         4         137         138         154         153
         4         138         139         155         154
         4         139         140         156         155
         4         140         141         157         156
         4         141         142         158         157
         4         142         143         159         158
         4         144         145         161         160
         4         145         146         162         161
         4         146         147         163         162
         4         147         148         164         163
         4         148         149         165         164
         4         149         150         166         165
         4         150         151         167         166
         4         151         152         168         167
         4         152         153         169         168
         4         153         154         170         169
         4         154         155         171         170
         4         155         156         172         171
         4         156         157         173         172
         4         157         158         174         173
         4         158         159         175         174
         4         160         161         177         176
         4         161         162         178         177
         4         162         163         179         178
         4         163         164         180         179
         4         164         165         181         180
         4         165         166         182         181
         4         166         167         183         182
         4         167         168         184         183
         4         168         169         185         184
         4         169         170         186         185
         4         170         171         187         186
         4         171         172         188         187
         4         172         173         189         188
         4         173         174         190         189
         4         174         175         191         190
         4         176         177         193         192
         4         177         178         194         193
         4         178         179         195         194
         4         179         180         196         195
         4         180         181         197         196
         4         181         182         198         197
         4         182         183         199         198
         4         183         184         200         199
         4         184         185         201         200
         4         185         186         202         201
         4         186         187         203         202
         4         187         188         204         203
         4         188         189         205         204
         4         189         190         206         205
         4         190         191         207         206
         4         192         193         209         208
         4         193         194         210         209
         4         194         195         211         210
         4         195         196         212         211
         4         196         197         213         212
         4         197         198         214         213
         4         198         199         215         214
         4         199         200         216         215
         4         200         201         217         216
         4         201         202         218         217
         4         202         203         219         218
         4         203         204         220         219
         4         204         205         221         220
         4         205         206         222         221
         4         206         207         223         222
         4         208         209         225         224
         4         209         210         226         225
         4         210         211         227         226
         4         211         212         228         227
         4         212         213         229         228
         4         213         214         230         229
         4         214         215         231         230
         4         215         216         232         231
         4         216         217         233         232
         4         217         218         234         233
         4         218         219         235         234
         4         219         220         236         235
         4         220         221         237         236
         4         221         222         238         237
         4         222         223         239         238
         4         224         225         241         240
         4         225         226         242         241
         4         226         227         243         242
         4         227         228         244         243
         4         228         229         245         244
         4         229         230         246         245
         4         230         231         247         246
         4         231         232         248         247
         4         232         233         249         248
         4         233         234         250         249
         4         234         235         251         250
         4         235         236         252         251
         4         236         237         253         252
         4         237         238         254         253
         4         238         239         255         254
         4         240         241         257         256
         4         241         242         258         257
         4         242         243         259         258
         4         243         244         260         259
         4         244         245         261         260
         4         245         246         262         261
         4         246         247         263         262
         4         247         248         264         263
         4         248         249         265         264
         4         249         250         266         265
         4         250         251         267         266
         4         251         252         268         267
         4         252         253         269         268
         4         253         254         270         269
         4         254         255         271         270
         4         256         257         273         272
         4         257         258         274         273
         4         258         259         275         274
         4         259         260         276         275
         4         260         261         277         276
         4         261         262         278         277
         4         262         263         279         278
         4         263         264         280         279
         4         264         265         281         280
         4         265         266         282         281
         4         266         267         283         282
         4         267         268         284         283
         4         268         269         285         284
         4         269         270         286         285
         4         270         271         287         286
         4         272         273         289         288
         4         273         274         290         289
         4         274         275         291         290
         4         275         276         292         291
         4         276         277         293         292
         4         277         278         294         293
         4         278         279         295         294
         4         279         280         296         295
         4         280         281         297         296
         4         281         282         298         297
         4         282         283         299         298
         4         283         284         300         299
         4         284         285         301         300
         4         285         286         302         301
         4         286         287         303         302
         4         288         289         305         304
         4         289         290         306         305
         4         290         291         307         306
         4         291         292         308         307
         4         292         293         309         308
         4         293         294         310         309
         4         294         295         311         310
         4         295         296         312         311
         4         296         297         313         312
         4         297         298         314         313
         4         298         299         315         314
         4         299         300         316         315
         4         300         301         317         316
         4         301         302         318         317
         4         302         303         319         318
         4         304         305         321         320
         4         305         306         322         321
         4         306         307         323         322
         4         307         308         324         323
         4         308         309         325         324
         4         309         310         326         325
         4         310         311         327         326
         4         311         312         328         327
         4         312         313         329         328
         4         313         314         330         329
         4         314         315         331         330
         4         315         316         332         331
         4         316         317         333         332
         4         317         318         334         333
         4         318         319         335         334
         4         320         321         337         336
         4         321         322         338         337
         4         322         323         339         338
         4         323         324         340         339
         4         324         325         341         340
         4         325         326         342         341
         4         326         327         343         342
         4         327         328         344         343
         4         328         329         345         344
         4         329         330         346         345
         4         330         331         347         346
         4         331         332         348         347
         4         332         333         349         348
         4         333         334         350         349
         4         334         335         351         350
         4         336         337         353         352
         4         337         338         354         353
         4         338         339         355         354
         4         339         340         356         355
         4         340         341         357         356
         4         341         342         358         357
         4         342         343         359         358
         4         343         344         360         359
         4         344         345         361         360
         4         345         346         362         361
         4         346         347         363         362
         4         347         348         364         363
         4         348         349         365         364
         4         349         350         366         365
         4         350         351         367         366
         4         352         353         369         368
         4         353         354         370         369
         4         354         355         371         370
         4         355         356         372         371
         4         356         357         373         372
         4         357         358         374         373
         4         358         359         375         374
         4         359         360         376         375
         4         360         361         377         376
         4         361         362         378         377
         4         362         363         379         378
         4         363         364         380         379
         4         364         365         381         380
         4         365         366         382         381
         4         366         367         383         382
         4         368         369         385         384
         4         369         370         386         385
         4         370         371         387         386
         4         371         372         388         387
         4         372         373         389         388
         4         373         374         390         389
         4         374         375         391         390
         4         375         376         392         391
         4         376         377         393         392
         4         377         378         394         393
         4         378         379         395         394
         4         379         380         396         395
         4         380         381         397         396
         4         381         382         398         397
         4         382         383         399         398
         4         384         385         401         400
         4         385         386         402         401
         4         386         387         403         402
         4         387         388         404         403
         4         388         389         405         404
         4         389         390         406         405
         4         390         391         407         406
         4         391         392         408         407
         4         392         393         409         408
         4         393         394         410         409
         4         394         395         411         410
         4         395         396         412         411
         4         396         397         413         412
         4         397         398         414         413
         4         398         399         415         414
         4         400         401         417         416
         4         401         402         418         417
         4         402         403         419         418
         4         403         404         420         419
         4         404         405         421         420
         4         405         406         422         421
         4         406         407         423         422
         4         407         408         424         423
         4         408         409         425         424
         4         409         410         426         425
         4         410         411         427         426
         4         411         412         428         427
         4         412         413         429         428
         4         413         414         430         429
         4         414         415         431         430
         4         416         417         433         432
         4         417         418         434         433
         4         418         419         435         434
         4         419         420         436         435
         4         420         421         437         436
         4         421         422         438         437
         4         422         423         439         438
         4         423         424         440         439
         4         424         425         441         440
         4         425         426         442         441
         4         426         427         443         442
         4         427         428         444         443
         4         428         429         445         444
         4         429         430         446         445
         4         430         431         447         446
         4         432         433         449         448
         4         433         434         450         449
         4         434         435         451         450
         4         435         436         452         451
         4         436         437         453         452
         4         437         438         454         453
         4         438         439         455         454
         4         439         440         456         455
         4         440         441         457         456
         4         441         442         458         457
         4         442         443         459         458
         4         443         444         460         459
         4         444         445         461         460
         4         445         446         462         461
         4         446         447         463         462
         4         448         449         465         464
         4         449         450         466         465
         4         450         451         467         466
         4         451         452         468         467
         4         452         453         469         468
         4         453         454         470         469
         4         454         455         471         470
         4         455         456         472         471
         4         456         457         473         472
         4         457         458         474         473
         4         458         459         475         474
         4         459         460         476         475
         4         460         461         477         476
         4         461         462         478         477
         4         462         463         479         478
         4         464         465         481         480
         4         465         466         482         481
         4         466         467         483         482
         4         467         468         484         483
         4         468         469         485         484
         4         469         470         486         485
         4         470         471         487         486
         4         471         472         488         487
         4         472         473         489         488
         4         473         474         490         489
         4         474         475         491         490
         4         475         476         492         491
         4         476         477         493         492
         4         477         478         494         493
         4         478         479         495         494
CELL_TYPES        450
9
9
9
9
9
9
9
9
9
9
9
9
9
9
9
9
9
9
9
9
9
9
9
9
9
9
9
9
9
9
9
9
9
9
9
9
9
9
9
9
9
9
9
9
9
9
9
9
9
9
9
9
9
9
9
9
9
9
9
9
9
9
9
9
9
9
9
9
9
9
9
9
9
9
9
9
9
9
9
9
9
9
9
9
9
9
9
9
9
9
9
9
9
9
9
9
9
9
9
9
9
9
9
9
9
9
9
9
9
9
9
9
9
9
9
9
9
9
9
9
9
9
9
9
9
9
9
9
9
9
9
9
9
9
9
9
9
9
9
9
9
9
9
9
9
9
9
9
9
9
9
9
9
9
9
9
9
9
9
9
9
9
9
9
9
9
9
9
9
9
9
9
9
9
9
9
9
9
9
9
9
9
9
9
9
9
9
9
9
9
9
9
9
9
9
9
9
9
9
9
9
9
9
9
9
9
9
9
9
9
9
9
9
9
9
9
9
9
9
9
9
9
9
9
9
9
9
9
9
9
9
9
9
9
9
9
9
9
9
9
9
9
9
9
9
9
9
9
9
9
9
9
9
9
9
9
9
9
9
9
9
9
9
9
9
9
9
9
9
9
9
9
9
9
9
9
9
9
9
9
9
9
9
9
9
9
9
9
9
9
9
9
9
9
9
9
9
9
9
9
9
9
9
9
9
9
9
9
9
9
9
9
9
9
9
9
9
9
9
9
9
9
9
9
9
9
9
9
9
9
9
9
9
9
9
9
9
9
9
9
9
9
9
9
9
9
9
9
9
9
9
9
9
9
9
9
9
9
9
9
9
9
9
9
9
9
9
9
9
9
9
9
9
9
9
9
9
9
9
9
9
9
9
9
9
9
9
9
9
9
9
9
9
9
9
9
9
9
9
9
9
9
9
9
9
9
9
9
9
9
9
9
9
9
9
9
9
9
9
9
9
9
9
9
9
9
9
9
9
9
9
9
9
9
9
9
9
9
9
9
9
9
9
9
9
9
9
9
9
9
POINT_DATA       496
SCALARS p double 
LOOKUP_TABLE default
   35899033.0607381     
   35894898.0483370     
   35883609.5621152     
   35866627.6987819     
   35845309.1749834     
   35820911.0007540     
   35794595.8798686     
   35767438.8965892     
   35740435.0937562     
   35714507.5917725     
   35690515.9412368     
   35669264.4434759     
   35651510.2128794     
   35637970.7927813     
   35629331.1728420     
   35626250.0906733     
   35862208.6654889     
   35858078.8377195     
   35846806.3508360     
   35829851.1643384     
   35808569.0827676     
   35784215.6139761     
   35757951.5320535     
   35730849.7056627     
   35703902.7982252     
   35678031.4911321     
   35654092.9244234     
   35632889.0908459     
   35615174.9587446     
   35601666.1369204     
   35593045.9306002     
   35589971.6722660     
   35751828.7369122     
   35747714.7485026     
   35736491.0074593     
   35719616.9290180     
   35698445.4691421     
   35674227.5353909     
   35648118.0355622     
   35621183.1287055     
   35594408.2894563     
   35568706.8418205     
   35544928.6619843     
   35523868.7910987     
   35506275.7381973     
   35492859.2905691     
   35484297.6843068     
   35481244.0217540     
   35568173.7966486     
   35564087.1520339     
   35552947.1281459     
   35536211.7929633     
   35515228.9826307     
   35491241.6271092     
   35465394.6016631     
   35438742.6753166     
   35412259.1749445     
   35386845.0296143     
   35363337.9035393     
   35342521.1672063     
   35325132.4948393     
   35311871.9125884     
   35303409.1561145     
   35300390.2291322     
   35311713.8571481     
   35307667.4546230     
   35296649.7649273     
   35280116.0524412     
   35259406.2110096     
   35235751.3572258     
   35210281.7917768     
   35184035.9094475     
   35157969.6876778     
   35132966.4306704     
   35109846.4902303     
   35089376.7254234     
   35072279.5007898     
   35059241.0575922     
   35050919.1250860     
   35047949.6699124     
   34983112.0527659     
   34979120.6950740     
   34968268.9294447     
   34952006.8593116     
   34931662.8560936     
   34908451.7598395     
   34883484.2431132     
   34857776.9314437     
   34832262.9254551     
   34807802.4185035     
   34785193.1484226     
   34765180.4624412     
   34748466.8105543     
   34735720.5151910     
   34727583.6948690     
   34724679.2479193     
   34583229.5588098     
   34579310.4165505     
   34568674.3327536     
   34552762.7574336     
   34532888.0094818     
   34510243.4074330     
   34485914.3098073     
   34460889.6748470     
   34436073.8046424     
   34412297.9895349     
   34390331.8142477     
   34370893.9269837     
   34354662.1069187     
   34342282.4949268     
   34334377.8783802     
   34331554.9452392     
   34113131.6397816     
   34109304.6537729     
   34098941.2013172     
   34083469.2344942     
   34064179.3653697     
   34042237.2287019     
   34018696.4491739     
   33994511.8439067     
   33970552.5507017     
   33947614.8262700     
   33926434.3053118     
   33907697.5501394     
   33892052.7518817     
   33880119.4692998     
   33872497.3117843     
   33869773.4916925     
   33574094.6308163     
   33570382.8391754     
   33560356.9714897     
   33545425.0891734     
   33526849.1668955     
   33505759.9639549     
   33483172.1402218     
   33459999.2736688     
   33437068.5021876     
   33415134.5700799     
   33394893.1076066     
   33376993.0094998     
   33362047.8057789     
   33350645.9370939     
   33343359.8597439     
   33340753.9158891     
   32967613.6250662     
   32964043.4002031     
   32954428.6327780     
   32940149.3805574     
   32922430.6481280     
   32902360.0141704     
   32880905.0836341     
   32858930.4545786     
   32837213.9629981     
   32816462.0318531     
   32797324.0004045     
   32780405.3457365     
   32766279.7305063     
   32755499.8215040     
   32748606.8260362     
   32746138.6920440     
   32295410.6156993     
   32292011.7956222     
   32282890.4651180     
   32269388.7004306     
   32252684.7058093     
   32233813.4096844     
   32213686.3999198     
   32193110.9285229     
   32172807.8002018     
   32153428.0290691     
   32135568.2003072     
   32119784.5071496     
   32106605.4486324     
   32096543.1728674     
   32090103.4387095     
   32087794.1517855     
   31559442.8254412     
   31556248.7226685     
   31547711.8984498     
   31535124.4905688     
   31519606.5143086     
   31502129.6011929     
   31483539.5161776     
   31464577.2338761     
   31445898.4523822     
   31428091.5027167     
   31411693.6681641     
   31397205.9584822     
   31385106.3897204     
   31375861.8046337     
   31369938.2375022     
   31367809.7887179     
   30761910.9502571     
   30758958.2201747     
   30751105.2150537     
   30739580.1174151     
   30725431.7848326     
   30709556.7600538     
   30692724.4125568     
   30675600.0539675     
   30658765.9866563     
   30642740.5374344     
   30627995.1898084     
   30614969.9554399     
   30604087.1189086     
   30595763.4541382     
   30590420.9538750     
   30588496.0461157     
   29905267.0478934     
   29902595.3965019     
   29895532.8174233     
   29885227.4164386     
   29872642.3665104     
   29858586.2673777     
   29843740.8875144     
   29828686.2068768     
   29813922.8217450     
   29799891.8837213     
   29786992.8139668     
   29775599.0564634     
   29766072.1113791     
   29758774.0274866     
   29754078.4414518     
   29752380.1455650     
   28992221.8176102     
   28989873.5262056     
   28983713.7978297     
   28974792.4288038     
   28963970.8930515     
   28951956.0723841     
   28939330.4965136     
   28926579.1046872     
   28914112.7198891     
   28902288.5624130     
   28891428.2088216     
   28881833.4190753     
   28873800.2105962     
   28867631.4613271     
   28863648.1879033     
   28862199.4876556     
   28025751.0456984     
   28023770.2869833     
   28018629.5710901     
   28011260.0742843     
   28002404.1944037     
   27992652.6097659     
   27982476.8215032     
   27972257.3069863     
   27962307.6419638     
   27952895.1191447     
   27944258.4832244     
   27936623.4105447     
   27930216.2893244     
   27925276.7148049     
   27922068.9197138     
   27920892.1363317     
   27009101.0337131     
   27007532.9499219     
   27003528.3703175     
   26997877.5368675     
   26991185.2176774     
   26983910.9822422     
   26976403.7370623     
   26968930.7954718     
   26961702.0574431     
   26954890.0905812     
   26948647.0104958     
   26943119.0531883     
   26938459.6222120     
   26934841.3944471     
   26932467.8007948     
   26931583.8882031     
   25945792.8848877     
   25944682.3932539     
   25941928.4576044     
   25938156.1828696     
   25933813.2337996     
   25929213.1353734     
   25924571.3506703     
   25920034.6018718     
   25915704.3030467     
   25911655.2453379     
   25907950.7938383     
   25904655.8258157     
   25901848.4798897     
   25899631.5158914     
   25898143.7272450     
   25897571.4296827     
   24839625.6023325     
   24839015.8856485     
   24837619.9688390     
   24835871.8841612     
   24834042.1418842     
   24832283.7715025     
   24830669.3036496     
   24829219.4261442     
   24827924.5896377     
   24826761.1720249     
   24825703.9258415     
   24824736.3587926     
   24823860.4713677     
   24823106.9231704     
   24822546.2373004     
   24822301.1017178     
   23694678.0563808     
   23694608.6844152     
   23694665.3955988     
   23695063.6776997     
   23695876.7138855     
   23697083.7576486     
   23698607.1159137     
   23700338.8795040     
   23702159.2645191     
   23703948.8076570     
   23705596.7264574     
   23707007.5981452     
   23708108.2006846     
   23708855.9241369     
   23709249.5920922     
   23709342.8282397     
   22515310.0187064     
   22515814.6255703     
   22517398.8090504     
   22520030.7491071     
   22523566.6315071     
   22527800.7583959     
   22532501.2241173     
   22537432.9666955     
   22542370.9442338     
   22547106.5384076     
   22551450.2057103     
   22555233.0866190     
   22558309.8757354     
   22560564.7667339     
   22561921.6438751     
   22562358.8241526     
   21306162.6579434     
   21307266.0622733     
   21310424.0528827     
   21315327.7659878     
   21321598.1242346     
   21328836.7331284     
   21336658.2692265     
   21344707.3681002     
   21352664.1416378     
   21360242.5753740     
   21367185.6109720     
   21373260.1386895     
   21378254.6285747     
   21381981.6841473     
   21384287.1971982     
   21385066.7833144     
   20072159.1843677     
   20073873.7650509     
   20078612.2753760     
   20085758.5711553     
   20094682.8615226     
   20104791.7129678     
   20115553.9872018     
   20126507.9725450     
   20137256.0259604     
   20147452.4383873     
   20156789.0235180     
   20164981.9111078     
   20171762.5043090     
   20176875.3880649     
   20180085.6832187     
   20181197.3510437     
   18818506.7965521     
   18820827.7874862     
   18827099.3298277     
   18836368.1014000     
   18847743.3673563     
   18860442.8051704     
   18873806.6716672     
   18887289.9200654     
   18900441.9929550     
   18912881.6214051     
   18924271.3349407     
   18934294.7597400     
   18942639.3966037     
   18948988.1009189     
   18953023.0934291     
   18954445.7866396     
   17550701.8795004     
   17553600.9348032     
   17561283.7190798     
   17572431.9529555     
   17585893.3857371     
   17600716.4789410     
   17616143.5144944     
   17631580.1228811     
   17646555.8225124     
   17660683.9442005     
   17673624.5758929     
   17685051.9505973     
   17694627.7406241     
   17701983.5088160     
   17706718.2137935     
   17708417.7570895     
   16274541.8814667     
   16277957.5745053     
   16286825.7751539     
   16299441.8615722     
   16314409.8936905     
   16330650.6011987     
   16347357.1116514     
   16363931.8718142     
   16379924.4289398     
   16394976.8205242     
   16408776.6513006     
   16421015.9839475     
   16431354.7067884     
   16439390.4368933     
   16444643.1581537     
   16446569.0264224     
   14996150.3066204     
   14999972.5636771     
   15009648.1914672     
   15023082.4685061     
   15038690.0288764     
   15055340.1462573     
   15072248.1380559     
   15088869.8565516     
   15104817.6621322     
   15119795.7325012     
   15133548.2397340     
   15145813.8684156     
   15156281.4602263     
   15164543.7523133     
   15170057.8109363     
   15172138.0010572     
   13722028.0100109     
   13726069.1416323     
   13735934.9250353     
   13749187.5056275     
   13764179.7992246     
   13779857.2450834     
   13795549.2166803     
   13810824.1458100     
   13825394.3666712     
   13839051.4539152     
   13851617.7025942     
   13862903.3979657     
   13872660.8030395     
   13880525.9880228     
   13885936.2278417     
   13888067.9900461     
   12459163.6988053     
   12463090.8942920     
   12472113.2584023     
   12483644.5975912     
   12496252.4105627     
   12509134.1283092     
   12521825.9555791     
   12534053.0832498     
   12545646.9205155     
   12556494.3146675     
   12566501.5298853     
   12575562.4675714     
   12583521.6181186     
   12590117.4445801     
   12594882.0536798     
   12596905.3830046     
   11215281.4386518     
   11218448.6520936     
   11224731.4429470     
   11232186.4615843     
   11240009.2550102     
   11247802.4025926     
   11255356.3250884     
   11262558.3174339     
   11269347.5013126     
   11275688.9741056     
   11281556.2015889     
   11286915.5907931     
   11291707.6607175     
   11295815.2375133     
   11298992.0568380     
   11300666.1047903     
   10000000.0000000     
   10000000.0000000     
   10000000.0000000     
   10000000.0000000     
   10000000.0000000     
   10000000.0000000     
   10000000.0000000     
   10000000.0000000     
   10000000.0000000     
   10000000.0000000     
   10000000.0000000     
   10000000.0000000     
   10000000.0000000     
  10000000.00000000     
   10000000.0000000     
   10000000.0000000     
VECTORS u double 
    0.00000E+00        -0.29334E-01         0.00000E+00
    0.00000E+00        -0.27275E-01         0.00000E+00
    0.00000E+00        -0.25232E-01         0.00000E+00
    0.00000E+00        -0.23205E-01         0.00000E+00
    0.00000E+00        -0.21191E-01         0.00000E+00
    0.00000E+00        -0.19190E-01         0.00000E+00
    0.00000E+00        -0.17199E-01         0.00000E+00
    0.00000E+00        -0.15220E-01         0.00000E+00
    0.00000E+00        -0.13254E-01         0.00000E+00
    0.00000E+00        -0.11300E-01         0.00000E+00
    0.00000E+00        -0.93620E-02         0.00000E+00
    0.00000E+00        -0.74412E-02         0.00000E+00
    0.00000E+00        -0.55409E-02         0.00000E+00
    0.00000E+00        -0.36646E-02         0.00000E+00
    0.00000E+00        -0.18161E-02         0.00000E+00
    0.00000E+00         0.00000E+00         0.00000E+00
    0.85810E-03        -0.29374E-01         0.00000E+00
    0.78042E-03        -0.27313E-01         0.00000E+00
    0.70875E-03        -0.25269E-01         0.00000E+00
    0.64241E-03        -0.23239E-01         0.00000E+00
    0.58069E-03        -0.21223E-01         0.00000E+00
    0.52286E-03        -0.19219E-01         0.00000E+00
    0.46819E-03        -0.17226E-01         0.00000E+00
    0.41592E-03        -0.15244E-01         0.00000E+00
    0.36533E-03        -0.13275E-01         0.00000E+00
    0.31570E-03        -0.11319E-01         0.00000E+00
    0.26633E-03        -0.93777E-02         0.00000E+00
    0.21652E-03        -0.74540E-02         0.00000E+00
    0.16561E-03        -0.55507E-02         0.00000E+00
    0.11297E-03        -0.36712E-02         0.00000E+00
    0.57966E-04        -0.18194E-02         0.00000E+00
    0.00000E+00         0.00000E+00         0.00000E+00
    0.17107E-02        -0.29496E-01         0.00000E+00
    0.15557E-02        -0.27428E-01         0.00000E+00
    0.14126E-02        -0.25377E-01         0.00000E+00
    0.12803E-02        -0.23340E-01         0.00000E+00
    0.11573E-02        -0.21317E-01         0.00000E+00
    0.10420E-02        -0.19306E-01         0.00000E+00
    0.93301E-03        -0.17305E-01         0.00000E+00
    0.82886E-03        -0.15316E-01         0.00000E+00
    0.72808E-03        -0.13339E-01         0.00000E+00
    0.62920E-03        -0.11374E-01         0.00000E+00
    0.53083E-03        -0.94247E-02         0.00000E+00
    0.43159E-03        -0.74922E-02         0.00000E+00
    0.33015E-03        -0.55798E-02         0.00000E+00
    0.22522E-03        -0.36909E-02         0.00000E+00
    0.11558E-03        -0.18295E-02         0.00000E+00
    0.00000E+00         0.00000E+00         0.00000E+00
    0.25524E-02        -0.29697E-01         0.00000E+00
    0.23205E-02        -0.27618E-01         0.00000E+00
    0.21068E-02        -0.25556E-01         0.00000E+00
    0.19092E-02        -0.23509E-01         0.00000E+00
    0.17255E-02        -0.21474E-01         0.00000E+00
    0.15536E-02        -0.19451E-01         0.00000E+00
    0.13911E-02        -0.17438E-01         0.00000E+00
    0.12359E-02        -0.15436E-01         0.00000E+00
    0.10857E-02        -0.13445E-01         0.00000E+00
    0.93831E-03        -0.11467E-01         0.00000E+00
    0.79171E-03        -0.95029E-02         0.00000E+00
    0.64378E-03        -0.75558E-02         0.00000E+00
    0.49254E-03        -0.56282E-02         0.00000E+00
    0.33605E-03        -0.37237E-02         0.00000E+00
    0.17247E-03        -0.18461E-02         0.00000E+00
    0.00000E+00         0.00000E+00         0.00000E+00
    0.33775E-02        -0.29979E-01         0.00000E+00
    0.30698E-02        -0.27885E-01         0.00000E+00
    0.27864E-02        -0.25807E-01         0.00000E+00
    0.25246E-02        -0.23744E-01         0.00000E+00
    0.22814E-02        -0.21693E-01         0.00000E+00
    0.20539E-02        -0.19653E-01         0.00000E+00
    0.18391E-02        -0.17622E-01         0.00000E+00
    0.16339E-02        -0.15602E-01         0.00000E+00
    0.14355E-02        -0.13593E-01         0.00000E+00
    0.12408E-02        -0.11596E-01         0.00000E+00
    0.10471E-02        -0.96121E-02         0.00000E+00
    0.85165E-03        -0.76444E-02         0.00000E+00
    0.65171E-03        -0.56958E-02         0.00000E+00
    0.44475E-03        -0.37694E-02         0.00000E+00
    0.22831E-03        -0.18694E-02         0.00000E+00
    0.00000E+00         0.00000E+00         0.00000E+00
    0.41807E-02        -0.30339E-01         0.00000E+00
    0.37982E-02        -0.28226E-01         0.00000E+00
    0.34465E-02        -0.26128E-01         0.00000E+00
    0.31219E-02        -0.24045E-01         0.00000E+00
    0.28207E-02        -0.21973E-01         0.00000E+00
    0.25393E-02        -0.19911E-01         0.00000E+00
    0.22737E-02        -0.17859E-01         0.00000E+00
    0.20202E-02        -0.15816E-01         0.00000E+00
    0.17751E-02        -0.13783E-01         0.00000E+00
    0.15346E-02        -0.11761E-01         0.00000E+00
    0.12954E-02        -0.97517E-02         0.00000E+00
    0.10538E-02        -0.77579E-02         0.00000E+00
    0.80663E-03        -0.57822E-02         0.00000E+00
    0.55063E-03        -0.38279E-02         0.00000E+00
    0.28275E-03        -0.18991E-02         0.00000E+00
    0.00000E+00         0.00000E+00         0.00000E+00
    0.49562E-02        -0.30776E-01         0.00000E+00
    0.45006E-02        -0.28640E-01         0.00000E+00
    0.40822E-02        -0.26519E-01         0.00000E+00
    0.36967E-02        -0.24410E-01         0.00000E+00
    0.33394E-02        -0.22313E-01         0.00000E+00
    0.30059E-02        -0.20225E-01         0.00000E+00
    0.26915E-02        -0.18146E-01         0.00000E+00
    0.23917E-02        -0.16075E-01         0.00000E+00
    0.21018E-02        -0.14013E-01         0.00000E+00
    0.18176E-02        -0.11961E-01         0.00000E+00
    0.15346E-02        -0.99213E-02         0.00000E+00
    0.12489E-02        -0.78957E-02         0.00000E+00
    0.95627E-03        -0.58871E-02         0.00000E+00
    0.65302E-03        -0.38990E-02         0.00000E+00
    0.33544E-03        -0.19352E-02         0.00000E+00
    0.00000E+00         0.00000E+00         0.00000E+00
    0.56984E-02        -0.31289E-01         0.00000E+00
    0.51716E-02        -0.29125E-01         0.00000E+00
    0.46886E-02        -0.26976E-01         0.00000E+00
    0.42443E-02        -0.24839E-01         0.00000E+00
    0.38333E-02        -0.22712E-01         0.00000E+00
    0.34501E-02        -0.20594E-01         0.00000E+00
    0.30893E-02        -0.18482E-01         0.00000E+00
    0.27455E-02        -0.16379E-01         0.00000E+00
    0.24133E-02        -0.14283E-01         0.00000E+00
    0.20875E-02        -0.12196E-01         0.00000E+00
    0.17632E-02        -0.10120E-01         0.00000E+00
    0.14355E-02        -0.80572E-02         0.00000E+00
    0.10996E-02        -0.60102E-02         0.00000E+00
    0.75125E-03        -0.39823E-02         0.00000E+00
    0.38607E-03        -0.19775E-02         0.00000E+00
    0.00000E+00         0.00000E+00         0.00000E+00
    0.64016E-02        -0.31877E-01         0.00000E+00
    0.58059E-02        -0.29681E-01         0.00000E+00
    0.52608E-02        -0.27500E-01         0.00000E+00
    0.47604E-02        -0.25330E-01         0.00000E+00
    0.42983E-02        -0.23169E-01         0.00000E+00
    0.38682E-02        -0.21015E-01         0.00000E+00
    0.34638E-02        -0.18867E-01         0.00000E+00
    0.30787E-02        -0.16726E-01         0.00000E+00
    0.27070E-02        -0.14592E-01         0.00000E+00
    0.23424E-02        -0.12465E-01         0.00000E+00
    0.19794E-02        -0.10348E-01         0.00000E+00
    0.16123E-02        -0.82420E-02         0.00000E+00
    0.12357E-02        -0.61508E-02         0.00000E+00
    0.84469E-03        -0.40776E-02         0.00000E+00
    0.43432E-03        -0.20259E-02         0.00000E+00
    0.00000E+00         0.00000E+00         0.00000E+00
    0.70601E-02        -0.32535E-01         0.00000E+00
    0.63980E-02        -0.30305E-01         0.00000E+00
    0.57938E-02        -0.28087E-01         0.00000E+00
    0.52403E-02        -0.25880E-01         0.00000E+00
    0.47303E-02        -0.23681E-01         0.00000E+00
    0.42565E-02        -0.21488E-01         0.00000E+00
    0.38117E-02        -0.19299E-01         0.00000E+00
    0.33887E-02        -0.17116E-01         0.00000E+00
    0.29805E-02        -0.14938E-01         0.00000E+00
    0.25803E-02        -0.12766E-01         0.00000E+00
    0.21816E-02        -0.10603E-01         0.00000E+00
    0.17780E-02        -0.84490E-02         0.00000E+00
    0.13636E-02        -0.63085E-02         0.00000E+00
    0.93274E-03        -0.41843E-02         0.00000E+00
    0.47991E-03        -0.20801E-02         0.00000E+00
    0.00000E+00         0.00000E+00         0.00000E+00
    0.76680E-02        -0.33262E-01         0.00000E+00
    0.69427E-02        -0.30993E-01         0.00000E+00
    0.62826E-02        -0.28736E-01         0.00000E+00
    0.56796E-02        -0.26488E-01         0.00000E+00
    0.51253E-02        -0.24246E-01         0.00000E+00
    0.46115E-02        -0.22010E-01         0.00000E+00
    0.41299E-02        -0.19776E-01         0.00000E+00
    0.36726E-02        -0.17546E-01         0.00000E+00
    0.32315E-02        -0.15320E-01         0.00000E+00
    0.27991E-02        -0.13099E-01         0.00000E+00
    0.23681E-02        -0.10884E-01         0.00000E+00
    0.19314E-02        -0.86775E-02         0.00000E+00
    0.14824E-02        -0.64825E-02         0.00000E+00
    0.10148E-02        -0.43021E-02         0.00000E+00
    0.52253E-03        -0.21399E-02         0.00000E+00
    0.00000E+00         0.00000E+00         0.00000E+00
    0.82192E-02        -0.34055E-01         0.00000E+00
    0.74344E-02        -0.31744E-01         0.00000E+00
    0.67223E-02        -0.29443E-01         0.00000E+00
    0.60736E-02        -0.27151E-01         0.00000E+00
    0.54792E-02        -0.24863E-01         0.00000E+00
    0.49295E-02        -0.22578E-01         0.00000E+00
    0.44153E-02        -0.20296E-01         0.00000E+00
    0.39276E-02        -0.18015E-01         0.00000E+00
    0.34577E-02        -0.15737E-01         0.00000E+00
    0.29970E-02        -0.13461E-01         0.00000E+00
    0.25375E-02        -0.11190E-01         0.00000E+00
    0.20714E-02        -0.89263E-02         0.00000E+00
    0.15913E-02        -0.66720E-02         0.00000E+00
    0.10903E-02        -0.44303E-02         0.00000E+00
    0.56194E-03        -0.22050E-02         0.00000E+00
    0.00000E+00         0.00000E+00         0.00000E+00
    0.87079E-02        -0.34910E-01         0.00000E+00
    0.78676E-02        -0.32553E-01         0.00000E+00
    0.71078E-02        -0.30206E-01         0.00000E+00
    0.64181E-02        -0.27865E-01         0.00000E+00
    0.57880E-02        -0.25527E-01         0.00000E+00
    0.52069E-02        -0.23191E-01         0.00000E+00
    0.46647E-02        -0.20856E-01         0.00000E+00
    0.41513E-02        -0.18520E-01         0.00000E+00
    0.36568E-02        -0.16185E-01         0.00000E+00
    0.31721E-02        -0.13851E-01         0.00000E+00
    0.26882E-02        -0.11520E-01         0.00000E+00
    0.21966E-02        -0.91942E-02         0.00000E+00
    0.16893E-02        -0.68759E-02         0.00000E+00
    0.11588E-02        -0.45683E-02         0.00000E+00
    0.59787E-03        -0.22750E-02         0.00000E+00
    0.00000E+00         0.00000E+00         0.00000E+00
    0.91280E-02        -0.35822E-01         0.00000E+00
    0.82367E-02        -0.33417E-01         0.00000E+00
    0.74341E-02        -0.31019E-01         0.00000E+00
    0.67084E-02        -0.28627E-01         0.00000E+00
    0.60478E-02        -0.26236E-01         0.00000E+00
    0.54405E-02        -0.23845E-01         0.00000E+00
    0.48752E-02        -0.21453E-01         0.00000E+00
    0.43408E-02        -0.19059E-01         0.00000E+00
    0.38267E-02        -0.16663E-01         0.00000E+00
    0.33226E-02        -0.14267E-01         0.00000E+00
    0.28188E-02        -0.11872E-01         0.00000E+00
    0.23061E-02        -0.94797E-02         0.00000E+00
    0.17758E-02        -0.70932E-02         0.00000E+00
    0.12197E-02        -0.47154E-02         0.00000E+00
    0.63009E-03        -0.23497E-02         0.00000E+00
    0.00000E+00         0.00000E+00         0.00000E+00
    0.94731E-02        -0.36787E-01         0.00000E+00
    0.85363E-02        -0.34330E-01         0.00000E+00
    0.76964E-02        -0.31880E-01         0.00000E+00
    0.69402E-02        -0.29433E-01         0.00000E+00
    0.62547E-02        -0.26986E-01         0.00000E+00
    0.56267E-02        -0.24536E-01         0.00000E+00
    0.50438E-02        -0.22084E-01         0.00000E+00
    0.44938E-02        -0.19627E-01         0.00000E+00
    0.39652E-02        -0.17168E-01         0.00000E+00
    0.34467E-02        -0.14706E-01         0.00000E+00
    0.29279E-02        -0.12243E-01         0.00000E+00
    0.23987E-02        -0.97811E-02         0.00000E+00
    0.18499E-02        -0.73227E-02         0.00000E+00
    0.12725E-02        -0.48707E-02         0.00000E+00
    0.65838E-03        -0.24285E-02         0.00000E+00
    0.00000E+00         0.00000E+00         0.00000E+00
    0.97372E-02        -0.37800E-01         0.00000E+00
    0.87607E-02        -0.35289E-01         0.00000E+00
    0.78896E-02        -0.32783E-01         0.00000E+00
    0.71093E-02        -0.30278E-01         0.00000E+00
    0.64049E-02        -0.27771E-01         0.00000E+00
    0.57623E-02        -0.25260E-01         0.00000E+00
    0.51677E-02        -0.22744E-01         0.00000E+00
    0.46079E-02        -0.20223E-01         0.00000E+00
    0.40702E-02        -0.17696E-01         0.00000E+00
    0.35427E-02        -0.15166E-01         0.00000E+00
    0.30140E-02        -0.12632E-01         0.00000E+00
    0.24734E-02        -0.10097E-01         0.00000E+00
    0.19108E-02        -0.75628E-02         0.00000E+00
    0.13168E-02        -0.50332E-02         0.00000E+00
    0.68250E-03        -0.25110E-02         0.00000E+00
    0.00000E+00         0.00000E+00         0.00000E+00
    0.99138E-02        -0.38854E-01         0.00000E+00
    0.89044E-02        -0.36286E-01         0.00000E+00
    0.80090E-02        -0.33722E-01         0.00000E+00
    0.72112E-02        -0.31157E-01         0.00000E+00
    0.64948E-02        -0.28588E-01         0.00000E+00
    0.58441E-02        -0.26013E-01         0.00000E+00
    0.52441E-02        -0.23431E-01         0.00000E+00
    0.46806E-02        -0.20841E-01         0.00000E+00
    0.41398E-02        -0.18245E-01         0.00000E+00
    0.36089E-02        -0.15642E-01         0.00000E+00
    0.30758E-02        -0.13035E-01         0.00000E+00
    0.25290E-02        -0.10424E-01         0.00000E+00
    0.19578E-02        -0.78119E-02         0.00000E+00
    0.13520E-02        -0.52018E-02         0.00000E+00
    0.70223E-03        -0.25967E-02         0.00000E+00
    0.00000E+00         0.00000E+00         0.00000E+00
    0.99968E-02        -0.39942E-01         0.00000E+00
    0.89619E-02        -0.37316E-01         0.00000E+00
    0.80498E-02        -0.34691E-01         0.00000E+00
    0.72420E-02        -0.32063E-01         0.00000E+00
    0.65209E-02        -0.29429E-01         0.00000E+00
    0.58691E-02        -0.26787E-01         0.00000E+00
    0.52705E-02        -0.24137E-01         0.00000E+00
    0.47096E-02        -0.21477E-01         0.00000E+00
    0.41718E-02        -0.18809E-01         0.00000E+00
    0.36436E-02        -0.16132E-01         0.00000E+00
    0.31119E-02        -0.13449E-01         0.00000E+00
    0.25645E-02        -0.10760E-01         0.00000E+00
    0.19900E-02        -0.80681E-02         0.00000E+00
    0.13776E-02        -0.53753E-02         0.00000E+00
    0.71733E-03        -0.26848E-02         0.00000E+00
    0.00000E+00         0.00000E+00         0.00000E+00
    0.99799E-02        -0.41057E-01         0.00000E+00
    0.89279E-02        -0.38370E-01         0.00000E+00
    0.80073E-02        -0.35682E-01         0.00000E+00
    0.71978E-02        -0.32990E-01         0.00000E+00
    0.64797E-02        -0.30289E-01         0.00000E+00
    0.58343E-02        -0.27579E-01         0.00000E+00
    0.52442E-02        -0.24858E-01         0.00000E+00
    0.46927E-02        -0.22126E-01         0.00000E+00
    0.41644E-02        -0.19384E-01         0.00000E+00
    0.36450E-02        -0.16632E-01         0.00000E+00
    0.31206E-02        -0.13871E-01         0.00000E+00
    0.25785E-02        -0.11103E-01         0.00000E+00
    0.20065E-02        -0.83293E-02         0.00000E+00
    0.13931E-02        -0.55523E-02         0.00000E+00
    0.72750E-03        -0.27748E-02         0.00000E+00
    0.00000E+00         0.00000E+00         0.00000E+00
    0.98568E-02        -0.42189E-01         0.00000E+00
    0.87971E-02        -0.39440E-01         0.00000E+00
    0.78773E-02        -0.36688E-01         0.00000E+00
    0.70749E-02        -0.33929E-01         0.00000E+00
    0.63682E-02        -0.31159E-01         0.00000E+00
    0.57372E-02        -0.28379E-01         0.00000E+00
    0.51628E-02        -0.25586E-01         0.00000E+00
    0.46277E-02        -0.22781E-01         0.00000E+00
    0.41156E-02        -0.19964E-01         0.00000E+00
    0.36112E-02        -0.17136E-01         0.00000E+00
    0.31005E-02        -0.14297E-01         0.00000E+00
    0.25698E-02        -0.11449E-01         0.00000E+00
    0.20062E-02        -0.85931E-02         0.00000E+00
    0.13976E-02        -0.57312E-02         0.00000E+00
    0.73240E-03        -0.28658E-02         0.00000E+00
    0.00000E+00         0.00000E+00         0.00000E+00
    0.96213E-02        -0.43329E-01         0.00000E+00
    0.85644E-02        -0.40517E-01         0.00000E+00
    0.76556E-02        -0.37699E-01         0.00000E+00
    0.68699E-02        -0.34871E-01         0.00000E+00
    0.61837E-02        -0.32032E-01         0.00000E+00
    0.55751E-02        -0.29179E-01         0.00000E+00
    0.50241E-02        -0.26313E-01         0.00000E+00
    0.45124E-02        -0.23434E-01         0.00000E+00
    0.40231E-02        -0.20542E-01         0.00000E+00
    0.35404E-02        -0.17638E-01         0.00000E+00
    0.30496E-02        -0.14722E-01         0.00000E+00
    0.25365E-02        -0.11794E-01         0.00000E+00
    0.19878E-02        -0.88568E-02         0.00000E+00
    0.13903E-02        -0.59103E-02         0.00000E+00
    0.73156E-03        -0.29571E-02         0.00000E+00
    0.00000E+00         0.00000E+00         0.00000E+00
    0.92677E-02        -0.44465E-01         0.00000E+00
    0.82253E-02        -0.41589E-01         0.00000E+00
    0.73386E-02        -0.38704E-01         0.00000E+00
    0.65799E-02        -0.35807E-01         0.00000E+00
    0.59235E-02        -0.32896E-01         0.00000E+00
    0.53459E-02        -0.29971E-01         0.00000E+00
    0.48260E-02        -0.27032E-01         0.00000E+00
    0.43447E-02        -0.24079E-01         0.00000E+00
    0.38848E-02        -0.21113E-01         0.00000E+00
    0.34301E-02        -0.18133E-01         0.00000E+00
    0.29656E-02        -0.15141E-01         0.00000E+00
    0.24768E-02        -0.12135E-01         0.00000E+00
    0.19496E-02        -0.91174E-02         0.00000E+00
    0.13699E-02        -0.60877E-02         0.00000E+00
    0.72439E-03        -0.30477E-02         0.00000E+00
    0.00000E+00         0.00000E+00         0.00000E+00
    0.87902E-02        -0.45585E-01         0.00000E+00
    0.77753E-02        -0.42644E-01         0.00000E+00
    0.69230E-02        -0.39691E-01         0.00000E+00
    0.62024E-02        -0.36723E-01         0.00000E+00
    0.55856E-02        -0.33741E-01         0.00000E+00
    0.50476E-02        -0.30743E-01         0.00000E+00
    0.45664E-02        -0.27731E-01         0.00000E+00
    0.41224E-02        -0.24705E-01         0.00000E+00
    0.36982E-02        -0.21666E-01         0.00000E+00
    0.32777E-02        -0.18614E-01         0.00000E+00
    0.28460E-02        -0.15548E-01         0.00000E+00
    0.23881E-02        -0.12467E-01         0.00000E+00
    0.18894E-02        -0.93715E-02         0.00000E+00
    0.13350E-02        -0.62612E-02         0.00000E+00
    0.71006E-03        -0.31367E-02         0.00000E+00
    0.00000E+00         0.00000E+00         0.00000E+00
    0.81834E-02        -0.46675E-01         0.00000E+00
    0.72108E-02        -0.43668E-01         0.00000E+00
    0.64062E-02        -0.40647E-01         0.00000E+00
    0.57356E-02        -0.37608E-01         0.00000E+00
    0.51686E-02        -0.34554E-01         0.00000E+00
    0.46787E-02        -0.31484E-01         0.00000E+00
    0.42433E-02        -0.28400E-01         0.00000E+00
    0.38430E-02        -0.25303E-01         0.00000E+00
    0.34604E-02        -0.22194E-01         0.00000E+00
    0.30802E-02        -0.19072E-01         0.00000E+00
    0.26873E-02        -0.15936E-01         0.00000E+00
    0.22670E-02        -0.12784E-01         0.00000E+00
    0.18043E-02        -0.96155E-02         0.00000E+00
    0.12833E-02        -0.64286E-02         0.00000E+00
    0.68744E-03        -0.32230E-02         0.00000E+00
    0.00000E+00         0.00000E+00         0.00000E+00
    0.74425E-02        -0.47718E-01         0.00000E+00
    0.65286E-02        -0.44646E-01         0.00000E+00
    0.57867E-02        -0.41556E-01         0.00000E+00
    0.51786E-02        -0.38446E-01         0.00000E+00
    0.46715E-02        -0.35319E-01         0.00000E+00
    0.42379E-02        -0.32178E-01         0.00000E+00
    0.38550E-02        -0.29025E-01         0.00000E+00
    0.35039E-02        -0.25861E-01         0.00000E+00
    0.31683E-02        -0.22685E-01         0.00000E+00
    0.28335E-02        -0.19499E-01         0.00000E+00
    0.24854E-02        -0.16298E-01         0.00000E+00
    0.21095E-02        -0.13081E-01         0.00000E+00
    0.16907E-02        -0.98454E-02         0.00000E+00
    0.12120E-02        -0.65873E-02         0.00000E+00
    0.65494E-03        -0.33054E-02         0.00000E+00
    0.00000E+00         0.00000E+00         0.00000E+00
    0.65631E-02        -0.48697E-01         0.00000E+00
    0.57267E-02        -0.45560E-01         0.00000E+00
    0.50638E-02        -0.42400E-01         0.00000E+00
    0.45314E-02        -0.39219E-01         0.00000E+00
    0.40942E-02        -0.36022E-01         0.00000E+00
    0.37241E-02        -0.32812E-01         0.00000E+00
    0.33993E-02        -0.29593E-01         0.00000E+00
    0.31022E-02        -0.26366E-01         0.00000E+00
    0.28179E-02        -0.23130E-01         0.00000E+00
    0.25332E-02        -0.19885E-01         0.00000E+00
    0.22351E-02        -0.16627E-01         0.00000E+00
    0.19102E-02        -0.13352E-01         0.00000E+00
    0.15434E-02        -0.10057E-01         0.00000E+00
    0.11171E-02        -0.67346E-02         0.00000E+00
    0.61038E-03        -0.33829E-02         0.00000E+00
    0.00000E+00         0.00000E+00         0.00000E+00
    0.55415E-02        -0.49591E-01         0.00000E+00
    0.48044E-02        -0.46388E-01         0.00000E+00
    0.42387E-02        -0.43159E-01         0.00000E+00
    0.37952E-02        -0.39908E-01         0.00000E+00
    0.34369E-02        -0.36643E-01         0.00000E+00
    0.31365E-02        -0.33368E-01         0.00000E+00
    0.28740E-02        -0.30089E-01         0.00000E+00
    0.26343E-02        -0.26805E-01         0.00000E+00
    0.24045E-02        -0.23516E-01         0.00000E+00
    0.21735E-02        -0.20220E-01         0.00000E+00
    0.19301E-02        -0.16914E-01         0.00000E+00
    0.16623E-02        -0.13590E-01         0.00000E+00
    0.13560E-02        -0.10244E-01         0.00000E+00
    0.99312E-03        -0.68675E-02         0.00000E+00
    0.55061E-03        -0.34541E-02         0.00000E+00
    0.00000E+00         0.00000E+00         0.00000E+00
    0.43746E-02        -0.50373E-01         0.00000E+00
    0.37631E-02        -0.47106E-01         0.00000E+00
    0.33143E-02        -0.43808E-01         0.00000E+00
    0.29724E-02        -0.40489E-01         0.00000E+00
    0.27002E-02        -0.37161E-01         0.00000E+00
    0.24736E-02        -0.33828E-01         0.00000E+00
    0.22762E-02        -0.30496E-01         0.00000E+00
    0.20959E-02        -0.27165E-01         0.00000E+00
    0.19228E-02        -0.23832E-01         0.00000E+00
    0.17480E-02        -0.20495E-01         0.00000E+00
    0.15628E-02        -0.17149E-01         0.00000E+00
    0.13575E-02        -0.13788E-01         0.00000E+00
    0.11197E-02        -0.10402E-01         0.00000E+00
    0.83252E-03        -0.69824E-02         0.00000E+00
    0.47097E-03        -0.35177E-02         0.00000E+00
    0.00000E+00         0.00000E+00         0.00000E+00
    0.30604E-02        -0.51014E-01         0.00000E+00
    0.26073E-02        -0.47682E-01         0.00000E+00
    0.22962E-02        -0.44317E-01         0.00000E+00
    0.20657E-02        -0.40936E-01         0.00000E+00
    0.18838E-02        -0.37554E-01         0.00000E+00
    0.17330E-02        -0.34174E-01         0.00000E+00
    0.16017E-02        -0.30801E-01         0.00000E+00
    0.14817E-02        -0.27433E-01         0.00000E+00
    0.13662E-02        -0.24067E-01         0.00000E+00
    0.12493E-02        -0.20700E-01         0.00000E+00
    0.11248E-02        -0.17326E-01         0.00000E+00
    0.98593E-03        -0.13937E-01         0.00000E+00
    0.82357E-03        -0.10524E-01         0.00000E+00
    0.62435E-03        -0.70747E-02         0.00000E+00
    0.36412E-03        -0.35717E-02         0.00000E+00
    0.00000E+00         0.00000E+00         0.00000E+00
    0.15985E-02        -0.51469E-01         0.00000E+00
    0.13477E-02        -0.48074E-01         0.00000E+00
    0.11912E-02        -0.44649E-01         0.00000E+00
    0.10760E-02        -0.41221E-01         0.00000E+00
    0.98551E-03        -0.37800E-01         0.00000E+00
    0.91048E-03        -0.34390E-01         0.00000E+00
    0.84517E-03        -0.30990E-01         0.00000E+00
    0.78542E-03        -0.27599E-01         0.00000E+00
    0.72783E-03        -0.24213E-01         0.00000E+00
    0.66938E-03        -0.20827E-01         0.00000E+00
    0.60698E-03        -0.17436E-01         0.00000E+00
    0.53705E-03        -0.14031E-01         0.00000E+00
    0.45484E-03        -0.10602E-01         0.00000E+00
    0.35281E-03        -0.71367E-02         0.00000E+00
    0.21683E-03        -0.36135E-02         0.00000E+00
    0.00000E+00         0.00000E+00         0.00000E+00
    0.00000E+00        -0.51662E-01         0.00000E+00
    0.00000E+00        -0.48218E-01         0.00000E+00
    0.00000E+00        -0.44765E-01         0.00000E+00
    0.00000E+00        -0.41319E-01         0.00000E+00
    0.00000E+00        -0.37885E-01         0.00000E+00
    0.00000E+00        -0.34463E-01         0.00000E+00
    0.00000E+00        -0.31054E-01         0.00000E+00
    0.00000E+00        -0.27655E-01         0.00000E+00
    0.00000E+00        -0.24262E-01         0.00000E+00
    0.00000E+00        -0.20870E-01         0.00000E+00
    0.00000E+00        -0.17473E-01         0.00000E+00
    0.00000E+00        -0.14063E-01         0.00000E+00
    0.00000E+00        -0.10629E-01         0.00000E+00
    0.00000E+00        -0.71589E-02         0.00000E+00
    0.00000E+00        -0.36309E-02         0.00000E+00
    0.00000E+00         0.00000E+00         0.00000E+00
CELL_DATA        450
VECTORS vDarcy double 
    0.26274E-09        -0.29487E-10         0.00000E+00
    0.26266E-09        -0.80489E-10         0.00000E+00
    0.26249E-09        -0.12107E-09         0.00000E+00
    0.26226E-09        -0.15197E-09         0.00000E+00
    0.26196E-09        -0.17390E-09         0.00000E+00
    0.26160E-09        -0.18755E-09         0.00000E+00
    0.26122E-09        -0.19354E-09         0.00000E+00
    0.26081E-09        -0.19243E-09         0.00000E+00
    0.26040E-09        -0.18475E-09         0.00000E+00
    0.26000E-09        -0.17095E-09         0.00000E+00
    0.25963E-09        -0.15142E-09         0.00000E+00
    0.25931E-09        -0.12649E-09         0.00000E+00
    0.25906E-09        -0.96462E-10         0.00000E+00
    0.25887E-09        -0.61553E-10         0.00000E+00
    0.25877E-09        -0.21951E-10         0.00000E+00
    0.78756E-09        -0.29412E-10         0.00000E+00
    0.78729E-09        -0.80257E-10         0.00000E+00
    0.78679E-09        -0.12068E-09         0.00000E+00
    0.78608E-09        -0.15144E-09         0.00000E+00
    0.78517E-09        -0.17326E-09         0.00000E+00
    0.78410E-09        -0.18682E-09         0.00000E+00
    0.78293E-09        -0.19274E-09         0.00000E+00
    0.78169E-09        -0.19161E-09         0.00000E+00
    0.78045E-09        -0.18394E-09         0.00000E+00
    0.77925E-09        -0.17018E-09         0.00000E+00
    0.77815E-09        -0.15073E-09         0.00000E+00
    0.77718E-09        -0.12592E-09         0.00000E+00
    0.77640E-09        -0.96023E-10         0.00000E+00
    0.77585E-09        -0.61274E-10         0.00000E+00
    0.77555E-09        -0.21853E-10         0.00000E+00
    0.13103E-08        -0.29257E-10         0.00000E+00
    0.13099E-08        -0.79783E-10         0.00000E+00
    0.13090E-08        -0.11990E-09         0.00000E+00
    0.13078E-08        -0.15037E-09         0.00000E+00
    0.13063E-08        -0.17195E-09         0.00000E+00
    0.13045E-08        -0.18533E-09         0.00000E+00
    0.13025E-08        -0.19113E-09         0.00000E+00
    0.13004E-08        -0.18996E-09         0.00000E+00
    0.12983E-08        -0.18231E-09         0.00000E+00
    0.12963E-08        -0.16864E-09         0.00000E+00
    0.12944E-08        -0.14935E-09         0.00000E+00
    0.12928E-08        -0.12476E-09         0.00000E+00
    0.12914E-08        -0.95137E-10         0.00000E+00
    0.12905E-08        -0.60712E-10         0.00000E+00
    0.12900E-08        -0.21655E-10         0.00000E+00
    0.18298E-08        -0.29015E-10         0.00000E+00
    0.18291E-08        -0.79046E-10         0.00000E+00
    0.18279E-08        -0.11868E-09         0.00000E+00
    0.18261E-08        -0.14872E-09         0.00000E+00
    0.18239E-08        -0.16994E-09         0.00000E+00
    0.18213E-08        -0.18304E-09         0.00000E+00
    0.18184E-08        -0.18867E-09         0.00000E+00
    0.18154E-08        -0.18743E-09         0.00000E+00
    0.18124E-08        -0.17982E-09         0.00000E+00
    0.18095E-08        -0.16629E-09         0.00000E+00
    0.18068E-08        -0.14724E-09         0.00000E+00
    0.18045E-08        -0.12299E-09         0.00000E+00
    0.18026E-08        -0.93787E-10         0.00000E+00
    0.18013E-08        -0.59856E-10         0.00000E+00
    0.18006E-08        -0.21355E-10         0.00000E+00
    0.23444E-08        -0.28675E-10         0.00000E+00
    0.23435E-08        -0.78015E-10         0.00000E+00
    0.23418E-08        -0.11699E-09         0.00000E+00
    0.23394E-08        -0.14644E-09         0.00000E+00
    0.23365E-08        -0.16717E-09         0.00000E+00
    0.23330E-08        -0.17990E-09         0.00000E+00
    0.23292E-08        -0.18530E-09         0.00000E+00
    0.23253E-08        -0.18396E-09         0.00000E+00
    0.23213E-08        -0.17641E-09         0.00000E+00
    0.23175E-08        -0.16309E-09         0.00000E+00
    0.23140E-08        -0.14437E-09         0.00000E+00
    0.23109E-08        -0.12058E-09         0.00000E+00
    0.23085E-08        -0.91951E-10         0.00000E+00
    0.23067E-08        -0.58692E-10         0.00000E+00
    0.23058E-08        -0.20946E-10         0.00000E+00
    0.28528E-08        -0.28219E-10         0.00000E+00
    0.28516E-08        -0.76651E-10         0.00000E+00
    0.28495E-08        -0.11476E-09         0.00000E+00
    0.28465E-08        -0.14346E-09         0.00000E+00
    0.28427E-08        -0.16356E-09         0.00000E+00
    0.28383E-08        -0.17582E-09         0.00000E+00
    0.28335E-08        -0.18094E-09         0.00000E+00
    0.28284E-08        -0.17950E-09         0.00000E+00
    0.28234E-08        -0.17203E-09         0.00000E+00
    0.28186E-08        -0.15897E-09         0.00000E+00
    0.28142E-08        -0.14069E-09         0.00000E+00
    0.28104E-08        -0.11749E-09         0.00000E+00
    0.28073E-08        -0.89599E-10         0.00000E+00
    0.28051E-08        -0.57203E-10         0.00000E+00
    0.28039E-08        -0.20423E-10         0.00000E+00
    0.33535E-08        -0.27632E-10         0.00000E+00
    0.33521E-08        -0.74906E-10         0.00000E+00
    0.33494E-08        -0.11194E-09         0.00000E+00
    0.33456E-08        -0.13969E-09         0.00000E+00
    0.33409E-08        -0.15902E-09         0.00000E+00
    0.33355E-08        -0.17073E-09         0.00000E+00
    0.33296E-08        -0.17550E-09         0.00000E+00
    0.33234E-08        -0.17395E-09         0.00000E+00
    0.33173E-08        -0.16659E-09         0.00000E+00
    0.33114E-08        -0.15387E-09         0.00000E+00
    0.33060E-08        -0.13613E-09         0.00000E+00
    0.33014E-08        -0.11367E-09         0.00000E+00
    0.32976E-08        -0.86697E-10         0.00000E+00
    0.32950E-08        -0.55365E-10         0.00000E+00
    0.32935E-08        -0.19778E-10         0.00000E+00
    0.38451E-08        -0.26891E-10         0.00000E+00
    0.38433E-08        -0.72725E-10         0.00000E+00
    0.38400E-08        -0.10844E-09         0.00000E+00
    0.38354E-08        -0.13505E-09         0.00000E+00
    0.38297E-08        -0.15347E-09         0.00000E+00
    0.38231E-08        -0.16451E-09         0.00000E+00
    0.38160E-08        -0.16889E-09         0.00000E+00
    0.38086E-08        -0.16722E-09         0.00000E+00
    0.38013E-08        -0.16001E-09         0.00000E+00
    0.37942E-08        -0.14771E-09         0.00000E+00
    0.37878E-08        -0.13064E-09         0.00000E+00
    0.37823E-08        -0.10908E-09         0.00000E+00
    0.37778E-08        -0.83207E-10         0.00000E+00
    0.37747E-08        -0.53158E-10         0.00000E+00
    0.37730E-08        -0.19004E-10         0.00000E+00
    0.43258E-08        -0.25973E-10         0.00000E+00
    0.43237E-08        -0.70050E-10         0.00000E+00
    0.43197E-08        -0.10418E-09         0.00000E+00
    0.43142E-08        -0.12944E-09         0.00000E+00
    0.43074E-08        -0.14679E-09         0.00000E+00
    0.42996E-08        -0.15706E-09         0.00000E+00
    0.42911E-08        -0.16100E-09         0.00000E+00
    0.42824E-08        -0.15921E-09         0.00000E+00
    0.42738E-08        -0.15221E-09         0.00000E+00
    0.42655E-08        -0.14042E-09         0.00000E+00
    0.42580E-08        -0.12415E-09         0.00000E+00
    0.42515E-08        -0.10366E-09         0.00000E+00
    0.42463E-08        -0.79091E-10         0.00000E+00
    0.42426E-08        -0.50556E-10         0.00000E+00
    0.42406E-08        -0.18091E-10         0.00000E+00
    0.47942E-08        -0.24855E-10         0.00000E+00
    0.47917E-08        -0.66820E-10         0.00000E+00
    0.47870E-08        -0.99074E-10         0.00000E+00
    0.47804E-08        -0.12276E-09         0.00000E+00
    0.47724E-08        -0.13887E-09         0.00000E+00
    0.47632E-08        -0.14828E-09         0.00000E+00
    0.47534E-08        -0.15173E-09         0.00000E+00
    0.47432E-08        -0.14983E-09         0.00000E+00
    0.47332E-08        -0.14310E-09         0.00000E+00
    0.47236E-08        -0.13192E-09         0.00000E+00
    0.47149E-08        -0.11660E-09         0.00000E+00
    0.47074E-08        -0.97353E-10         0.00000E+00
    0.47014E-08        -0.74310E-10         0.00000E+00
    0.46972E-08        -0.47536E-10         0.00000E+00
    0.46949E-08        -0.17033E-10         0.00000E+00
    0.52485E-08        -0.23512E-10         0.00000E+00
    0.52455E-08        -0.62971E-10         0.00000E+00
    0.52400E-08        -0.93033E-10         0.00000E+00
    0.52323E-08        -0.11490E-09         0.00000E+00
    0.52230E-08        -0.12961E-09         0.00000E+00
    0.52124E-08        -0.13805E-09         0.00000E+00
    0.52010E-08        -0.14098E-09         0.00000E+00
    0.51894E-08        -0.13899E-09         0.00000E+00
    0.51779E-08        -0.13259E-09         0.00000E+00
    0.51670E-08        -0.12214E-09         0.00000E+00
    0.51570E-08        -0.10793E-09         0.00000E+00
    0.51485E-08        -0.90124E-10         0.00000E+00
    0.51416E-08        -0.68833E-10         0.00000E+00
    0.51368E-08        -0.44077E-10         0.00000E+00
    0.51343E-08        -0.15821E-10         0.00000E+00
    0.56870E-08        -0.21919E-10         0.00000E+00
    0.56835E-08        -0.58443E-10         0.00000E+00
    0.56771E-08        -0.85977E-10         0.00000E+00
    0.56683E-08        -0.10578E-09         0.00000E+00
    0.56575E-08        -0.11892E-09         0.00000E+00
    0.56454E-08        -0.12630E-09         0.00000E+00
    0.56325E-08        -0.12866E-09         0.00000E+00
    0.56192E-08        -0.12661E-09         0.00000E+00
    0.56062E-08        -0.12062E-09         0.00000E+00
    0.55939E-08        -0.11103E-09         0.00000E+00
    0.55827E-08        -0.98086E-10         0.00000E+00
    0.55730E-08        -0.81933E-10         0.00000E+00
    0.55653E-08        -0.62630E-10         0.00000E+00
    0.55599E-08        -0.40163E-10         0.00000E+00
    0.55571E-08        -0.14450E-10         0.00000E+00
    0.61079E-08        -0.20054E-10         0.00000E+00
    0.61038E-08        -0.53181E-10         0.00000E+00
    0.60965E-08        -0.77834E-10         0.00000E+00
    0.60864E-08        -0.95312E-10         0.00000E+00
    0.60742E-08        -0.10671E-09         0.00000E+00
    0.60605E-08        -0.11293E-09         0.00000E+00
    0.60460E-08        -0.11472E-09         0.00000E+00
    0.60311E-08        -0.11264E-09         0.00000E+00
    0.60165E-08        -0.10715E-09         0.00000E+00
    0.60027E-08        -0.98549E-10         0.00000E+00
    0.59903E-08        -0.87050E-10         0.00000E+00
    0.59795E-08        -0.72757E-10         0.00000E+00
    0.59710E-08        -0.55688E-10         0.00000E+00
    0.59649E-08        -0.35783E-10         0.00000E+00
    0.59618E-08        -0.12916E-10         0.00000E+00
    0.65093E-08        -0.17897E-10         0.00000E+00
    0.65047E-08        -0.47139E-10         0.00000E+00
    0.64964E-08        -0.68544E-10         0.00000E+00
    0.64850E-08        -0.83443E-10         0.00000E+00
    0.64713E-08        -0.92940E-10         0.00000E+00
    0.64560E-08        -0.97929E-10         0.00000E+00
    0.64398E-08        -0.99122E-10         0.00000E+00
    0.64233E-08        -0.97066E-10         0.00000E+00
    0.64072E-08        -0.92165E-10         0.00000E+00
    0.63920E-08        -0.84693E-10         0.00000E+00
    0.63782E-08        -0.74815E-10         0.00000E+00
    0.63664E-08        -0.62594E-10         0.00000E+00
    0.63570E-08        -0.48003E-10         0.00000E+00
    0.63504E-08        -0.30936E-10         0.00000E+00
    0.63469E-08        -0.11217E-10         0.00000E+00
    0.68893E-08        -0.15432E-10         0.00000E+00
    0.68842E-08        -0.40283E-10         0.00000E+00
    0.68749E-08        -0.58072E-10         0.00000E+00
    0.68622E-08        -0.70142E-10         0.00000E+00
    0.68470E-08        -0.77587E-10         0.00000E+00
    0.68301E-08        -0.81275E-10         0.00000E+00
    0.68123E-08        -0.81879E-10         0.00000E+00
    0.67942E-08        -0.79900E-10         0.00000E+00
    0.67766E-08        -0.75695E-10         0.00000E+00
    0.67600E-08        -0.69494E-10         0.00000E+00
    0.67450E-08        -0.61413E-10         0.00000E+00
    0.67322E-08        -0.51469E-10         0.00000E+00
    0.67220E-08        -0.39593E-10         0.00000E+00
    0.67148E-08        -0.25631E-10         0.00000E+00
    0.67110E-08        -0.93577E-11         0.00000E+00
    0.72461E-08        -0.12650E-10         0.00000E+00
    0.72404E-08        -0.32597E-10         0.00000E+00
    0.72301E-08        -0.46408E-10         0.00000E+00
    0.72162E-08        -0.55417E-10         0.00000E+00
    0.71995E-08        -0.60683E-10         0.00000E+00
    0.71811E-08        -0.63025E-10         0.00000E+00
    0.71617E-08        -0.63058E-10         0.00000E+00
    0.71422E-08        -0.61225E-10         0.00000E+00
    0.71232E-08        -0.57825E-10         0.00000E+00
    0.71053E-08        -0.53032E-10         0.00000E+00
    0.70893E-08        -0.46913E-10         0.00000E+00
    0.70755E-08        -0.39441E-10         0.00000E+00
    0.70645E-08        -0.30500E-10         0.00000E+00
    0.70568E-08        -0.19892E-10         0.00000E+00
    0.70527E-08        -0.73442E-11         0.00000E+00
    0.75776E-08        -0.95464E-11         0.00000E+00
    0.75714E-08        -0.24087E-10         0.00000E+00
    0.75602E-08        -0.33583E-10         0.00000E+00
    0.75450E-08        -0.39328E-10         0.00000E+00
    0.75270E-08        -0.42318E-10         0.00000E+00
    0.75073E-08        -0.43297E-10         0.00000E+00
    0.74865E-08        -0.42800E-10         0.00000E+00
    0.74657E-08        -0.41194E-10         0.00000E+00
    0.74455E-08        -0.38706E-10         0.00000E+00
    0.74266E-08        -0.35450E-10         0.00000E+00
    0.74096E-08        -0.31443E-10         0.00000E+00
    0.73950E-08        -0.26609E-10         0.00000E+00
    0.73834E-08        -0.20795E-10         0.00000E+00
    0.73752E-08        -0.13761E-10         0.00000E+00
    0.73709E-08        -0.51895E-11         0.00000E+00
    0.78819E-08        -0.61300E-11         0.00000E+00
    0.78752E-08        -0.14788E-10         0.00000E+00
    0.78631E-08        -0.19672E-10         0.00000E+00
    0.78469E-08        -0.21996E-10         0.00000E+00
    0.78278E-08        -0.22658E-10         0.00000E+00
    0.78069E-08        -0.22294E-10         0.00000E+00
    0.77851E-08        -0.21333E-10         0.00000E+00
    0.77633E-08        -0.20045E-10         0.00000E+00
    0.77422E-08        -0.18574E-10         0.00000E+00
    0.77225E-08        -0.16968E-10         0.00000E+00
    0.77047E-08        -0.15189E-10         0.00000E+00
    0.76895E-08        -0.13125E-10         0.00000E+00
    0.76774E-08        -0.10585E-10         0.00000E+00
    0.76689E-08        -0.72996E-11         0.00000E+00
    0.76644E-08        -0.29128E-11         0.00000E+00
    0.81571E-08        -0.24196E-11         0.00000E+00
    0.81500E-08        -0.47716E-11         0.00000E+00
    0.81371E-08        -0.48094E-11         0.00000E+00
    0.81201E-08        -0.36226E-11         0.00000E+00
    0.81001E-08        -0.19644E-11         0.00000E+00
    0.80784E-08        -0.32463E-12         0.00000E+00
    0.80559E-08         0.10044E-11         0.00000E+00
    0.80335E-08         0.18726E-11         0.00000E+00
    0.80119E-08         0.22309E-11         0.00000E+00
    0.79918E-08         0.21046E-11         0.00000E+00
    0.79737E-08         0.15795E-11         0.00000E+00
    0.79582E-08         0.80069E-12         0.00000E+00
    0.79458E-08        -0.20754E-13         0.00000E+00
    0.79371E-08        -0.59511E-12         0.00000E+00
    0.79324E-08        -0.54124E-12         0.00000E+00
    0.84011E-08         0.15505E-11         0.00000E+00
    0.83936E-08         0.58458E-11         0.00000E+00
    0.83802E-08         0.10795E-10         0.00000E+00
    0.83626E-08         0.15493E-10         0.00000E+00
    0.83422E-08         0.19385E-10         0.00000E+00
    0.83202E-08         0.22173E-10         0.00000E+00
    0.82975E-08         0.23740E-10         0.00000E+00
    0.82751E-08         0.24078E-10         0.00000E+00
    0.82536E-08         0.23247E-10         0.00000E+00
    0.82335E-08         0.21347E-10         0.00000E+00
    0.82155E-08         0.18504E-10         0.00000E+00
    0.82001E-08         0.14883E-10         0.00000E+00
    0.81877E-08         0.10698E-10         0.00000E+00
    0.81789E-08         0.62369E-11         0.00000E+00
    0.81743E-08         0.18898E-11         0.00000E+00
    0.86119E-08         0.57278E-11         0.00000E+00
    0.86043E-08         0.16892E-10         0.00000E+00
    0.85907E-08         0.26843E-10         0.00000E+00
    0.85729E-08         0.34931E-10         0.00000E+00
    0.85526E-08         0.40868E-10         0.00000E+00
    0.85309E-08         0.44607E-10         0.00000E+00
    0.85088E-08         0.46242E-10         0.00000E+00
    0.84871E-08         0.45936E-10         0.00000E+00
    0.84663E-08         0.43867E-10         0.00000E+00
    0.84470E-08         0.40208E-10         0.00000E+00
    0.84297E-08         0.35117E-10         0.00000E+00
    0.84148E-08         0.28754E-10         0.00000E+00
    0.84028E-08         0.21311E-10         0.00000E+00
    0.83942E-08         0.13048E-10         0.00000E+00
    0.83896E-08         0.43348E-11         0.00000E+00
    0.87876E-08         0.10036E-10         0.00000E+00
    0.87800E-08         0.28124E-10         0.00000E+00
    0.87665E-08         0.42918E-10         0.00000E+00
    0.87493E-08         0.54119E-10         0.00000E+00
    0.87298E-08         0.61788E-10         0.00000E+00
    0.87092E-08         0.66193E-10         0.00000E+00
    0.86886E-08         0.67687E-10         0.00000E+00
    0.86685E-08         0.66626E-10         0.00000E+00
    0.86494E-08         0.63315E-10         0.00000E+00
    0.86317E-08         0.57990E-10         0.00000E+00
    0.86157E-08         0.50823E-10         0.00000E+00
    0.86019E-08         0.41945E-10         0.00000E+00
    0.85907E-08         0.31490E-10         0.00000E+00
    0.85826E-08         0.19649E-10         0.00000E+00
    0.85783E-08         0.67372E-11         0.00000E+00
    0.89262E-08         0.14370E-10         0.00000E+00
    0.89188E-08         0.39207E-10         0.00000E+00
    0.89061E-08         0.58456E-10         0.00000E+00
    0.88900E-08         0.72292E-10         0.00000E+00
    0.88723E-08         0.81228E-10         0.00000E+00
    0.88541E-08         0.85924E-10         0.00000E+00
    0.88360E-08         0.87034E-10         0.00000E+00
    0.88187E-08         0.85123E-10         0.00000E+00
    0.88023E-08         0.80623E-10         0.00000E+00
    0.87872E-08         0.73822E-10         0.00000E+00
    0.87735E-08         0.64884E-10         0.00000E+00
    0.87616E-08         0.53875E-10         0.00000E+00
    0.87518E-08         0.40826E-10         0.00000E+00
    0.87445E-08         0.25808E-10         0.00000E+00
    0.87406E-08         0.90275E-11         0.00000E+00
    0.90257E-08         0.18585E-10         0.00000E+00
    0.90189E-08         0.49685E-10         0.00000E+00
    0.90076E-08         0.72698E-10         0.00000E+00
    0.89938E-08         0.88438E-10         0.00000E+00
    0.89791E-08         0.98005E-10         0.00000E+00
    0.89645E-08         0.10253E-09         0.00000E+00
    0.89505E-08         0.10299E-09         0.00000E+00
    0.89373E-08         0.10017E-09         0.00000E+00
    0.89250E-08         0.94617E-10         0.00000E+00
    0.89137E-08         0.86651E-10         0.00000E+00
    0.89034E-08         0.76398E-10         0.00000E+00
    0.88942E-08         0.63825E-10         0.00000E+00
    0.88864E-08         0.48811E-10         0.00000E+00
    0.88805E-08         0.31235E-10         0.00000E+00
    0.88771E-08         0.11121E-10         0.00000E+00
    0.90839E-08         0.22479E-10         0.00000E+00
    0.90783E-08         0.58921E-10         0.00000E+00
    0.90693E-08         0.84605E-10         0.00000E+00
    0.90591E-08         0.10122E-09         0.00000E+00
    0.90491E-08         0.11060E-09         0.00000E+00
    0.90399E-08         0.11442E-09         0.00000E+00
    0.90316E-08         0.11398E-09         0.00000E+00
    0.90243E-08         0.11027E-09         0.00000E+00
    0.90177E-08         0.10391E-09         0.00000E+00
    0.90116E-08         0.95226E-10         0.00000E+00
    0.90059E-08         0.84282E-10         0.00000E+00
    0.90005E-08         0.70922E-10         0.00000E+00
    0.89956E-08         0.54815E-10         0.00000E+00
    0.89915E-08         0.35570E-10         0.00000E+00
    0.89890E-08         0.12912E-10         0.00000E+00
    0.90987E-08         0.25762E-10         0.00000E+00
    0.90950E-08         0.66006E-10         0.00000E+00
    0.90897E-08         0.92731E-10         0.00000E+00
    0.90851E-08         0.10884E-09         0.00000E+00
    0.90818E-08         0.11709E-09         0.00000E+00
    0.90801E-08         0.11968E-09         0.00000E+00
    0.90796E-08         0.11819E-09         0.00000E+00
    0.90799E-08         0.11372E-09         0.00000E+00
    0.90807E-08         0.10693E-09         0.00000E+00
    0.90815E-08         0.98108E-10         0.00000E+00
    0.90818E-08         0.87260E-10         0.00000E+00
    0.90816E-08         0.74091E-10         0.00000E+00
    0.90805E-08         0.58039E-10         0.00000E+00
    0.90790E-08         0.38343E-10         0.00000E+00
    0.90778E-08         0.14267E-10         0.00000E+00
    0.90675E-08         0.27983E-10         0.00000E+00
    0.90668E-08         0.69546E-10         0.00000E+00
    0.90674E-08         0.94984E-10         0.00000E+00
    0.90709E-08         0.10892E-09         0.00000E+00
    0.90771E-08         0.11507E-09         0.00000E+00
    0.90854E-08         0.11605E-09         0.00000E+00
    0.90949E-08         0.11355E-09         0.00000E+00
    0.91051E-08         0.10865E-09         0.00000E+00
    0.91150E-08         0.10195E-09         0.00000E+00
    0.91243E-08         0.93707E-10         0.00000E+00
    0.91324E-08         0.83857E-10         0.00000E+00
    0.91387E-08         0.72016E-10         0.00000E+00
    0.91429E-08         0.57427E-10         0.00000E+00
    0.91450E-08         0.38901E-10         0.00000E+00
    0.91455E-08         0.14999E-10         0.00000E+00
    0.89872E-08         0.28352E-10         0.00000E+00
    0.89914E-08         0.67212E-10         0.00000E+00
    0.90013E-08         0.88199E-10         0.00000E+00
    0.90167E-08         0.98229E-10         0.00000E+00
    0.90357E-08         0.10165E-09         0.00000E+00
    0.90569E-08         0.10103E-09         0.00000E+00
    0.90789E-08         0.97898E-10         0.00000E+00
    0.91008E-08         0.93140E-10         0.00000E+00
    0.91218E-08         0.87236E-10         0.00000E+00
    0.91413E-08         0.80365E-10         0.00000E+00
    0.91587E-08         0.72440E-10         0.00000E+00
    0.91734E-08         0.63079E-10         0.00000E+00
    0.91847E-08         0.51490E-10         0.00000E+00
    0.91918E-08         0.36230E-10         0.00000E+00
    0.91948E-08         0.14796E-10         0.00000E+00
    0.88530E-08         0.25239E-10         0.00000E+00
    0.88665E-08         0.54455E-10         0.00000E+00
    0.88917E-08         0.67560E-10         0.00000E+00
    0.89240E-08         0.72705E-10         0.00000E+00
    0.89598E-08         0.73580E-10         0.00000E+00
    0.89968E-08         0.72057E-10         0.00000E+00
    0.90335E-08         0.69155E-10         0.00000E+00
    0.90689E-08         0.65435E-10         0.00000E+00
    0.91025E-08         0.61187E-10         0.00000E+00
    0.91337E-08         0.56511E-10         0.00000E+00
    0.91620E-08         0.51336E-10         0.00000E+00
    0.91868E-08         0.45396E-10         0.00000E+00
    0.92074E-08         0.38107E-10         0.00000E+00
    0.92223E-08         0.28275E-10         0.00000E+00
    0.92296E-08         0.13165E-10         0.00000E+00
    0.86568E-08         0.11266E-10         0.00000E+00
    0.86918E-08         0.22351E-10         0.00000E+00
    0.87417E-08         0.26525E-10         0.00000E+00
    0.87968E-08         0.27836E-10         0.00000E+00
    0.88531E-08         0.27733E-10         0.00000E+00
    0.89083E-08         0.26883E-10         0.00000E+00
    0.89613E-08         0.25632E-10         0.00000E+00
    0.90116E-08         0.24164E-10         0.00000E+00
    0.90588E-08         0.22572E-10         0.00000E+00
    0.91027E-08         0.20885E-10         0.00000E+00
    0.91430E-08         0.19078E-10         0.00000E+00
    0.91796E-08         0.17059E-10         0.00000E+00
    0.92117E-08         0.14623E-10         0.00000E+00
    0.92381E-08         0.11310E-10         0.00000E+00
    0.92559E-08         0.59604E-11         0.00000E+00
POINT_DATA        496
VECTORS vDarcyNodal double 
    0.26276E-09        -0.29506E-10         0.00000E+00
    0.26272E-09        -0.55026E-10         0.00000E+00
    0.26259E-09        -0.10085E-09         0.00000E+00
    0.26239E-09        -0.13663E-09         0.00000E+00
    0.26212E-09        -0.16308E-09         0.00000E+00
    0.26179E-09        -0.18090E-09         0.00000E+00
    0.26142E-09        -0.19073E-09         0.00000E+00
    0.26102E-09        -0.19318E-09         0.00000E+00
    0.26060E-09        -0.18879E-09         0.00000E+00
    0.26019E-09        -0.17804E-09         0.00000E+00
    0.25981E-09        -0.16136E-09         0.00000E+00
    0.25946E-09        -0.13911E-09         0.00000E+00
    0.25917E-09        -0.11160E-09         0.00000E+00
    0.25894E-09        -0.79097E-10         0.00000E+00
    0.25880E-09        -0.41799E-10         0.00000E+00
    0.25875E-09        -0.21975E-10         0.00000E+00
    0.52519E-09        -0.29468E-10         0.00000E+00
    0.52510E-09        -0.54950E-10         0.00000E+00
    0.52485E-09        -0.10070E-09         0.00000E+00
    0.52444E-09        -0.13641E-09         0.00000E+00
    0.52389E-09        -0.16279E-09         0.00000E+00
    0.52323E-09        -0.18056E-09         0.00000E+00
    0.52248E-09        -0.19035E-09         0.00000E+00
    0.52167E-09        -0.19278E-09         0.00000E+00
    0.52084E-09        -0.18839E-09         0.00000E+00
    0.52001E-09        -0.17765E-09         0.00000E+00
    0.51924E-09        -0.16100E-09         0.00000E+00
    0.51854E-09        -0.13880E-09         0.00000E+00
    0.51795E-09        -0.11135E-09         0.00000E+00
    0.51750E-09        -0.78918E-10         0.00000E+00
    0.51722E-09        -0.41705E-10         0.00000E+00
    0.51711E-09        -0.21927E-10         0.00000E+00
    0.10490E-08        -0.29355E-10         0.00000E+00
    0.10489E-08        -0.54719E-10         0.00000E+00
    0.10483E-08        -0.10024E-09         0.00000E+00
    0.10475E-08        -0.13572E-09         0.00000E+00
    0.10464E-08        -0.16191E-09         0.00000E+00
    0.10450E-08        -0.17952E-09         0.00000E+00
    0.10435E-08        -0.18920E-09         0.00000E+00
    0.10419E-08        -0.19157E-09         0.00000E+00
    0.10402E-08        -0.18717E-09         0.00000E+00
    0.10385E-08        -0.17647E-09         0.00000E+00
    0.10370E-08        -0.15991E-09         0.00000E+00
    0.10356E-08        -0.13785E-09         0.00000E+00
    0.10344E-08        -0.11059E-09         0.00000E+00
    0.10335E-08        -0.78379E-10         0.00000E+00
    0.10329E-08        -0.41422E-10         0.00000E+00
    0.10327E-08        -0.21779E-10         0.00000E+00
    0.15702E-08        -0.29159E-10         0.00000E+00
    0.15699E-08        -0.54321E-10         0.00000E+00
    0.15691E-08        -0.99442E-10         0.00000E+00
    0.15678E-08        -0.13455E-09         0.00000E+00
    0.15661E-08        -0.16041E-09         0.00000E+00
    0.15640E-08        -0.17776E-09         0.00000E+00
    0.15617E-08        -0.18726E-09         0.00000E+00
    0.15592E-08        -0.18952E-09         0.00000E+00
    0.15566E-08        -0.18510E-09         0.00000E+00
    0.15541E-08        -0.17448E-09         0.00000E+00
    0.15517E-08        -0.15808E-09         0.00000E+00
    0.15495E-08        -0.13625E-09         0.00000E+00
    0.15477E-08        -0.10930E-09         0.00000E+00
    0.15464E-08        -0.77469E-10         0.00000E+00
    0.15455E-08        -0.40945E-10         0.00000E+00
    0.15452E-08        -0.21531E-10         0.00000E+00
    0.20872E-08        -0.28871E-10         0.00000E+00
    0.20868E-08        -0.53740E-10         0.00000E+00
    0.20857E-08        -0.98284E-10         0.00000E+00
    0.20839E-08        -0.13285E-09         0.00000E+00
    0.20816E-08        -0.15825E-09         0.00000E+00
    0.20787E-08        -0.17522E-09         0.00000E+00
    0.20755E-08        -0.18446E-09         0.00000E+00
    0.20721E-08        -0.18658E-09         0.00000E+00
    0.20686E-08        -0.18214E-09         0.00000E+00
    0.20651E-08        -0.17163E-09         0.00000E+00
    0.20619E-08        -0.15546E-09         0.00000E+00
    0.20589E-08        -0.13397E-09         0.00000E+00
    0.20565E-08        -0.10747E-09         0.00000E+00
    0.20546E-08        -0.76173E-10         0.00000E+00
    0.20534E-08        -0.40266E-10         0.00000E+00
    0.20530E-08        -0.21178E-10         0.00000E+00
    0.25988E-08        -0.28478E-10         0.00000E+00
    0.25983E-08        -0.52950E-10         0.00000E+00
    0.25968E-08        -0.96720E-10         0.00000E+00
    0.25945E-08        -0.13057E-09         0.00000E+00
    0.25914E-08        -0.15536E-09         0.00000E+00
    0.25877E-08        -0.17184E-09         0.00000E+00
    0.25836E-08        -0.18074E-09         0.00000E+00
    0.25791E-08        -0.18268E-09         0.00000E+00
    0.25746E-08        -0.17823E-09         0.00000E+00
    0.25701E-08        -0.16787E-09         0.00000E+00
    0.25660E-08        -0.15200E-09         0.00000E+00
    0.25622E-08        -0.13097E-09         0.00000E+00
    0.25591E-08        -0.10506E-09         0.00000E+00
    0.25567E-08        -0.74470E-10         0.00000E+00
    0.25551E-08        -0.39373E-10         0.00000E+00
    0.25546E-08        -0.20714E-10         0.00000E+00
    0.31034E-08        -0.27961E-10         0.00000E+00
    0.31028E-08        -0.51921E-10         0.00000E+00
    0.31009E-08        -0.94696E-10         0.00000E+00
    0.30980E-08        -0.12765E-09         0.00000E+00
    0.30941E-08        -0.15166E-09         0.00000E+00
    0.30895E-08        -0.16754E-09         0.00000E+00
    0.30843E-08        -0.17602E-09         0.00000E+00
    0.30788E-08        -0.17775E-09         0.00000E+00
    0.30731E-08        -0.17329E-09         0.00000E+00
    0.30676E-08        -0.16313E-09         0.00000E+00
    0.30624E-08        -0.14765E-09         0.00000E+00
    0.30578E-08        -0.12720E-09         0.00000E+00
    0.30539E-08        -0.10203E-09         0.00000E+00
    0.30510E-08        -0.72332E-10         0.00000E+00
    0.30491E-08        -0.38253E-10         0.00000E+00
    0.30484E-08        -0.20132E-10         0.00000E+00
    0.35997E-08        -0.27302E-10         0.00000E+00
    0.35988E-08        -0.50617E-10         0.00000E+00
    0.35965E-08        -0.92151E-10         0.00000E+00
    0.35929E-08        -0.12399E-09         0.00000E+00
    0.35881E-08        -0.14706E-09         0.00000E+00
    0.35825E-08        -0.16221E-09         0.00000E+00
    0.35761E-08        -0.17021E-09         0.00000E+00
    0.35694E-08        -0.17169E-09         0.00000E+00
    0.35626E-08        -0.16724E-09         0.00000E+00
    0.35559E-08        -0.15733E-09         0.00000E+00
    0.35497E-08        -0.14234E-09         0.00000E+00
    0.35442E-08        -0.12260E-09         0.00000E+00
    0.35395E-08        -0.98339E-10         0.00000E+00
    0.35359E-08        -0.69730E-10         0.00000E+00
    0.35337E-08        -0.36891E-10         0.00000E+00
    0.35329E-08        -0.19425E-10         0.00000E+00
    0.40859E-08        -0.26479E-10         0.00000E+00
    0.40849E-08        -0.48999E-10         0.00000E+00
    0.40821E-08        -0.89015E-10         0.00000E+00
    0.40777E-08        -0.11951E-09         0.00000E+00
    0.40719E-08        -0.14146E-09         0.00000E+00
    0.40651E-08        -0.15576E-09         0.00000E+00
    0.40576E-08        -0.16319E-09         0.00000E+00
    0.40496E-08        -0.16441E-09         0.00000E+00
    0.40415E-08        -0.15999E-09         0.00000E+00
    0.40336E-08        -0.15039E-09         0.00000E+00
    0.40262E-08        -0.13601E-09         0.00000E+00
    0.40196E-08        -0.11712E-09         0.00000E+00
    0.40141E-08        -0.93945E-10         0.00000E+00
    0.40100E-08        -0.66634E-10         0.00000E+00
    0.40073E-08        -0.35271E-10         0.00000E+00
    0.40063E-08        -0.18583E-10         0.00000E+00
    0.45606E-08        -0.25467E-10         0.00000E+00
    0.45594E-08        -0.47025E-10         0.00000E+00
    0.45560E-08        -0.85216E-10         0.00000E+00
    0.45507E-08        -0.11411E-09         0.00000E+00
    0.45439E-08        -0.13476E-09         0.00000E+00
    0.45358E-08        -0.14808E-09         0.00000E+00
    0.45269E-08        -0.15487E-09         0.00000E+00
    0.45176E-08        -0.15580E-09         0.00000E+00
    0.45081E-08        -0.15143E-09         0.00000E+00
    0.44989E-08        -0.14224E-09         0.00000E+00
    0.44903E-08        -0.12857E-09         0.00000E+00
    0.44827E-08        -0.11069E-09         0.00000E+00
    0.44763E-08        -0.88801E-10         0.00000E+00
    0.44714E-08        -0.63012E-10         0.00000E+00
    0.44683E-08        -0.33376E-10         0.00000E+00
    0.44673E-08        -0.17600E-10         0.00000E+00
    0.50220E-08        -0.24243E-10         0.00000E+00
    0.50206E-08        -0.44650E-10         0.00000E+00
    0.50166E-08        -0.80677E-10         0.00000E+00
    0.50104E-08        -0.10771E-09         0.00000E+00
    0.50024E-08        -0.12686E-09         0.00000E+00
    0.49930E-08        -0.13906E-09         0.00000E+00
    0.49826E-08        -0.14513E-09         0.00000E+00
    0.49718E-08        -0.14576E-09         0.00000E+00
    0.49608E-08        -0.14149E-09         0.00000E+00
    0.49502E-08        -0.13278E-09         0.00000E+00
    0.49404E-08        -0.11995E-09         0.00000E+00
    0.49316E-08        -0.10326E-09         0.00000E+00
    0.49243E-08        -0.82863E-10         0.00000E+00
    0.49188E-08        -0.58834E-10         0.00000E+00
    0.49152E-08        -0.31192E-10         0.00000E+00
    0.49140E-08        -0.16466E-10         0.00000E+00
    0.54685E-08        -0.22781E-10         0.00000E+00
    0.54669E-08        -0.41832E-10         0.00000E+00
    0.54622E-08        -0.75326E-10         0.00000E+00
    0.54549E-08        -0.10022E-09         0.00000E+00
    0.54457E-08        -0.11765E-09         0.00000E+00
    0.54349E-08        -0.12860E-09         0.00000E+00
    0.54230E-08        -0.13389E-09         0.00000E+00
    0.54106E-08        -0.13421E-09         0.00000E+00
    0.53981E-08        -0.13008E-09         0.00000E+00
    0.53860E-08        -0.12195E-09         0.00000E+00
    0.53748E-08        -0.11011E-09         0.00000E+00
    0.53649E-08        -0.94788E-10         0.00000E+00
    0.53566E-08        -0.76094E-10         0.00000E+00
    0.53504E-08        -0.54075E-10         0.00000E+00
    0.53464E-08        -0.28706E-10         0.00000E+00
    0.53450E-08        -0.15176E-10         0.00000E+00
    0.58984E-08        -0.21057E-10         0.00000E+00
    0.58964E-08        -0.38530E-10         0.00000E+00
    0.58910E-08        -0.69094E-10         0.00000E+00
    0.58827E-08        -0.91538E-10         0.00000E+00
    0.58721E-08        -0.10704E-09         0.00000E+00
    0.58597E-08        -0.11661E-09         0.00000E+00
    0.58462E-08        -0.12106E-09         0.00000E+00
    0.58322E-08        -0.12107E-09         0.00000E+00
    0.58181E-08        -0.11715E-09         0.00000E+00
    0.58046E-08        -0.10970E-09         0.00000E+00
    0.57920E-08        -0.99002E-10         0.00000E+00
    0.57809E-08        -0.85231E-10         0.00000E+00
    0.57717E-08        -0.68469E-10         0.00000E+00
    0.57647E-08        -0.48718E-10         0.00000E+00
    0.57602E-08        -0.25907E-10         0.00000E+00
    0.57586E-08        -0.13724E-10         0.00000E+00
    0.63096E-08        -0.19051E-10         0.00000E+00
    0.63074E-08        -0.34706E-10         0.00000E+00
    0.63012E-08        -0.61921E-10         0.00000E+00
    0.62917E-08        -0.81608E-10         0.00000E+00
    0.62797E-08        -0.94978E-10         0.00000E+00
    0.62658E-08        -0.10303E-09         0.00000E+00
    0.62507E-08        -0.10659E-09         0.00000E+00
    0.62350E-08        -0.10630E-09         0.00000E+00
    0.62194E-08        -0.10265E-09         0.00000E+00
    0.62043E-08        -0.95999E-10         0.00000E+00
    0.61904E-08        -0.86597E-10         0.00000E+00
    0.61781E-08        -0.74576E-10         0.00000E+00
    0.61679E-08        -0.59975E-10         0.00000E+00
    0.61601E-08        -0.42753E-10         0.00000E+00
    0.61552E-08        -0.22791E-10         0.00000E+00
    0.61535E-08        -0.12107E-10         0.00000E+00
    0.67005E-08        -0.16743E-10         0.00000E+00
    0.66980E-08        -0.30331E-10         0.00000E+00
    0.66909E-08        -0.53762E-10         0.00000E+00
    0.66803E-08        -0.70380E-10         0.00000E+00
    0.66669E-08        -0.81406E-10         0.00000E+00
    0.66515E-08        -0.87835E-10         0.00000E+00
    0.66347E-08        -0.90460E-10         0.00000E+00
    0.66174E-08        -0.89891E-10         0.00000E+00
    0.66001E-08        -0.86585E-10         0.00000E+00
    0.65836E-08        -0.80859E-10         0.00000E+00
    0.65683E-08        -0.72912E-10         0.00000E+00
    0.65549E-08        -0.62834E-10         0.00000E+00
    0.65437E-08        -0.50621E-10         0.00000E+00
    0.65352E-08        -0.36185E-10         0.00000E+00
    0.65299E-08        -0.19361E-10         0.00000E+00
    0.65280E-08        -0.10327E-10         0.00000E+00
    0.70691E-08        -0.14121E-10         0.00000E+00
    0.70662E-08        -0.25385E-10         0.00000E+00
    0.70584E-08        -0.44593E-10         0.00000E+00
    0.70466E-08        -0.57834E-10         0.00000E+00
    0.70318E-08        -0.66324E-10         0.00000E+00
    0.70148E-08        -0.71028E-10         0.00000E+00
    0.69965E-08        -0.72695E-10         0.00000E+00
    0.69776E-08        -0.71888E-10         0.00000E+00
    0.69588E-08        -0.69011E-10         0.00000E+00
    0.69409E-08        -0.64331E-10         0.00000E+00
    0.69244E-08        -0.57995E-10         0.00000E+00
    0.69099E-08        -0.50049E-10         0.00000E+00
    0.68978E-08        -0.40441E-10         0.00000E+00
    0.68887E-08        -0.29038E-10         0.00000E+00
    0.68829E-08        -0.15627E-10         0.00000E+00
    0.68808E-08        -0.83883E-11         0.00000E+00
    0.74134E-08        -0.11178E-10         0.00000E+00
    0.74102E-08        -0.19862E-10         0.00000E+00
    0.74016E-08        -0.34413E-10         0.00000E+00
    0.73887E-08        -0.43992E-10         0.00000E+00
    0.73725E-08        -0.49777E-10         0.00000E+00
    0.73541E-08        -0.52681E-10         0.00000E+00
    0.73343E-08        -0.53389E-10         0.00000E+00
    0.73140E-08        -0.52396E-10         0.00000E+00
    0.72939E-08        -0.50040E-10         0.00000E+00
    0.72748E-08        -0.46527E-10         0.00000E+00
    0.72572E-08        -0.41951E-10         0.00000E+00
    0.72417E-08        -0.36307E-10         0.00000E+00
    0.72288E-08        -0.29500E-10         0.00000E+00
    0.72191E-08        -0.21354E-10         0.00000E+00
    0.72129E-08        -0.11609E-10         0.00000E+00
    0.72107E-08        -0.63002E-11         0.00000E+00
    0.77315E-08        -0.79150E-11         0.00000E+00
    0.77280E-08        -0.13772E-10         0.00000E+00
    0.77186E-08        -0.23257E-10         0.00000E+00
    0.77047E-08        -0.28920E-10         0.00000E+00
    0.76873E-08        -0.31870E-10         0.00000E+00
    0.76676E-08        -0.32935E-10         0.00000E+00
    0.76466E-08        -0.32709E-10         0.00000E+00
    0.76251E-08        -0.31599E-10         0.00000E+00
    0.76039E-08        -0.29861E-10         0.00000E+00
    0.75838E-08        -0.27630E-10         0.00000E+00
    0.75653E-08        -0.24943E-10         0.00000E+00
    0.75490E-08        -0.21746E-10         0.00000E+00
    0.75355E-08        -0.17904E-10         0.00000E+00
    0.75253E-08        -0.13202E-10         0.00000E+00
    0.75188E-08        -0.73412E-11         0.00000E+00
    0.75165E-08        -0.40788E-11         0.00000E+00
    0.80214E-08        -0.43452E-11         0.00000E+00
    0.80176E-08        -0.71466E-11         0.00000E+00
    0.80076E-08        -0.11203E-10         0.00000E+00
    0.79927E-08        -0.12749E-10         0.00000E+00
    0.79743E-08        -0.12785E-10         0.00000E+00
    0.79536E-08        -0.12018E-10         0.00000E+00
    0.79316E-08        -0.10919E-10         0.00000E+00
    0.79093E-08        -0.97801E-11         0.00000E+00
    0.78874E-08        -0.87594E-11         0.00000E+00
    0.78666E-08        -0.79128E-11         0.00000E+00
    0.78476E-08        -0.72150E-11         0.00000E+00
    0.78308E-08        -0.65687E-11         0.00000E+00
    0.78169E-08        -0.58061E-11         0.00000E+00
    0.78063E-08        -0.46830E-11         0.00000E+00
    0.77996E-08        -0.28714E-11         0.00000E+00
    0.77972E-08        -0.17470E-11         0.00000E+00
    0.82811E-08        -0.49432E-12         0.00000E+00
    0.82771E-08        -0.45108E-13         0.00000E+00
    0.82665E-08         0.16211E-11         0.00000E+00
    0.82509E-08         0.43157E-11         0.00000E+00
    0.82318E-08         0.71972E-11         0.00000E+00
    0.82105E-08         0.97280E-11         0.00000E+00
    0.81881E-08         0.11598E-10         0.00000E+00
    0.81654E-08         0.12656E-10         0.00000E+00
    0.81432E-08         0.12862E-10         0.00000E+00
    0.81222E-08         0.12247E-10         0.00000E+00
    0.81030E-08         0.10898E-10         0.00000E+00
    0.80862E-08         0.89483E-11         0.00000E+00
    0.80721E-08         0.65855E-11         0.00000E+00
    0.80614E-08         0.40668E-11         0.00000E+00
    0.80546E-08         0.17348E-11         0.00000E+00
    0.80522E-08         0.66440E-12         0.00000E+00
    0.85086E-08         0.35951E-11         0.00000E+00
    0.85044E-08         0.74409E-11         0.00000E+00
    0.84934E-08         0.15019E-10         0.00000E+00
    0.84775E-08         0.21972E-10         0.00000E+00
    0.84581E-08         0.27680E-10         0.00000E+00
    0.84367E-08         0.31829E-10         0.00000E+00
    0.84144E-08         0.34315E-10         0.00000E+00
    0.83920E-08         0.35161E-10         0.00000E+00
    0.83702E-08         0.34463E-10         0.00000E+00
    0.83497E-08         0.32346E-10         0.00000E+00
    0.83309E-08         0.28952E-10         0.00000E+00
    0.83143E-08         0.24439E-10         0.00000E+00
    0.83005E-08         0.18995E-10         0.00000E+00
    0.82899E-08         0.12868E-10         0.00000E+00
    0.82832E-08         0.63917E-11         0.00000E+00
    0.82807E-08         0.31151E-11         0.00000E+00
    0.87019E-08         0.78601E-11         0.00000E+00
    0.86977E-08         0.15178E-10         0.00000E+00
    0.86866E-08         0.28715E-10         0.00000E+00
    0.86706E-08         0.39801E-10         0.00000E+00
    0.86516E-08         0.48118E-10         0.00000E+00
    0.86308E-08         0.53645E-10         0.00000E+00
    0.86094E-08         0.56532E-10         0.00000E+00
    0.85880E-08         0.57015E-10         0.00000E+00
    0.85675E-08         0.55339E-10         0.00000E+00
    0.85482E-08         0.51729E-10         0.00000E+00
    0.85305E-08         0.46372E-10         0.00000E+00
    0.85149E-08         0.39432E-10         0.00000E+00
    0.85018E-08         0.31069E-10         0.00000E+00
    0.84917E-08         0.21490E-10         0.00000E+00
    0.84851E-08         0.10990E-10         0.00000E+00
    0.84827E-08         0.55545E-11         0.00000E+00
    0.88591E-08         0.12212E-10         0.00000E+00
    0.88549E-08         0.22981E-10         0.00000E+00
    0.88440E-08         0.42326E-10         0.00000E+00
    0.88286E-08         0.57234E-10         0.00000E+00
    0.88107E-08         0.67787E-10         0.00000E+00
    0.87914E-08         0.74335E-10         0.00000E+00
    0.87719E-08         0.77346E-10         0.00000E+00
    0.87527E-08         0.77297E-10         0.00000E+00
    0.87344E-08         0.74601E-10         0.00000E+00
    0.87173E-08         0.69575E-10         0.00000E+00
    0.87016E-08         0.62439E-10         0.00000E+00
    0.86877E-08         0.53336E-10         0.00000E+00
    0.86759E-08         0.42365E-10         0.00000E+00
    0.86666E-08         0.29648E-10         0.00000E+00
    0.86605E-08         0.15395E-10         0.00000E+00
    0.86583E-08         0.79199E-11         0.00000E+00
    0.89781E-08         0.16529E-10         0.00000E+00
    0.89740E-08         0.30596E-10         0.00000E+00
    0.89638E-08         0.55337E-10         0.00000E+00
    0.89498E-08         0.73513E-10         0.00000E+00
    0.89340E-08         0.85732E-10         0.00000E+00
    0.89175E-08         0.92816E-10         0.00000E+00
    0.89011E-08         0.95610E-10         0.00000E+00
    0.88854E-08         0.94859E-10         0.00000E+00
    0.88706E-08         0.91144E-10         0.00000E+00
    0.88568E-08         0.84870E-10         0.00000E+00
    0.88441E-08         0.76266E-10         0.00000E+00
    0.88328E-08         0.65422E-10         0.00000E+00
    0.88230E-08         0.52334E-10         0.00000E+00
    0.88152E-08         0.36985E-10         0.00000E+00
    0.88098E-08         0.19440E-10         0.00000E+00
    0.88078E-08         0.10135E-10         0.00000E+00
    0.90568E-08         0.20642E-10         0.00000E+00
    0.90531E-08         0.37674E-10         0.00000E+00
    0.90442E-08         0.67045E-10         0.00000E+00
    0.90327E-08         0.87622E-10         0.00000E+00
    0.90202E-08         0.10071E-09         0.00000E+00
    0.90080E-08         0.10771E-09         0.00000E+00
    0.89964E-08         0.10990E-09         0.00000E+00
    0.89857E-08         0.10830E-09         0.00000E+00
    0.89759E-08         0.10364E-09         0.00000E+00
    0.89668E-08         0.96398E-10         0.00000E+00
    0.89585E-08         0.86782E-10         0.00000E+00
    0.89508E-08         0.74801E-10         0.00000E+00
    0.89439E-08         0.60301E-10         0.00000E+00
    0.89381E-08         0.43061E-10         0.00000E+00
    0.89339E-08         0.22916E-10         0.00000E+00
    0.89322E-08         0.12106E-10         0.00000E+00
    0.90930E-08         0.24316E-10         0.00000E+00
    0.90899E-08         0.43727E-10         0.00000E+00
    0.90833E-08         0.76480E-10         0.00000E+00
    0.90757E-08         0.98200E-10         0.00000E+00
    0.90685E-08         0.11111E-09         0.00000E+00
    0.90624E-08         0.11730E-09         0.00000E+00
    0.90575E-08         0.11850E-09         0.00000E+00
    0.90537E-08         0.11596E-09         0.00000E+00
    0.90505E-08         0.11054E-09         0.00000E+00
    0.90478E-08         0.10274E-09         0.00000E+00
    0.90452E-08         0.92725E-10         0.00000E+00
    0.90425E-08         0.80403E-10         0.00000E+00
    0.90396E-08         0.65435E-10         0.00000E+00
    0.90366E-08         0.47324E-10         0.00000E+00
    0.90340E-08         0.25565E-10         0.00000E+00
    0.90327E-08         0.13718E-10         0.00000E+00
    0.90843E-08         0.27206E-10         0.00000E+00
    0.90823E-08         0.48041E-10         0.00000E+00
    0.90794E-08         0.82256E-10         0.00000E+00
    0.90777E-08         0.10338E-09         0.00000E+00
    0.90782E-08         0.11483E-09         0.00000E+00
    0.90807E-08         0.11946E-09         0.00000E+00
    0.90847E-08         0.11937E-09         0.00000E+00
    0.90898E-08         0.11596E-09         0.00000E+00
    0.90952E-08         0.11011E-09         0.00000E+00
    0.91005E-08         0.10230E-09         0.00000E+00
    0.91052E-08         0.92642E-10         0.00000E+00
    0.91089E-08         0.80949E-10         0.00000E+00
    0.91113E-08         0.66696E-10         0.00000E+00
    0.91122E-08         0.49058E-10         0.00000E+00
    0.91119E-08         0.27044E-10         0.00000E+00
    0.91112E-08         0.14816E-10         0.00000E+00
    0.90275E-08         0.28760E-10         0.00000E+00
    0.90276E-08         0.49489E-10         0.00000E+00
    0.90306E-08         0.82275E-10         0.00000E+00
    0.90381E-08         0.10053E-09         0.00000E+00
    0.90494E-08         0.10916E-09         0.00000E+00
    0.90634E-08         0.11166E-09         0.00000E+00
    0.90789E-08         0.11023E-09         0.00000E+00
    0.90950E-08         0.10625E-09         0.00000E+00
    0.91109E-08         0.10049E-09         0.00000E+00
    0.91260E-08         0.93361E-10         0.00000E+00
    0.91397E-08         0.84922E-10         0.00000E+00
    0.91514E-08         0.74924E-10         0.00000E+00
    0.91607E-08         0.62748E-10         0.00000E+00
    0.91669E-08         0.47271E-10         0.00000E+00
    0.91699E-08         0.26856E-10         0.00000E+00
    0.91703E-08         0.15182E-10         0.00000E+00
    0.89185E-08         0.27944E-10         0.00000E+00
    0.89221E-08         0.46075E-10         0.00000E+00
    0.89358E-08         0.73138E-10         0.00000E+00
    0.89572E-08         0.85904E-10         0.00000E+00
    0.89834E-08         0.90716E-10         0.00000E+00
    0.90121E-08         0.91021E-10         0.00000E+00
    0.90416E-08         0.88697E-10         0.00000E+00
    0.90708E-08         0.84793E-10         0.00000E+00
    0.90989E-08         0.79886E-10         0.00000E+00
    0.91254E-08         0.74241E-10         0.00000E+00
    0.91496E-08         0.67884E-10         0.00000E+00
    0.91711E-08         0.60595E-10         0.00000E+00
    0.91891E-08         0.51821E-10         0.00000E+00
    0.92029E-08         0.40449E-10         0.00000E+00
    0.92112E-08         0.24169E-10         0.00000E+00
    0.92131E-08         0.14409E-10         0.00000E+00
    0.87479E-08         0.22533E-10         0.00000E+00
    0.87625E-08         0.33619E-10         0.00000E+00
    0.87957E-08         0.48879E-10         0.00000E+00
    0.88376E-08         0.54363E-10         0.00000E+00
    0.88832E-08         0.55571E-10         0.00000E+00
    0.89297E-08         0.54618E-10         0.00000E+00
    0.89754E-08         0.52517E-10         0.00000E+00
    0.90194E-08         0.49798E-10         0.00000E+00
    0.90611E-08         0.46738E-10         0.00000E+00
    0.91002E-08         0.43458E-10         0.00000E+00
    0.91362E-08         0.39964E-10         0.00000E+00
    0.91688E-08         0.36138E-10         0.00000E+00
    0.91976E-08         0.31683E-10         0.00000E+00
    0.92215E-08         0.25934E-10         0.00000E+00
    0.92389E-08         0.17271E-10         0.00000E+00
    0.92464E-08         0.11921E-10         0.00000E+00
    0.86456E-08         0.00000E+00         0.00000E+00
    0.86688E-08         0.00000E+00         0.00000E+00
    0.87146E-08        -0.24852E-22         0.00000E+00
    0.87686E-08         0.23043E-26         0.00000E+00
    0.88250E-08         0.28997E-22         0.00000E+00
    0.88811E-08         0.00000E+00         0.00000E+00
    0.89354E-08         0.00000E+00         0.00000E+00
    0.89872E-08        -0.24861E-22         0.00000E+00
    0.90360E-08        -0.24861E-22         0.00000E+00
    0.90816E-08         0.24863E-22         0.00000E+00
    0.91237E-08         0.29007E-22         0.00000E+00
    0.91623E-08        -0.29010E-22         0.00000E+00
    0.91968E-08        -0.41433E-23         0.00000E+00
    0.92265E-08         0.29011E-22         0.00000E+00
    0.92497E-08         0.82893E-23         0.00000E+00
    0.92619E-08         0.00000E+00         0.00000E+00
CELL_DATA        450
TENSORS stressef double 
    0.39537E+07        -0.26553E+04         0.00000E+00
   -0.26553E+04        -0.24124E+08         0.00000E+00
    0.00000E+00         0.00000E+00        -0.40342E+07
 
    0.30393E+07        -0.66275E+04         0.00000E+00
   -0.66275E+04        -0.24142E+08         0.00000E+00
    0.00000E+00         0.00000E+00        -0.42205E+07
 
    0.21909E+07        -0.86754E+04         0.00000E+00
   -0.86754E+04        -0.24171E+08         0.00000E+00
    0.00000E+00         0.00000E+00        -0.43961E+07
 
    0.14013E+07        -0.86802E+04         0.00000E+00
   -0.86802E+04        -0.24208E+08         0.00000E+00
    0.00000E+00         0.00000E+00        -0.45613E+07
 
    0.66327E+06        -0.65592E+04         0.00000E+00
   -0.65592E+04        -0.24246E+08         0.00000E+00
    0.00000E+00         0.00000E+00        -0.47166E+07
 
   -0.30921E+05        -0.22614E+04         0.00000E+00
   -0.22614E+04        -0.24281E+08         0.00000E+00
    0.00000E+00         0.00000E+00        -0.48623E+07
 
   -0.68887E+06         0.42373E+04         0.00000E+00
    0.42373E+04        -0.24306E+08         0.00000E+00
    0.00000E+00         0.00000E+00        -0.49989E+07
 
   -0.13182E+07         0.12939E+05         0.00000E+00
    0.12939E+05        -0.24316E+08         0.00000E+00
    0.00000E+00         0.00000E+00        -0.51268E+07
 
   -0.19264E+07         0.23828E+05         0.00000E+00
    0.23828E+05        -0.24306E+08         0.00000E+00
    0.00000E+00         0.00000E+00        -0.52464E+07
 
   -0.25208E+07         0.36875E+05         0.00000E+00
    0.36875E+05        -0.24270E+08         0.00000E+00
    0.00000E+00         0.00000E+00        -0.53582E+07
 
   -0.31087E+07         0.52044E+05         0.00000E+00
    0.52044E+05        -0.24204E+08         0.00000E+00
    0.00000E+00         0.00000E+00        -0.54626E+07
 
   -0.36970E+07         0.69293E+05         0.00000E+00
    0.69293E+05        -0.24103E+08         0.00000E+00
    0.00000E+00         0.00000E+00        -0.55599E+07
 
   -0.42925E+07         0.88582E+05         0.00000E+00
    0.88582E+05        -0.23961E+08         0.00000E+00
    0.00000E+00         0.00000E+00        -0.56506E+07
 
   -0.49017E+07         0.10987E+06         0.00000E+00
    0.10987E+06        -0.23774E+08         0.00000E+00
    0.00000E+00         0.00000E+00        -0.57351E+07
 
   -0.55309E+07         0.13314E+06         0.00000E+00
    0.13314E+06        -0.23537E+08         0.00000E+00
    0.00000E+00         0.00000E+00        -0.58135E+07
 
    0.38703E+07        -0.80333E+04         0.00000E+00
   -0.80333E+04        -0.24198E+08         0.00000E+00
    0.00000E+00         0.00000E+00        -0.40656E+07
 
    0.29596E+07        -0.20068E+05         0.00000E+00
   -0.20068E+05        -0.24215E+08         0.00000E+00
    0.00000E+00         0.00000E+00        -0.42512E+07
 
    0.21152E+07        -0.26311E+05         0.00000E+00
   -0.26311E+05        -0.24245E+08         0.00000E+00
    0.00000E+00         0.00000E+00        -0.44261E+07
 
    0.13299E+07        -0.26407E+05         0.00000E+00
   -0.26407E+05        -0.24283E+08         0.00000E+00
    0.00000E+00         0.00000E+00        -0.45906E+07
 
    0.59627E+06        -0.20111E+05         0.00000E+00
   -0.20111E+05        -0.24322E+08         0.00000E+00
    0.00000E+00         0.00000E+00        -0.47451E+07
 
   -0.93440E+05        -0.72721E+04         0.00000E+00
   -0.72721E+04        -0.24357E+08         0.00000E+00
    0.00000E+00         0.00000E+00        -0.48901E+07
 
   -0.74686E+06         0.12179E+05         0.00000E+00
    0.12179E+05        -0.24383E+08         0.00000E+00
    0.00000E+00         0.00000E+00        -0.50260E+07
 
   -0.13717E+07         0.38245E+05         0.00000E+00
    0.38245E+05        -0.24394E+08         0.00000E+00
    0.00000E+00         0.00000E+00        -0.51531E+07
 
   -0.19754E+07         0.70878E+05         0.00000E+00
    0.70878E+05        -0.24385E+08         0.00000E+00
    0.00000E+00         0.00000E+00        -0.52721E+07
 
   -0.25654E+07         0.10999E+06         0.00000E+00
    0.10999E+06        -0.24351E+08         0.00000E+00
    0.00000E+00         0.00000E+00        -0.53832E+07
 
   -0.31490E+07         0.15546E+06         0.00000E+00
    0.15546E+06        -0.24286E+08         0.00000E+00
    0.00000E+00         0.00000E+00        -0.54870E+07
 
   -0.37332E+07         0.20718E+06         0.00000E+00
    0.20718E+06        -0.24186E+08         0.00000E+00
    0.00000E+00         0.00000E+00        -0.55837E+07
 
   -0.43246E+07         0.26501E+06         0.00000E+00
    0.26501E+06        -0.24045E+08         0.00000E+00
    0.00000E+00         0.00000E+00        -0.56739E+07
 
   -0.49297E+07         0.32883E+06         0.00000E+00
    0.32883E+06        -0.23859E+08         0.00000E+00
    0.00000E+00         0.00000E+00        -0.57578E+07
 
   -0.55550E+07         0.39858E+06         0.00000E+00
    0.39858E+06        -0.23624E+08         0.00000E+00
    0.00000E+00         0.00000E+00        -0.58358E+07
 
    0.37034E+07        -0.13613E+05         0.00000E+00
   -0.13613E+05        -0.24345E+08         0.00000E+00
    0.00000E+00         0.00000E+00        -0.41284E+07
 
    0.28002E+07        -0.34066E+05         0.00000E+00
   -0.34066E+05        -0.24363E+08         0.00000E+00
    0.00000E+00         0.00000E+00        -0.43126E+07
 
    0.19639E+07        -0.44800E+05         0.00000E+00
   -0.44800E+05        -0.24394E+08         0.00000E+00
    0.00000E+00         0.00000E+00        -0.44860E+07
 
    0.11872E+07        -0.45230E+05         0.00000E+00
   -0.45230E+05        -0.24432E+08         0.00000E+00
    0.00000E+00         0.00000E+00        -0.46490E+07
 
    0.46234E+06        -0.34959E+05         0.00000E+00
   -0.34959E+05        -0.24473E+08         0.00000E+00
    0.00000E+00         0.00000E+00        -0.48021E+07
 
   -0.21838E+06        -0.13742E+05         0.00000E+00
   -0.13742E+05        -0.24510E+08         0.00000E+00
    0.00000E+00         0.00000E+00        -0.49456E+07
 
   -0.86275E+06         0.18526E+05         0.00000E+00
    0.18526E+05        -0.24537E+08         0.00000E+00
    0.00000E+00         0.00000E+00        -0.50800E+07
 
   -0.14785E+07         0.61843E+05         0.00000E+00
    0.61843E+05        -0.24551E+08         0.00000E+00
    0.00000E+00         0.00000E+00        -0.52058E+07
 
   -0.20733E+07         0.11612E+06         0.00000E+00
    0.11612E+06        -0.24544E+08         0.00000E+00
    0.00000E+00         0.00000E+00        -0.53234E+07
 
   -0.26546E+07         0.18120E+06         0.00000E+00
    0.18120E+06        -0.24512E+08         0.00000E+00
    0.00000E+00         0.00000E+00        -0.54332E+07
 
   -0.32296E+07         0.25689E+06         0.00000E+00
    0.25689E+06        -0.24449E+08         0.00000E+00
    0.00000E+00         0.00000E+00        -0.55357E+07
 
   -0.38053E+07         0.34297E+06         0.00000E+00
    0.34297E+06        -0.24351E+08         0.00000E+00
    0.00000E+00         0.00000E+00        -0.56313E+07
 
   -0.43885E+07         0.43922E+06         0.00000E+00
    0.43922E+06        -0.24213E+08         0.00000E+00
    0.00000E+00         0.00000E+00        -0.57204E+07
 
   -0.49856E+07         0.54545E+06         0.00000E+00
    0.54545E+06        -0.24031E+08         0.00000E+00
    0.00000E+00         0.00000E+00        -0.58033E+07
 
   -0.56030E+07         0.66151E+06         0.00000E+00
    0.66151E+06        -0.23799E+08         0.00000E+00
    0.00000E+00         0.00000E+00        -0.58803E+07
 
    0.34529E+07        -0.19528E+05         0.00000E+00
   -0.19528E+05        -0.24565E+08         0.00000E+00
    0.00000E+00         0.00000E+00        -0.42225E+07
 
    0.25610E+07        -0.48990E+05         0.00000E+00
   -0.48990E+05        -0.24584E+08         0.00000E+00
    0.00000E+00         0.00000E+00        -0.44046E+07
 
    0.17370E+07        -0.64704E+05         0.00000E+00
   -0.64704E+05        -0.24616E+08         0.00000E+00
    0.00000E+00         0.00000E+00        -0.45758E+07
 
    0.97316E+06        -0.65874E+05         0.00000E+00
   -0.65874E+05        -0.24656E+08         0.00000E+00
    0.00000E+00         0.00000E+00        -0.47366E+07
 
    0.26162E+06        -0.51956E+05         0.00000E+00
   -0.51956E+05        -0.24699E+08         0.00000E+00
    0.00000E+00         0.00000E+00        -0.48874E+07
 
   -0.40554E+06        -0.22633E+05         0.00000E+00
   -0.22633E+05        -0.24738E+08         0.00000E+00
    0.00000E+00         0.00000E+00        -0.50287E+07
 
   -0.10363E+07         0.22230E+05         0.00000E+00
    0.22230E+05        -0.24769E+08         0.00000E+00
    0.00000E+00         0.00000E+00        -0.51610E+07
 
   -0.16384E+07         0.82609E+05         0.00000E+00
    0.82609E+05        -0.24785E+08         0.00000E+00
    0.00000E+00         0.00000E+00        -0.52846E+07
 
   -0.22198E+07         0.15836E+06         0.00000E+00
    0.15836E+06        -0.24781E+08         0.00000E+00
    0.00000E+00         0.00000E+00        -0.54001E+07
 
   -0.27879E+07         0.24926E+06         0.00000E+00
    0.24926E+06        -0.24752E+08         0.00000E+00
    0.00000E+00         0.00000E+00        -0.55080E+07
 
   -0.33500E+07         0.35500E+06         0.00000E+00
    0.35500E+06        -0.24693E+08         0.00000E+00
    0.00000E+00         0.00000E+00        -0.56086E+07
 
   -0.39131E+07         0.47527E+06         0.00000E+00
    0.47527E+06        -0.24599E+08         0.00000E+00
    0.00000E+00         0.00000E+00        -0.57025E+07
 
   -0.44840E+07         0.60976E+06         0.00000E+00
    0.60976E+06        -0.24465E+08         0.00000E+00
    0.00000E+00         0.00000E+00        -0.57899E+07
 
   -0.50691E+07         0.75817E+06         0.00000E+00
    0.75817E+06        -0.24287E+08         0.00000E+00
    0.00000E+00         0.00000E+00        -0.58713E+07
 
   -0.56747E+07         0.92028E+06         0.00000E+00
    0.92028E+06        -0.24060E+08         0.00000E+00
    0.00000E+00         0.00000E+00        -0.59469E+07
 
    0.31185E+07        -0.25911E+05         0.00000E+00
   -0.25911E+05        -0.24858E+08         0.00000E+00
    0.00000E+00         0.00000E+00        -0.43479E+07
 
    0.22421E+07        -0.65203E+05         0.00000E+00
   -0.65203E+05        -0.24878E+08         0.00000E+00
    0.00000E+00         0.00000E+00        -0.45271E+07
 
    0.14345E+07        -0.86579E+05         0.00000E+00
   -0.86579E+05        -0.24911E+08         0.00000E+00
    0.00000E+00         0.00000E+00        -0.46954E+07
 
    0.68803E+06        -0.89047E+05         0.00000E+00
   -0.89047E+05        -0.24954E+08         0.00000E+00
    0.00000E+00         0.00000E+00        -0.48532E+07
 
   -0.56290E+04        -0.71941E+05         0.00000E+00
   -0.71941E+05        -0.24999E+08         0.00000E+00
    0.00000E+00         0.00000E+00        -0.50010E+07
 
   -0.65461E+06        -0.34883E+05         0.00000E+00
   -0.34883E+05        -0.25042E+08         0.00000E+00
    0.00000E+00         0.00000E+00        -0.51393E+07
 
   -0.12671E+07         0.22265E+05         0.00000E+00
    0.22265E+05        -0.25076E+08         0.00000E+00
    0.00000E+00         0.00000E+00        -0.52686E+07
 
   -0.18511E+07         0.99444E+05         0.00000E+00
    0.99444E+05        -0.25096E+08         0.00000E+00
    0.00000E+00         0.00000E+00        -0.53893E+07
 
   -0.24145E+07         0.19644E+06         0.00000E+00
    0.19644E+06        -0.25096E+08         0.00000E+00
    0.00000E+00         0.00000E+00        -0.55021E+07
 
   -0.29649E+07         0.31293E+06         0.00000E+00
    0.31293E+06        -0.25072E+08         0.00000E+00
    0.00000E+00         0.00000E+00        -0.56073E+07
 
   -0.35098E+07         0.44851E+06         0.00000E+00
    0.44851E+06        -0.25017E+08         0.00000E+00
    0.00000E+00         0.00000E+00        -0.57054E+07
 
   -0.40562E+07         0.60275E+06         0.00000E+00
    0.60275E+06        -0.24928E+08         0.00000E+00
    0.00000E+00         0.00000E+00        -0.57969E+07
 
   -0.46107E+07         0.77520E+06         0.00000E+00
    0.77520E+06        -0.24800E+08         0.00000E+00
    0.00000E+00         0.00000E+00        -0.58821E+07
 
   -0.51799E+07         0.96547E+06         0.00000E+00
    0.96547E+06        -0.24627E+08         0.00000E+00
    0.00000E+00         0.00000E+00        -0.59615E+07
 
   -0.57699E+07         0.11732E+07         0.00000E+00
    0.11732E+07        -0.24406E+08         0.00000E+00
    0.00000E+00         0.00000E+00        -0.60352E+07
 
    0.27001E+07        -0.32893E+05         0.00000E+00
   -0.32893E+05        -0.25223E+08         0.00000E+00
    0.00000E+00         0.00000E+00        -0.45045E+07
 
    0.18432E+07        -0.83062E+05         0.00000E+00
   -0.83062E+05        -0.25243E+08         0.00000E+00
    0.00000E+00         0.00000E+00        -0.46800E+07
 
    0.10566E+07        -0.11097E+06         0.00000E+00
   -0.11097E+06        -0.25279E+08         0.00000E+00
    0.00000E+00         0.00000E+00        -0.48445E+07
 
    0.33198E+06        -0.11544E+06         0.00000E+00
   -0.11544E+06        -0.25324E+08         0.00000E+00
    0.00000E+00         0.00000E+00        -0.49985E+07
 
   -0.33910E+06        -0.95724E+05         0.00000E+00
   -0.95724E+05        -0.25373E+08         0.00000E+00
    0.00000E+00         0.00000E+00        -0.51424E+07
 
   -0.96517E+06        -0.51403E+05         0.00000E+00
   -0.51403E+05        -0.25420E+08         0.00000E+00
    0.00000E+00         0.00000E+00        -0.52769E+07
 
   -0.15547E+07         0.17639E+05         0.00000E+00
    0.17639E+05        -0.25458E+08         0.00000E+00
    0.00000E+00         0.00000E+00        -0.54025E+07
 
   -0.21158E+07         0.11129E+06         0.00000E+00
    0.11129E+06        -0.25482E+08         0.00000E+00
    0.00000E+00         0.00000E+00        -0.55197E+07
 
   -0.26567E+07         0.22923E+06         0.00000E+00
    0.22923E+06        -0.25488E+08         0.00000E+00
    0.00000E+00         0.00000E+00        -0.56289E+07
 
   -0.31852E+07         0.37104E+06         0.00000E+00
    0.37104E+06        -0.25469E+08         0.00000E+00
    0.00000E+00         0.00000E+00        -0.57308E+07
 
   -0.37085E+07         0.53617E+06         0.00000E+00
    0.53617E+06        -0.25420E+08         0.00000E+00
    0.00000E+00         0.00000E+00        -0.58258E+07
 
   -0.42340E+07         0.72407E+06         0.00000E+00
    0.72407E+06        -0.25338E+08         0.00000E+00
    0.00000E+00         0.00000E+00        -0.59143E+07
 
   -0.47682E+07         0.93414E+06         0.00000E+00
    0.93414E+06        -0.25216E+08         0.00000E+00
    0.00000E+00         0.00000E+00        -0.59968E+07
 
   -0.53176E+07         0.11659E+07         0.00000E+00
    0.11659E+07        -0.25050E+08         0.00000E+00
    0.00000E+00         0.00000E+00        -0.60736E+07
 
   -0.58882E+07         0.14188E+07         0.00000E+00
    0.14188E+07        -0.24837E+08         0.00000E+00
    0.00000E+00         0.00000E+00        -0.61450E+07
 
    0.21973E+07        -0.40602E+05         0.00000E+00
   -0.40602E+05        -0.25658E+08         0.00000E+00
    0.00000E+00         0.00000E+00        -0.46921E+07
 
    0.13643E+07        -0.10291E+06         0.00000E+00
   -0.10291E+06        -0.25680E+08         0.00000E+00
    0.00000E+00         0.00000E+00        -0.48631E+07
 
    0.60322E+06        -0.13839E+06         0.00000E+00
   -0.13839E+06        -0.25718E+08         0.00000E+00
    0.00000E+00         0.00000E+00        -0.50230E+07
 
   -0.94686E+05        -0.14572E+06         0.00000E+00
   -0.14572E+06        -0.25767E+08         0.00000E+00
    0.00000E+00         0.00000E+00        -0.51723E+07
 
   -0.73836E+06        -0.12408E+06         0.00000E+00
   -0.12408E+06        -0.25819E+08         0.00000E+00
    0.00000E+00         0.00000E+00        -0.53116E+07
 
   -0.13367E+07        -0.73061E+05         0.00000E+00
   -0.73061E+05        -0.25870E+08         0.00000E+00
    0.00000E+00         0.00000E+00        -0.54414E+07
 
   -0.18984E+07         0.74096E+04         0.00000E+00
    0.74096E+04        -0.25914E+08         0.00000E+00
    0.00000E+00         0.00000E+00        -0.55624E+07
 
   -0.24321E+07         0.11712E+06         0.00000E+00
    0.11712E+06        -0.25944E+08         0.00000E+00
    0.00000E+00         0.00000E+00        -0.56752E+07
 
   -0.29459E+07         0.25566E+06         0.00000E+00
    0.25566E+06        -0.25955E+08         0.00000E+00
    0.00000E+00         0.00000E+00        -0.57802E+07
 
   -0.34478E+07         0.42244E+06         0.00000E+00
    0.42244E+06        -0.25943E+08         0.00000E+00
    0.00000E+00         0.00000E+00        -0.58781E+07
 
   -0.39454E+07         0.61679E+06         0.00000E+00
    0.61679E+06        -0.25901E+08         0.00000E+00
    0.00000E+00         0.00000E+00        -0.59692E+07
 
   -0.44457E+07         0.83797E+06         0.00000E+00
    0.83797E+06        -0.25825E+08         0.00000E+00
    0.00000E+00         0.00000E+00        -0.60542E+07
 
   -0.49557E+07         0.10853E+07         0.00000E+00
    0.10853E+07        -0.25711E+08         0.00000E+00
    0.00000E+00         0.00000E+00        -0.61334E+07
 
   -0.54814E+07         0.13580E+07         0.00000E+00
    0.13580E+07        -0.25554E+08         0.00000E+00
    0.00000E+00         0.00000E+00        -0.62071E+07
 
   -0.60290E+07         0.16555E+07         0.00000E+00
    0.16555E+07        -0.25350E+08         0.00000E+00
    0.00000E+00         0.00000E+00        -0.62758E+07
 
    0.16098E+07        -0.49160E+05         0.00000E+00
   -0.49160E+05        -0.26163E+08         0.00000E+00
    0.00000E+00         0.00000E+00        -0.49106E+07
 
    0.80530E+06        -0.12509E+06         0.00000E+00
   -0.12509E+06        -0.26186E+08         0.00000E+00
    0.00000E+00         0.00000E+00        -0.50762E+07
 
    0.74645E+05        -0.16934E+06         0.00000E+00
   -0.16934E+06        -0.26227E+08         0.00000E+00
    0.00000E+00         0.00000E+00        -0.52305E+07
 
   -0.59160E+06        -0.18051E+06         0.00000E+00
   -0.18051E+06        -0.26280E+08         0.00000E+00
    0.00000E+00         0.00000E+00        -0.53742E+07
 
   -0.12029E+07        -0.15774E+06         0.00000E+00
   -0.15774E+06        -0.26337E+08         0.00000E+00
    0.00000E+00         0.00000E+00        -0.55079E+07
 
   -0.17685E+07        -0.10067E+06         0.00000E+00
   -0.10067E+06        -0.26393E+08         0.00000E+00
    0.00000E+00         0.00000E+00        -0.56323E+07
 
   -0.22975E+07        -0.93067E+04         0.00000E+00
   -0.93067E+04        -0.26442E+08         0.00000E+00
    0.00000E+00         0.00000E+00        -0.57479E+07
 
   -0.27989E+07         0.11601E+06         0.00000E+00
    0.11601E+06        -0.26478E+08         0.00000E+00
    0.00000E+00         0.00000E+00        -0.58554E+07
 
   -0.32810E+07         0.27471E+06         0.00000E+00
    0.27471E+06        -0.26496E+08         0.00000E+00
    0.00000E+00         0.00000E+00        -0.59555E+07
 
   -0.37519E+07         0.46607E+06         0.00000E+00
    0.46607E+06        -0.26491E+08         0.00000E+00
    0.00000E+00         0.00000E+00        -0.60486E+07
 
   -0.42194E+07         0.68921E+06         0.00000E+00
    0.68921E+06        -0.26457E+08         0.00000E+00
    0.00000E+00         0.00000E+00        -0.61353E+07
 
   -0.46906E+07         0.94324E+06         0.00000E+00
    0.94324E+06        -0.26390E+08         0.00000E+00
    0.00000E+00         0.00000E+00        -0.62160E+07
 
   -0.51723E+07         0.12272E+07         0.00000E+00
    0.12272E+07        -0.26284E+08         0.00000E+00
    0.00000E+00         0.00000E+00        -0.62914E+07
 
   -0.56708E+07         0.15403E+07         0.00000E+00
    0.15403E+07        -0.26137E+08         0.00000E+00
    0.00000E+00         0.00000E+00        -0.63616E+07
 
   -0.61918E+07         0.18818E+07         0.00000E+00
    0.18818E+07        -0.25943E+08         0.00000E+00
    0.00000E+00         0.00000E+00        -0.64271E+07
 
    0.93718E+06        -0.58684E+05         0.00000E+00
   -0.58684E+05        -0.26736E+08         0.00000E+00
    0.00000E+00         0.00000E+00        -0.51598E+07
 
    0.16623E+06        -0.14990E+06         0.00000E+00
   -0.14990E+06        -0.26761E+08         0.00000E+00
    0.00000E+00         0.00000E+00        -0.53190E+07
 
   -0.52889E+06        -0.20429E+06         0.00000E+00
   -0.20429E+06        -0.26805E+08         0.00000E+00
    0.00000E+00         0.00000E+00        -0.54668E+07
 
   -0.11583E+07        -0.22038E+06         0.00000E+00
   -0.22038E+06        -0.26861E+08         0.00000E+00
    0.00000E+00         0.00000E+00        -0.56039E+07
 
   -0.17319E+07        -0.19736E+06         0.00000E+00
   -0.19736E+06        -0.26924E+08         0.00000E+00
    0.00000E+00         0.00000E+00        -0.57311E+07
 
   -0.22597E+07        -0.13495E+06         0.00000E+00
   -0.13495E+06        -0.26985E+08         0.00000E+00
    0.00000E+00         0.00000E+00        -0.58490E+07
 
   -0.27511E+07        -0.33309E+05         0.00000E+00
   -0.33309E+05        -0.27041E+08         0.00000E+00
    0.00000E+00         0.00000E+00        -0.59584E+07
 
   -0.32153E+07         0.10708E+06         0.00000E+00
    0.10708E+06        -0.27084E+08         0.00000E+00
    0.00000E+00         0.00000E+00        -0.60598E+07
 
   -0.36610E+07         0.28547E+06         0.00000E+00
    0.28547E+06        -0.27109E+08         0.00000E+00
    0.00000E+00         0.00000E+00        -0.61541E+07
 
   -0.40965E+07         0.50093E+06         0.00000E+00
    0.50093E+06        -0.27112E+08         0.00000E+00
    0.00000E+00         0.00000E+00        -0.62416E+07
 
   -0.45296E+07         0.75239E+06         0.00000E+00
    0.75239E+06        -0.27086E+08         0.00000E+00
    0.00000E+00         0.00000E+00        -0.63232E+07
 
   -0.49676E+07         0.10387E+07         0.00000E+00
    0.10387E+07        -0.27028E+08         0.00000E+00
    0.00000E+00         0.00000E+00        -0.63991E+07
 
   -0.54173E+07         0.13589E+07         0.00000E+00
    0.13589E+07        -0.26933E+08         0.00000E+00
    0.00000E+00         0.00000E+00        -0.64700E+07
 
   -0.58848E+07         0.17117E+07         0.00000E+00
    0.17117E+07        -0.26796E+08         0.00000E+00
    0.00000E+00         0.00000E+00        -0.65362E+07
 
   -0.63759E+07         0.20963E+07         0.00000E+00
    0.20963E+07        -0.26615E+08         0.00000E+00
    0.00000E+00         0.00000E+00        -0.65981E+07
 
    0.17917E+06        -0.69284E+05         0.00000E+00
   -0.69284E+05        -0.27376E+08         0.00000E+00
    0.00000E+00         0.00000E+00        -0.54393E+07
 
   -0.55289E+06        -0.17764E+06         0.00000E+00
   -0.17764E+06        -0.27403E+08         0.00000E+00
    0.00000E+00         0.00000E+00        -0.55911E+07
 
   -0.12070E+07        -0.24363E+06         0.00000E+00
   -0.24363E+06        -0.27450E+08         0.00000E+00
    0.00000E+00         0.00000E+00        -0.57314E+07
 
   -0.17941E+07        -0.26583E+06         0.00000E+00
   -0.26583E+06        -0.27511E+08         0.00000E+00
    0.00000E+00         0.00000E+00        -0.58609E+07
 
   -0.23248E+07        -0.24352E+06         0.00000E+00
   -0.24352E+06        -0.27578E+08         0.00000E+00
    0.00000E+00         0.00000E+00        -0.59806E+07
 
   -0.28094E+07        -0.17656E+06         0.00000E+00
   -0.17656E+06        -0.27646E+08         0.00000E+00
    0.00000E+00         0.00000E+00        -0.60911E+07
 
   -0.32580E+07        -0.65290E+05         0.00000E+00
   -0.65290E+05        -0.27708E+08         0.00000E+00
    0.00000E+00         0.00000E+00        -0.61932E+07
 
   -0.36801E+07         0.89591E+05         0.00000E+00
    0.89591E+05        -0.27758E+08         0.00000E+00
    0.00000E+00         0.00000E+00        -0.62877E+07
 
   -0.40847E+07         0.28712E+06         0.00000E+00
    0.28712E+06        -0.27792E+08         0.00000E+00
    0.00000E+00         0.00000E+00        -0.63753E+07
 
   -0.44803E+07         0.52613E+06         0.00000E+00
    0.52613E+06        -0.27803E+08         0.00000E+00
    0.00000E+00         0.00000E+00        -0.64566E+07
 
   -0.48748E+07         0.80535E+06         0.00000E+00
    0.80535E+06        -0.27786E+08         0.00000E+00
    0.00000E+00         0.00000E+00        -0.65322E+07
 
   -0.52756E+07         0.11234E+07         0.00000E+00
    0.11234E+07        -0.27738E+08         0.00000E+00
    0.00000E+00         0.00000E+00        -0.66028E+07
 
   -0.56894E+07         0.14790E+07         0.00000E+00
    0.14790E+07        -0.27654E+08         0.00000E+00
    0.00000E+00         0.00000E+00        -0.66687E+07
 
   -0.61225E+07         0.18709E+07         0.00000E+00
    0.18709E+07        -0.27529E+08         0.00000E+00
    0.00000E+00         0.00000E+00        -0.67303E+07
 
   -0.65803E+07         0.22977E+07         0.00000E+00
    0.22977E+07        -0.27360E+08         0.00000E+00
    0.00000E+00         0.00000E+00        -0.67881E+07
 
   -0.66453E+06        -0.81057E+05         0.00000E+00
   -0.81057E+05        -0.28080E+08         0.00000E+00
    0.00000E+00         0.00000E+00        -0.57490E+07
 
   -0.13519E+07        -0.20853E+06         0.00000E+00
   -0.20853E+06        -0.28109E+08         0.00000E+00
    0.00000E+00         0.00000E+00        -0.58922E+07
 
   -0.19593E+07        -0.28772E+06         0.00000E+00
   -0.28772E+06        -0.28160E+08         0.00000E+00
    0.00000E+00         0.00000E+00        -0.60238E+07
 
   -0.24983E+07        -0.31729E+06         0.00000E+00
   -0.31729E+06        -0.28225E+08         0.00000E+00
    0.00000E+00         0.00000E+00        -0.61446E+07
 
   -0.29803E+07        -0.29669E+06         0.00000E+00
   -0.29669E+06        -0.28298E+08         0.00000E+00
    0.00000E+00         0.00000E+00        -0.62557E+07
 
   -0.34164E+07        -0.22600E+06         0.00000E+00
   -0.22600E+06        -0.28372E+08         0.00000E+00
    0.00000E+00         0.00000E+00        -0.63577E+07
 
   -0.38171E+07        -0.10581E+06         0.00000E+00
   -0.10581E+06        -0.28441E+08         0.00000E+00
    0.00000E+00         0.00000E+00        -0.64516E+07
 
   -0.41921E+07         0.62919E+05         0.00000E+00
    0.62919E+05        -0.28499E+08         0.00000E+00
    0.00000E+00         0.00000E+00        -0.65382E+07
 
   -0.45508E+07         0.27896E+06         0.00000E+00
    0.27896E+06        -0.28540E+08         0.00000E+00
    0.00000E+00         0.00000E+00        -0.66183E+07
 
   -0.49020E+07         0.54090E+06         0.00000E+00
    0.54090E+06        -0.28560E+08         0.00000E+00
    0.00000E+00         0.00000E+00        -0.66925E+07
 
   -0.52536E+07         0.84723E+06         0.00000E+00
    0.84723E+06        -0.28554E+08         0.00000E+00
    0.00000E+00         0.00000E+00        -0.67615E+07
 
   -0.56132E+07         0.11963E+07         0.00000E+00
    0.11963E+07        -0.28517E+08         0.00000E+00
    0.00000E+00         0.00000E+00        -0.68260E+07
 
   -0.59875E+07         0.15867E+07         0.00000E+00
    0.15867E+07        -0.28444E+08         0.00000E+00
    0.00000E+00         0.00000E+00        -0.68863E+07
 
   -0.63827E+07         0.20166E+07         0.00000E+00
    0.20166E+07        -0.28332E+08         0.00000E+00
    0.00000E+00         0.00000E+00        -0.69430E+07
 
   -0.68042E+07         0.24847E+07         0.00000E+00
    0.24847E+07        -0.28177E+08         0.00000E+00
    0.00000E+00         0.00000E+00        -0.69963E+07
 
   -0.15942E+07        -0.94082E+05         0.00000E+00
   -0.94082E+05        -0.28847E+08         0.00000E+00
    0.00000E+00         0.00000E+00        -0.60883E+07
 
   -0.22307E+07        -0.24278E+06         0.00000E+00
   -0.24278E+06        -0.28878E+08         0.00000E+00
    0.00000E+00         0.00000E+00        -0.62218E+07
 
   -0.27850E+07        -0.33682E+06         0.00000E+00
   -0.33682E+06        -0.28932E+08         0.00000E+00
    0.00000E+00         0.00000E+00        -0.63434E+07
 
   -0.32698E+07        -0.37505E+06         0.00000E+00
   -0.37505E+06        -0.29002E+08         0.00000E+00
    0.00000E+00         0.00000E+00        -0.64544E+07
 
   -0.36974E+07        -0.35718E+06         0.00000E+00
   -0.35718E+06        -0.29081E+08         0.00000E+00
    0.00000E+00         0.00000E+00        -0.65556E+07
 
   -0.40794E+07        -0.28361E+06         0.00000E+00
   -0.28361E+06        -0.29161E+08         0.00000E+00
    0.00000E+00         0.00000E+00        -0.66481E+07
 
   -0.44267E+07        -0.15525E+06         0.00000E+00
   -0.15525E+06        -0.29237E+08         0.00000E+00
    0.00000E+00         0.00000E+00        -0.67327E+07
 
   -0.47496E+07         0.26621E+05         0.00000E+00
    0.26621E+05        -0.29303E+08         0.00000E+00
    0.00000E+00         0.00000E+00        -0.68105E+07
 
   -0.50578E+07         0.26048E+06         0.00000E+00
    0.26048E+06        -0.29353E+08         0.00000E+00
    0.00000E+00         0.00000E+00        -0.68821E+07
 
   -0.53600E+07         0.54464E+06         0.00000E+00
    0.54464E+06        -0.29382E+08         0.00000E+00
    0.00000E+00         0.00000E+00        -0.69484E+07
 
   -0.56646E+07         0.87730E+06         0.00000E+00
    0.87730E+06        -0.29386E+08         0.00000E+00
    0.00000E+00         0.00000E+00        -0.70100E+07
 
   -0.59790E+07         0.12566E+07         0.00000E+00
    0.12566E+07        -0.29360E+08         0.00000E+00
    0.00000E+00         0.00000E+00        -0.70677E+07
 
   -0.63102E+07         0.16808E+07         0.00000E+00
    0.16808E+07        -0.29299E+08         0.00000E+00
    0.00000E+00         0.00000E+00        -0.71219E+07
 
   -0.66642E+07         0.21479E+07         0.00000E+00
    0.21479E+07        -0.29201E+08         0.00000E+00
    0.00000E+00         0.00000E+00        -0.71731E+07
 
   -0.70465E+07         0.26562E+07         0.00000E+00
    0.26562E+07        -0.29062E+08         0.00000E+00
    0.00000E+00         0.00000E+00        -0.72216E+07
 
   -0.26098E+07        -0.10842E+06         0.00000E+00
   -0.10842E+06        -0.29675E+08         0.00000E+00
    0.00000E+00         0.00000E+00        -0.64569E+07
 
   -0.31886E+07        -0.28053E+06         0.00000E+00
   -0.28053E+06        -0.29708E+08         0.00000E+00
    0.00000E+00         0.00000E+00        -0.65792E+07
 
   -0.36833E+07        -0.39109E+06         0.00000E+00
   -0.39109E+06        -0.29765E+08         0.00000E+00
    0.00000E+00         0.00000E+00        -0.66897E+07
 
   -0.41076E+07        -0.43926E+06         0.00000E+00
   -0.43926E+06        -0.29840E+08         0.00000E+00
    0.00000E+00         0.00000E+00        -0.67894E+07
 
   -0.44746E+07        -0.42515E+06         0.00000E+00
   -0.42515E+06        -0.29924E+08         0.00000E+00
    0.00000E+00         0.00000E+00        -0.68796E+07
 
   -0.47967E+07        -0.34955E+06         0.00000E+00
   -0.34955E+06        -0.30010E+08         0.00000E+00
    0.00000E+00         0.00000E+00        -0.69613E+07
 
   -0.50853E+07        -0.21379E+06         0.00000E+00
   -0.21379E+06        -0.30093E+08         0.00000E+00
    0.00000E+00         0.00000E+00        -0.70356E+07
 
   -0.53511E+07        -0.19532E+05         0.00000E+00
   -0.19532E+05        -0.30166E+08         0.00000E+00
    0.00000E+00         0.00000E+00        -0.71034E+07
 
   -0.56039E+07         0.23136E+06         0.00000E+00
    0.23136E+06        -0.30224E+08         0.00000E+00
    0.00000E+00         0.00000E+00        -0.71656E+07
 
   -0.58529E+07         0.53688E+06         0.00000E+00
    0.53688E+06        -0.30263E+08         0.00000E+00
    0.00000E+00         0.00000E+00        -0.72231E+07
 
   -0.61062E+07         0.89499E+06         0.00000E+00
    0.89499E+06        -0.30277E+08         0.00000E+00
    0.00000E+00         0.00000E+00        -0.72767E+07
 
   -0.63716E+07         0.13036E+07         0.00000E+00
    0.13036E+07        -0.30263E+08         0.00000E+00
    0.00000E+00         0.00000E+00        -0.73269E+07
 
   -0.66561E+07         0.17606E+07         0.00000E+00
    0.17606E+07        -0.30216E+08         0.00000E+00
    0.00000E+00         0.00000E+00        -0.73743E+07
 
   -0.69657E+07         0.22638E+07         0.00000E+00
    0.22638E+07        -0.30132E+08         0.00000E+00
    0.00000E+00         0.00000E+00        -0.74196E+07
 
   -0.73058E+07         0.28112E+07         0.00000E+00
    0.28112E+07        -0.30009E+08         0.00000E+00
    0.00000E+00         0.00000E+00        -0.74629E+07
 
   -0.37114E+07        -0.12411E+06         0.00000E+00
   -0.12411E+06        -0.30560E+08         0.00000E+00
    0.00000E+00         0.00000E+00        -0.68543E+07
 
   -0.42251E+07        -0.32181E+06         0.00000E+00
   -0.32181E+06        -0.30595E+08         0.00000E+00
    0.00000E+00         0.00000E+00        -0.69640E+07
 
   -0.46530E+07        -0.45053E+06         0.00000E+00
   -0.45053E+06        -0.30656E+08         0.00000E+00
    0.00000E+00         0.00000E+00        -0.70617E+07
 
   -0.50100E+07        -0.50989E+06         0.00000E+00
   -0.50989E+06        -0.30734E+08         0.00000E+00
    0.00000E+00         0.00000E+00        -0.71489E+07
 
   -0.53102E+07        -0.50050E+06         0.00000E+00
   -0.50050E+06        -0.30823E+08         0.00000E+00
    0.00000E+00         0.00000E+00        -0.72267E+07
 
   -0.55666E+07        -0.42370E+06         0.00000E+00
   -0.42370E+06        -0.30915E+08         0.00000E+00
    0.00000E+00         0.00000E+00        -0.72964E+07
 
   -0.57911E+07        -0.28133E+06         0.00000E+00
   -0.28133E+06        -0.31004E+08         0.00000E+00
    0.00000E+00         0.00000E+00        -0.73591E+07
 
   -0.59947E+07        -0.75504E+05         0.00000E+00
   -0.75504E+05        -0.31085E+08         0.00000E+00
    0.00000E+00         0.00000E+00        -0.74159E+07
 
   -0.61876E+07         0.19152E+06         0.00000E+00
    0.19152E+06        -0.31151E+08         0.00000E+00
    0.00000E+00         0.00000E+00        -0.74677E+07
 
   -0.63788E+07         0.51742E+06         0.00000E+00
    0.51742E+06        -0.31199E+08         0.00000E+00
    0.00000E+00         0.00000E+00        -0.75155E+07
 
   -0.65768E+07         0.89988E+06         0.00000E+00
    0.89988E+06        -0.31223E+08         0.00000E+00
    0.00000E+00         0.00000E+00        -0.75600E+07
 
   -0.67894E+07         0.13366E+07         0.00000E+00
    0.13366E+07        -0.31221E+08         0.00000E+00
    0.00000E+00         0.00000E+00        -0.76021E+07
 
   -0.70236E+07         0.18252E+07         0.00000E+00
    0.18252E+07        -0.31188E+08         0.00000E+00
    0.00000E+00         0.00000E+00        -0.76422E+07
 
   -0.72856E+07         0.23633E+07         0.00000E+00
    0.23633E+07        -0.31119E+08         0.00000E+00
    0.00000E+00         0.00000E+00        -0.76810E+07
 
   -0.75808E+07         0.29485E+07         0.00000E+00
    0.29485E+07        -0.31013E+08         0.00000E+00
    0.00000E+00         0.00000E+00        -0.77187E+07
 
   -0.48986E+07        -0.14114E+06         0.00000E+00
   -0.14114E+06        -0.31500E+08         0.00000E+00
    0.00000E+00         0.00000E+00        -0.72798E+07
 
   -0.53391E+07        -0.36659E+06         0.00000E+00
   -0.36659E+06        -0.31537E+08         0.00000E+00
    0.00000E+00         0.00000E+00        -0.73751E+07
 
   -0.56926E+07        -0.51501E+06         0.00000E+00
   -0.51501E+06        -0.31600E+08         0.00000E+00
    0.00000E+00         0.00000E+00        -0.74586E+07
 
   -0.59753E+07        -0.58666E+06         0.00000E+00
   -0.58666E+06        -0.31683E+08         0.00000E+00
    0.00000E+00         0.00000E+00        -0.75316E+07
 
   -0.62022E+07        -0.58286E+06         0.00000E+00
   -0.58286E+06        -0.31776E+08         0.00000E+00
    0.00000E+00         0.00000E+00        -0.75957E+07
 
   -0.63869E+07        -0.50563E+06         0.00000E+00
   -0.50563E+06        -0.31873E+08         0.00000E+00
    0.00000E+00         0.00000E+00        -0.76520E+07
 
   -0.65420E+07        -0.35743E+06         0.00000E+00
   -0.35743E+06        -0.31967E+08         0.00000E+00
    0.00000E+00         0.00000E+00        -0.77019E+07
 
   -0.66785E+07        -0.14093E+06         0.00000E+00
   -0.14093E+06        -0.32054E+08         0.00000E+00
    0.00000E+00         0.00000E+00        -0.77465E+07
 
   -0.68069E+07         0.14118E+06         0.00000E+00
    0.14118E+06        -0.32128E+08         0.00000E+00
    0.00000E+00         0.00000E+00        -0.77869E+07
 
   -0.69361E+07         0.48626E+06         0.00000E+00
    0.48626E+06        -0.32184E+08         0.00000E+00
    0.00000E+00         0.00000E+00        -0.78240E+07
 
   -0.70749E+07         0.89176E+06         0.00000E+00
    0.89176E+06        -0.32219E+08         0.00000E+00
    0.00000E+00         0.00000E+00        -0.78588E+07
 
   -0.72309E+07         0.13552E+07         0.00000E+00
    0.13552E+07        -0.32229E+08         0.00000E+00
    0.00000E+00         0.00000E+00        -0.78919E+07
 
   -0.74113E+07         0.18740E+07         0.00000E+00
    0.18740E+07        -0.32209E+08         0.00000E+00
    0.00000E+00         0.00000E+00        -0.79241E+07
 
   -0.76224E+07         0.24457E+07         0.00000E+00
    0.24457E+07        -0.32157E+08         0.00000E+00
    0.00000E+00         0.00000E+00        -0.79559E+07
 
   -0.78700E+07         0.30673E+07         0.00000E+00
    0.30673E+07        -0.32068E+08         0.00000E+00
    0.00000E+00         0.00000E+00        -0.79876E+07
 
   -0.61707E+07        -0.15948E+06         0.00000E+00
   -0.15948E+06        -0.32492E+08         0.00000E+00
    0.00000E+00         0.00000E+00        -0.77326E+07
 
   -0.65293E+07        -0.41467E+06         0.00000E+00
   -0.41467E+06        -0.32530E+08         0.00000E+00
    0.00000E+00         0.00000E+00        -0.78119E+07
 
   -0.68003E+07        -0.58414E+06         0.00000E+00
   -0.58414E+06        -0.32596E+08         0.00000E+00
    0.00000E+00         0.00000E+00        -0.78793E+07
 
   -0.70013E+07        -0.66902E+06         0.00000E+00
   -0.66902E+06        -0.32682E+08         0.00000E+00
    0.00000E+00         0.00000E+00        -0.79366E+07
 
   -0.71481E+07        -0.67150E+06         0.00000E+00
   -0.67150E+06        -0.32778E+08         0.00000E+00
    0.00000E+00         0.00000E+00        -0.79853E+07
 
   -0.72553E+07        -0.59449E+06         0.00000E+00
   -0.59449E+06        -0.32879E+08         0.00000E+00
    0.00000E+00         0.00000E+00        -0.80268E+07
 
   -0.73357E+07        -0.44123E+06         0.00000E+00
   -0.44123E+06        -0.32977E+08         0.00000E+00
    0.00000E+00         0.00000E+00        -0.80625E+07
 
   -0.74005E+07        -0.21503E+06         0.00000E+00
   -0.21503E+06        -0.33069E+08         0.00000E+00
    0.00000E+00         0.00000E+00        -0.80938E+07
 
   -0.74599E+07         0.80940E+05         0.00000E+00
    0.80940E+05        -0.33148E+08         0.00000E+00
    0.00000E+00         0.00000E+00        -0.81217E+07
 
   -0.75232E+07         0.44374E+06         0.00000E+00
    0.44374E+06        -0.33213E+08         0.00000E+00
    0.00000E+00         0.00000E+00        -0.81472E+07
 
   -0.75988E+07         0.87066E+06         0.00000E+00
    0.87066E+06        -0.33258E+08         0.00000E+00
    0.00000E+00         0.00000E+00        -0.81713E+07
 
   -0.76945E+07         0.13591E+07         0.00000E+00
    0.13591E+07        -0.33279E+08         0.00000E+00
    0.00000E+00         0.00000E+00        -0.81947E+07
 
   -0.78175E+07         0.19065E+07         0.00000E+00
    0.19065E+07        -0.33274E+08         0.00000E+00
    0.00000E+00         0.00000E+00        -0.82183E+07
 
   -0.79747E+07         0.25100E+07         0.00000E+00
    0.25100E+07        -0.33238E+08         0.00000E+00
    0.00000E+00         0.00000E+00        -0.82426E+07
 
   -0.81718E+07         0.31666E+07         0.00000E+00
    0.31666E+07        -0.33168E+08         0.00000E+00
    0.00000E+00         0.00000E+00        -0.82680E+07
 
   -0.75267E+07        -0.17904E+06         0.00000E+00
   -0.17904E+06        -0.33533E+08         0.00000E+00
    0.00000E+00         0.00000E+00        -0.82118E+07
 
   -0.77938E+07        -0.46573E+06         0.00000E+00
   -0.46573E+06        -0.33571E+08         0.00000E+00
    0.00000E+00         0.00000E+00        -0.82731E+07
 
   -0.79736E+07        -0.65731E+06         0.00000E+00
   -0.65731E+06        -0.33639E+08         0.00000E+00
    0.00000E+00         0.00000E+00        -0.83226E+07
 
   -0.80851E+07        -0.75602E+06         0.00000E+00
   -0.75602E+06        -0.33727E+08         0.00000E+00
    0.00000E+00         0.00000E+00        -0.83623E+07
 
   -0.81453E+07        -0.76523E+06         0.00000E+00
   -0.76523E+06        -0.33825E+08         0.00000E+00
    0.00000E+00         0.00000E+00        -0.83940E+07
 
   -0.81692E+07        -0.68894E+06         0.00000E+00
   -0.68894E+06        -0.33927E+08         0.00000E+00
    0.00000E+00         0.00000E+00        -0.84192E+07
 
   -0.81697E+07        -0.53137E+06         0.00000E+00
   -0.53137E+06        -0.34028E+08         0.00000E+00
    0.00000E+00         0.00000E+00        -0.84395E+07
 
   -0.81584E+07        -0.29655E+06         0.00000E+00
   -0.29655E+06        -0.34122E+08         0.00000E+00
    0.00000E+00         0.00000E+00        -0.84562E+07
 
   -0.81450E+07         0.11830E+05         0.00000E+00
    0.11830E+05        -0.34207E+08         0.00000E+00
    0.00000E+00         0.00000E+00        -0.84704E+07
 
   -0.81385E+07         0.39055E+06         0.00000E+00
    0.39055E+06        -0.34278E+08         0.00000E+00
    0.00000E+00         0.00000E+00        -0.84833E+07
 
   -0.81473E+07         0.83683E+06         0.00000E+00
    0.83683E+06        -0.34332E+08         0.00000E+00
    0.00000E+00         0.00000E+00        -0.84958E+07
 
   -0.81789E+07         0.13481E+07         0.00000E+00
    0.13481E+07        -0.34365E+08         0.00000E+00
    0.00000E+00         0.00000E+00        -0.85088E+07
 
   -0.82410E+07         0.19219E+07         0.00000E+00
    0.19219E+07        -0.34374E+08         0.00000E+00
    0.00000E+00         0.00000E+00        -0.85231E+07
 
   -0.83407E+07         0.25554E+07         0.00000E+00
    0.25554E+07        -0.34356E+08         0.00000E+00
    0.00000E+00         0.00000E+00        -0.85393E+07
 
   -0.84843E+07         0.32453E+07         0.00000E+00
    0.32453E+07        -0.34305E+08         0.00000E+00
    0.00000E+00         0.00000E+00        -0.85579E+07
 
   -0.89650E+07        -0.19967E+06         0.00000E+00
   -0.19967E+06        -0.34617E+08         0.00000E+00
    0.00000E+00         0.00000E+00        -0.87165E+07
 
   -0.91302E+07        -0.51926E+06         0.00000E+00
   -0.51926E+06        -0.34657E+08         0.00000E+00
    0.00000E+00         0.00000E+00        -0.87574E+07
 
   -0.92095E+07        -0.73357E+06         0.00000E+00
   -0.73357E+06        -0.34726E+08         0.00000E+00
    0.00000E+00         0.00000E+00        -0.87870E+07
 
   -0.92235E+07        -0.84631E+06         0.00000E+00
   -0.84631E+06        -0.34813E+08         0.00000E+00
    0.00000E+00         0.00000E+00        -0.88073E+07
 
   -0.91903E+07        -0.86233E+06         0.00000E+00
   -0.86233E+06        -0.34911E+08         0.00000E+00
    0.00000E+00         0.00000E+00        -0.88203E+07
 
   -0.91253E+07        -0.78704E+06         0.00000E+00
   -0.78704E+06        -0.35013E+08         0.00000E+00
    0.00000E+00         0.00000E+00        -0.88276E+07
 
   -0.90416E+07        -0.62581E+06         0.00000E+00
   -0.62581E+06        -0.35113E+08         0.00000E+00
    0.00000E+00         0.00000E+00        -0.88310E+07
 
   -0.89501E+07        -0.38359E+06         0.00000E+00
   -0.38359E+06        -0.35209E+08         0.00000E+00
    0.00000E+00         0.00000E+00        -0.88317E+07
 
   -0.88604E+07        -0.64582E+05         0.00000E+00
   -0.64582E+05        -0.35295E+08         0.00000E+00
    0.00000E+00         0.00000E+00        -0.88312E+07
 
   -0.87808E+07         0.32780E+06         0.00000E+00
    0.32780E+06        -0.35371E+08         0.00000E+00
    0.00000E+00         0.00000E+00        -0.88304E+07
 
   -0.87192E+07         0.79084E+06         0.00000E+00
    0.79084E+06        -0.35433E+08         0.00000E+00
    0.00000E+00         0.00000E+00        -0.88304E+07
 
   -0.86833E+07         0.13223E+07         0.00000E+00
    0.13223E+07        -0.35477E+08         0.00000E+00
    0.00000E+00         0.00000E+00        -0.88321E+07
 
   -0.86807E+07         0.19199E+07         0.00000E+00
    0.19199E+07        -0.35501E+08         0.00000E+00
    0.00000E+00         0.00000E+00        -0.88364E+07
 
   -0.87190E+07         0.25810E+07         0.00000E+00
    0.25810E+07        -0.35501E+08         0.00000E+00
    0.00000E+00         0.00000E+00        -0.88439E+07
 
   -0.88057E+07         0.33025E+07         0.00000E+00
    0.33025E+07        -0.35471E+08         0.00000E+00
    0.00000E+00         0.00000E+00        -0.88553E+07
 
   -0.10483E+08        -0.22117E+06         0.00000E+00
   -0.22117E+06        -0.35743E+08         0.00000E+00
    0.00000E+00         0.00000E+00        -0.92453E+07
 
   -0.10535E+08        -0.57452E+06         0.00000E+00
   -0.57452E+06        -0.35783E+08         0.00000E+00
    0.00000E+00         0.00000E+00        -0.92636E+07
 
   -0.10504E+08        -0.81160E+06         0.00000E+00
   -0.81160E+06        -0.35851E+08         0.00000E+00
    0.00000E+00         0.00000E+00        -0.92709E+07
 
   -0.10412E+08        -0.93797E+06         0.00000E+00
   -0.93797E+06        -0.35936E+08         0.00000E+00
    0.00000E+00         0.00000E+00        -0.92697E+07
 
   -0.10279E+08        -0.96039E+06         0.00000E+00
   -0.96039E+06        -0.36031E+08         0.00000E+00
    0.00000E+00         0.00000E+00        -0.92621E+07
 
   -0.10120E+08        -0.88605E+06         0.00000E+00
   -0.88605E+06        -0.36129E+08         0.00000E+00
    0.00000E+00         0.00000E+00        -0.92499E+07
 
   -0.99483E+07        -0.72178E+06         0.00000E+00
   -0.72178E+06        -0.36226E+08         0.00000E+00
    0.00000E+00         0.00000E+00        -0.92349E+07
 
   -0.97736E+07        -0.47354E+06         0.00000E+00
   -0.47354E+06        -0.36319E+08         0.00000E+00
    0.00000E+00         0.00000E+00        -0.92185E+07
 
   -0.96047E+07        -0.14609E+06         0.00000E+00
   -0.14609E+06        -0.36405E+08         0.00000E+00
    0.00000E+00         0.00000E+00        -0.92020E+07
 
   -0.94491E+07         0.25708E+06         0.00000E+00
    0.25708E+06        -0.36484E+08         0.00000E+00
    0.00000E+00         0.00000E+00        -0.91865E+07
 
   -0.93141E+07         0.73354E+06         0.00000E+00
    0.73354E+06        -0.36552E+08         0.00000E+00
    0.00000E+00         0.00000E+00        -0.91731E+07
 
   -0.92069E+07         0.12816E+07         0.00000E+00
    0.12816E+07        -0.36607E+08         0.00000E+00
    0.00000E+00         0.00000E+00        -0.91627E+07
 
   -0.91356E+07         0.18997E+07         0.00000E+00
    0.18997E+07        -0.36646E+08         0.00000E+00
    0.00000E+00         0.00000E+00        -0.91562E+07
 
   -0.91085E+07         0.25857E+07         0.00000E+00
    0.25857E+07        -0.36664E+08         0.00000E+00
    0.00000E+00         0.00000E+00        -0.91544E+07
 
   -0.91342E+07         0.33366E+07         0.00000E+00
    0.33366E+07        -0.36656E+08         0.00000E+00
    0.00000E+00         0.00000E+00        -0.91581E+07
 
   -0.12078E+08        -0.24324E+06         0.00000E+00
   -0.24324E+06        -0.36905E+08         0.00000E+00
    0.00000E+00         0.00000E+00        -0.97967E+07
 
   -0.12004E+08        -0.63052E+06         0.00000E+00
   -0.63052E+06        -0.36944E+08         0.00000E+00
    0.00000E+00         0.00000E+00        -0.97897E+07
 
   -0.11852E+08        -0.88959E+06         0.00000E+00
   -0.88959E+06        -0.37010E+08         0.00000E+00
    0.00000E+00         0.00000E+00        -0.97724E+07
 
   -0.11647E+08        -0.10284E+07         0.00000E+00
   -0.10284E+07        -0.37091E+08         0.00000E+00
    0.00000E+00         0.00000E+00        -0.97475E+07
 
   -0.11407E+08        -0.10562E+07         0.00000E+00
   -0.10562E+07        -0.37180E+08         0.00000E+00
    0.00000E+00         0.00000E+00        -0.97174E+07
 
   -0.11150E+08        -0.98234E+06         0.00000E+00
   -0.98234E+06        -0.37270E+08         0.00000E+00
    0.00000E+00         0.00000E+00        -0.96840E+07
 
   -0.10887E+08        -0.81554E+06         0.00000E+00
   -0.81554E+06        -0.37359E+08         0.00000E+00
    0.00000E+00         0.00000E+00        -0.96492E+07
 
   -0.10627E+08        -0.56292E+06         0.00000E+00
   -0.56292E+06        -0.37445E+08         0.00000E+00
    0.00000E+00         0.00000E+00        -0.96143E+07
 
   -0.10377E+08        -0.22975E+06         0.00000E+00
   -0.22975E+06        -0.37527E+08         0.00000E+00
    0.00000E+00         0.00000E+00        -0.95808E+07
 
   -0.10143E+08         0.18054E+06         0.00000E+00
    0.18054E+06        -0.37605E+08         0.00000E+00
    0.00000E+00         0.00000E+00        -0.95496E+07
 
   -0.99322E+07         0.66615E+06         0.00000E+00
    0.66615E+06        -0.37677E+08         0.00000E+00
    0.00000E+00         0.00000E+00        -0.95218E+07
 
   -0.97503E+07         0.12263E+07         0.00000E+00
    0.12263E+07        -0.37742E+08         0.00000E+00
    0.00000E+00         0.00000E+00        -0.94985E+07
 
   -0.96058E+07         0.18606E+07         0.00000E+00
    0.18606E+07        -0.37796E+08         0.00000E+00
    0.00000E+00         0.00000E+00        -0.94804E+07
 
   -0.95082E+07         0.25680E+07         0.00000E+00
    0.25680E+07        -0.37834E+08         0.00000E+00
    0.00000E+00         0.00000E+00        -0.94685E+07
 
   -0.94677E+07         0.33459E+07         0.00000E+00
    0.33459E+07        -0.37851E+08         0.00000E+00
    0.00000E+00         0.00000E+00        -0.94637E+07
 
   -0.13746E+08        -0.26553E+06         0.00000E+00
   -0.26553E+06        -0.38099E+08         0.00000E+00
    0.00000E+00         0.00000E+00        -0.10369E+08
 
   -0.13533E+08        -0.68599E+06         0.00000E+00
   -0.68599E+06        -0.38136E+08         0.00000E+00
    0.00000E+00         0.00000E+00        -0.10334E+08
 
   -0.13249E+08        -0.96517E+06         0.00000E+00
   -0.96517E+06        -0.38198E+08         0.00000E+00
    0.00000E+00         0.00000E+00        -0.10289E+08
 
   -0.12921E+08        -0.11141E+07         0.00000E+00
   -0.11141E+07        -0.38271E+08         0.00000E+00
    0.00000E+00         0.00000E+00        -0.10238E+08
 
   -0.12570E+08        -0.11454E+07         0.00000E+00
   -0.11454E+07        -0.38349E+08         0.00000E+00
    0.00000E+00         0.00000E+00        -0.10184E+08
 
   -0.12211E+08        -0.10711E+07         0.00000E+00
   -0.10711E+07        -0.38426E+08         0.00000E+00
    0.00000E+00         0.00000E+00        -0.10127E+08
 
   -0.11855E+08        -0.90224E+06         0.00000E+00
   -0.90224E+06        -0.38502E+08         0.00000E+00
    0.00000E+00         0.00000E+00        -0.10071E+08
 
   -0.11509E+08        -0.64719E+06         0.00000E+00
   -0.64719E+06        -0.38575E+08         0.00000E+00
    0.00000E+00         0.00000E+00        -0.10017E+08
 
   -0.11177E+08        -0.31175E+06         0.00000E+00
   -0.31175E+06        -0.38649E+08         0.00000E+00
    0.00000E+00         0.00000E+00        -0.99652E+07
 
   -0.10864E+08         0.10099E+06         0.00000E+00
    0.10099E+06        -0.38722E+08         0.00000E+00
    0.00000E+00         0.00000E+00        -0.99173E+07
 
   -0.10575E+08         0.59022E+06         0.00000E+00
    0.59022E+06        -0.38797E+08         0.00000E+00
    0.00000E+00         0.00000E+00        -0.98743E+07
 
   -0.10314E+08         0.11567E+07         0.00000E+00
    0.11567E+07        -0.38871E+08         0.00000E+00
    0.00000E+00         0.00000E+00        -0.98370E+07
 
   -0.10092E+08         0.18017E+07         0.00000E+00
    0.18017E+07        -0.38940E+08         0.00000E+00
    0.00000E+00         0.00000E+00        -0.98064E+07
 
   -0.99177E+07         0.25260E+07         0.00000E+00
    0.25260E+07        -0.39000E+08         0.00000E+00
    0.00000E+00         0.00000E+00        -0.97836E+07
 
   -0.98045E+07         0.33280E+07         0.00000E+00
    0.33280E+07        -0.39043E+08         0.00000E+00
    0.00000E+00         0.00000E+00        -0.97695E+07
 
   -0.15482E+08        -0.28760E+06         0.00000E+00
   -0.28760E+06        -0.39320E+08         0.00000E+00
    0.00000E+00         0.00000E+00        -0.10960E+08
 
   -0.15113E+08        -0.73926E+06         0.00000E+00
   -0.73926E+06        -0.39354E+08         0.00000E+00
    0.00000E+00         0.00000E+00        -0.10894E+08
 
   -0.14685E+08        -0.10352E+07         0.00000E+00
   -0.10352E+07        -0.39408E+08         0.00000E+00
    0.00000E+00         0.00000E+00        -0.10819E+08
 
   -0.14227E+08        -0.11907E+07         0.00000E+00
   -0.11907E+07        -0.39470E+08         0.00000E+00
    0.00000E+00         0.00000E+00        -0.10739E+08
 
   -0.13759E+08        -0.12224E+07         0.00000E+00
   -0.12224E+07        -0.39531E+08         0.00000E+00
    0.00000E+00         0.00000E+00        -0.10658E+08
 
   -0.13297E+08        -0.11463E+07         0.00000E+00
   -0.11463E+07        -0.39589E+08         0.00000E+00
    0.00000E+00         0.00000E+00        -0.10577E+08
 
   -0.12848E+08        -0.97572E+06         0.00000E+00
   -0.97572E+06        -0.39644E+08         0.00000E+00
    0.00000E+00         0.00000E+00        -0.10499E+08
 
   -0.12417E+08        -0.72071E+06         0.00000E+00
   -0.72071E+06        -0.39700E+08         0.00000E+00
    0.00000E+00         0.00000E+00        -0.10423E+08
 
   -0.12005E+08        -0.38735E+06         0.00000E+00
   -0.38735E+06        -0.39759E+08         0.00000E+00
    0.00000E+00         0.00000E+00        -0.10353E+08
 
   -0.11613E+08         0.21893E+05         0.00000E+00
    0.21893E+05        -0.39824E+08         0.00000E+00
    0.00000E+00         0.00000E+00        -0.10287E+08
 
   -0.11244E+08         0.50769E+06         0.00000E+00
    0.50769E+06        -0.39897E+08         0.00000E+00
    0.00000E+00         0.00000E+00        -0.10228E+08
 
   -0.10902E+08         0.10730E+07         0.00000E+00
    0.10730E+07        -0.39979E+08         0.00000E+00
    0.00000E+00         0.00000E+00        -0.10176E+08
 
   -0.10596E+08         0.17217E+07         0.00000E+00
    0.17217E+07        -0.40065E+08         0.00000E+00
    0.00000E+00         0.00000E+00        -0.10132E+08
 
   -0.10338E+08         0.24570E+07         0.00000E+00
    0.24570E+07        -0.40149E+08         0.00000E+00
    0.00000E+00         0.00000E+00        -0.10097E+08
 
   -0.10143E+08         0.32796E+07         0.00000E+00
    0.32796E+07        -0.40222E+08         0.00000E+00
    0.00000E+00         0.00000E+00        -0.10073E+08
 
   -0.17278E+08        -0.30889E+06         0.00000E+00
   -0.30889E+06        -0.40563E+08         0.00000E+00
    0.00000E+00         0.00000E+00        -0.11568E+08
 
   -0.16738E+08        -0.78820E+06         0.00000E+00
   -0.78820E+06        -0.40593E+08         0.00000E+00
    0.00000E+00         0.00000E+00        -0.11466E+08
 
   -0.16152E+08        -0.10956E+07         0.00000E+00
   -0.10956E+07        -0.40636E+08         0.00000E+00
    0.00000E+00         0.00000E+00        -0.11358E+08
 
   -0.15555E+08        -0.12522E+07         0.00000E+00
   -0.12522E+07        -0.40680E+08         0.00000E+00
    0.00000E+00         0.00000E+00        -0.11247E+08
 
   -0.14968E+08        -0.12801E+07         0.00000E+00
   -0.12801E+07        -0.40717E+08         0.00000E+00
    0.00000E+00         0.00000E+00        -0.11137E+08
 
   -0.14403E+08        -0.12001E+07         0.00000E+00
   -0.12001E+07        -0.40748E+08         0.00000E+00
    0.00000E+00         0.00000E+00        -0.11030E+08
 
   -0.13865E+08        -0.10285E+07         0.00000E+00
   -0.10285E+07        -0.40775E+08         0.00000E+00
    0.00000E+00         0.00000E+00        -0.10928E+08
 
   -0.13352E+08        -0.77664E+06         0.00000E+00
   -0.77664E+06        -0.40804E+08         0.00000E+00
    0.00000E+00         0.00000E+00        -0.10831E+08
 
   -0.12863E+08        -0.45085E+06         0.00000E+00
   -0.45085E+06        -0.40842E+08         0.00000E+00
    0.00000E+00         0.00000E+00        -0.10741E+08
 
   -0.12394E+08        -0.52561E+05         0.00000E+00
   -0.52561E+05        -0.40894E+08         0.00000E+00
    0.00000E+00         0.00000E+00        -0.10658E+08
 
   -0.11945E+08         0.42089E+06         0.00000E+00
    0.42089E+06        -0.40963E+08         0.00000E+00
    0.00000E+00         0.00000E+00        -0.10582E+08
 
   -0.11519E+08         0.97539E+06         0.00000E+00
    0.97539E+06        -0.41051E+08         0.00000E+00
    0.00000E+00         0.00000E+00        -0.10514E+08
 
   -0.11122E+08         0.16185E+07         0.00000E+00
    0.16185E+07        -0.41155E+08         0.00000E+00
    0.00000E+00         0.00000E+00        -0.10455E+08
 
   -0.10770E+08         0.23575E+07         0.00000E+00
    0.23575E+07        -0.41267E+08         0.00000E+00
    0.00000E+00         0.00000E+00        -0.10407E+08
 
   -0.10482E+08         0.31961E+07         0.00000E+00
    0.31961E+07        -0.41375E+08         0.00000E+00
    0.00000E+00         0.00000E+00        -0.10371E+08
 
   -0.19128E+08        -0.32878E+06         0.00000E+00
   -0.32878E+06        -0.41823E+08         0.00000E+00
    0.00000E+00         0.00000E+00        -0.12190E+08
 
   -0.18394E+08        -0.82997E+06         0.00000E+00
   -0.82997E+06        -0.41846E+08         0.00000E+00
    0.00000E+00         0.00000E+00        -0.12048E+08
 
   -0.17638E+08        -0.11409E+07         0.00000E+00
   -0.11409E+07        -0.41874E+08         0.00000E+00
    0.00000E+00         0.00000E+00        -0.11902E+08
 
   -0.16896E+08        -0.12907E+07         0.00000E+00
   -0.12907E+07        -0.41892E+08         0.00000E+00
    0.00000E+00         0.00000E+00        -0.11758E+08
 
   -0.16189E+08        -0.13094E+07         0.00000E+00
   -0.13094E+07        -0.41896E+08         0.00000E+00
    0.00000E+00         0.00000E+00        -0.11617E+08
 
   -0.15525E+08        -0.12232E+07         0.00000E+00
   -0.12232E+07        -0.41889E+08         0.00000E+00
    0.00000E+00         0.00000E+00        -0.11483E+08
 
   -0.14902E+08        -0.10516E+07         0.00000E+00
   -0.10516E+07        -0.41879E+08         0.00000E+00
    0.00000E+00         0.00000E+00        -0.11356E+08
 
   -0.14315E+08        -0.80713E+06         0.00000E+00
   -0.80713E+06        -0.41874E+08         0.00000E+00
    0.00000E+00         0.00000E+00        -0.11238E+08
 
   -0.13754E+08        -0.49572E+06         0.00000E+00
   -0.49572E+06        -0.41884E+08         0.00000E+00
    0.00000E+00         0.00000E+00        -0.11128E+08
 
   -0.13212E+08        -0.11750E+06         0.00000E+00
   -0.11750E+06        -0.41916E+08         0.00000E+00
    0.00000E+00         0.00000E+00        -0.11026E+08
 
   -0.12684E+08         0.33263E+06         0.00000E+00
    0.33263E+06        -0.41978E+08         0.00000E+00
    0.00000E+00         0.00000E+00        -0.10932E+08
 
   -0.12170E+08         0.86421E+06         0.00000E+00
    0.86421E+06        -0.42071E+08         0.00000E+00
    0.00000E+00         0.00000E+00        -0.10848E+08
 
   -0.11676E+08         0.14898E+07         0.00000E+00
    0.14898E+07        -0.42193E+08         0.00000E+00
    0.00000E+00         0.00000E+00        -0.10774E+08
 
   -0.11217E+08         0.22223E+07         0.00000E+00
    0.22223E+07        -0.42337E+08         0.00000E+00
    0.00000E+00         0.00000E+00        -0.10711E+08
 
   -0.10820E+08         0.30711E+07         0.00000E+00
    0.30711E+07        -0.42487E+08         0.00000E+00
    0.00000E+00         0.00000E+00        -0.10661E+08
 
   -0.21018E+08        -0.34646E+06         0.00000E+00
   -0.34646E+06        -0.43093E+08         0.00000E+00
    0.00000E+00         0.00000E+00        -0.12822E+08
 
   -0.20068E+08        -0.86059E+06         0.00000E+00
   -0.86059E+06        -0.43108E+08         0.00000E+00
    0.00000E+00         0.00000E+00        -0.12635E+08
 
   -0.19127E+08        -0.11631E+07         0.00000E+00
   -0.11631E+07        -0.43113E+08         0.00000E+00
    0.00000E+00         0.00000E+00        -0.12448E+08
 
   -0.18236E+08        -0.12956E+07         0.00000E+00
   -0.12956E+07        -0.43095E+08         0.00000E+00
    0.00000E+00         0.00000E+00        -0.12266E+08
 
   -0.17412E+08        -0.12987E+07         0.00000E+00
   -0.12987E+07        -0.43054E+08         0.00000E+00
    0.00000E+00         0.00000E+00        -0.12093E+08
 
   -0.16657E+08        -0.12045E+07         0.00000E+00
   -0.12045E+07        -0.42998E+08         0.00000E+00
    0.00000E+00         0.00000E+00        -0.11931E+08
 
   -0.15959E+08        -0.10353E+07         0.00000E+00
   -0.10353E+07        -0.42939E+08         0.00000E+00
    0.00000E+00         0.00000E+00        -0.11780E+08
 
   -0.15306E+08        -0.80374E+06         0.00000E+00
   -0.80374E+06        -0.42892E+08         0.00000E+00
    0.00000E+00         0.00000E+00        -0.11640E+08
 
   -0.14682E+08        -0.51496E+06         0.00000E+00
   -0.51496E+06        -0.42867E+08         0.00000E+00
    0.00000E+00         0.00000E+00        -0.11510E+08
 
   -0.14074E+08        -0.16749E+06         0.00000E+00
   -0.16749E+06        -0.42874E+08         0.00000E+00
    0.00000E+00         0.00000E+00        -0.11390E+08
 
   -0.13471E+08         0.24626E+06         0.00000E+00
    0.24626E+06        -0.42924E+08         0.00000E+00
    0.00000E+00         0.00000E+00        -0.11279E+08
 
   -0.12867E+08         0.73991E+06         0.00000E+00
    0.73991E+06        -0.43020E+08         0.00000E+00
    0.00000E+00         0.00000E+00        -0.11177E+08
 
   -0.12267E+08         0.13323E+07         0.00000E+00
    0.13323E+07        -0.43163E+08         0.00000E+00
    0.00000E+00         0.00000E+00        -0.11086E+08
 
   -0.11686E+08         0.20448E+07         0.00000E+00
    0.20448E+07        -0.43345E+08         0.00000E+00
    0.00000E+00         0.00000E+00        -0.11006E+08
 
   -0.11158E+08         0.28954E+07         0.00000E+00
    0.28954E+07        -0.43546E+08         0.00000E+00
    0.00000E+00         0.00000E+00        -0.10941E+08
 
   -0.22938E+08        -0.36084E+06         0.00000E+00
   -0.36084E+06        -0.44369E+08         0.00000E+00
    0.00000E+00         0.00000E+00        -0.13461E+08
 
   -0.21741E+08        -0.87388E+06         0.00000E+00
   -0.87388E+06        -0.44370E+08         0.00000E+00
    0.00000E+00         0.00000E+00        -0.13222E+08
 
   -0.20600E+08        -0.11507E+07         0.00000E+00
   -0.11507E+07        -0.44342E+08         0.00000E+00
    0.00000E+00         0.00000E+00        -0.12988E+08
 
   -0.19560E+08        -0.12527E+07         0.00000E+00
   -0.12527E+07        -0.44272E+08         0.00000E+00
    0.00000E+00         0.00000E+00        -0.12766E+08
 
   -0.18629E+08        -0.12338E+07         0.00000E+00
   -0.12338E+07        -0.44170E+08         0.00000E+00
    0.00000E+00         0.00000E+00        -0.12560E+08
 
   -0.17795E+08        -0.11320E+07         0.00000E+00
   -0.11320E+07        -0.44052E+08         0.00000E+00
    0.00000E+00         0.00000E+00        -0.12369E+08
 
   -0.17036E+08        -0.96974E+06         0.00000E+00
   -0.96974E+06        -0.43936E+08         0.00000E+00
    0.00000E+00         0.00000E+00        -0.12195E+08
 
   -0.16330E+08        -0.75851E+06         0.00000E+00
   -0.75851E+06        -0.43839E+08         0.00000E+00
    0.00000E+00         0.00000E+00        -0.12034E+08
 
   -0.15654E+08        -0.50187E+06         0.00000E+00
   -0.50187E+06        -0.43773E+08         0.00000E+00
    0.00000E+00         0.00000E+00        -0.11885E+08
 
   -0.14988E+08        -0.19686E+06         0.00000E+00
   -0.19686E+06        -0.43751E+08         0.00000E+00
    0.00000E+00         0.00000E+00        -0.11748E+08
 
   -0.14315E+08         0.16597E+06         0.00000E+00
    0.16597E+06        -0.43784E+08         0.00000E+00
    0.00000E+00         0.00000E+00        -0.11620E+08
 
   -0.13623E+08         0.60381E+06         0.00000E+00
    0.60381E+06        -0.43881E+08         0.00000E+00
    0.00000E+00         0.00000E+00        -0.11501E+08
 
   -0.12909E+08         0.11428E+07         0.00000E+00
    0.11428E+07        -0.44046E+08         0.00000E+00
    0.00000E+00         0.00000E+00        -0.11391E+08
 
   -0.12188E+08         0.18161E+07         0.00000E+00
    0.18161E+07        -0.44272E+08         0.00000E+00
    0.00000E+00         0.00000E+00        -0.11292E+08
 
   -0.11499E+08         0.26563E+07         0.00000E+00
    0.26563E+07        -0.44537E+08         0.00000E+00
    0.00000E+00         0.00000E+00        -0.11207E+08
 
   -0.24867E+08        -0.37015E+06         0.00000E+00
   -0.37015E+06        -0.45642E+08         0.00000E+00
    0.00000E+00         0.00000E+00        -0.14102E+08
 
   -0.23384E+08        -0.85890E+06         0.00000E+00
   -0.85890E+06        -0.45621E+08         0.00000E+00
    0.00000E+00         0.00000E+00        -0.13801E+08
 
   -0.22032E+08        -0.10850E+07         0.00000E+00
   -0.10850E+07        -0.45541E+08         0.00000E+00
    0.00000E+00         0.00000E+00        -0.13515E+08
 
   -0.20853E+08        -0.11422E+07         0.00000E+00
   -0.11422E+07        -0.45398E+08         0.00000E+00
    0.00000E+00         0.00000E+00        -0.13250E+08
 
   -0.19833E+08        -0.10992E+07         0.00000E+00
   -0.10992E+07        -0.45217E+08         0.00000E+00
    0.00000E+00         0.00000E+00        -0.13010E+08
 
   -0.18939E+08        -0.99445E+06         0.00000E+00
   -0.99445E+06        -0.45026E+08         0.00000E+00
    0.00000E+00         0.00000E+00        -0.12793E+08
 
   -0.18136E+08        -0.84716E+06         0.00000E+00
   -0.84716E+06        -0.44846E+08         0.00000E+00
    0.00000E+00         0.00000E+00        -0.12596E+08
 
   -0.17391E+08        -0.66560E+06         0.00000E+00
   -0.66560E+06        -0.44695E+08         0.00000E+00
    0.00000E+00         0.00000E+00        -0.12417E+08
 
   -0.16675E+08        -0.45131E+06         0.00000E+00
   -0.45131E+06        -0.44586E+08         0.00000E+00
    0.00000E+00         0.00000E+00        -0.12252E+08
 
   -0.15964E+08        -0.20043E+06         0.00000E+00
   -0.20043E+06        -0.44532E+08         0.00000E+00
    0.00000E+00         0.00000E+00        -0.12099E+08
 
   -0.15232E+08         0.96967E+05         0.00000E+00
    0.96967E+05        -0.44544E+08         0.00000E+00
    0.00000E+00         0.00000E+00        -0.11955E+08
 
   -0.14457E+08         0.45932E+06         0.00000E+00
    0.45932E+06        -0.44636E+08         0.00000E+00
    0.00000E+00         0.00000E+00        -0.11819E+08
 
   -0.13624E+08         0.91888E+06         0.00000E+00
    0.91888E+06        -0.44821E+08         0.00000E+00
    0.00000E+00         0.00000E+00        -0.11689E+08
 
   -0.12739E+08         0.15249E+07         0.00000E+00
    0.15249E+07        -0.45098E+08         0.00000E+00
    0.00000E+00         0.00000E+00        -0.11567E+08
 
   -0.11847E+08         0.23351E+07         0.00000E+00
    0.23351E+07        -0.45446E+08         0.00000E+00
    0.00000E+00         0.00000E+00        -0.11459E+08
 
   -0.26778E+08        -0.37035E+06         0.00000E+00
   -0.37035E+06        -0.46905E+08         0.00000E+00
    0.00000E+00         0.00000E+00        -0.14737E+08
 
   -0.24958E+08        -0.79316E+06         0.00000E+00
   -0.79316E+06        -0.46843E+08         0.00000E+00
    0.00000E+00         0.00000E+00        -0.14360E+08
 
   -0.23397E+08        -0.93540E+06         0.00000E+00
   -0.93540E+06        -0.46673E+08         0.00000E+00
    0.00000E+00         0.00000E+00        -0.14014E+08
 
   -0.22107E+08        -0.94062E+06         0.00000E+00
   -0.94062E+06        -0.46427E+08         0.00000E+00
    0.00000E+00         0.00000E+00        -0.13707E+08
 
   -0.21026E+08        -0.88109E+06         0.00000E+00
   -0.88109E+06        -0.46154E+08         0.00000E+00
    0.00000E+00         0.00000E+00        -0.13436E+08
 
   -0.20095E+08        -0.78517E+06         0.00000E+00
   -0.78517E+06        -0.45885E+08         0.00000E+00
    0.00000E+00         0.00000E+00        -0.13196E+08
 
   -0.19264E+08        -0.66456E+06         0.00000E+00
   -0.66456E+06        -0.45643E+08         0.00000E+00
    0.00000E+00         0.00000E+00        -0.12981E+08
 
   -0.18494E+08        -0.52341E+06         0.00000E+00
   -0.52341E+06        -0.45440E+08         0.00000E+00
    0.00000E+00         0.00000E+00        -0.12787E+08
 
   -0.17753E+08        -0.36146E+06         0.00000E+00
   -0.36146E+06        -0.45290E+08         0.00000E+00
    0.00000E+00         0.00000E+00        -0.12609E+08
 
   -0.17009E+08        -0.17484E+06         0.00000E+00
   -0.17484E+06        -0.45204E+08         0.00000E+00
    0.00000E+00         0.00000E+00        -0.12443E+08
 
   -0.16231E+08         0.44935E+05         0.00000E+00
    0.44935E+05        -0.45193E+08         0.00000E+00
    0.00000E+00         0.00000E+00        -0.12285E+08
 
   -0.15387E+08         0.31391E+06         0.00000E+00
    0.31391E+06        -0.45275E+08         0.00000E+00
    0.00000E+00         0.00000E+00        -0.12132E+08
 
   -0.14441E+08         0.66332E+06         0.00000E+00
    0.66332E+06        -0.45470E+08         0.00000E+00
    0.00000E+00         0.00000E+00        -0.11982E+08
 
   -0.13370E+08         0.11590E+07         0.00000E+00
    0.11590E+07        -0.45802E+08         0.00000E+00
    0.00000E+00         0.00000E+00        -0.11834E+08
 
   -0.12215E+08         0.19038E+07         0.00000E+00
    0.19038E+07        -0.46255E+08         0.00000E+00
    0.00000E+00         0.00000E+00        -0.11694E+08
 
   -0.28619E+08        -0.34743E+06         0.00000E+00
   -0.34743E+06        -0.48141E+08         0.00000E+00
    0.00000E+00         0.00000E+00        -0.15352E+08
 
   -0.26404E+08        -0.62292E+06         0.00000E+00
   -0.62292E+06        -0.47979E+08         0.00000E+00
    0.00000E+00         0.00000E+00        -0.14877E+08
 
   -0.24679E+08        -0.65919E+06         0.00000E+00
   -0.65919E+06        -0.47659E+08         0.00000E+00
    0.00000E+00         0.00000E+00        -0.14468E+08
 
   -0.23328E+08        -0.63097E+06         0.00000E+00
   -0.63097E+06        -0.47292E+08         0.00000E+00
    0.00000E+00         0.00000E+00        -0.14124E+08
 
   -0.22218E+08        -0.57642E+06         0.00000E+00
   -0.57642E+06        -0.46928E+08         0.00000E+00
    0.00000E+00         0.00000E+00        -0.13829E+08
 
   -0.21270E+08        -0.50700E+06         0.00000E+00
   -0.50700E+06        -0.46592E+08         0.00000E+00
    0.00000E+00         0.00000E+00        -0.13572E+08
 
   -0.20427E+08        -0.42676E+06         0.00000E+00
   -0.42676E+06        -0.46298E+08         0.00000E+00
    0.00000E+00         0.00000E+00        -0.13345E+08
 
   -0.19647E+08        -0.33660E+06         0.00000E+00
   -0.33660E+06        -0.46055E+08         0.00000E+00
    0.00000E+00         0.00000E+00        -0.13140E+08
 
   -0.18892E+08        -0.23550E+06         0.00000E+00
   -0.23550E+06        -0.45873E+08         0.00000E+00
    0.00000E+00         0.00000E+00        -0.12953E+08
 
   -0.18130E+08        -0.12059E+06         0.00000E+00
   -0.12059E+06        -0.45760E+08         0.00000E+00
    0.00000E+00         0.00000E+00        -0.12778E+08
 
   -0.17323E+08         0.13656E+05         0.00000E+00
    0.13656E+05        -0.45730E+08         0.00000E+00
    0.00000E+00         0.00000E+00        -0.12611E+08
 
   -0.16432E+08         0.17766E+06         0.00000E+00
    0.17766E+06        -0.45797E+08         0.00000E+00
    0.00000E+00         0.00000E+00        -0.12446E+08
 
   -0.15399E+08         0.39279E+06         0.00000E+00
    0.39279E+06        -0.45989E+08         0.00000E+00
    0.00000E+00         0.00000E+00        -0.12278E+08
 
   -0.14140E+08         0.71278E+06         0.00000E+00
    0.71278E+06        -0.46350E+08         0.00000E+00
    0.00000E+00         0.00000E+00        -0.12098E+08
 
   -0.12633E+08         0.13143E+07         0.00000E+00
    0.13143E+07        -0.46943E+08         0.00000E+00
    0.00000E+00         0.00000E+00        -0.11915E+08
 
   -0.30263E+08        -0.21139E+06         0.00000E+00
   -0.21139E+06        -0.49237E+08         0.00000E+00
    0.00000E+00         0.00000E+00        -0.15900E+08
 
   -0.27680E+08        -0.25375E+06         0.00000E+00
   -0.25375E+06        -0.48833E+08         0.00000E+00
    0.00000E+00         0.00000E+00        -0.15303E+08
 
   -0.25907E+08        -0.24223E+06         0.00000E+00
   -0.24223E+06        -0.48364E+08         0.00000E+00
    0.00000E+00         0.00000E+00        -0.14854E+08
 
   -0.24540E+08        -0.22440E+06         0.00000E+00
   -0.22440E+06        -0.47908E+08         0.00000E+00
    0.00000E+00         0.00000E+00        -0.14490E+08
 
   -0.23425E+08        -0.20189E+06         0.00000E+00
   -0.20189E+06        -0.47487E+08         0.00000E+00
    0.00000E+00         0.00000E+00        -0.14183E+08
 
   -0.22476E+08        -0.17628E+06         0.00000E+00
   -0.17628E+06        -0.47112E+08         0.00000E+00
    0.00000E+00         0.00000E+00        -0.13918E+08
 
   -0.21634E+08        -0.14797E+06         0.00000E+00
   -0.14797E+06        -0.46789E+08         0.00000E+00
    0.00000E+00         0.00000E+00        -0.13684E+08
 
   -0.20852E+08        -0.11686E+06         0.00000E+00
   -0.11686E+06        -0.46525E+08         0.00000E+00
    0.00000E+00         0.00000E+00        -0.13475E+08
 
   -0.20096E+08        -0.82430E+05         0.00000E+00
   -0.82430E+05        -0.46325E+08         0.00000E+00
    0.00000E+00         0.00000E+00        -0.13284E+08
 
   -0.19328E+08        -0.43616E+05         0.00000E+00
   -0.43616E+05        -0.46199E+08         0.00000E+00
    0.00000E+00         0.00000E+00        -0.13105E+08
 
   -0.18510E+08         0.14708E+04         0.00000E+00
    0.14708E+04        -0.46156E+08         0.00000E+00
    0.00000E+00         0.00000E+00        -0.12933E+08
 
   -0.17598E+08         0.56300E+05         0.00000E+00
    0.56300E+05        -0.46213E+08         0.00000E+00
    0.00000E+00         0.00000E+00        -0.12762E+08
 
   -0.16521E+08         0.12839E+06         0.00000E+00
    0.12839E+06        -0.46397E+08         0.00000E+00
    0.00000E+00         0.00000E+00        -0.12583E+08
 
   -0.15161E+08         0.23470E+06         0.00000E+00
    0.23470E+06        -0.46759E+08         0.00000E+00
    0.00000E+00         0.00000E+00        -0.12384E+08
 
   -0.13182E+08         0.48605E+06         0.00000E+00
    0.48605E+06        -0.47441E+08         0.00000E+00
    0.00000E+00         0.00000E+00        -0.12125E+08
 
TENSORS stresstot double 
   -0.31925E+08        -0.26553E+04         0.00000E+00
   -0.26553E+04        -0.60003E+08         0.00000E+00
    0.00000E+00         0.00000E+00        -0.39913E+08
 
   -0.32832E+08        -0.66275E+04         0.00000E+00
   -0.66275E+04        -0.60012E+08         0.00000E+00
    0.00000E+00         0.00000E+00        -0.40091E+08
 
   -0.33666E+08        -0.86754E+04         0.00000E+00
   -0.86754E+04        -0.60028E+08         0.00000E+00
    0.00000E+00         0.00000E+00        -0.40253E+08
 
   -0.34436E+08        -0.86802E+04         0.00000E+00
   -0.86802E+04        -0.60045E+08         0.00000E+00
    0.00000E+00         0.00000E+00        -0.40399E+08
 
   -0.35151E+08        -0.65592E+04         0.00000E+00
   -0.65592E+04        -0.60061E+08         0.00000E+00
    0.00000E+00         0.00000E+00        -0.40531E+08
 
   -0.35820E+08        -0.22614E+04         0.00000E+00
   -0.22614E+04        -0.60070E+08         0.00000E+00
    0.00000E+00         0.00000E+00        -0.40652E+08
 
   -0.36452E+08         0.42373E+04         0.00000E+00
    0.42373E+04        -0.60068E+08         0.00000E+00
    0.00000E+00         0.00000E+00        -0.40762E+08
 
   -0.37054E+08         0.12939E+05         0.00000E+00
    0.12939E+05        -0.60051E+08         0.00000E+00
    0.00000E+00         0.00000E+00        -0.40862E+08
 
   -0.37636E+08         0.23828E+05         0.00000E+00
    0.23828E+05        -0.60015E+08         0.00000E+00
    0.00000E+00         0.00000E+00        -0.40956E+08
 
   -0.38205E+08         0.36875E+05         0.00000E+00
    0.36875E+05        -0.59954E+08         0.00000E+00
    0.00000E+00         0.00000E+00        -0.41042E+08
 
   -0.38770E+08         0.52044E+05         0.00000E+00
    0.52044E+05        -0.59866E+08         0.00000E+00
    0.00000E+00         0.00000E+00        -0.41124E+08
 
   -0.39339E+08         0.69293E+05         0.00000E+00
    0.69293E+05        -0.59745E+08         0.00000E+00
    0.00000E+00         0.00000E+00        -0.41202E+08
 
   -0.39919E+08         0.88582E+05         0.00000E+00
    0.88582E+05        -0.59587E+08         0.00000E+00
    0.00000E+00         0.00000E+00        -0.41277E+08
 
   -0.40517E+08         0.10987E+06         0.00000E+00
    0.10987E+06        -0.59389E+08         0.00000E+00
    0.00000E+00         0.00000E+00        -0.41351E+08
 
   -0.41141E+08         0.13314E+06         0.00000E+00
    0.13314E+06        -0.59146E+08         0.00000E+00
    0.00000E+00         0.00000E+00        -0.41423E+08
 
   -0.31935E+08        -0.80333E+04         0.00000E+00
   -0.80333E+04        -0.60003E+08         0.00000E+00
    0.00000E+00         0.00000E+00        -0.39871E+08
 
   -0.32838E+08        -0.20068E+05         0.00000E+00
   -0.20068E+05        -0.60013E+08         0.00000E+00
    0.00000E+00         0.00000E+00        -0.40048E+08
 
   -0.33668E+08        -0.26311E+05         0.00000E+00
   -0.26311E+05        -0.60029E+08         0.00000E+00
    0.00000E+00         0.00000E+00        -0.40209E+08
 
   -0.34434E+08        -0.26407E+05         0.00000E+00
   -0.26407E+05        -0.60047E+08         0.00000E+00
    0.00000E+00         0.00000E+00        -0.40355E+08
 
   -0.35145E+08        -0.20111E+05         0.00000E+00
   -0.20111E+05        -0.60063E+08         0.00000E+00
    0.00000E+00         0.00000E+00        -0.40486E+08
 
   -0.35810E+08        -0.72721E+04         0.00000E+00
   -0.72721E+04        -0.60073E+08         0.00000E+00
    0.00000E+00         0.00000E+00        -0.40606E+08
 
   -0.36436E+08         0.12179E+05         0.00000E+00
    0.12179E+05        -0.60072E+08         0.00000E+00
    0.00000E+00         0.00000E+00        -0.40715E+08
 
   -0.37034E+08         0.38245E+05         0.00000E+00
    0.38245E+05        -0.60057E+08         0.00000E+00
    0.00000E+00         0.00000E+00        -0.40816E+08
 
   -0.37612E+08         0.70878E+05         0.00000E+00
    0.70878E+05        -0.60021E+08         0.00000E+00
    0.00000E+00         0.00000E+00        -0.40908E+08
 
   -0.38177E+08         0.10999E+06         0.00000E+00
    0.10999E+06        -0.59962E+08         0.00000E+00
    0.00000E+00         0.00000E+00        -0.40995E+08
 
   -0.38738E+08         0.15546E+06         0.00000E+00
    0.15546E+06        -0.59875E+08         0.00000E+00
    0.00000E+00         0.00000E+00        -0.41076E+08
 
   -0.39303E+08         0.20718E+06         0.00000E+00
    0.20718E+06        -0.59755E+08         0.00000E+00
    0.00000E+00         0.00000E+00        -0.41153E+08
 
   -0.39879E+08         0.26501E+06         0.00000E+00
    0.26501E+06        -0.59599E+08         0.00000E+00
    0.00000E+00         0.00000E+00        -0.41228E+08
 
   -0.40473E+08         0.32883E+06         0.00000E+00
    0.32883E+06        -0.59402E+08         0.00000E+00
    0.00000E+00         0.00000E+00        -0.41301E+08
 
   -0.41092E+08         0.39858E+06         0.00000E+00
    0.39858E+06        -0.59161E+08         0.00000E+00
    0.00000E+00         0.00000E+00        -0.41373E+08
 
   -0.31955E+08        -0.13613E+05         0.00000E+00
   -0.13613E+05        -0.60003E+08         0.00000E+00
    0.00000E+00         0.00000E+00        -0.39786E+08
 
   -0.32850E+08        -0.34066E+05         0.00000E+00
   -0.34066E+05        -0.60013E+08         0.00000E+00
    0.00000E+00         0.00000E+00        -0.39963E+08
 
   -0.33672E+08        -0.44800E+05         0.00000E+00
   -0.44800E+05        -0.60030E+08         0.00000E+00
    0.00000E+00         0.00000E+00        -0.40122E+08
 
   -0.34430E+08        -0.45230E+05         0.00000E+00
   -0.45230E+05        -0.60050E+08         0.00000E+00
    0.00000E+00         0.00000E+00        -0.40266E+08
 
   -0.35132E+08        -0.34959E+05         0.00000E+00
   -0.34959E+05        -0.60068E+08         0.00000E+00
    0.00000E+00         0.00000E+00        -0.40397E+08
 
   -0.35788E+08        -0.13742E+05         0.00000E+00
   -0.13742E+05        -0.60079E+08         0.00000E+00
    0.00000E+00         0.00000E+00        -0.40515E+08
 
   -0.36406E+08         0.18526E+05         0.00000E+00
    0.18526E+05        -0.60081E+08         0.00000E+00
    0.00000E+00         0.00000E+00        -0.40623E+08
 
   -0.36995E+08         0.61843E+05         0.00000E+00
    0.61843E+05        -0.60067E+08         0.00000E+00
    0.00000E+00         0.00000E+00        -0.40722E+08
 
   -0.37564E+08         0.11612E+06         0.00000E+00
    0.11612E+06        -0.60034E+08         0.00000E+00
    0.00000E+00         0.00000E+00        -0.40814E+08
 
   -0.38121E+08         0.18120E+06         0.00000E+00
    0.18120E+06        -0.59977E+08         0.00000E+00
    0.00000E+00         0.00000E+00        -0.40899E+08
 
   -0.38673E+08         0.25689E+06         0.00000E+00
    0.25689E+06        -0.59893E+08         0.00000E+00
    0.00000E+00         0.00000E+00        -0.40979E+08
 
   -0.39230E+08         0.34297E+06         0.00000E+00
    0.34297E+06        -0.59776E+08         0.00000E+00
    0.00000E+00         0.00000E+00        -0.41056E+08
 
   -0.39797E+08         0.43922E+06         0.00000E+00
    0.43922E+06        -0.59623E+08         0.00000E+00
    0.00000E+00         0.00000E+00        -0.41129E+08
 
   -0.40384E+08         0.54545E+06         0.00000E+00
    0.54545E+06        -0.59429E+08         0.00000E+00
    0.00000E+00         0.00000E+00        -0.41201E+08
 
   -0.40995E+08         0.66151E+06         0.00000E+00
    0.66151E+06        -0.59191E+08         0.00000E+00
    0.00000E+00         0.00000E+00        -0.41273E+08
 
   -0.31985E+08        -0.19528E+05         0.00000E+00
   -0.19528E+05        -0.60003E+08         0.00000E+00
    0.00000E+00         0.00000E+00        -0.39660E+08
 
   -0.32869E+08        -0.48990E+05         0.00000E+00
   -0.48990E+05        -0.60014E+08         0.00000E+00
    0.00000E+00         0.00000E+00        -0.39835E+08
 
   -0.33679E+08        -0.64704E+05         0.00000E+00
   -0.64704E+05        -0.60033E+08         0.00000E+00
    0.00000E+00         0.00000E+00        -0.39992E+08
 
   -0.34425E+08        -0.65874E+05         0.00000E+00
   -0.65874E+05        -0.60054E+08         0.00000E+00
    0.00000E+00         0.00000E+00        -0.40134E+08
 
   -0.35114E+08        -0.51956E+05         0.00000E+00
   -0.51956E+05        -0.60074E+08         0.00000E+00
    0.00000E+00         0.00000E+00        -0.40263E+08
 
   -0.35756E+08        -0.22633E+05         0.00000E+00
   -0.22633E+05        -0.60089E+08         0.00000E+00
    0.00000E+00         0.00000E+00        -0.40379E+08
 
   -0.36361E+08         0.22230E+05         0.00000E+00
    0.22230E+05        -0.60093E+08         0.00000E+00
    0.00000E+00         0.00000E+00        -0.40486E+08
 
   -0.36937E+08         0.82609E+05         0.00000E+00
    0.82609E+05        -0.60083E+08         0.00000E+00
    0.00000E+00         0.00000E+00        -0.40583E+08
 
   -0.37492E+08         0.15836E+06         0.00000E+00
    0.15836E+06        -0.60053E+08         0.00000E+00
    0.00000E+00         0.00000E+00        -0.40673E+08
 
   -0.38036E+08         0.24926E+06         0.00000E+00
    0.24926E+06        -0.60000E+08         0.00000E+00
    0.00000E+00         0.00000E+00        -0.40756E+08
 
   -0.38576E+08         0.35500E+06         0.00000E+00
    0.35500E+06        -0.59919E+08         0.00000E+00
    0.00000E+00         0.00000E+00        -0.40835E+08
 
   -0.39120E+08         0.47527E+06         0.00000E+00
    0.47527E+06        -0.59807E+08         0.00000E+00
    0.00000E+00         0.00000E+00        -0.40910E+08
 
   -0.39676E+08         0.60976E+06         0.00000E+00
    0.60976E+06        -0.59658E+08         0.00000E+00
    0.00000E+00         0.00000E+00        -0.40982E+08
 
   -0.40250E+08         0.75817E+06         0.00000E+00
    0.75817E+06        -0.59468E+08         0.00000E+00
    0.00000E+00         0.00000E+00        -0.41053E+08
 
   -0.40850E+08         0.92028E+06         0.00000E+00
    0.92028E+06        -0.59235E+08         0.00000E+00
    0.00000E+00         0.00000E+00        -0.41123E+08
 
   -0.32027E+08        -0.25911E+05         0.00000E+00
   -0.25911E+05        -0.60004E+08         0.00000E+00
    0.00000E+00         0.00000E+00        -0.39493E+08
 
   -0.32896E+08        -0.65203E+05         0.00000E+00
   -0.65203E+05        -0.60016E+08         0.00000E+00
    0.00000E+00         0.00000E+00        -0.39665E+08
 
   -0.33690E+08        -0.86579E+05         0.00000E+00
   -0.86579E+05        -0.60036E+08         0.00000E+00
    0.00000E+00         0.00000E+00        -0.39820E+08
 
   -0.34418E+08        -0.89047E+05         0.00000E+00
   -0.89047E+05        -0.60060E+08         0.00000E+00
    0.00000E+00         0.00000E+00        -0.39959E+08
 
   -0.35089E+08        -0.71941E+05         0.00000E+00
   -0.71941E+05        -0.60083E+08         0.00000E+00
    0.00000E+00         0.00000E+00        -0.40085E+08
 
   -0.35714E+08        -0.34883E+05         0.00000E+00
   -0.34883E+05        -0.60101E+08         0.00000E+00
    0.00000E+00         0.00000E+00        -0.40199E+08
 
   -0.36301E+08         0.22265E+05         0.00000E+00
    0.22265E+05        -0.60110E+08         0.00000E+00
    0.00000E+00         0.00000E+00        -0.40302E+08
 
   -0.36859E+08         0.99444E+05         0.00000E+00
    0.99444E+05        -0.60104E+08         0.00000E+00
    0.00000E+00         0.00000E+00        -0.40397E+08
 
   -0.37397E+08         0.19644E+06         0.00000E+00
    0.19644E+06        -0.60079E+08         0.00000E+00
    0.00000E+00         0.00000E+00        -0.40485E+08
 
   -0.37924E+08         0.31293E+06         0.00000E+00
    0.31293E+06        -0.60031E+08         0.00000E+00
    0.00000E+00         0.00000E+00        -0.40566E+08
 
   -0.38447E+08         0.44851E+06         0.00000E+00
    0.44851E+06        -0.59955E+08         0.00000E+00
    0.00000E+00         0.00000E+00        -0.40643E+08
 
   -0.38975E+08         0.60275E+06         0.00000E+00
    0.60275E+06        -0.59847E+08         0.00000E+00
    0.00000E+00         0.00000E+00        -0.40716E+08
 
   -0.39515E+08         0.77520E+06         0.00000E+00
    0.77520E+06        -0.59704E+08         0.00000E+00
    0.00000E+00         0.00000E+00        -0.40786E+08
 
   -0.40073E+08         0.96547E+06         0.00000E+00
    0.96547E+06        -0.59521E+08         0.00000E+00
    0.00000E+00         0.00000E+00        -0.40855E+08
 
   -0.40658E+08         0.11732E+07         0.00000E+00
    0.11732E+07        -0.59294E+08         0.00000E+00
    0.00000E+00         0.00000E+00        -0.40923E+08
 
   -0.32081E+08        -0.32893E+05         0.00000E+00
   -0.32893E+05        -0.60004E+08         0.00000E+00
    0.00000E+00         0.00000E+00        -0.39286E+08
 
   -0.32931E+08        -0.83062E+05         0.00000E+00
   -0.83062E+05        -0.60017E+08         0.00000E+00
    0.00000E+00         0.00000E+00        -0.39454E+08
 
   -0.33704E+08        -0.11097E+06         0.00000E+00
   -0.11097E+06        -0.60040E+08         0.00000E+00
    0.00000E+00         0.00000E+00        -0.39605E+08
 
   -0.34410E+08        -0.11544E+06         0.00000E+00
   -0.11544E+06        -0.60067E+08         0.00000E+00
    0.00000E+00         0.00000E+00        -0.39741E+08
 
   -0.35060E+08        -0.95724E+05         0.00000E+00
   -0.95724E+05        -0.60094E+08         0.00000E+00
    0.00000E+00         0.00000E+00        -0.39863E+08
 
   -0.35662E+08        -0.51403E+05         0.00000E+00
   -0.51403E+05        -0.60117E+08         0.00000E+00
    0.00000E+00         0.00000E+00        -0.39974E+08
 
   -0.36227E+08         0.17639E+05         0.00000E+00
    0.17639E+05        -0.60130E+08         0.00000E+00
    0.00000E+00         0.00000E+00        -0.40075E+08
 
   -0.36763E+08         0.11129E+06         0.00000E+00
    0.11129E+06        -0.60129E+08         0.00000E+00
    0.00000E+00         0.00000E+00        -0.40166E+08
 
   -0.37279E+08         0.22923E+06         0.00000E+00
    0.22923E+06        -0.60110E+08         0.00000E+00
    0.00000E+00         0.00000E+00        -0.40251E+08
 
   -0.37784E+08         0.37104E+06         0.00000E+00
    0.37104E+06        -0.60068E+08         0.00000E+00
    0.00000E+00         0.00000E+00        -0.40330E+08
 
   -0.38286E+08         0.53617E+06         0.00000E+00
    0.53617E+06        -0.59998E+08         0.00000E+00
    0.00000E+00         0.00000E+00        -0.40404E+08
 
   -0.38794E+08         0.72407E+06         0.00000E+00
    0.72407E+06        -0.59897E+08         0.00000E+00
    0.00000E+00         0.00000E+00        -0.40474E+08
 
   -0.39313E+08         0.93414E+06         0.00000E+00
    0.93414E+06        -0.59761E+08         0.00000E+00
    0.00000E+00         0.00000E+00        -0.40542E+08
 
   -0.39853E+08         0.11659E+07         0.00000E+00
    0.11659E+07        -0.59585E+08         0.00000E+00
    0.00000E+00         0.00000E+00        -0.40609E+08
 
   -0.40418E+08         0.14188E+07         0.00000E+00
    0.14188E+07        -0.59367E+08         0.00000E+00
    0.00000E+00         0.00000E+00        -0.40675E+08
 
   -0.32149E+08        -0.40602E+05         0.00000E+00
   -0.40602E+05        -0.60004E+08         0.00000E+00
    0.00000E+00         0.00000E+00        -0.39038E+08
 
   -0.32975E+08        -0.10291E+06         0.00000E+00
   -0.10291E+06        -0.60019E+08         0.00000E+00
    0.00000E+00         0.00000E+00        -0.39202E+08
 
   -0.33723E+08        -0.13839E+06         0.00000E+00
   -0.13839E+06        -0.60044E+08         0.00000E+00
    0.00000E+00         0.00000E+00        -0.39349E+08
 
   -0.34403E+08        -0.14572E+06         0.00000E+00
   -0.14572E+06        -0.60075E+08         0.00000E+00
    0.00000E+00         0.00000E+00        -0.39481E+08
 
   -0.35026E+08        -0.12408E+06         0.00000E+00
   -0.12408E+06        -0.60107E+08         0.00000E+00
    0.00000E+00         0.00000E+00        -0.39599E+08
 
   -0.35601E+08        -0.73061E+05         0.00000E+00
   -0.73061E+05        -0.60135E+08         0.00000E+00
    0.00000E+00         0.00000E+00        -0.39706E+08
 
   -0.36138E+08         0.74096E+04         0.00000E+00
    0.74096E+04        -0.60154E+08         0.00000E+00
    0.00000E+00         0.00000E+00        -0.39802E+08
 
   -0.36648E+08         0.11712E+06         0.00000E+00
    0.11712E+06        -0.60159E+08         0.00000E+00
    0.00000E+00         0.00000E+00        -0.39891E+08
 
   -0.37138E+08         0.25566E+06         0.00000E+00
    0.25566E+06        -0.60147E+08         0.00000E+00
    0.00000E+00         0.00000E+00        -0.39972E+08
 
   -0.37617E+08         0.42244E+06         0.00000E+00
    0.42244E+06        -0.60112E+08         0.00000E+00
    0.00000E+00         0.00000E+00        -0.40047E+08
 
   -0.38094E+08         0.61679E+06         0.00000E+00
    0.61679E+06        -0.60050E+08         0.00000E+00
    0.00000E+00         0.00000E+00        -0.40118E+08
 
   -0.38577E+08         0.83797E+06         0.00000E+00
    0.83797E+06        -0.59957E+08         0.00000E+00
    0.00000E+00         0.00000E+00        -0.40186E+08
 
   -0.39073E+08         0.10853E+07         0.00000E+00
    0.10853E+07        -0.59829E+08         0.00000E+00
    0.00000E+00         0.00000E+00        -0.40251E+08
 
   -0.39589E+08         0.13580E+07         0.00000E+00
    0.13580E+07        -0.59662E+08         0.00000E+00
    0.00000E+00         0.00000E+00        -0.40314E+08
 
   -0.40131E+08         0.16555E+07         0.00000E+00
    0.16555E+07        -0.59452E+08         0.00000E+00
    0.00000E+00         0.00000E+00        -0.40378E+08
 
   -0.32232E+08        -0.49160E+05         0.00000E+00
   -0.49160E+05        -0.60005E+08         0.00000E+00
    0.00000E+00         0.00000E+00        -0.38752E+08
 
   -0.33029E+08        -0.12509E+06         0.00000E+00
   -0.12509E+06        -0.60021E+08         0.00000E+00
    0.00000E+00         0.00000E+00        -0.38911E+08
 
   -0.33747E+08        -0.16934E+06         0.00000E+00
   -0.16934E+06        -0.60049E+08         0.00000E+00
    0.00000E+00         0.00000E+00        -0.39053E+08
 
   -0.34397E+08        -0.18051E+06         0.00000E+00
   -0.18051E+06        -0.60085E+08         0.00000E+00
    0.00000E+00         0.00000E+00        -0.39179E+08
 
   -0.34988E+08        -0.15774E+06         0.00000E+00
   -0.15774E+06        -0.60122E+08         0.00000E+00
    0.00000E+00         0.00000E+00        -0.39293E+08
 
   -0.35531E+08        -0.10067E+06         0.00000E+00
   -0.10067E+06        -0.60155E+08         0.00000E+00
    0.00000E+00         0.00000E+00        -0.39395E+08
 
   -0.36037E+08        -0.93067E+04         0.00000E+00
   -0.93067E+04        -0.60181E+08         0.00000E+00
    0.00000E+00         0.00000E+00        -0.39487E+08
 
   -0.36514E+08         0.11601E+06         0.00000E+00
    0.11601E+06        -0.60194E+08         0.00000E+00
    0.00000E+00         0.00000E+00        -0.39571E+08
 
   -0.36974E+08         0.27471E+06         0.00000E+00
    0.27471E+06        -0.60189E+08         0.00000E+00
    0.00000E+00         0.00000E+00        -0.39648E+08
 
   -0.37423E+08         0.46607E+06         0.00000E+00
    0.46607E+06        -0.60162E+08         0.00000E+00
    0.00000E+00         0.00000E+00        -0.39720E+08
 
   -0.37871E+08         0.68921E+06         0.00000E+00
    0.68921E+06        -0.60108E+08         0.00000E+00
    0.00000E+00         0.00000E+00        -0.39787E+08
 
   -0.38325E+08         0.94324E+06         0.00000E+00
    0.94324E+06        -0.60024E+08         0.00000E+00
    0.00000E+00         0.00000E+00        -0.39851E+08
 
   -0.38794E+08         0.12272E+07         0.00000E+00
    0.12272E+07        -0.59906E+08         0.00000E+00
    0.00000E+00         0.00000E+00        -0.39913E+08
 
   -0.39282E+08         0.15403E+07         0.00000E+00
    0.15403E+07        -0.59749E+08         0.00000E+00
    0.00000E+00         0.00000E+00        -0.39973E+08
 
   -0.39798E+08         0.18818E+07         0.00000E+00
    0.18818E+07        -0.59550E+08         0.00000E+00
    0.00000E+00         0.00000E+00        -0.40034E+08
 
   -0.32332E+08        -0.58684E+05         0.00000E+00
   -0.58684E+05        -0.60005E+08         0.00000E+00
    0.00000E+00         0.00000E+00        -0.38429E+08
 
   -0.33096E+08        -0.14990E+06         0.00000E+00
   -0.14990E+06        -0.60023E+08         0.00000E+00
    0.00000E+00         0.00000E+00        -0.38581E+08
 
   -0.33779E+08        -0.20429E+06         0.00000E+00
   -0.20429E+06        -0.60055E+08         0.00000E+00
    0.00000E+00         0.00000E+00        -0.38717E+08
 
   -0.34392E+08        -0.22038E+06         0.00000E+00
   -0.22038E+06        -0.60095E+08         0.00000E+00
    0.00000E+00         0.00000E+00        -0.38838E+08
 
   -0.34946E+08        -0.19736E+06         0.00000E+00
   -0.19736E+06        -0.60138E+08         0.00000E+00
    0.00000E+00         0.00000E+00        -0.38945E+08
 
   -0.35453E+08        -0.13495E+06         0.00000E+00
   -0.13495E+06        -0.60179E+08         0.00000E+00
    0.00000E+00         0.00000E+00        -0.39042E+08
 
   -0.35922E+08        -0.33309E+05         0.00000E+00
   -0.33309E+05        -0.60212E+08         0.00000E+00
    0.00000E+00         0.00000E+00        -0.39129E+08
 
   -0.36364E+08         0.10708E+06         0.00000E+00
    0.10708E+06        -0.60232E+08         0.00000E+00
    0.00000E+00         0.00000E+00        -0.39208E+08
 
   -0.36787E+08         0.28547E+06         0.00000E+00
    0.28547E+06        -0.60236E+08         0.00000E+00
    0.00000E+00         0.00000E+00        -0.39281E+08
 
   -0.37202E+08         0.50093E+06         0.00000E+00
    0.50093E+06        -0.60218E+08         0.00000E+00
    0.00000E+00         0.00000E+00        -0.39348E+08
 
   -0.37617E+08         0.75239E+06         0.00000E+00
    0.75239E+06        -0.60174E+08         0.00000E+00
    0.00000E+00         0.00000E+00        -0.39411E+08
 
   -0.38039E+08         0.10387E+07         0.00000E+00
    0.10387E+07        -0.60100E+08         0.00000E+00
    0.00000E+00         0.00000E+00        -0.39471E+08
 
   -0.38476E+08         0.13589E+07         0.00000E+00
    0.13589E+07        -0.59992E+08         0.00000E+00
    0.00000E+00         0.00000E+00        -0.39529E+08
 
   -0.38934E+08         0.17117E+07         0.00000E+00
    0.17117E+07        -0.59846E+08         0.00000E+00
    0.00000E+00         0.00000E+00        -0.39586E+08
 
   -0.39421E+08         0.20963E+07         0.00000E+00
    0.20963E+07        -0.59659E+08         0.00000E+00
    0.00000E+00         0.00000E+00        -0.39643E+08
 
   -0.32451E+08        -0.69284E+05         0.00000E+00
   -0.69284E+05        -0.60005E+08         0.00000E+00
    0.00000E+00         0.00000E+00        -0.38069E+08
 
   -0.33176E+08        -0.17764E+06         0.00000E+00
   -0.17764E+06        -0.60026E+08         0.00000E+00
    0.00000E+00         0.00000E+00        -0.38214E+08
 
   -0.33819E+08        -0.24363E+06         0.00000E+00
   -0.24363E+06        -0.60062E+08         0.00000E+00
    0.00000E+00         0.00000E+00        -0.38343E+08
 
   -0.34390E+08        -0.26583E+06         0.00000E+00
   -0.26583E+06        -0.60107E+08         0.00000E+00
    0.00000E+00         0.00000E+00        -0.38457E+08
 
   -0.34903E+08        -0.24352E+06         0.00000E+00
   -0.24352E+06        -0.60156E+08         0.00000E+00
    0.00000E+00         0.00000E+00        -0.38558E+08
 
   -0.35367E+08        -0.17656E+06         0.00000E+00
   -0.17656E+06        -0.60204E+08         0.00000E+00
    0.00000E+00         0.00000E+00        -0.38649E+08
 
   -0.35795E+08        -0.65290E+05         0.00000E+00
   -0.65290E+05        -0.60245E+08         0.00000E+00
    0.00000E+00         0.00000E+00        -0.38730E+08
 
   -0.36196E+08         0.89591E+05         0.00000E+00
    0.89591E+05        -0.60274E+08         0.00000E+00
    0.00000E+00         0.00000E+00        -0.38803E+08
 
   -0.36580E+08         0.28712E+06         0.00000E+00
    0.28712E+06        -0.60287E+08         0.00000E+00
    0.00000E+00         0.00000E+00        -0.38870E+08
 
   -0.36956E+08         0.52613E+06         0.00000E+00
    0.52613E+06        -0.60278E+08         0.00000E+00
    0.00000E+00         0.00000E+00        -0.38932E+08
 
   -0.37333E+08         0.80535E+06         0.00000E+00
    0.80535E+06        -0.60245E+08         0.00000E+00
    0.00000E+00         0.00000E+00        -0.38990E+08
 
   -0.37719E+08         0.11234E+07         0.00000E+00
    0.11234E+07        -0.60181E+08         0.00000E+00
    0.00000E+00         0.00000E+00        -0.39046E+08
 
   -0.38121E+08         0.14790E+07         0.00000E+00
    0.14790E+07        -0.60085E+08         0.00000E+00
    0.00000E+00         0.00000E+00        -0.39100E+08
 
   -0.38545E+08         0.18709E+07         0.00000E+00
    0.18709E+07        -0.59952E+08         0.00000E+00
    0.00000E+00         0.00000E+00        -0.39153E+08
 
   -0.38998E+08         0.22977E+07         0.00000E+00
    0.22977E+07        -0.59779E+08         0.00000E+00
    0.00000E+00         0.00000E+00        -0.39206E+08
 
   -0.32590E+08        -0.81057E+05         0.00000E+00
   -0.81057E+05        -0.60006E+08         0.00000E+00
    0.00000E+00         0.00000E+00        -0.37675E+08
 
   -0.33272E+08        -0.20853E+06         0.00000E+00
   -0.20853E+06        -0.60029E+08         0.00000E+00
    0.00000E+00         0.00000E+00        -0.37812E+08
 
   -0.33868E+08        -0.28772E+06         0.00000E+00
   -0.28772E+06        -0.60068E+08         0.00000E+00
    0.00000E+00         0.00000E+00        -0.37933E+08
 
   -0.34392E+08        -0.31729E+06         0.00000E+00
   -0.31729E+06        -0.60119E+08         0.00000E+00
    0.00000E+00         0.00000E+00        -0.38039E+08
 
   -0.34857E+08        -0.29669E+06         0.00000E+00
   -0.29669E+06        -0.60175E+08         0.00000E+00
    0.00000E+00         0.00000E+00        -0.38133E+08
 
   -0.35275E+08        -0.22600E+06         0.00000E+00
   -0.22600E+06        -0.60230E+08         0.00000E+00
    0.00000E+00         0.00000E+00        -0.38216E+08
 
   -0.35656E+08        -0.10581E+06         0.00000E+00
   -0.10581E+06        -0.60280E+08         0.00000E+00
    0.00000E+00         0.00000E+00        -0.38290E+08
 
   -0.36011E+08         0.62919E+05         0.00000E+00
    0.62919E+05        -0.60318E+08         0.00000E+00
    0.00000E+00         0.00000E+00        -0.38357E+08
 
   -0.36351E+08         0.27896E+06         0.00000E+00
    0.27896E+06        -0.60341E+08         0.00000E+00
    0.00000E+00         0.00000E+00        -0.38418E+08
 
   -0.36684E+08         0.54090E+06         0.00000E+00
    0.54090E+06        -0.60343E+08         0.00000E+00
    0.00000E+00         0.00000E+00        -0.38475E+08
 
   -0.37020E+08         0.84723E+06         0.00000E+00
    0.84723E+06        -0.60320E+08         0.00000E+00
    0.00000E+00         0.00000E+00        -0.38528E+08
 
   -0.37365E+08         0.11963E+07         0.00000E+00
    0.11963E+07        -0.60269E+08         0.00000E+00
    0.00000E+00         0.00000E+00        -0.38578E+08
 
   -0.37729E+08         0.15867E+07         0.00000E+00
    0.15867E+07        -0.60185E+08         0.00000E+00
    0.00000E+00         0.00000E+00        -0.38627E+08
 
   -0.38116E+08         0.20166E+07         0.00000E+00
    0.20166E+07        -0.60065E+08         0.00000E+00
    0.00000E+00         0.00000E+00        -0.38676E+08
 
   -0.38533E+08         0.24847E+07         0.00000E+00
    0.24847E+07        -0.59906E+08         0.00000E+00
    0.00000E+00         0.00000E+00        -0.38725E+08
 
   -0.32753E+08        -0.94082E+05         0.00000E+00
   -0.94082E+05        -0.60007E+08         0.00000E+00
    0.00000E+00         0.00000E+00        -0.37247E+08
 
   -0.33384E+08        -0.24278E+06         0.00000E+00
   -0.24278E+06        -0.60032E+08         0.00000E+00
    0.00000E+00         0.00000E+00        -0.37375E+08
 
   -0.33928E+08        -0.33682E+06         0.00000E+00
   -0.33682E+06        -0.60076E+08         0.00000E+00
    0.00000E+00         0.00000E+00        -0.37487E+08
 
   -0.34400E+08        -0.37505E+06         0.00000E+00
   -0.37505E+06        -0.60132E+08         0.00000E+00
    0.00000E+00         0.00000E+00        -0.37584E+08
 
   -0.34812E+08        -0.35718E+06         0.00000E+00
   -0.35718E+06        -0.60195E+08         0.00000E+00
    0.00000E+00         0.00000E+00        -0.37670E+08
 
   -0.35176E+08        -0.28361E+06         0.00000E+00
   -0.28361E+06        -0.60258E+08         0.00000E+00
    0.00000E+00         0.00000E+00        -0.37745E+08
 
   -0.35506E+08        -0.15525E+06         0.00000E+00
   -0.15525E+06        -0.60316E+08         0.00000E+00
    0.00000E+00         0.00000E+00        -0.37812E+08
 
   -0.35811E+08         0.26621E+05         0.00000E+00
    0.26621E+05        -0.60364E+08         0.00000E+00
    0.00000E+00         0.00000E+00        -0.37872E+08
 
   -0.36102E+08         0.26048E+06         0.00000E+00
    0.26048E+06        -0.60396E+08         0.00000E+00
    0.00000E+00         0.00000E+00        -0.37926E+08
 
   -0.36388E+08         0.54464E+06         0.00000E+00
    0.54464E+06        -0.60409E+08         0.00000E+00
    0.00000E+00         0.00000E+00        -0.37976E+08
 
   -0.36678E+08         0.87730E+06         0.00000E+00
    0.87730E+06        -0.60399E+08         0.00000E+00
    0.00000E+00         0.00000E+00        -0.38023E+08
 
   -0.36979E+08         0.12566E+07         0.00000E+00
    0.12566E+07        -0.60360E+08         0.00000E+00
    0.00000E+00         0.00000E+00        -0.38068E+08
 
   -0.37300E+08         0.16808E+07         0.00000E+00
    0.16808E+07        -0.60290E+08         0.00000E+00
    0.00000E+00         0.00000E+00        -0.38112E+08
 
   -0.37647E+08         0.21479E+07         0.00000E+00
    0.21479E+07        -0.60184E+08         0.00000E+00
    0.00000E+00         0.00000E+00        -0.38156E+08
 
   -0.38026E+08         0.26562E+07         0.00000E+00
    0.26562E+07        -0.60041E+08         0.00000E+00
    0.00000E+00         0.00000E+00        -0.38201E+08
 
   -0.32942E+08        -0.10842E+06         0.00000E+00
   -0.10842E+06        -0.60007E+08         0.00000E+00
    0.00000E+00         0.00000E+00        -0.36789E+08
 
   -0.33516E+08        -0.28053E+06         0.00000E+00
   -0.28053E+06        -0.60035E+08         0.00000E+00
    0.00000E+00         0.00000E+00        -0.36906E+08
 
   -0.34001E+08        -0.39109E+06         0.00000E+00
   -0.39109E+06        -0.60083E+08         0.00000E+00
    0.00000E+00         0.00000E+00        -0.37008E+08
 
   -0.34413E+08        -0.43926E+06         0.00000E+00
   -0.43926E+06        -0.60145E+08         0.00000E+00
    0.00000E+00         0.00000E+00        -0.37095E+08
 
   -0.34766E+08        -0.42515E+06         0.00000E+00
   -0.42515E+06        -0.60215E+08         0.00000E+00
    0.00000E+00         0.00000E+00        -0.37171E+08
 
   -0.35073E+08        -0.34955E+06         0.00000E+00
   -0.34955E+06        -0.60286E+08         0.00000E+00
    0.00000E+00         0.00000E+00        -0.37237E+08
 
   -0.35346E+08        -0.21379E+06         0.00000E+00
   -0.21379E+06        -0.60353E+08         0.00000E+00
    0.00000E+00         0.00000E+00        -0.37296E+08
 
   -0.35595E+08        -0.19532E+05         0.00000E+00
   -0.19532E+05        -0.60410E+08         0.00000E+00
    0.00000E+00         0.00000E+00        -0.37348E+08
 
   -0.35833E+08         0.23136E+06         0.00000E+00
    0.23136E+06        -0.60453E+08         0.00000E+00
    0.00000E+00         0.00000E+00        -0.37394E+08
 
   -0.36067E+08         0.53688E+06         0.00000E+00
    0.53688E+06        -0.60477E+08         0.00000E+00
    0.00000E+00         0.00000E+00        -0.37438E+08
 
   -0.36308E+08         0.89499E+06         0.00000E+00
    0.89499E+06        -0.60478E+08         0.00000E+00
    0.00000E+00         0.00000E+00        -0.37478E+08
 
   -0.36562E+08         0.13036E+07         0.00000E+00
    0.13036E+07        -0.60453E+08         0.00000E+00
    0.00000E+00         0.00000E+00        -0.37517E+08
 
   -0.36837E+08         0.17606E+07         0.00000E+00
    0.17606E+07        -0.60397E+08         0.00000E+00
    0.00000E+00         0.00000E+00        -0.37556E+08
 
   -0.37140E+08         0.22638E+07         0.00000E+00
    0.22638E+07        -0.60307E+08         0.00000E+00
    0.00000E+00         0.00000E+00        -0.37594E+08
 
   -0.37477E+08         0.28112E+07         0.00000E+00
    0.28112E+07        -0.60180E+08         0.00000E+00
    0.00000E+00         0.00000E+00        -0.37634E+08
 
   -0.33159E+08        -0.12411E+06         0.00000E+00
   -0.12411E+06        -0.60008E+08         0.00000E+00
    0.00000E+00         0.00000E+00        -0.36302E+08
 
   -0.33668E+08        -0.32181E+06         0.00000E+00
   -0.32181E+06        -0.60038E+08         0.00000E+00
    0.00000E+00         0.00000E+00        -0.36407E+08
 
   -0.34088E+08        -0.45053E+06         0.00000E+00
   -0.45053E+06        -0.60090E+08         0.00000E+00
    0.00000E+00         0.00000E+00        -0.36497E+08
 
   -0.34434E+08        -0.50989E+06         0.00000E+00
   -0.50989E+06        -0.60158E+08         0.00000E+00
    0.00000E+00         0.00000E+00        -0.36573E+08
 
   -0.34722E+08        -0.50050E+06         0.00000E+00
   -0.50050E+06        -0.60235E+08         0.00000E+00
    0.00000E+00         0.00000E+00        -0.36638E+08
 
   -0.34965E+08        -0.42370E+06         0.00000E+00
   -0.42370E+06        -0.60314E+08         0.00000E+00
    0.00000E+00         0.00000E+00        -0.36695E+08
 
   -0.35176E+08        -0.28133E+06         0.00000E+00
   -0.28133E+06        -0.60389E+08         0.00000E+00
    0.00000E+00         0.00000E+00        -0.36744E+08
 
   -0.35366E+08        -0.75504E+05         0.00000E+00
   -0.75504E+05        -0.60455E+08         0.00000E+00
    0.00000E+00         0.00000E+00        -0.36787E+08
 
   -0.35545E+08         0.19152E+06         0.00000E+00
    0.19152E+06        -0.60508E+08         0.00000E+00
    0.00000E+00         0.00000E+00        -0.36825E+08
 
   -0.35724E+08         0.51742E+06         0.00000E+00
    0.51742E+06        -0.60544E+08         0.00000E+00
    0.00000E+00         0.00000E+00        -0.36861E+08
 
   -0.35911E+08         0.89988E+06         0.00000E+00
    0.89988E+06        -0.60557E+08         0.00000E+00
    0.00000E+00         0.00000E+00        -0.36894E+08
 
   -0.36114E+08         0.13366E+07         0.00000E+00
    0.13366E+07        -0.60545E+08         0.00000E+00
    0.00000E+00         0.00000E+00        -0.36926E+08
 
   -0.36340E+08         0.18252E+07         0.00000E+00
    0.18252E+07        -0.60504E+08         0.00000E+00
    0.00000E+00         0.00000E+00        -0.36959E+08
 
   -0.36597E+08         0.23633E+07         0.00000E+00
    0.23633E+07        -0.60430E+08         0.00000E+00
    0.00000E+00         0.00000E+00        -0.36992E+08
 
   -0.36889E+08         0.29485E+07         0.00000E+00
    0.29485E+07        -0.60321E+08         0.00000E+00
    0.00000E+00         0.00000E+00        -0.37027E+08
 
   -0.33406E+08        -0.14114E+06         0.00000E+00
   -0.14114E+06        -0.60008E+08         0.00000E+00
    0.00000E+00         0.00000E+00        -0.35788E+08
 
   -0.33843E+08        -0.36659E+06         0.00000E+00
   -0.36659E+06        -0.60041E+08         0.00000E+00
    0.00000E+00         0.00000E+00        -0.35879E+08
 
   -0.34190E+08        -0.51501E+06         0.00000E+00
   -0.51501E+06        -0.60098E+08         0.00000E+00
    0.00000E+00         0.00000E+00        -0.35956E+08
 
   -0.34463E+08        -0.58666E+06         0.00000E+00
   -0.58666E+06        -0.60171E+08         0.00000E+00
    0.00000E+00         0.00000E+00        -0.36020E+08
 
   -0.34680E+08        -0.58286E+06         0.00000E+00
   -0.58286E+06        -0.60254E+08         0.00000E+00
    0.00000E+00         0.00000E+00        -0.36073E+08
 
   -0.34854E+08        -0.50563E+06         0.00000E+00
   -0.50563E+06        -0.60340E+08         0.00000E+00
    0.00000E+00         0.00000E+00        -0.36119E+08
 
   -0.34997E+08        -0.35743E+06         0.00000E+00
   -0.35743E+06        -0.60423E+08         0.00000E+00
    0.00000E+00         0.00000E+00        -0.36157E+08
 
   -0.35122E+08        -0.14093E+06         0.00000E+00
   -0.14093E+06        -0.60498E+08         0.00000E+00
    0.00000E+00         0.00000E+00        -0.36190E+08
 
   -0.35240E+08         0.14118E+06         0.00000E+00
    0.14118E+06        -0.60560E+08         0.00000E+00
    0.00000E+00         0.00000E+00        -0.36220E+08
 
   -0.35359E+08         0.48626E+06         0.00000E+00
    0.48626E+06        -0.60607E+08         0.00000E+00
    0.00000E+00         0.00000E+00        -0.36247E+08
 
   -0.35488E+08         0.89176E+06         0.00000E+00
    0.89176E+06        -0.60633E+08         0.00000E+00
    0.00000E+00         0.00000E+00        -0.36272E+08
 
   -0.35636E+08         0.13552E+07         0.00000E+00
    0.13552E+07        -0.60634E+08         0.00000E+00
    0.00000E+00         0.00000E+00        -0.36298E+08
 
   -0.35810E+08         0.18740E+07         0.00000E+00
    0.18740E+07        -0.60608E+08         0.00000E+00
    0.00000E+00         0.00000E+00        -0.36323E+08
 
   -0.36017E+08         0.24457E+07         0.00000E+00
    0.24457E+07        -0.60551E+08         0.00000E+00
    0.00000E+00         0.00000E+00        -0.36351E+08
 
   -0.36262E+08         0.30673E+07         0.00000E+00
    0.30673E+07        -0.60460E+08         0.00000E+00
    0.00000E+00         0.00000E+00        -0.36380E+08
 
   -0.33687E+08        -0.15948E+06         0.00000E+00
   -0.15948E+06        -0.60009E+08         0.00000E+00
    0.00000E+00         0.00000E+00        -0.35249E+08
 
   -0.34043E+08        -0.41467E+06         0.00000E+00
   -0.41467E+06        -0.60043E+08         0.00000E+00
    0.00000E+00         0.00000E+00        -0.35325E+08
 
   -0.34308E+08        -0.58414E+06         0.00000E+00
   -0.58414E+06        -0.60104E+08         0.00000E+00
    0.00000E+00         0.00000E+00        -0.35387E+08
 
   -0.34502E+08        -0.66902E+06         0.00000E+00
   -0.66902E+06        -0.60182E+08         0.00000E+00
    0.00000E+00         0.00000E+00        -0.35437E+08
 
   -0.34641E+08        -0.67150E+06         0.00000E+00
   -0.67150E+06        -0.60271E+08         0.00000E+00
    0.00000E+00         0.00000E+00        -0.35478E+08
 
   -0.34739E+08        -0.59449E+06         0.00000E+00
   -0.59449E+06        -0.60362E+08         0.00000E+00
    0.00000E+00         0.00000E+00        -0.35511E+08
 
   -0.34811E+08        -0.44123E+06         0.00000E+00
   -0.44123E+06        -0.60452E+08         0.00000E+00
    0.00000E+00         0.00000E+00        -0.35538E+08
 
   -0.34867E+08        -0.21503E+06         0.00000E+00
   -0.21503E+06        -0.60535E+08         0.00000E+00
    0.00000E+00         0.00000E+00        -0.35560E+08
 
   -0.34918E+08         0.80940E+05         0.00000E+00
    0.80940E+05        -0.60606E+08         0.00000E+00
    0.00000E+00         0.00000E+00        -0.35580E+08
 
   -0.34973E+08         0.44374E+06         0.00000E+00
    0.44374E+06        -0.60663E+08         0.00000E+00
    0.00000E+00         0.00000E+00        -0.35597E+08
 
   -0.35042E+08         0.87066E+06         0.00000E+00
    0.87066E+06        -0.60701E+08         0.00000E+00
    0.00000E+00         0.00000E+00        -0.35614E+08
 
   -0.35132E+08         0.13591E+07         0.00000E+00
    0.13591E+07        -0.60716E+08         0.00000E+00
    0.00000E+00         0.00000E+00        -0.35632E+08
 
   -0.35250E+08         0.19065E+07         0.00000E+00
    0.19065E+07        -0.60706E+08         0.00000E+00
    0.00000E+00         0.00000E+00        -0.35651E+08
 
   -0.35403E+08         0.25100E+07         0.00000E+00
    0.25100E+07        -0.60667E+08         0.00000E+00
    0.00000E+00         0.00000E+00        -0.35671E+08
 
   -0.35599E+08         0.31666E+07         0.00000E+00
    0.31666E+07        -0.60595E+08         0.00000E+00
    0.00000E+00         0.00000E+00        -0.35695E+08
 
   -0.34003E+08        -0.17904E+06         0.00000E+00
   -0.17904E+06        -0.60009E+08         0.00000E+00
    0.00000E+00         0.00000E+00        -0.34689E+08
 
   -0.34268E+08        -0.46573E+06         0.00000E+00
   -0.46573E+06        -0.60046E+08         0.00000E+00
    0.00000E+00         0.00000E+00        -0.34747E+08
 
   -0.34444E+08        -0.65731E+06         0.00000E+00
   -0.65731E+06        -0.60110E+08         0.00000E+00
    0.00000E+00         0.00000E+00        -0.34793E+08
 
   -0.34550E+08        -0.75602E+06         0.00000E+00
   -0.75602E+06        -0.60192E+08         0.00000E+00
    0.00000E+00         0.00000E+00        -0.34828E+08
 
   -0.34605E+08        -0.76523E+06         0.00000E+00
   -0.76523E+06        -0.60284E+08         0.00000E+00
    0.00000E+00         0.00000E+00        -0.34854E+08
 
   -0.34623E+08        -0.68894E+06         0.00000E+00
   -0.68894E+06        -0.60381E+08         0.00000E+00
    0.00000E+00         0.00000E+00        -0.34873E+08
 
   -0.34617E+08        -0.53137E+06         0.00000E+00
   -0.53137E+06        -0.60475E+08         0.00000E+00
    0.00000E+00         0.00000E+00        -0.34887E+08
 
   -0.34600E+08        -0.29655E+06         0.00000E+00
   -0.29655E+06        -0.60564E+08         0.00000E+00
    0.00000E+00         0.00000E+00        -0.34898E+08
 
   -0.34581E+08         0.11830E+05         0.00000E+00
    0.11830E+05        -0.60643E+08         0.00000E+00
    0.00000E+00         0.00000E+00        -0.34906E+08
 
   -0.34569E+08         0.39055E+06         0.00000E+00
    0.39055E+06        -0.60709E+08         0.00000E+00
    0.00000E+00         0.00000E+00        -0.34914E+08
 
   -0.34573E+08         0.83683E+06         0.00000E+00
    0.83683E+06        -0.60758E+08         0.00000E+00
    0.00000E+00         0.00000E+00        -0.34922E+08
 
   -0.34601E+08         0.13481E+07         0.00000E+00
    0.13481E+07        -0.60787E+08         0.00000E+00
    0.00000E+00         0.00000E+00        -0.34931E+08
 
   -0.34660E+08         0.19219E+07         0.00000E+00
    0.19219E+07        -0.60793E+08         0.00000E+00
    0.00000E+00         0.00000E+00        -0.34942E+08
 
   -0.34757E+08         0.25554E+07         0.00000E+00
    0.25554E+07        -0.60772E+08         0.00000E+00
    0.00000E+00         0.00000E+00        -0.34956E+08
 
   -0.34899E+08         0.32453E+07         0.00000E+00
    0.32453E+07        -0.60720E+08         0.00000E+00
    0.00000E+00         0.00000E+00        -0.34973E+08
 
   -0.34357E+08        -0.19967E+06         0.00000E+00
   -0.19967E+06        -0.60010E+08         0.00000E+00
    0.00000E+00         0.00000E+00        -0.34109E+08
 
   -0.34521E+08        -0.51926E+06         0.00000E+00
   -0.51926E+06        -0.60048E+08         0.00000E+00
    0.00000E+00         0.00000E+00        -0.34148E+08
 
   -0.34598E+08        -0.73357E+06         0.00000E+00
   -0.73357E+06        -0.60114E+08         0.00000E+00
    0.00000E+00         0.00000E+00        -0.34175E+08
 
   -0.34609E+08        -0.84631E+06         0.00000E+00
   -0.84631E+06        -0.60199E+08         0.00000E+00
    0.00000E+00         0.00000E+00        -0.34193E+08
 
   -0.34573E+08        -0.86233E+06         0.00000E+00
   -0.86233E+06        -0.60293E+08         0.00000E+00
    0.00000E+00         0.00000E+00        -0.34203E+08
 
   -0.34504E+08        -0.78704E+06         0.00000E+00
   -0.78704E+06        -0.60392E+08         0.00000E+00
    0.00000E+00         0.00000E+00        -0.34207E+08
 
   -0.34418E+08        -0.62581E+06         0.00000E+00
   -0.62581E+06        -0.60489E+08         0.00000E+00
    0.00000E+00         0.00000E+00        -0.34207E+08
 
   -0.34323E+08        -0.38359E+06         0.00000E+00
   -0.38359E+06        -0.60582E+08         0.00000E+00
    0.00000E+00         0.00000E+00        -0.34205E+08
 
   -0.34231E+08        -0.64582E+05         0.00000E+00
   -0.64582E+05        -0.60666E+08         0.00000E+00
    0.00000E+00         0.00000E+00        -0.34202E+08
 
   -0.34149E+08         0.32780E+06         0.00000E+00
    0.32780E+06        -0.60739E+08         0.00000E+00
    0.00000E+00         0.00000E+00        -0.34198E+08
 
   -0.34085E+08         0.79084E+06         0.00000E+00
    0.79084E+06        -0.60799E+08         0.00000E+00
    0.00000E+00         0.00000E+00        -0.34196E+08
 
   -0.34047E+08         0.13223E+07         0.00000E+00
    0.13223E+07        -0.60841E+08         0.00000E+00
    0.00000E+00         0.00000E+00        -0.34196E+08
 
   -0.34043E+08         0.19199E+07         0.00000E+00
    0.19199E+07        -0.60864E+08         0.00000E+00
    0.00000E+00         0.00000E+00        -0.34199E+08
 
   -0.34080E+08         0.25810E+07         0.00000E+00
    0.25810E+07        -0.60862E+08         0.00000E+00
    0.00000E+00         0.00000E+00        -0.34205E+08
 
   -0.34166E+08         0.33025E+07         0.00000E+00
    0.33025E+07        -0.60831E+08         0.00000E+00
    0.00000E+00         0.00000E+00        -0.34215E+08
 
   -0.34750E+08        -0.22117E+06         0.00000E+00
   -0.22117E+06        -0.60010E+08         0.00000E+00
    0.00000E+00         0.00000E+00        -0.33512E+08
 
   -0.34802E+08        -0.57452E+06         0.00000E+00
   -0.57452E+06        -0.60049E+08         0.00000E+00
    0.00000E+00         0.00000E+00        -0.33530E+08
 
   -0.34770E+08        -0.81160E+06         0.00000E+00
   -0.81160E+06        -0.60117E+08         0.00000E+00
    0.00000E+00         0.00000E+00        -0.33537E+08
 
   -0.34678E+08        -0.93797E+06         0.00000E+00
   -0.93797E+06        -0.60202E+08         0.00000E+00
    0.00000E+00         0.00000E+00        -0.33535E+08
 
   -0.34544E+08        -0.96039E+06         0.00000E+00
   -0.96039E+06        -0.60296E+08         0.00000E+00
    0.00000E+00         0.00000E+00        -0.33527E+08
 
   -0.34385E+08        -0.88605E+06         0.00000E+00
   -0.88605E+06        -0.60394E+08         0.00000E+00
    0.00000E+00         0.00000E+00        -0.33515E+08
 
   -0.34213E+08        -0.72178E+06         0.00000E+00
   -0.72178E+06        -0.60491E+08         0.00000E+00
    0.00000E+00         0.00000E+00        -0.33500E+08
 
   -0.34039E+08        -0.47354E+06         0.00000E+00
   -0.47354E+06        -0.60584E+08         0.00000E+00
    0.00000E+00         0.00000E+00        -0.33483E+08
 
   -0.33870E+08        -0.14609E+06         0.00000E+00
   -0.14609E+06        -0.60671E+08         0.00000E+00
    0.00000E+00         0.00000E+00        -0.33467E+08
 
   -0.33715E+08         0.25708E+06         0.00000E+00
    0.25708E+06        -0.60749E+08         0.00000E+00
    0.00000E+00         0.00000E+00        -0.33452E+08
 
   -0.33580E+08         0.73354E+06         0.00000E+00
    0.73354E+06        -0.60817E+08         0.00000E+00
    0.00000E+00         0.00000E+00        -0.33439E+08
 
   -0.33473E+08         0.12816E+07         0.00000E+00
    0.12816E+07        -0.60873E+08         0.00000E+00
    0.00000E+00         0.00000E+00        -0.33429E+08
 
   -0.33402E+08         0.18997E+07         0.00000E+00
    0.18997E+07        -0.60912E+08         0.00000E+00
    0.00000E+00         0.00000E+00        -0.33422E+08
 
   -0.33374E+08         0.25857E+07         0.00000E+00
    0.25857E+07        -0.60930E+08         0.00000E+00
    0.00000E+00         0.00000E+00        -0.33420E+08
 
   -0.33400E+08         0.33366E+07         0.00000E+00
    0.33366E+07        -0.60922E+08         0.00000E+00
    0.00000E+00         0.00000E+00        -0.33424E+08
 
   -0.35184E+08        -0.24324E+06         0.00000E+00
   -0.24324E+06        -0.60010E+08         0.00000E+00
    0.00000E+00         0.00000E+00        -0.32902E+08
 
   -0.35110E+08        -0.63052E+06         0.00000E+00
   -0.63052E+06        -0.60050E+08         0.00000E+00
    0.00000E+00         0.00000E+00        -0.32895E+08
 
   -0.34959E+08        -0.88959E+06         0.00000E+00
   -0.88959E+06        -0.60117E+08         0.00000E+00
    0.00000E+00         0.00000E+00        -0.32879E+08
 
   -0.34755E+08        -0.10284E+07         0.00000E+00
   -0.10284E+07        -0.60200E+08         0.00000E+00
    0.00000E+00         0.00000E+00        -0.32856E+08
 
   -0.34519E+08        -0.10562E+07         0.00000E+00
   -0.10562E+07        -0.60291E+08         0.00000E+00
    0.00000E+00         0.00000E+00        -0.32828E+08
 
   -0.34264E+08        -0.98234E+06         0.00000E+00
   -0.98234E+06        -0.60384E+08         0.00000E+00
    0.00000E+00         0.00000E+00        -0.32798E+08
 
   -0.34004E+08        -0.81554E+06         0.00000E+00
   -0.81554E+06        -0.60476E+08         0.00000E+00
    0.00000E+00         0.00000E+00        -0.32766E+08
 
   -0.33748E+08        -0.56292E+06         0.00000E+00
   -0.56292E+06        -0.60565E+08         0.00000E+00
    0.00000E+00         0.00000E+00        -0.32735E+08
 
   -0.33501E+08        -0.22975E+06         0.00000E+00
   -0.22975E+06        -0.60651E+08         0.00000E+00
    0.00000E+00         0.00000E+00        -0.32705E+08
 
   -0.33270E+08         0.18054E+06         0.00000E+00
    0.18054E+06        -0.60732E+08         0.00000E+00
    0.00000E+00         0.00000E+00        -0.32677E+08
 
   -0.33062E+08         0.66615E+06         0.00000E+00
    0.66615E+06        -0.60807E+08         0.00000E+00
    0.00000E+00         0.00000E+00        -0.32652E+08
 
   -0.32882E+08         0.12263E+07         0.00000E+00
    0.12263E+07        -0.60874E+08         0.00000E+00
    0.00000E+00         0.00000E+00        -0.32631E+08
 
   -0.32740E+08         0.18606E+07         0.00000E+00
    0.18606E+07        -0.60930E+08         0.00000E+00
    0.00000E+00         0.00000E+00        -0.32614E+08
 
   -0.32643E+08         0.25680E+07         0.00000E+00
    0.25680E+07        -0.60969E+08         0.00000E+00
    0.00000E+00         0.00000E+00        -0.32604E+08
 
   -0.32603E+08         0.33459E+07         0.00000E+00
    0.33459E+07        -0.60986E+08         0.00000E+00
    0.00000E+00         0.00000E+00        -0.32599E+08
 
   -0.35658E+08        -0.26553E+06         0.00000E+00
   -0.26553E+06        -0.60010E+08         0.00000E+00
    0.00000E+00         0.00000E+00        -0.32280E+08
 
   -0.35446E+08        -0.68599E+06         0.00000E+00
   -0.68599E+06        -0.60049E+08         0.00000E+00
    0.00000E+00         0.00000E+00        -0.32247E+08
 
   -0.35164E+08        -0.96517E+06         0.00000E+00
   -0.96517E+06        -0.60113E+08         0.00000E+00
    0.00000E+00         0.00000E+00        -0.32205E+08
 
   -0.34841E+08        -0.11141E+07         0.00000E+00
   -0.11141E+07        -0.60191E+08         0.00000E+00
    0.00000E+00         0.00000E+00        -0.32158E+08
 
   -0.34495E+08        -0.11454E+07         0.00000E+00
   -0.11454E+07        -0.60274E+08         0.00000E+00
    0.00000E+00         0.00000E+00        -0.32109E+08
 
   -0.34142E+08        -0.10711E+07         0.00000E+00
   -0.10711E+07        -0.60358E+08         0.00000E+00
    0.00000E+00         0.00000E+00        -0.32059E+08
 
   -0.33793E+08        -0.90224E+06         0.00000E+00
   -0.90224E+06        -0.60439E+08         0.00000E+00
    0.00000E+00         0.00000E+00        -0.32009E+08
 
   -0.33453E+08        -0.64719E+06         0.00000E+00
   -0.64719E+06        -0.60520E+08         0.00000E+00
    0.00000E+00         0.00000E+00        -0.31961E+08
 
   -0.33128E+08        -0.31175E+06         0.00000E+00
   -0.31175E+06        -0.60599E+08         0.00000E+00
    0.00000E+00         0.00000E+00        -0.31916E+08
 
   -0.32821E+08         0.10099E+06         0.00000E+00
    0.10099E+06        -0.60679E+08         0.00000E+00
    0.00000E+00         0.00000E+00        -0.31874E+08
 
   -0.32536E+08         0.59022E+06         0.00000E+00
    0.59022E+06        -0.60759E+08         0.00000E+00
    0.00000E+00         0.00000E+00        -0.31836E+08
 
   -0.32281E+08         0.11567E+07         0.00000E+00
    0.11567E+07        -0.60837E+08         0.00000E+00
    0.00000E+00         0.00000E+00        -0.31803E+08
 
   -0.32062E+08         0.18017E+07         0.00000E+00
    0.18017E+07        -0.60910E+08         0.00000E+00
    0.00000E+00         0.00000E+00        -0.31776E+08
 
   -0.31890E+08         0.25260E+07         0.00000E+00
    0.25260E+07        -0.60972E+08         0.00000E+00
    0.00000E+00         0.00000E+00        -0.31756E+08
 
   -0.31778E+08         0.33280E+07         0.00000E+00
    0.33280E+07        -0.61017E+08         0.00000E+00
    0.00000E+00         0.00000E+00        -0.31743E+08
 
   -0.36172E+08        -0.28760E+06         0.00000E+00
   -0.28760E+06        -0.60010E+08         0.00000E+00
    0.00000E+00         0.00000E+00        -0.31650E+08
 
   -0.35806E+08        -0.73926E+06         0.00000E+00
   -0.73926E+06        -0.60047E+08         0.00000E+00
    0.00000E+00         0.00000E+00        -0.31586E+08
 
   -0.35383E+08        -0.10352E+07         0.00000E+00
   -0.10352E+07        -0.60106E+08         0.00000E+00
    0.00000E+00         0.00000E+00        -0.31516E+08
 
   -0.34931E+08        -0.11907E+07         0.00000E+00
   -0.11907E+07        -0.60174E+08         0.00000E+00
    0.00000E+00         0.00000E+00        -0.31444E+08
 
   -0.34472E+08        -0.12224E+07         0.00000E+00
   -0.12224E+07        -0.60243E+08         0.00000E+00
    0.00000E+00         0.00000E+00        -0.31370E+08
 
   -0.34018E+08        -0.11463E+07         0.00000E+00
   -0.11463E+07        -0.60310E+08         0.00000E+00
    0.00000E+00         0.00000E+00        -0.31299E+08
 
   -0.33579E+08        -0.97572E+06         0.00000E+00
   -0.97572E+06        -0.60375E+08         0.00000E+00
    0.00000E+00         0.00000E+00        -0.31229E+08
 
   -0.33157E+08        -0.72071E+06         0.00000E+00
   -0.72071E+06        -0.60440E+08         0.00000E+00
    0.00000E+00         0.00000E+00        -0.31164E+08
 
   -0.32755E+08        -0.38735E+06         0.00000E+00
   -0.38735E+06        -0.60508E+08         0.00000E+00
    0.00000E+00         0.00000E+00        -0.31102E+08
 
   -0.32371E+08         0.21893E+05         0.00000E+00
    0.21893E+05        -0.60582E+08         0.00000E+00
    0.00000E+00         0.00000E+00        -0.31045E+08
 
   -0.32010E+08         0.50769E+06         0.00000E+00
    0.50769E+06        -0.60663E+08         0.00000E+00
    0.00000E+00         0.00000E+00        -0.30994E+08
 
   -0.31674E+08         0.10730E+07         0.00000E+00
    0.10730E+07        -0.60751E+08         0.00000E+00
    0.00000E+00         0.00000E+00        -0.30948E+08
 
   -0.31373E+08         0.17217E+07         0.00000E+00
    0.17217E+07        -0.60842E+08         0.00000E+00
    0.00000E+00         0.00000E+00        -0.30909E+08
 
   -0.31118E+08         0.24570E+07         0.00000E+00
    0.24570E+07        -0.60930E+08         0.00000E+00
    0.00000E+00         0.00000E+00        -0.30878E+08
 
   -0.30925E+08         0.32796E+07         0.00000E+00
    0.32796E+07        -0.61005E+08         0.00000E+00
    0.00000E+00         0.00000E+00        -0.30856E+08
 
   -0.36725E+08        -0.30889E+06         0.00000E+00
   -0.30889E+06        -0.60009E+08         0.00000E+00
    0.00000E+00         0.00000E+00        -0.31015E+08
 
   -0.36188E+08        -0.78820E+06         0.00000E+00
   -0.78820E+06        -0.60043E+08         0.00000E+00
    0.00000E+00         0.00000E+00        -0.30916E+08
 
   -0.35609E+08        -0.10956E+07         0.00000E+00
   -0.10956E+07        -0.60093E+08         0.00000E+00
    0.00000E+00         0.00000E+00        -0.30815E+08
 
   -0.35022E+08        -0.12522E+07         0.00000E+00
   -0.12522E+07        -0.60146E+08         0.00000E+00
    0.00000E+00         0.00000E+00        -0.30713E+08
 
   -0.34445E+08        -0.12801E+07         0.00000E+00
   -0.12801E+07        -0.60194E+08         0.00000E+00
    0.00000E+00         0.00000E+00        -0.30614E+08
 
   -0.33892E+08        -0.12001E+07         0.00000E+00
   -0.12001E+07        -0.60236E+08         0.00000E+00
    0.00000E+00         0.00000E+00        -0.30519E+08
 
   -0.33366E+08        -0.10285E+07         0.00000E+00
   -0.10285E+07        -0.60276E+08         0.00000E+00
    0.00000E+00         0.00000E+00        -0.30429E+08
 
   -0.32865E+08        -0.77664E+06         0.00000E+00
   -0.77664E+06        -0.60317E+08         0.00000E+00
    0.00000E+00         0.00000E+00        -0.30344E+08
 
   -0.32388E+08        -0.45085E+06         0.00000E+00
   -0.45085E+06        -0.60367E+08         0.00000E+00
    0.00000E+00         0.00000E+00        -0.30266E+08
 
   -0.31930E+08        -0.52561E+05         0.00000E+00
   -0.52561E+05        -0.60429E+08         0.00000E+00
    0.00000E+00         0.00000E+00        -0.30193E+08
 
   -0.31490E+08         0.42089E+06         0.00000E+00
    0.42089E+06        -0.60508E+08         0.00000E+00
    0.00000E+00         0.00000E+00        -0.30127E+08
 
   -0.31072E+08         0.97539E+06         0.00000E+00
    0.97539E+06        -0.60605E+08         0.00000E+00
    0.00000E+00         0.00000E+00        -0.30067E+08
 
   -0.30682E+08         0.16185E+07         0.00000E+00
    0.16185E+07        -0.60715E+08         0.00000E+00
    0.00000E+00         0.00000E+00        -0.30015E+08
 
   -0.30334E+08         0.23575E+07         0.00000E+00
    0.23575E+07        -0.60831E+08         0.00000E+00
    0.00000E+00         0.00000E+00        -0.29972E+08
 
   -0.30049E+08         0.31961E+07         0.00000E+00
    0.31961E+07        -0.60942E+08         0.00000E+00
    0.00000E+00         0.00000E+00        -0.29938E+08
 
   -0.37313E+08        -0.32878E+06         0.00000E+00
   -0.32878E+06        -0.60009E+08         0.00000E+00
    0.00000E+00         0.00000E+00        -0.30376E+08
 
   -0.36585E+08        -0.82997E+06         0.00000E+00
   -0.82997E+06        -0.60037E+08         0.00000E+00
    0.00000E+00         0.00000E+00        -0.30239E+08
 
   -0.35837E+08        -0.11409E+07         0.00000E+00
   -0.11409E+07        -0.60074E+08         0.00000E+00
    0.00000E+00         0.00000E+00        -0.30102E+08
 
   -0.35107E+08        -0.12907E+07         0.00000E+00
   -0.12907E+07        -0.60103E+08         0.00000E+00
    0.00000E+00         0.00000E+00        -0.29968E+08
 
   -0.34413E+08        -0.13094E+07         0.00000E+00
   -0.13094E+07        -0.60120E+08         0.00000E+00
    0.00000E+00         0.00000E+00        -0.29841E+08
 
   -0.33763E+08        -0.12232E+07         0.00000E+00
   -0.12232E+07        -0.60127E+08         0.00000E+00
    0.00000E+00         0.00000E+00        -0.29721E+08
 
   -0.33155E+08        -0.10516E+07         0.00000E+00
   -0.10516E+07        -0.60131E+08         0.00000E+00
    0.00000E+00         0.00000E+00        -0.29608E+08
 
   -0.32581E+08        -0.80713E+06         0.00000E+00
   -0.80713E+06        -0.60140E+08         0.00000E+00
    0.00000E+00         0.00000E+00        -0.29504E+08
 
   -0.32034E+08        -0.49572E+06         0.00000E+00
   -0.49572E+06        -0.60164E+08         0.00000E+00
    0.00000E+00         0.00000E+00        -0.29408E+08
 
   -0.31505E+08        -0.11750E+06         0.00000E+00
   -0.11750E+06        -0.60209E+08         0.00000E+00
    0.00000E+00         0.00000E+00        -0.29319E+08
 
   -0.30989E+08         0.33263E+06         0.00000E+00
    0.33263E+06        -0.60282E+08         0.00000E+00
    0.00000E+00         0.00000E+00        -0.29237E+08
 
   -0.30484E+08         0.86421E+06         0.00000E+00
    0.86421E+06        -0.60385E+08         0.00000E+00
    0.00000E+00         0.00000E+00        -0.29162E+08
 
   -0.29998E+08         0.14898E+07         0.00000E+00
    0.14898E+07        -0.60516E+08         0.00000E+00
    0.00000E+00         0.00000E+00        -0.29096E+08
 
   -0.29545E+08         0.22223E+07         0.00000E+00
    0.22223E+07        -0.60665E+08         0.00000E+00
    0.00000E+00         0.00000E+00        -0.29039E+08
 
   -0.29150E+08         0.30711E+07         0.00000E+00
    0.30711E+07        -0.60818E+08         0.00000E+00
    0.00000E+00         0.00000E+00        -0.28992E+08
 
   -0.37933E+08        -0.34646E+06         0.00000E+00
   -0.34646E+06        -0.60007E+08         0.00000E+00
    0.00000E+00         0.00000E+00        -0.29737E+08
 
   -0.36988E+08        -0.86059E+06         0.00000E+00
   -0.86059E+06        -0.60028E+08         0.00000E+00
    0.00000E+00         0.00000E+00        -0.29555E+08
 
   -0.36057E+08        -0.11631E+07         0.00000E+00
   -0.11631E+07        -0.60043E+08         0.00000E+00
    0.00000E+00         0.00000E+00        -0.29378E+08
 
   -0.35179E+08        -0.12956E+07         0.00000E+00
   -0.12956E+07        -0.60038E+08         0.00000E+00
    0.00000E+00         0.00000E+00        -0.29209E+08
 
   -0.34370E+08        -0.12987E+07         0.00000E+00
   -0.12987E+07        -0.60012E+08         0.00000E+00
    0.00000E+00         0.00000E+00        -0.29051E+08
 
   -0.33630E+08        -0.12045E+07         0.00000E+00
   -0.12045E+07        -0.59971E+08         0.00000E+00
    0.00000E+00         0.00000E+00        -0.28905E+08
 
   -0.32949E+08        -0.10353E+07         0.00000E+00
   -0.10353E+07        -0.59929E+08         0.00000E+00
    0.00000E+00         0.00000E+00        -0.28769E+08
 
   -0.32312E+08        -0.80374E+06         0.00000E+00
   -0.80374E+06        -0.59897E+08         0.00000E+00
    0.00000E+00         0.00000E+00        -0.28645E+08
 
   -0.31703E+08        -0.51496E+06         0.00000E+00
   -0.51496E+06        -0.59887E+08         0.00000E+00
    0.00000E+00         0.00000E+00        -0.28530E+08
 
   -0.31109E+08        -0.16749E+06         0.00000E+00
   -0.16749E+06        -0.59909E+08         0.00000E+00
    0.00000E+00         0.00000E+00        -0.28424E+08
 
   -0.30518E+08         0.24626E+06         0.00000E+00
    0.24626E+06        -0.59971E+08         0.00000E+00
    0.00000E+00         0.00000E+00        -0.28326E+08
 
   -0.29925E+08         0.73991E+06         0.00000E+00
    0.73991E+06        -0.60078E+08         0.00000E+00
    0.00000E+00         0.00000E+00        -0.28235E+08
 
   -0.29333E+08         0.13323E+07         0.00000E+00
    0.13323E+07        -0.60230E+08         0.00000E+00
    0.00000E+00         0.00000E+00        -0.28153E+08
 
   -0.28759E+08         0.20448E+07         0.00000E+00
    0.20448E+07        -0.60418E+08         0.00000E+00
    0.00000E+00         0.00000E+00        -0.28079E+08
 
   -0.28235E+08         0.28954E+07         0.00000E+00
    0.28954E+07        -0.60623E+08         0.00000E+00
    0.00000E+00         0.00000E+00        -0.28017E+08
 
   -0.38575E+08        -0.36084E+06         0.00000E+00
   -0.36084E+06        -0.60006E+08         0.00000E+00
    0.00000E+00         0.00000E+00        -0.29098E+08
 
   -0.37384E+08        -0.87388E+06         0.00000E+00
   -0.87388E+06        -0.60014E+08         0.00000E+00
    0.00000E+00         0.00000E+00        -0.28866E+08
 
   -0.36255E+08        -0.11507E+07         0.00000E+00
   -0.11507E+07        -0.59996E+08         0.00000E+00
    0.00000E+00         0.00000E+00        -0.28643E+08
 
   -0.35229E+08        -0.12527E+07         0.00000E+00
   -0.12527E+07        -0.59941E+08         0.00000E+00
    0.00000E+00         0.00000E+00        -0.28435E+08
 
   -0.34314E+08        -0.12338E+07         0.00000E+00
   -0.12338E+07        -0.59855E+08         0.00000E+00
    0.00000E+00         0.00000E+00        -0.28245E+08
 
   -0.33496E+08        -0.11320E+07         0.00000E+00
   -0.11320E+07        -0.59754E+08         0.00000E+00
    0.00000E+00         0.00000E+00        -0.28071E+08
 
   -0.32754E+08        -0.96974E+06         0.00000E+00
   -0.96974E+06        -0.59655E+08         0.00000E+00
    0.00000E+00         0.00000E+00        -0.27913E+08
 
   -0.32064E+08        -0.75851E+06         0.00000E+00
   -0.75851E+06        -0.59573E+08         0.00000E+00
    0.00000E+00         0.00000E+00        -0.27768E+08
 
   -0.31404E+08        -0.50187E+06         0.00000E+00
   -0.50187E+06        -0.59523E+08         0.00000E+00
    0.00000E+00         0.00000E+00        -0.27635E+08
 
   -0.30752E+08        -0.19686E+06         0.00000E+00
   -0.19686E+06        -0.59515E+08         0.00000E+00
    0.00000E+00         0.00000E+00        -0.27512E+08
 
   -0.30093E+08         0.16597E+06         0.00000E+00
    0.16597E+06        -0.59561E+08         0.00000E+00
    0.00000E+00         0.00000E+00        -0.27397E+08
 
   -0.29412E+08         0.60381E+06         0.00000E+00
    0.60381E+06        -0.59669E+08         0.00000E+00
    0.00000E+00         0.00000E+00        -0.27289E+08
 
   -0.28707E+08         0.11428E+07         0.00000E+00
    0.11428E+07        -0.59843E+08         0.00000E+00
    0.00000E+00         0.00000E+00        -0.27189E+08
 
   -0.27992E+08         0.18161E+07         0.00000E+00
    0.18161E+07        -0.60077E+08         0.00000E+00
    0.00000E+00         0.00000E+00        -0.27097E+08
 
   -0.27307E+08         0.26563E+07         0.00000E+00
    0.26563E+07        -0.60346E+08         0.00000E+00
    0.00000E+00         0.00000E+00        -0.27016E+08
 
   -0.39228E+08        -0.37015E+06         0.00000E+00
   -0.37015E+06        -0.60003E+08         0.00000E+00
    0.00000E+00         0.00000E+00        -0.28463E+08
 
   -0.37752E+08        -0.85890E+06         0.00000E+00
   -0.85890E+06        -0.59989E+08         0.00000E+00
    0.00000E+00         0.00000E+00        -0.28169E+08
 
   -0.36412E+08        -0.10850E+07         0.00000E+00
   -0.10850E+07        -0.59920E+08         0.00000E+00
    0.00000E+00         0.00000E+00        -0.27894E+08
 
   -0.35247E+08        -0.11422E+07         0.00000E+00
   -0.11422E+07        -0.59791E+08         0.00000E+00
    0.00000E+00         0.00000E+00        -0.27644E+08
 
   -0.34243E+08        -0.10992E+07         0.00000E+00
   -0.10992E+07        -0.59626E+08         0.00000E+00
    0.00000E+00         0.00000E+00        -0.27420E+08
 
   -0.33365E+08        -0.99445E+06         0.00000E+00
   -0.99445E+06        -0.59452E+08         0.00000E+00
    0.00000E+00         0.00000E+00        -0.27219E+08
 
   -0.32578E+08        -0.84716E+06         0.00000E+00
   -0.84716E+06        -0.59288E+08         0.00000E+00
    0.00000E+00         0.00000E+00        -0.27038E+08
 
   -0.31848E+08        -0.66560E+06         0.00000E+00
   -0.66560E+06        -0.59153E+08         0.00000E+00
    0.00000E+00         0.00000E+00        -0.26875E+08
 
   -0.31148E+08        -0.45131E+06         0.00000E+00
   -0.45131E+06        -0.59058E+08         0.00000E+00
    0.00000E+00         0.00000E+00        -0.26725E+08
 
   -0.30450E+08        -0.20043E+06         0.00000E+00
   -0.20043E+06        -0.59018E+08         0.00000E+00
    0.00000E+00         0.00000E+00        -0.26585E+08
 
   -0.29730E+08         0.96967E+05         0.00000E+00
    0.96967E+05        -0.59042E+08         0.00000E+00
    0.00000E+00         0.00000E+00        -0.26454E+08
 
   -0.28966E+08         0.45932E+06         0.00000E+00
    0.45932E+06        -0.59146E+08         0.00000E+00
    0.00000E+00         0.00000E+00        -0.26328E+08
 
   -0.28142E+08         0.91888E+06         0.00000E+00
    0.91888E+06        -0.59339E+08         0.00000E+00
    0.00000E+00         0.00000E+00        -0.26207E+08
 
   -0.27264E+08         0.15249E+07         0.00000E+00
    0.15249E+07        -0.59624E+08         0.00000E+00
    0.00000E+00         0.00000E+00        -0.26093E+08
 
   -0.26376E+08         0.23351E+07         0.00000E+00
    0.23351E+07        -0.59975E+08         0.00000E+00
    0.00000E+00         0.00000E+00        -0.25988E+08
 
   -0.39871E+08        -0.37035E+06         0.00000E+00
   -0.37035E+06        -0.59997E+08         0.00000E+00
    0.00000E+00         0.00000E+00        -0.27829E+08
 
   -0.38057E+08        -0.79316E+06         0.00000E+00
   -0.79316E+06        -0.59942E+08         0.00000E+00
    0.00000E+00         0.00000E+00        -0.27459E+08
 
   -0.36507E+08        -0.93540E+06         0.00000E+00
   -0.93540E+06        -0.59784E+08         0.00000E+00
    0.00000E+00         0.00000E+00        -0.27124E+08
 
   -0.35230E+08        -0.94062E+06         0.00000E+00
   -0.94062E+06        -0.59550E+08         0.00000E+00
    0.00000E+00         0.00000E+00        -0.26830E+08
 
   -0.34164E+08        -0.88109E+06         0.00000E+00
   -0.88109E+06        -0.59291E+08         0.00000E+00
    0.00000E+00         0.00000E+00        -0.26573E+08
 
   -0.33246E+08        -0.78517E+06         0.00000E+00
   -0.78517E+06        -0.59037E+08         0.00000E+00
    0.00000E+00         0.00000E+00        -0.26348E+08
 
   -0.32429E+08        -0.66456E+06         0.00000E+00
   -0.66456E+06        -0.58808E+08         0.00000E+00
    0.00000E+00         0.00000E+00        -0.26147E+08
 
   -0.31673E+08        -0.52341E+06         0.00000E+00
   -0.52341E+06        -0.58619E+08         0.00000E+00
    0.00000E+00         0.00000E+00        -0.25966E+08
 
   -0.30945E+08        -0.36146E+06         0.00000E+00
   -0.36146E+06        -0.58482E+08         0.00000E+00
    0.00000E+00         0.00000E+00        -0.25800E+08
 
   -0.30212E+08        -0.17484E+06         0.00000E+00
   -0.17484E+06        -0.58407E+08         0.00000E+00
    0.00000E+00         0.00000E+00        -0.25646E+08
 
   -0.29446E+08         0.44935E+05         0.00000E+00
    0.44935E+05        -0.58407E+08         0.00000E+00
    0.00000E+00         0.00000E+00        -0.25499E+08
 
   -0.28611E+08         0.31391E+06         0.00000E+00
    0.31391E+06        -0.58499E+08         0.00000E+00
    0.00000E+00         0.00000E+00        -0.25356E+08
 
   -0.27672E+08         0.66332E+06         0.00000E+00
    0.66332E+06        -0.58702E+08         0.00000E+00
    0.00000E+00         0.00000E+00        -0.25214E+08
 
   -0.26608E+08         0.11590E+07         0.00000E+00
    0.11590E+07        -0.59040E+08         0.00000E+00
    0.00000E+00         0.00000E+00        -0.25072E+08
 
   -0.25456E+08         0.19038E+07         0.00000E+00
    0.19038E+07        -0.59496E+08         0.00000E+00
    0.00000E+00         0.00000E+00        -0.24935E+08
 
   -0.40458E+08        -0.34743E+06         0.00000E+00
   -0.34743E+06        -0.59980E+08         0.00000E+00
    0.00000E+00         0.00000E+00        -0.27191E+08
 
   -0.38248E+08        -0.62292E+06         0.00000E+00
   -0.62292E+06        -0.59823E+08         0.00000E+00
    0.00000E+00         0.00000E+00        -0.26721E+08
 
   -0.36532E+08        -0.65919E+06         0.00000E+00
   -0.65919E+06        -0.59512E+08         0.00000E+00
    0.00000E+00         0.00000E+00        -0.26321E+08
 
   -0.35191E+08        -0.63097E+06         0.00000E+00
   -0.63097E+06        -0.59155E+08         0.00000E+00
    0.00000E+00         0.00000E+00        -0.25987E+08
 
   -0.34091E+08        -0.57642E+06         0.00000E+00
   -0.57642E+06        -0.58801E+08         0.00000E+00
    0.00000E+00         0.00000E+00        -0.25703E+08
 
   -0.33154E+08        -0.50700E+06         0.00000E+00
   -0.50700E+06        -0.58476E+08         0.00000E+00
    0.00000E+00         0.00000E+00        -0.25456E+08
 
   -0.32321E+08        -0.42676E+06         0.00000E+00
   -0.42676E+06        -0.58191E+08         0.00000E+00
    0.00000E+00         0.00000E+00        -0.25238E+08
 
   -0.31550E+08        -0.33660E+06         0.00000E+00
   -0.33660E+06        -0.57958E+08         0.00000E+00
    0.00000E+00         0.00000E+00        -0.25043E+08
 
   -0.30804E+08        -0.23550E+06         0.00000E+00
   -0.23550E+06        -0.57785E+08         0.00000E+00
    0.00000E+00         0.00000E+00        -0.24865E+08
 
   -0.30050E+08        -0.12059E+06         0.00000E+00
   -0.12059E+06        -0.57681E+08         0.00000E+00
    0.00000E+00         0.00000E+00        -0.24698E+08
 
   -0.29251E+08         0.13656E+05         0.00000E+00
    0.13656E+05        -0.57657E+08         0.00000E+00
    0.00000E+00         0.00000E+00        -0.24538E+08
 
   -0.28366E+08         0.17766E+06         0.00000E+00
    0.17766E+06        -0.57731E+08         0.00000E+00
    0.00000E+00         0.00000E+00        -0.24380E+08
 
   -0.27339E+08         0.39279E+06         0.00000E+00
    0.39279E+06        -0.57929E+08         0.00000E+00
    0.00000E+00         0.00000E+00        -0.24218E+08
 
   -0.26085E+08         0.71278E+06         0.00000E+00
    0.71278E+06        -0.58295E+08         0.00000E+00
    0.00000E+00         0.00000E+00        -0.24043E+08
 
   -0.24581E+08         0.13143E+07         0.00000E+00
    0.13143E+07        -0.58891E+08         0.00000E+00
    0.00000E+00         0.00000E+00        -0.23863E+08
 
   -0.40872E+08        -0.21139E+06         0.00000E+00
   -0.21139E+06        -0.59845E+08         0.00000E+00
    0.00000E+00         0.00000E+00        -0.26508E+08
 
   -0.38291E+08        -0.25375E+06         0.00000E+00
   -0.25375E+06        -0.59444E+08         0.00000E+00
    0.00000E+00         0.00000E+00        -0.25913E+08
 
   -0.36521E+08        -0.24223E+06         0.00000E+00
   -0.24223E+06        -0.58978E+08         0.00000E+00
    0.00000E+00         0.00000E+00        -0.25468E+08
 
   -0.35158E+08        -0.22440E+06         0.00000E+00
   -0.22440E+06        -0.58526E+08         0.00000E+00
    0.00000E+00         0.00000E+00        -0.25108E+08
 
   -0.34047E+08        -0.20189E+06         0.00000E+00
   -0.20189E+06        -0.58109E+08         0.00000E+00
    0.00000E+00         0.00000E+00        -0.24804E+08
 
   -0.33102E+08        -0.17628E+06         0.00000E+00
   -0.17628E+06        -0.57738E+08         0.00000E+00
    0.00000E+00         0.00000E+00        -0.24543E+08
 
   -0.32263E+08        -0.14797E+06         0.00000E+00
   -0.14797E+06        -0.57418E+08         0.00000E+00
    0.00000E+00         0.00000E+00        -0.24314E+08
 
   -0.31485E+08        -0.11686E+06         0.00000E+00
   -0.11686E+06        -0.57157E+08         0.00000E+00
    0.00000E+00         0.00000E+00        -0.24108E+08
 
   -0.30732E+08        -0.82430E+05         0.00000E+00
   -0.82430E+05        -0.56961E+08         0.00000E+00
    0.00000E+00         0.00000E+00        -0.23920E+08
 
   -0.29967E+08        -0.43616E+05         0.00000E+00
   -0.43616E+05        -0.56838E+08         0.00000E+00
    0.00000E+00         0.00000E+00        -0.23745E+08
 
   -0.29153E+08         0.14708E+04         0.00000E+00
    0.14708E+04        -0.56798E+08         0.00000E+00
    0.00000E+00         0.00000E+00        -0.23575E+08
 
   -0.28242E+08         0.56300E+05         0.00000E+00
    0.56300E+05        -0.56858E+08         0.00000E+00
    0.00000E+00         0.00000E+00        -0.23407E+08
 
   -0.27168E+08         0.12839E+06         0.00000E+00
    0.12839E+06        -0.57044E+08         0.00000E+00
    0.00000E+00         0.00000E+00        -0.23230E+08
 
   -0.25810E+08         0.23470E+06         0.00000E+00
    0.23470E+06        -0.57407E+08         0.00000E+00
    0.00000E+00         0.00000E+00        -0.23033E+08
 
   -0.23831E+08         0.48605E+06         0.00000E+00
    0.48605E+06        -0.58091E+08         0.00000E+00
    0.00000E+00         0.00000E+00        -0.22774E+08
 
SCALARS stressS double 
LOOKUP_TABLE default
  -43946859.7753401     
  -44311768.3147374     
  -44648841.3063068     
  -44960194.9978538     
  -45247908.9434929     
  -45514013.3210286     
  -45760478.3407923     
  -45989205.6539138     
  -46202021.6663048     
  -46400672.6686879     
  -46586821.7023979     
  -46762047.0945023     
  -46927842.6126327     
  -47085619.2079134     
  -47236708.3312425     
  -43936088.3930130     
  -44299619.2657785     
  -44635295.3479175     
  -44945248.6030267     
  -45231572.4116023     
  -45496308.9169572     
  -45741438.4715632     
  -45968871.0869887     
  -46180439.7887095     
  -46377895.7814374     
  -46562905.3408126     
  -46737048.3624485     
  -46901818.5179842     
  -47058624.9880557     
  -47208795.7615611     
  -43914686.3137645     
  -44275444.9724436     
  -44608311.7961196     
  -44915450.2369467     
  -45198981.3681499     
  -45460971.2905671     
  -45703420.6583617     
  -45928256.2169570     
  -46137324.2439735     
  -46332385.7888994     
  -46515113.6190303     
  -46687090.7970234     
  -46849810.8377744     
  -47004679.4172185     
  -47153017.6304721     
  -43882934.8032258     
  -44239492.7075757     
  -44568106.8436641     
  -44870988.0366726     
  -45150298.9951744     
  -45408141.8180146     
  -45646547.6504734     
  -45867468.3663876     
  -46072770.1500145     
  -46264228.8571532     
  -46443527.0491920     
  -46612252.6155799     
  -46771898.9282800     
  -46923866.5038881     
  -47069466.1823528     
  -43841255.4285159     
  -44192132.4736459     
  -44515003.3749721     
  -44812142.3765417     
  -45085767.8696563     
  -45338030.0524683     
  -45571000.7827105     
  -45786665.4762841     
  -45986916.9005213     
  -46173550.7174677     
  -46348262.6496307     
  -46512647.1678356     
  -46668197.6367461     
  -46816307.8959079     
  -46958275.2994825     
  -43790209.4672643     
  -44133855.7285613     
  -44449429.1070187     
  -44739283.5134810     
  -45005707.1896916     
  -45250910.5919673     
  -45477016.5288008     
  -45686052.3720426     
  -45879944.1556446     
  -46060512.3828728     
  -46229469.3832593     
  -46388418.0943713     
  -46538852.1896066     
  -46682157.5291285     
  -46819614.9727936     
  -43730496.7917692     
  -44065273.3729629     
  -44371913.8191197     
  -44652868.1844550     
  -44910508.8455397     
  -45147118.7070580     
  -45364881.7434960     
  -45565875.6526605     
  -45752066.3879964     
  -45925304.3428347     
  -46087321.9830377     
  -46239732.7659689     
  -46384031.2426185     
  -46521594.3133197     
  -46653683.6910848     
  -43662953.9368037     
  -43987112.7230318     
  -44283085.4174023     
  -44553434.9285296     
  -44800632.1384198     
  -45027044.5636199     
  -45234927.4614134     
  -45426417.1012497     
  -45603525.9064864     
  -45768139.1743608     
  -45922013.1070995     
  -46066773.9367929     
  -46203918.0011186     
  -46334812.7232935     
  -46460698.5619503     
  -43588550.9753029     
  -43900213.1159215     
  -44183664.5107303     
  -44441597.8460221     
  -44676596.9004291     
  -44891125.8387911     
  -45087521.0960954     
  -45267985.5033832     
  -45434584.2807576     
  -45589242.5171951     
  -45733743.7805206     
  -45869729.5587166     
  -45998699.3268472     
  -46122011.1590677     
  -46240882.9551116     
  -43508386.7370745     
  -43805519.7141219     
  -44074457.1021886     
  -44318038.4440611     
  -44538974.7177255     
  -44739838.4912492     
  -44923056.8628036     
  -45090906.7573238     
  -45245512.1030001     
  -45388842.3882964     
  -45522712.1168557     
  -45648780.7423264     
  -45768552.7804405     
  -45883377.9577803     
  -45994451.4558437     
  -43423681.8140158     
  -43704074.9907928     
  -43956344.9226364     
  -44183495.1491714     
  -44388377.9034640     
  -44573685.4092702     
  -44741944.2325328     
  -44895512.1680475     
  -45036577.0551780     
  -45167156.8620332     
  -45289100.3776592     
  -45404087.9206668     
  -45513631.6146697     
  -45619074.9906753     
  -45721591.9406356     
  -43335768.7055482     
  -43597007.2912039     
  -43830272.8479155     
  -44038749.9887490     
  -44225445.8018209     
  -44393182.6167883     
  -44544594.2105809     
  -44682124.8360224     
  -44808030.3021245     
  -44924380.2243108     
  -45033060.5314436     
  -45135775.3854627     
  -45234047.8444382     
  -45329218.8724098     
  -45422444.6497746     
  -43246078.3773477     
  -43485515.7765436     
  -43697232.7441430     
  -43884611.8461897     
  -44050827.9206625     
  -44198842.6615475     
  -44331403.2165049     
  -44451044.0819849     
  -44560091.3091696     
  -44660667.8299107     
  -44754698.6269289     
  -44843914.5365493     
  -44929853.6906746     
  -45013859.9624041     
  -45097078.2464795     
  -43156122.4454879     
  -43370850.9646504     
  -43558242.9663081     
  -43721895.5640724     
  -43865163.2722559     
  -43991154.7275006     
  -44102734.3159686     
  -44202527.8896815     
  -44292931.2928051     
  -44376120.0643082     
  -44454058.5149948     
  -44528506.4323097     
  -44601021.9465248     
  -44672959.5688560     
  -44745463.0383681     
  -43067470.1705122     
  -43254289.9824783     
  -43414322.5748958     
  -43551395.9798697     
  -43669055.1225492     
  -43770560.8850620     
  -43858895.5070410     
  -43936773.3981030     
  -44006655.6624601     
  -44070766.0502208     
  -44131105.7612367     
  -44189464.5770564     
  -44247426.1716628     
  -44306366.1008071     
  -44367441.8185289     
  -42981719.4670360     
  -43137105.5219911     
  -43266459.0970415     
  -43373855.6838010     
  -43463040.0670568     
  -43537427.6855089     
  -43600114.6767071     
  -43653895.5315381     
  -43701286.0130178     
  -43744548.0681836     
  -43785713.0166530     
  -43826599.3641434     
  -43868822.1179444     
  -43913791.3841155     
  -43962699.1895633     
  -42900461.2167427     
  -43020527.3081174     
  -43115568.2752807     
  -43189924.8116091     
  -43247549.8971681     
  -43292011.9721981     
  -43326510.6949641     
  -43353903.9204609     
  -43376742.5010520     
  -43397308.1133653     
  -43417648.7003222     
  -43439606.2571307     
  -43464832.4712785     
  -43494789.0022907     
  -43530730.7977992     
  -42825236.3152849     
  -42905694.5654049     
  -42962443.5953124     
  -43000110.3972256     
  -43022863.9895391     
  -43034419.2552251     
  -43038059.8782574     
  -43036678.3468313     
  -43032827.8155370     
  -43028778.6373601     
  -43026571.6553427     
  -43028060.6995500     
  -43034937.9197718     
  -43048737.3901191     
  -43070814.6595483     
  -42757485.0510382     
  -42793597.3474165     
  -42807692.2420144     
  -42804711.4974625     
  -42789048.7860723     
  -42764552.1945156     
  -42734556.7126773     
  -42701943.0695018     
  -42669214.4886974     
  -42638580.3945792     
  -42612035.5526950     
  -42591423.9882264     
  -42578478.8111119     
  -42574831.5565762     
  -42581987.7333852     
  -42698488.4925271     
  -42685003.3471086     
  -42651652.0968363     
  -42603734.1102475     
  -42545879.1100390     
  -42482045.5762327     
  -42415567.2960264     
  -42349240.6121698     
  -42285438.0632060     
  -42226231.5202380     
  -42173508.3508844     
  -42129066.0615247     
  -42094673.3738286     
  -42072088.8310799     
  -42063032.0940016     
  -42649301.2780136     
  -42580364.2930608     
  -42494280.7174292     
  -42396776.2587253     
  -42292733.2994876     
  -42186182.6271876     
  -42080373.5547880     
  -41977906.0601540     
  -41880899.7383240     
  -41791173.5995337     
  -41710414.2129722     
  -41640313.5481902     
  -41582660.8826153     
  -41539376.0710451     
  -41512476.4926054     
  -42610673.9425081     
  -42479690.9479292     
  -42335000.5192401     
  -42182867.5578145     
  -42028450.1483288     
  -41875785.8120333     
  -41727906.2886338     
  -41587043.8714249     
  -41454883.6187431     
  -41332822.5580484     
  -41222208.0459538     
  -41124534.8442053     
  -41041581.6953388     
  -40975468.7071259     
  -40928620.7506091     
  -42582959.3850049     
  -42382375.2339271     
  -42172471.8418242     
  -41960237.5781697     
  -41751130.4423298     
  -41549074.3243698     
  -41356666.4634876     
  -41175511.0636367     
  -41006595.4695722     
  -40850654.3126642     
  -40708496.2997320     
  -40581278.9114119     
  -40470711.8574520     
  -40379156.6485893     
  -40309592.5214054     
  -42565989.0431842     
  -42286915.8535614     
  -42004241.3416653     
  -41725971.1651993     
  -41457860.7389379     
  -41203483.1205585     
  -40964639.0763705     
  -40741914.0170947     
  -40535230.8775444     
  -40344336.2268068     
  -40169220.8485678     
  -40010492.3329111     
  -39869679.7297935     
  -39749421.0972938     
  -39653448.8760700     
  -42558883.0181402     
  -42190452.9858648     
  -41826165.2579824     
  -41475484.0954628     
  -41144337.6993586     
  -40835452.0201204     
  -40549216.5009733     
  -40284630.9515380     
  -40040079.0684480     
  -39813910.2460809     
  -39604925.5478003     
  -39412848.5829210     
  -39238813.9012344     
  -39085723.2232470     
  -38958342.8062093     
  -42559694.4628407     
  -42087898.6382879     
  -41631405.0377055     
  -41201724.0476167     
  -40804399.2304579     
  -40440232.6126122     
  -40107175.0316412     
  -39801877.3704489     
  -39520655.0497388     
  -39260021.0344415     
  -39017107.6142062     
  -38790250.6689919     
  -38579700.8188994     
  -38388501.9865011     
  -38222784.5179199     
  -42564634.7344803     
  -41970088.8626461     
  -41408599.0550848     
  -40894017.8150423     
  -40429577.8974775     
  -40011862.5278919     
  -39634774.9063872     
  -39291832.8245758     
  -38976837.3183667     
  -38684109.5862356     
  -38408654.9881615     
  -38146515.7681266     
  -37896199.0939389     
  -37660027.9928189     
  -37446126.4582648     
  -42565671.6029736     
  -41819495.1495973     
  -41138439.6878907     
  -40536774.2499902     
  -40009238.4734448     
  -39543501.8835935     
  -39128071.6181592     
  -38752839.7026134     
  -38408959.2257203     
  -38088477.3685656     
  -37783992.6417140     
  -37488554.6803856     
  -37195891.7638909     
  -36906589.9742660     
  -36629259.1320890     
  -42543074.2287749     
  -41597633.3557264     
  -40788397.6304264     
  -40110777.9446224     
  -39531719.6003065     
  -39028352.1030702     
  -38583470.2471164     
  -38183663.8238216     
  -37817817.0504694     
  -37476046.6643558     
  -37148796.2757953     
  -36825839.9184898     
  -36495407.7119820     
  -36140989.2555554     
  -35778485.7480178     
  -42408486.1092022     
  -41216021.6752515     
  -40322532.0456540     
  -39597067.9806294     
  -38986976.5419475     
  -38461053.8854005     
  -37998459.9224498     
  -37583778.2472726     
  -37204576.3655363     
  -36849855.3227537     
  -36508747.4584773     
  -36168953.9691212     
  -35813848.6276726     
  -35416460.8041203     
  -34898923.8547437     
SCALARS 2waySource double 
LOOKUP_TABLE default
 -1.047713837235520E-004
 -1.083879873851024E-004
 -1.118278746808677E-004
 -1.150854123173687E-004
 -1.181590541027888E-004
 -1.210504392406915E-004
 -1.237636238086938E-004
 -1.263044273152870E-004
 -1.286798781089248E-004
 -1.308977430969144E-004
 -1.329661287493621E-004
 -1.348931417415374E-004
 -1.366865988410021E-004
 -1.383537767796748E-004
 -1.399011938609881E-004
 -1.045926869948516E-004
 -1.082128779095813E-004
 -1.116525869367128E-004
 -1.149069950293148E-004
 -1.179752589459771E-004
 -1.208596240979764E-004
 -1.235646688369224E-004
 -1.260966622904689E-004
 -1.284630197168766E-004
 -1.306718410131655E-004
 -1.327315195056502E-004
 -1.346504095041799E-004
 -1.364365423257528E-004
 -1.380973815989060E-004
 -1.396396096434322E-004
 -1.042965092920740E-004
 -1.079228499645902E-004
 -1.113607674601116E-004
 -1.146071859970806E-004
 -1.176627627488451E-004
 -1.205310327870988E-004
 -1.232176816626079E-004
 -1.257299282106585E-004
 -1.280760019742037E-004
 -1.302647012488570E-004
 -1.323050192009290E-004
 -1.342058268192862E-004
 -1.359756026510304E-004
 -1.376222003504264E-004
 -1.391526460393924E-004
 -1.038856965539453E-004
 -1.075194154692631E-004
 -1.109528118128750E-004
 -1.141854507286572E-004
 -1.172202600985957E-004
 -1.200627245300084E-004
 -1.227202011933048E-004
 -1.252013408323963E-004
 -1.275155989799424E-004
 -1.296728239359927E-004
 -1.316829094427411E-004
 -1.335555012374971E-004
 -1.352997478107542E-004
 -1.369240867506798E-004
 -1.384360590210896E-004
 -1.033648345581701E-004
 -1.070051604263212E-004
 -1.104296313614590E-004
 -1.136413044234472E-004
 -1.166461080135576E-004
 -1.194521009656540E-004
 -1.220688458378595E-004
 -1.245068807000305E-004
 -1.267772752900409E-004
 -1.288912588211794E-004
 -1.308599079968511E-004
 -1.326938849571511E-004
 -1.344032159711136E-004
 -1.359971027173031E-004
 -1.374837589700076E-004
 -1.027402646789222E-004
 -1.063837823993663E-004
 -1.097927075926761E-004
 -1.129743791736023E-004
 -1.159384028602286E-004
 -1.186959902717135E-004
 -1.212594028771507E-004
 -1.236414862806469E-004
 -1.258552817382074E-004
 -1.279137030600557E-004
 -1.298292681934399E-004
 -1.316138758426383E-004
 -1.332786185015980E-004
 -1.348336242755305E-004
 -1.362879208646241E-004
 -1.020200934918778E-004
 -1.056601284210522E-004
 -1.090441520942386E-004
 -1.121845009811325E-004
 -1.150950703710772E-004
 -1.177907469809620E-004
 -1.202869355684326E-004
 -1.225991664200814E-004
 -1.247427717935117E-004
 -1.267326204586070E-004
 -1.285829004512362E-004
 -1.303069410734857E-004
 -1.319170661005042E-004
 -1.334244711232412E-004
 -1.348391189902539E-004
 -1.012141921362314E-004
 -1.048402285734588E-004
 -1.081867669682718E-004
 -1.112717710463637E-004
 -1.141139630403901E-004
 -1.167323616992004E-004
 -1.191459021981854E-004
 -1.213731263861971E-004
 -1.234319327737819E-004
 -1.253393764893905E-004
 -1.271115101668423E-004
 -1.287632574583726E-004
 -1.303083116689014E-004
 -1.317590529374617E-004
 -1.331264784819263E-004
 -1.003341802767050E-004
 -1.039313193191291E-004
 -1.072240992197765E-004
 -1.102366445294826E-004
 -1.129929579311822E-004
 -1.155165737342772E-004
 -1.178302801800631E-004
 -1.199559007464820E-004
 -1.219141253179184E-004
 -1.237243825823553E-004
 -1.254047454389999E-004
 -1.269718616658963E-004
 -1.284409027282658E-004
 -1.298255244882663E-004
 -1.311378347501434E-004
 -9.939338838423024E-005
 -1.029418494701123E-004
 -1.061604814259415E-004
 -1.090799987384721E-004
 -1.117300467101526E-004
 -1.141389785129443E-004
 -1.163336872913871E-004
 -1.183394854869186E-004
 -1.201800238535095E-004
 -1.218772426793781E-004
 -1.234513476978922E-004
 -1.249208032637167E-004
 -1.263023357643937E-004
 -1.276109410548904E-004
 -1.288598909973336E-004
 -9.840679090581260E-005
 -1.018814604833627E-004
 -1.050010497437338E-004
 -1.078031814339672E-004
 -1.103234085131133E-004
 -1.125951205727434E-004
 -1.146494912522166E-004
 -1.165154611427500E-004
 -1.182197504343120E-004
 -1.197868949356454E-004
 -1.212392984010342E-004
 -1.225972936528393E-004
 -1.238792050577476E-004
 -1.251014056593619E-004
 -1.262783637487499E-004
 -9.739090179092350E-005
 -1.007609315886328E-004
 -1.037517290371816E-004
 -1.064080286173539E-004
 -1.087714549698353E-004
 -1.108805618190158E-004
 -1.127708980494880E-004
 -1.144750982954030E-004
 -1.160229943266946E-004
 -1.174417418544236E-004
 -1.187559556803494E-004
 -1.199878449005632E-004
 -1.211573395091259E-004
 -1.222822004300659E-004
 -1.233781067732095E-004
 -9.636362289630422E-005
 -9.959207912521488E-005
 -1.024191735549453E-004
 -1.048968396800540E-004
 -1.070728352611561E-004
 -1.089909135234019E-004
 -1.106910086357482E-004
 -1.122094365954973E-004
 -1.135791101658756E-004
 -1.148297631862683E-004
 -1.159881763603213E-004
 -1.170783943266778E-004
 -1.181219229199718E-004
 -1.191378962153414E-004
 -1.201432051820566E-004
 -9.534403517408199E-005
 -9.838759840445803E-005
 -1.010106500510919E-004
 -1.032722959368797E-004
 -1.052263872134206E-004
 -1.069218190167173E-004
 -1.084028327716095E-004
 -1.097093284896408E-004
 -1.108771884731468E-004
 -1.119386077868829E-004
 -1.129224213523369E-004
 -1.138544137589769E-004
 -1.147575964318356E-004
 -1.156524376814605E-004
 -1.165570341559937E-004
 -9.435212249316545E-005
 -9.716083540291863E-005
 -9.953384826870332E-005
 -1.015373059641265E-004
 -1.032310177511797E-004
 -1.046688718672432E-004
 -1.058992476503898E-004
 -1.069654390398456E-004
 -1.079060939597635E-004
 -1.087556635607705E-004
 -1.095448463912209E-004
 -1.103010070071412E-004
 -1.110485467420186E-004
 -1.118092059171449E-004
 -1.126022810118155E-004
 -9.340841874322847E-005
 -9.592547447491255E-005
 -9.799660079593610E-005
 -9.969475712124886E-005
 -1.010854918365955E-004
 -1.022274510067083E-004
 -1.031728872712340E-004
 -1.039681936334963E-004
 -1.046544695710149E-004
 -1.052681089994795E-004
 -1.058413858689529E-004
 -1.064030057833342E-004
 -1.069785907572738E-004
 -1.075910674714163E-004
 -1.082609356023648E-004
 -9.253357083803404E-005
 -9.469512663581455E-005
 -9.640648948093243E-005
 -9.774714592348107E-005
 -9.878810217543633E-005
 -9.959244896440118E-005
 -1.002159459684494E-004
 -1.007076660802564E-004
 -1.011107080586207E-004
 -1.014629562415211E-004
 -1.017978457812280E-004
 -1.021450836461143E-004
 -1.025312770982709E-004
 -1.029804282900330E-004
 -1.035142628072459E-004
 -9.174781361193202E-005
 -9.348279982849414E-005
 -9.477030700788411E-005
 -9.569604840356649E-005
 -9.633618060085085E-005
 -9.675786092555842E-005
 -9.701987570901726E-005
 -9.717340091853105E-005
 -9.726289877379132E-005
 -9.732710496406389E-005
 -9.740003344441722E-005
 -9.751192037409266E-005
 -9.769003801938382E-005
 -9.795932377025789E-005
 -9.834278258677741E-005
 -9.107035734895786E-005
 -9.230022585825896E-005
 -9.309332644350775E-005
 -9.354137152403633E-005
 -9.372539321106809E-005
 -9.371618919519148E-005
 -9.357495161352101E-005
 -9.335416660102196E-005
 -9.309876672477607E-005
 -9.284744019388835E-005
 -9.263396792865176E-005
 -9.248846652612932E-005
 -9.243844270843230E-005
 -9.250959278163788E-005
 -9.272629815994422E-005
 -9.051869406741456E-005
 -9.115700407992671E-005
 -9.137830208919730E-005
 -9.128029161474736E-005
 -9.094873053489826E-005
 -9.045759813478335E-005
 -8.986967435136253E-005
 -8.923764264817555E-005
 -8.860563609175552E-005
 -8.801102738209782E-005
 -8.748623772850024E-005
 -8.706038113713533E-005
 -8.676062566313856E-005
 -8.661320485521556E-005
 -8.664403169617743E-005
 -9.010783253407351E-005
 -9.005949067133959E-005
 -8.962406946833520E-005
 -8.890572444324266E-005
 -8.799505482097396E-005
 -8.696872796789184E-005
 -8.588997465318736E-005
 -8.481005804724504E-005
 -8.377047500673629E-005
 -8.280548739825915E-005
 -8.194460299645458E-005
 -8.121474613066802E-005
 -8.064199360487609E-005
 -8.025283725279910E-005
 -8.007495006536231E-005
 -8.984946908798856E-005
 -8.900929615821082E-005
 -8.782350612384447E-005
 -8.640406417546805E-005
 -8.484699124725616E-005
 -8.323104565985597E-005
 -8.161819285657375E-005
 -8.005582801052922E-005
 -7.858011687013492E-005
 -7.721967476901901E-005
 -7.599898002533795E-005
 -7.494120159792069E-005
 -7.407035403752060E-005
 -7.341283592804236E-005
 -7.299839226382096E-005
 -8.975108111616267E-005
 -8.800111144670233E-005
 -8.596040708771437E-005
 -8.375174037465906E-005
 -8.147784451639640E-005
 -7.921859534114883E-005
 -7.703184680521373E-005
 -7.495729366021367E-005
 -7.302180851713577E-005
 -7.124483164291354E-005
 -6.964299682140866E-005
 -6.823369874313288E-005
 -6.703766682489347E-005
 -6.608074878624907E-005
 -6.539515181151611E-005
 -8.981486366522966E-005
 -8.701926837787941E-005
 -8.400440229921005E-005
 -8.090981738102519E-005
 -7.784710742293675E-005
 -7.489506867957794E-005
 -7.210232153102088E-005
 -6.949476824605580E-005
 -6.708429250413769E-005
 -6.487643753983845E-005
 -6.287635899484200E-005
 -6.109314949207840E-005
 -5.954270477181625E-005
 -5.824972199923946E-005
 -5.724923513825864E-005
 -9.003627325182670E-005
 -8.603166836891260E-005
 -8.190213936817453E-005
 -7.781532141767759E-005
 -7.389412616705361E-005
 -7.021041497082747E-005
 -6.679389641078665E-005
 -6.364722275326436E-005
 -6.075964729671814E-005
 -5.811694579818305E-005
 -5.570834130191490E-005
 -5.353133458971614E-005
 -5.159511861140253E-005
 -4.992220595917661E-005
 -4.855069375898581E-005
 -9.040134933159972E-005
 -8.497777018270464E-005
 -7.956084528961333E-005
 -7.436730808048898E-005
 -6.953009882640110E-005
 -6.509809123905871E-005
 -6.106408303221568E-005
 -5.739400917730142E-005
 -5.404588879751635E-005
 -5.097948897855490E-005
 -4.816256514858367E-005
 -4.557686304324592E-005
 -4.322151121036574E-005
 -4.111607678412836E-005
 -3.930019076872089E-005
 -9.088085139551229E-005
 -8.374058619550420E-005
 -7.681603551421493E-005
 -7.040595525540226E-005
 -6.463120605021731E-005
 -5.947628211731496E-005
 -5.486662259828317E-005
 -5.071786647037464E-005
 -4.694986136405707E-005
 -4.349155828796129E-005
 -4.028368518458162E-005
 -3.728326619179029E-005
 -3.447643487805035E-005
 -3.187384124316388E-005
 -2.951797408269754E-005
 -9.140568566121698E-005
 -8.207425841771662E-005
 -7.336581084481933E-005
 -6.569064024472866E-005
 -5.904589223617980E-005
 -5.325679056486244E-005
 -4.815833497285390E-005
 -4.360890691471755E-005
 -3.948916588818733E-005
 -3.569664022200282E-005
 -3.214152286558925E-005
 -2.874651794135872E-005
 -2.545465974122696E-005
 -2.228751439072796E-005
 -1.925782064530947E-005
 -9.177980335228096E-005
 -7.935423231728283E-005
 -6.867288452483341E-005
 -5.994172358033921E-005
 -5.262338924934115E-005
 -4.636397246631620E-005
 -4.090900177148285E-005
 -3.606857374219048E-005
 -3.169175570188248E-005
 -2.765039328302904E-005
 -2.382724185586077E-005
 -2.010617579391844E-005
 -1.636701912052754E-005
 -1.249175929271226E-005
 -8.682480851536065E-006
 -9.058456191791958E-005
 -7.401176105430663E-005
 -6.223310956399693E-005
 -5.293343866608279E-005
 -4.526428559083143E-005
 -3.875703303643244E-005
 -3.311121225850006E-005
 -2.811215359331894E-005
 -2.359271044181841E-005
 -1.941087825383826E-005
 -1.543325223744871E-005
 -1.151813576584321E-005
 -7.491670720369407E-006
 -3.097522720110693E-006
  2.036579116013271E-006
SCALARS poroP double 
LOOKUP_TABLE default
  3.812625265577417E-007
  4.642132227784086E-007
  3.576802389862683E-007
  5.837215377217937E-007
  7.262479816294548E-007
  8.097873883753918E-007
  6.659619603521209E-007
  1.002700890643659E-006
  1.188157076802168E-006
  1.279994538377089E-006
  1.092716044732936E-006
  1.566417829650816E-006
  1.801983779610235E-006
  1.917420291060468E-006
  1.678244688886395E-006
  2.319105322579079E-006
  2.611916111049269E-006
  2.780931635672432E-006
  2.480629759745150E-006
  3.320261968845371E-006
  3.670657991078640E-006
  3.957421680936599E-006
  3.590043429830391E-006
  4.627404648421079E-006
  4.975133849478253E-006
  5.510929637655389E-006
  5.126381387417802E-006
  0.000000000000000E+000
  0.000000000000000E+000
  0.000000000000000E+000
  0.000000000000000E+000
  0.000000000000000E+000
  0.000000000000000E+000
  0.000000000000000E+000
  0.000000000000000E+000
  0.000000000000000E+000
  0.000000000000000E+000
  0.000000000000000E+000
  0.000000000000000E+000
  0.000000000000000E+000
  0.000000000000000E+000
  0.000000000000000E+000
  0.000000000000000E+000
  0.000000000000000E+000
  0.000000000000000E+000
  0.000000000000000E+000
  0.000000000000000E+000
  0.000000000000000E+000
  0.000000000000000E+000
  0.000000000000000E+000
  0.000000000000000E+000
  0.000000000000000E+000
  0.000000000000000E+000
  5.043953088544103E-008
  0.000000000000000E+000
  7.803873639574575E-008
  1.578793373738755E-007
  2.359231502621378E-007
  1.555085853654121E-007
  3.122982960402620E-007
  4.221263074553911E-007
  4.900857948792546E-007
  3.804919485569650E-007
  6.273017813865523E-007
  7.721250641063891E-007
  8.319501209151955E-007
  6.881363031537837E-007
  1.057909369125047E-006
  1.245510016143218E-006
  1.302917960454953E-006
  1.116543455355035E-006
  1.652137756189509E-006
  1.894579696440173E-006
  1.962089065462990E-006
  1.720170952217103E-006
  2.484589844376709E-006
  2.799980426835245E-006
  2.904972025170194E-006
  2.587403747668005E-006
  3.682208122941052E-006
  4.088173174679842E-006
  4.303244279162079E-006
  3.884352794114156E-006
  5.444580000019730E-006
  5.869499549403989E-006
  6.381395038372541E-006
  5.917055535058653E-006
  0.000000000000000E+000
  0.000000000000000E+000
  0.000000000000000E+000
  0.000000000000000E+000
  0.000000000000000E+000
  0.000000000000000E+000
  0.000000000000000E+000
  0.000000000000000E+000
  0.000000000000000E+000
  0.000000000000000E+000
  0.000000000000000E+000
  0.000000000000000E+000
  0.000000000000000E+000
  0.000000000000000E+000
  0.000000000000000E+000
  0.000000000000000E+000
  0.000000000000000E+000
  0.000000000000000E+000
  0.000000000000000E+000
  0.000000000000000E+000
  0.000000000000000E+000
  0.000000000000000E+000
  0.000000000000000E+000
  0.000000000000000E+000
  0.000000000000000E+000
  0.000000000000000E+000
  5.757290731843795E-008
  0.000000000000000E+000
  8.634271314781867E-008
  1.686186950150240E-007
  2.397730384293252E-007
  1.579440275336172E-007
  3.179531237091717E-007
  4.261102450159866E-007
  4.819052507827354E-007
  3.752756986910300E-007
  6.239584323058663E-007
  7.632192707506688E-007
  8.039819089905196E-007
  6.674117155258321E-007
  1.044159430913683E-006
  1.223561825943274E-006
  1.250984846196653E-006
  1.075331678470492E-006
  1.637705695721062E-006
  1.872684325574938E-006
  1.894590349505460E-006
  1.663855289313616E-006
  2.506568883671776E-006
  2.826614572330829E-006
  2.863214033312541E-006
  2.546563033399051E-006
  3.858126603241165E-006
  4.312418613917358E-006
  4.422842961969049E-006
  3.969510207493202E-006
  6.144492627119382E-006
  6.690554333273513E-006
  7.095845302053521E-006
  6.539675916732030E-006
  0.000000000000000E+000
  0.000000000000000E+000
  0.000000000000000E+000
  0.000000000000000E+000
  0.000000000000000E+000
  0.000000000000000E+000
  0.000000000000000E+000
  0.000000000000000E+000
  0.000000000000000E+000
  0.000000000000000E+000
  0.000000000000000E+000
  0.000000000000000E+000
  0.000000000000000E+000
  0.000000000000000E+000
  0.000000000000000E+000
  0.000000000000000E+000
  0.000000000000000E+000
  0.000000000000000E+000
  0.000000000000000E+000
  0.000000000000000E+000
  0.000000000000000E+000
  0.000000000000000E+000
  0.000000000000000E+000
  0.000000000000000E+000
  0.000000000000000E+000
  0.000000000000000E+000
  5.003803352449974E-008
  0.000000000000000E+000
  7.057306707123438E-008
  1.513736259912149E-007
  2.172224477187042E-007
  1.375392343921142E-007
  2.891876714035136E-007
  3.912977484789181E-007
  4.389944145906700E-007
  3.390661277629029E-007
  5.734920942377639E-007
  7.013174461013148E-007
  7.286414739285821E-007
  6.044213703910116E-007
  9.634073905583818E-007
  1.126468981308128E-006
  1.130916904836808E-006
  9.732117313993626E-007
  1.525455076788219E-006
  1.741622028766103E-006
  1.724093396750978E-006
  1.515180019557889E-006
  2.380448716102848E-006
  2.685709771882657E-006
  2.655937850084368E-006
  2.359710231003009E-006
  3.802772701146506E-006
  4.279661177938414E-006
  4.276399687547837E-006
  3.806441661618758E-006
  6.583378344706018E-006
  7.313966673944459E-006
  7.595603686744130E-006
  6.868766572117749E-006
  0.000000000000000E+000
  0.000000000000000E+000
  0.000000000000000E+000
  0.000000000000000E+000
  0.000000000000000E+000
  0.000000000000000E+000
  0.000000000000000E+000
  0.000000000000000E+000
  0.000000000000000E+000
  0.000000000000000E+000
  0.000000000000000E+000
  0.000000000000000E+000
  0.000000000000000E+000
  0.000000000000000E+000
  0.000000000000000E+000
  0.000000000000000E+000
  0.000000000000000E+000
  0.000000000000000E+000
  0.000000000000000E+000
  0.000000000000000E+000
  0.000000000000000E+000
  0.000000000000000E+000
  0.000000000000000E+000
  0.000000000000000E+000
  0.000000000000000E+000
  0.000000000000000E+000
  2.070229225325561E-008
  0.000000000000000E+000
  2.421729357356888E-008
  1.003343027081885E-007
  1.624542747788237E-007
  8.800534040315286E-008
  2.211248531459289E-007
  3.141362869343474E-007
  3.555987943088894E-007
  2.650265605515104E-007
  4.740803113781707E-007
  5.869869669254326E-007
  6.065051166364908E-007
  4.973022702641418E-007
  8.185213788879955E-007
  9.607280676203989E-007
  9.518729106647167E-007
  8.154501910627468E-007
  1.322505960377240E-006
  1.512240410032365E-006
  1.465987177312828E-006
  1.285611120482793E-006
  2.116004211318403E-006
  2.392445071666982E-006
  2.303847762286837E-006
  2.042128087842031E-006
  3.505071490397151E-006
  3.971067504604111E-006
  3.847519833978330E-006
  3.403061308233355E-006
  6.667247123417464E-006
  7.605540312825424E-006
  7.594284032070061E-006
  6.688518902558704E-006
  0.000000000000000E+000
  0.000000000000000E+000
  0.000000000000000E+000
  0.000000000000000E+000
  0.000000000000000E+000
  0.000000000000000E+000
  0.000000000000000E+000
  0.000000000000000E+000
  0.000000000000000E+000
  0.000000000000000E+000
  0.000000000000000E+000
  0.000000000000000E+000
  0.000000000000000E+000
  0.000000000000000E+000
  0.000000000000000E+000
  0.000000000000000E+000
  0.000000000000000E+000
  0.000000000000000E+000
  0.000000000000000E+000
  0.000000000000000E+000
  0.000000000000000E+000
  0.000000000000000E+000
  0.000000000000000E+000
  0.000000000000000E+000
  0.000000000000000E+000
  0.000000000000000E+000
  0.000000000000000E+000
  0.000000000000000E+000
  0.000000000000000E+000
  1.305548248607059E-008
  7.344631609003669E-008
  1.041634803463392E-008
  1.071402803549938E-007
  1.891784253665382E-007
  2.247788400074390E-007
  1.453267151635542E-007
  3.234451544166746E-007
  4.210272757893417E-007
  4.351777706633465E-007
  3.412101397098913E-007
  6.157518771188166E-007
  7.360190295798499E-007
  7.228956714532951E-007
  6.080518701140875E-007
  1.042219418960874E-006
  1.202153223958059E-006
  1.145708541558595E-006
  9.948606827033131E-007
  1.731557725037782E-006
  1.970619718439001E-006
  1.844854691518958E-006
  1.623608967962094E-006
  2.994140655776806E-006
  3.418989963339758E-006
  3.196486810488576E-006
  2.805430706444425E-006
  6.158963660590496E-006
  7.325905962744102E-006
  6.947034294732422E-006
  5.863292495709136E-006
  0.000000000000000E+000
  0.000000000000000E+000
  0.000000000000000E+000
  0.000000000000000E+000
  0.000000000000000E+000
  0.000000000000000E+000
  0.000000000000000E+000
  0.000000000000000E+000
  0.000000000000000E+000
  0.000000000000000E+000
  0.000000000000000E+000
  0.000000000000000E+000
  0.000000000000000E+000
  0.000000000000000E+000
  0.000000000000000E+000
  0.000000000000000E+000
  0.000000000000000E+000
  0.000000000000000E+000
  0.000000000000000E+000
  0.000000000000000E+000
  0.000000000000000E+000
  0.000000000000000E+000
  0.000000000000000E+000
  0.000000000000000E+000
  0.000000000000000E+000
  0.000000000000000E+000
  0.000000000000000E+000
  0.000000000000000E+000
  0.000000000000000E+000
  0.000000000000000E+000
  0.000000000000000E+000
  0.000000000000000E+000
  0.000000000000000E+000
  2.094395022111207E-008
  6.196659457359456E-008
  3.637995680574254E-009
  1.228251961957312E-007
  2.054303109226064E-007
  2.171956593762992E-007
  1.376374610254868E-007
  3.629975436030545E-007
  4.622627345162816E-007
  4.476636532983506E-007
  3.527948914585775E-007
  7.092710822652077E-007
  8.422251777432000E-007
  7.945352190174656E-007
  6.692724753114798E-007
  1.269830569360965E-006
  1.469655186082466E-006
  1.350127758953847E-006
  1.166597268545354E-006
  2.323220245409191E-006
  2.691725912009687E-006
  2.401069701641621E-006
  2.077586222464963E-006
  5.111775603059904E-006
  6.372995184631093E-006
  5.607015101297222E-006
  4.544722972590350E-006
  0.000000000000000E+000
  0.000000000000000E+000
  0.000000000000000E+000
  7.676421297992088E-010
  0.000000000000000E+000
  0.000000000000000E+000
  0.000000000000000E+000
  0.000000000000000E+000
  0.000000000000000E+000
  0.000000000000000E+000
  0.000000000000000E+000
  0.000000000000000E+000
  0.000000000000000E+000
  0.000000000000000E+000
  0.000000000000000E+000
  0.000000000000000E+000
  0.000000000000000E+000
  0.000000000000000E+000
  0.000000000000000E+000
  0.000000000000000E+000
  0.000000000000000E+000
  0.000000000000000E+000
  0.000000000000000E+000
  0.000000000000000E+000
  0.000000000000000E+000
  0.000000000000000E+000
  0.000000000000000E+000
  0.000000000000000E+000
  0.000000000000000E+000
  0.000000000000000E+000
  0.000000000000000E+000
  0.000000000000000E+000
  0.000000000000000E+000
  0.000000000000000E+000
  0.000000000000000E+000
  0.000000000000000E+000
  0.000000000000000E+000
  0.000000000000000E+000
  0.000000000000000E+000
  0.000000000000000E+000
  7.421314578685733E-008
  1.544802092455804E-007
  1.473755710319001E-007
  7.035614305375564E-008
  3.583183496143955E-007
  4.702673855203649E-007
  4.436513868841139E-007
  3.374966697243672E-007
  8.019573882455721E-007
  9.678717879137981E-007
  8.891059627888356E-007
  7.356746620907552E-007
  1.586766321111882E-006
  1.882207304279747E-006
  1.639366951472170E-006
  1.383419798128818E-006
  3.640720955470144E-006
  4.727007277453536E-006
  3.566938150639974E-006
  2.811855642902026E-006
  0.000000000000000E+000
   1.00000000000000     
  0.500000000000000     
SCALARS elementIsPlast double 
LOOKUP_TABLE default
  0.000000000000000E+000
  0.000000000000000E+000
  0.000000000000000E+000
  0.000000000000000E+000
  0.000000000000000E+000
  0.000000000000000E+000
  0.000000000000000E+000
  0.000000000000000E+000
  0.000000000000000E+000
  0.000000000000000E+000
  0.000000000000000E+000
  0.000000000000000E+000
  0.000000000000000E+000
  0.000000000000000E+000
  0.000000000000000E+000
  0.000000000000000E+000
  0.000000000000000E+000
  0.000000000000000E+000
  0.000000000000000E+000
  0.000000000000000E+000
  0.000000000000000E+000
  0.000000000000000E+000
  0.000000000000000E+000
  0.000000000000000E+000
  0.000000000000000E+000
  0.000000000000000E+000
  0.000000000000000E+000
  0.000000000000000E+000
  0.000000000000000E+000
  0.000000000000000E+000
  0.000000000000000E+000
  0.000000000000000E+000
  0.000000000000000E+000
  0.000000000000000E+000
  0.000000000000000E+000
  0.000000000000000E+000
  0.000000000000000E+000
  0.000000000000000E+000
  0.000000000000000E+000
  0.000000000000000E+000
  0.000000000000000E+000
  0.000000000000000E+000
  0.000000000000000E+000
  0.000000000000000E+000
  0.000000000000000E+000
  0.000000000000000E+000
  0.000000000000000E+000
  0.000000000000000E+000
  0.000000000000000E+000
  0.000000000000000E+000
  0.000000000000000E+000
  0.000000000000000E+000
  0.000000000000000E+000
  0.000000000000000E+000
  0.000000000000000E+000
  0.000000000000000E+000
  0.000000000000000E+000
  0.000000000000000E+000
  0.000000000000000E+000
  0.000000000000000E+000
  0.000000000000000E+000
  0.000000000000000E+000
  0.000000000000000E+000
  0.000000000000000E+000
  0.000000000000000E+000
  0.000000000000000E+000
  0.000000000000000E+000
  0.000000000000000E+000
  0.000000000000000E+000
  0.000000000000000E+000
  0.000000000000000E+000
  0.000000000000000E+000
  0.000000000000000E+000
  0.000000000000000E+000
  0.000000000000000E+000
  0.000000000000000E+000
  0.000000000000000E+000
  0.000000000000000E+000
  0.000000000000000E+000
  0.000000000000000E+000
  0.000000000000000E+000
  0.000000000000000E+000
  0.000000000000000E+000
  0.000000000000000E+000
  0.000000000000000E+000
  0.000000000000000E+000
  0.000000000000000E+000
  0.000000000000000E+000
  0.000000000000000E+000
  0.000000000000000E+000
  0.000000000000000E+000
  0.000000000000000E+000
  0.000000000000000E+000
  0.000000000000000E+000
  0.000000000000000E+000
  0.000000000000000E+000
  0.000000000000000E+000
  0.000000000000000E+000
  0.000000000000000E+000
  0.000000000000000E+000
  0.000000000000000E+000
  0.000000000000000E+000
  0.000000000000000E+000
  0.000000000000000E+000
  0.000000000000000E+000
  0.000000000000000E+000
  0.000000000000000E+000
  0.000000000000000E+000
  0.000000000000000E+000
  0.000000000000000E+000
  0.000000000000000E+000
  0.000000000000000E+000
  0.000000000000000E+000
  0.000000000000000E+000
  0.000000000000000E+000
  0.000000000000000E+000
  0.000000000000000E+000
  0.000000000000000E+000
  0.000000000000000E+000
  0.000000000000000E+000
  0.000000000000000E+000
  0.000000000000000E+000
  0.000000000000000E+000
  0.000000000000000E+000
  0.000000000000000E+000
  0.000000000000000E+000
  0.000000000000000E+000
  0.000000000000000E+000
  0.000000000000000E+000
  0.000000000000000E+000
  0.000000000000000E+000
  0.000000000000000E+000
  0.000000000000000E+000
  0.000000000000000E+000
  0.000000000000000E+000
  0.000000000000000E+000
  0.000000000000000E+000
  0.000000000000000E+000
  0.000000000000000E+000
  0.000000000000000E+000
  0.000000000000000E+000
  0.000000000000000E+000
  0.000000000000000E+000
  0.000000000000000E+000
  0.000000000000000E+000
  0.000000000000000E+000
  0.000000000000000E+000
  0.000000000000000E+000
  0.000000000000000E+000
  0.000000000000000E+000
  0.000000000000000E+000
  0.000000000000000E+000
  0.000000000000000E+000
  0.000000000000000E+000
  0.000000000000000E+000
  0.000000000000000E+000
  0.000000000000000E+000
  0.000000000000000E+000
  0.000000000000000E+000
  0.000000000000000E+000
  0.000000000000000E+000
  0.000000000000000E+000
  0.000000000000000E+000
  0.000000000000000E+000
  0.000000000000000E+000
  0.000000000000000E+000
  0.000000000000000E+000
  0.000000000000000E+000
  0.000000000000000E+000
  0.000000000000000E+000
  0.000000000000000E+000
  0.000000000000000E+000
  0.000000000000000E+000
  0.000000000000000E+000
  0.000000000000000E+000
  0.000000000000000E+000
  0.000000000000000E+000
  0.000000000000000E+000
  0.000000000000000E+000
  0.000000000000000E+000
  0.000000000000000E+000
  0.000000000000000E+000
  0.000000000000000E+000
  0.000000000000000E+000
  0.000000000000000E+000
  0.000000000000000E+000
  0.000000000000000E+000
  0.000000000000000E+000
  0.000000000000000E+000
  0.000000000000000E+000
  0.000000000000000E+000
  0.000000000000000E+000
  0.000000000000000E+000
  0.000000000000000E+000
  0.000000000000000E+000
  0.000000000000000E+000
  0.000000000000000E+000
  0.000000000000000E+000
  0.000000000000000E+000
  0.000000000000000E+000
  0.000000000000000E+000
  0.000000000000000E+000
  0.000000000000000E+000
  0.000000000000000E+000
  0.000000000000000E+000
  0.000000000000000E+000
  0.000000000000000E+000
  0.000000000000000E+000
  0.000000000000000E+000
  0.000000000000000E+000
  0.000000000000000E+000
  0.000000000000000E+000
  0.000000000000000E+000
  0.000000000000000E+000
  0.000000000000000E+000
  0.000000000000000E+000
  0.000000000000000E+000
  0.000000000000000E+000
  0.000000000000000E+000
  0.000000000000000E+000
  0.000000000000000E+000
  0.000000000000000E+000
  0.000000000000000E+000
  0.000000000000000E+000
  0.000000000000000E+000
  0.000000000000000E+000
  0.000000000000000E+000
  0.000000000000000E+000
  0.000000000000000E+000
  0.000000000000000E+000
  0.000000000000000E+000
  0.000000000000000E+000
  0.000000000000000E+000
  0.000000000000000E+000
  0.000000000000000E+000
  0.000000000000000E+000
  0.000000000000000E+000
  0.000000000000000E+000
  0.000000000000000E+000
  0.000000000000000E+000
  0.000000000000000E+000
  0.000000000000000E+000
  0.000000000000000E+000
  0.000000000000000E+000
  0.000000000000000E+000
  0.000000000000000E+000
  0.000000000000000E+000
  0.000000000000000E+000
  0.000000000000000E+000
  0.000000000000000E+000
  0.000000000000000E+000
  0.000000000000000E+000
  0.000000000000000E+000
  0.000000000000000E+000
  0.000000000000000E+000
  0.000000000000000E+000
  0.000000000000000E+000
  0.000000000000000E+000
  0.000000000000000E+000
  0.000000000000000E+000
  0.000000000000000E+000
  0.000000000000000E+000
  0.000000000000000E+000
  0.000000000000000E+000
  0.000000000000000E+000
  0.000000000000000E+000
  0.000000000000000E+000
  0.000000000000000E+000
  0.000000000000000E+000
  0.000000000000000E+000
  0.000000000000000E+000
  0.000000000000000E+000
  0.000000000000000E+000
  0.000000000000000E+000
  0.000000000000000E+000
  0.000000000000000E+000
  0.000000000000000E+000
  0.000000000000000E+000
  0.000000000000000E+000
  0.000000000000000E+000
  0.000000000000000E+000
  0.000000000000000E+000
  0.000000000000000E+000
  0.000000000000000E+000
  0.000000000000000E+000
  0.000000000000000E+000
  0.000000000000000E+000
  0.000000000000000E+000
  0.000000000000000E+000
  0.000000000000000E+000
  0.000000000000000E+000
  0.000000000000000E+000
  0.000000000000000E+000
  0.000000000000000E+000
  0.000000000000000E+000
  0.000000000000000E+000
  0.000000000000000E+000
  0.000000000000000E+000
  0.000000000000000E+000
  0.000000000000000E+000
  0.000000000000000E+000
  0.000000000000000E+000
  0.000000000000000E+000
  0.000000000000000E+000
  0.000000000000000E+000
  0.000000000000000E+000
  0.000000000000000E+000
  0.000000000000000E+000
  0.000000000000000E+000
  0.000000000000000E+000
  0.000000000000000E+000
  0.000000000000000E+000
  0.000000000000000E+000
  0.000000000000000E+000
  0.000000000000000E+000
  0.000000000000000E+000
  0.000000000000000E+000
  0.000000000000000E+000
  0.000000000000000E+000
  0.000000000000000E+000
  0.000000000000000E+000
  0.000000000000000E+000
  0.000000000000000E+000
  0.000000000000000E+000
  0.000000000000000E+000
  0.000000000000000E+000
  0.000000000000000E+000
  0.000000000000000E+000
  0.000000000000000E+000
  0.000000000000000E+000
  0.000000000000000E+000
  0.000000000000000E+000
  0.000000000000000E+000
  0.000000000000000E+000
  0.000000000000000E+000
  0.000000000000000E+000
  0.000000000000000E+000
  0.000000000000000E+000
  0.000000000000000E+000
  0.000000000000000E+000
  0.000000000000000E+000
  0.000000000000000E+000
  0.000000000000000E+000
  0.000000000000000E+000
  0.000000000000000E+000
  0.000000000000000E+000
  0.000000000000000E+000
  0.000000000000000E+000
  0.000000000000000E+000
  0.000000000000000E+000
  0.000000000000000E+000
  0.000000000000000E+000
  0.000000000000000E+000
  0.000000000000000E+000
  0.000000000000000E+000
  0.000000000000000E+000
  0.000000000000000E+000
  0.000000000000000E+000
  0.000000000000000E+000
  0.000000000000000E+000
  0.000000000000000E+000
  0.000000000000000E+000
  0.000000000000000E+000
  0.000000000000000E+000
  0.000000000000000E+000
  0.000000000000000E+000
  0.000000000000000E+000
  0.000000000000000E+000
  0.000000000000000E+000
  0.000000000000000E+000
  0.000000000000000E+000
  0.000000000000000E+000
  0.000000000000000E+000
  0.000000000000000E+000
  0.000000000000000E+000
  0.000000000000000E+000
  0.000000000000000E+000
  0.000000000000000E+000
  0.000000000000000E+000
  0.000000000000000E+000
  0.000000000000000E+000
  0.000000000000000E+000
  0.000000000000000E+000
  0.000000000000000E+000
  0.000000000000000E+000
  0.000000000000000E+000
  0.000000000000000E+000
  0.000000000000000E+000
  0.000000000000000E+000
  0.000000000000000E+000
  0.000000000000000E+000
  0.000000000000000E+000
  0.000000000000000E+000
  0.000000000000000E+000
  0.000000000000000E+000
  0.000000000000000E+000
  0.000000000000000E+000
  0.000000000000000E+000
  0.000000000000000E+000
  0.000000000000000E+000
  0.000000000000000E+000
  0.000000000000000E+000
  0.000000000000000E+000
  0.000000000000000E+000
  0.000000000000000E+000
  0.000000000000000E+000
  0.000000000000000E+000
  0.000000000000000E+000
  0.000000000000000E+000
  0.000000000000000E+000
  0.000000000000000E+000
  0.000000000000000E+000
  0.000000000000000E+000
  0.000000000000000E+000
  0.000000000000000E+000
  0.000000000000000E+000
  0.000000000000000E+000
  0.000000000000000E+000
  0.000000000000000E+000
  0.000000000000000E+000
  0.000000000000000E+000
  0.000000000000000E+000
  0.000000000000000E+000
  0.000000000000000E+000
  0.000000000000000E+000
  0.000000000000000E+000
  0.000000000000000E+000
  0.000000000000000E+000
  0.000000000000000E+000
  0.000000000000000E+000
  0.000000000000000E+000
  0.000000000000000E+000
  0.000000000000000E+000
  0.000000000000000E+000
  0.000000000000000E+000
  0.000000000000000E+000
  0.000000000000000E+000
  0.000000000000000E+000
  0.000000000000000E+000
  0.000000000000000E+000
  0.000000000000000E+000
  0.000000000000000E+000
  0.000000000000000E+000
  0.000000000000000E+000
  0.000000000000000E+000
  0.000000000000000E+000
  0.000000000000000E+000
  0.000000000000000E+000
  0.000000000000000E+000
  0.000000000000000E+000
SCALARS poroL double 
LOOKUP_TABLE default
  0.155937936114444     
  0.155935069845269     
  0.155932368326059     
  0.155929826109864     
  0.155927437248266     
  0.155925195424505     
  0.155923094082021     
  0.155921126545920     
  0.155919286135211     
  0.155917566263988     
  0.155915960529982     
  0.155914462789092     
  0.155913067214713     
  0.155911768340772     
  0.155910561087580     
  0.155937452841186     
  0.155934597334387     
  0.155931906892423     
  0.155929375938910     
  0.155926998400106     
  0.155924767840479     
  0.155922677593299     
  0.155920720883796     
  0.155918890942819     
  0.155917181109218     
  0.155915584919433     
  0.155914096182941     
  0.155912709042409     
  0.155911418017481     
  0.155910218031274     
  0.155936486652267     
  0.155933652807974     
  0.155930984653218     
  0.155928476350435     
  0.155926121573349     
  0.155923913647380     
  0.155921845684246     
  0.155919910708463     
  0.155918101773769     
  0.155916412067849     
  0.155914835003938     
  0.155913364298083     
  0.155911994030933     
  0.155910718693028     
  0.155909533212634     
  0.155935038275091     
  0.155932237270518     
  0.155929602879546     
  0.155927128867101     
  0.155924808523456     
  0.155922634811742     
  0.155920600508416     
  0.155918698334580     
  0.155916921076390     
  0.155915261693126     
  0.155913713411711     
  0.155912269806588     
  0.155910924863947     
  0.155909673029300     
  0.155908509237405     
  0.155933108831434     
  0.155930352263364     
  0.155927763515589     
  0.155925335812447     
  0.155923061924434     
  0.155920934324889     
  0.155918945337971     
  0.155917087276056     
  0.155915352565116     
  0.155913733856958     
  0.155912224127362     
  0.155910816759284     
  0.155909505610264     
  0.155908285063094     
  0.155907150058730     
  0.155930699874719     
  0.155927999906653     
  0.155925469223944     
  0.155923100358516     
  0.155920885417835     
  0.155918816252601     
  0.155916884613546     
  0.155915082295862     
  0.155913401270222     
  0.155911833799691     
  0.155910372541960     
  0.155909010636403     
  0.155907741775325     
  0.155906560258590     
  0.155905461030529     
  0.155927813440580     
  0.155925182955986     
  0.155922723446634     
  0.155920426589671     
  0.155918283678132     
  0.155916285801090     
  0.155914424010200     
  0.155912689471660     
  0.155911073603114     
  0.155909568195315     
  0.155908165518586     
  0.155906858413985     
  0.155905640368947     
  0.155904505576733     
  0.155903448978582     
  0.155924452111570     
  0.155921904874565     
  0.155919530482359     
  0.155917319582965     
  0.155915262494560     
  0.155913349399091     
  0.155911570518964     
  0.155909916276472     
  0.155908377436199     
  0.155906945230984     
  0.155905611472200     
  0.155904368644943     
  0.155903209988384     
  0.155902129560932     
  0.155901122289099     
  0.155920619097296     
  0.155918169921885     
  0.155915895580829     
  0.155913785505578     
  0.155911828869599     
  0.155910014795859     
  0.155908332543399     
  0.155906771673423     
  0.155905322196046     
  0.155903974699310     
  0.155902720462195     
  0.155901551553186     
  0.155900460915361     
  0.155899442438093     
  0.155898491014372     
  0.155916318331708     
  0.155913983260456     
  0.155911825055327     
  0.155909831730113     
  0.155907991134436     
  0.155906291174889     
  0.155904720010414     
  0.155903266223302     
  0.155901918968100     
  0.155900668101362     
  0.155899504295358     
  0.155898419138582     
  0.155897405225100     
  0.155896456233515     
  0.155895566994779     
  0.155911554589814     
  0.155909351082536     
  0.155907326415123     
  0.155905466968874     
  0.155903759081956     
  0.155902189283250     
  0.155900744494516     
  0.155899412203352     
  0.155898180610699     
  0.155897038757600     
  0.155895976636199     
  0.155894985289656     
  0.155894056904533     
  0.155893184897483     
  0.155892363995873     
  0.155906333626724     
  0.155904280759407     
  0.155902408519865     
  0.155900701428754     
  0.155899144118179     
  0.155897721576582     
  0.155896419354566     
  0.155895223735352     
  0.155894121875521     
  0.155893101923079     
  0.155892153120473     
  0.155891265899771     
  0.155890431975749     
  0.155889644440309     
  0.155888897858514     
  0.155900662342510     
  0.155898781016429     
  0.155897081758826     
  0.155895546989039     
  0.155894159433646     
  0.155892902380156     
  0.155891759882106     
  0.155890716920656     
  0.155889759530756     
  0.155888874902126     
  0.155888051466361     
  0.155887278980954     
  0.155886548619133     
  0.155885853071206     
  0.155885186658848     
  0.155894548976935     
  0.155892862137845     
  0.155891358258837     
  0.155890017405478     
  0.155888820197135     
  0.155887748066950     
  0.155886783460446     
  0.155885909979412     
  0.155885112482340     
  0.155884377156176     
  0.155883691575843     
  0.155883044767439     
  0.155882427288509     
  0.155881831334313     
  0.155881250873287     
  0.155888003338451     
  0.155886536206254     
  0.155885252126101     
  0.155884128545521     
  0.155883143775537     
  0.155882277254731     
  0.155881509734041     
  0.155880823390733     
  0.155880201887295     
  0.155879630396486     
  0.155879095616301     
  0.155878585798118     
  0.155878090807672     
  0.155877602232463     
  0.155877113541264     
  0.155881037072016     
  0.155879817382866     
  0.155878779729162     
  0.155877898662092     
  0.155877149986030     
  0.155876511025786     
  0.155875960788373     
  0.155875480030146     
  0.155875051251648     
  0.155874658650828     
  0.155874288069021     
  0.155873926963305     
  0.155873564433748     
  0.155873191325564     
  0.155872800415359     
  0.155873663969990     
  0.155872722236420     
  0.155871960033551     
  0.155871348717163     
  0.155870861390347     
  0.155870473175609     
  0.155870161341741     
  0.155869905300146     
  0.155869686503254     
  0.155869488289782     
  0.155869295726696     
  0.155869095496063     
  0.155868875867553     
  0.155868626785441     
  0.155868340083951     
  0.155865900329817     
  0.155865270131623     
  0.155864815004062     
  0.155864502772796     
  0.155864303646778     
  0.155864190501039     
  0.155864138952249     
  0.155864127249103     
  0.155864136027015     
  0.155864147993438     
  0.155864147615929     
  0.155864120881419     
  0.155864055184060     
  0.155863939382391     
  0.155863764045880     
  0.155857765361586     
  0.155857483693355     
  0.155857370099920     
  0.155857388477746     
  0.155857505944694     
  0.155857693144559     
  0.155857924245912     
  0.155858176672850     
  0.155858430645921     
  0.155858668632796     
  0.155858874812305     
  0.155859034647454     
  0.155859134646683     
  0.155859162370097     
  0.155859106709280     
  0.155849281648875     
  0.155849389373320     
  0.155849654904316     
  0.155850037694868     
  0.155850501560426     
  0.155851015020291     
  0.155851551175004     
  0.155852087191551     
  0.155852603525581     
  0.155853083031149     
  0.155853510104257     
  0.155853869989452     
  0.155854148356292     
  0.155854331224236     
  0.155854405277908     
  0.155840475669716     
  0.155841018166111     
  0.155841703958668     
  0.155842487342761     
  0.155843328594326     
  0.155844194358608     
  0.155845057318479     
  0.155845895290731     
  0.155846689971628     
  0.155847425558716     
  0.155848087446519     
  0.155848661160648     
  0.155849131668124     
  0.155849483175015     
  0.155849699477843     
  0.155831378395961     
  0.155832406562238     
  0.155833557924209     
  0.155834780571330     
  0.155836030978536     
  0.155837274418182     
  0.155838484235466     
  0.155839640307736     
  0.155840727078282     
  0.155841731498877     
  0.155842641124039     
  0.155843442538088     
  0.155844120283507     
  0.155844656452162     
  0.155845031065408     
  0.155822026019218     
  0.155823597908119     
  0.155825265290212     
  0.155826968466517     
  0.155828659882649     
  0.155830304418999     
  0.155831877870572     
  0.155833364330110     
  0.155834753173462     
  0.155836036109938     
  0.155837204522751     
  0.155838247236396     
  0.155839148880692     
  0.155839889126291     
  0.155840443041978     
  0.155812460925434     
  0.155814644516071     
  0.155816885034109     
  0.155819112600282     
  0.155821275679003     
  0.155823340724977     
  0.155825288969084     
  0.155827111945750     
  0.155828806999752     
  0.155830373301095     
  0.155831808383129     
  0.155833105085608     
  0.155834249076592     
  0.155835217362553     
  0.155835978479513     
  0.155802733211919     
  0.155805611261654     
  0.155808491004379     
  0.155811288924446     
  0.155813950614543     
  0.155816448191588     
  0.155818773358879     
  0.155820929747000     
  0.155822926586043     
  0.155824773886553     
  0.155826478398020     
  0.155828039723174     
  0.155829446347670     
  0.155830672773894     
  0.155831678801790     
  0.155792903547067     
  0.155796582326061     
  0.155800179573357     
  0.155803593707812     
  0.155806772103362     
  0.155809701279898     
  0.155812391743945     
  0.155814865450649     
  0.155817147873933     
  0.155819263487127     
  0.155821232162090     
  0.155823064352583     
  0.155824755321309     
  0.155826278129254     
  0.155827581288317     
  0.155783049386700     
  0.155787675518022     
  0.155792083570904     
  0.155796152054889     
  0.155799845683903     
  0.155803183739682     
  0.155806208445638     
  0.155808966489871     
  0.155811503288350     
  0.155813860720738     
  0.155816075506262     
  0.155818176147033     
  0.155820171568515     
  0.155822040291938     
  0.155823714796532     
  0.155773283971794     
  0.155779075437733     
  0.155784398310644     
  0.155789127244833     
  0.155793293210941     
  0.155796985305791     
  0.155800288396017     
  0.155803277999434     
  0.155806020673371     
  0.155808576452936     
  0.155811001181791     
  0.155813346979933     
  0.155815660113073     
  0.155817932888110     
  0.155820093759858     
  0.155763814784171     
  0.155771130482355     
  0.155777421317767     
  0.155782709578743     
  0.155787242922683     
  0.155791193673845     
  0.155794692139794     
  0.155797840289475     
  0.155800722902901     
  0.155803415489159     
  0.155805991059013     
  0.155808527591660     
  0.155811114482910     
  0.155813876634174     
  0.155816687505012     
  0.155755384203181     
  0.155764575179604     
  0.155771474595619     
  0.155777084468835     
  0.155781807510557     
  0.155785882583050     
  0.155789469374909     
  0.155792686140057     
  0.155795628328872     
  0.155798380430547     
  0.155801025926843     
  0.155803659244952     
  0.155806407939207     
  0.155809478777073     
  0.155813469159120     
