# vtk DataFile Version 3.0
vtk output
ASCII
DATASET UNSTRUCTURED_GRID
POINTS       496 double 
  0.00000000E+00  3.00000000E+02  0.00000000E+00
  0.00000000E+00  2.80000000E+02  0.00000000E+00
  0.00000000E+00  2.60000000E+02  0.00000000E+00
  0.00000000E+00  2.40000000E+02  0.00000000E+00
  0.00000000E+00  2.20000000E+02  0.00000000E+00
  0.00000000E+00  2.00000000E+02  0.00000000E+00
  0.00000000E+00  1.80000000E+02  0.00000000E+00
  0.00000000E+00  1.60000000E+02  0.00000000E+00
  0.00000000E+00  1.40000000E+02  0.00000000E+00
  0.00000000E+00  1.20000000E+02  0.00000000E+00
  0.00000000E+00  1.00000000E+02  0.00000000E+00
  0.00000000E+00  8.00000000E+01  0.00000000E+00
  0.00000000E+00  6.00000000E+01  0.00000000E+00
  0.00000000E+00  4.00000000E+01  0.00000000E+00
  0.00000000E+00  2.00000000E+01  0.00000000E+00
  0.00000000E+00  4.99600361E-14  0.00000000E+00
  2.00000000E+01  3.00000000E+02  0.00000000E+00
  2.00000000E+01  2.80000000E+02  0.00000000E+00
  2.00000000E+01  2.60000000E+02  0.00000000E+00
  2.00000000E+01  2.40000000E+02  0.00000000E+00
  2.00000000E+01  2.20000000E+02  0.00000000E+00
  2.00000000E+01  2.00000000E+02  0.00000000E+00
  2.00000000E+01  1.80000000E+02  0.00000000E+00
  2.00000000E+01  1.60000000E+02  0.00000000E+00
  2.00000000E+01  1.40000000E+02  0.00000000E+00
  2.00000000E+01  1.20000000E+02  0.00000000E+00
  2.00000000E+01  1.00000000E+02  0.00000000E+00
  2.00000000E+01  8.00000000E+01  0.00000000E+00
  2.00000000E+01  6.00000000E+01  0.00000000E+00
  2.00000000E+01  4.00000000E+01  0.00000000E+00
  2.00000000E+01  2.00000000E+01  0.00000000E+00
  2.00000000E+01  4.99600361E-14  0.00000000E+00
  4.00000000E+01  3.00000000E+02  0.00000000E+00
  4.00000000E+01  2.80000000E+02  0.00000000E+00
  4.00000000E+01  2.60000000E+02  0.00000000E+00
  4.00000000E+01  2.40000000E+02  0.00000000E+00
  4.00000000E+01  2.20000000E+02  0.00000000E+00
  4.00000000E+01  2.00000000E+02  0.00000000E+00
  4.00000000E+01  1.80000000E+02  0.00000000E+00
  4.00000000E+01  1.60000000E+02  0.00000000E+00
  4.00000000E+01  1.40000000E+02  0.00000000E+00
  4.00000000E+01  1.20000000E+02  0.00000000E+00
  4.00000000E+01  1.00000000E+02  0.00000000E+00
  4.00000000E+01  8.00000000E+01  0.00000000E+00
  4.00000000E+01  6.00000000E+01  0.00000000E+00
  4.00000000E+01  4.00000000E+01  0.00000000E+00
  4.00000000E+01  2.00000000E+01  0.00000000E+00
  4.00000000E+01  4.99600361E-14  0.00000000E+00
  6.00000000E+01  3.00000000E+02  0.00000000E+00
  6.00000000E+01  2.80000000E+02  0.00000000E+00
  6.00000000E+01  2.60000000E+02  0.00000000E+00
  6.00000000E+01  2.40000000E+02  0.00000000E+00
  6.00000000E+01  2.20000000E+02  0.00000000E+00
  6.00000000E+01  2.00000000E+02  0.00000000E+00
  6.00000000E+01  1.80000000E+02  0.00000000E+00
  6.00000000E+01  1.60000000E+02  0.00000000E+00
  6.00000000E+01  1.40000000E+02  0.00000000E+00
  6.00000000E+01  1.20000000E+02  0.00000000E+00
  6.00000000E+01  1.00000000E+02  0.00000000E+00
  6.00000000E+01  8.00000000E+01  0.00000000E+00
  6.00000000E+01  6.00000000E+01  0.00000000E+00
  6.00000000E+01  4.00000000E+01  0.00000000E+00
  6.00000000E+01  2.00000000E+01  0.00000000E+00
  6.00000000E+01  4.99600361E-14  0.00000000E+00
  8.00000000E+01  3.00000000E+02  0.00000000E+00
  8.00000000E+01  2.80000000E+02  0.00000000E+00
  8.00000000E+01  2.60000000E+02  0.00000000E+00
  8.00000000E+01  2.40000000E+02  0.00000000E+00
  8.00000000E+01  2.20000000E+02  0.00000000E+00
  8.00000000E+01  2.00000000E+02  0.00000000E+00
  8.00000000E+01  1.80000000E+02  0.00000000E+00
  8.00000000E+01  1.60000000E+02  0.00000000E+00
  8.00000000E+01  1.40000000E+02  0.00000000E+00
  8.00000000E+01  1.20000000E+02  0.00000000E+00
  8.00000000E+01  1.00000000E+02  0.00000000E+00
  8.00000000E+01  8.00000000E+01  0.00000000E+00
  8.00000000E+01  6.00000000E+01  0.00000000E+00
  8.00000000E+01  4.00000000E+01  0.00000000E+00
  8.00000000E+01  2.00000000E+01  0.00000000E+00
  8.00000000E+01  4.99600361E-14  0.00000000E+00
  1.00000000E+02  3.00000000E+02  0.00000000E+00
  1.00000000E+02  2.80000000E+02  0.00000000E+00
  1.00000000E+02  2.60000000E+02  0.00000000E+00
  1.00000000E+02  2.40000000E+02  0.00000000E+00
  1.00000000E+02  2.20000000E+02  0.00000000E+00
  1.00000000E+02  2.00000000E+02  0.00000000E+00
  1.00000000E+02  1.80000000E+02  0.00000000E+00
  1.00000000E+02  1.60000000E+02  0.00000000E+00
  1.00000000E+02  1.40000000E+02  0.00000000E+00
  1.00000000E+02  1.20000000E+02  0.00000000E+00
  1.00000000E+02  1.00000000E+02  0.00000000E+00
  1.00000000E+02  8.00000000E+01  0.00000000E+00
  1.00000000E+02  6.00000000E+01  0.00000000E+00
  1.00000000E+02  4.00000000E+01  0.00000000E+00
  1.00000000E+02  2.00000000E+01  0.00000000E+00
  1.00000000E+02  4.99600361E-14  0.00000000E+00
  1.20000000E+02  3.00000000E+02  0.00000000E+00
  1.20000000E+02  2.80000000E+02  0.00000000E+00
  1.20000000E+02  2.60000000E+02  0.00000000E+00
  1.20000000E+02  2.40000000E+02  0.00000000E+00
  1.20000000E+02  2.20000000E+02  0.00000000E+00
  1.20000000E+02  2.00000000E+02  0.00000000E+00
  1.20000000E+02  1.80000000E+02  0.00000000E+00
  1.20000000E+02  1.60000000E+02  0.00000000E+00
  1.20000000E+02  1.40000000E+02  0.00000000E+00
  1.20000000E+02  1.20000000E+02  0.00000000E+00
  1.20000000E+02  1.00000000E+02  0.00000000E+00
  1.20000000E+02  8.00000000E+01  0.00000000E+00
  1.20000000E+02  6.00000000E+01  0.00000000E+00
  1.20000000E+02  4.00000000E+01  0.00000000E+00
  1.20000000E+02  2.00000000E+01  0.00000000E+00
  1.20000000E+02  4.99600361E-14  0.00000000E+00
  1.40000000E+02  3.00000000E+02  0.00000000E+00
  1.40000000E+02  2.80000000E+02  0.00000000E+00
  1.40000000E+02  2.60000000E+02  0.00000000E+00
  1.40000000E+02  2.40000000E+02  0.00000000E+00
  1.40000000E+02  2.20000000E+02  0.00000000E+00
  1.40000000E+02  2.00000000E+02  0.00000000E+00
  1.40000000E+02  1.80000000E+02  0.00000000E+00
  1.40000000E+02  1.60000000E+02  0.00000000E+00
  1.40000000E+02  1.40000000E+02  0.00000000E+00
  1.40000000E+02  1.20000000E+02  0.00000000E+00
  1.40000000E+02  1.00000000E+02  0.00000000E+00
  1.40000000E+02  8.00000000E+01  0.00000000E+00
  1.40000000E+02  6.00000000E+01  0.00000000E+00
  1.40000000E+02  4.00000000E+01  0.00000000E+00
  1.40000000E+02  2.00000000E+01  0.00000000E+00
  1.40000000E+02  4.99600361E-14  0.00000000E+00
  1.60000000E+02  3.00000000E+02  0.00000000E+00
  1.60000000E+02  2.80000000E+02  0.00000000E+00
  1.60000000E+02  2.60000000E+02  0.00000000E+00
  1.60000000E+02  2.40000000E+02  0.00000000E+00
  1.60000000E+02  2.20000000E+02  0.00000000E+00
  1.60000000E+02  2.00000000E+02  0.00000000E+00
  1.60000000E+02  1.80000000E+02  0.00000000E+00
  1.60000000E+02  1.60000000E+02  0.00000000E+00
  1.60000000E+02  1.40000000E+02  0.00000000E+00
  1.60000000E+02  1.20000000E+02  0.00000000E+00
  1.60000000E+02  1.00000000E+02  0.00000000E+00
  1.60000000E+02  8.00000000E+01  0.00000000E+00
  1.60000000E+02  6.00000000E+01  0.00000000E+00
  1.60000000E+02  4.00000000E+01  0.00000000E+00
  1.60000000E+02  2.00000000E+01  0.00000000E+00
  1.60000000E+02  4.99600361E-14  0.00000000E+00
  1.80000000E+02  3.00000000E+02  0.00000000E+00
  1.80000000E+02  2.80000000E+02  0.00000000E+00
  1.80000000E+02  2.60000000E+02  0.00000000E+00
  1.80000000E+02  2.40000000E+02  0.00000000E+00
  1.80000000E+02  2.20000000E+02  0.00000000E+00
  1.80000000E+02  2.00000000E+02  0.00000000E+00
  1.80000000E+02  1.80000000E+02  0.00000000E+00
  1.80000000E+02  1.60000000E+02  0.00000000E+00
  1.80000000E+02  1.40000000E+02  0.00000000E+00
  1.80000000E+02  1.20000000E+02  0.00000000E+00
  1.80000000E+02  1.00000000E+02  0.00000000E+00
  1.80000000E+02  8.00000000E+01  0.00000000E+00
  1.80000000E+02  6.00000000E+01  0.00000000E+00
  1.80000000E+02  4.00000000E+01  0.00000000E+00
  1.80000000E+02  2.00000000E+01  0.00000000E+00
  1.80000000E+02  4.99600361E-14  0.00000000E+00
  2.00000000E+02  3.00000000E+02  0.00000000E+00
  2.00000000E+02  2.80000000E+02  0.00000000E+00
  2.00000000E+02  2.60000000E+02  0.00000000E+00
  2.00000000E+02  2.40000000E+02  0.00000000E+00
  2.00000000E+02  2.20000000E+02  0.00000000E+00
  2.00000000E+02  2.00000000E+02  0.00000000E+00
  2.00000000E+02  1.80000000E+02  0.00000000E+00
  2.00000000E+02  1.60000000E+02  0.00000000E+00
  2.00000000E+02  1.40000000E+02  0.00000000E+00
  2.00000000E+02  1.20000000E+02  0.00000000E+00
  2.00000000E+02  1.00000000E+02  0.00000000E+00
  2.00000000E+02  8.00000000E+01  0.00000000E+00
  2.00000000E+02  6.00000000E+01  0.00000000E+00
  2.00000000E+02  4.00000000E+01  0.00000000E+00
  2.00000000E+02  2.00000000E+01  0.00000000E+00
  2.00000000E+02  4.99600361E-14  0.00000000E+00
  2.20000000E+02  3.00000000E+02  0.00000000E+00
  2.20000000E+02  2.80000000E+02  0.00000000E+00
  2.20000000E+02  2.60000000E+02  0.00000000E+00
  2.20000000E+02  2.40000000E+02  0.00000000E+00
  2.20000000E+02  2.20000000E+02  0.00000000E+00
  2.20000000E+02  2.00000000E+02  0.00000000E+00
  2.20000000E+02  1.80000000E+02  0.00000000E+00
  2.20000000E+02  1.60000000E+02  0.00000000E+00
  2.20000000E+02  1.40000000E+02  0.00000000E+00
  2.20000000E+02  1.20000000E+02  0.00000000E+00
  2.20000000E+02  1.00000000E+02  0.00000000E+00
  2.20000000E+02  8.00000000E+01  0.00000000E+00
  2.20000000E+02  6.00000000E+01  0.00000000E+00
  2.20000000E+02  4.00000000E+01  0.00000000E+00
  2.20000000E+02  2.00000000E+01  0.00000000E+00
  2.20000000E+02  4.99600361E-14  0.00000000E+00
  2.40000000E+02  3.00000000E+02  0.00000000E+00
  2.40000000E+02  2.80000000E+02  0.00000000E+00
  2.40000000E+02  2.60000000E+02  0.00000000E+00
  2.40000000E+02  2.40000000E+02  0.00000000E+00
  2.40000000E+02  2.20000000E+02  0.00000000E+00
  2.40000000E+02  2.00000000E+02  0.00000000E+00
  2.40000000E+02  1.80000000E+02  0.00000000E+00
  2.40000000E+02  1.60000000E+02  0.00000000E+00
  2.40000000E+02  1.40000000E+02  0.00000000E+00
  2.40000000E+02  1.20000000E+02  0.00000000E+00
  2.40000000E+02  1.00000000E+02  0.00000000E+00
  2.40000000E+02  8.00000000E+01  0.00000000E+00
  2.40000000E+02  6.00000000E+01  0.00000000E+00
  2.40000000E+02  4.00000000E+01  0.00000000E+00
  2.40000000E+02  2.00000000E+01  0.00000000E+00
  2.40000000E+02  4.99600361E-14  0.00000000E+00
  2.60000000E+02  3.00000000E+02  0.00000000E+00
  2.60000000E+02  2.80000000E+02  0.00000000E+00
  2.60000000E+02  2.60000000E+02  0.00000000E+00
  2.60000000E+02  2.40000000E+02  0.00000000E+00
  2.60000000E+02  2.20000000E+02  0.00000000E+00
  2.60000000E+02  2.00000000E+02  0.00000000E+00
  2.60000000E+02  1.80000000E+02  0.00000000E+00
  2.60000000E+02  1.60000000E+02  0.00000000E+00
  2.60000000E+02  1.40000000E+02  0.00000000E+00
  2.60000000E+02  1.20000000E+02  0.00000000E+00
  2.60000000E+02  1.00000000E+02  0.00000000E+00
  2.60000000E+02  8.00000000E+01  0.00000000E+00
  2.60000000E+02  6.00000000E+01  0.00000000E+00
  2.60000000E+02  4.00000000E+01  0.00000000E+00
  2.60000000E+02  2.00000000E+01  0.00000000E+00
  2.60000000E+02  4.99600361E-14  0.00000000E+00
  2.80000000E+02  3.00000000E+02  0.00000000E+00
  2.80000000E+02  2.80000000E+02  0.00000000E+00
  2.80000000E+02  2.60000000E+02  0.00000000E+00
  2.80000000E+02  2.40000000E+02  0.00000000E+00
  2.80000000E+02  2.20000000E+02  0.00000000E+00
  2.80000000E+02  2.00000000E+02  0.00000000E+00
  2.80000000E+02  1.80000000E+02  0.00000000E+00
  2.80000000E+02  1.60000000E+02  0.00000000E+00
  2.80000000E+02  1.40000000E+02  0.00000000E+00
  2.80000000E+02  1.20000000E+02  0.00000000E+00
  2.80000000E+02  1.00000000E+02  0.00000000E+00
  2.80000000E+02  8.00000000E+01  0.00000000E+00
  2.80000000E+02  6.00000000E+01  0.00000000E+00
  2.80000000E+02  4.00000000E+01  0.00000000E+00
  2.80000000E+02  2.00000000E+01  0.00000000E+00
  2.80000000E+02  4.99600361E-14  0.00000000E+00
  3.00000000E+02  3.00000000E+02  0.00000000E+00
  3.00000000E+02  2.80000000E+02  0.00000000E+00
  3.00000000E+02  2.60000000E+02  0.00000000E+00
  3.00000000E+02  2.40000000E+02  0.00000000E+00
  3.00000000E+02  2.20000000E+02  0.00000000E+00
  3.00000000E+02  2.00000000E+02  0.00000000E+00
  3.00000000E+02  1.80000000E+02  0.00000000E+00
  3.00000000E+02  1.60000000E+02  0.00000000E+00
  3.00000000E+02  1.40000000E+02  0.00000000E+00
  3.00000000E+02  1.20000000E+02  0.00000000E+00
  3.00000000E+02  1.00000000E+02  0.00000000E+00
  3.00000000E+02  8.00000000E+01  0.00000000E+00
  3.00000000E+02  6.00000000E+01  0.00000000E+00
  3.00000000E+02  4.00000000E+01  0.00000000E+00
  3.00000000E+02  2.00000000E+01  0.00000000E+00
  3.00000000E+02  4.99600361E-14  0.00000000E+00
  3.20000000E+02  3.00000000E+02  0.00000000E+00
  3.20000000E+02  2.80000000E+02  0.00000000E+00
  3.20000000E+02  2.60000000E+02  0.00000000E+00
  3.20000000E+02  2.40000000E+02  0.00000000E+00
  3.20000000E+02  2.20000000E+02  0.00000000E+00
  3.20000000E+02  2.00000000E+02  0.00000000E+00
  3.20000000E+02  1.80000000E+02  0.00000000E+00
  3.20000000E+02  1.60000000E+02  0.00000000E+00
  3.20000000E+02  1.40000000E+02  0.00000000E+00
  3.20000000E+02  1.20000000E+02  0.00000000E+00
  3.20000000E+02  1.00000000E+02  0.00000000E+00
  3.20000000E+02  8.00000000E+01  0.00000000E+00
  3.20000000E+02  6.00000000E+01  0.00000000E+00
  3.20000000E+02  4.00000000E+01  0.00000000E+00
  3.20000000E+02  2.00000000E+01  0.00000000E+00
  3.20000000E+02  4.99600361E-14  0.00000000E+00
  3.40000000E+02  3.00000000E+02  0.00000000E+00
  3.40000000E+02  2.80000000E+02  0.00000000E+00
  3.40000000E+02  2.60000000E+02  0.00000000E+00
  3.40000000E+02  2.40000000E+02  0.00000000E+00
  3.40000000E+02  2.20000000E+02  0.00000000E+00
  3.40000000E+02  2.00000000E+02  0.00000000E+00
  3.40000000E+02  1.80000000E+02  0.00000000E+00
  3.40000000E+02  1.60000000E+02  0.00000000E+00
  3.40000000E+02  1.40000000E+02  0.00000000E+00
  3.40000000E+02  1.20000000E+02  0.00000000E+00
  3.40000000E+02  1.00000000E+02  0.00000000E+00
  3.40000000E+02  8.00000000E+01  0.00000000E+00
  3.40000000E+02  6.00000000E+01  0.00000000E+00
  3.40000000E+02  4.00000000E+01  0.00000000E+00
  3.40000000E+02  2.00000000E+01  0.00000000E+00
  3.40000000E+02  4.99600361E-14  0.00000000E+00
  3.60000000E+02  3.00000000E+02  0.00000000E+00
  3.60000000E+02  2.80000000E+02  0.00000000E+00
  3.60000000E+02  2.60000000E+02  0.00000000E+00
  3.60000000E+02  2.40000000E+02  0.00000000E+00
  3.60000000E+02  2.20000000E+02  0.00000000E+00
  3.60000000E+02  2.00000000E+02  0.00000000E+00
  3.60000000E+02  1.80000000E+02  0.00000000E+00
  3.60000000E+02  1.60000000E+02  0.00000000E+00
  3.60000000E+02  1.40000000E+02  0.00000000E+00
  3.60000000E+02  1.20000000E+02  0.00000000E+00
  3.60000000E+02  1.00000000E+02  0.00000000E+00
  3.60000000E+02  8.00000000E+01  0.00000000E+00
  3.60000000E+02  6.00000000E+01  0.00000000E+00
  3.60000000E+02  4.00000000E+01  0.00000000E+00
  3.60000000E+02  2.00000000E+01  0.00000000E+00
  3.60000000E+02  4.99600361E-14  0.00000000E+00
  3.80000000E+02  3.00000000E+02  0.00000000E+00
  3.80000000E+02  2.80000000E+02  0.00000000E+00
  3.80000000E+02  2.60000000E+02  0.00000000E+00
  3.80000000E+02  2.40000000E+02  0.00000000E+00
  3.80000000E+02  2.20000000E+02  0.00000000E+00
  3.80000000E+02  2.00000000E+02  0.00000000E+00
  3.80000000E+02  1.80000000E+02  0.00000000E+00
  3.80000000E+02  1.60000000E+02  0.00000000E+00
  3.80000000E+02  1.40000000E+02  0.00000000E+00
  3.80000000E+02  1.20000000E+02  0.00000000E+00
  3.80000000E+02  1.00000000E+02  0.00000000E+00
  3.80000000E+02  8.00000000E+01  0.00000000E+00
  3.80000000E+02  6.00000000E+01  0.00000000E+00
  3.80000000E+02  4.00000000E+01  0.00000000E+00
  3.80000000E+02  2.00000000E+01  0.00000000E+00
  3.80000000E+02  4.99600361E-14  0.00000000E+00
  4.00000000E+02  3.00000000E+02  0.00000000E+00
  4.00000000E+02  2.80000000E+02  0.00000000E+00
  4.00000000E+02  2.60000000E+02  0.00000000E+00
  4.00000000E+02  2.40000000E+02  0.00000000E+00
  4.00000000E+02  2.20000000E+02  0.00000000E+00
  4.00000000E+02  2.00000000E+02  0.00000000E+00
  4.00000000E+02  1.80000000E+02  0.00000000E+00
  4.00000000E+02  1.60000000E+02  0.00000000E+00
  4.00000000E+02  1.40000000E+02  0.00000000E+00
  4.00000000E+02  1.20000000E+02  0.00000000E+00
  4.00000000E+02  1.00000000E+02  0.00000000E+00
  4.00000000E+02  8.00000000E+01  0.00000000E+00
  4.00000000E+02  6.00000000E+01  0.00000000E+00
  4.00000000E+02  4.00000000E+01  0.00000000E+00
  4.00000000E+02  2.00000000E+01  0.00000000E+00
  4.00000000E+02  4.99600361E-14  0.00000000E+00
  4.20000000E+02  3.00000000E+02  0.00000000E+00
  4.20000000E+02  2.80000000E+02  0.00000000E+00
  4.20000000E+02  2.60000000E+02  0.00000000E+00
  4.20000000E+02  2.40000000E+02  0.00000000E+00
  4.20000000E+02  2.20000000E+02  0.00000000E+00
  4.20000000E+02  2.00000000E+02  0.00000000E+00
  4.20000000E+02  1.80000000E+02  0.00000000E+00
  4.20000000E+02  1.60000000E+02  0.00000000E+00
  4.20000000E+02  1.40000000E+02  0.00000000E+00
  4.20000000E+02  1.20000000E+02  0.00000000E+00
  4.20000000E+02  1.00000000E+02  0.00000000E+00
  4.20000000E+02  8.00000000E+01  0.00000000E+00
  4.20000000E+02  6.00000000E+01  0.00000000E+00
  4.20000000E+02  4.00000000E+01  0.00000000E+00
  4.20000000E+02  2.00000000E+01  0.00000000E+00
  4.20000000E+02  4.99600361E-14  0.00000000E+00
  4.40000000E+02  3.00000000E+02  0.00000000E+00
  4.40000000E+02  2.80000000E+02  0.00000000E+00
  4.40000000E+02  2.60000000E+02  0.00000000E+00
  4.40000000E+02  2.40000000E+02  0.00000000E+00
  4.40000000E+02  2.20000000E+02  0.00000000E+00
  4.40000000E+02  2.00000000E+02  0.00000000E+00
  4.40000000E+02  1.80000000E+02  0.00000000E+00
  4.40000000E+02  1.60000000E+02  0.00000000E+00
  4.40000000E+02  1.40000000E+02  0.00000000E+00
  4.40000000E+02  1.20000000E+02  0.00000000E+00
  4.40000000E+02  1.00000000E+02  0.00000000E+00
  4.40000000E+02  8.00000000E+01  0.00000000E+00
  4.40000000E+02  6.00000000E+01  0.00000000E+00
  4.40000000E+02  4.00000000E+01  0.00000000E+00
  4.40000000E+02  2.00000000E+01  0.00000000E+00
  4.40000000E+02  4.99600361E-14  0.00000000E+00
  4.60000000E+02  3.00000000E+02  0.00000000E+00
  4.60000000E+02  2.80000000E+02  0.00000000E+00
  4.60000000E+02  2.60000000E+02  0.00000000E+00
  4.60000000E+02  2.40000000E+02  0.00000000E+00
  4.60000000E+02  2.20000000E+02  0.00000000E+00
  4.60000000E+02  2.00000000E+02  0.00000000E+00
  4.60000000E+02  1.80000000E+02  0.00000000E+00
  4.60000000E+02  1.60000000E+02  0.00000000E+00
  4.60000000E+02  1.40000000E+02  0.00000000E+00
  4.60000000E+02  1.20000000E+02  0.00000000E+00
  4.60000000E+02  1.00000000E+02  0.00000000E+00
  4.60000000E+02  8.00000000E+01  0.00000000E+00
  4.60000000E+02  6.00000000E+01  0.00000000E+00
  4.60000000E+02  4.00000000E+01  0.00000000E+00
  4.60000000E+02  2.00000000E+01  0.00000000E+00
  4.60000000E+02  4.99600361E-14  0.00000000E+00
  4.80000000E+02  3.00000000E+02  0.00000000E+00
  4.80000000E+02  2.80000000E+02  0.00000000E+00
  4.80000000E+02  2.60000000E+02  0.00000000E+00
  4.80000000E+02  2.40000000E+02  0.00000000E+00
  4.80000000E+02  2.20000000E+02  0.00000000E+00
  4.80000000E+02  2.00000000E+02  0.00000000E+00
  4.80000000E+02  1.80000000E+02  0.00000000E+00
  4.80000000E+02  1.60000000E+02  0.00000000E+00
  4.80000000E+02  1.40000000E+02  0.00000000E+00
  4.80000000E+02  1.20000000E+02  0.00000000E+00
  4.80000000E+02  1.00000000E+02  0.00000000E+00
  4.80000000E+02  8.00000000E+01  0.00000000E+00
  4.80000000E+02  6.00000000E+01  0.00000000E+00
  4.80000000E+02  4.00000000E+01  0.00000000E+00
  4.80000000E+02  2.00000000E+01  0.00000000E+00
  4.80000000E+02  4.99600361E-14  0.00000000E+00
  5.00000000E+02  3.00000000E+02  0.00000000E+00
  5.00000000E+02  2.80000000E+02  0.00000000E+00
  5.00000000E+02  2.60000000E+02  0.00000000E+00
  5.00000000E+02  2.40000000E+02  0.00000000E+00
  5.00000000E+02  2.20000000E+02  0.00000000E+00
  5.00000000E+02  2.00000000E+02  0.00000000E+00
  5.00000000E+02  1.80000000E+02  0.00000000E+00
  5.00000000E+02  1.60000000E+02  0.00000000E+00
  5.00000000E+02  1.40000000E+02  0.00000000E+00
  5.00000000E+02  1.20000000E+02  0.00000000E+00
  5.00000000E+02  1.00000000E+02  0.00000000E+00
  5.00000000E+02  8.00000000E+01  0.00000000E+00
  5.00000000E+02  6.00000000E+01  0.00000000E+00
  5.00000000E+02  4.00000000E+01  0.00000000E+00
  5.00000000E+02  2.00000000E+01  0.00000000E+00
  5.00000000E+02  4.99600361E-14  0.00000000E+00
  5.20000000E+02  3.00000000E+02  0.00000000E+00
  5.20000000E+02  2.80000000E+02  0.00000000E+00
  5.20000000E+02  2.60000000E+02  0.00000000E+00
  5.20000000E+02  2.40000000E+02  0.00000000E+00
  5.20000000E+02  2.20000000E+02  0.00000000E+00
  5.20000000E+02  2.00000000E+02  0.00000000E+00
  5.20000000E+02  1.80000000E+02  0.00000000E+00
  5.20000000E+02  1.60000000E+02  0.00000000E+00
  5.20000000E+02  1.40000000E+02  0.00000000E+00
  5.20000000E+02  1.20000000E+02  0.00000000E+00
  5.20000000E+02  1.00000000E+02  0.00000000E+00
  5.20000000E+02  8.00000000E+01  0.00000000E+00
  5.20000000E+02  6.00000000E+01  0.00000000E+00
  5.20000000E+02  4.00000000E+01  0.00000000E+00
  5.20000000E+02  2.00000000E+01  0.00000000E+00
  5.20000000E+02  4.99600361E-14  0.00000000E+00
  5.40000000E+02  3.00000000E+02  0.00000000E+00
  5.40000000E+02  2.80000000E+02  0.00000000E+00
  5.40000000E+02  2.60000000E+02  0.00000000E+00
  5.40000000E+02  2.40000000E+02  0.00000000E+00
  5.40000000E+02  2.20000000E+02  0.00000000E+00
  5.40000000E+02  2.00000000E+02  0.00000000E+00
  5.40000000E+02  1.80000000E+02  0.00000000E+00
  5.40000000E+02  1.60000000E+02  0.00000000E+00
  5.40000000E+02  1.40000000E+02  0.00000000E+00
  5.40000000E+02  1.20000000E+02  0.00000000E+00
  5.40000000E+02  1.00000000E+02  0.00000000E+00
  5.40000000E+02  8.00000000E+01  0.00000000E+00
  5.40000000E+02  6.00000000E+01  0.00000000E+00
  5.40000000E+02  4.00000000E+01  0.00000000E+00
  5.40000000E+02  2.00000000E+01  0.00000000E+00
  5.40000000E+02  4.99600361E-14  0.00000000E+00
  5.60000000E+02  3.00000000E+02  0.00000000E+00
  5.60000000E+02  2.80000000E+02  0.00000000E+00
  5.60000000E+02  2.60000000E+02  0.00000000E+00
  5.60000000E+02  2.40000000E+02  0.00000000E+00
  5.60000000E+02  2.20000000E+02  0.00000000E+00
  5.60000000E+02  2.00000000E+02  0.00000000E+00
  5.60000000E+02  1.80000000E+02  0.00000000E+00
  5.60000000E+02  1.60000000E+02  0.00000000E+00
  5.60000000E+02  1.40000000E+02  0.00000000E+00
  5.60000000E+02  1.20000000E+02  0.00000000E+00
  5.60000000E+02  1.00000000E+02  0.00000000E+00
  5.60000000E+02  8.00000000E+01  0.00000000E+00
  5.60000000E+02  6.00000000E+01  0.00000000E+00
  5.60000000E+02  4.00000000E+01  0.00000000E+00
  5.60000000E+02  2.00000000E+01  0.00000000E+00
  5.60000000E+02  4.99600361E-14  0.00000000E+00
  5.80000000E+02  3.00000000E+02  0.00000000E+00
  5.80000000E+02  2.80000000E+02  0.00000000E+00
  5.80000000E+02  2.60000000E+02  0.00000000E+00
  5.80000000E+02  2.40000000E+02  0.00000000E+00
  5.80000000E+02  2.20000000E+02  0.00000000E+00
  5.80000000E+02  2.00000000E+02  0.00000000E+00
  5.80000000E+02  1.80000000E+02  0.00000000E+00
  5.80000000E+02  1.60000000E+02  0.00000000E+00
  5.80000000E+02  1.40000000E+02  0.00000000E+00
  5.80000000E+02  1.20000000E+02  0.00000000E+00
  5.80000000E+02  1.00000000E+02  0.00000000E+00
  5.80000000E+02  8.00000000E+01  0.00000000E+00
  5.80000000E+02  6.00000000E+01  0.00000000E+00
  5.80000000E+02  4.00000000E+01  0.00000000E+00
  5.80000000E+02  2.00000000E+01  0.00000000E+00
  5.80000000E+02  4.99600361E-14  0.00000000E+00
  6.00000000E+02  3.00000000E+02  0.00000000E+00
  6.00000000E+02  2.80000000E+02  0.00000000E+00
  6.00000000E+02  2.60000000E+02  0.00000000E+00
  6.00000000E+02  2.40000000E+02  0.00000000E+00
  6.00000000E+02  2.20000000E+02  0.00000000E+00
  6.00000000E+02  2.00000000E+02  0.00000000E+00
  6.00000000E+02  1.80000000E+02  0.00000000E+00
  6.00000000E+02  1.60000000E+02  0.00000000E+00
  6.00000000E+02  1.40000000E+02  0.00000000E+00
  6.00000000E+02  1.20000000E+02  0.00000000E+00
  6.00000000E+02  1.00000000E+02  0.00000000E+00
  6.00000000E+02  8.00000000E+01  0.00000000E+00
  6.00000000E+02  6.00000000E+01  0.00000000E+00
  6.00000000E+02  4.00000000E+01  0.00000000E+00
  6.00000000E+02  2.00000000E+01  0.00000000E+00
  6.00000000E+02  4.99600361E-14  0.00000000E+00
CELLS       450      2250
         4           0           1          17          16
         4           1           2          18          17
         4           2           3          19          18
         4           3           4          20          19
         4           4           5          21          20
         4           5           6          22          21
         4           6           7          23          22
         4           7           8          24          23
         4           8           9          25          24
         4           9          10          26          25
         4          10          11          27          26
         4          11          12          28          27
         4          12          13          29          28
         4          13          14          30          29
         4          14          15          31          30
         4          16          17          33          32
         4          17          18          34          33
         4          18          19          35          34
         4          19          20          36          35
         4          20          21          37          36
         4          21          22          38          37
         4          22          23          39          38
         4          23          24          40          39
         4          24          25          41          40
         4          25          26          42          41
         4          26          27          43          42
         4          27          28          44          43
         4          28          29          45          44
         4          29          30          46          45
         4          30          31          47          46
         4          32          33          49          48
         4          33          34          50          49
         4          34          35          51          50
         4          35          36          52          51
         4          36          37          53          52
         4          37          38          54          53
         4          38          39          55          54
         4          39          40          56          55
         4          40          41          57          56
         4          41          42          58          57
         4          42          43          59          58
         4          43          44          60          59
         4          44          45          61          60
         4          45          46          62          61
         4          46          47          63          62
         4          48          49          65          64
         4          49          50          66          65
         4          50          51          67          66
         4          51          52          68          67
         4          52          53          69          68
         4          53          54          70          69
         4          54          55          71          70
         4          55          56          72          71
         4          56          57          73          72
         4          57          58          74          73
         4          58          59          75          74
         4          59          60          76          75
         4          60          61          77          76
         4          61          62          78          77
         4          62          63          79          78
         4          64          65          81          80
         4          65          66          82          81
         4          66          67          83          82
         4          67          68          84          83
         4          68          69          85          84
         4          69          70          86          85
         4          70          71          87          86
         4          71          72          88          87
         4          72          73          89          88
         4          73          74          90          89
         4          74          75          91          90
         4          75          76          92          91
         4          76          77          93          92
         4          77          78          94          93
         4          78          79          95          94
         4          80          81          97          96
         4          81          82          98          97
         4          82          83          99          98
         4          83          84         100          99
         4          84          85         101         100
         4          85          86         102         101
         4          86          87         103         102
         4          87          88         104         103
         4          88          89         105         104
         4          89          90         106         105
         4          90          91         107         106
         4          91          92         108         107
         4          92          93         109         108
         4          93          94         110         109
         4          94          95         111         110
         4          96          97         113         112
         4          97          98         114         113
         4          98          99         115         114
         4          99         100         116         115
         4         100         101         117         116
         4         101         102         118         117
         4         102         103         119         118
         4         103         104         120         119
         4         104         105         121         120
         4         105         106         122         121
         4         106         107         123         122
         4         107         108         124         123
         4         108         109         125         124
         4         109         110         126         125
         4         110         111         127         126
         4         112         113         129         128
         4         113         114         130         129
         4         114         115         131         130
         4         115         116         132         131
         4         116         117         133         132
         4         117         118         134         133
         4         118         119         135         134
         4         119         120         136         135
         4         120         121         137         136
         4         121         122         138         137
         4         122         123         139         138
         4         123         124         140         139
         4         124         125         141         140
         4         125         126         142         141
         4         126         127         143         142
         4         128         129         145         144
         4         129         130         146         145
         4         130         131         147         146
         4         131         132         148         147
         4         132         133         149         148
         4         133         134         150         149
         4         134         135         151         150
         4         135         136         152         151
         4         136         137         153         152
         4         137         138         154         153
         4         138         139         155         154
         4         139         140         156         155
         4         140         141         157         156
         4         141         142         158         157
         4         142         143         159         158
         4         144         145         161         160
         4         145         146         162         161
         4         146         147         163         162
         4         147         148         164         163
         4         148         149         165         164
         4         149         150         166         165
         4         150         151         167         166
         4         151         152         168         167
         4         152         153         169         168
         4         153         154         170         169
         4         154         155         171         170
         4         155         156         172         171
         4         156         157         173         172
         4         157         158         174         173
         4         158         159         175         174
         4         160         161         177         176
         4         161         162         178         177
         4         162         163         179         178
         4         163         164         180         179
         4         164         165         181         180
         4         165         166         182         181
         4         166         167         183         182
         4         167         168         184         183
         4         168         169         185         184
         4         169         170         186         185
         4         170         171         187         186
         4         171         172         188         187
         4         172         173         189         188
         4         173         174         190         189
         4         174         175         191         190
         4         176         177         193         192
         4         177         178         194         193
         4         178         179         195         194
         4         179         180         196         195
         4         180         181         197         196
         4         181         182         198         197
         4         182         183         199         198
         4         183         184         200         199
         4         184         185         201         200
         4         185         186         202         201
         4         186         187         203         202
         4         187         188         204         203
         4         188         189         205         204
         4         189         190         206         205
         4         190         191         207         206
         4         192         193         209         208
         4         193         194         210         209
         4         194         195         211         210
         4         195         196         212         211
         4         196         197         213         212
         4         197         198         214         213
         4         198         199         215         214
         4         199         200         216         215
         4         200         201         217         216
         4         201         202         218         217
         4         202         203         219         218
         4         203         204         220         219
         4         204         205         221         220
         4         205         206         222         221
         4         206         207         223         222
         4         208         209         225         224
         4         209         210         226         225
         4         210         211         227         226
         4         211         212         228         227
         4         212         213         229         228
         4         213         214         230         229
         4         214         215         231         230
         4         215         216         232         231
         4         216         217         233         232
         4         217         218         234         233
         4         218         219         235         234
         4         219         220         236         235
         4         220         221         237         236
         4         221         222         238         237
         4         222         223         239         238
         4         224         225         241         240
         4         225         226         242         241
         4         226         227         243         242
         4         227         228         244         243
         4         228         229         245         244
         4         229         230         246         245
         4         230         231         247         246
         4         231         232         248         247
         4         232         233         249         248
         4         233         234         250         249
         4         234         235         251         250
         4         235         236         252         251
         4         236         237         253         252
         4         237         238         254         253
         4         238         239         255         254
         4         240         241         257         256
         4         241         242         258         257
         4         242         243         259         258
         4         243         244         260         259
         4         244         245         261         260
         4         245         246         262         261
         4         246         247         263         262
         4         247         248         264         263
         4         248         249         265         264
         4         249         250         266         265
         4         250         251         267         266
         4         251         252         268         267
         4         252         253         269         268
         4         253         254         270         269
         4         254         255         271         270
         4         256         257         273         272
         4         257         258         274         273
         4         258         259         275         274
         4         259         260         276         275
         4         260         261         277         276
         4         261         262         278         277
         4         262         263         279         278
         4         263         264         280         279
         4         264         265         281         280
         4         265         266         282         281
         4         266         267         283         282
         4         267         268         284         283
         4         268         269         285         284
         4         269         270         286         285
         4         270         271         287         286
         4         272         273         289         288
         4         273         274         290         289
         4         274         275         291         290
         4         275         276         292         291
         4         276         277         293         292
         4         277         278         294         293
         4         278         279         295         294
         4         279         280         296         295
         4         280         281         297         296
         4         281         282         298         297
         4         282         283         299         298
         4         283         284         300         299
         4         284         285         301         300
         4         285         286         302         301
         4         286         287         303         302
         4         288         289         305         304
         4         289         290         306         305
         4         290         291         307         306
         4         291         292         308         307
         4         292         293         309         308
         4         293         294         310         309
         4         294         295         311         310
         4         295         296         312         311
         4         296         297         313         312
         4         297         298         314         313
         4         298         299         315         314
         4         299         300         316         315
         4         300         301         317         316
         4         301         302         318         317
         4         302         303         319         318
         4         304         305         321         320
         4         305         306         322         321
         4         306         307         323         322
         4         307         308         324         323
         4         308         309         325         324
         4         309         310         326         325
         4         310         311         327         326
         4         311         312         328         327
         4         312         313         329         328
         4         313         314         330         329
         4         314         315         331         330
         4         315         316         332         331
         4         316         317         333         332
         4         317         318         334         333
         4         318         319         335         334
         4         320         321         337         336
         4         321         322         338         337
         4         322         323         339         338
         4         323         324         340         339
         4         324         325         341         340
         4         325         326         342         341
         4         326         327         343         342
         4         327         328         344         343
         4         328         329         345         344
         4         329         330         346         345
         4         330         331         347         346
         4         331         332         348         347
         4         332         333         349         348
         4         333         334         350         349
         4         334         335         351         350
         4         336         337         353         352
         4         337         338         354         353
         4         338         339         355         354
         4         339         340         356         355
         4         340         341         357         356
         4         341         342         358         357
         4         342         343         359         358
         4         343         344         360         359
         4         344         345         361         360
         4         345         346         362         361
         4         346         347         363         362
         4         347         348         364         363
         4         348         349         365         364
         4         349         350         366         365
         4         350         351         367         366
         4         352         353         369         368
         4         353         354         370         369
         4         354         355         371         370
         4         355         356         372         371
         4         356         357         373         372
         4         357         358         374         373
         4         358         359         375         374
         4         359         360         376         375
         4         360         361         377         376
         4         361         362         378         377
         4         362         363         379         378
         4         363         364         380         379
         4         364         365         381         380
         4         365         366         382         381
         4         366         367         383         382
         4         368         369         385         384
         4         369         370         386         385
         4         370         371         387         386
         4         371         372         388         387
         4         372         373         389         388
         4         373         374         390         389
         4         374         375         391         390
         4         375         376         392         391
         4         376         377         393         392
         4         377         378         394         393
         4         378         379         395         394
         4         379         380         396         395
         4         380         381         397         396
         4         381         382         398         397
         4         382         383         399         398
         4         384         385         401         400
         4         385         386         402         401
         4         386         387         403         402
         4         387         388         404         403
         4         388         389         405         404
         4         389         390         406         405
         4         390         391         407         406
         4         391         392         408         407
         4         392         393         409         408
         4         393         394         410         409
         4         394         395         411         410
         4         395         396         412         411
         4         396         397         413         412
         4         397         398         414         413
         4         398         399         415         414
         4         400         401         417         416
         4         401         402         418         417
         4         402         403         419         418
         4         403         404         420         419
         4         404         405         421         420
         4         405         406         422         421
         4         406         407         423         422
         4         407         408         424         423
         4         408         409         425         424
         4         409         410         426         425
         4         410         411         427         426
         4         411         412         428         427
         4         412         413         429         428
         4         413         414         430         429
         4         414         415         431         430
         4         416         417         433         432
         4         417         418         434         433
         4         418         419         435         434
         4         419         420         436         435
         4         420         421         437         436
         4         421         422         438         437
         4         422         423         439         438
         4         423         424         440         439
         4         424         425         441         440
         4         425         426         442         441
         4         426         427         443         442
         4         427         428         444         443
         4         428         429         445         444
         4         429         430         446         445
         4         430         431         447         446
         4         432         433         449         448
         4         433         434         450         449
         4         434         435         451         450
         4         435         436         452         451
         4         436         437         453         452
         4         437         438         454         453
         4         438         439         455         454
         4         439         440         456         455
         4         440         441         457         456
         4         441         442         458         457
         4         442         443         459         458
         4         443         444         460         459
         4         444         445         461         460
         4         445         446         462         461
         4         446         447         463         462
         4         448         449         465         464
         4         449         450         466         465
         4         450         451         467         466
         4         451         452         468         467
         4         452         453         469         468
         4         453         454         470         469
         4         454         455         471         470
         4         455         456         472         471
         4         456         457         473         472
         4         457         458         474         473
         4         458         459         475         474
         4         459         460         476         475
         4         460         461         477         476
         4         461         462         478         477
         4         462         463         479         478
         4         464         465         481         480
         4         465         466         482         481
         4         466         467         483         482
         4         467         468         484         483
         4         468         469         485         484
         4         469         470         486         485
         4         470         471         487         486
         4         471         472         488         487
         4         472         473         489         488
         4         473         474         490         489
         4         474         475         491         490
         4         475         476         492         491
         4         476         477         493         492
         4         477         478         494         493
         4         478         479         495         494
CELL_TYPES        450
9
9
9
9
9
9
9
9
9
9
9
9
9
9
9
9
9
9
9
9
9
9
9
9
9
9
9
9
9
9
9
9
9
9
9
9
9
9
9
9
9
9
9
9
9
9
9
9
9
9
9
9
9
9
9
9
9
9
9
9
9
9
9
9
9
9
9
9
9
9
9
9
9
9
9
9
9
9
9
9
9
9
9
9
9
9
9
9
9
9
9
9
9
9
9
9
9
9
9
9
9
9
9
9
9
9
9
9
9
9
9
9
9
9
9
9
9
9
9
9
9
9
9
9
9
9
9
9
9
9
9
9
9
9
9
9
9
9
9
9
9
9
9
9
9
9
9
9
9
9
9
9
9
9
9
9
9
9
9
9
9
9
9
9
9
9
9
9
9
9
9
9
9
9
9
9
9
9
9
9
9
9
9
9
9
9
9
9
9
9
9
9
9
9
9
9
9
9
9
9
9
9
9
9
9
9
9
9
9
9
9
9
9
9
9
9
9
9
9
9
9
9
9
9
9
9
9
9
9
9
9
9
9
9
9
9
9
9
9
9
9
9
9
9
9
9
9
9
9
9
9
9
9
9
9
9
9
9
9
9
9
9
9
9
9
9
9
9
9
9
9
9
9
9
9
9
9
9
9
9
9
9
9
9
9
9
9
9
9
9
9
9
9
9
9
9
9
9
9
9
9
9
9
9
9
9
9
9
9
9
9
9
9
9
9
9
9
9
9
9
9
9
9
9
9
9
9
9
9
9
9
9
9
9
9
9
9
9
9
9
9
9
9
9
9
9
9
9
9
9
9
9
9
9
9
9
9
9
9
9
9
9
9
9
9
9
9
9
9
9
9
9
9
9
9
9
9
9
9
9
9
9
9
9
9
9
9
9
9
9
9
9
9
9
9
9
9
9
9
9
9
9
9
9
9
9
9
9
9
9
9
9
9
9
9
9
9
9
9
9
9
9
9
9
9
9
9
9
9
9
9
9
9
9
9
9
9
9
9
9
9
9
9
9
9
9
9
9
9
9
POINT_DATA       496
SCALARS p double 
LOOKUP_TABLE default
   31752303.0053760     
   31748417.5977518     
   31737839.8292744     
   31721966.8952197     
   31702083.7498043     
   31679370.7663562     
   31654912.1038142     
   31629704.5364307     
   31604666.5277483     
   31580647.3551343     
   31558436.1167269     
   31538770.4781363     
   31522345.0414022     
   31509819.2434653     
   31501824.7158282     
   31498972.0613044     
   31720561.3621123     
   31716685.0507009     
   31706133.1825194     
   31690300.7353107     
   31670470.1553453     
   31647819.1095772     
   31623428.9336954     
   31598293.5328460     
   31573328.5163044     
   31549380.3728201     
   31527235.5190674     
   31507629.0791777     
   31491253.2784681     
   31478765.3591512     
   31470794.9501096     
   31467950.8469131     
   31625437.5509769     
   31621588.6435325     
   31611114.7755846     
   31595404.2147508     
   31575731.8346389     
   31553267.1427061     
   31529082.9724534     
   31504164.5964827     
   31479419.0423920     
   31455684.4196156     
   31433739.0914492     
   31414310.5522026     
   31398083.8944797     
   31385709.7759880     
   31377811.8191935     
   31374993.4008209     
   31467234.9852388     
   31463432.1327527     
   31453089.2550063     
   31437583.2448088     
   31418176.1925937     
   31396023.8729170     
   31372184.8418030     
   31347629.9012396     
   31323251.7141777     
   31299874.3806891     
   31278262.8127754     
   31259131.7712661     
   31243154.4531189     
   31230970.5413345     
   31223193.6528874     
   31220418.1429880     
   31246459.5377748     
   31242721.9540729     
   31232564.5129771     
   31217347.7826229     
   31198315.6190435     
   31176604.2928505     
   31153252.1499728     
   31129209.5628422     
   31105348.9577882     
   31082474.7333851     
   31061332.9123178     
   31042620.3955706     
   31026993.7122770     
   31015077.1816153     
   31007470.4251553     
   31004755.1896953     
   30963819.7933425     
   30960167.4605986     
   30950251.8844364     
   30935411.9626435     
   30916867.5334655     
   30895729.3218663     
   30873009.3177456     
   30849631.3433255     
   30826441.5994193     
   30804219.0115142     
   30783685.2256922     
   30765514.1309478     
   30750340.8083931     
   30738769.8295565     
   30731382.8461858     
   30728745.4336267     
   30620227.3551434     
   30616681.2091735     
   30607066.3743407     
   30592694.2294611     
   30574754.3929697     
   30554325.6650509     
   30532387.2715672     
   30509830.1691560     
   30487468.2074017     
   30466048.9780779     
   30446264.2121156     
   30428759.6117243     
   30414144.0280401     
   30402997.9143704     
   30395881.0026164     
   30393339.1671448     
   30216797.1616593     
   30213379.2503238     
   30204126.8689228     
   30190317.4231315     
   30173103.6110439     
   30153525.5330925     
   30132522.9419662     
   30110947.3961500     
   30089574.1223713     
   30069113.4299227     
   30050221.5523805     
   30033510.8191301     
   30019559.0805045     
   30008918.3270918     
   30002122.4573497     
   29999694.1600205     
   29754847.7608585     
   29751581.3681551     
   29742756.2750436     
   29729608.7574199     
   29713247.3225169     
   29694666.1525181     
   29674758.4901328     
   29654329.7370916     
   29634110.0846113     
   29614766.5370445     
   29596914.2247416     
   29581126.9289674     
   29567946.7607918     
   29557892.9483975     
   29551469.6952435     
   29549173.0776613     
   29235901.4826959     
   29232811.2101416     
   29224481.5246180     
   29212099.6231036     
   29196721.9203841     
   29179288.9841132     
   29160640.1717635     
   29141527.7520592     
   29122630.3496153     
   29104565.5992780     
   29087901.9342058     
   29073169.4581859     
   29060869.8684099     
   29051485.4015230     
   29045486.7759384     
   29043340.1007891     
   28661684.4479273     
   28658796.2435608     
   28651033.3770814     
   28639525.1431205     
   28625267.2829768     
   28609138.5580039     
   28591916.7355130     
   28574293.7871736     
   28556890.1661473     
   28540268.0840453     
   28524943.7496891     
   28511398.5573952     
   28500089.2235219     
   28491456.8684090     
   28485935.0302441     
   28483956.5826122     
   28034126.3521600     
   28031467.4759067     
   28024345.9524827     
   28013823.4043922     
   28000825.6058766     
   27986160.8272397     
   27970537.2438996     
   27954579.2350188     
   27938842.4757214     
   27923827.7908386     
   27909993.7832276     
   27897768.2742714     
   27887558.5986922     
   27879760.7830452     
   27874767.6119769     
   27872975.5549257     
   27355359.9693013     
   27352958.8814837     
   27346555.9315439     
   27337134.2930628     
   27325539.7523768     
   27312500.9380723     
   27298648.1974985     
   27284530.9795170     
   27270633.6786155     
   27257389.9712826     
   27245195.7260522     
   27234420.5914365     
   27225418.3616639     
   27218536.1923412     
   27214122.6931137     
   27212534.8704885     
   26627720.3286875     
   26625606.4860861     
   26620001.3674351     
   26611797.8661057     
   26601751.0394947     
   26590500.3147054     
   26578589.8388711     
   26566486.8796289     
   26554598.2993359     
   26543285.2180711     
   26532876.0379991     
   26523678.0219228     
   26515987.6026635     
   26510099.5520540     
   26506315.0669706     
   26504948.7458223     
   25853743.5358055     
   25851947.0768203     
   25847220.0676150     
   25840352.2031706     
   25831996.3837689     
   25822692.9591254     
   25812891.5108251     
   25802970.1398231     
   25793252.3738431     
   25784021.9218973     
   25775535.5696957     
   25768034.5261658     
   25761754.4991394     
   25756934.7039205     
   25753825.9024385     
   25752697.4468975     
   25036165.2284382     
   25034716.5254753     
   25030947.5234759     
   25025530.6984771     
   25019004.7423034     
   25011800.8724275     
   25004265.9438737     
   24996682.4104175     
   24989285.3716636     
   24982277.0828260     
   24975839.3816367     
   24970144.4972540     
   24965364.6524089     
   24961680.7610880     
   24959290.3730846     
   24958414.8409943     
   24177918.6893837     
   24176847.7424176     
   24174114.3914134     
   24170258.7736760     
   24165692.7993078     
   24160728.5118988     
   24155602.3490832     
   24150495.4568141     
   24145550.4578772     
   24140885.2516029     
   24136604.5114116     
   24132809.5470439     
   24129607.1157795     
   24127117.6136631     
   24125482.8696311     
   24124873.5228479     
   23282132.6753815     
   23281468.3153522     
   23279843.5621855     
   23277650.0186676     
   23275159.8653693     
   23272556.2059271     
   23269958.1926763     
   23267441.2316519     
   23265052.8922355     
   23262825.3676257     
   23260785.4313427     
   23258962.8166631     
   23257397.8244936     
   23256148.7568955     
   23255299.4951173     
   23254967.2141364     
   22352129.0724440     
   22351897.9359503     
   22351446.8971475     
   22351001.7974354     
   22350681.9728752     
   22350532.4522947     
   22350549.5235530     
   22350700.1750486     
   22350936.3543753     
   22351205.2548105     
   22351456.9362649     
   22351650.5342662     
   22351760.1377754     
   22351781.1443638     
   22351737.5418233     
   22351690.1352710     
   21391420.5555883     
   21391645.7815771     
   21392421.7616272     
   21393790.3874739     
   21395705.1600971     
   21398065.0163645     
   21400739.7065938     
   21403587.5503651     
   21406466.9740582     
   21409243.5368499     
   21411794.2100847     
   21414010.5565076     
   21415802.2177693     
   21417101.7819741     
   21417871.6614367     
   21418113.0606722     
   20403708.5251899     
   20404408.1065665     
   20406447.5492113     
   20409665.7485876     
   20413837.9259982     
   20418710.7086265     
   20424026.3695551     
   20429537.5882185     
   20435014.8326755     
   20440248.7448603     
   20445049.8494683     
   20449247.6682278     
   20452691.0077373     
   20455250.8115042     
   20456826.4688369     
   20457355.7965425     
   19392881.7298034     
   19394066.4210043     
   19397382.4682590     
   19402446.0272239     
   19408842.7835222     
   19416163.6278323     
   19424026.2762047     
   19432085.1474175     
   19440032.6874106     
   19447595.4245256     
   19454527.6909920     
   19460605.4950948     
   19465622.6459937     
   19469390.8922089     
   19471745.3681091     
   19472555.8650635     
   18363016.1983390     
   18364686.8191879     
   18369260.9551952     
   18376111.8692398     
   18384626.6938843     
   18394241.4559284     
   18404457.6547905     
   18414844.4907523     
   18425031.6571611     
   18434697.1288693     
   18443553.4261629     
   18451335.0376555     
   18457789.2845374     
   18462672.7844414     
   18465755.4558221     
   18466833.2368645     
   17318377.4557000     
   17320521.3109160     
   17326292.1855488     
   17334800.4782945     
   17345229.8367911     
   17356868.9963482     
   17369119.1806433     
   17381484.5956101     
   17393553.6133601     
   17404976.3471208     
   17415442.2526503     
   17424660.1178426     
   17432342.5097876     
   17438197.1807988     
   17441928.4299292     
   17443251.0068166     
   16263426.6141940     
   16266012.4965028     
   16272860.2526962     
   16282798.9848753     
   16294811.4831809     
   16308057.4130874     
   16321864.2583942     
   16335700.1599430     
   16349140.0697389     
   16361831.7341941     
   16373464.2920205     
   16383740.5393083     
   16392353.9585187     
   16398973.0333607     
   16403237.4791983     
   16404771.9073717     
   15202833.1010030     
   15205803.7934860     
   15213526.5852469     
   15224535.7603067     
   15237630.3413368     
   15251876.3425036     
   15266568.4095911     
   15281177.1451816     
   15295297.5148077     
   15308603.5521979     
   15320809.3358384     
   15331634.6820044     
   15340774.4355054     
   15347872.9305048     
   15352510.0638140     
   15354210.3812218     
   14141499.1852780     
   14144759.0473984     
   14153034.7212383     
   14164566.0034887     
   14178014.0035723     
   14192413.9957678     
   14207086.5126882     
   14221551.4375376     
   14235459.4563680     
   14248539.0488747     
   14260553.8109250     
   14271264.8791298     
   14280394.2610317     
   14287586.6065555     
   14292376.1547858     
   14294179.2583602     
   13084606.8800553     
   13087998.6380130     
   13096315.1282842     
   13107542.1889671     
   13120307.0084401     
   13133717.7291074     
   13147195.8087523     
   13160359.3318466     
   13172946.0050159     
   13184760.4686462     
   13195634.5009482     
   13205391.8631121     
   13213810.5394174     
   13220575.2168609     
   13225210.2166522     
   13227028.3613026     
   12037713.6008446     
   12040964.2842836     
   12048478.1710452     
   12058144.9351931     
   12068779.7829990     
   12079705.7888275     
   12090521.2478364     
   12100979.5954957     
   12110922.5915396     
   12120238.9753156     
   12128834.8986561     
   12136607.7606563     
   12143415.8481810     
   12149032.3732984     
   12153064.3668864     
   12154763.7994385     
   11006958.9224427     
   11009545.7346634     
   11014726.0942068     
   11020924.7713323     
   11027476.7615906     
   11034044.6176761     
   11040443.7395176     
   11046569.3800355     
   11052360.1974904     
   11057777.1190187     
   11062788.7995943     
   11067358.8354489     
   11071430.2670317     
   11074899.7012754     
   11077559.9014928     
   11078941.3210670     
   10000000.0000000     
   10000000.0000000     
   10000000.0000000     
   10000000.0000000     
   10000000.0000000     
   10000000.0000000     
   10000000.0000000     
   10000000.0000000     
   10000000.0000000     
   10000000.0000000     
   10000000.0000000     
   10000000.0000000     
   10000000.0000000     
  10000000.00000000     
   10000000.0000000     
   10000000.0000000     
VECTORS u double 
    0.00000E+00        -0.33906E-01         0.00000E+00
    0.00000E+00        -0.31560E-01         0.00000E+00
    0.00000E+00        -0.29227E-01         0.00000E+00
    0.00000E+00        -0.26908E-01         0.00000E+00
    0.00000E+00        -0.24599E-01         0.00000E+00
    0.00000E+00        -0.22300E-01         0.00000E+00
    0.00000E+00        -0.20011E-01         0.00000E+00
    0.00000E+00        -0.17731E-01         0.00000E+00
    0.00000E+00        -0.15461E-01         0.00000E+00
    0.00000E+00        -0.13202E-01         0.00000E+00
    0.00000E+00        -0.10955E-01         0.00000E+00
    0.00000E+00        -0.87237E-02         0.00000E+00
    0.00000E+00        -0.65090E-02         0.00000E+00
    0.00000E+00        -0.43145E-02         0.00000E+00
    0.00000E+00        -0.21435E-02         0.00000E+00
    0.00000E+00         0.00000E+00         0.00000E+00
    0.72668E-03        -0.33941E-01         0.00000E+00
    0.66052E-03        -0.31592E-01         0.00000E+00
    0.59963E-03        -0.29258E-01         0.00000E+00
    0.54336E-03        -0.26936E-01         0.00000E+00
    0.49109E-03        -0.24626E-01         0.00000E+00
    0.44218E-03        -0.22325E-01         0.00000E+00
    0.39596E-03        -0.20033E-01         0.00000E+00
    0.35182E-03        -0.17751E-01         0.00000E+00
    0.30910E-03        -0.15479E-01         0.00000E+00
    0.26719E-03        -0.13218E-01         0.00000E+00
    0.22549E-03        -0.10969E-01         0.00000E+00
    0.18340E-03        -0.87345E-02         0.00000E+00
    0.14035E-03        -0.65173E-02         0.00000E+00
    0.95793E-04        -0.43201E-02         0.00000E+00
    0.49185E-04        -0.21464E-02         0.00000E+00
    0.00000E+00         0.00000E+00         0.00000E+00
    0.14486E-02        -0.34044E-01         0.00000E+00
    0.13165E-02        -0.31690E-01         0.00000E+00
    0.11950E-02        -0.29350E-01         0.00000E+00
    0.10828E-02        -0.27023E-01         0.00000E+00
    0.97861E-03        -0.24706E-01         0.00000E+00
    0.88111E-03        -0.22399E-01         0.00000E+00
    0.78902E-03        -0.20101E-01         0.00000E+00
    0.70106E-03        -0.17812E-01         0.00000E+00
    0.61596E-03        -0.15533E-01         0.00000E+00
    0.53248E-03        -0.13265E-01         0.00000E+00
    0.44939E-03        -0.11009E-01         0.00000E+00
    0.36554E-03        -0.87670E-02         0.00000E+00
    0.27976E-03        -0.65420E-02         0.00000E+00
    0.19096E-03        -0.43369E-02         0.00000E+00
    0.98056E-04        -0.21549E-02         0.00000E+00
    0.00000E+00         0.00000E+00         0.00000E+00
    0.21609E-02        -0.34216E-01         0.00000E+00
    0.19636E-02        -0.31853E-01         0.00000E+00
    0.17821E-02        -0.29503E-01         0.00000E+00
    0.16145E-02        -0.27166E-01         0.00000E+00
    0.14590E-02        -0.24839E-01         0.00000E+00
    0.13136E-02        -0.22522E-01         0.00000E+00
    0.11763E-02        -0.20213E-01         0.00000E+00
    0.10452E-02        -0.17914E-01         0.00000E+00
    0.91836E-03        -0.15623E-01         0.00000E+00
    0.79396E-03        -0.13343E-01         0.00000E+00
    0.67015E-03        -0.11075E-01         0.00000E+00
    0.54517E-03        -0.88209E-02         0.00000E+00
    0.41730E-03        -0.65831E-02         0.00000E+00
    0.28488E-03        -0.43647E-02         0.00000E+00
    0.14630E-03        -0.21690E-02         0.00000E+00
    0.00000E+00         0.00000E+00         0.00000E+00
    0.28589E-02        -0.34456E-01         0.00000E+00
    0.25971E-02        -0.32079E-01         0.00000E+00
    0.23564E-02        -0.29717E-01         0.00000E+00
    0.21345E-02        -0.27366E-01         0.00000E+00
    0.19287E-02        -0.25025E-01         0.00000E+00
    0.17363E-02        -0.22694E-01         0.00000E+00
    0.15548E-02        -0.20370E-01         0.00000E+00
    0.13816E-02        -0.18055E-01         0.00000E+00
    0.12141E-02        -0.15749E-01         0.00000E+00
    0.10498E-02        -0.13453E-01         0.00000E+00
    0.88620E-03        -0.11168E-01         0.00000E+00
    0.72106E-03        -0.88961E-02         0.00000E+00
    0.55204E-03        -0.66404E-02         0.00000E+00
    0.37694E-03        -0.44035E-02         0.00000E+00
    0.19362E-03        -0.21888E-02         0.00000E+00
    0.00000E+00         0.00000E+00         0.00000E+00
    0.35378E-02        -0.34763E-01         0.00000E+00
    0.32125E-02        -0.32369E-01         0.00000E+00
    0.29140E-02        -0.29990E-01         0.00000E+00
    0.26390E-02        -0.27622E-01         0.00000E+00
    0.23841E-02        -0.25263E-01         0.00000E+00
    0.21462E-02        -0.22913E-01         0.00000E+00
    0.19218E-02        -0.20571E-01         0.00000E+00
    0.17078E-02        -0.18236E-01         0.00000E+00
    0.15009E-02        -0.15910E-01         0.00000E+00
    0.12980E-02        -0.13593E-01         0.00000E+00
    0.10960E-02        -0.11286E-01         0.00000E+00
    0.89197E-03        -0.89923E-02         0.00000E+00
    0.68307E-03        -0.67137E-02         0.00000E+00
    0.46653E-03        -0.44532E-02         0.00000E+00
    0.23970E-03        -0.22140E-02         0.00000E+00
    0.00000E+00         0.00000E+00         0.00000E+00
    0.41927E-02        -0.35135E-01         0.00000E+00
    0.38055E-02        -0.32722E-01         0.00000E+00
    0.34505E-02        -0.30322E-01         0.00000E+00
    0.31240E-02        -0.27933E-01         0.00000E+00
    0.28218E-02        -0.25552E-01         0.00000E+00
    0.25399E-02        -0.23180E-01         0.00000E+00
    0.22744E-02        -0.20814E-01         0.00000E+00
    0.20213E-02        -0.18456E-01         0.00000E+00
    0.17767E-02        -0.16105E-01         0.00000E+00
    0.15369E-02        -0.13762E-01         0.00000E+00
    0.12980E-02        -0.11430E-01         0.00000E+00
    0.10567E-02        -0.91091E-02         0.00000E+00
    0.80951E-03        -0.68027E-02         0.00000E+00
    0.55307E-03        -0.45134E-02         0.00000E+00
    0.28426E-03        -0.22446E-02         0.00000E+00
    0.00000E+00         0.00000E+00         0.00000E+00
    0.48187E-02        -0.35571E-01         0.00000E+00
    0.43713E-02        -0.33135E-01         0.00000E+00
    0.39619E-02        -0.30711E-01         0.00000E+00
    0.35857E-02        -0.28297E-01         0.00000E+00
    0.32381E-02        -0.25891E-01         0.00000E+00
    0.29144E-02        -0.23492E-01         0.00000E+00
    0.26098E-02        -0.21100E-01         0.00000E+00
    0.23196E-02        -0.18714E-01         0.00000E+00
    0.20394E-02        -0.16334E-01         0.00000E+00
    0.17645E-02        -0.13962E-01         0.00000E+00
    0.14908E-02        -0.11598E-01         0.00000E+00
    0.12142E-02        -0.92461E-02         0.00000E+00
    0.93049E-03        -0.69070E-02         0.00000E+00
    0.63600E-03        -0.45841E-02         0.00000E+00
    0.32701E-03        -0.22805E-02         0.00000E+00
    0.00000E+00         0.00000E+00         0.00000E+00
    0.54111E-02        -0.36070E-01         0.00000E+00
    0.49055E-02        -0.33607E-01         0.00000E+00
    0.44437E-02        -0.31155E-01         0.00000E+00
    0.40203E-02        -0.28713E-01         0.00000E+00
    0.36297E-02        -0.26278E-01         0.00000E+00
    0.32665E-02        -0.23850E-01         0.00000E+00
    0.29252E-02        -0.21426E-01         0.00000E+00
    0.26003E-02        -0.19008E-01         0.00000E+00
    0.22867E-02        -0.16595E-01         0.00000E+00
    0.19793E-02        -0.14189E-01         0.00000E+00
    0.16730E-02        -0.11791E-01         0.00000E+00
    0.13631E-02        -0.94025E-02         0.00000E+00
    0.10452E-02        -0.70261E-02         0.00000E+00
    0.71475E-03        -0.46647E-02         0.00000E+00
    0.36769E-03        -0.23215E-02         0.00000E+00
    0.00000E+00         0.00000E+00         0.00000E+00
    0.59648E-02        -0.36629E-01         0.00000E+00
    0.54035E-02        -0.34136E-01         0.00000E+00
    0.48919E-02        -0.31654E-01         0.00000E+00
    0.44239E-02        -0.29180E-01         0.00000E+00
    0.39930E-02        -0.26712E-01         0.00000E+00
    0.35931E-02        -0.24250E-01         0.00000E+00
    0.32178E-02        -0.21792E-01         0.00000E+00
    0.28610E-02        -0.19338E-01         0.00000E+00
    0.25168E-02        -0.16889E-01         0.00000E+00
    0.21793E-02        -0.14444E-01         0.00000E+00
    0.18430E-02        -0.12007E-01         0.00000E+00
    0.15025E-02        -0.95777E-02         0.00000E+00
    0.11528E-02        -0.71596E-02         0.00000E+00
    0.78882E-03        -0.47551E-02         0.00000E+00
    0.40604E-03        -0.23674E-02         0.00000E+00
    0.00000E+00         0.00000E+00         0.00000E+00
    0.64751E-02        -0.37246E-01         0.00000E+00
    0.58608E-02        -0.34720E-01         0.00000E+00
    0.53023E-02        -0.32203E-01         0.00000E+00
    0.47927E-02        -0.29695E-01         0.00000E+00
    0.43247E-02        -0.27191E-01         0.00000E+00
    0.38911E-02        -0.24692E-01         0.00000E+00
    0.34850E-02        -0.22196E-01         0.00000E+00
    0.30994E-02        -0.19702E-01         0.00000E+00
    0.27276E-02        -0.17212E-01         0.00000E+00
    0.23631E-02        -0.14726E-01         0.00000E+00
    0.19997E-02        -0.12245E-01         0.00000E+00
    0.16314E-02        -0.97709E-02         0.00000E+00
    0.12525E-02        -0.73067E-02         0.00000E+00
    0.85771E-03        -0.48547E-02         0.00000E+00
    0.44183E-03        -0.24180E-02         0.00000E+00
    0.00000E+00         0.00000E+00         0.00000E+00
    0.69368E-02        -0.37918E-01         0.00000E+00
    0.62726E-02        -0.35355E-01         0.00000E+00
    0.56707E-02        -0.32802E-01         0.00000E+00
    0.51230E-02        -0.30255E-01         0.00000E+00
    0.46213E-02        -0.27713E-01         0.00000E+00
    0.41576E-02        -0.25173E-01         0.00000E+00
    0.37242E-02        -0.22635E-01         0.00000E+00
    0.33132E-02        -0.20098E-01         0.00000E+00
    0.29171E-02        -0.17564E-01         0.00000E+00
    0.25289E-02        -0.15032E-01         0.00000E+00
    0.21416E-02        -0.12503E-01         0.00000E+00
    0.17486E-02        -0.99811E-02         0.00000E+00
    0.13437E-02        -0.74668E-02         0.00000E+00
    0.92095E-03        -0.49631E-02         0.00000E+00
    0.47481E-03        -0.24730E-02         0.00000E+00
    0.00000E+00         0.00000E+00         0.00000E+00
    0.73450E-02        -0.38641E-01         0.00000E+00
    0.66346E-02        -0.36040E-01         0.00000E+00
    0.59929E-02        -0.33447E-01         0.00000E+00
    0.54109E-02        -0.30859E-01         0.00000E+00
    0.48795E-02        -0.28274E-01         0.00000E+00
    0.43897E-02        -0.25691E-01         0.00000E+00
    0.39327E-02        -0.23108E-01         0.00000E+00
    0.35001E-02        -0.20525E-01         0.00000E+00
    0.30836E-02        -0.17942E-01         0.00000E+00
    0.26752E-02        -0.15361E-01         0.00000E+00
    0.22675E-02        -0.12782E-01         0.00000E+00
    0.18532E-02        -0.10207E-01         0.00000E+00
    0.14255E-02        -0.76390E-02         0.00000E+00
    0.97809E-03        -0.50796E-02         0.00000E+00
    0.50480E-03        -0.25322E-02         0.00000E+00
    0.00000E+00         0.00000E+00         0.00000E+00
    0.76946E-02        -0.39412E-01         0.00000E+00
    0.69420E-02        -0.36770E-01         0.00000E+00
    0.62648E-02        -0.34134E-01         0.00000E+00
    0.56529E-02        -0.31503E-01         0.00000E+00
    0.50960E-02        -0.28873E-01         0.00000E+00
    0.45843E-02        -0.26243E-01         0.00000E+00
    0.41082E-02        -0.23612E-01         0.00000E+00
    0.36581E-02        -0.20979E-01         0.00000E+00
    0.32251E-02        -0.18346E-01         0.00000E+00
    0.28006E-02        -0.15712E-01         0.00000E+00
    0.23762E-02        -0.13079E-01         0.00000E+00
    0.19443E-02        -0.10448E-01         0.00000E+00
    0.14975E-02        -0.78223E-02         0.00000E+00
    0.10287E-02        -0.52037E-02         0.00000E+00
    0.53158E-03        -0.25952E-02         0.00000E+00
    0.00000E+00         0.00000E+00         0.00000E+00
    0.79805E-02        -0.40227E-01         0.00000E+00
    0.71904E-02        -0.37541E-01         0.00000E+00
    0.64824E-02        -0.34861E-01         0.00000E+00
    0.58452E-02        -0.32183E-01         0.00000E+00
    0.52677E-02        -0.29505E-01         0.00000E+00
    0.47389E-02        -0.26826E-01         0.00000E+00
    0.42481E-02        -0.24144E-01         0.00000E+00
    0.37850E-02        -0.21459E-01         0.00000E+00
    0.33400E-02        -0.18771E-01         0.00000E+00
    0.29035E-02        -0.16082E-01         0.00000E+00
    0.24666E-02        -0.13391E-01         0.00000E+00
    0.20211E-02        -0.10702E-01         0.00000E+00
    0.15588E-02        -0.80156E-02         0.00000E+00
    0.10724E-02        -0.53346E-02         0.00000E+00
    0.55498E-03        -0.26617E-02         0.00000E+00
    0.00000E+00         0.00000E+00         0.00000E+00
    0.81977E-02        -0.41081E-01         0.00000E+00
    0.73750E-02        -0.38349E-01         0.00000E+00
    0.66415E-02        -0.35622E-01         0.00000E+00
    0.59844E-02        -0.32895E-01         0.00000E+00
    0.53915E-02        -0.30167E-01         0.00000E+00
    0.48506E-02        -0.27436E-01         0.00000E+00
    0.43501E-02        -0.24700E-01         0.00000E+00
    0.38790E-02        -0.21960E-01         0.00000E+00
    0.34265E-02        -0.19216E-01         0.00000E+00
    0.29825E-02        -0.16469E-01         0.00000E+00
    0.25375E-02        -0.13719E-01         0.00000E+00
    0.20825E-02        -0.10968E-01         0.00000E+00
    0.16090E-02        -0.82178E-02         0.00000E+00
    0.11089E-02        -0.54714E-02         0.00000E+00
    0.57482E-03        -0.27312E-02         0.00000E+00
    0.00000E+00         0.00000E+00         0.00000E+00
    0.83410E-02        -0.41968E-01         0.00000E+00
    0.74915E-02        -0.39189E-01         0.00000E+00
    0.67382E-02        -0.36412E-01         0.00000E+00
    0.60670E-02        -0.33635E-01         0.00000E+00
    0.54643E-02        -0.30854E-01         0.00000E+00
    0.49169E-02        -0.28069E-01         0.00000E+00
    0.44121E-02        -0.25278E-01         0.00000E+00
    0.39379E-02        -0.22481E-01         0.00000E+00
    0.34830E-02        -0.19678E-01         0.00000E+00
    0.30363E-02        -0.16870E-01         0.00000E+00
    0.25878E-02        -0.14058E-01         0.00000E+00
    0.21278E-02        -0.11243E-01         0.00000E+00
    0.16473E-02        -0.84274E-02         0.00000E+00
    0.11376E-02        -0.56133E-02         0.00000E+00
    0.59092E-03        -0.28032E-02         0.00000E+00
    0.00000E+00         0.00000E+00         0.00000E+00
    0.84053E-02        -0.42884E-01         0.00000E+00
    0.75354E-02        -0.40055E-01         0.00000E+00
    0.67686E-02        -0.37227E-01         0.00000E+00
    0.60896E-02        -0.34397E-01         0.00000E+00
    0.54832E-02        -0.31562E-01         0.00000E+00
    0.49352E-02        -0.28720E-01         0.00000E+00
    0.44318E-02        -0.25871E-01         0.00000E+00
    0.39601E-02        -0.23015E-01         0.00000E+00
    0.35078E-02        -0.20152E-01         0.00000E+00
    0.30635E-02        -0.17282E-01         0.00000E+00
    0.26164E-02        -0.14406E-01         0.00000E+00
    0.21561E-02        -0.11526E-01         0.00000E+00
    0.16730E-02        -0.86427E-02         0.00000E+00
    0.11582E-02        -0.57591E-02         0.00000E+00
    0.60307E-03        -0.28773E-02         0.00000E+00
    0.00000E+00         0.00000E+00         0.00000E+00
    0.83855E-02        -0.43820E-01         0.00000E+00
    0.75022E-02        -0.40940E-01         0.00000E+00
    0.67291E-02        -0.38060E-01         0.00000E+00
    0.60491E-02        -0.35175E-01         0.00000E+00
    0.54457E-02        -0.32284E-01         0.00000E+00
    0.49034E-02        -0.29384E-01         0.00000E+00
    0.44072E-02        -0.26477E-01         0.00000E+00
    0.39436E-02        -0.23560E-01         0.00000E+00
    0.34995E-02        -0.20634E-01         0.00000E+00
    0.30627E-02        -0.17701E-01         0.00000E+00
    0.26219E-02        -0.14760E-01         0.00000E+00
    0.21663E-02        -0.11814E-01         0.00000E+00
    0.16856E-02        -0.88621E-02         0.00000E+00
    0.11702E-02        -0.59078E-02         0.00000E+00
    0.61105E-03        -0.29529E-02         0.00000E+00
    0.00000E+00         0.00000E+00         0.00000E+00
    0.82767E-02        -0.44770E-01         0.00000E+00
    0.73879E-02        -0.41838E-01         0.00000E+00
    0.66161E-02        -0.38904E-01         0.00000E+00
    0.59426E-02        -0.35963E-01         0.00000E+00
    0.53492E-02        -0.33014E-01         0.00000E+00
    0.48191E-02        -0.30056E-01         0.00000E+00
    0.43365E-02        -0.27087E-01         0.00000E+00
    0.38867E-02        -0.24109E-01         0.00000E+00
    0.34562E-02        -0.21121E-01         0.00000E+00
    0.30324E-02        -0.18124E-01         0.00000E+00
    0.26032E-02        -0.15118E-01         0.00000E+00
    0.21573E-02        -0.12104E-01         0.00000E+00
    0.16839E-02        -0.90834E-02         0.00000E+00
    0.11729E-02        -0.60579E-02         0.00000E+00
    0.61458E-03        -0.30293E-02         0.00000E+00
    0.00000E+00         0.00000E+00         0.00000E+00
    0.80738E-02        -0.45725E-01         0.00000E+00
    0.71883E-02        -0.42741E-01         0.00000E+00
    0.64264E-02        -0.39751E-01         0.00000E+00
    0.57673E-02        -0.36753E-01         0.00000E+00
    0.51914E-02        -0.33745E-01         0.00000E+00
    0.46804E-02        -0.30727E-01         0.00000E+00
    0.42176E-02        -0.27697E-01         0.00000E+00
    0.37877E-02        -0.24657E-01         0.00000E+00
    0.33765E-02        -0.21606E-01         0.00000E+00
    0.29709E-02        -0.18545E-01         0.00000E+00
    0.25586E-02        -0.15474E-01         0.00000E+00
    0.21277E-02        -0.12393E-01         0.00000E+00
    0.16671E-02        -0.93045E-02         0.00000E+00
    0.11658E-02        -0.62080E-02         0.00000E+00
    0.61331E-03        -0.31058E-02         0.00000E+00
    0.00000E+00         0.00000E+00         0.00000E+00
    0.77722E-02        -0.46677E-01         0.00000E+00
    0.68996E-02        -0.43638E-01         0.00000E+00
    0.61569E-02        -0.40592E-01         0.00000E+00
    0.55210E-02        -0.37536E-01         0.00000E+00
    0.49704E-02        -0.34469E-01         0.00000E+00
    0.44856E-02        -0.31390E-01         0.00000E+00
    0.40491E-02        -0.28299E-01         0.00000E+00
    0.36448E-02        -0.25197E-01         0.00000E+00
    0.32584E-02        -0.22084E-01         0.00000E+00
    0.28764E-02        -0.18960E-01         0.00000E+00
    0.24864E-02        -0.15825E-01         0.00000E+00
    0.20761E-02        -0.12679E-01         0.00000E+00
    0.16337E-02        -0.95228E-02         0.00000E+00
    0.11477E-02        -0.63566E-02         0.00000E+00
    0.60673E-03        -0.31817E-02         0.00000E+00
    0.00000E+00         0.00000E+00         0.00000E+00
    0.73672E-02        -0.47613E-01         0.00000E+00
    0.65186E-02        -0.44521E-01         0.00000E+00
    0.58052E-02        -0.41418E-01         0.00000E+00
    0.52016E-02        -0.38303E-01         0.00000E+00
    0.46845E-02        -0.35176E-01         0.00000E+00
    0.42331E-02        -0.32036E-01         0.00000E+00
    0.38291E-02        -0.28884E-01         0.00000E+00
    0.34563E-02        -0.25721E-01         0.00000E+00
    0.31000E-02        -0.22547E-01         0.00000E+00
    0.27469E-02        -0.19362E-01         0.00000E+00
    0.23844E-02        -0.16165E-01         0.00000E+00
    0.20002E-02        -0.12957E-01         0.00000E+00
    0.15820E-02        -0.97355E-02         0.00000E+00
    0.11175E-02        -0.65018E-02         0.00000E+00
    0.59418E-03        -0.32561E-02         0.00000E+00
    0.00000E+00         0.00000E+00         0.00000E+00
    0.68546E-02        -0.48524E-01         0.00000E+00
    0.60420E-02        -0.45377E-01         0.00000E+00
    0.53692E-02        -0.42217E-01         0.00000E+00
    0.48078E-02        -0.39043E-01         0.00000E+00
    0.43327E-02        -0.35855E-01         0.00000E+00
    0.39218E-02        -0.32655E-01         0.00000E+00
    0.35564E-02        -0.29443E-01         0.00000E+00
    0.32202E-02        -0.26221E-01         0.00000E+00
    0.28989E-02        -0.22989E-01         0.00000E+00
    0.25796E-02        -0.19745E-01         0.00000E+00
    0.22499E-02        -0.16490E-01         0.00000E+00
    0.18974E-02        -0.13222E-01         0.00000E+00
    0.15096E-02        -0.99396E-02         0.00000E+00
    0.10733E-02        -0.66418E-02         0.00000E+00
    0.57473E-03        -0.33283E-02         0.00000E+00
    0.00000E+00         0.00000E+00         0.00000E+00
    0.62306E-02        -0.49395E-01         0.00000E+00
    0.54676E-02        -0.46193E-01         0.00000E+00
    0.48476E-02        -0.42976E-01         0.00000E+00
    0.43389E-02        -0.39742E-01         0.00000E+00
    0.39141E-02        -0.36495E-01         0.00000E+00
    0.35505E-02        -0.33236E-01         0.00000E+00
    0.32292E-02        -0.29966E-01         0.00000E+00
    0.29344E-02        -0.26687E-01         0.00000E+00
    0.26526E-02        -0.23399E-01         0.00000E+00
    0.23716E-02        -0.20102E-01         0.00000E+00
    0.20795E-02        -0.16793E-01         0.00000E+00
    0.17643E-02        -0.13470E-01         0.00000E+00
    0.14134E-02        -0.10132E-01         0.00000E+00
    0.10128E-02        -0.67744E-02         0.00000E+00
    0.54709E-03        -0.33972E-02         0.00000E+00
    0.00000E+00         0.00000E+00         0.00000E+00
    0.54914E-02        -0.50211E-01         0.00000E+00
    0.47938E-02        -0.46955E-01         0.00000E+00
    0.42402E-02        -0.43680E-01         0.00000E+00
    0.37950E-02        -0.40388E-01         0.00000E+00
    0.34288E-02        -0.37082E-01         0.00000E+00
    0.31186E-02        -0.33765E-01         0.00000E+00
    0.28460E-02        -0.30440E-01         0.00000E+00
    0.25966E-02        -0.27109E-01         0.00000E+00
    0.23579E-02        -0.23771E-01         0.00000E+00
    0.21189E-02        -0.20425E-01         0.00000E+00
    0.18688E-02        -0.17068E-01         0.00000E+00
    0.15965E-02        -0.13697E-01         0.00000E+00
    0.12894E-02        -0.10308E-01         0.00000E+00
    0.93277E-03        -0.68975E-02         0.00000E+00
    0.50944E-03        -0.34618E-02         0.00000E+00
    0.00000E+00         0.00000E+00         0.00000E+00
    0.46343E-02        -0.50956E-01         0.00000E+00
    0.40200E-02        -0.47645E-01         0.00000E+00
    0.35478E-02        -0.44313E-01         0.00000E+00
    0.31771E-02        -0.40962E-01         0.00000E+00
    0.28771E-02        -0.37599E-01         0.00000E+00
    0.26253E-02        -0.34229E-01         0.00000E+00
    0.24051E-02        -0.30854E-01         0.00000E+00
    0.22038E-02        -0.27476E-01         0.00000E+00
    0.20109E-02        -0.24093E-01         0.00000E+00
    0.18170E-02        -0.20705E-01         0.00000E+00
    0.16128E-02        -0.17307E-01         0.00000E+00
    0.13884E-02        -0.13895E-01         0.00000E+00
    0.11320E-02        -0.10465E-01         0.00000E+00
    0.82866E-03        -0.70084E-02         0.00000E+00
    0.45918E-03        -0.35213E-02         0.00000E+00
    0.00000E+00         0.00000E+00         0.00000E+00
    0.36568E-02        -0.51607E-01         0.00000E+00
    0.31474E-02        -0.48243E-01         0.00000E+00
    0.27730E-02        -0.44854E-01         0.00000E+00
    0.24873E-02        -0.41447E-01         0.00000E+00
    0.22594E-02        -0.38031E-01         0.00000E+00
    0.20695E-02        -0.34613E-01         0.00000E+00
    0.19038E-02        -0.31194E-01         0.00000E+00
    0.17525E-02        -0.27776E-01         0.00000E+00
    0.16071E-02        -0.24357E-01         0.00000E+00
    0.14604E-02        -0.20934E-01         0.00000E+00
    0.13052E-02        -0.17504E-01         0.00000E+00
    0.11331E-02        -0.14060E-01         0.00000E+00
    0.93414E-03        -0.10597E-01         0.00000E+00
    0.69417E-03        -0.71042E-02         0.00000E+00
    0.39247E-03        -0.35742E-02         0.00000E+00
    0.00000E+00         0.00000E+00         0.00000E+00
    0.25571E-02        -0.52140E-01         0.00000E+00
    0.21800E-02        -0.48723E-01         0.00000E+00
    0.19205E-02        -0.45278E-01         0.00000E+00
    0.17279E-02        -0.41819E-01         0.00000E+00
    0.15757E-02        -0.38359E-01         0.00000E+00
    0.14492E-02        -0.34901E-01         0.00000E+00
    0.13391E-02        -0.31449E-01         0.00000E+00
    0.12383E-02        -0.28000E-01         0.00000E+00
    0.11414E-02        -0.24553E-01         0.00000E+00
    0.10432E-02        -0.21105E-01         0.00000E+00
    0.93886E-03        -0.17651E-01         0.00000E+00
    0.82250E-03        -0.14185E-01         0.00000E+00
    0.68668E-03        -0.10698E-01         0.00000E+00
    0.52026E-03        -0.71811E-02         0.00000E+00
    0.30321E-03        -0.36193E-02         0.00000E+00
    0.00000E+00         0.00000E+00         0.00000E+00
    0.13352E-02        -0.52518E-01         0.00000E+00
    0.11265E-02        -0.49048E-01         0.00000E+00
    0.99598E-03        -0.45553E-01         0.00000E+00
    0.89975E-03        -0.42056E-01         0.00000E+00
    0.82396E-03        -0.38564E-01         0.00000E+00
    0.76106E-03        -0.35081E-01         0.00000E+00
    0.70626E-03        -0.31606E-01         0.00000E+00
    0.65610E-03        -0.28138E-01         0.00000E+00
    0.60775E-03        -0.24675E-01         0.00000E+00
    0.55870E-03        -0.21211E-01         0.00000E+00
    0.50637E-03        -0.17743E-01         0.00000E+00
    0.44780E-03        -0.14263E-01         0.00000E+00
    0.37903E-03        -0.10763E-01         0.00000E+00
    0.29382E-03        -0.72328E-02         0.00000E+00
    0.18044E-03        -0.36540E-02         0.00000E+00
    0.00000E+00         0.00000E+00         0.00000E+00
    0.00000E+00        -0.52678E-01         0.00000E+00
    0.00000E+00        -0.49168E-01         0.00000E+00
    0.00000E+00        -0.45650E-01         0.00000E+00
    0.00000E+00        -0.42138E-01         0.00000E+00
    0.00000E+00        -0.38635E-01         0.00000E+00
    0.00000E+00        -0.35142E-01         0.00000E+00
    0.00000E+00        -0.31660E-01         0.00000E+00
    0.00000E+00        -0.28185E-01         0.00000E+00
    0.00000E+00        -0.24716E-01         0.00000E+00
    0.00000E+00        -0.21247E-01         0.00000E+00
    0.00000E+00        -0.17774E-01         0.00000E+00
    0.00000E+00        -0.14290E-01         0.00000E+00
    0.00000E+00        -0.10786E-01         0.00000E+00
    0.00000E+00        -0.72513E-02         0.00000E+00
    0.00000E+00        -0.36685E-02         0.00000E+00
    0.00000E+00         0.00000E+00         0.00000E+00
CELL_DATA        450
VECTORS vDarcy double 
    0.22638E-09        -0.27683E-10         0.00000E+00
    0.22625E-09        -0.75357E-10         0.00000E+00
    0.22600E-09        -0.11307E-09         0.00000E+00
    0.22567E-09        -0.14163E-09         0.00000E+00
    0.22525E-09        -0.16177E-09         0.00000E+00
    0.22478E-09        -0.17419E-09         0.00000E+00
    0.22427E-09        -0.17951E-09         0.00000E+00
    0.22374E-09        -0.17830E-09         0.00000E+00
    0.22323E-09        -0.17103E-09         0.00000E+00
    0.22273E-09        -0.15815E-09         0.00000E+00
    0.22228E-09        -0.14002E-09         0.00000E+00
    0.22188E-09        -0.11695E-09         0.00000E+00
    0.22157E-09        -0.89182E-10         0.00000E+00
    0.22134E-09        -0.56919E-10         0.00000E+00
    0.22122E-09        -0.20310E-10         0.00000E+00
    0.67843E-09        -0.27552E-10         0.00000E+00
    0.67802E-09        -0.74986E-10         0.00000E+00
    0.67728E-09        -0.11249E-09         0.00000E+00
    0.67626E-09        -0.14087E-09         0.00000E+00
    0.67501E-09        -0.16088E-09         0.00000E+00
    0.67359E-09        -0.17321E-09         0.00000E+00
    0.67206E-09        -0.17848E-09         0.00000E+00
    0.67049E-09        -0.17725E-09         0.00000E+00
    0.66893E-09        -0.17002E-09         0.00000E+00
    0.66744E-09        -0.15720E-09         0.00000E+00
    0.66608E-09        -0.13918E-09         0.00000E+00
    0.66490E-09        -0.11624E-09         0.00000E+00
    0.66395E-09        -0.88640E-10         0.00000E+00
    0.66327E-09        -0.56574E-10         0.00000E+00
    0.66291E-09        -0.20188E-10         0.00000E+00
    0.11283E-08        -0.27290E-10         0.00000E+00
    0.11276E-08        -0.74240E-10         0.00000E+00
    0.11264E-08        -0.11132E-09         0.00000E+00
    0.11247E-08        -0.13936E-09         0.00000E+00
    0.11226E-08        -0.15910E-09         0.00000E+00
    0.11202E-08        -0.17124E-09         0.00000E+00
    0.11176E-08        -0.17641E-09         0.00000E+00
    0.11150E-08        -0.17516E-09         0.00000E+00
    0.11124E-08        -0.16798E-09         0.00000E+00
    0.11099E-08        -0.15530E-09         0.00000E+00
    0.11076E-08        -0.13748E-09         0.00000E+00
    0.11056E-08        -0.11482E-09         0.00000E+00
    0.11040E-08        -0.87556E-10         0.00000E+00
    0.11029E-08        -0.55884E-10         0.00000E+00
    0.11023E-08        -0.19943E-10         0.00000E+00
    0.15745E-08        -0.26892E-10         0.00000E+00
    0.15736E-08        -0.73110E-10         0.00000E+00
    0.15718E-08        -0.10956E-09         0.00000E+00
    0.15694E-08        -0.13707E-09         0.00000E+00
    0.15664E-08        -0.15641E-09         0.00000E+00
    0.15631E-08        -0.16827E-09         0.00000E+00
    0.15595E-08        -0.17328E-09         0.00000E+00
    0.15557E-08        -0.17200E-09         0.00000E+00
    0.15521E-08        -0.16491E-09         0.00000E+00
    0.15486E-08        -0.15243E-09         0.00000E+00
    0.15454E-08        -0.13493E-09         0.00000E+00
    0.15426E-08        -0.11268E-09         0.00000E+00
    0.15404E-08        -0.85923E-10         0.00000E+00
    0.15388E-08        -0.54845E-10         0.00000E+00
    0.15379E-08        -0.19575E-10         0.00000E+00
    0.20157E-08        -0.26355E-10         0.00000E+00
    0.20144E-08        -0.71584E-10         0.00000E+00
    0.20121E-08        -0.10718E-09         0.00000E+00
    0.20090E-08        -0.13400E-09         0.00000E+00
    0.20051E-08        -0.15279E-09         0.00000E+00
    0.20008E-08        -0.16428E-09         0.00000E+00
    0.19961E-08        -0.16908E-09         0.00000E+00
    0.19913E-08        -0.16776E-09         0.00000E+00
    0.19865E-08        -0.16079E-09         0.00000E+00
    0.19820E-08        -0.14859E-09         0.00000E+00
    0.19778E-08        -0.13150E-09         0.00000E+00
    0.19743E-08        -0.10981E-09         0.00000E+00
    0.19714E-08        -0.83736E-10         0.00000E+00
    0.19693E-08        -0.53454E-10         0.00000E+00
    0.19682E-08        -0.19082E-10         0.00000E+00
    0.24503E-08        -0.25671E-10         0.00000E+00
    0.24487E-08        -0.69646E-10         0.00000E+00
    0.24459E-08        -0.10417E-09         0.00000E+00
    0.24420E-08        -0.13010E-09         0.00000E+00
    0.24372E-08        -0.14822E-09         0.00000E+00
    0.24318E-08        -0.15923E-09         0.00000E+00
    0.24260E-08        -0.16378E-09         0.00000E+00
    0.24201E-08        -0.16241E-09         0.00000E+00
    0.24142E-08        -0.15560E-09         0.00000E+00
    0.24086E-08        -0.14375E-09         0.00000E+00
    0.24036E-08        -0.12719E-09         0.00000E+00
    0.23991E-08        -0.10620E-09         0.00000E+00
    0.23956E-08        -0.80987E-10         0.00000E+00
    0.23931E-08        -0.51706E-10         0.00000E+00
    0.23917E-08        -0.18464E-10         0.00000E+00
    0.28768E-08        -0.24834E-10         0.00000E+00
    0.28750E-08        -0.67279E-10         0.00000E+00
    0.28716E-08        -0.10049E-09         0.00000E+00
    0.28669E-08        -0.12535E-09         0.00000E+00
    0.28612E-08        -0.14265E-09         0.00000E+00
    0.28547E-08        -0.15310E-09         0.00000E+00
    0.28478E-08        -0.15735E-09         0.00000E+00
    0.28407E-08        -0.15593E-09         0.00000E+00
    0.28337E-08        -0.14931E-09         0.00000E+00
    0.28271E-08        -0.13789E-09         0.00000E+00
    0.28210E-08        -0.12198E-09         0.00000E+00
    0.28158E-08        -0.10184E-09         0.00000E+00
    0.28115E-08        -0.77669E-10         0.00000E+00
    0.28085E-08        -0.49597E-10         0.00000E+00
    0.28070E-08        -0.17718E-10         0.00000E+00
    0.32940E-08        -0.23835E-10         0.00000E+00
    0.32918E-08        -0.64460E-10         0.00000E+00
    0.32878E-08        -0.96118E-10         0.00000E+00
    0.32823E-08        -0.11971E-09         0.00000E+00
    0.32756E-08        -0.13605E-09         0.00000E+00
    0.32681E-08        -0.14586E-09         0.00000E+00
    0.32600E-08        -0.14976E-09         0.00000E+00
    0.32517E-08        -0.14828E-09         0.00000E+00
    0.32435E-08        -0.14191E-09         0.00000E+00
    0.32358E-08        -0.13099E-09         0.00000E+00
    0.32287E-08        -0.11585E-09         0.00000E+00
    0.32226E-08        -0.96722E-10         0.00000E+00
    0.32177E-08        -0.73772E-10         0.00000E+00
    0.32143E-08        -0.47123E-10         0.00000E+00
    0.32124E-08        -0.16843E-10         0.00000E+00
    0.37002E-08        -0.22666E-10         0.00000E+00
    0.36976E-08        -0.61166E-10         0.00000E+00
    0.36930E-08        -0.91024E-10         0.00000E+00
    0.36867E-08        -0.11316E-09         0.00000E+00
    0.36790E-08        -0.12840E-09         0.00000E+00
    0.36703E-08        -0.13746E-09         0.00000E+00
    0.36610E-08        -0.14097E-09         0.00000E+00
    0.36516E-08        -0.13945E-09         0.00000E+00
    0.36422E-08        -0.13336E-09         0.00000E+00
    0.36333E-08        -0.12304E-09         0.00000E+00
    0.36253E-08        -0.10880E-09         0.00000E+00
    0.36183E-08        -0.90829E-10         0.00000E+00
    0.36127E-08        -0.69291E-10         0.00000E+00
    0.36088E-08        -0.44279E-10         0.00000E+00
    0.36067E-08        -0.15838E-10         0.00000E+00
    0.40940E-08        -0.21316E-10         0.00000E+00
    0.40911E-08        -0.57376E-10         0.00000E+00
    0.40858E-08        -0.85174E-10         0.00000E+00
    0.40786E-08        -0.10565E-09         0.00000E+00
    0.40699E-08        -0.11965E-09         0.00000E+00
    0.40600E-08        -0.12788E-09         0.00000E+00
    0.40496E-08        -0.13096E-09         0.00000E+00
    0.40388E-08        -0.12941E-09         0.00000E+00
    0.40283E-08        -0.12365E-09         0.00000E+00
    0.40183E-08        -0.11403E-09         0.00000E+00
    0.40092E-08        -0.10080E-09         0.00000E+00
    0.40014E-08        -0.84156E-10         0.00000E+00
    0.39952E-08        -0.64221E-10         0.00000E+00
    0.39907E-08        -0.41064E-10         0.00000E+00
    0.39884E-08        -0.14704E-10         0.00000E+00
    0.44739E-08        -0.19777E-10         0.00000E+00
    0.44707E-08        -0.53065E-10         0.00000E+00
    0.44648E-08        -0.78540E-10         0.00000E+00
    0.44567E-08        -0.97164E-10         0.00000E+00
    0.44468E-08        -0.10977E-09         0.00000E+00
    0.44358E-08        -0.11709E-09         0.00000E+00
    0.44241E-08        -0.11971E-09         0.00000E+00
    0.44122E-08        -0.11813E-09         0.00000E+00
    0.44004E-08        -0.11277E-09         0.00000E+00
    0.43893E-08        -0.10394E-09         0.00000E+00
    0.43792E-08        -0.91858E-10         0.00000E+00
    0.43705E-08        -0.76702E-10         0.00000E+00
    0.43636E-08        -0.58563E-10         0.00000E+00
    0.43587E-08        -0.37479E-10         0.00000E+00
    0.43561E-08        -0.13439E-10         0.00000E+00
    0.48386E-08        -0.18039E-10         0.00000E+00
    0.48350E-08        -0.48213E-10         0.00000E+00
    0.48284E-08        -0.71096E-10         0.00000E+00
    0.48194E-08        -0.87664E-10         0.00000E+00
    0.48085E-08        -0.98752E-10         0.00000E+00
    0.47963E-08        -0.10507E-09         0.00000E+00
    0.47833E-08        -0.10720E-09         0.00000E+00
    0.47701E-08        -0.10563E-09         0.00000E+00
    0.47572E-08        -0.10072E-09         0.00000E+00
    0.47449E-08        -0.92773E-10         0.00000E+00
    0.47339E-08        -0.81980E-10         0.00000E+00
    0.47243E-08        -0.68475E-10         0.00000E+00
    0.47167E-08        -0.52322E-10         0.00000E+00
    0.47113E-08        -0.33527E-10         0.00000E+00
    0.47085E-08        -0.12046E-10         0.00000E+00
    0.51866E-08        -0.16094E-10         0.00000E+00
    0.51826E-08        -0.42804E-10         0.00000E+00
    0.51753E-08        -0.62825E-10         0.00000E+00
    0.51653E-08        -0.77139E-10         0.00000E+00
    0.51533E-08        -0.86577E-10         0.00000E+00
    0.51399E-08        -0.91828E-10         0.00000E+00
    0.51257E-08        -0.93455E-10         0.00000E+00
    0.51113E-08        -0.91906E-10         0.00000E+00
    0.50972E-08        -0.87524E-10         0.00000E+00
    0.50839E-08        -0.80561E-10         0.00000E+00
    0.50719E-08        -0.71185E-10         0.00000E+00
    0.50615E-08        -0.59493E-10         0.00000E+00
    0.50533E-08        -0.45513E-10         0.00000E+00
    0.50474E-08        -0.29217E-10         0.00000E+00
    0.50443E-08        -0.10528E-10         0.00000E+00
    0.55163E-08        -0.13938E-10         0.00000E+00
    0.55120E-08        -0.36827E-10         0.00000E+00
    0.55040E-08        -0.53718E-10         0.00000E+00
    0.54931E-08        -0.65590E-10         0.00000E+00
    0.54800E-08        -0.73257E-10         0.00000E+00
    0.54655E-08        -0.77382E-10         0.00000E+00
    0.54501E-08        -0.78495E-10         0.00000E+00
    0.54345E-08        -0.77004E-10         0.00000E+00
    0.54193E-08        -0.73215E-10         0.00000E+00
    0.54050E-08        -0.67341E-10         0.00000E+00
    0.53920E-08        -0.59513E-10         0.00000E+00
    0.53809E-08        -0.49788E-10         0.00000E+00
    0.53720E-08        -0.38160E-10         0.00000E+00
    0.53658E-08        -0.24566E-10         0.00000E+00
    0.53625E-08        -0.88907E-11         0.00000E+00
    0.58265E-08        -0.11566E-10         0.00000E+00
    0.58218E-08        -0.30280E-10         0.00000E+00
    0.58131E-08        -0.43782E-10         0.00000E+00
    0.58013E-08        -0.53037E-10         0.00000E+00
    0.57872E-08        -0.58829E-10         0.00000E+00
    0.57716E-08        -0.61783E-10         0.00000E+00
    0.57551E-08        -0.62383E-10         0.00000E+00
    0.57385E-08        -0.60992E-10         0.00000E+00
    0.57222E-08        -0.57869E-10         0.00000E+00
    0.57070E-08        -0.53184E-10         0.00000E+00
    0.56932E-08        -0.47025E-10         0.00000E+00
    0.56814E-08        -0.39413E-10         0.00000E+00
    0.56719E-08        -0.30303E-10         0.00000E+00
    0.56653E-08        -0.19597E-10         0.00000E+00
    0.56618E-08        -0.71412E-11         0.00000E+00
    0.61157E-08        -0.89793E-11         0.00000E+00
    0.61106E-08        -0.23172E-10         0.00000E+00
    0.61012E-08        -0.33043E-10         0.00000E+00
    0.60886E-08        -0.39527E-10         0.00000E+00
    0.60736E-08        -0.43361E-10         0.00000E+00
    0.60570E-08        -0.45118E-10         0.00000E+00
    0.60395E-08        -0.45222E-10         0.00000E+00
    0.60219E-08        -0.43980E-10         0.00000E+00
    0.60048E-08        -0.41597E-10         0.00000E+00
    0.59887E-08        -0.38194E-10         0.00000E+00
    0.59742E-08        -0.33816E-10         0.00000E+00
    0.59618E-08        -0.28444E-10         0.00000E+00
    0.59519E-08        -0.21998E-10         0.00000E+00
    0.59449E-08        -0.14343E-10         0.00000E+00
    0.59413E-08        -0.52911E-11         0.00000E+00
    0.63825E-08        -0.61835E-11         0.00000E+00
    0.63770E-08        -0.15529E-10         0.00000E+00
    0.63671E-08        -0.21555E-10         0.00000E+00
    0.63537E-08        -0.25143E-10         0.00000E+00
    0.63379E-08        -0.26966E-10         0.00000E+00
    0.63204E-08        -0.27523E-10         0.00000E+00
    0.63022E-08        -0.27165E-10         0.00000E+00
    0.62838E-08        -0.26130E-10         0.00000E+00
    0.62660E-08        -0.24560E-10         0.00000E+00
    0.62493E-08        -0.22521E-10         0.00000E+00
    0.62343E-08        -0.20016E-10         0.00000E+00
    0.62214E-08        -0.16987E-10         0.00000E+00
    0.62111E-08        -0.13321E-10         0.00000E+00
    0.62039E-08        -0.88508E-11         0.00000E+00
    0.62001E-08        -0.33551E-11         0.00000E+00
    0.66256E-08        -0.31906E-11         0.00000E+00
    0.66198E-08        -0.73959E-11         0.00000E+00
    0.66093E-08        -0.94012E-11         0.00000E+00
    0.65953E-08        -0.10012E-10         0.00000E+00
    0.65789E-08        -0.98092E-11         0.00000E+00
    0.65608E-08        -0.91956E-11         0.00000E+00
    0.65420E-08        -0.84309E-11         0.00000E+00
    0.65231E-08        -0.76679E-11         0.00000E+00
    0.65049E-08        -0.69783E-11         0.00000E+00
    0.64878E-08        -0.63713E-11         0.00000E+00
    0.64725E-08        -0.58040E-11         0.00000E+00
    0.64593E-08        -0.51854E-11         0.00000E+00
    0.64488E-08        -0.43754E-11         0.00000E+00
    0.64414E-08        -0.31812E-11         0.00000E+00
    0.64375E-08        -0.13528E-11         0.00000E+00
    0.68435E-08        -0.21056E-13         0.00000E+00
    0.68375E-08         0.11576E-11         0.00000E+00
    0.68266E-08         0.32901E-11         0.00000E+00
    0.68122E-08         0.56821E-11         0.00000E+00
    0.67953E-08         0.78744E-11         0.00000E+00
    0.67770E-08         0.95895E-11         0.00000E+00
    0.67579E-08         0.10682E-10         0.00000E+00
    0.67389E-08         0.11100E-10         0.00000E+00
    0.67206E-08         0.10850E-10         0.00000E+00
    0.67035E-08         0.99837E-11         0.00000E+00
    0.66881E-08         0.85857E-11         0.00000E+00
    0.66749E-08         0.67735E-11         0.00000E+00
    0.66644E-08         0.47047E-11         0.00000E+00
    0.66569E-08         0.25875E-11         0.00000E+00
    0.66530E-08         0.69112E-12         0.00000E+00
    0.70350E-08         0.32943E-11         0.00000E+00
    0.70288E-08         0.10029E-10         0.00000E+00
    0.70178E-08         0.16339E-10         0.00000E+00
    0.70032E-08         0.21683E-10         0.00000E+00
    0.69863E-08         0.25764E-10         0.00000E+00
    0.69679E-08         0.28463E-10         0.00000E+00
    0.69491E-08         0.29777E-10         0.00000E+00
    0.69304E-08         0.29769E-10         0.00000E+00
    0.69125E-08         0.28536E-10         0.00000E+00
    0.68957E-08         0.26189E-10         0.00000E+00
    0.68807E-08         0.22849E-10         0.00000E+00
    0.68678E-08         0.18649E-10         0.00000E+00
    0.68574E-08         0.13749E-10         0.00000E+00
    0.68501E-08         0.83557E-11         0.00000E+00
    0.68462E-08         0.27456E-11         0.00000E+00
    0.71988E-08         0.67112E-11         0.00000E+00
    0.71926E-08         0.19075E-10         0.00000E+00
    0.71815E-08         0.29498E-10         0.00000E+00
    0.71671E-08         0.37644E-10         0.00000E+00
    0.71505E-08         0.43432E-10         0.00000E+00
    0.71328E-08         0.46940E-10         0.00000E+00
    0.71148E-08         0.48336E-10         0.00000E+00
    0.70970E-08         0.47819E-10         0.00000E+00
    0.70800E-08         0.45582E-10         0.00000E+00
    0.70642E-08         0.41795E-10         0.00000E+00
    0.70499E-08         0.36603E-10         0.00000E+00
    0.70377E-08         0.30137E-10         0.00000E+00
    0.70278E-08         0.22541E-10         0.00000E+00
    0.70208E-08         0.14000E-10         0.00000E+00
    0.70170E-08         0.47727E-11         0.00000E+00
    0.73335E-08         0.10168E-10         0.00000E+00
    0.73274E-08         0.28099E-10         0.00000E+00
    0.73166E-08         0.42432E-10         0.00000E+00
    0.73029E-08         0.53106E-10         0.00000E+00
    0.72873E-08         0.60316E-10         0.00000E+00
    0.72709E-08         0.64389E-10         0.00000E+00
    0.72543E-08         0.65696E-10         0.00000E+00
    0.72382E-08         0.64590E-10         0.00000E+00
    0.72228E-08         0.61362E-10         0.00000E+00
    0.72086E-08         0.56235E-10         0.00000E+00
    0.71957E-08         0.49365E-10         0.00000E+00
    0.71846E-08         0.40859E-10         0.00000E+00
    0.71756E-08         0.30817E-10         0.00000E+00
    0.71691E-08         0.19367E-10         0.00000E+00
    0.71656E-08         0.67259E-11         0.00000E+00
    0.74378E-08         0.13583E-10         0.00000E+00
    0.74320E-08         0.36837E-10         0.00000E+00
    0.74220E-08         0.54693E-10         0.00000E+00
    0.74095E-08         0.67461E-10         0.00000E+00
    0.73956E-08         0.75688E-10         0.00000E+00
    0.73813E-08         0.80007E-10         0.00000E+00
    0.73672E-08         0.81027E-10         0.00000E+00
    0.73536E-08         0.79262E-10         0.00000E+00
    0.73408E-08         0.75104E-10         0.00000E+00
    0.73289E-08         0.68816E-10         0.00000E+00
    0.73182E-08         0.60544E-10         0.00000E+00
    0.73088E-08         0.50349E-10         0.00000E+00
    0.73011E-08         0.38246E-10         0.00000E+00
    0.72954E-08         0.24269E-10         0.00000E+00
    0.72923E-08         0.85494E-11         0.00000E+00
    0.75103E-08         0.16839E-10         0.00000E+00
    0.75052E-08         0.44928E-10         0.00000E+00
    0.74965E-08         0.65681E-10         0.00000E+00
    0.74860E-08         0.79908E-10         0.00000E+00
    0.74748E-08         0.88610E-10         0.00000E+00
    0.74638E-08         0.92785E-10         0.00000E+00
    0.74532E-08         0.93302E-10         0.00000E+00
    0.74433E-08         0.90838E-10         0.00000E+00
    0.74341E-08         0.85875E-10         0.00000E+00
    0.74256E-08         0.78697E-10         0.00000E+00
    0.74178E-08         0.69424E-10         0.00000E+00
    0.74108E-08         0.58035E-10         0.00000E+00
    0.74049E-08         0.44424E-10         0.00000E+00
    0.74004E-08         0.28476E-10         0.00000E+00
    0.73978E-08         0.10175E-10         0.00000E+00
    0.75497E-08         0.19781E-10         0.00000E+00
    0.75455E-08         0.51871E-10         0.00000E+00
    0.75389E-08         0.74577E-10         0.00000E+00
    0.75315E-08         0.89388E-10         0.00000E+00
    0.75244E-08         0.97882E-10         0.00000E+00
    0.75180E-08         0.10147E-09         0.00000E+00
    0.75123E-08         0.10128E-09         0.00000E+00
    0.75073E-08         0.98135E-10         0.00000E+00
    0.75029E-08         0.92574E-10         0.00000E+00
    0.74989E-08         0.84887E-10         0.00000E+00
    0.74951E-08         0.75143E-10         0.00000E+00
    0.74914E-08         0.63221E-10         0.00000E+00
    0.74880E-08         0.48851E-10         0.00000E+00
    0.74851E-08         0.31701E-10         0.00000E+00
    0.74833E-08         0.11520E-10         0.00000E+00
    0.75543E-08         0.22177E-10         0.00000E+00
    0.75517E-08         0.56947E-10         0.00000E+00
    0.75483E-08         0.80238E-10         0.00000E+00
    0.75455E-08         0.94489E-10         0.00000E+00
    0.75440E-08         0.10198E-09         0.00000E+00
    0.75438E-08         0.10454E-09         0.00000E+00
    0.75447E-08         0.10351E-09         0.00000E+00
    0.75462E-08         0.99794E-10         0.00000E+00
    0.75480E-08         0.93948E-10         0.00000E+00
    0.75497E-08         0.86241E-10         0.00000E+00
    0.75510E-08         0.76686E-10         0.00000E+00
    0.75517E-08         0.65054E-10         0.00000E+00
    0.75516E-08         0.50889E-10         0.00000E+00
    0.75508E-08         0.33569E-10         0.00000E+00
    0.75501E-08         0.12476E-10         0.00000E+00
    0.75222E-08         0.23672E-10         0.00000E+00
    0.75221E-08         0.59053E-10         0.00000E+00
    0.75235E-08         0.81004E-10         0.00000E+00
    0.75274E-08         0.93305E-10         0.00000E+00
    0.75338E-08         0.98998E-10         0.00000E+00
    0.75419E-08         0.10021E-09         0.00000E+00
    0.75511E-08         0.98358E-10         0.00000E+00
    0.75607E-08         0.94325E-10         0.00000E+00
    0.75702E-08         0.88630E-10         0.00000E+00
    0.75790E-08         0.81493E-10         0.00000E+00
    0.75867E-08         0.72878E-10         0.00000E+00
    0.75929E-08         0.62482E-10         0.00000E+00
    0.75971E-08         0.49697E-10         0.00000E+00
    0.75994E-08         0.33559E-10         0.00000E+00
    0.76001E-08         0.12895E-10         0.00000E+00
    0.74510E-08         0.23637E-10         0.00000E+00
    0.74550E-08         0.56335E-10         0.00000E+00
    0.74640E-08         0.74360E-10         0.00000E+00
    0.74776E-08         0.83284E-10         0.00000E+00
    0.74944E-08         0.86624E-10         0.00000E+00
    0.75131E-08         0.86475E-10         0.00000E+00
    0.75326E-08         0.84088E-10         0.00000E+00
    0.75519E-08         0.80203E-10         0.00000E+00
    0.75705E-08         0.75226E-10         0.00000E+00
    0.75878E-08         0.69316E-10         0.00000E+00
    0.76032E-08         0.62412E-10         0.00000E+00
    0.76163E-08         0.54213E-10         0.00000E+00
    0.76263E-08         0.44083E-10         0.00000E+00
    0.76328E-08         0.30860E-10         0.00000E+00
    0.76356E-08         0.12525E-10         0.00000E+00
    0.73371E-08         0.20769E-10         0.00000E+00
    0.73485E-08         0.45170E-10         0.00000E+00
    0.73698E-08         0.56459E-10         0.00000E+00
    0.73972E-08         0.61166E-10         0.00000E+00
    0.74277E-08         0.62262E-10         0.00000E+00
    0.74593E-08         0.61272E-10         0.00000E+00
    0.74908E-08         0.59030E-10         0.00000E+00
    0.75214E-08         0.56006E-10         0.00000E+00
    0.75503E-08         0.52447E-10         0.00000E+00
    0.75773E-08         0.48442E-10         0.00000E+00
    0.76017E-08         0.43941E-10         0.00000E+00
    0.76231E-08         0.38733E-10         0.00000E+00
    0.76408E-08         0.32348E-10         0.00000E+00
    0.76536E-08         0.23827E-10         0.00000E+00
    0.76599E-08         0.10970E-10         0.00000E+00
    0.71738E-08         0.92027E-11         0.00000E+00
    0.72023E-08         0.18432E-10         0.00000E+00
    0.72435E-08         0.22057E-10         0.00000E+00
    0.72894E-08         0.23316E-10         0.00000E+00
    0.73366E-08         0.23374E-10         0.00000E+00
    0.73832E-08         0.22775E-10         0.00000E+00
    0.74281E-08         0.21802E-10         0.00000E+00
    0.74709E-08         0.20612E-10         0.00000E+00
    0.75111E-08         0.19282E-10         0.00000E+00
    0.75485E-08         0.17840E-10         0.00000E+00
    0.75828E-08         0.16268E-10         0.00000E+00
    0.76139E-08         0.14494E-10         0.00000E+00
    0.76410E-08         0.12351E-10         0.00000E+00
    0.76632E-08         0.94708E-11         0.00000E+00
    0.76780E-08         0.49184E-11         0.00000E+00
POINT_DATA        496
VECTORS vDarcyNodal double 
    0.22642E-09        -0.27715E-10         0.00000E+00
    0.22635E-09        -0.51582E-10         0.00000E+00
    0.22615E-09        -0.94332E-10         0.00000E+00
    0.22586E-09        -0.12751E-09         0.00000E+00
    0.22547E-09        -0.15190E-09         0.00000E+00
    0.22502E-09        -0.16821E-09         0.00000E+00
    0.22453E-09        -0.17710E-09         0.00000E+00
    0.22401E-09        -0.17916E-09         0.00000E+00
    0.22348E-09        -0.17492E-09         0.00000E+00
    0.22297E-09        -0.16484E-09         0.00000E+00
    0.22249E-09        -0.14931E-09         0.00000E+00
    0.22206E-09        -0.12868E-09         0.00000E+00
    0.22171E-09        -0.10322E-09         0.00000E+00
    0.22143E-09        -0.73161E-10         0.00000E+00
    0.22126E-09        -0.38673E-10         0.00000E+00
    0.22119E-09        -0.20340E-10         0.00000E+00
    0.45247E-09        -0.27650E-10         0.00000E+00
    0.45233E-09        -0.51457E-10         0.00000E+00
    0.45194E-09        -0.94095E-10         0.00000E+00
    0.45135E-09        -0.12718E-09         0.00000E+00
    0.45058E-09        -0.15149E-09         0.00000E+00
    0.44968E-09        -0.16775E-09         0.00000E+00
    0.44869E-09        -0.17660E-09         0.00000E+00
    0.44764E-09        -0.17865E-09         0.00000E+00
    0.44659E-09        -0.17441E-09         0.00000E+00
    0.44556E-09        -0.16435E-09         0.00000E+00
    0.44460E-09        -0.14886E-09         0.00000E+00
    0.44375E-09        -0.12829E-09         0.00000E+00
    0.44303E-09        -0.10291E-09         0.00000E+00
    0.44248E-09        -0.72940E-10         0.00000E+00
    0.44213E-09        -0.38556E-10         0.00000E+00
    0.44201E-09        -0.20279E-10         0.00000E+00
    0.90349E-09        -0.27454E-10         0.00000E+00
    0.90321E-09        -0.51081E-10         0.00000E+00
    0.90243E-09        -0.93381E-10         0.00000E+00
    0.90123E-09        -0.12618E-09         0.00000E+00
    0.89969E-09        -0.15026E-09         0.00000E+00
    0.89788E-09        -0.16635E-09         0.00000E+00
    0.89589E-09        -0.17509E-09         0.00000E+00
    0.89380E-09        -0.17709E-09         0.00000E+00
    0.89168E-09        -0.17286E-09         0.00000E+00
    0.88962E-09        -0.16287E-09         0.00000E+00
    0.88770E-09        -0.14752E-09         0.00000E+00
    0.88599E-09        -0.12712E-09         0.00000E+00
    0.88455E-09        -0.10197E-09         0.00000E+00
    0.88345E-09        -0.72275E-10         0.00000E+00
    0.88274E-09        -0.38206E-10         0.00000E+00
    0.88249E-09        -0.20096E-10         0.00000E+00
    0.13516E-08        -0.27125E-10         0.00000E+00
    0.13512E-08        -0.50449E-10         0.00000E+00
    0.13500E-08        -0.92183E-10         0.00000E+00
    0.13482E-08        -0.12450E-09         0.00000E+00
    0.13459E-08        -0.14820E-09         0.00000E+00
    0.13431E-08        -0.16400E-09         0.00000E+00
    0.13401E-08        -0.17256E-09         0.00000E+00
    0.13370E-08        -0.17448E-09         0.00000E+00
    0.13338E-08        -0.17028E-09         0.00000E+00
    0.13307E-08        -0.16041E-09         0.00000E+00
    0.13278E-08        -0.14526E-09         0.00000E+00
    0.13252E-08        -0.12517E-09         0.00000E+00
    0.13230E-08        -0.10040E-09         0.00000E+00
    0.13214E-08        -0.71164E-10         0.00000E+00
    0.13203E-08        -0.37621E-10         0.00000E+00
    0.13199E-08        -0.19790E-10         0.00000E+00
    0.17954E-08        -0.26659E-10         0.00000E+00
    0.17948E-08        -0.49553E-10         0.00000E+00
    0.17932E-08        -0.90488E-10         0.00000E+00
    0.17908E-08        -0.12213E-09         0.00000E+00
    0.17876E-08        -0.14529E-09         0.00000E+00
    0.17839E-08        -0.16069E-09         0.00000E+00
    0.17799E-08        -0.16900E-09         0.00000E+00
    0.17757E-08        -0.17080E-09         0.00000E+00
    0.17714E-08        -0.16663E-09         0.00000E+00
    0.17672E-08        -0.15694E-09         0.00000E+00
    0.17633E-08        -0.14209E-09         0.00000E+00
    0.17599E-08        -0.12243E-09         0.00000E+00
    0.17570E-08        -0.98197E-10         0.00000E+00
    0.17548E-08        -0.69603E-10         0.00000E+00
    0.17533E-08        -0.36799E-10         0.00000E+00
    0.17528E-08        -0.19360E-10         0.00000E+00
    0.22333E-08        -0.26050E-10         0.00000E+00
    0.22326E-08        -0.48385E-10         0.00000E+00
    0.22306E-08        -0.88279E-10         0.00000E+00
    0.22275E-08        -0.11905E-09         0.00000E+00
    0.22235E-08        -0.14150E-09         0.00000E+00
    0.22189E-08        -0.15639E-09         0.00000E+00
    0.22138E-08        -0.16437E-09         0.00000E+00
    0.22084E-08        -0.16604E-09         0.00000E+00
    0.22030E-08        -0.16191E-09         0.00000E+00
    0.21978E-08        -0.15244E-09         0.00000E+00
    0.21929E-08        -0.13799E-09         0.00000E+00
    0.21885E-08        -0.11888E-09         0.00000E+00
    0.21849E-08        -0.95347E-10         0.00000E+00
    0.21821E-08        -0.67586E-10         0.00000E+00
    0.21803E-08        -0.35737E-10         0.00000E+00
    0.21797E-08        -0.18805E-10         0.00000E+00
    0.26640E-08        -0.25292E-10         0.00000E+00
    0.26631E-08        -0.46932E-10         0.00000E+00
    0.26606E-08        -0.85535E-10         0.00000E+00
    0.26569E-08        -0.11522E-09         0.00000E+00
    0.26520E-08        -0.13681E-09         0.00000E+00
    0.26464E-08        -0.15106E-09         0.00000E+00
    0.26402E-08        -0.15865E-09         0.00000E+00
    0.26337E-08        -0.16015E-09         0.00000E+00
    0.26272E-08        -0.15609E-09         0.00000E+00
    0.26208E-08        -0.14690E-09         0.00000E+00
    0.26149E-08        -0.13294E-09         0.00000E+00
    0.26097E-08        -0.11451E-09         0.00000E+00
    0.26052E-08        -0.91841E-10         0.00000E+00
    0.26019E-08        -0.65107E-10         0.00000E+00
    0.25997E-08        -0.34433E-10         0.00000E+00
    0.25990E-08        -0.18123E-10         0.00000E+00
    0.30859E-08        -0.24376E-10         0.00000E+00
    0.30848E-08        -0.45181E-10         0.00000E+00
    0.30819E-08        -0.82233E-10         0.00000E+00
    0.30775E-08        -0.11062E-09         0.00000E+00
    0.30717E-08        -0.13118E-09         0.00000E+00
    0.30651E-08        -0.14469E-09         0.00000E+00
    0.30577E-08        -0.15181E-09         0.00000E+00
    0.30501E-08        -0.15312E-09         0.00000E+00
    0.30424E-08        -0.14915E-09         0.00000E+00
    0.30349E-08        -0.14030E-09         0.00000E+00
    0.30280E-08        -0.12692E-09         0.00000E+00
    0.30218E-08        -0.10931E-09         0.00000E+00
    0.30166E-08        -0.87670E-10         0.00000E+00
    0.30127E-08        -0.62159E-10         0.00000E+00
    0.30102E-08        -0.32882E-10         0.00000E+00
    0.30093E-08        -0.17313E-10         0.00000E+00
    0.34976E-08        -0.23294E-10         0.00000E+00
    0.34964E-08        -0.43114E-10         0.00000E+00
    0.34930E-08        -0.78345E-10         0.00000E+00
    0.34878E-08        -0.10521E-09         0.00000E+00
    0.34812E-08        -0.12458E-09         0.00000E+00
    0.34734E-08        -0.13722E-09         0.00000E+00
    0.34649E-08        -0.14381E-09         0.00000E+00
    0.34561E-08        -0.14492E-09         0.00000E+00
    0.34472E-08        -0.14104E-09         0.00000E+00
    0.34386E-08        -0.13260E-09         0.00000E+00
    0.34306E-08        -0.11992E-09         0.00000E+00
    0.34235E-08        -0.10326E-09         0.00000E+00
    0.34175E-08        -0.82824E-10         0.00000E+00
    0.34130E-08        -0.58736E-10         0.00000E+00
    0.34101E-08        -0.31084E-10         0.00000E+00
    0.34091E-08        -0.16373E-10         0.00000E+00
    0.38977E-08        -0.22037E-10         0.00000E+00
    0.38963E-08        -0.40718E-10         0.00000E+00
    0.38924E-08        -0.73845E-10         0.00000E+00
    0.38865E-08        -0.98971E-10         0.00000E+00
    0.38789E-08        -0.11698E-09         0.00000E+00
    0.38700E-08        -0.12864E-09         0.00000E+00
    0.38603E-08        -0.13462E-09         0.00000E+00
    0.38503E-08        -0.13550E-09         0.00000E+00
    0.38401E-08        -0.13177E-09         0.00000E+00
    0.38304E-08        -0.12380E-09         0.00000E+00
    0.38213E-08        -0.11192E-09         0.00000E+00
    0.38132E-08        -0.96361E-10         0.00000E+00
    0.38065E-08        -0.77296E-10         0.00000E+00
    0.38014E-08        -0.54834E-10         0.00000E+00
    0.37981E-08        -0.29034E-10         0.00000E+00
    0.37970E-08        -0.15304E-10         0.00000E+00
    0.42847E-08        -0.20595E-10         0.00000E+00
    0.42831E-08        -0.37974E-10         0.00000E+00
    0.42787E-08        -0.68705E-10         0.00000E+00
    0.42719E-08        -0.91858E-10         0.00000E+00
    0.42633E-08        -0.10833E-09         0.00000E+00
    0.42534E-08        -0.11889E-09         0.00000E+00
    0.42425E-08        -0.12422E-09         0.00000E+00
    0.42312E-08        -0.12486E-09         0.00000E+00
    0.42198E-08        -0.12129E-09         0.00000E+00
    0.42089E-08        -0.11388E-09         0.00000E+00
    0.41987E-08        -0.10291E-09         0.00000E+00
    0.41897E-08        -0.88594E-10         0.00000E+00
    0.41822E-08        -0.71082E-10         0.00000E+00
    0.41765E-08        -0.50452E-10         0.00000E+00
    0.41729E-08        -0.26734E-10         0.00000E+00
    0.41716E-08        -0.14104E-10         0.00000E+00
    0.46572E-08        -0.18958E-10         0.00000E+00
    0.46554E-08        -0.34867E-10         0.00000E+00
    0.46504E-08        -0.62900E-10         0.00000E+00
    0.46428E-08        -0.83846E-10         0.00000E+00
    0.46332E-08        -0.98610E-10         0.00000E+00
    0.46221E-08        -0.10797E-09         0.00000E+00
    0.46100E-08        -0.11258E-09         0.00000E+00
    0.45974E-08        -0.11298E-09         0.00000E+00
    0.45848E-08        -0.10961E-09         0.00000E+00
    0.45727E-08        -0.10283E-09         0.00000E+00
    0.45615E-08        -0.92886E-10         0.00000E+00
    0.45516E-08        -0.79967E-10         0.00000E+00
    0.45433E-08        -0.64184E-10         0.00000E+00
    0.45370E-08        -0.45590E-10         0.00000E+00
    0.45330E-08        -0.24184E-10         0.00000E+00
    0.45316E-08        -0.12774E-10         0.00000E+00
    0.50136E-08        -0.17119E-10         0.00000E+00
    0.50116E-08        -0.31384E-10         0.00000E+00
    0.50060E-08        -0.56409E-10         0.00000E+00
    0.49976E-08        -0.74914E-10         0.00000E+00
    0.49870E-08        -0.87806E-10         0.00000E+00
    0.49748E-08        -0.95854E-10         0.00000E+00
    0.49614E-08        -0.99696E-10         0.00000E+00
    0.49476E-08        -0.99853E-10         0.00000E+00
    0.49338E-08        -0.96738E-10         0.00000E+00
    0.49206E-08        -0.90667E-10         0.00000E+00
    0.49083E-08        -0.81867E-10         0.00000E+00
    0.48974E-08        -0.70489E-10         0.00000E+00
    0.48884E-08        -0.56614E-10         0.00000E+00
    0.48816E-08        -0.40259E-10         0.00000E+00
    0.48772E-08        -0.21389E-10         0.00000E+00
    0.48757E-08        -0.11318E-10         0.00000E+00
    0.53525E-08        -0.15070E-10         0.00000E+00
    0.53503E-08        -0.27514E-10         0.00000E+00
    0.53442E-08        -0.49219E-10         0.00000E+00
    0.53350E-08        -0.65050E-10         0.00000E+00
    0.53234E-08        -0.75910E-10         0.00000E+00
    0.53100E-08        -0.82551E-10         0.00000E+00
    0.52954E-08        -0.85587E-10         0.00000E+00
    0.52804E-08        -0.85508E-10         0.00000E+00
    0.52655E-08        -0.82692E-10         0.00000E+00
    0.52511E-08        -0.77418E-10         0.00000E+00
    0.52378E-08        -0.69879E-10         0.00000E+00
    0.52261E-08        -0.60189E-10         0.00000E+00
    0.52163E-08        -0.48392E-10         0.00000E+00
    0.52089E-08        -0.34472E-10         0.00000E+00
    0.52043E-08        -0.18357E-10         0.00000E+00
    0.52026E-08        -0.97386E-11         0.00000E+00
    0.56726E-08        -0.12806E-10         0.00000E+00
    0.56702E-08        -0.23251E-10         0.00000E+00
    0.56635E-08        -0.41325E-10         0.00000E+00
    0.56535E-08        -0.54258E-10         0.00000E+00
    0.56409E-08        -0.62937E-10         0.00000E+00
    0.56264E-08        -0.68088E-10         0.00000E+00
    0.56107E-08        -0.70290E-10         0.00000E+00
    0.55945E-08        -0.69991E-10         0.00000E+00
    0.55785E-08        -0.67528E-10         0.00000E+00
    0.55631E-08        -0.63139E-10         0.00000E+00
    0.55489E-08        -0.56975E-10         0.00000E+00
    0.55363E-08        -0.49112E-10         0.00000E+00
    0.55259E-08        -0.39556E-10         0.00000E+00
    0.55180E-08        -0.28255E-10         0.00000E+00
    0.55130E-08        -0.15100E-10         0.00000E+00
    0.55113E-08        -0.80428E-11         0.00000E+00
    0.59724E-08        -0.10326E-10         0.00000E+00
    0.59698E-08        -0.18595E-10         0.00000E+00
    0.59626E-08        -0.32736E-10         0.00000E+00
    0.59517E-08        -0.42561E-10         0.00000E+00
    0.59382E-08        -0.48929E-10         0.00000E+00
    0.59226E-08        -0.52524E-10         0.00000E+00
    0.59059E-08        -0.53876E-10         0.00000E+00
    0.58887E-08        -0.53384E-10         0.00000E+00
    0.58717E-08        -0.51334E-10         0.00000E+00
    0.58554E-08        -0.47915E-10         0.00000E+00
    0.58403E-08        -0.43235E-10         0.00000E+00
    0.58271E-08        -0.37327E-10         0.00000E+00
    0.58161E-08        -0.30160E-10         0.00000E+00
    0.58078E-08        -0.21645E-10         0.00000E+00
    0.58025E-08        -0.11638E-10         0.00000E+00
    0.58006E-08        -0.62398E-11         0.00000E+00
    0.62505E-08        -0.76327E-11         0.00000E+00
    0.62477E-08        -0.13557E-10         0.00000E+00
    0.62399E-08        -0.23479E-10         0.00000E+00
    0.62284E-08        -0.30010E-10         0.00000E+00
    0.62140E-08        -0.33960E-10         0.00000E+00
    0.61975E-08        -0.35956E-10         0.00000E+00
    0.61799E-08        -0.36464E-10         0.00000E+00
    0.61618E-08        -0.35818E-10         0.00000E+00
    0.61439E-08        -0.34244E-10         0.00000E+00
    0.61269E-08        -0.31877E-10         0.00000E+00
    0.61112E-08        -0.28776E-10         0.00000E+00
    0.60974E-08        -0.24933E-10         0.00000E+00
    0.60859E-08        -0.20282E-10         0.00000E+00
    0.60772E-08        -0.14696E-10         0.00000E+00
    0.60717E-08        -0.79962E-11         0.00000E+00
    0.60697E-08        -0.43424E-11         0.00000E+00
    0.65055E-08        -0.47344E-11         0.00000E+00
    0.65025E-08        -0.81564E-11         0.00000E+00
    0.64943E-08        -0.13605E-10         0.00000E+00
    0.64821E-08        -0.16688E-10         0.00000E+00
    0.64670E-08        -0.18149E-10         0.00000E+00
    0.64498E-08        -0.18534E-10         0.00000E+00
    0.64314E-08        -0.18225E-10         0.00000E+00
    0.64127E-08        -0.17478E-10         0.00000E+00
    0.63942E-08        -0.16446E-10         0.00000E+00
    0.63766E-08        -0.15205E-10         0.00000E+00
    0.63605E-08        -0.13762E-10         0.00000E+00
    0.63463E-08        -0.12070E-10         0.00000E+00
    0.63345E-08        -0.10026E-10         0.00000E+00
    0.63255E-08        -0.74763E-11         0.00000E+00
    0.63198E-08        -0.42098E-11         0.00000E+00
    0.63178E-08        -0.23678E-11         0.00000E+00
    0.67361E-08        -0.16470E-11         0.00000E+00
    0.67329E-08        -0.24304E-11         0.00000E+00
    0.67243E-08        -0.31927E-11         0.00000E+00
    0.67116E-08        -0.27252E-11         0.00000E+00
    0.66959E-08        -0.16721E-11         0.00000E+00
    0.66783E-08        -0.47188E-12         0.00000E+00
    0.66595E-08         0.59755E-12         0.00000E+00
    0.66404E-08         0.13782E-11         0.00000E+00
    0.66216E-08         0.17995E-11         0.00000E+00
    0.66038E-08         0.18547E-11         0.00000E+00
    0.65875E-08         0.15864E-11         0.00000E+00
    0.65731E-08         0.10802E-11         0.00000E+00
    0.65611E-08         0.46533E-12         0.00000E+00
    0.65521E-08        -0.80504E-13         0.00000E+00
    0.65463E-08        -0.32424E-12         0.00000E+00
    0.65442E-08        -0.33779E-12         0.00000E+00
    0.69409E-08         0.16047E-11         0.00000E+00
    0.69376E-08         0.35666E-11         0.00000E+00
    0.69287E-08         0.76398E-11         0.00000E+00
    0.69157E-08         0.11697E-10         0.00000E+00
    0.68997E-08         0.15228E-10         0.00000E+00
    0.68819E-08         0.17935E-10         0.00000E+00
    0.68630E-08         0.19673E-10         0.00000E+00
    0.68440E-08         0.20403E-10         0.00000E+00
    0.68253E-08         0.20149E-10         0.00000E+00
    0.68077E-08         0.18978E-10         0.00000E+00
    0.67915E-08         0.16982E-10         0.00000E+00
    0.67773E-08         0.14278E-10         0.00000E+00
    0.67654E-08         0.11012E-10         0.00000E+00
    0.67564E-08         0.73724E-11         0.00000E+00
    0.67506E-08         0.36027E-11         0.00000E+00
    0.67486E-08         0.17200E-11         0.00000E+00
    0.71186E-08         0.49837E-11         0.00000E+00
    0.71152E-08         0.97562E-11         0.00000E+00
    0.71062E-08         0.18727E-10         0.00000E+00
    0.70931E-08         0.26324E-10         0.00000E+00
    0.70772E-08         0.32218E-10         0.00000E+00
    0.70596E-08         0.36292E-10         0.00000E+00
    0.70412E-08         0.38566E-10         0.00000E+00
    0.70227E-08         0.39142E-10         0.00000E+00
    0.70047E-08         0.38155E-10         0.00000E+00
    0.69877E-08         0.35746E-10         0.00000E+00
    0.69722E-08         0.32056E-10         0.00000E+00
    0.69585E-08         0.27220E-10         0.00000E+00
    0.69470E-08         0.21385E-10         0.00000E+00
    0.69383E-08         0.14732E-10         0.00000E+00
    0.69326E-08         0.74985E-11         0.00000E+00
    0.69306E-08         0.37712E-11         0.00000E+00
    0.72679E-08         0.84385E-11         0.00000E+00
    0.72644E-08         0.16029E-10         0.00000E+00
    0.72555E-08         0.29844E-10         0.00000E+00
    0.72427E-08         0.40817E-10         0.00000E+00
    0.72273E-08         0.48857E-10         0.00000E+00
    0.72105E-08         0.54079E-10         0.00000E+00
    0.71932E-08         0.56708E-10         0.00000E+00
    0.71759E-08         0.57011E-10         0.00000E+00
    0.71592E-08         0.55245E-10         0.00000E+00
    0.71435E-08         0.51630E-10         0.00000E+00
    0.71292E-08         0.46341E-10         0.00000E+00
    0.71165E-08         0.39520E-10         0.00000E+00
    0.71058E-08         0.31294E-10         0.00000E+00
    0.70976E-08         0.21809E-10         0.00000E+00
    0.70923E-08         0.11274E-10         0.00000E+00
    0.70903E-08         0.57741E-11         0.00000E+00
    0.73873E-08         0.11898E-10         0.00000E+00
    0.73840E-08         0.22238E-10         0.00000E+00
    0.73754E-08         0.40686E-10         0.00000E+00
    0.73633E-08         0.54720E-10         0.00000E+00
    0.73491E-08         0.64564E-10         0.00000E+00
    0.73338E-08         0.70625E-10         0.00000E+00
    0.73184E-08         0.73376E-10         0.00000E+00
    0.73032E-08         0.73274E-10         0.00000E+00
    0.72886E-08         0.70706E-10         0.00000E+00
    0.72750E-08         0.65967E-10         0.00000E+00
    0.72625E-08         0.59258E-10         0.00000E+00
    0.72514E-08         0.50704E-10         0.00000E+00
    0.72420E-08         0.40382E-10         0.00000E+00
    0.72347E-08         0.28374E-10         0.00000E+00
    0.72298E-08         0.14819E-10         0.00000E+00
    0.72280E-08         0.76777E-11         0.00000E+00
    0.74757E-08         0.15267E-10         0.00000E+00
    0.74725E-08         0.28181E-10         0.00000E+00
    0.74646E-08         0.50844E-10         0.00000E+00
    0.74539E-08         0.67433E-10         0.00000E+00
    0.74416E-08         0.78584E-10         0.00000E+00
    0.74289E-08         0.85070E-10         0.00000E+00
    0.74163E-08         0.87658E-10         0.00000E+00
    0.74042E-08         0.87015E-10         0.00000E+00
    0.73927E-08         0.83660E-10         0.00000E+00
    0.73821E-08         0.77952E-10         0.00000E+00
    0.73724E-08         0.70101E-10         0.00000E+00
    0.73636E-08         0.60189E-10         0.00000E+00
    0.73560E-08         0.48212E-10         0.00000E+00
    0.73500E-08         0.34141E-10         0.00000E+00
    0.73458E-08         0.18000E-10         0.00000E+00
    0.73442E-08         0.94210E-11         0.00000E+00
    0.75315E-08         0.18412E-10         0.00000E+00
    0.75287E-08         0.33585E-10         0.00000E+00
    0.75220E-08         0.59765E-10         0.00000E+00
    0.75134E-08         0.78155E-10         0.00000E+00
    0.75041E-08         0.89933E-10         0.00000E+00
    0.74951E-08         0.96325E-10         0.00000E+00
    0.74866E-08         0.98429E-10         0.00000E+00
    0.74789E-08         0.97125E-10         0.00000E+00
    0.74718E-08         0.93053E-10         0.00000E+00
    0.74652E-08         0.86619E-10         0.00000E+00
    0.74592E-08         0.78020E-10         0.00000E+00
    0.74536E-08         0.67270E-10         0.00000E+00
    0.74486E-08         0.54247E-10         0.00000E+00
    0.74443E-08         0.38760E-10         0.00000E+00
    0.74412E-08         0.20652E-10         0.00000E+00
    0.74399E-08         0.10929E-10         0.00000E+00
    0.75532E-08         0.21149E-10         0.00000E+00
    0.75510E-08         0.38066E-10         0.00000E+00
    0.75463E-08         0.66683E-10         0.00000E+00
    0.75409E-08         0.85810E-10         0.00000E+00
    0.75361E-08         0.97337E-10         0.00000E+00
    0.75323E-08         0.10303E-09         0.00000E+00
    0.75295E-08         0.10432E-09         0.00000E+00
    0.75275E-08         0.10229E-09         0.00000E+00
    0.75261E-08         0.97656E-10         0.00000E+00
    0.75249E-08         0.90841E-10         0.00000E+00
    0.75237E-08         0.82010E-10         0.00000E+00
    0.75224E-08         0.71094E-10         0.00000E+00
    0.75207E-08         0.57825E-10         0.00000E+00
    0.75188E-08         0.41791E-10         0.00000E+00
    0.75171E-08         0.22569E-10         0.00000E+00
    0.75162E-08         0.12110E-10         0.00000E+00
    0.75390E-08         0.23205E-10         0.00000E+00
    0.75377E-08         0.41058E-10         0.00000E+00
    0.75361E-08         0.70502E-10         0.00000E+00
    0.75357E-08         0.88917E-10         0.00000E+00
    0.75372E-08         0.99133E-10         0.00000E+00
    0.75406E-08         0.10350E-09         0.00000E+00
    0.75452E-08         0.10373E-09         0.00000E+00
    0.75506E-08         0.10101E-09         0.00000E+00
    0.75563E-08         0.96086E-10         0.00000E+00
    0.75619E-08         0.89348E-10         0.00000E+00
    0.75669E-08         0.80917E-10         0.00000E+00
    0.75709E-08         0.70645E-10         0.00000E+00
    0.75736E-08         0.58118E-10         0.00000E+00
    0.75750E-08         0.42666E-10         0.00000E+00
    0.75752E-08         0.23476E-10         0.00000E+00
    0.75749E-08         0.12842E-10         0.00000E+00
    0.74866E-08         0.24140E-10         0.00000E+00
    0.74869E-08         0.41668E-10         0.00000E+00
    0.74902E-08         0.69556E-10         0.00000E+00
    0.74973E-08         0.85393E-10         0.00000E+00
    0.75077E-08         0.93171E-10         0.00000E+00
    0.75205E-08         0.95714E-10         0.00000E+00
    0.75345E-08         0.94839E-10         0.00000E+00
    0.75491E-08         0.91669E-10         0.00000E+00
    0.75635E-08         0.86870E-10         0.00000E+00
    0.75772E-08         0.80776E-10         0.00000E+00
    0.75896E-08         0.73454E-10         0.00000E+00
    0.76003E-08         0.64715E-10         0.00000E+00
    0.76088E-08         0.54061E-10         0.00000E+00
    0.76146E-08         0.40590E-10         0.00000E+00
    0.76176E-08         0.22978E-10         0.00000E+00
    0.76180E-08         0.12948E-10         0.00000E+00
    0.73926E-08         0.23133E-10         0.00000E+00
    0.73958E-08         0.38305E-10         0.00000E+00
    0.74076E-08         0.61140E-10         0.00000E+00
    0.74261E-08         0.72252E-10         0.00000E+00
    0.74487E-08         0.76738E-10         0.00000E+00
    0.74734E-08         0.77385E-10         0.00000E+00
    0.74990E-08         0.75724E-10         0.00000E+00
    0.75244E-08         0.72622E-10         0.00000E+00
    0.75489E-08         0.68560E-10         0.00000E+00
    0.75720E-08         0.63767E-10         0.00000E+00
    0.75931E-08         0.58274E-10         0.00000E+00
    0.76118E-08         0.51911E-10         0.00000E+00
    0.76276E-08         0.44236E-10         0.00000E+00
    0.76396E-08         0.34353E-10         0.00000E+00
    0.76468E-08         0.20407E-10         0.00000E+00
    0.76485E-08         0.12102E-10         0.00000E+00
    0.72497E-08         0.18406E-10         0.00000E+00
    0.72616E-08         0.27636E-10         0.00000E+00
    0.72891E-08         0.40490E-10         0.00000E+00
    0.73241E-08         0.45375E-10         0.00000E+00
    0.73625E-08         0.46692E-10         0.00000E+00
    0.74018E-08         0.46150E-10         0.00000E+00
    0.74407E-08         0.44579E-10         0.00000E+00
    0.74783E-08         0.42416E-10         0.00000E+00
    0.75140E-08         0.39895E-10         0.00000E+00
    0.75474E-08         0.37123E-10         0.00000E+00
    0.75783E-08         0.34109E-10         0.00000E+00
    0.76062E-08         0.30763E-10         0.00000E+00
    0.76307E-08         0.26846E-10         0.00000E+00
    0.76510E-08         0.21823E-10         0.00000E+00
    0.76657E-08         0.14390E-10         0.00000E+00
    0.76720E-08         0.98370E-11         0.00000E+00
    0.71646E-08         0.00000E+00         0.00000E+00
    0.71834E-08         0.00000E+00         0.00000E+00
    0.72211E-08        -0.20712E-22         0.00000E+00
    0.72658E-08         0.16015E-26         0.00000E+00
    0.73130E-08         0.24857E-22         0.00000E+00
    0.73602E-08         0.00000E+00         0.00000E+00
    0.74061E-08         0.00000E+00         0.00000E+00
    0.74501E-08        -0.20718E-22         0.00000E+00
    0.74916E-08        -0.20718E-22         0.00000E+00
    0.75305E-08         0.20720E-22         0.00000E+00
    0.75664E-08         0.24864E-22         0.00000E+00
    0.75993E-08        -0.24866E-22         0.00000E+00
    0.76285E-08        -0.41436E-23         0.00000E+00
    0.76535E-08         0.24867E-22         0.00000E+00
    0.76728E-08         0.82892E-23         0.00000E+00
    0.76829E-08         0.00000E+00         0.00000E+00
CELL_DATA        450
TENSORS stressef double 
    0.13862E+07        -0.24345E+04         0.00000E+00
   -0.24345E+04        -0.28268E+08         0.00000E+00
    0.00000E+00         0.00000E+00        -0.53764E+07
 
    0.60802E+06        -0.60630E+04         0.00000E+00
   -0.60630E+04        -0.28284E+08         0.00000E+00
    0.00000E+00         0.00000E+00        -0.55352E+07
 
   -0.11279E+06        -0.79508E+04         0.00000E+00
   -0.79508E+04        -0.28311E+08         0.00000E+00
    0.00000E+00         0.00000E+00        -0.56848E+07
 
   -0.78266E+06        -0.80299E+04         0.00000E+00
   -0.80299E+04        -0.28345E+08         0.00000E+00
    0.00000E+00         0.00000E+00        -0.58256E+07
 
   -0.14082E+07        -0.62546E+04         0.00000E+00
   -0.62546E+04        -0.28381E+08         0.00000E+00
    0.00000E+00         0.00000E+00        -0.59579E+07
 
   -0.19960E+07        -0.26000E+04         0.00000E+00
   -0.26000E+04        -0.28414E+08         0.00000E+00
    0.00000E+00         0.00000E+00        -0.60820E+07
 
   -0.25528E+07         0.29417E+04         0.00000E+00
    0.29417E+04        -0.28438E+08         0.00000E+00
    0.00000E+00         0.00000E+00        -0.61983E+07
 
   -0.30852E+07         0.10364E+05         0.00000E+00
    0.10364E+05        -0.28450E+08         0.00000E+00
    0.00000E+00         0.00000E+00        -0.63071E+07
 
   -0.35995E+07         0.19649E+05         0.00000E+00
    0.19649E+05        -0.28445E+08         0.00000E+00
    0.00000E+00         0.00000E+00        -0.64089E+07
 
   -0.41023E+07         0.30771E+05         0.00000E+00
    0.30771E+05        -0.28418E+08         0.00000E+00
    0.00000E+00         0.00000E+00        -0.65041E+07
 
   -0.45995E+07         0.43701E+05         0.00000E+00
    0.43701E+05        -0.28365E+08         0.00000E+00
    0.00000E+00         0.00000E+00        -0.65929E+07
 
   -0.50974E+07         0.58409E+05         0.00000E+00
    0.58409E+05        -0.28281E+08         0.00000E+00
    0.00000E+00         0.00000E+00        -0.66757E+07
 
   -0.56016E+07         0.74867E+05         0.00000E+00
    0.74867E+05        -0.28162E+08         0.00000E+00
    0.00000E+00         0.00000E+00        -0.67528E+07
 
   -0.61178E+07         0.93054E+05         0.00000E+00
    0.93054E+05        -0.28005E+08         0.00000E+00
    0.00000E+00         0.00000E+00        -0.68245E+07
 
   -0.66514E+07         0.11296E+06         0.00000E+00
    0.11296E+06        -0.27805E+08         0.00000E+00
    0.00000E+00         0.00000E+00        -0.68912E+07
 
    0.13138E+07        -0.73542E+04         0.00000E+00
   -0.73542E+04        -0.28332E+08         0.00000E+00
    0.00000E+00         0.00000E+00        -0.54036E+07
 
    0.53905E+06        -0.18330E+05         0.00000E+00
   -0.18330E+05        -0.28348E+08         0.00000E+00
    0.00000E+00         0.00000E+00        -0.55617E+07
 
   -0.17812E+06        -0.24072E+05         0.00000E+00
   -0.24072E+05        -0.28375E+08         0.00000E+00
    0.00000E+00         0.00000E+00        -0.57107E+07
 
   -0.84423E+06        -0.24375E+05         0.00000E+00
   -0.24375E+05        -0.28410E+08         0.00000E+00
    0.00000E+00         0.00000E+00        -0.58508E+07
 
   -0.14659E+07        -0.19104E+05         0.00000E+00
   -0.19104E+05        -0.28446E+08         0.00000E+00
    0.00000E+00         0.00000E+00        -0.59824E+07
 
   -0.20498E+07        -0.81872E+04         0.00000E+00
   -0.81872E+04        -0.28479E+08         0.00000E+00
    0.00000E+00         0.00000E+00        -0.61058E+07
 
   -0.26027E+07         0.83978E+04         0.00000E+00
    0.83978E+04        -0.28505E+08         0.00000E+00
    0.00000E+00         0.00000E+00        -0.62215E+07
 
   -0.31312E+07         0.30629E+05         0.00000E+00
    0.30629E+05        -0.28517E+08         0.00000E+00
    0.00000E+00         0.00000E+00        -0.63297E+07
 
   -0.36417E+07         0.58451E+05         0.00000E+00
    0.58451E+05        -0.28513E+08         0.00000E+00
    0.00000E+00         0.00000E+00        -0.64309E+07
 
   -0.41406E+07         0.91787E+05         0.00000E+00
    0.91787E+05        -0.28487E+08         0.00000E+00
    0.00000E+00         0.00000E+00        -0.65255E+07
 
   -0.46342E+07         0.13055E+06         0.00000E+00
    0.13055E+06        -0.28434E+08         0.00000E+00
    0.00000E+00         0.00000E+00        -0.66137E+07
 
   -0.51284E+07         0.17463E+06         0.00000E+00
    0.17463E+06        -0.28351E+08         0.00000E+00
    0.00000E+00         0.00000E+00        -0.66960E+07
 
   -0.56290E+07         0.22397E+06         0.00000E+00
    0.22397E+06        -0.28234E+08         0.00000E+00
    0.00000E+00         0.00000E+00        -0.67726E+07
 
   -0.61417E+07         0.27848E+06         0.00000E+00
    0.27848E+06        -0.28078E+08         0.00000E+00
    0.00000E+00         0.00000E+00        -0.68439E+07
 
   -0.66719E+07         0.33815E+06         0.00000E+00
    0.33815E+06        -0.27879E+08         0.00000E+00
    0.00000E+00         0.00000E+00        -0.69102E+07
 
    0.11690E+07        -0.12426E+05         0.00000E+00
   -0.12426E+05        -0.28458E+08         0.00000E+00
    0.00000E+00         0.00000E+00        -0.54579E+07
 
    0.40116E+06        -0.31021E+05         0.00000E+00
   -0.31021E+05        -0.28475E+08         0.00000E+00
    0.00000E+00         0.00000E+00        -0.56147E+07
 
   -0.30873E+06        -0.40849E+05         0.00000E+00
   -0.40849E+05        -0.28503E+08         0.00000E+00
    0.00000E+00         0.00000E+00        -0.57623E+07
 
   -0.96728E+06        -0.41572E+05         0.00000E+00
   -0.41572E+05        -0.28538E+08         0.00000E+00
    0.00000E+00         0.00000E+00        -0.59011E+07
 
   -0.15812E+07        -0.32973E+05         0.00000E+00
   -0.32973E+05        -0.28575E+08         0.00000E+00
    0.00000E+00         0.00000E+00        -0.60313E+07
 
   -0.21573E+07        -0.14933E+05         0.00000E+00
   -0.14933E+05        -0.28610E+08         0.00000E+00
    0.00000E+00         0.00000E+00        -0.61534E+07
 
   -0.27024E+07         0.12575E+05         0.00000E+00
    0.12575E+05        -0.28637E+08         0.00000E+00
    0.00000E+00         0.00000E+00        -0.62678E+07
 
   -0.32230E+07         0.49510E+05         0.00000E+00
    0.49510E+05        -0.28651E+08         0.00000E+00
    0.00000E+00         0.00000E+00        -0.63748E+07
 
   -0.37258E+07         0.95773E+05         0.00000E+00
    0.95773E+05        -0.28648E+08         0.00000E+00
    0.00000E+00         0.00000E+00        -0.64748E+07
 
   -0.42172E+07         0.15123E+06         0.00000E+00
    0.15123E+06        -0.28623E+08         0.00000E+00
    0.00000E+00         0.00000E+00        -0.65681E+07
 
   -0.47034E+07         0.21572E+06         0.00000E+00
    0.21572E+06        -0.28573E+08         0.00000E+00
    0.00000E+00         0.00000E+00        -0.66553E+07
 
   -0.51903E+07         0.28908E+06         0.00000E+00
    0.28908E+06        -0.28492E+08         0.00000E+00
    0.00000E+00         0.00000E+00        -0.67365E+07
 
   -0.56838E+07         0.37117E+06         0.00000E+00
    0.37117E+06        -0.28377E+08         0.00000E+00
    0.00000E+00         0.00000E+00        -0.68122E+07
 
   -0.61895E+07         0.46188E+06         0.00000E+00
    0.46188E+06        -0.28223E+08         0.00000E+00
    0.00000E+00         0.00000E+00        -0.68826E+07
 
   -0.67128E+07         0.56113E+06         0.00000E+00
    0.56113E+06        -0.28027E+08         0.00000E+00
    0.00000E+00         0.00000E+00        -0.69480E+07
 
    0.95186E+06        -0.17749E+05         0.00000E+00
   -0.17749E+05        -0.28648E+08         0.00000E+00
    0.00000E+00         0.00000E+00        -0.55392E+07
 
    0.19442E+06        -0.44418E+05         0.00000E+00
   -0.44418E+05        -0.28665E+08         0.00000E+00
    0.00000E+00         0.00000E+00        -0.56941E+07
 
   -0.50449E+06        -0.58717E+05         0.00000E+00
   -0.58717E+05        -0.28694E+08         0.00000E+00
    0.00000E+00         0.00000E+00        -0.58397E+07
 
   -0.11516E+07        -0.60187E+05         0.00000E+00
   -0.60187E+05        -0.28730E+08         0.00000E+00
    0.00000E+00         0.00000E+00        -0.59764E+07
 
   -0.17539E+07        -0.48533E+05         0.00000E+00
   -0.48533E+05        -0.28769E+08         0.00000E+00
    0.00000E+00         0.00000E+00        -0.61046E+07
 
   -0.23183E+07        -0.23602E+05         0.00000E+00
   -0.23602E+05        -0.28805E+08         0.00000E+00
    0.00000E+00         0.00000E+00        -0.62247E+07
 
   -0.28515E+07         0.14631E+05         0.00000E+00
    0.14631E+05        -0.28834E+08         0.00000E+00
    0.00000E+00         0.00000E+00        -0.63371E+07
 
   -0.33605E+07         0.66095E+05         0.00000E+00
    0.66095E+05        -0.28850E+08         0.00000E+00
    0.00000E+00         0.00000E+00        -0.64422E+07
 
   -0.38517E+07         0.13064E+06         0.00000E+00
    0.13064E+06        -0.28850E+08         0.00000E+00
    0.00000E+00         0.00000E+00        -0.65403E+07
 
   -0.43317E+07         0.20806E+06         0.00000E+00
    0.20806E+06        -0.28828E+08         0.00000E+00
    0.00000E+00         0.00000E+00        -0.66320E+07
 
   -0.48068E+07         0.29812E+06         0.00000E+00
    0.29812E+06        -0.28780E+08         0.00000E+00
    0.00000E+00         0.00000E+00        -0.67175E+07
 
   -0.52828E+07         0.40059E+06         0.00000E+00
    0.40059E+06        -0.28703E+08         0.00000E+00
    0.00000E+00         0.00000E+00        -0.67971E+07
 
   -0.57657E+07         0.51524E+06         0.00000E+00
    0.51524E+06        -0.28591E+08         0.00000E+00
    0.00000E+00         0.00000E+00        -0.68714E+07
 
   -0.62610E+07         0.64190E+06         0.00000E+00
    0.64190E+06        -0.28441E+08         0.00000E+00
    0.00000E+00         0.00000E+00        -0.69404E+07
 
   -0.67739E+07         0.78046E+06         0.00000E+00
    0.78046E+06        -0.28249E+08         0.00000E+00
    0.00000E+00         0.00000E+00        -0.70046E+07
 
    0.66234E+06        -0.23427E+05         0.00000E+00
   -0.23427E+05        -0.28900E+08         0.00000E+00
    0.00000E+00         0.00000E+00        -0.56475E+07
 
   -0.81077E+05        -0.58798E+05         0.00000E+00
   -0.58798E+05        -0.28917E+08         0.00000E+00
    0.00000E+00         0.00000E+00        -0.57997E+07
 
   -0.76522E+06        -0.78107E+05         0.00000E+00
   -0.78107E+05        -0.28948E+08         0.00000E+00
    0.00000E+00         0.00000E+00        -0.59425E+07
 
   -0.13971E+07        -0.80775E+05         0.00000E+00
   -0.80775E+05        -0.28986E+08         0.00000E+00
    0.00000E+00         0.00000E+00        -0.60765E+07
 
   -0.19837E+07        -0.66445E+05         0.00000E+00
   -0.66445E+05        -0.29026E+08         0.00000E+00
    0.00000E+00         0.00000E+00        -0.62020E+07
 
   -0.25323E+07        -0.34943E+05         0.00000E+00
   -0.34943E+05        -0.29065E+08         0.00000E+00
    0.00000E+00         0.00000E+00        -0.63194E+07
 
   -0.30498E+07         0.13742E+05         0.00000E+00
    0.13742E+05        -0.29096E+08         0.00000E+00
    0.00000E+00         0.00000E+00        -0.64292E+07
 
   -0.35430E+07         0.79493E+05         0.00000E+00
    0.79493E+05        -0.29115E+08         0.00000E+00
    0.00000E+00         0.00000E+00        -0.65317E+07
 
   -0.40189E+07         0.16210E+06         0.00000E+00
    0.16210E+06        -0.29118E+08         0.00000E+00
    0.00000E+00         0.00000E+00        -0.66274E+07
 
   -0.44837E+07         0.26126E+06         0.00000E+00
    0.26126E+06        -0.29100E+08         0.00000E+00
    0.00000E+00         0.00000E+00        -0.67167E+07
 
   -0.49440E+07         0.37668E+06         0.00000E+00
    0.37668E+06        -0.29056E+08         0.00000E+00
    0.00000E+00         0.00000E+00        -0.68000E+07
 
   -0.54056E+07         0.50800E+06         0.00000E+00
    0.50800E+06        -0.28982E+08         0.00000E+00
    0.00000E+00         0.00000E+00        -0.68776E+07
 
   -0.58743E+07         0.65494E+06         0.00000E+00
    0.65494E+06        -0.28875E+08         0.00000E+00
    0.00000E+00         0.00000E+00        -0.69499E+07
 
   -0.63557E+07         0.81723E+06         0.00000E+00
    0.81723E+06        -0.28730E+08         0.00000E+00
    0.00000E+00         0.00000E+00        -0.70171E+07
 
   -0.68550E+07         0.99471E+06         0.00000E+00
    0.99471E+06        -0.28543E+08         0.00000E+00
    0.00000E+00         0.00000E+00        -0.70796E+07
 
    0.30051E+06        -0.29557E+05         0.00000E+00
   -0.29557E+05        -0.29213E+08         0.00000E+00
    0.00000E+00         0.00000E+00        -0.57825E+07
 
   -0.42517E+06        -0.74439E+05         0.00000E+00
   -0.74439E+05        -0.29231E+08         0.00000E+00
    0.00000E+00         0.00000E+00        -0.59313E+07
 
   -0.10906E+07        -0.99439E+05         0.00000E+00
   -0.99439E+05        -0.29263E+08         0.00000E+00
    0.00000E+00         0.00000E+00        -0.60707E+07
 
   -0.17032E+07        -0.10388E+06         0.00000E+00
   -0.10388E+06        -0.29303E+08         0.00000E+00
    0.00000E+00         0.00000E+00        -0.62013E+07
 
   -0.22702E+07        -0.87352E+05         0.00000E+00
   -0.87352E+05        -0.29346E+08         0.00000E+00
    0.00000E+00         0.00000E+00        -0.63233E+07
 
   -0.27989E+07        -0.49684E+05         0.00000E+00
   -0.49684E+05        -0.29388E+08         0.00000E+00
    0.00000E+00         0.00000E+00        -0.64373E+07
 
   -0.32965E+07         0.91065E+04         0.00000E+00
    0.91065E+04        -0.29422E+08         0.00000E+00
    0.00000E+00         0.00000E+00        -0.65437E+07
 
   -0.37702E+07         0.88840E+05         0.00000E+00
    0.88840E+05        -0.29445E+08         0.00000E+00
    0.00000E+00         0.00000E+00        -0.66430E+07
 
   -0.42267E+07         0.18922E+06         0.00000E+00
    0.18922E+06        -0.29452E+08         0.00000E+00
    0.00000E+00         0.00000E+00        -0.67357E+07
 
   -0.46726E+07         0.30986E+06         0.00000E+00
    0.30986E+06        -0.29437E+08         0.00000E+00
    0.00000E+00         0.00000E+00        -0.68220E+07
 
   -0.51144E+07         0.45034E+06         0.00000E+00
    0.45034E+06        -0.29398E+08         0.00000E+00
    0.00000E+00         0.00000E+00        -0.69025E+07
 
   -0.55579E+07         0.61022E+06         0.00000E+00
    0.61022E+06        -0.29330E+08         0.00000E+00
    0.00000E+00         0.00000E+00        -0.69775E+07
 
   -0.60091E+07         0.78908E+06         0.00000E+00
    0.78908E+06        -0.29228E+08         0.00000E+00
    0.00000E+00         0.00000E+00        -0.70474E+07
 
   -0.64733E+07         0.98659E+06         0.00000E+00
    0.98659E+06        -0.29089E+08         0.00000E+00
    0.00000E+00         0.00000E+00        -0.71124E+07
 
   -0.69557E+07         0.12025E+07         0.00000E+00
    0.12025E+07        -0.28909E+08         0.00000E+00
    0.00000E+00         0.00000E+00        -0.71729E+07
 
   -0.13360E+06        -0.36239E+05         0.00000E+00
   -0.36239E+05        -0.29587E+08         0.00000E+00
    0.00000E+00         0.00000E+00        -0.59441E+07
 
   -0.83767E+06        -0.91610E+05         0.00000E+00
   -0.91610E+05        -0.29606E+08         0.00000E+00
    0.00000E+00         0.00000E+00        -0.60887E+07
 
   -0.14805E+07        -0.12312E+06         0.00000E+00
   -0.12312E+06        -0.29639E+08         0.00000E+00
    0.00000E+00         0.00000E+00        -0.62240E+07
 
   -0.20696E+07        -0.13002E+06         0.00000E+00
   -0.13002E+06        -0.29682E+08         0.00000E+00
    0.00000E+00         0.00000E+00        -0.63503E+07
 
   -0.26127E+07        -0.11187E+06         0.00000E+00
   -0.11187E+06        -0.29728E+08         0.00000E+00
    0.00000E+00         0.00000E+00        -0.64681E+07
 
   -0.31175E+07        -0.68520E+05         0.00000E+00
   -0.68520E+05        -0.29773E+08         0.00000E+00
    0.00000E+00         0.00000E+00        -0.65780E+07
 
   -0.35912E+07        -0.38649E+02         0.00000E+00
   -0.38649E+02        -0.29811E+08         0.00000E+00
    0.00000E+00         0.00000E+00        -0.66804E+07
 
   -0.40412E+07         0.93309E+05         0.00000E+00
    0.93309E+05        -0.29838E+08         0.00000E+00
    0.00000E+00         0.00000E+00        -0.67758E+07
 
   -0.44744E+07         0.21112E+06         0.00000E+00
    0.21112E+06        -0.29849E+08         0.00000E+00
    0.00000E+00         0.00000E+00        -0.68647E+07
 
   -0.48977E+07         0.35290E+06         0.00000E+00
    0.35290E+06        -0.29840E+08         0.00000E+00
    0.00000E+00         0.00000E+00        -0.69475E+07
 
   -0.53173E+07         0.51810E+06         0.00000E+00
    0.51810E+06        -0.29806E+08         0.00000E+00
    0.00000E+00         0.00000E+00        -0.70246E+07
 
   -0.57393E+07         0.70616E+06         0.00000E+00
    0.70616E+06        -0.29743E+08         0.00000E+00
    0.00000E+00         0.00000E+00        -0.70965E+07
 
   -0.61695E+07         0.91653E+06         0.00000E+00
    0.91653E+06        -0.29648E+08         0.00000E+00
    0.00000E+00         0.00000E+00        -0.71635E+07
 
   -0.66132E+07         0.11488E+07         0.00000E+00
    0.11488E+07        -0.29516E+08         0.00000E+00
    0.00000E+00         0.00000E+00        -0.72258E+07
 
   -0.70755E+07         0.14025E+07         0.00000E+00
    0.14025E+07        -0.29344E+08         0.00000E+00
    0.00000E+00         0.00000E+00        -0.72839E+07
 
   -0.63992E+06        -0.43569E+05         0.00000E+00
   -0.43569E+05        -0.30020E+08         0.00000E+00
    0.00000E+00         0.00000E+00        -0.61319E+07
 
   -0.13183E+07        -0.11057E+06         0.00000E+00
   -0.11057E+06        -0.30040E+08         0.00000E+00
    0.00000E+00         0.00000E+00        -0.62716E+07
 
   -0.19342E+07        -0.14955E+06         0.00000E+00
   -0.14955E+06        -0.30075E+08         0.00000E+00
    0.00000E+00         0.00000E+00        -0.64019E+07
 
   -0.24957E+07        -0.15970E+06         0.00000E+00
   -0.15970E+06        -0.30120E+08         0.00000E+00
    0.00000E+00         0.00000E+00        -0.65232E+07
 
   -0.30107E+07        -0.14059E+06         0.00000E+00
   -0.14059E+06        -0.30170E+08         0.00000E+00
    0.00000E+00         0.00000E+00        -0.66361E+07
 
   -0.34872E+07        -0.92106E+05         0.00000E+00
   -0.92106E+05        -0.30218E+08         0.00000E+00
    0.00000E+00         0.00000E+00        -0.67411E+07
 
   -0.39329E+07        -0.14410E+05         0.00000E+00
   -0.14410E+05        -0.30261E+08         0.00000E+00
    0.00000E+00         0.00000E+00        -0.68387E+07
 
   -0.43552E+07         0.92126E+05         0.00000E+00
    0.92126E+05        -0.30292E+08         0.00000E+00
    0.00000E+00         0.00000E+00        -0.69295E+07
 
   -0.47613E+07         0.22698E+06         0.00000E+00
    0.22698E+06        -0.30309E+08         0.00000E+00
    0.00000E+00         0.00000E+00        -0.70140E+07
 
   -0.51580E+07         0.38950E+06         0.00000E+00
    0.38950E+06        -0.30305E+08         0.00000E+00
    0.00000E+00         0.00000E+00        -0.70926E+07
 
   -0.55518E+07         0.57902E+06         0.00000E+00
    0.57902E+06        -0.30278E+08         0.00000E+00
    0.00000E+00         0.00000E+00        -0.71659E+07
 
   -0.59487E+07         0.79480E+06         0.00000E+00
    0.79480E+06        -0.30222E+08         0.00000E+00
    0.00000E+00         0.00000E+00        -0.72341E+07
 
   -0.63546E+07         0.10362E+07         0.00000E+00
    0.10362E+07        -0.30134E+08         0.00000E+00
    0.00000E+00         0.00000E+00        -0.72977E+07
 
   -0.67747E+07         0.13026E+07         0.00000E+00
    0.13026E+07        -0.30010E+08         0.00000E+00
    0.00000E+00         0.00000E+00        -0.73569E+07
 
   -0.72139E+07         0.15934E+07         0.00000E+00
    0.15934E+07        -0.29847E+08         0.00000E+00
    0.00000E+00         0.00000E+00        -0.74122E+07
 
   -0.12184E+07        -0.51640E+05         0.00000E+00
   -0.51640E+05        -0.30510E+08         0.00000E+00
    0.00000E+00         0.00000E+00        -0.63458E+07
 
   -0.18668E+07        -0.13157E+06         0.00000E+00
   -0.13157E+06        -0.30532E+08         0.00000E+00
    0.00000E+00         0.00000E+00        -0.64797E+07
 
   -0.24515E+07        -0.17910E+06         0.00000E+00
   -0.17910E+06        -0.30569E+08         0.00000E+00
    0.00000E+00         0.00000E+00        -0.66041E+07
 
   -0.29809E+07        -0.19338E+06         0.00000E+00
   -0.19338E+06        -0.30617E+08         0.00000E+00
    0.00000E+00         0.00000E+00        -0.67196E+07
 
   -0.34634E+07        -0.17404E+06         0.00000E+00
   -0.17404E+06        -0.30670E+08         0.00000E+00
    0.00000E+00         0.00000E+00        -0.68267E+07
 
   -0.39073E+07        -0.12104E+06         0.00000E+00
   -0.12104E+06        -0.30723E+08         0.00000E+00
    0.00000E+00         0.00000E+00        -0.69260E+07
 
   -0.43207E+07        -0.34660E+05         0.00000E+00
   -0.34660E+05        -0.30770E+08         0.00000E+00
    0.00000E+00         0.00000E+00        -0.70182E+07
 
   -0.47112E+07         0.84584E+05         0.00000E+00
    0.84584E+05        -0.30807E+08         0.00000E+00
    0.00000E+00         0.00000E+00        -0.71036E+07
 
   -0.50861E+07         0.23601E+06         0.00000E+00
    0.23601E+06        -0.30829E+08         0.00000E+00
    0.00000E+00         0.00000E+00        -0.71830E+07
 
   -0.54525E+07         0.41884E+06         0.00000E+00
    0.41884E+06        -0.30832E+08         0.00000E+00
    0.00000E+00         0.00000E+00        -0.72569E+07
 
   -0.58169E+07         0.63219E+06         0.00000E+00
    0.63219E+06        -0.30811E+08         0.00000E+00
    0.00000E+00         0.00000E+00        -0.73256E+07
 
   -0.61854E+07         0.87520E+06         0.00000E+00
    0.87520E+06        -0.30763E+08         0.00000E+00
    0.00000E+00         0.00000E+00        -0.73896E+07
 
   -0.65637E+07         0.11470E+07         0.00000E+00
    0.11470E+07        -0.30683E+08         0.00000E+00
    0.00000E+00         0.00000E+00        -0.74493E+07
 
   -0.69570E+07         0.14469E+07         0.00000E+00
    0.14469E+07        -0.30568E+08         0.00000E+00
    0.00000E+00         0.00000E+00        -0.75051E+07
 
   -0.73702E+07         0.17741E+07         0.00000E+00
    0.17741E+07        -0.30416E+08         0.00000E+00
    0.00000E+00         0.00000E+00        -0.75571E+07
 
   -0.18688E+07        -0.60539E+05         0.00000E+00
   -0.60539E+05        -0.31057E+08         0.00000E+00
    0.00000E+00         0.00000E+00        -0.65852E+07
 
   -0.24828E+07        -0.15484E+06         0.00000E+00
   -0.15484E+06        -0.31080E+08         0.00000E+00
    0.00000E+00         0.00000E+00        -0.67125E+07
 
   -0.30316E+07        -0.21208E+06         0.00000E+00
   -0.21208E+06        -0.31120E+08         0.00000E+00
    0.00000E+00         0.00000E+00        -0.68302E+07
 
   -0.35242E+07        -0.23147E+06         0.00000E+00
   -0.23147E+06        -0.31171E+08         0.00000E+00
    0.00000E+00         0.00000E+00        -0.69390E+07
 
   -0.39697E+07        -0.21268E+06         0.00000E+00
   -0.21268E+06        -0.31228E+08         0.00000E+00
    0.00000E+00         0.00000E+00        -0.70395E+07
 
   -0.43766E+07        -0.15584E+06         0.00000E+00
   -0.15584E+06        -0.31285E+08         0.00000E+00
    0.00000E+00         0.00000E+00        -0.71323E+07
 
   -0.47534E+07        -0.61359E+05         0.00000E+00
   -0.61359E+05        -0.31337E+08         0.00000E+00
    0.00000E+00         0.00000E+00        -0.72181E+07
 
   -0.51080E+07         0.70061E+05         0.00000E+00
    0.70061E+05        -0.31380E+08         0.00000E+00
    0.00000E+00         0.00000E+00        -0.72975E+07
 
   -0.54478E+07         0.23756E+06         0.00000E+00
    0.23756E+06        -0.31408E+08         0.00000E+00
    0.00000E+00         0.00000E+00        -0.73711E+07
 
   -0.57801E+07         0.44016E+06         0.00000E+00
    0.44016E+06        -0.31417E+08         0.00000E+00
    0.00000E+00         0.00000E+00        -0.74395E+07
 
   -0.61115E+07         0.67681E+06         0.00000E+00
    0.67681E+06        -0.31404E+08         0.00000E+00
    0.00000E+00         0.00000E+00        -0.75031E+07
 
   -0.64481E+07         0.94645E+06         0.00000E+00
    0.94645E+06        -0.31364E+08         0.00000E+00
    0.00000E+00         0.00000E+00        -0.75624E+07
 
   -0.67957E+07         0.12480E+07         0.00000E+00
    0.12480E+07        -0.31293E+08         0.00000E+00
    0.00000E+00         0.00000E+00        -0.76178E+07
 
   -0.71593E+07         0.15806E+07         0.00000E+00
    0.15806E+07        -0.31189E+08         0.00000E+00
    0.00000E+00         0.00000E+00        -0.76696E+07
 
   -0.75437E+07         0.19434E+07         0.00000E+00
    0.19434E+07        -0.31047E+08         0.00000E+00
    0.00000E+00         0.00000E+00        -0.77181E+07
 
   -0.25911E+07        -0.70345E+05         0.00000E+00
   -0.70345E+05        -0.31658E+08         0.00000E+00
    0.00000E+00         0.00000E+00        -0.68499E+07
 
   -0.31658E+07        -0.18057E+06         0.00000E+00
   -0.18057E+06        -0.31682E+08         0.00000E+00
    0.00000E+00         0.00000E+00        -0.69696E+07
 
   -0.36738E+07        -0.24880E+06         0.00000E+00
   -0.24880E+06        -0.31725E+08         0.00000E+00
    0.00000E+00         0.00000E+00        -0.70797E+07
 
   -0.41249E+07        -0.27430E+06         0.00000E+00
   -0.27430E+06        -0.31779E+08         0.00000E+00
    0.00000E+00         0.00000E+00        -0.71808E+07
 
   -0.45286E+07        -0.25692E+06         0.00000E+00
   -0.25692E+06        -0.31840E+08         0.00000E+00
    0.00000E+00         0.00000E+00        -0.72737E+07
 
   -0.48940E+07        -0.19692E+06         0.00000E+00
   -0.19692E+06        -0.31902E+08         0.00000E+00
    0.00000E+00         0.00000E+00        -0.73592E+07
 
   -0.52298E+07        -0.94970E+05         0.00000E+00
   -0.94970E+05        -0.31959E+08         0.00000E+00
    0.00000E+00         0.00000E+00        -0.74378E+07
 
   -0.55443E+07         0.48044E+05         0.00000E+00
    0.48044E+05        -0.32008E+08         0.00000E+00
    0.00000E+00         0.00000E+00        -0.75104E+07
 
   -0.58451E+07         0.23104E+06         0.00000E+00
    0.23104E+06        -0.32042E+08         0.00000E+00
    0.00000E+00         0.00000E+00        -0.75775E+07
 
   -0.61395E+07         0.45283E+06         0.00000E+00
    0.45283E+06        -0.32059E+08         0.00000E+00
    0.00000E+00         0.00000E+00        -0.76397E+07
 
   -0.64344E+07         0.71216E+06         0.00000E+00
    0.71216E+06        -0.32053E+08         0.00000E+00
    0.00000E+00         0.00000E+00        -0.76975E+07
 
   -0.67358E+07         0.10078E+07         0.00000E+00
    0.10078E+07        -0.32022E+08         0.00000E+00
    0.00000E+00         0.00000E+00        -0.77516E+07
 
   -0.70495E+07         0.13384E+07         0.00000E+00
    0.13384E+07        -0.31961E+08         0.00000E+00
    0.00000E+00         0.00000E+00        -0.78021E+07
 
   -0.73805E+07         0.17029E+07         0.00000E+00
    0.17029E+07        -0.31868E+08         0.00000E+00
    0.00000E+00         0.00000E+00        -0.78496E+07
 
   -0.77335E+07         0.21002E+07         0.00000E+00
    0.21002E+07        -0.31738E+08         0.00000E+00
    0.00000E+00         0.00000E+00        -0.78943E+07
 
   -0.33849E+07        -0.81126E+05         0.00000E+00
   -0.81126E+05        -0.32312E+08         0.00000E+00
    0.00000E+00         0.00000E+00        -0.71394E+07
 
   -0.39151E+07        -0.20893E+06         0.00000E+00
   -0.20893E+06        -0.32337E+08         0.00000E+00
    0.00000E+00         0.00000E+00        -0.72505E+07
 
   -0.43773E+07        -0.28946E+06         0.00000E+00
   -0.28946E+06        -0.32382E+08         0.00000E+00
    0.00000E+00         0.00000E+00        -0.73519E+07
 
   -0.47818E+07        -0.32214E+06         0.00000E+00
   -0.32214E+06        -0.32440E+08         0.00000E+00
    0.00000E+00         0.00000E+00        -0.74443E+07
 
   -0.51389E+07        -0.30700E+06         0.00000E+00
   -0.30700E+06        -0.32505E+08         0.00000E+00
    0.00000E+00         0.00000E+00        -0.75287E+07
 
   -0.54581E+07        -0.24459E+06         0.00000E+00
   -0.24459E+06        -0.32571E+08         0.00000E+00
    0.00000E+00         0.00000E+00        -0.76059E+07
 
   -0.57485E+07        -0.13582E+06         0.00000E+00
   -0.13582E+06        -0.32634E+08         0.00000E+00
    0.00000E+00         0.00000E+00        -0.76765E+07
 
   -0.60186E+07         0.18161E+05         0.00000E+00
    0.18161E+05        -0.32688E+08         0.00000E+00
    0.00000E+00         0.00000E+00        -0.77414E+07
 
   -0.62764E+07         0.21602E+06         0.00000E+00
    0.21602E+06        -0.32730E+08         0.00000E+00
    0.00000E+00         0.00000E+00        -0.78012E+07
 
   -0.65293E+07         0.45633E+06         0.00000E+00
    0.45633E+06        -0.32754E+08         0.00000E+00
    0.00000E+00         0.00000E+00        -0.78566E+07
 
   -0.67841E+07         0.73762E+06         0.00000E+00
    0.73762E+06        -0.32756E+08         0.00000E+00
    0.00000E+00         0.00000E+00        -0.79081E+07
 
   -0.70470E+07         0.10584E+07         0.00000E+00
    0.10584E+07        -0.32734E+08         0.00000E+00
    0.00000E+00         0.00000E+00        -0.79563E+07
 
   -0.73238E+07         0.14173E+07         0.00000E+00
    0.14173E+07        -0.32684E+08         0.00000E+00
    0.00000E+00         0.00000E+00        -0.80015E+07
 
   -0.76195E+07         0.18128E+07         0.00000E+00
    0.18128E+07        -0.32602E+08         0.00000E+00
    0.00000E+00         0.00000E+00        -0.80443E+07
 
   -0.79386E+07         0.22435E+07         0.00000E+00
    0.22435E+07        -0.32485E+08         0.00000E+00
    0.00000E+00         0.00000E+00        -0.80848E+07
 
   -0.42500E+07        -0.92934E+05         0.00000E+00
   -0.92934E+05        -0.33015E+08         0.00000E+00
    0.00000E+00         0.00000E+00        -0.74531E+07
 
   -0.47301E+07        -0.24004E+06         0.00000E+00
   -0.24004E+06        -0.33042E+08         0.00000E+00
    0.00000E+00         0.00000E+00        -0.75545E+07
 
   -0.51409E+07        -0.33421E+06         0.00000E+00
   -0.33421E+06        -0.33089E+08         0.00000E+00
    0.00000E+00         0.00000E+00        -0.76461E+07
 
   -0.54936E+07        -0.37511E+06         0.00000E+00
   -0.37511E+06        -0.33151E+08         0.00000E+00
    0.00000E+00         0.00000E+00        -0.77288E+07
 
   -0.57990E+07        -0.36307E+06         0.00000E+00
   -0.36307E+06        -0.33220E+08         0.00000E+00
    0.00000E+00         0.00000E+00        -0.78037E+07
 
   -0.60673E+07        -0.29898E+06         0.00000E+00
   -0.29898E+06        -0.33291E+08         0.00000E+00
    0.00000E+00         0.00000E+00        -0.78716E+07
 
   -0.63078E+07        -0.18406E+06         0.00000E+00
   -0.18406E+06        -0.33359E+08         0.00000E+00
    0.00000E+00         0.00000E+00        -0.79333E+07
 
   -0.65295E+07        -0.19791E+05         0.00000E+00
   -0.19791E+05        -0.33419E+08         0.00000E+00
    0.00000E+00         0.00000E+00        -0.79896E+07
 
   -0.67404E+07         0.19221E+06         0.00000E+00
    0.19221E+06        -0.33466E+08         0.00000E+00
    0.00000E+00         0.00000E+00        -0.80414E+07
 
   -0.69480E+07         0.45028E+06         0.00000E+00
    0.45028E+06        -0.33498E+08         0.00000E+00
    0.00000E+00         0.00000E+00        -0.80892E+07
 
   -0.71593E+07         0.75271E+06         0.00000E+00
    0.75271E+06        -0.33509E+08         0.00000E+00
    0.00000E+00         0.00000E+00        -0.81337E+07
 
   -0.73805E+07         0.10978E+07         0.00000E+00
    0.10978E+07        -0.33497E+08         0.00000E+00
    0.00000E+00         0.00000E+00        -0.81755E+07
 
   -0.76174E+07         0.14839E+07         0.00000E+00
    0.14839E+07        -0.33457E+08         0.00000E+00
    0.00000E+00         0.00000E+00        -0.82149E+07
 
   -0.78751E+07         0.19094E+07         0.00000E+00
    0.19094E+07        -0.33388E+08         0.00000E+00
    0.00000E+00         0.00000E+00        -0.82525E+07
 
   -0.81580E+07         0.23726E+07         0.00000E+00
    0.23726E+07        -0.33285E+08         0.00000E+00
    0.00000E+00         0.00000E+00        -0.82885E+07
 
   -0.51859E+07        -0.10580E+06         0.00000E+00
   -0.10580E+06        -0.33767E+08         0.00000E+00
    0.00000E+00         0.00000E+00        -0.77905E+07
 
   -0.56099E+07        -0.27394E+06         0.00000E+00
   -0.27394E+06        -0.33795E+08         0.00000E+00
    0.00000E+00         0.00000E+00        -0.78809E+07
 
   -0.59635E+07        -0.38307E+06         0.00000E+00
   -0.38307E+06        -0.33844E+08         0.00000E+00
    0.00000E+00         0.00000E+00        -0.79615E+07
 
   -0.62588E+07        -0.43319E+06         0.00000E+00
   -0.43319E+06        -0.33909E+08         0.00000E+00
    0.00000E+00         0.00000E+00        -0.80335E+07
 
   -0.65073E+07        -0.42507E+06         0.00000E+00
   -0.42507E+06        -0.33981E+08         0.00000E+00
    0.00000E+00         0.00000E+00        -0.80977E+07
 
   -0.67198E+07        -0.36000E+06         0.00000E+00
   -0.36000E+06        -0.34056E+08         0.00000E+00
    0.00000E+00         0.00000E+00        -0.81553E+07
 
   -0.69060E+07        -0.23962E+06         0.00000E+00
   -0.23962E+06        -0.34129E+08         0.00000E+00
    0.00000E+00         0.00000E+00        -0.82070E+07
 
   -0.70751E+07        -0.65794E+05         0.00000E+00
   -0.65794E+05        -0.34195E+08         0.00000E+00
    0.00000E+00         0.00000E+00        -0.82540E+07
 
   -0.72352E+07         0.15955E+06         0.00000E+00
    0.15955E+06        -0.34249E+08         0.00000E+00
    0.00000E+00         0.00000E+00        -0.82968E+07
 
   -0.73940E+07         0.43448E+06         0.00000E+00
    0.43448E+06        -0.34288E+08         0.00000E+00
    0.00000E+00         0.00000E+00        -0.83363E+07
 
   -0.75584E+07         0.75708E+06         0.00000E+00
    0.75708E+06        -0.34308E+08         0.00000E+00
    0.00000E+00         0.00000E+00        -0.83732E+07
 
   -0.77348E+07         0.11255E+07         0.00000E+00
    0.11255E+07        -0.34305E+08         0.00000E+00
    0.00000E+00         0.00000E+00        -0.84080E+07
 
   -0.79289E+07         0.15378E+07         0.00000E+00
    0.15378E+07        -0.34277E+08         0.00000E+00
    0.00000E+00         0.00000E+00        -0.84412E+07
 
   -0.81460E+07         0.19921E+07         0.00000E+00
    0.19921E+07        -0.34220E+08         0.00000E+00
    0.00000E+00         0.00000E+00        -0.84732E+07
 
   -0.83903E+07         0.24865E+07         0.00000E+00
    0.24865E+07        -0.34132E+08         0.00000E+00
    0.00000E+00         0.00000E+00        -0.85044E+07
 
   -0.61919E+07        -0.11973E+06         0.00000E+00
   -0.11973E+06        -0.34563E+08         0.00000E+00
    0.00000E+00         0.00000E+00        -0.81509E+07
 
   -0.65532E+07        -0.31061E+06         0.00000E+00
   -0.31061E+06        -0.34592E+08         0.00000E+00
    0.00000E+00         0.00000E+00        -0.82290E+07
 
   -0.68434E+07        -0.43593E+06         0.00000E+00
   -0.43593E+06        -0.34644E+08         0.00000E+00
    0.00000E+00         0.00000E+00        -0.82974E+07
 
   -0.70755E+07        -0.49620E+06         0.00000E+00
   -0.49620E+06        -0.34711E+08         0.00000E+00
    0.00000E+00         0.00000E+00        -0.83573E+07
 
   -0.72619E+07        -0.49271E+06         0.00000E+00
   -0.49271E+06        -0.34787E+08         0.00000E+00
    0.00000E+00         0.00000E+00        -0.84097E+07
 
   -0.74138E+07        -0.42731E+06         0.00000E+00
   -0.42731E+06        -0.34865E+08         0.00000E+00
    0.00000E+00         0.00000E+00        -0.84558E+07
 
   -0.75413E+07        -0.30217E+06         0.00000E+00
   -0.30217E+06        -0.34942E+08         0.00000E+00
    0.00000E+00         0.00000E+00        -0.84967E+07
 
   -0.76537E+07        -0.11956E+06         0.00000E+00
   -0.11956E+06        -0.35013E+08         0.00000E+00
    0.00000E+00         0.00000E+00        -0.85333E+07
 
   -0.77593E+07         0.11821E+06         0.00000E+00
    0.11821E+06        -0.35073E+08         0.00000E+00
    0.00000E+00         0.00000E+00        -0.85664E+07
 
   -0.78657E+07         0.40895E+06         0.00000E+00
    0.40895E+06        -0.35118E+08         0.00000E+00
    0.00000E+00         0.00000E+00        -0.85968E+07
 
   -0.79800E+07         0.75055E+06         0.00000E+00
    0.75055E+06        -0.35147E+08         0.00000E+00
    0.00000E+00         0.00000E+00        -0.86253E+07
 
   -0.81084E+07         0.11410E+07         0.00000E+00
    0.11410E+07        -0.35154E+08         0.00000E+00
    0.00000E+00         0.00000E+00        -0.86525E+07
 
   -0.82570E+07         0.15782E+07         0.00000E+00
    0.15782E+07        -0.35138E+08         0.00000E+00
    0.00000E+00         0.00000E+00        -0.86789E+07
 
   -0.84308E+07         0.20601E+07         0.00000E+00
    0.20601E+07        -0.35094E+08         0.00000E+00
    0.00000E+00         0.00000E+00        -0.87050E+07
 
   -0.86344E+07         0.25845E+07         0.00000E+00
    0.25845E+07        -0.35021E+08         0.00000E+00
    0.00000E+00         0.00000E+00        -0.87311E+07
 
   -0.72671E+07        -0.13471E+06         0.00000E+00
   -0.13471E+06        -0.35401E+08         0.00000E+00
    0.00000E+00         0.00000E+00        -0.85336E+07
 
   -0.75587E+07        -0.34992E+06         0.00000E+00
   -0.34992E+06        -0.35431E+08         0.00000E+00
    0.00000E+00         0.00000E+00        -0.85980E+07
 
   -0.77788E+07        -0.49252E+06         0.00000E+00
   -0.49252E+06        -0.35485E+08         0.00000E+00
    0.00000E+00         0.00000E+00        -0.86527E+07
 
   -0.79418E+07        -0.56368E+06         0.00000E+00
   -0.56368E+06        -0.35554E+08         0.00000E+00
    0.00000E+00         0.00000E+00        -0.86992E+07
 
   -0.80606E+07        -0.56541E+06         0.00000E+00
   -0.56541E+06        -0.35632E+08         0.00000E+00
    0.00000E+00         0.00000E+00        -0.87385E+07
 
   -0.81470E+07        -0.50025E+06         0.00000E+00
   -0.50025E+06        -0.35714E+08         0.00000E+00
    0.00000E+00         0.00000E+00        -0.87721E+07
 
   -0.82115E+07        -0.37101E+06         0.00000E+00
   -0.37101E+06        -0.35794E+08         0.00000E+00
    0.00000E+00         0.00000E+00        -0.88010E+07
 
   -0.82634E+07        -0.18048E+06         0.00000E+00
   -0.18048E+06        -0.35868E+08         0.00000E+00
    0.00000E+00         0.00000E+00        -0.88262E+07
 
   -0.83109E+07         0.68662E+05         0.00000E+00
    0.68662E+05        -0.35933E+08         0.00000E+00
    0.00000E+00         0.00000E+00        -0.88487E+07
 
   -0.83617E+07         0.37395E+06         0.00000E+00
    0.37395E+06        -0.35985E+08         0.00000E+00
    0.00000E+00         0.00000E+00        -0.88693E+07
 
   -0.84227E+07         0.73313E+06         0.00000E+00
    0.73313E+06        -0.36021E+08         0.00000E+00
    0.00000E+00         0.00000E+00        -0.88888E+07
 
   -0.85002E+07         0.11441E+07         0.00000E+00
    0.11441E+07        -0.36039E+08         0.00000E+00
    0.00000E+00         0.00000E+00        -0.89077E+07
 
   -0.86002E+07         0.16047E+07         0.00000E+00
    0.16047E+07        -0.36034E+08         0.00000E+00
    0.00000E+00         0.00000E+00        -0.89268E+07
 
   -0.87281E+07         0.21128E+07         0.00000E+00
    0.21128E+07        -0.36005E+08         0.00000E+00
    0.00000E+00         0.00000E+00        -0.89465E+07
 
   -0.88888E+07         0.26659E+07         0.00000E+00
    0.26659E+07        -0.35947E+08         0.00000E+00
    0.00000E+00         0.00000E+00        -0.89672E+07
 
   -0.84104E+07        -0.15065E+06         0.00000E+00
   -0.15065E+06        -0.36278E+08         0.00000E+00
    0.00000E+00         0.00000E+00        -0.89377E+07
 
   -0.86245E+07        -0.39161E+06         0.00000E+00
   -0.39161E+06        -0.36309E+08         0.00000E+00
    0.00000E+00         0.00000E+00        -0.89868E+07
 
   -0.87675E+07        -0.55234E+06         0.00000E+00
   -0.55234E+06        -0.36364E+08         0.00000E+00
    0.00000E+00         0.00000E+00        -0.90263E+07
 
   -0.88550E+07        -0.63490E+06         0.00000E+00
   -0.63490E+06        -0.36435E+08         0.00000E+00
    0.00000E+00         0.00000E+00        -0.90579E+07
 
   -0.89008E+07        -0.64222E+06         0.00000E+00
   -0.64222E+06        -0.36514E+08         0.00000E+00
    0.00000E+00         0.00000E+00        -0.90829E+07
 
   -0.89171E+07        -0.57774E+06         0.00000E+00
   -0.57774E+06        -0.36597E+08         0.00000E+00
    0.00000E+00         0.00000E+00        -0.91027E+07
 
   -0.89145E+07        -0.44503E+06         0.00000E+00
   -0.44503E+06        -0.36678E+08         0.00000E+00
    0.00000E+00         0.00000E+00        -0.91185E+07
 
   -0.89022E+07        -0.24750E+06         0.00000E+00
   -0.24750E+06        -0.36755E+08         0.00000E+00
    0.00000E+00         0.00000E+00        -0.91314E+07
 
   -0.88885E+07         0.11744E+05         0.00000E+00
    0.11744E+05        -0.36823E+08         0.00000E+00
    0.00000E+00         0.00000E+00        -0.91424E+07
 
   -0.88806E+07         0.33003E+06         0.00000E+00
    0.33003E+06        -0.36881E+08         0.00000E+00
    0.00000E+00         0.00000E+00        -0.91523E+07
 
   -0.88852E+07         0.70504E+06         0.00000E+00
    0.70504E+06        -0.36925E+08         0.00000E+00
    0.00000E+00         0.00000E+00        -0.91619E+07
 
   -0.89087E+07         0.11347E+07         0.00000E+00
    0.11347E+07        -0.36952E+08         0.00000E+00
    0.00000E+00         0.00000E+00        -0.91721E+07
 
   -0.89573E+07         0.16169E+07         0.00000E+00
    0.16169E+07        -0.36959E+08         0.00000E+00
    0.00000E+00         0.00000E+00        -0.91833E+07
 
   -0.90366E+07         0.21495E+07         0.00000E+00
    0.21495E+07        -0.36944E+08         0.00000E+00
    0.00000E+00         0.00000E+00        -0.91962E+07
 
   -0.91519E+07         0.27297E+07         0.00000E+00
    0.27297E+07        -0.36904E+08         0.00000E+00
    0.00000E+00         0.00000E+00        -0.92111E+07
 
   -0.96202E+07        -0.16746E+06         0.00000E+00
   -0.16746E+06        -0.37191E+08         0.00000E+00
    0.00000E+00         0.00000E+00        -0.93622E+07
 
   -0.97483E+07        -0.43527E+06         0.00000E+00
   -0.43527E+06        -0.37223E+08         0.00000E+00
    0.00000E+00         0.00000E+00        -0.93942E+07
 
   -0.98068E+07        -0.61464E+06         0.00000E+00
   -0.61464E+06        -0.37278E+08         0.00000E+00
    0.00000E+00         0.00000E+00        -0.94170E+07
 
   -0.98124E+07        -0.70875E+06         0.00000E+00
   -0.70875E+06        -0.37348E+08         0.00000E+00
    0.00000E+00         0.00000E+00        -0.94322E+07
 
   -0.97797E+07        -0.72174E+06         0.00000E+00
   -0.72174E+06        -0.37427E+08         0.00000E+00
    0.00000E+00         0.00000E+00        -0.94414E+07
 
   -0.97213E+07        -0.65818E+06         0.00000E+00
   -0.65818E+06        -0.37510E+08         0.00000E+00
    0.00000E+00         0.00000E+00        -0.94462E+07
 
   -0.96479E+07        -0.52259E+06         0.00000E+00
   -0.52259E+06        -0.37591E+08         0.00000E+00
    0.00000E+00         0.00000E+00        -0.94477E+07
 
   -0.95684E+07        -0.31911E+06         0.00000E+00
   -0.31911E+06        -0.37668E+08         0.00000E+00
    0.00000E+00         0.00000E+00        -0.94472E+07
 
   -0.94905E+07        -0.51260E+05         0.00000E+00
   -0.51260E+05        -0.37738E+08         0.00000E+00
    0.00000E+00         0.00000E+00        -0.94457E+07
 
   -0.94211E+07         0.27810E+06         0.00000E+00
    0.27810E+06        -0.37800E+08         0.00000E+00
    0.00000E+00         0.00000E+00        -0.94441E+07
 
   -0.93666E+07         0.66673E+06         0.00000E+00
    0.66673E+06        -0.37850E+08         0.00000E+00
    0.00000E+00         0.00000E+00        -0.94433E+07
 
   -0.93333E+07         0.11127E+07         0.00000E+00
    0.11127E+07        -0.37886E+08         0.00000E+00
    0.00000E+00         0.00000E+00        -0.94439E+07
 
   -0.93273E+07         0.16143E+07         0.00000E+00
    0.16143E+07        -0.37906E+08         0.00000E+00
    0.00000E+00         0.00000E+00        -0.94467E+07
 
   -0.93550E+07         0.21694E+07         0.00000E+00
    0.21694E+07        -0.37906E+08         0.00000E+00
    0.00000E+00         0.00000E+00        -0.94523E+07
 
   -0.94222E+07         0.27752E+07         0.00000E+00
    0.27752E+07        -0.37883E+08         0.00000E+00
    0.00000E+00         0.00000E+00        -0.94611E+07
 
   -0.10894E+08        -0.18497E+06         0.00000E+00
   -0.18497E+06        -0.38136E+08         0.00000E+00
    0.00000E+00         0.00000E+00        -0.98061E+07
 
   -0.10927E+08        -0.48034E+06         0.00000E+00
   -0.48034E+06        -0.38168E+08         0.00000E+00
    0.00000E+00         0.00000E+00        -0.98191E+07
 
   -0.10893E+08        -0.67835E+06         0.00000E+00
   -0.67835E+06        -0.38223E+08         0.00000E+00
    0.00000E+00         0.00000E+00        -0.98232E+07
 
   -0.10810E+08        -0.78368E+06         0.00000E+00
   -0.78368E+06        -0.38292E+08         0.00000E+00
    0.00000E+00         0.00000E+00        -0.98204E+07
 
   -0.10694E+08        -0.80201E+06         0.00000E+00
   -0.80201E+06        -0.38368E+08         0.00000E+00
    0.00000E+00         0.00000E+00        -0.98124E+07
 
   -0.10557E+08        -0.73935E+06         0.00000E+00
   -0.73935E+06        -0.38447E+08         0.00000E+00
    0.00000E+00         0.00000E+00        -0.98008E+07
 
   -0.10409E+08        -0.60140E+06         0.00000E+00
   -0.60140E+06        -0.38525E+08         0.00000E+00
    0.00000E+00         0.00000E+00        -0.97869E+07
 
   -0.10260E+08        -0.39314E+06         0.00000E+00
   -0.39314E+06        -0.38600E+08         0.00000E+00
    0.00000E+00         0.00000E+00        -0.97720E+07
 
   -0.10116E+08        -0.11854E+06         0.00000E+00
   -0.11854E+06        -0.38670E+08         0.00000E+00
    0.00000E+00         0.00000E+00        -0.97571E+07
 
   -0.99826E+07         0.21948E+06         0.00000E+00
    0.21948E+06        -0.38733E+08         0.00000E+00
    0.00000E+00         0.00000E+00        -0.97432E+07
 
   -0.98665E+07         0.61892E+06         0.00000E+00
    0.61892E+06        -0.38789E+08         0.00000E+00
    0.00000E+00         0.00000E+00        -0.97311E+07
 
   -0.97733E+07         0.10784E+07         0.00000E+00
    0.10784E+07        -0.38834E+08         0.00000E+00
    0.00000E+00         0.00000E+00        -0.97215E+07
 
   -0.97096E+07         0.15965E+07         0.00000E+00
    0.15965E+07        -0.38867E+08         0.00000E+00
    0.00000E+00         0.00000E+00        -0.97153E+07
 
   -0.96822E+07         0.21717E+07         0.00000E+00
    0.21717E+07        -0.38883E+08         0.00000E+00
    0.00000E+00         0.00000E+00        -0.97130E+07
 
   -0.96980E+07         0.28013E+07         0.00000E+00
    0.28013E+07        -0.38878E+08         0.00000E+00
    0.00000E+00         0.00000E+00        -0.97152E+07
 
   -0.12230E+08        -0.20294E+06         0.00000E+00
   -0.20294E+06        -0.39110E+08         0.00000E+00
    0.00000E+00         0.00000E+00        -0.10268E+08
 
   -0.12158E+08        -0.52601E+06         0.00000E+00
   -0.52601E+06        -0.39142E+08         0.00000E+00
    0.00000E+00         0.00000E+00        -0.10260E+08
 
   -0.12023E+08        -0.74201E+06         0.00000E+00
   -0.74201E+06        -0.39194E+08         0.00000E+00
    0.00000E+00         0.00000E+00        -0.10243E+08
 
   -0.11844E+08        -0.85758E+06         0.00000E+00
   -0.85758E+06        -0.39260E+08         0.00000E+00
    0.00000E+00         0.00000E+00        -0.10221E+08
 
   -0.11639E+08        -0.88038E+06         0.00000E+00
   -0.88038E+06        -0.39331E+08         0.00000E+00
    0.00000E+00         0.00000E+00        -0.10194E+08
 
   -0.11420E+08        -0.81826E+06         0.00000E+00
   -0.81826E+06        -0.39403E+08         0.00000E+00
    0.00000E+00         0.00000E+00        -0.10165E+08
 
   -0.11196E+08        -0.67840E+06         0.00000E+00
   -0.67840E+06        -0.39475E+08         0.00000E+00
    0.00000E+00         0.00000E+00        -0.10134E+08
 
   -0.10975E+08        -0.46673E+06         0.00000E+00
   -0.46673E+06        -0.39544E+08         0.00000E+00
    0.00000E+00         0.00000E+00        -0.10104E+08
 
   -0.10763E+08        -0.18767E+06         0.00000E+00
   -0.18767E+06        -0.39610E+08         0.00000E+00
    0.00000E+00         0.00000E+00        -0.10075E+08
 
   -0.10565E+08         0.15595E+06         0.00000E+00
    0.15595E+06        -0.39674E+08         0.00000E+00
    0.00000E+00         0.00000E+00        -0.10048E+08
 
   -0.10385E+08         0.56261E+06         0.00000E+00
    0.56261E+06        -0.39733E+08         0.00000E+00
    0.00000E+00         0.00000E+00        -0.10024E+08
 
   -0.10229E+08         0.10317E+07         0.00000E+00
    0.10317E+07        -0.39786E+08         0.00000E+00
    0.00000E+00         0.00000E+00        -0.10003E+08
 
   -0.10104E+08         0.15628E+07         0.00000E+00
    0.15628E+07        -0.39832E+08         0.00000E+00
    0.00000E+00         0.00000E+00        -0.99871E+07
 
   -0.10017E+08         0.21551E+07         0.00000E+00
    0.21551E+07        -0.39864E+08         0.00000E+00
    0.00000E+00         0.00000E+00        -0.99764E+07
 
   -0.99778E+07         0.28065E+07         0.00000E+00
    0.28065E+07        -0.39880E+08         0.00000E+00
    0.00000E+00         0.00000E+00        -0.99716E+07
 
   -0.13624E+08        -0.22110E+06         0.00000E+00
   -0.22110E+06        -0.40109E+08         0.00000E+00
    0.00000E+00         0.00000E+00        -0.10747E+08
 
   -0.13436E+08        -0.57124E+06         0.00000E+00
   -0.57124E+06        -0.40139E+08         0.00000E+00
    0.00000E+00         0.00000E+00        -0.10715E+08
 
   -0.13190E+08        -0.80369E+06         0.00000E+00
   -0.80369E+06        -0.40188E+08         0.00000E+00
    0.00000E+00         0.00000E+00        -0.10676E+08
 
   -0.12910E+08        -0.92762E+06         0.00000E+00
   -0.92762E+06        -0.40247E+08         0.00000E+00
    0.00000E+00         0.00000E+00        -0.10631E+08
 
   -0.12611E+08        -0.95333E+06         0.00000E+00
   -0.95333E+06        -0.40309E+08         0.00000E+00
    0.00000E+00         0.00000E+00        -0.10584E+08
 
   -0.12307E+08        -0.89100E+06         0.00000E+00
   -0.89100E+06        -0.40371E+08         0.00000E+00
    0.00000E+00         0.00000E+00        -0.10536E+08
 
   -0.12006E+08        -0.74959E+06         0.00000E+00
   -0.74959E+06        -0.40432E+08         0.00000E+00
    0.00000E+00         0.00000E+00        -0.10488E+08
 
   -0.11713E+08        -0.53616E+06         0.00000E+00
   -0.53616E+06        -0.40491E+08         0.00000E+00
    0.00000E+00         0.00000E+00        -0.10441E+08
 
   -0.11433E+08        -0.25550E+06         0.00000E+00
   -0.25550E+06        -0.40550E+08         0.00000E+00
    0.00000E+00         0.00000E+00        -0.10397E+08
 
   -0.11168E+08         0.89811E+05         0.00000E+00
    0.89811E+05        -0.40610E+08         0.00000E+00
    0.00000E+00         0.00000E+00        -0.10356E+08
 
   -0.10923E+08         0.49909E+06         0.00000E+00
    0.49909E+06        -0.40671E+08         0.00000E+00
    0.00000E+00         0.00000E+00        -0.10319E+08
 
   -0.10701E+08         0.97296E+06         0.00000E+00
    0.97296E+06        -0.40732E+08         0.00000E+00
    0.00000E+00         0.00000E+00        -0.10287E+08
 
   -0.10511E+08         0.15125E+07         0.00000E+00
    0.15125E+07        -0.40790E+08         0.00000E+00
    0.00000E+00         0.00000E+00        -0.10260E+08
 
   -0.10360E+08         0.21182E+07         0.00000E+00
    0.21182E+07        -0.40842E+08         0.00000E+00
    0.00000E+00         0.00000E+00        -0.10240E+08
 
   -0.10260E+08         0.27888E+07         0.00000E+00
    0.27888E+07        -0.40879E+08         0.00000E+00
    0.00000E+00         0.00000E+00        -0.10228E+08
 
   -0.15072E+08        -0.23909E+06         0.00000E+00
   -0.23909E+06        -0.41129E+08         0.00000E+00
    0.00000E+00         0.00000E+00        -0.11240E+08
 
   -0.14755E+08        -0.61469E+06         0.00000E+00
   -0.61469E+06        -0.41157E+08         0.00000E+00
    0.00000E+00         0.00000E+00        -0.11182E+08
 
   -0.14390E+08        -0.86085E+06         0.00000E+00
   -0.86085E+06        -0.41200E+08         0.00000E+00
    0.00000E+00         0.00000E+00        -0.11118E+08
 
   -0.14000E+08        -0.99011E+06         0.00000E+00
   -0.99011E+06        -0.41249E+08         0.00000E+00
    0.00000E+00         0.00000E+00        -0.11050E+08
 
   -0.13605E+08        -0.10163E+07         0.00000E+00
   -0.10163E+07        -0.41298E+08         0.00000E+00
    0.00000E+00         0.00000E+00        -0.10980E+08
 
   -0.13214E+08        -0.95250E+06         0.00000E+00
   -0.95250E+06        -0.41343E+08         0.00000E+00
    0.00000E+00         0.00000E+00        -0.10912E+08
 
   -0.12836E+08        -0.80992E+06         0.00000E+00
   -0.80992E+06        -0.41387E+08         0.00000E+00
    0.00000E+00         0.00000E+00        -0.10845E+08
 
   -0.12472E+08        -0.59676E+06         0.00000E+00
   -0.59676E+06        -0.41432E+08         0.00000E+00
    0.00000E+00         0.00000E+00        -0.10781E+08
 
   -0.12125E+08        -0.31812E+06         0.00000E+00
   -0.31812E+06        -0.41479E+08         0.00000E+00
    0.00000E+00         0.00000E+00        -0.10721E+08
 
   -0.11794E+08         0.23941E+05         0.00000E+00
    0.23941E+05        -0.41532E+08         0.00000E+00
    0.00000E+00         0.00000E+00        -0.10665E+08
 
   -0.11482E+08         0.42998E+06         0.00000E+00
    0.42998E+06        -0.41592E+08         0.00000E+00
    0.00000E+00         0.00000E+00        -0.10615E+08
 
   -0.11193E+08         0.90240E+06         0.00000E+00
    0.90240E+06        -0.41660E+08         0.00000E+00
    0.00000E+00         0.00000E+00        -0.10571E+08
 
   -0.10932E+08         0.14444E+07         0.00000E+00
    0.14444E+07        -0.41732E+08         0.00000E+00
    0.00000E+00         0.00000E+00        -0.10533E+08
 
   -0.10712E+08         0.20587E+07         0.00000E+00
    0.20587E+07        -0.41803E+08         0.00000E+00
    0.00000E+00         0.00000E+00        -0.10503E+08
 
   -0.10543E+08         0.27457E+07         0.00000E+00
    0.27457E+07        -0.41866E+08         0.00000E+00
    0.00000E+00         0.00000E+00        -0.10482E+08
 
   -0.16569E+08        -0.25647E+06         0.00000E+00
   -0.25647E+06        -0.42166E+08         0.00000E+00
    0.00000E+00         0.00000E+00        -0.11747E+08
 
   -0.16108E+08        -0.65460E+06         0.00000E+00
   -0.65460E+06        -0.42190E+08         0.00000E+00
    0.00000E+00         0.00000E+00        -0.11660E+08
 
   -0.15613E+08        -0.91009E+06         0.00000E+00
   -0.91009E+06        -0.42225E+08         0.00000E+00
    0.00000E+00         0.00000E+00        -0.11567E+08
 
   -0.15109E+08        -0.10402E+07         0.00000E+00
   -0.10402E+07        -0.42259E+08         0.00000E+00
    0.00000E+00         0.00000E+00        -0.11473E+08
 
   -0.14614E+08        -0.10633E+07         0.00000E+00
   -0.10633E+07        -0.42288E+08         0.00000E+00
    0.00000E+00         0.00000E+00        -0.11380E+08
 
   -0.14138E+08        -0.99642E+06         0.00000E+00
   -0.99642E+06        -0.42311E+08         0.00000E+00
    0.00000E+00         0.00000E+00        -0.11290E+08
 
   -0.13684E+08        -0.85314E+06         0.00000E+00
   -0.85314E+06        -0.42332E+08         0.00000E+00
    0.00000E+00         0.00000E+00        -0.11203E+08
 
   -0.13252E+08        -0.64288E+06         0.00000E+00
   -0.64288E+06        -0.42355E+08         0.00000E+00
    0.00000E+00         0.00000E+00        -0.11121E+08
 
   -0.12840E+08        -0.37082E+06         0.00000E+00
   -0.37082E+06        -0.42385E+08         0.00000E+00
    0.00000E+00         0.00000E+00        -0.11045E+08
 
   -0.12446E+08        -0.38189E+05         0.00000E+00
   -0.38189E+05        -0.42427E+08         0.00000E+00
    0.00000E+00         0.00000E+00        -0.10974E+08
 
   -0.12067E+08         0.35721E+06         0.00000E+00
    0.35721E+06        -0.42484E+08         0.00000E+00
    0.00000E+00         0.00000E+00        -0.10910E+08
 
   -0.11707E+08         0.82023E+06         0.00000E+00
    0.82023E+06        -0.42557E+08         0.00000E+00
    0.00000E+00         0.00000E+00        -0.10853E+08
 
   -0.11371E+08         0.13571E+07         0.00000E+00
    0.13571E+07        -0.42644E+08         0.00000E+00
    0.00000E+00         0.00000E+00        -0.10803E+08
 
   -0.11072E+08         0.19738E+07         0.00000E+00
    0.19738E+07        -0.42738E+08         0.00000E+00
    0.00000E+00         0.00000E+00        -0.10762E+08
 
   -0.10826E+08         0.26734E+07         0.00000E+00
    0.26734E+07        -0.42830E+08         0.00000E+00
    0.00000E+00         0.00000E+00        -0.10731E+08
 
   -0.18107E+08        -0.27271E+06         0.00000E+00
   -0.27271E+06        -0.43215E+08         0.00000E+00
    0.00000E+00         0.00000E+00        -0.12264E+08
 
   -0.17487E+08        -0.68866E+06         0.00000E+00
   -0.68866E+06        -0.43234E+08         0.00000E+00
    0.00000E+00         0.00000E+00        -0.12144E+08
 
   -0.16850E+08        -0.94686E+06         0.00000E+00
   -0.94686E+06        -0.43256E+08         0.00000E+00
    0.00000E+00         0.00000E+00        -0.12021E+08
 
   -0.16225E+08        -0.10713E+07         0.00000E+00
   -0.10713E+07        -0.43269E+08         0.00000E+00
    0.00000E+00         0.00000E+00        -0.11899E+08
 
   -0.15630E+08        -0.10868E+07         0.00000E+00
   -0.10868E+07        -0.43271E+08         0.00000E+00
    0.00000E+00         0.00000E+00        -0.11780E+08
 
   -0.15072E+08        -0.10150E+07         0.00000E+00
   -0.10150E+07        -0.43263E+08         0.00000E+00
    0.00000E+00         0.00000E+00        -0.11667E+08
 
   -0.14548E+08        -0.87193E+06         0.00000E+00
   -0.87193E+06        -0.43253E+08         0.00000E+00
    0.00000E+00         0.00000E+00        -0.11560E+08
 
   -0.14054E+08        -0.66801E+06         0.00000E+00
   -0.66801E+06        -0.43248E+08         0.00000E+00
    0.00000E+00         0.00000E+00        -0.11460E+08
 
   -0.13582E+08        -0.40818E+06         0.00000E+00
   -0.40818E+06        -0.43255E+08         0.00000E+00
    0.00000E+00         0.00000E+00        -0.11367E+08
 
   -0.13127E+08        -0.92537E+05         0.00000E+00
   -0.92537E+05        -0.43281E+08         0.00000E+00
    0.00000E+00         0.00000E+00        -0.11282E+08
 
   -0.12683E+08         0.28312E+06         0.00000E+00
    0.28312E+06        -0.43332E+08         0.00000E+00
    0.00000E+00         0.00000E+00        -0.11203E+08
 
   -0.12249E+08         0.72667E+06         0.00000E+00
    0.72667E+06        -0.43410E+08         0.00000E+00
    0.00000E+00         0.00000E+00        -0.11132E+08
 
   -0.11833E+08         0.12485E+07         0.00000E+00
    0.12485E+07        -0.43512E+08         0.00000E+00
    0.00000E+00         0.00000E+00        -0.11069E+08
 
   -0.11445E+08         0.18592E+07         0.00000E+00
    0.18592E+07        -0.43633E+08         0.00000E+00
    0.00000E+00         0.00000E+00        -0.11016E+08
 
   -0.11109E+08         0.25665E+07         0.00000E+00
    0.25665E+07        -0.43760E+08         0.00000E+00
    0.00000E+00         0.00000E+00        -0.10974E+08
 
   -0.19678E+08        -0.28716E+06         0.00000E+00
   -0.28716E+06        -0.44272E+08         0.00000E+00
    0.00000E+00         0.00000E+00        -0.12790E+08
 
   -0.18879E+08        -0.71356E+06         0.00000E+00
   -0.71356E+06        -0.44283E+08         0.00000E+00
    0.00000E+00         0.00000E+00        -0.12632E+08
 
   -0.18088E+08        -0.96470E+06         0.00000E+00
   -0.96470E+06        -0.44287E+08         0.00000E+00
    0.00000E+00         0.00000E+00        -0.12475E+08
 
   -0.17340E+08        -0.10748E+07         0.00000E+00
   -0.10748E+07        -0.44270E+08         0.00000E+00
    0.00000E+00         0.00000E+00        -0.12322E+08
 
   -0.16648E+08        -0.10774E+07         0.00000E+00
   -0.10774E+07        -0.44235E+08         0.00000E+00
    0.00000E+00         0.00000E+00        -0.12177E+08
 
   -0.16013E+08        -0.99905E+06         0.00000E+00
   -0.99905E+06        -0.44187E+08         0.00000E+00
    0.00000E+00         0.00000E+00        -0.12040E+08
 
   -0.15428E+08        -0.85813E+06         0.00000E+00
   -0.85813E+06        -0.44137E+08         0.00000E+00
    0.00000E+00         0.00000E+00        -0.11913E+08
 
   -0.14879E+08        -0.66517E+06         0.00000E+00
   -0.66517E+06        -0.44097E+08         0.00000E+00
    0.00000E+00         0.00000E+00        -0.11795E+08
 
   -0.14355E+08        -0.42440E+06         0.00000E+00
   -0.42440E+06        -0.44075E+08         0.00000E+00
    0.00000E+00         0.00000E+00        -0.11686E+08
 
   -0.13844E+08        -0.13459E+06         0.00000E+00
   -0.13459E+06        -0.44081E+08         0.00000E+00
    0.00000E+00         0.00000E+00        -0.11585E+08
 
   -0.13337E+08         0.21050E+06         0.00000E+00
    0.21050E+06        -0.44122E+08         0.00000E+00
    0.00000E+00         0.00000E+00        -0.11492E+08
 
   -0.12829E+08         0.62215E+06         0.00000E+00
    0.62215E+06        -0.44203E+08         0.00000E+00
    0.00000E+00         0.00000E+00        -0.11406E+08
 
   -0.12324E+08         0.11159E+07         0.00000E+00
    0.11159E+07        -0.44323E+08         0.00000E+00
    0.00000E+00         0.00000E+00        -0.11329E+08
 
   -0.11836E+08         0.17095E+07         0.00000E+00
    0.17095E+07        -0.44475E+08         0.00000E+00
    0.00000E+00         0.00000E+00        -0.11262E+08
 
   -0.11391E+08         0.24176E+07         0.00000E+00
    0.24176E+07        -0.44645E+08         0.00000E+00
    0.00000E+00         0.00000E+00        -0.11207E+08
 
   -0.21271E+08        -0.29894E+06         0.00000E+00
   -0.29894E+06        -0.45331E+08         0.00000E+00
    0.00000E+00         0.00000E+00        -0.13320E+08
 
   -0.20268E+08        -0.72423E+06         0.00000E+00
   -0.72423E+06        -0.45332E+08         0.00000E+00
    0.00000E+00         0.00000E+00        -0.13120E+08
 
   -0.19311E+08        -0.95393E+06         0.00000E+00
   -0.95393E+06        -0.45308E+08         0.00000E+00
    0.00000E+00         0.00000E+00        -0.12924E+08
 
   -0.18440E+08        -0.10387E+07         0.00000E+00
   -0.10387E+07        -0.45249E+08         0.00000E+00
    0.00000E+00         0.00000E+00        -0.12738E+08
 
   -0.17659E+08        -0.10232E+07         0.00000E+00
   -0.10232E+07        -0.45163E+08         0.00000E+00
    0.00000E+00         0.00000E+00        -0.12565E+08
 
   -0.16959E+08        -0.93862E+06         0.00000E+00
   -0.93862E+06        -0.45065E+08         0.00000E+00
    0.00000E+00         0.00000E+00        -0.12405E+08
 
   -0.16323E+08        -0.80364E+06         0.00000E+00
   -0.80364E+06        -0.44968E+08         0.00000E+00
    0.00000E+00         0.00000E+00        -0.12258E+08
 
   -0.15730E+08        -0.62776E+06         0.00000E+00
   -0.62776E+06        -0.44886E+08         0.00000E+00
    0.00000E+00         0.00000E+00        -0.12123E+08
 
   -0.15162E+08        -0.41390E+06         0.00000E+00
   -0.41390E+06        -0.44831E+08         0.00000E+00
    0.00000E+00         0.00000E+00        -0.11999E+08
 
   -0.14603E+08        -0.15965E+06         0.00000E+00
   -0.15965E+06        -0.44813E+08         0.00000E+00
    0.00000E+00         0.00000E+00        -0.11883E+08
 
   -0.14038E+08         0.14284E+06         0.00000E+00
    0.14284E+06        -0.44840E+08         0.00000E+00
    0.00000E+00         0.00000E+00        -0.11776E+08
 
   -0.13458E+08         0.50778E+06         0.00000E+00
    0.50778E+06        -0.44921E+08         0.00000E+00
    0.00000E+00         0.00000E+00        -0.11676E+08
 
   -0.12858E+08         0.95673E+06         0.00000E+00
    0.95673E+06        -0.45059E+08         0.00000E+00
    0.00000E+00         0.00000E+00        -0.11584E+08
 
   -0.12253E+08         0.15173E+07         0.00000E+00
    0.15173E+07        -0.45249E+08         0.00000E+00
    0.00000E+00         0.00000E+00        -0.11500E+08
 
   -0.11674E+08         0.22162E+07         0.00000E+00
    0.22162E+07        -0.45472E+08         0.00000E+00
    0.00000E+00         0.00000E+00        -0.11429E+08
 
   -0.22871E+08        -0.30656E+06         0.00000E+00
   -0.30656E+06        -0.46388E+08         0.00000E+00
    0.00000E+00         0.00000E+00        -0.13852E+08
 
   -0.21631E+08        -0.71159E+06         0.00000E+00
   -0.71159E+06        -0.46371E+08         0.00000E+00
    0.00000E+00         0.00000E+00        -0.13600E+08
 
   -0.20500E+08        -0.89916E+06         0.00000E+00
   -0.89916E+06        -0.46303E+08         0.00000E+00
    0.00000E+00         0.00000E+00        -0.13361E+08
 
   -0.19513E+08        -0.94684E+06         0.00000E+00
   -0.94684E+06        -0.46184E+08         0.00000E+00
    0.00000E+00         0.00000E+00        -0.13139E+08
 
   -0.18659E+08        -0.91129E+06         0.00000E+00
   -0.91129E+06        -0.46033E+08         0.00000E+00
    0.00000E+00         0.00000E+00        -0.12939E+08
 
   -0.17910E+08        -0.82441E+06         0.00000E+00
   -0.82441E+06        -0.45874E+08         0.00000E+00
    0.00000E+00         0.00000E+00        -0.12757E+08
 
   -0.17236E+08        -0.70199E+06         0.00000E+00
   -0.70199E+06        -0.45725E+08         0.00000E+00
    0.00000E+00         0.00000E+00        -0.12592E+08
 
   -0.16610E+08        -0.55090E+06         0.00000E+00
   -0.55090E+06        -0.45599E+08         0.00000E+00
    0.00000E+00         0.00000E+00        -0.12442E+08
 
   -0.16010E+08        -0.37244E+06         0.00000E+00
   -0.37244E+06        -0.45508E+08         0.00000E+00
    0.00000E+00         0.00000E+00        -0.12304E+08
 
   -0.15413E+08        -0.16337E+06         0.00000E+00
   -0.16337E+06        -0.45463E+08         0.00000E+00
    0.00000E+00         0.00000E+00        -0.12175E+08
 
   -0.14799E+08         0.84484E+05         0.00000E+00
    0.84484E+05        -0.45474E+08         0.00000E+00
    0.00000E+00         0.00000E+00        -0.12055E+08
 
   -0.14149E+08         0.38639E+06         0.00000E+00
    0.38639E+06        -0.45551E+08         0.00000E+00
    0.00000E+00         0.00000E+00        -0.11940E+08
 
   -0.13452E+08         0.76905E+06         0.00000E+00
    0.76905E+06        -0.45706E+08         0.00000E+00
    0.00000E+00         0.00000E+00        -0.11832E+08
 
   -0.12711E+08         0.12732E+07         0.00000E+00
    0.12732E+07        -0.45938E+08         0.00000E+00
    0.00000E+00         0.00000E+00        -0.11730E+08
 
   -0.11964E+08         0.19467E+07         0.00000E+00
    0.19467E+07        -0.46229E+08         0.00000E+00
    0.00000E+00         0.00000E+00        -0.11639E+08
 
   -0.24455E+08        -0.30668E+06         0.00000E+00
   -0.30668E+06        -0.47435E+08         0.00000E+00
    0.00000E+00         0.00000E+00        -0.14378E+08
 
   -0.22936E+08        -0.65701E+06         0.00000E+00
   -0.65701E+06        -0.47384E+08         0.00000E+00
    0.00000E+00         0.00000E+00        -0.14064E+08
 
   -0.21633E+08        -0.77507E+06         0.00000E+00
   -0.77507E+06        -0.47243E+08         0.00000E+00
    0.00000E+00         0.00000E+00        -0.13775E+08
 
   -0.20554E+08        -0.77960E+06         0.00000E+00
   -0.77960E+06        -0.47038E+08         0.00000E+00
    0.00000E+00         0.00000E+00        -0.13518E+08
 
   -0.19649E+08        -0.73038E+06         0.00000E+00
   -0.73038E+06        -0.46811E+08         0.00000E+00
    0.00000E+00         0.00000E+00        -0.13292E+08
 
   -0.18869E+08        -0.65085E+06         0.00000E+00
   -0.65085E+06        -0.46589E+08         0.00000E+00
    0.00000E+00         0.00000E+00        -0.13091E+08
 
   -0.18172E+08        -0.55067E+06         0.00000E+00
   -0.55067E+06        -0.46387E+08         0.00000E+00
    0.00000E+00         0.00000E+00        -0.12912E+08
 
   -0.17526E+08        -0.43327E+06         0.00000E+00
   -0.43327E+06        -0.46219E+08         0.00000E+00
    0.00000E+00         0.00000E+00        -0.12749E+08
 
   -0.16904E+08        -0.29844E+06         0.00000E+00
   -0.29844E+06        -0.46095E+08         0.00000E+00
    0.00000E+00         0.00000E+00        -0.12600E+08
 
   -0.16280E+08        -0.14297E+06         0.00000E+00
   -0.14297E+06        -0.46023E+08         0.00000E+00
    0.00000E+00         0.00000E+00        -0.12461E+08
 
   -0.15629E+08         0.40161E+05         0.00000E+00
    0.40161E+05        -0.46015E+08         0.00000E+00
    0.00000E+00         0.00000E+00        -0.12329E+08
 
   -0.14922E+08         0.26423E+06         0.00000E+00
    0.26423E+06        -0.46084E+08         0.00000E+00
    0.00000E+00         0.00000E+00        -0.12201E+08
 
   -0.14130E+08         0.55508E+06         0.00000E+00
    0.55508E+06        -0.46247E+08         0.00000E+00
    0.00000E+00         0.00000E+00        -0.12075E+08
 
   -0.13235E+08         0.96728E+06         0.00000E+00
    0.96728E+06        -0.46525E+08         0.00000E+00
    0.00000E+00         0.00000E+00        -0.11952E+08
 
   -0.12270E+08         0.15860E+07         0.00000E+00
    0.15860E+07        -0.46903E+08         0.00000E+00
    0.00000E+00         0.00000E+00        -0.11835E+08
 
   -0.25981E+08        -0.28772E+06         0.00000E+00
   -0.28772E+06        -0.48460E+08         0.00000E+00
    0.00000E+00         0.00000E+00        -0.14888E+08
 
   -0.24135E+08        -0.51596E+06         0.00000E+00
   -0.51596E+06        -0.48325E+08         0.00000E+00
    0.00000E+00         0.00000E+00        -0.14492E+08
 
   -0.22696E+08        -0.54614E+06         0.00000E+00
   -0.54614E+06        -0.48060E+08         0.00000E+00
    0.00000E+00         0.00000E+00        -0.14151E+08
 
   -0.21566E+08        -0.52291E+06         0.00000E+00
   -0.52291E+06        -0.47756E+08         0.00000E+00
    0.00000E+00         0.00000E+00        -0.13864E+08
 
   -0.20638E+08        -0.47779E+06         0.00000E+00
   -0.47779E+06        -0.47454E+08         0.00000E+00
    0.00000E+00         0.00000E+00        -0.13618E+08
 
   -0.19843E+08        -0.42026E+06         0.00000E+00
   -0.42026E+06        -0.47176E+08         0.00000E+00
    0.00000E+00         0.00000E+00        -0.13404E+08
 
   -0.19137E+08        -0.35365E+06         0.00000E+00
   -0.35365E+06        -0.46931E+08         0.00000E+00
    0.00000E+00         0.00000E+00        -0.13214E+08
 
   -0.18482E+08        -0.27869E+06         0.00000E+00
   -0.27869E+06        -0.46730E+08         0.00000E+00
    0.00000E+00         0.00000E+00        -0.13042E+08
 
   -0.17849E+08        -0.19453E+06         0.00000E+00
   -0.19453E+06        -0.46579E+08         0.00000E+00
    0.00000E+00         0.00000E+00        -0.12886E+08
 
   -0.17210E+08        -0.98813E+05         0.00000E+00
   -0.98813E+05        -0.46487E+08         0.00000E+00
    0.00000E+00         0.00000E+00        -0.12739E+08
 
   -0.16534E+08         0.13039E+05         0.00000E+00
    0.13039E+05        -0.46462E+08         0.00000E+00
    0.00000E+00         0.00000E+00        -0.12599E+08
 
   -0.15788E+08         0.14965E+06         0.00000E+00
    0.14965E+06        -0.46519E+08         0.00000E+00
    0.00000E+00         0.00000E+00        -0.12461E+08
 
   -0.14924E+08         0.32872E+06         0.00000E+00
    0.32872E+06        -0.46680E+08         0.00000E+00
    0.00000E+00         0.00000E+00        -0.12321E+08
 
   -0.13873E+08         0.59476E+06         0.00000E+00
    0.59476E+06        -0.46981E+08         0.00000E+00
    0.00000E+00         0.00000E+00        -0.12171E+08
 
   -0.12617E+08         0.10942E+07         0.00000E+00
    0.10942E+07        -0.47476E+08         0.00000E+00
    0.00000E+00         0.00000E+00        -0.12019E+08
 
   -0.27343E+08        -0.17509E+06         0.00000E+00
   -0.17509E+06        -0.49368E+08         0.00000E+00
    0.00000E+00         0.00000E+00        -0.15342E+08
 
   -0.25192E+08        -0.21017E+06         0.00000E+00
   -0.21017E+06        -0.49033E+08         0.00000E+00
    0.00000E+00         0.00000E+00        -0.14845E+08
 
   -0.23713E+08        -0.20068E+06         0.00000E+00
   -0.20068E+06        -0.48645E+08         0.00000E+00
    0.00000E+00         0.00000E+00        -0.14472E+08
 
   -0.22571E+08        -0.18596E+06         0.00000E+00
   -0.18596E+06        -0.48267E+08         0.00000E+00
    0.00000E+00         0.00000E+00        -0.14167E+08
 
   -0.21638E+08        -0.16735E+06         0.00000E+00
   -0.16735E+06        -0.47918E+08         0.00000E+00
    0.00000E+00         0.00000E+00        -0.13911E+08
 
   -0.20843E+08        -0.14613E+06         0.00000E+00
   -0.14613E+06        -0.47607E+08         0.00000E+00
    0.00000E+00         0.00000E+00        -0.13690E+08
 
   -0.20137E+08        -0.12263E+06         0.00000E+00
   -0.12263E+06        -0.47339E+08         0.00000E+00
    0.00000E+00         0.00000E+00        -0.13495E+08
 
   -0.19482E+08        -0.96776E+05         0.00000E+00
   -0.96776E+05        -0.47120E+08         0.00000E+00
    0.00000E+00         0.00000E+00        -0.13320E+08
 
   -0.18847E+08        -0.68119E+05         0.00000E+00
   -0.68119E+05        -0.46955E+08         0.00000E+00
    0.00000E+00         0.00000E+00        -0.13160E+08
 
   -0.18203E+08        -0.35790E+05         0.00000E+00
   -0.35790E+05        -0.46851E+08         0.00000E+00
    0.00000E+00         0.00000E+00        -0.13011E+08
 
   -0.17519E+08         0.17768E+04         0.00000E+00
    0.17768E+04        -0.46816E+08         0.00000E+00
    0.00000E+00         0.00000E+00        -0.12867E+08
 
   -0.16755E+08         0.47451E+05         0.00000E+00
    0.47451E+05        -0.46865E+08         0.00000E+00
    0.00000E+00         0.00000E+00        -0.12724E+08
 
   -0.15855E+08         0.10745E+06         0.00000E+00
    0.10745E+06        -0.47019E+08         0.00000E+00
    0.00000E+00         0.00000E+00        -0.12575E+08
 
   -0.14720E+08         0.19585E+06         0.00000E+00
    0.19585E+06        -0.47321E+08         0.00000E+00
    0.00000E+00         0.00000E+00        -0.12408E+08
 
   -0.13072E+08         0.40450E+06         0.00000E+00
    0.40450E+06        -0.47890E+08         0.00000E+00
    0.00000E+00         0.00000E+00        -0.12192E+08
 
TENSORS stresstot double 
   -0.30348E+08        -0.24345E+04         0.00000E+00
   -0.24345E+04        -0.60003E+08         0.00000E+00
    0.00000E+00         0.00000E+00        -0.37111E+08
 
   -0.31119E+08        -0.60630E+04         0.00000E+00
   -0.60630E+04        -0.60011E+08         0.00000E+00
    0.00000E+00         0.00000E+00        -0.37262E+08
 
   -0.31827E+08        -0.79508E+04         0.00000E+00
   -0.79508E+04        -0.60025E+08         0.00000E+00
    0.00000E+00         0.00000E+00        -0.37399E+08
 
   -0.32479E+08        -0.80299E+04         0.00000E+00
   -0.80299E+04        -0.60042E+08         0.00000E+00
    0.00000E+00         0.00000E+00        -0.37522E+08
 
   -0.33083E+08        -0.62546E+04         0.00000E+00
   -0.62546E+04        -0.60056E+08         0.00000E+00
    0.00000E+00         0.00000E+00        -0.37633E+08
 
   -0.33647E+08        -0.26000E+04         0.00000E+00
   -0.26000E+04        -0.60065E+08         0.00000E+00
    0.00000E+00         0.00000E+00        -0.37733E+08
 
   -0.34179E+08         0.29417E+04         0.00000E+00
    0.29417E+04        -0.60065E+08         0.00000E+00
    0.00000E+00         0.00000E+00        -0.37825E+08
 
   -0.34687E+08         0.10364E+05         0.00000E+00
    0.10364E+05        -0.60052E+08         0.00000E+00
    0.00000E+00         0.00000E+00        -0.37909E+08
 
   -0.35177E+08         0.19649E+05         0.00000E+00
    0.19649E+05        -0.60022E+08         0.00000E+00
    0.00000E+00         0.00000E+00        -0.37986E+08
 
   -0.35656E+08         0.30771E+05         0.00000E+00
    0.30771E+05        -0.59972E+08         0.00000E+00
    0.00000E+00         0.00000E+00        -0.38058E+08
 
   -0.36133E+08         0.43701E+05         0.00000E+00
    0.43701E+05        -0.59898E+08         0.00000E+00
    0.00000E+00         0.00000E+00        -0.38126E+08
 
   -0.36612E+08         0.58409E+05         0.00000E+00
    0.58409E+05        -0.59796E+08         0.00000E+00
    0.00000E+00         0.00000E+00        -0.38191E+08
 
   -0.37102E+08         0.74867E+05         0.00000E+00
    0.74867E+05        -0.59663E+08         0.00000E+00
    0.00000E+00         0.00000E+00        -0.38253E+08
 
   -0.37608E+08         0.93054E+05         0.00000E+00
    0.93054E+05        -0.59495E+08         0.00000E+00
    0.00000E+00         0.00000E+00        -0.38315E+08
 
   -0.38136E+08         0.11296E+06         0.00000E+00
    0.11296E+06        -0.59289E+08         0.00000E+00
    0.00000E+00         0.00000E+00        -0.38376E+08
 
   -0.30357E+08        -0.73542E+04         0.00000E+00
   -0.73542E+04        -0.60003E+08         0.00000E+00
    0.00000E+00         0.00000E+00        -0.37075E+08
 
   -0.31125E+08        -0.18330E+05         0.00000E+00
   -0.18330E+05        -0.60012E+08         0.00000E+00
    0.00000E+00         0.00000E+00        -0.37226E+08
 
   -0.31829E+08        -0.24072E+05         0.00000E+00
   -0.24072E+05        -0.60026E+08         0.00000E+00
    0.00000E+00         0.00000E+00        -0.37361E+08
 
   -0.32477E+08        -0.24375E+05         0.00000E+00
   -0.24375E+05        -0.60043E+08         0.00000E+00
    0.00000E+00         0.00000E+00        -0.37484E+08
 
   -0.33078E+08        -0.19104E+05         0.00000E+00
   -0.19104E+05        -0.60058E+08         0.00000E+00
    0.00000E+00         0.00000E+00        -0.37594E+08
 
   -0.33638E+08        -0.81872E+04         0.00000E+00
   -0.81872E+04        -0.60068E+08         0.00000E+00
    0.00000E+00         0.00000E+00        -0.37694E+08
 
   -0.34166E+08         0.83978E+04         0.00000E+00
    0.83978E+04        -0.60068E+08         0.00000E+00
    0.00000E+00         0.00000E+00        -0.37785E+08
 
   -0.34670E+08         0.30629E+05         0.00000E+00
    0.30629E+05        -0.60056E+08         0.00000E+00
    0.00000E+00         0.00000E+00        -0.37868E+08
 
   -0.35156E+08         0.58451E+05         0.00000E+00
    0.58451E+05        -0.60027E+08         0.00000E+00
    0.00000E+00         0.00000E+00        -0.37945E+08
 
   -0.35632E+08         0.91787E+05         0.00000E+00
    0.91787E+05        -0.59978E+08         0.00000E+00
    0.00000E+00         0.00000E+00        -0.38017E+08
 
   -0.36105E+08         0.13055E+06         0.00000E+00
    0.13055E+06        -0.59905E+08         0.00000E+00
    0.00000E+00         0.00000E+00        -0.38084E+08
 
   -0.36581E+08         0.17463E+06         0.00000E+00
    0.17463E+06        -0.59804E+08         0.00000E+00
    0.00000E+00         0.00000E+00        -0.38149E+08
 
   -0.37067E+08         0.22397E+06         0.00000E+00
    0.22397E+06        -0.59672E+08         0.00000E+00
    0.00000E+00         0.00000E+00        -0.38211E+08
 
   -0.37570E+08         0.27848E+06         0.00000E+00
    0.27848E+06        -0.59506E+08         0.00000E+00
    0.00000E+00         0.00000E+00        -0.38272E+08
 
   -0.38095E+08         0.33815E+06         0.00000E+00
    0.33815E+06        -0.59302E+08         0.00000E+00
    0.00000E+00         0.00000E+00        -0.38333E+08
 
   -0.30375E+08        -0.12426E+05         0.00000E+00
   -0.12426E+05        -0.60003E+08         0.00000E+00
    0.00000E+00         0.00000E+00        -0.37002E+08
 
   -0.31136E+08        -0.31021E+05         0.00000E+00
   -0.31021E+05        -0.60012E+08         0.00000E+00
    0.00000E+00         0.00000E+00        -0.37152E+08
 
   -0.31833E+08        -0.40849E+05         0.00000E+00
   -0.40849E+05        -0.60027E+08         0.00000E+00
    0.00000E+00         0.00000E+00        -0.37287E+08
 
   -0.32474E+08        -0.41572E+05         0.00000E+00
   -0.41572E+05        -0.60045E+08         0.00000E+00
    0.00000E+00         0.00000E+00        -0.37408E+08
 
   -0.33067E+08        -0.32973E+05         0.00000E+00
   -0.32973E+05        -0.60061E+08         0.00000E+00
    0.00000E+00         0.00000E+00        -0.37517E+08
 
   -0.33620E+08        -0.14933E+05         0.00000E+00
   -0.14933E+05        -0.60073E+08         0.00000E+00
    0.00000E+00         0.00000E+00        -0.37616E+08
 
   -0.34141E+08         0.12575E+05         0.00000E+00
    0.12575E+05        -0.60075E+08         0.00000E+00
    0.00000E+00         0.00000E+00        -0.37706E+08
 
   -0.34637E+08         0.49510E+05         0.00000E+00
    0.49510E+05        -0.60064E+08         0.00000E+00
    0.00000E+00         0.00000E+00        -0.37788E+08
 
   -0.35115E+08         0.95773E+05         0.00000E+00
    0.95773E+05        -0.60037E+08         0.00000E+00
    0.00000E+00         0.00000E+00        -0.37864E+08
 
   -0.35584E+08         0.15123E+06         0.00000E+00
    0.15123E+06        -0.59990E+08         0.00000E+00
    0.00000E+00         0.00000E+00        -0.37935E+08
 
   -0.36050E+08         0.21572E+06         0.00000E+00
    0.21572E+06        -0.59919E+08         0.00000E+00
    0.00000E+00         0.00000E+00        -0.38002E+08
 
   -0.36519E+08         0.28908E+06         0.00000E+00
    0.28908E+06        -0.59821E+08         0.00000E+00
    0.00000E+00         0.00000E+00        -0.38065E+08
 
   -0.36998E+08         0.37117E+06         0.00000E+00
    0.37117E+06        -0.59692E+08         0.00000E+00
    0.00000E+00         0.00000E+00        -0.38127E+08
 
   -0.37494E+08         0.46188E+06         0.00000E+00
    0.46188E+06        -0.59528E+08         0.00000E+00
    0.00000E+00         0.00000E+00        -0.38187E+08
 
   -0.38012E+08         0.56113E+06         0.00000E+00
    0.56113E+06        -0.59326E+08         0.00000E+00
    0.00000E+00         0.00000E+00        -0.38247E+08
 
   -0.30403E+08        -0.17749E+05         0.00000E+00
   -0.17749E+05        -0.60003E+08         0.00000E+00
    0.00000E+00         0.00000E+00        -0.36894E+08
 
   -0.31154E+08        -0.44418E+05         0.00000E+00
   -0.44418E+05        -0.60013E+08         0.00000E+00
    0.00000E+00         0.00000E+00        -0.37042E+08
 
   -0.31840E+08        -0.58717E+05         0.00000E+00
   -0.58717E+05        -0.60029E+08         0.00000E+00
    0.00000E+00         0.00000E+00        -0.37175E+08
 
   -0.32470E+08        -0.60187E+05         0.00000E+00
   -0.60187E+05        -0.60048E+08         0.00000E+00
    0.00000E+00         0.00000E+00        -0.37294E+08
 
   -0.33051E+08        -0.48533E+05         0.00000E+00
   -0.48533E+05        -0.60066E+08         0.00000E+00
    0.00000E+00         0.00000E+00        -0.37402E+08
 
   -0.33593E+08        -0.23602E+05         0.00000E+00
   -0.23602E+05        -0.60080E+08         0.00000E+00
    0.00000E+00         0.00000E+00        -0.37499E+08
 
   -0.34102E+08         0.14631E+05         0.00000E+00
    0.14631E+05        -0.60085E+08         0.00000E+00
    0.00000E+00         0.00000E+00        -0.37588E+08
 
   -0.34587E+08         0.66095E+05         0.00000E+00
    0.66095E+05        -0.60077E+08         0.00000E+00
    0.00000E+00         0.00000E+00        -0.37669E+08
 
   -0.35054E+08         0.13064E+06         0.00000E+00
    0.13064E+06        -0.60053E+08         0.00000E+00
    0.00000E+00         0.00000E+00        -0.37743E+08
 
   -0.35512E+08         0.20806E+06         0.00000E+00
    0.20806E+06        -0.60009E+08         0.00000E+00
    0.00000E+00         0.00000E+00        -0.37812E+08
 
   -0.35967E+08         0.29812E+06         0.00000E+00
    0.29812E+06        -0.59941E+08         0.00000E+00
    0.00000E+00         0.00000E+00        -0.37878E+08
 
   -0.36426E+08         0.40059E+06         0.00000E+00
    0.40059E+06        -0.59846E+08         0.00000E+00
    0.00000E+00         0.00000E+00        -0.37940E+08
 
   -0.36895E+08         0.51524E+06         0.00000E+00
    0.51524E+06        -0.59720E+08         0.00000E+00
    0.00000E+00         0.00000E+00        -0.38000E+08
 
   -0.37380E+08         0.64190E+06         0.00000E+00
    0.64190E+06        -0.59560E+08         0.00000E+00
    0.00000E+00         0.00000E+00        -0.38060E+08
 
   -0.37888E+08         0.78046E+06         0.00000E+00
    0.78046E+06        -0.59363E+08         0.00000E+00
    0.00000E+00         0.00000E+00        -0.38119E+08
 
   -0.30441E+08        -0.23427E+05         0.00000E+00
   -0.23427E+05        -0.60003E+08         0.00000E+00
    0.00000E+00         0.00000E+00        -0.36751E+08
 
   -0.31178E+08        -0.58798E+05         0.00000E+00
   -0.58798E+05        -0.60014E+08         0.00000E+00
    0.00000E+00         0.00000E+00        -0.36896E+08
 
   -0.31849E+08        -0.78107E+05         0.00000E+00
   -0.78107E+05        -0.60031E+08         0.00000E+00
    0.00000E+00         0.00000E+00        -0.37026E+08
 
   -0.32464E+08        -0.80775E+05         0.00000E+00
   -0.80775E+05        -0.60053E+08         0.00000E+00
    0.00000E+00         0.00000E+00        -0.37144E+08
 
   -0.33031E+08        -0.66445E+05         0.00000E+00
   -0.66445E+05        -0.60073E+08         0.00000E+00
    0.00000E+00         0.00000E+00        -0.37249E+08
 
   -0.33557E+08        -0.34943E+05         0.00000E+00
   -0.34943E+05        -0.60090E+08         0.00000E+00
    0.00000E+00         0.00000E+00        -0.37344E+08
 
   -0.34051E+08         0.13742E+05         0.00000E+00
    0.13742E+05        -0.60097E+08         0.00000E+00
    0.00000E+00         0.00000E+00        -0.37430E+08
 
   -0.34521E+08         0.79493E+05         0.00000E+00
    0.79493E+05        -0.60093E+08         0.00000E+00
    0.00000E+00         0.00000E+00        -0.37509E+08
 
   -0.34973E+08         0.16210E+06         0.00000E+00
    0.16210E+06        -0.60073E+08         0.00000E+00
    0.00000E+00         0.00000E+00        -0.37582E+08
 
   -0.35417E+08         0.26126E+06         0.00000E+00
    0.26126E+06        -0.60033E+08         0.00000E+00
    0.00000E+00         0.00000E+00        -0.37650E+08
 
   -0.35857E+08         0.37668E+06         0.00000E+00
    0.37668E+06        -0.59969E+08         0.00000E+00
    0.00000E+00         0.00000E+00        -0.37713E+08
 
   -0.36302E+08         0.50800E+06         0.00000E+00
    0.50800E+06        -0.59879E+08         0.00000E+00
    0.00000E+00         0.00000E+00        -0.37774E+08
 
   -0.36757E+08         0.65494E+06         0.00000E+00
    0.65494E+06        -0.59758E+08         0.00000E+00
    0.00000E+00         0.00000E+00        -0.37833E+08
 
   -0.37229E+08         0.81723E+06         0.00000E+00
    0.81723E+06        -0.59603E+08         0.00000E+00
    0.00000E+00         0.00000E+00        -0.37890E+08
 
   -0.37723E+08         0.99471E+06         0.00000E+00
    0.99471E+06        -0.59411E+08         0.00000E+00
    0.00000E+00         0.00000E+00        -0.37948E+08
 
   -0.30490E+08        -0.29557E+05         0.00000E+00
   -0.29557E+05        -0.60003E+08         0.00000E+00
    0.00000E+00         0.00000E+00        -0.36573E+08
 
   -0.31209E+08        -0.74439E+05         0.00000E+00
   -0.74439E+05        -0.60015E+08         0.00000E+00
    0.00000E+00         0.00000E+00        -0.36715E+08
 
   -0.31862E+08        -0.99439E+05         0.00000E+00
   -0.99439E+05        -0.60034E+08         0.00000E+00
    0.00000E+00         0.00000E+00        -0.36842E+08
 
   -0.32458E+08        -0.10388E+06         0.00000E+00
   -0.10388E+06        -0.60058E+08         0.00000E+00
    0.00000E+00         0.00000E+00        -0.36956E+08
 
   -0.33006E+08        -0.87352E+05         0.00000E+00
   -0.87352E+05        -0.60082E+08         0.00000E+00
    0.00000E+00         0.00000E+00        -0.37059E+08
 
   -0.33513E+08        -0.49684E+05         0.00000E+00
   -0.49684E+05        -0.60102E+08         0.00000E+00
    0.00000E+00         0.00000E+00        -0.37151E+08
 
   -0.33988E+08         0.91065E+04         0.00000E+00
    0.91065E+04        -0.60113E+08         0.00000E+00
    0.00000E+00         0.00000E+00        -0.37235E+08
 
   -0.34439E+08         0.88840E+05         0.00000E+00
    0.88840E+05        -0.60113E+08         0.00000E+00
    0.00000E+00         0.00000E+00        -0.37311E+08
 
   -0.34873E+08         0.18922E+06         0.00000E+00
    0.18922E+06        -0.60098E+08         0.00000E+00
    0.00000E+00         0.00000E+00        -0.37382E+08
 
   -0.35298E+08         0.30986E+06         0.00000E+00
    0.30986E+06        -0.60063E+08         0.00000E+00
    0.00000E+00         0.00000E+00        -0.37447E+08
 
   -0.35720E+08         0.45034E+06         0.00000E+00
    0.45034E+06        -0.60004E+08         0.00000E+00
    0.00000E+00         0.00000E+00        -0.37509E+08
 
   -0.36148E+08         0.61022E+06         0.00000E+00
    0.61022E+06        -0.59919E+08         0.00000E+00
    0.00000E+00         0.00000E+00        -0.37567E+08
 
   -0.36586E+08         0.78908E+06         0.00000E+00
    0.78908E+06        -0.59804E+08         0.00000E+00
    0.00000E+00         0.00000E+00        -0.37624E+08
 
   -0.37041E+08         0.98659E+06         0.00000E+00
    0.98659E+06        -0.59656E+08         0.00000E+00
    0.00000E+00         0.00000E+00        -0.37680E+08
 
   -0.37518E+08         0.12025E+07         0.00000E+00
    0.12025E+07        -0.59471E+08         0.00000E+00
    0.00000E+00         0.00000E+00        -0.37735E+08
 
   -0.30550E+08        -0.36239E+05         0.00000E+00
   -0.36239E+05        -0.60004E+08         0.00000E+00
    0.00000E+00         0.00000E+00        -0.36361E+08
 
   -0.31248E+08        -0.91610E+05         0.00000E+00
   -0.91610E+05        -0.60016E+08         0.00000E+00
    0.00000E+00         0.00000E+00        -0.36499E+08
 
   -0.31879E+08        -0.12312E+06         0.00000E+00
   -0.12312E+06        -0.60038E+08         0.00000E+00
    0.00000E+00         0.00000E+00        -0.36623E+08
 
   -0.32452E+08        -0.13002E+06         0.00000E+00
   -0.13002E+06        -0.60064E+08         0.00000E+00
    0.00000E+00         0.00000E+00        -0.36733E+08
 
   -0.32977E+08        -0.11187E+06         0.00000E+00
   -0.11187E+06        -0.60092E+08         0.00000E+00
    0.00000E+00         0.00000E+00        -0.36832E+08
 
   -0.33461E+08        -0.68520E+05         0.00000E+00
   -0.68520E+05        -0.60116E+08         0.00000E+00
    0.00000E+00         0.00000E+00        -0.36921E+08
 
   -0.33913E+08        -0.38649E+02         0.00000E+00
   -0.38649E+02        -0.60132E+08         0.00000E+00
    0.00000E+00         0.00000E+00        -0.37002E+08
 
   -0.34341E+08         0.93309E+05         0.00000E+00
    0.93309E+05        -0.60137E+08         0.00000E+00
    0.00000E+00         0.00000E+00        -0.37075E+08
 
   -0.34752E+08         0.21112E+06         0.00000E+00
    0.21112E+06        -0.60127E+08         0.00000E+00
    0.00000E+00         0.00000E+00        -0.37143E+08
 
   -0.35156E+08         0.35290E+06         0.00000E+00
    0.35290E+06        -0.60098E+08         0.00000E+00
    0.00000E+00         0.00000E+00        -0.37205E+08
 
   -0.35557E+08         0.51810E+06         0.00000E+00
    0.51810E+06        -0.60046E+08         0.00000E+00
    0.00000E+00         0.00000E+00        -0.37264E+08
 
   -0.35963E+08         0.70616E+06         0.00000E+00
    0.70616E+06        -0.59967E+08         0.00000E+00
    0.00000E+00         0.00000E+00        -0.37321E+08
 
   -0.36381E+08         0.91653E+06         0.00000E+00
    0.91653E+06        -0.59859E+08         0.00000E+00
    0.00000E+00         0.00000E+00        -0.37375E+08
 
   -0.36816E+08         0.11488E+07         0.00000E+00
    0.11488E+07        -0.59719E+08         0.00000E+00
    0.00000E+00         0.00000E+00        -0.37428E+08
 
   -0.37273E+08         0.14025E+07         0.00000E+00
    0.14025E+07        -0.59542E+08         0.00000E+00
    0.00000E+00         0.00000E+00        -0.37482E+08
 
   -0.30624E+08        -0.43569E+05         0.00000E+00
   -0.43569E+05        -0.60004E+08         0.00000E+00
    0.00000E+00         0.00000E+00        -0.36116E+08
 
   -0.31296E+08        -0.11057E+06         0.00000E+00
   -0.11057E+06        -0.60018E+08         0.00000E+00
    0.00000E+00         0.00000E+00        -0.36250E+08
 
   -0.31901E+08        -0.14955E+06         0.00000E+00
   -0.14955E+06        -0.60042E+08         0.00000E+00
    0.00000E+00         0.00000E+00        -0.36369E+08
 
   -0.32447E+08        -0.15970E+06         0.00000E+00
   -0.15970E+06        -0.60072E+08         0.00000E+00
    0.00000E+00         0.00000E+00        -0.36475E+08
 
   -0.32944E+08        -0.14059E+06         0.00000E+00
   -0.14059E+06        -0.60103E+08         0.00000E+00
    0.00000E+00         0.00000E+00        -0.36570E+08
 
   -0.33401E+08        -0.92106E+05         0.00000E+00
   -0.92106E+05        -0.60132E+08         0.00000E+00
    0.00000E+00         0.00000E+00        -0.36655E+08
 
   -0.33826E+08        -0.14410E+05         0.00000E+00
   -0.14410E+05        -0.60154E+08         0.00000E+00
    0.00000E+00         0.00000E+00        -0.36732E+08
 
   -0.34227E+08         0.92126E+05         0.00000E+00
    0.92126E+05        -0.60165E+08         0.00000E+00
    0.00000E+00         0.00000E+00        -0.36802E+08
 
   -0.34613E+08         0.22698E+06         0.00000E+00
    0.22698E+06        -0.60161E+08         0.00000E+00
    0.00000E+00         0.00000E+00        -0.36866E+08
 
   -0.34991E+08         0.38950E+06         0.00000E+00
    0.38950E+06        -0.60138E+08         0.00000E+00
    0.00000E+00         0.00000E+00        -0.36925E+08
 
   -0.35367E+08         0.57902E+06         0.00000E+00
    0.57902E+06        -0.60093E+08         0.00000E+00
    0.00000E+00         0.00000E+00        -0.36981E+08
 
   -0.35749E+08         0.79480E+06         0.00000E+00
    0.79480E+06        -0.60022E+08         0.00000E+00
    0.00000E+00         0.00000E+00        -0.37035E+08
 
   -0.36143E+08         0.10362E+07         0.00000E+00
    0.10362E+07        -0.59922E+08         0.00000E+00
    0.00000E+00         0.00000E+00        -0.37086E+08
 
   -0.36555E+08         0.13026E+07         0.00000E+00
    0.13026E+07        -0.59790E+08         0.00000E+00
    0.00000E+00         0.00000E+00        -0.37137E+08
 
   -0.36989E+08         0.15934E+07         0.00000E+00
    0.15934E+07        -0.59623E+08         0.00000E+00
    0.00000E+00         0.00000E+00        -0.37188E+08
 
   -0.30712E+08        -0.51640E+05         0.00000E+00
   -0.51640E+05        -0.60004E+08         0.00000E+00
    0.00000E+00         0.00000E+00        -0.35840E+08
 
   -0.31355E+08        -0.13157E+06         0.00000E+00
   -0.13157E+06        -0.60020E+08         0.00000E+00
    0.00000E+00         0.00000E+00        -0.35968E+08
 
   -0.31929E+08        -0.17910E+06         0.00000E+00
   -0.17910E+06        -0.60046E+08         0.00000E+00
    0.00000E+00         0.00000E+00        -0.36081E+08
 
   -0.32444E+08        -0.19338E+06         0.00000E+00
   -0.19338E+06        -0.60080E+08         0.00000E+00
    0.00000E+00         0.00000E+00        -0.36183E+08
 
   -0.32909E+08        -0.17404E+06         0.00000E+00
   -0.17404E+06        -0.60116E+08         0.00000E+00
    0.00000E+00         0.00000E+00        -0.36273E+08
 
   -0.33335E+08        -0.12104E+06         0.00000E+00
   -0.12104E+06        -0.60150E+08         0.00000E+00
    0.00000E+00         0.00000E+00        -0.36353E+08
 
   -0.33728E+08        -0.34660E+05         0.00000E+00
   -0.34660E+05        -0.60178E+08         0.00000E+00
    0.00000E+00         0.00000E+00        -0.36426E+08
 
   -0.34099E+08         0.84584E+05         0.00000E+00
    0.84584E+05        -0.60195E+08         0.00000E+00
    0.00000E+00         0.00000E+00        -0.36492E+08
 
   -0.34455E+08         0.23601E+06         0.00000E+00
    0.23601E+06        -0.60198E+08         0.00000E+00
    0.00000E+00         0.00000E+00        -0.36552E+08
 
   -0.34804E+08         0.41884E+06         0.00000E+00
    0.41884E+06        -0.60183E+08         0.00000E+00
    0.00000E+00         0.00000E+00        -0.36608E+08
 
   -0.35152E+08         0.63219E+06         0.00000E+00
    0.63219E+06        -0.60146E+08         0.00000E+00
    0.00000E+00         0.00000E+00        -0.36660E+08
 
   -0.35506E+08         0.87520E+06         0.00000E+00
    0.87520E+06        -0.60083E+08         0.00000E+00
    0.00000E+00         0.00000E+00        -0.36710E+08
 
   -0.35873E+08         0.11470E+07         0.00000E+00
    0.11470E+07        -0.59992E+08         0.00000E+00
    0.00000E+00         0.00000E+00        -0.36759E+08
 
   -0.36259E+08         0.14469E+07         0.00000E+00
    0.14469E+07        -0.59870E+08         0.00000E+00
    0.00000E+00         0.00000E+00        -0.36807E+08
 
   -0.36668E+08         0.17741E+07         0.00000E+00
    0.17741E+07        -0.59713E+08         0.00000E+00
    0.00000E+00         0.00000E+00        -0.36855E+08
 
   -0.30816E+08        -0.60539E+05         0.00000E+00
   -0.60539E+05        -0.60005E+08         0.00000E+00
    0.00000E+00         0.00000E+00        -0.35533E+08
 
   -0.31425E+08        -0.15484E+06         0.00000E+00
   -0.15484E+06        -0.60022E+08         0.00000E+00
    0.00000E+00         0.00000E+00        -0.35654E+08
 
   -0.31963E+08        -0.21208E+06         0.00000E+00
   -0.21208E+06        -0.60051E+08         0.00000E+00
    0.00000E+00         0.00000E+00        -0.35762E+08
 
   -0.32443E+08        -0.23147E+06         0.00000E+00
   -0.23147E+06        -0.60089E+08         0.00000E+00
    0.00000E+00         0.00000E+00        -0.35857E+08
 
   -0.32872E+08        -0.21268E+06         0.00000E+00
   -0.21268E+06        -0.60130E+08         0.00000E+00
    0.00000E+00         0.00000E+00        -0.35942E+08
 
   -0.33262E+08        -0.15584E+06         0.00000E+00
   -0.15584E+06        -0.60170E+08         0.00000E+00
    0.00000E+00         0.00000E+00        -0.36018E+08
 
   -0.33620E+08        -0.61359E+05         0.00000E+00
   -0.61359E+05        -0.60204E+08         0.00000E+00
    0.00000E+00         0.00000E+00        -0.36085E+08
 
   -0.33957E+08         0.70061E+05         0.00000E+00
    0.70061E+05        -0.60228E+08         0.00000E+00
    0.00000E+00         0.00000E+00        -0.36146E+08
 
   -0.34279E+08         0.23756E+06         0.00000E+00
    0.23756E+06        -0.60239E+08         0.00000E+00
    0.00000E+00         0.00000E+00        -0.36202E+08
 
   -0.34595E+08         0.44016E+06         0.00000E+00
    0.44016E+06        -0.60232E+08         0.00000E+00
    0.00000E+00         0.00000E+00        -0.36254E+08
 
   -0.34911E+08         0.67681E+06         0.00000E+00
    0.67681E+06        -0.60203E+08         0.00000E+00
    0.00000E+00         0.00000E+00        -0.36302E+08
 
   -0.35235E+08         0.94645E+06         0.00000E+00
    0.94645E+06        -0.60150E+08         0.00000E+00
    0.00000E+00         0.00000E+00        -0.36349E+08
 
   -0.35572E+08         0.12480E+07         0.00000E+00
    0.12480E+07        -0.60069E+08         0.00000E+00
    0.00000E+00         0.00000E+00        -0.36394E+08
 
   -0.35928E+08         0.15806E+07         0.00000E+00
    0.15806E+07        -0.59957E+08         0.00000E+00
    0.00000E+00         0.00000E+00        -0.36438E+08
 
   -0.36308E+08         0.19434E+07         0.00000E+00
    0.19434E+07        -0.59812E+08         0.00000E+00
    0.00000E+00         0.00000E+00        -0.36483E+08
 
   -0.30938E+08        -0.70345E+05         0.00000E+00
   -0.70345E+05        -0.60005E+08         0.00000E+00
    0.00000E+00         0.00000E+00        -0.35196E+08
 
   -0.31507E+08        -0.18057E+06         0.00000E+00
   -0.18057E+06        -0.60024E+08         0.00000E+00
    0.00000E+00         0.00000E+00        -0.35311E+08
 
   -0.32006E+08        -0.24880E+06         0.00000E+00
   -0.24880E+06        -0.60057E+08         0.00000E+00
    0.00000E+00         0.00000E+00        -0.35412E+08
 
   -0.32445E+08        -0.27430E+06         0.00000E+00
   -0.27430E+06        -0.60099E+08         0.00000E+00
    0.00000E+00         0.00000E+00        -0.35501E+08
 
   -0.32834E+08        -0.25692E+06         0.00000E+00
   -0.25692E+06        -0.60145E+08         0.00000E+00
    0.00000E+00         0.00000E+00        -0.35579E+08
 
   -0.33183E+08        -0.19692E+06         0.00000E+00
   -0.19692E+06        -0.60191E+08         0.00000E+00
    0.00000E+00         0.00000E+00        -0.35649E+08
 
   -0.33503E+08        -0.94970E+05         0.00000E+00
   -0.94970E+05        -0.60232E+08         0.00000E+00
    0.00000E+00         0.00000E+00        -0.35711E+08
 
   -0.33800E+08         0.48044E+05         0.00000E+00
    0.48044E+05        -0.60264E+08         0.00000E+00
    0.00000E+00         0.00000E+00        -0.35767E+08
 
   -0.34085E+08         0.23104E+06         0.00000E+00
    0.23104E+06        -0.60282E+08         0.00000E+00
    0.00000E+00         0.00000E+00        -0.35817E+08
 
   -0.34364E+08         0.45283E+06         0.00000E+00
    0.45283E+06        -0.60284E+08         0.00000E+00
    0.00000E+00         0.00000E+00        -0.35864E+08
 
   -0.34645E+08         0.71216E+06         0.00000E+00
    0.71216E+06        -0.60264E+08         0.00000E+00
    0.00000E+00         0.00000E+00        -0.35909E+08
 
   -0.34935E+08         0.10078E+07         0.00000E+00
    0.10078E+07        -0.60221E+08         0.00000E+00
    0.00000E+00         0.00000E+00        -0.35951E+08
 
   -0.35239E+08         0.13384E+07         0.00000E+00
    0.13384E+07        -0.60151E+08         0.00000E+00
    0.00000E+00         0.00000E+00        -0.35992E+08
 
   -0.35563E+08         0.17029E+07         0.00000E+00
    0.17029E+07        -0.60051E+08         0.00000E+00
    0.00000E+00         0.00000E+00        -0.36033E+08
 
   -0.35913E+08         0.21002E+07         0.00000E+00
    0.21002E+07        -0.59917E+08         0.00000E+00
    0.00000E+00         0.00000E+00        -0.36074E+08
 
   -0.31078E+08        -0.81126E+05         0.00000E+00
   -0.81126E+05        -0.60005E+08         0.00000E+00
    0.00000E+00         0.00000E+00        -0.34833E+08
 
   -0.31604E+08        -0.20893E+06         0.00000E+00
   -0.20893E+06        -0.60026E+08         0.00000E+00
    0.00000E+00         0.00000E+00        -0.34939E+08
 
   -0.32058E+08        -0.28946E+06         0.00000E+00
   -0.28946E+06        -0.60062E+08         0.00000E+00
    0.00000E+00         0.00000E+00        -0.35032E+08
 
   -0.32451E+08        -0.32214E+06         0.00000E+00
   -0.32214E+06        -0.60109E+08         0.00000E+00
    0.00000E+00         0.00000E+00        -0.35114E+08
 
   -0.32795E+08        -0.30700E+06         0.00000E+00
   -0.30700E+06        -0.60161E+08         0.00000E+00
    0.00000E+00         0.00000E+00        -0.35185E+08
 
   -0.33100E+08        -0.24459E+06         0.00000E+00
   -0.24459E+06        -0.60213E+08         0.00000E+00
    0.00000E+00         0.00000E+00        -0.35248E+08
 
   -0.33376E+08        -0.13582E+06         0.00000E+00
   -0.13582E+06        -0.60261E+08         0.00000E+00
    0.00000E+00         0.00000E+00        -0.35304E+08
 
   -0.33631E+08         0.18161E+05         0.00000E+00
    0.18161E+05        -0.60300E+08         0.00000E+00
    0.00000E+00         0.00000E+00        -0.35354E+08
 
   -0.33874E+08         0.21602E+06         0.00000E+00
    0.21602E+06        -0.60327E+08         0.00000E+00
    0.00000E+00         0.00000E+00        -0.35399E+08
 
   -0.34113E+08         0.45633E+06         0.00000E+00
    0.45633E+06        -0.60338E+08         0.00000E+00
    0.00000E+00         0.00000E+00        -0.35441E+08
 
   -0.34356E+08         0.73762E+06         0.00000E+00
    0.73762E+06        -0.60328E+08         0.00000E+00
    0.00000E+00         0.00000E+00        -0.35480E+08
 
   -0.34608E+08         0.10584E+07         0.00000E+00
    0.10584E+07        -0.60296E+08         0.00000E+00
    0.00000E+00         0.00000E+00        -0.35518E+08
 
   -0.34877E+08         0.14173E+07         0.00000E+00
    0.14173E+07        -0.60237E+08         0.00000E+00
    0.00000E+00         0.00000E+00        -0.35554E+08
 
   -0.35166E+08         0.18128E+07         0.00000E+00
    0.18128E+07        -0.60149E+08         0.00000E+00
    0.00000E+00         0.00000E+00        -0.35591E+08
 
   -0.35482E+08         0.22435E+07         0.00000E+00
    0.22435E+07        -0.60029E+08         0.00000E+00
    0.00000E+00         0.00000E+00        -0.35628E+08
 
   -0.31240E+08        -0.92934E+05         0.00000E+00
   -0.92934E+05        -0.60006E+08         0.00000E+00
    0.00000E+00         0.00000E+00        -0.34444E+08
 
   -0.31716E+08        -0.24004E+06         0.00000E+00
   -0.24004E+06        -0.60028E+08         0.00000E+00
    0.00000E+00         0.00000E+00        -0.34541E+08
 
   -0.32120E+08        -0.33421E+06         0.00000E+00
   -0.33421E+06        -0.60068E+08         0.00000E+00
    0.00000E+00         0.00000E+00        -0.34625E+08
 
   -0.32463E+08        -0.37511E+06         0.00000E+00
   -0.37511E+06        -0.60120E+08         0.00000E+00
    0.00000E+00         0.00000E+00        -0.34698E+08
 
   -0.32757E+08        -0.36307E+06         0.00000E+00
   -0.36307E+06        -0.60177E+08         0.00000E+00
    0.00000E+00         0.00000E+00        -0.34761E+08
 
   -0.33012E+08        -0.29898E+06         0.00000E+00
   -0.29898E+06        -0.60236E+08         0.00000E+00
    0.00000E+00         0.00000E+00        -0.34817E+08
 
   -0.33240E+08        -0.18406E+06         0.00000E+00
   -0.18406E+06        -0.60291E+08         0.00000E+00
    0.00000E+00         0.00000E+00        -0.34865E+08
 
   -0.33449E+08        -0.19791E+05         0.00000E+00
   -0.19791E+05        -0.60338E+08         0.00000E+00
    0.00000E+00         0.00000E+00        -0.34909E+08
 
   -0.33647E+08         0.19221E+06         0.00000E+00
    0.19221E+06        -0.60373E+08         0.00000E+00
    0.00000E+00         0.00000E+00        -0.34948E+08
 
   -0.33843E+08         0.45028E+06         0.00000E+00
    0.45028E+06        -0.60393E+08         0.00000E+00
    0.00000E+00         0.00000E+00        -0.34984E+08
 
   -0.34043E+08         0.75271E+06         0.00000E+00
    0.75271E+06        -0.60393E+08         0.00000E+00
    0.00000E+00         0.00000E+00        -0.35018E+08
 
   -0.34255E+08         0.10978E+07         0.00000E+00
    0.10978E+07        -0.60372E+08         0.00000E+00
    0.00000E+00         0.00000E+00        -0.35050E+08
 
   -0.34485E+08         0.14839E+07         0.00000E+00
    0.14839E+07        -0.60325E+08         0.00000E+00
    0.00000E+00         0.00000E+00        -0.35082E+08
 
   -0.34737E+08         0.19094E+07         0.00000E+00
    0.19094E+07        -0.60250E+08         0.00000E+00
    0.00000E+00         0.00000E+00        -0.35115E+08
 
   -0.35017E+08         0.23726E+07         0.00000E+00
    0.23726E+07        -0.60144E+08         0.00000E+00
    0.00000E+00         0.00000E+00        -0.35148E+08
 
   -0.31426E+08        -0.10580E+06         0.00000E+00
   -0.10580E+06        -0.60006E+08         0.00000E+00
    0.00000E+00         0.00000E+00        -0.34030E+08
 
   -0.31846E+08        -0.27394E+06         0.00000E+00
   -0.27394E+06        -0.60031E+08         0.00000E+00
    0.00000E+00         0.00000E+00        -0.34117E+08
 
   -0.32193E+08        -0.38307E+06         0.00000E+00
   -0.38307E+06        -0.60074E+08         0.00000E+00
    0.00000E+00         0.00000E+00        -0.34191E+08
 
   -0.32480E+08        -0.43319E+06         0.00000E+00
   -0.43319E+06        -0.60130E+08         0.00000E+00
    0.00000E+00         0.00000E+00        -0.34255E+08
 
   -0.32719E+08        -0.42507E+06         0.00000E+00
   -0.42507E+06        -0.60193E+08         0.00000E+00
    0.00000E+00         0.00000E+00        -0.34309E+08
 
   -0.32921E+08        -0.36000E+06         0.00000E+00
   -0.36000E+06        -0.60258E+08         0.00000E+00
    0.00000E+00         0.00000E+00        -0.34356E+08
 
   -0.33096E+08        -0.23962E+06         0.00000E+00
   -0.23962E+06        -0.60319E+08         0.00000E+00
    0.00000E+00         0.00000E+00        -0.34397E+08
 
   -0.33254E+08        -0.65794E+05         0.00000E+00
   -0.65794E+05        -0.60374E+08         0.00000E+00
    0.00000E+00         0.00000E+00        -0.34433E+08
 
   -0.33404E+08         0.15955E+06         0.00000E+00
    0.15955E+06        -0.60418E+08         0.00000E+00
    0.00000E+00         0.00000E+00        -0.34466E+08
 
   -0.33553E+08         0.43448E+06         0.00000E+00
    0.43448E+06        -0.60447E+08         0.00000E+00
    0.00000E+00         0.00000E+00        -0.34495E+08
 
   -0.33708E+08         0.75708E+06         0.00000E+00
    0.75708E+06        -0.60458E+08         0.00000E+00
    0.00000E+00         0.00000E+00        -0.34523E+08
 
   -0.33877E+08         0.11255E+07         0.00000E+00
    0.11255E+07        -0.60447E+08         0.00000E+00
    0.00000E+00         0.00000E+00        -0.34550E+08
 
   -0.34065E+08         0.15378E+07         0.00000E+00
    0.15378E+07        -0.60413E+08         0.00000E+00
    0.00000E+00         0.00000E+00        -0.34577E+08
 
   -0.34278E+08         0.19921E+07         0.00000E+00
    0.19921E+07        -0.60352E+08         0.00000E+00
    0.00000E+00         0.00000E+00        -0.34605E+08
 
   -0.34520E+08         0.24865E+07         0.00000E+00
    0.24865E+07        -0.60261E+08         0.00000E+00
    0.00000E+00         0.00000E+00        -0.34634E+08
 
   -0.31636E+08        -0.11973E+06         0.00000E+00
   -0.11973E+06        -0.60007E+08         0.00000E+00
    0.00000E+00         0.00000E+00        -0.33595E+08
 
   -0.31994E+08        -0.31061E+06         0.00000E+00
   -0.31061E+06        -0.60033E+08         0.00000E+00
    0.00000E+00         0.00000E+00        -0.33670E+08
 
   -0.32279E+08        -0.43593E+06         0.00000E+00
   -0.43593E+06        -0.60080E+08         0.00000E+00
    0.00000E+00         0.00000E+00        -0.33733E+08
 
   -0.32505E+08        -0.49620E+06         0.00000E+00
   -0.49620E+06        -0.60140E+08         0.00000E+00
    0.00000E+00         0.00000E+00        -0.33786E+08
 
   -0.32683E+08        -0.49271E+06         0.00000E+00
   -0.49271E+06        -0.60208E+08         0.00000E+00
    0.00000E+00         0.00000E+00        -0.33831E+08
 
   -0.32827E+08        -0.42731E+06         0.00000E+00
   -0.42731E+06        -0.60278E+08         0.00000E+00
    0.00000E+00         0.00000E+00        -0.33869E+08
 
   -0.32945E+08        -0.30217E+06         0.00000E+00
   -0.30217E+06        -0.60347E+08         0.00000E+00
    0.00000E+00         0.00000E+00        -0.33901E+08
 
   -0.33049E+08        -0.11956E+06         0.00000E+00
   -0.11956E+06        -0.60408E+08         0.00000E+00
    0.00000E+00         0.00000E+00        -0.33929E+08
 
   -0.33146E+08         0.11821E+06         0.00000E+00
    0.11821E+06        -0.60460E+08         0.00000E+00
    0.00000E+00         0.00000E+00        -0.33954E+08
 
   -0.33245E+08         0.40895E+06         0.00000E+00
    0.40895E+06        -0.60498E+08         0.00000E+00
    0.00000E+00         0.00000E+00        -0.33976E+08
 
   -0.33352E+08         0.75055E+06         0.00000E+00
    0.75055E+06        -0.60519E+08         0.00000E+00
    0.00000E+00         0.00000E+00        -0.33998E+08
 
   -0.33475E+08         0.11410E+07         0.00000E+00
    0.11410E+07        -0.60521E+08         0.00000E+00
    0.00000E+00         0.00000E+00        -0.34019E+08
 
   -0.33618E+08         0.15782E+07         0.00000E+00
    0.15782E+07        -0.60499E+08         0.00000E+00
    0.00000E+00         0.00000E+00        -0.34040E+08
 
   -0.33789E+08         0.20601E+07         0.00000E+00
    0.20601E+07        -0.60452E+08         0.00000E+00
    0.00000E+00         0.00000E+00        -0.34063E+08
 
   -0.33990E+08         0.25845E+07         0.00000E+00
    0.25845E+07        -0.60377E+08         0.00000E+00
    0.00000E+00         0.00000E+00        -0.34087E+08
 
   -0.31874E+08        -0.13471E+06         0.00000E+00
   -0.13471E+06        -0.60007E+08         0.00000E+00
    0.00000E+00         0.00000E+00        -0.33140E+08
 
   -0.32163E+08        -0.34992E+06         0.00000E+00
   -0.34992E+06        -0.60035E+08         0.00000E+00
    0.00000E+00         0.00000E+00        -0.33202E+08
 
   -0.32379E+08        -0.49252E+06         0.00000E+00
   -0.49252E+06        -0.60085E+08         0.00000E+00
    0.00000E+00         0.00000E+00        -0.33253E+08
 
   -0.32537E+08        -0.56368E+06         0.00000E+00
   -0.56368E+06        -0.60149E+08         0.00000E+00
    0.00000E+00         0.00000E+00        -0.33294E+08
 
   -0.32650E+08        -0.56541E+06         0.00000E+00
   -0.56541E+06        -0.60221E+08         0.00000E+00
    0.00000E+00         0.00000E+00        -0.33328E+08
 
   -0.32730E+08        -0.50025E+06         0.00000E+00
   -0.50025E+06        -0.60297E+08         0.00000E+00
    0.00000E+00         0.00000E+00        -0.33355E+08
 
   -0.32788E+08        -0.37101E+06         0.00000E+00
   -0.37101E+06        -0.60370E+08         0.00000E+00
    0.00000E+00         0.00000E+00        -0.33378E+08
 
   -0.32834E+08        -0.18048E+06         0.00000E+00
   -0.18048E+06        -0.60438E+08         0.00000E+00
    0.00000E+00         0.00000E+00        -0.33397E+08
 
   -0.32875E+08         0.68662E+05         0.00000E+00
    0.68662E+05        -0.60497E+08         0.00000E+00
    0.00000E+00         0.00000E+00        -0.33413E+08
 
   -0.32921E+08         0.37395E+06         0.00000E+00
    0.37395E+06        -0.60544E+08         0.00000E+00
    0.00000E+00         0.00000E+00        -0.33428E+08
 
   -0.32977E+08         0.73313E+06         0.00000E+00
    0.73313E+06        -0.60575E+08         0.00000E+00
    0.00000E+00         0.00000E+00        -0.33443E+08
 
   -0.33050E+08         0.11441E+07         0.00000E+00
    0.11441E+07        -0.60588E+08         0.00000E+00
    0.00000E+00         0.00000E+00        -0.33457E+08
 
   -0.33146E+08         0.16047E+07         0.00000E+00
    0.16047E+07        -0.60580E+08         0.00000E+00
    0.00000E+00         0.00000E+00        -0.33473E+08
 
   -0.33271E+08         0.21128E+07         0.00000E+00
    0.21128E+07        -0.60548E+08         0.00000E+00
    0.00000E+00         0.00000E+00        -0.33490E+08
 
   -0.33431E+08         0.26659E+07         0.00000E+00
    0.26659E+07        -0.60489E+08         0.00000E+00
    0.00000E+00         0.00000E+00        -0.33509E+08
 
   -0.32140E+08        -0.15065E+06         0.00000E+00
   -0.15065E+06        -0.60008E+08         0.00000E+00
    0.00000E+00         0.00000E+00        -0.32667E+08
 
   -0.32353E+08        -0.39161E+06         0.00000E+00
   -0.39161E+06        -0.60037E+08         0.00000E+00
    0.00000E+00         0.00000E+00        -0.32715E+08
 
   -0.32493E+08        -0.55234E+06         0.00000E+00
   -0.55234E+06        -0.60090E+08         0.00000E+00
    0.00000E+00         0.00000E+00        -0.32752E+08
 
   -0.32577E+08        -0.63490E+06         0.00000E+00
   -0.63490E+06        -0.60157E+08         0.00000E+00
    0.00000E+00         0.00000E+00        -0.32780E+08
 
   -0.32619E+08        -0.64222E+06         0.00000E+00
   -0.64222E+06        -0.60232E+08         0.00000E+00
    0.00000E+00         0.00000E+00        -0.32801E+08
 
   -0.32632E+08        -0.57774E+06         0.00000E+00
   -0.57774E+06        -0.60311E+08         0.00000E+00
    0.00000E+00         0.00000E+00        -0.32817E+08
 
   -0.32625E+08        -0.44503E+06         0.00000E+00
   -0.44503E+06        -0.60389E+08         0.00000E+00
    0.00000E+00         0.00000E+00        -0.32829E+08
 
   -0.32609E+08        -0.24750E+06         0.00000E+00
   -0.24750E+06        -0.60462E+08         0.00000E+00
    0.00000E+00         0.00000E+00        -0.32839E+08
 
   -0.32592E+08         0.11744E+05         0.00000E+00
    0.11744E+05        -0.60527E+08         0.00000E+00
    0.00000E+00         0.00000E+00        -0.32846E+08
 
   -0.32581E+08         0.33003E+06         0.00000E+00
    0.33003E+06        -0.60581E+08         0.00000E+00
    0.00000E+00         0.00000E+00        -0.32853E+08
 
   -0.32583E+08         0.70504E+06         0.00000E+00
    0.70504E+06        -0.60622E+08         0.00000E+00
    0.00000E+00         0.00000E+00        -0.32859E+08
 
   -0.32603E+08         0.11347E+07         0.00000E+00
    0.11347E+07        -0.60646E+08         0.00000E+00
    0.00000E+00         0.00000E+00        -0.32867E+08
 
   -0.32650E+08         0.16169E+07         0.00000E+00
    0.16169E+07        -0.60652E+08         0.00000E+00
    0.00000E+00         0.00000E+00        -0.32876E+08
 
   -0.32728E+08         0.21495E+07         0.00000E+00
    0.21495E+07        -0.60635E+08         0.00000E+00
    0.00000E+00         0.00000E+00        -0.32887E+08
 
   -0.32842E+08         0.27297E+07         0.00000E+00
    0.27297E+07        -0.60594E+08         0.00000E+00
    0.00000E+00         0.00000E+00        -0.32901E+08
 
   -0.32437E+08        -0.16746E+06         0.00000E+00
   -0.16746E+06        -0.60008E+08         0.00000E+00
    0.00000E+00         0.00000E+00        -0.32179E+08
 
   -0.32564E+08        -0.43527E+06         0.00000E+00
   -0.43527E+06        -0.60039E+08         0.00000E+00
    0.00000E+00         0.00000E+00        -0.32210E+08
 
   -0.32622E+08        -0.61464E+06         0.00000E+00
   -0.61464E+06        -0.60093E+08         0.00000E+00
    0.00000E+00         0.00000E+00        -0.32232E+08
 
   -0.32626E+08        -0.70875E+06         0.00000E+00
   -0.70875E+06        -0.60162E+08         0.00000E+00
    0.00000E+00         0.00000E+00        -0.32246E+08
 
   -0.32592E+08        -0.72174E+06         0.00000E+00
   -0.72174E+06        -0.60240E+08         0.00000E+00
    0.00000E+00         0.00000E+00        -0.32254E+08
 
   -0.32532E+08        -0.65818E+06         0.00000E+00
   -0.65818E+06        -0.60320E+08         0.00000E+00
    0.00000E+00         0.00000E+00        -0.32257E+08
 
   -0.32458E+08        -0.52259E+06         0.00000E+00
   -0.52259E+06        -0.60400E+08         0.00000E+00
    0.00000E+00         0.00000E+00        -0.32257E+08
 
   -0.32377E+08        -0.31911E+06         0.00000E+00
   -0.31911E+06        -0.60476E+08         0.00000E+00
    0.00000E+00         0.00000E+00        -0.32256E+08
 
   -0.32298E+08        -0.51260E+05         0.00000E+00
   -0.51260E+05        -0.60546E+08         0.00000E+00
    0.00000E+00         0.00000E+00        -0.32253E+08
 
   -0.32228E+08         0.27810E+06         0.00000E+00
    0.27810E+06        -0.60606E+08         0.00000E+00
    0.00000E+00         0.00000E+00        -0.32251E+08
 
   -0.32172E+08         0.66673E+06         0.00000E+00
    0.66673E+06        -0.60656E+08         0.00000E+00
    0.00000E+00         0.00000E+00        -0.32249E+08
 
   -0.32138E+08         0.11127E+07         0.00000E+00
    0.11127E+07        -0.60691E+08         0.00000E+00
    0.00000E+00         0.00000E+00        -0.32249E+08
 
   -0.32132E+08         0.16143E+07         0.00000E+00
    0.16143E+07        -0.60711E+08         0.00000E+00
    0.00000E+00         0.00000E+00        -0.32251E+08
 
   -0.32159E+08         0.21694E+07         0.00000E+00
    0.21694E+07        -0.60710E+08         0.00000E+00
    0.00000E+00         0.00000E+00        -0.32256E+08
 
   -0.32226E+08         0.27752E+07         0.00000E+00
    0.27752E+07        -0.60687E+08         0.00000E+00
    0.00000E+00         0.00000E+00        -0.32265E+08
 
   -0.32766E+08        -0.18497E+06         0.00000E+00
   -0.18497E+06        -0.60008E+08         0.00000E+00
    0.00000E+00         0.00000E+00        -0.31678E+08
 
   -0.32799E+08        -0.48034E+06         0.00000E+00
   -0.48034E+06        -0.60040E+08         0.00000E+00
    0.00000E+00         0.00000E+00        -0.31691E+08
 
   -0.32765E+08        -0.67835E+06         0.00000E+00
   -0.67835E+06        -0.60095E+08         0.00000E+00
    0.00000E+00         0.00000E+00        -0.31695E+08
 
   -0.32683E+08        -0.78368E+06         0.00000E+00
   -0.78368E+06        -0.60165E+08         0.00000E+00
    0.00000E+00         0.00000E+00        -0.31693E+08
 
   -0.32568E+08        -0.80201E+06         0.00000E+00
   -0.80201E+06        -0.60242E+08         0.00000E+00
    0.00000E+00         0.00000E+00        -0.31686E+08
 
   -0.32432E+08        -0.73935E+06         0.00000E+00
   -0.73935E+06        -0.60322E+08         0.00000E+00
    0.00000E+00         0.00000E+00        -0.31676E+08
 
   -0.32286E+08        -0.60140E+06         0.00000E+00
   -0.60140E+06        -0.60402E+08         0.00000E+00
    0.00000E+00         0.00000E+00        -0.31663E+08
 
   -0.32138E+08        -0.39314E+06         0.00000E+00
   -0.39314E+06        -0.60478E+08         0.00000E+00
    0.00000E+00         0.00000E+00        -0.31650E+08
 
   -0.31995E+08        -0.11854E+06         0.00000E+00
   -0.11854E+06        -0.60549E+08         0.00000E+00
    0.00000E+00         0.00000E+00        -0.31637E+08
 
   -0.31864E+08         0.21948E+06         0.00000E+00
    0.21948E+06        -0.60614E+08         0.00000E+00
    0.00000E+00         0.00000E+00        -0.31624E+08
 
   -0.31749E+08         0.61892E+06         0.00000E+00
    0.61892E+06        -0.60671E+08         0.00000E+00
    0.00000E+00         0.00000E+00        -0.31613E+08
 
   -0.31657E+08         0.10784E+07         0.00000E+00
    0.10784E+07        -0.60718E+08         0.00000E+00
    0.00000E+00         0.00000E+00        -0.31605E+08
 
   -0.31594E+08         0.15965E+07         0.00000E+00
    0.15965E+07        -0.60751E+08         0.00000E+00
    0.00000E+00         0.00000E+00        -0.31599E+08
 
   -0.31567E+08         0.21717E+07         0.00000E+00
    0.21717E+07        -0.60767E+08         0.00000E+00
    0.00000E+00         0.00000E+00        -0.31598E+08
 
   -0.31583E+08         0.28013E+07         0.00000E+00
    0.28013E+07        -0.60763E+08         0.00000E+00
    0.00000E+00         0.00000E+00        -0.31600E+08
 
   -0.33128E+08        -0.20294E+06         0.00000E+00
   -0.20294E+06        -0.60008E+08         0.00000E+00
    0.00000E+00         0.00000E+00        -0.31166E+08
 
   -0.33057E+08        -0.52601E+06         0.00000E+00
   -0.52601E+06        -0.60040E+08         0.00000E+00
    0.00000E+00         0.00000E+00        -0.31159E+08
 
   -0.32923E+08        -0.74201E+06         0.00000E+00
   -0.74201E+06        -0.60095E+08         0.00000E+00
    0.00000E+00         0.00000E+00        -0.31144E+08
 
   -0.32748E+08        -0.85758E+06         0.00000E+00
   -0.85758E+06        -0.60163E+08         0.00000E+00
    0.00000E+00         0.00000E+00        -0.31124E+08
 
   -0.32546E+08        -0.88038E+06         0.00000E+00
   -0.88038E+06        -0.60237E+08         0.00000E+00
    0.00000E+00         0.00000E+00        -0.31101E+08
 
   -0.32330E+08        -0.81826E+06         0.00000E+00
   -0.81826E+06        -0.60314E+08         0.00000E+00
    0.00000E+00         0.00000E+00        -0.31075E+08
 
   -0.32111E+08        -0.67840E+06         0.00000E+00
   -0.67840E+06        -0.60389E+08         0.00000E+00
    0.00000E+00         0.00000E+00        -0.31049E+08
 
   -0.31894E+08        -0.46673E+06         0.00000E+00
   -0.46673E+06        -0.60463E+08         0.00000E+00
    0.00000E+00         0.00000E+00        -0.31023E+08
 
   -0.31686E+08        -0.18767E+06         0.00000E+00
   -0.18767E+06        -0.60533E+08         0.00000E+00
    0.00000E+00         0.00000E+00        -0.30997E+08
 
   -0.31491E+08         0.15595E+06         0.00000E+00
    0.15595E+06        -0.60600E+08         0.00000E+00
    0.00000E+00         0.00000E+00        -0.30974E+08
 
   -0.31315E+08         0.56261E+06         0.00000E+00
    0.56261E+06        -0.60663E+08         0.00000E+00
    0.00000E+00         0.00000E+00        -0.30954E+08
 
   -0.31162E+08         0.10317E+07         0.00000E+00
    0.10317E+07        -0.60719E+08         0.00000E+00
    0.00000E+00         0.00000E+00        -0.30936E+08
 
   -0.31039E+08         0.15628E+07         0.00000E+00
    0.15628E+07        -0.60767E+08         0.00000E+00
    0.00000E+00         0.00000E+00        -0.30922E+08
 
   -0.30954E+08         0.21551E+07         0.00000E+00
    0.21551E+07        -0.60801E+08         0.00000E+00
    0.00000E+00         0.00000E+00        -0.30913E+08
 
   -0.30915E+08         0.28065E+07         0.00000E+00
    0.28065E+07        -0.60818E+08         0.00000E+00
    0.00000E+00         0.00000E+00        -0.30909E+08
 
   -0.33523E+08        -0.22110E+06         0.00000E+00
   -0.22110E+06        -0.60008E+08         0.00000E+00
    0.00000E+00         0.00000E+00        -0.30646E+08
 
   -0.33336E+08        -0.57124E+06         0.00000E+00
   -0.57124E+06        -0.60040E+08         0.00000E+00
    0.00000E+00         0.00000E+00        -0.30616E+08
 
   -0.33094E+08        -0.80369E+06         0.00000E+00
   -0.80369E+06        -0.60092E+08         0.00000E+00
    0.00000E+00         0.00000E+00        -0.30580E+08
 
   -0.32819E+08        -0.92762E+06         0.00000E+00
   -0.92762E+06        -0.60156E+08         0.00000E+00
    0.00000E+00         0.00000E+00        -0.30540E+08
 
   -0.32526E+08        -0.95333E+06         0.00000E+00
   -0.95333E+06        -0.60224E+08         0.00000E+00
    0.00000E+00         0.00000E+00        -0.30499E+08
 
   -0.32228E+08        -0.89100E+06         0.00000E+00
   -0.89100E+06        -0.60292E+08         0.00000E+00
    0.00000E+00         0.00000E+00        -0.30456E+08
 
   -0.31933E+08        -0.74959E+06         0.00000E+00
   -0.74959E+06        -0.60359E+08         0.00000E+00
    0.00000E+00         0.00000E+00        -0.30415E+08
 
   -0.31647E+08        -0.53616E+06         0.00000E+00
   -0.53616E+06        -0.60425E+08         0.00000E+00
    0.00000E+00         0.00000E+00        -0.30375E+08
 
   -0.31373E+08        -0.25550E+06         0.00000E+00
   -0.25550E+06        -0.60491E+08         0.00000E+00
    0.00000E+00         0.00000E+00        -0.30337E+08
 
   -0.31115E+08         0.89811E+05         0.00000E+00
    0.89811E+05        -0.60557E+08         0.00000E+00
    0.00000E+00         0.00000E+00        -0.30302E+08
 
   -0.30875E+08         0.49909E+06         0.00000E+00
    0.49909E+06        -0.60624E+08         0.00000E+00
    0.00000E+00         0.00000E+00        -0.30271E+08
 
   -0.30658E+08         0.97296E+06         0.00000E+00
    0.97296E+06        -0.60689E+08         0.00000E+00
    0.00000E+00         0.00000E+00        -0.30244E+08
 
   -0.30472E+08         0.15125E+07         0.00000E+00
    0.15125E+07        -0.60751E+08         0.00000E+00
    0.00000E+00         0.00000E+00        -0.30221E+08
 
   -0.30324E+08         0.21182E+07         0.00000E+00
    0.21182E+07        -0.60805E+08         0.00000E+00
    0.00000E+00         0.00000E+00        -0.30204E+08
 
   -0.30225E+08         0.27888E+07         0.00000E+00
    0.27888E+07        -0.60844E+08         0.00000E+00
    0.00000E+00         0.00000E+00        -0.30192E+08
 
   -0.33951E+08        -0.23909E+06         0.00000E+00
   -0.23909E+06        -0.60008E+08         0.00000E+00
    0.00000E+00         0.00000E+00        -0.30119E+08
 
   -0.33636E+08        -0.61469E+06         0.00000E+00
   -0.61469E+06        -0.60038E+08         0.00000E+00
    0.00000E+00         0.00000E+00        -0.30064E+08
 
   -0.33276E+08        -0.86085E+06         0.00000E+00
   -0.86085E+06        -0.60086E+08         0.00000E+00
    0.00000E+00         0.00000E+00        -0.30004E+08
 
   -0.32893E+08        -0.99011E+06         0.00000E+00
   -0.99011E+06        -0.60142E+08         0.00000E+00
    0.00000E+00         0.00000E+00        -0.29943E+08
 
   -0.32506E+08        -0.10163E+07         0.00000E+00
   -0.10163E+07        -0.60198E+08         0.00000E+00
    0.00000E+00         0.00000E+00        -0.29881E+08
 
   -0.32124E+08        -0.95250E+06         0.00000E+00
   -0.95250E+06        -0.60253E+08         0.00000E+00
    0.00000E+00         0.00000E+00        -0.29821E+08
 
   -0.31755E+08        -0.80992E+06         0.00000E+00
   -0.80992E+06        -0.60306E+08         0.00000E+00
    0.00000E+00         0.00000E+00        -0.29764E+08
 
   -0.31400E+08        -0.59676E+06         0.00000E+00
   -0.59676E+06        -0.60360E+08         0.00000E+00
    0.00000E+00         0.00000E+00        -0.29709E+08
 
   -0.31061E+08        -0.31812E+06         0.00000E+00
   -0.31812E+06        -0.60416E+08         0.00000E+00
    0.00000E+00         0.00000E+00        -0.29658E+08
 
   -0.30739E+08         0.23941E+05         0.00000E+00
    0.23941E+05        -0.60477E+08         0.00000E+00
    0.00000E+00         0.00000E+00        -0.29610E+08
 
   -0.30435E+08         0.42998E+06         0.00000E+00
    0.42998E+06        -0.60545E+08         0.00000E+00
    0.00000E+00         0.00000E+00        -0.29567E+08
 
   -0.30152E+08         0.90240E+06         0.00000E+00
    0.90240E+06        -0.60619E+08         0.00000E+00
    0.00000E+00         0.00000E+00        -0.29529E+08
 
   -0.29896E+08         0.14444E+07         0.00000E+00
    0.14444E+07        -0.60696E+08         0.00000E+00
    0.00000E+00         0.00000E+00        -0.29497E+08
 
   -0.29679E+08         0.20587E+07         0.00000E+00
    0.20587E+07        -0.60771E+08         0.00000E+00
    0.00000E+00         0.00000E+00        -0.29470E+08
 
   -0.29512E+08         0.27457E+07         0.00000E+00
    0.27457E+07        -0.60836E+08         0.00000E+00
    0.00000E+00         0.00000E+00        -0.29451E+08
 
   -0.34410E+08        -0.25647E+06         0.00000E+00
   -0.25647E+06        -0.60008E+08         0.00000E+00
    0.00000E+00         0.00000E+00        -0.29589E+08
 
   -0.33954E+08        -0.65460E+06         0.00000E+00
   -0.65460E+06        -0.60035E+08         0.00000E+00
    0.00000E+00         0.00000E+00        -0.29505E+08
 
   -0.33464E+08        -0.91009E+06         0.00000E+00
   -0.91009E+06        -0.60076E+08         0.00000E+00
    0.00000E+00         0.00000E+00        -0.29419E+08
 
   -0.32969E+08        -0.10402E+07         0.00000E+00
   -0.10402E+07        -0.60119E+08         0.00000E+00
    0.00000E+00         0.00000E+00        -0.29334E+08
 
   -0.32484E+08        -0.10633E+07         0.00000E+00
   -0.10633E+07        -0.60158E+08         0.00000E+00
    0.00000E+00         0.00000E+00        -0.29250E+08
 
   -0.32019E+08        -0.99642E+06         0.00000E+00
   -0.99642E+06        -0.60192E+08         0.00000E+00
    0.00000E+00         0.00000E+00        -0.29171E+08
 
   -0.31576E+08        -0.85314E+06         0.00000E+00
   -0.85314E+06        -0.60224E+08         0.00000E+00
    0.00000E+00         0.00000E+00        -0.29096E+08
 
   -0.31156E+08        -0.64288E+06         0.00000E+00
   -0.64288E+06        -0.60258E+08         0.00000E+00
    0.00000E+00         0.00000E+00        -0.29025E+08
 
   -0.30755E+08        -0.37082E+06         0.00000E+00
   -0.37082E+06        -0.60299E+08         0.00000E+00
    0.00000E+00         0.00000E+00        -0.28960E+08
 
   -0.30370E+08        -0.38189E+05         0.00000E+00
   -0.38189E+05        -0.60352E+08         0.00000E+00
    0.00000E+00         0.00000E+00        -0.28899E+08
 
   -0.30001E+08         0.35721E+06         0.00000E+00
    0.35721E+06        -0.60418E+08         0.00000E+00
    0.00000E+00         0.00000E+00        -0.28844E+08
 
   -0.29648E+08         0.82023E+06         0.00000E+00
    0.82023E+06        -0.60499E+08         0.00000E+00
    0.00000E+00         0.00000E+00        -0.28794E+08
 
   -0.29319E+08         0.13571E+07         0.00000E+00
    0.13571E+07        -0.60592E+08         0.00000E+00
    0.00000E+00         0.00000E+00        -0.28751E+08
 
   -0.29024E+08         0.19738E+07         0.00000E+00
    0.19738E+07        -0.60690E+08         0.00000E+00
    0.00000E+00         0.00000E+00        -0.28714E+08
 
   -0.28781E+08         0.26734E+07         0.00000E+00
    0.26734E+07        -0.60785E+08         0.00000E+00
    0.00000E+00         0.00000E+00        -0.28686E+08
 
   -0.34899E+08        -0.27271E+06         0.00000E+00
   -0.27271E+06        -0.60007E+08         0.00000E+00
    0.00000E+00         0.00000E+00        -0.29056E+08
 
   -0.34283E+08        -0.68866E+06         0.00000E+00
   -0.68866E+06        -0.60030E+08         0.00000E+00
    0.00000E+00         0.00000E+00        -0.28941E+08
 
   -0.33654E+08        -0.94686E+06         0.00000E+00
   -0.94686E+06        -0.60060E+08         0.00000E+00
    0.00000E+00         0.00000E+00        -0.28825E+08
 
   -0.33040E+08        -0.10713E+07         0.00000E+00
   -0.10713E+07        -0.60083E+08         0.00000E+00
    0.00000E+00         0.00000E+00        -0.28713E+08
 
   -0.32457E+08        -0.10868E+07         0.00000E+00
   -0.10868E+07        -0.60097E+08         0.00000E+00
    0.00000E+00         0.00000E+00        -0.28606E+08
 
   -0.31911E+08        -0.10150E+07         0.00000E+00
   -0.10150E+07        -0.60102E+08         0.00000E+00
    0.00000E+00         0.00000E+00        -0.28506E+08
 
   -0.31400E+08        -0.87193E+06         0.00000E+00
   -0.87193E+06        -0.60105E+08         0.00000E+00
    0.00000E+00         0.00000E+00        -0.28412E+08
 
   -0.30919E+08        -0.66801E+06         0.00000E+00
   -0.66801E+06        -0.60113E+08         0.00000E+00
    0.00000E+00         0.00000E+00        -0.28325E+08
 
   -0.30460E+08        -0.40818E+06         0.00000E+00
   -0.40818E+06        -0.60132E+08         0.00000E+00
    0.00000E+00         0.00000E+00        -0.28245E+08
 
   -0.30016E+08        -0.92537E+05         0.00000E+00
   -0.92537E+05        -0.60170E+08         0.00000E+00
    0.00000E+00         0.00000E+00        -0.28171E+08
 
   -0.29582E+08         0.28312E+06         0.00000E+00
    0.28312E+06        -0.60231E+08         0.00000E+00
    0.00000E+00         0.00000E+00        -0.28102E+08
 
   -0.29158E+08         0.72667E+06         0.00000E+00
    0.72667E+06        -0.60318E+08         0.00000E+00
    0.00000E+00         0.00000E+00        -0.28040E+08
 
   -0.28748E+08         0.12485E+07         0.00000E+00
    0.12485E+07        -0.60428E+08         0.00000E+00
    0.00000E+00         0.00000E+00        -0.27984E+08
 
   -0.28366E+08         0.18592E+07         0.00000E+00
    0.18592E+07        -0.60554E+08         0.00000E+00
    0.00000E+00         0.00000E+00        -0.27936E+08
 
   -0.28032E+08         0.25665E+07         0.00000E+00
    0.25665E+07        -0.60684E+08         0.00000E+00
    0.00000E+00         0.00000E+00        -0.27897E+08
 
   -0.35413E+08        -0.28716E+06         0.00000E+00
   -0.28716E+06        -0.60006E+08         0.00000E+00
    0.00000E+00         0.00000E+00        -0.28524E+08
 
   -0.34618E+08        -0.71356E+06         0.00000E+00
   -0.71356E+06        -0.60023E+08         0.00000E+00
    0.00000E+00         0.00000E+00        -0.28372E+08
 
   -0.33836E+08        -0.96470E+06         0.00000E+00
   -0.96470E+06        -0.60035E+08         0.00000E+00
    0.00000E+00         0.00000E+00        -0.28223E+08
 
   -0.33099E+08        -0.10748E+07         0.00000E+00
   -0.10748E+07        -0.60030E+08         0.00000E+00
    0.00000E+00         0.00000E+00        -0.28082E+08
 
   -0.32421E+08        -0.10774E+07         0.00000E+00
   -0.10774E+07        -0.60008E+08         0.00000E+00
    0.00000E+00         0.00000E+00        -0.27950E+08
 
   -0.31801E+08        -0.99905E+06         0.00000E+00
   -0.99905E+06        -0.59974E+08         0.00000E+00
    0.00000E+00         0.00000E+00        -0.27827E+08
 
   -0.31229E+08        -0.85813E+06         0.00000E+00
   -0.85813E+06        -0.59939E+08         0.00000E+00
    0.00000E+00         0.00000E+00        -0.27714E+08
 
   -0.30694E+08        -0.66517E+06         0.00000E+00
   -0.66517E+06        -0.59912E+08         0.00000E+00
    0.00000E+00         0.00000E+00        -0.27610E+08
 
   -0.30183E+08        -0.42440E+06         0.00000E+00
   -0.42440E+06        -0.59904E+08         0.00000E+00
    0.00000E+00         0.00000E+00        -0.27515E+08
 
   -0.29685E+08        -0.13459E+06         0.00000E+00
   -0.13459E+06        -0.59922E+08         0.00000E+00
    0.00000E+00         0.00000E+00        -0.27426E+08
 
   -0.29189E+08         0.21050E+06         0.00000E+00
    0.21050E+06        -0.59975E+08         0.00000E+00
    0.00000E+00         0.00000E+00        -0.27344E+08
 
   -0.28691E+08         0.62215E+06         0.00000E+00
    0.62215E+06        -0.60065E+08         0.00000E+00
    0.00000E+00         0.00000E+00        -0.27269E+08
 
   -0.28194E+08         0.11159E+07         0.00000E+00
    0.11159E+07        -0.60193E+08         0.00000E+00
    0.00000E+00         0.00000E+00        -0.27199E+08
 
   -0.27712E+08         0.17095E+07         0.00000E+00
    0.17095E+07        -0.60351E+08         0.00000E+00
    0.00000E+00         0.00000E+00        -0.27138E+08
 
   -0.27269E+08         0.24176E+07         0.00000E+00
    0.24176E+07        -0.60523E+08         0.00000E+00
    0.00000E+00         0.00000E+00        -0.27086E+08
 
   -0.35945E+08        -0.29894E+06         0.00000E+00
   -0.29894E+06        -0.60005E+08         0.00000E+00
    0.00000E+00         0.00000E+00        -0.27994E+08
 
   -0.34947E+08        -0.72423E+06         0.00000E+00
   -0.72423E+06        -0.60011E+08         0.00000E+00
    0.00000E+00         0.00000E+00        -0.27799E+08
 
   -0.34000E+08        -0.95393E+06         0.00000E+00
   -0.95393E+06        -0.59996E+08         0.00000E+00
    0.00000E+00         0.00000E+00        -0.27613E+08
 
   -0.33141E+08        -0.10387E+07         0.00000E+00
   -0.10387E+07        -0.59950E+08         0.00000E+00
    0.00000E+00         0.00000E+00        -0.27439E+08
 
   -0.32374E+08        -0.10232E+07         0.00000E+00
   -0.10232E+07        -0.59878E+08         0.00000E+00
    0.00000E+00         0.00000E+00        -0.27280E+08
 
   -0.31689E+08        -0.93862E+06         0.00000E+00
   -0.93862E+06        -0.59794E+08         0.00000E+00
    0.00000E+00         0.00000E+00        -0.27134E+08
 
   -0.31067E+08        -0.80364E+06         0.00000E+00
   -0.80364E+06        -0.59712E+08         0.00000E+00
    0.00000E+00         0.00000E+00        -0.27002E+08
 
   -0.30488E+08        -0.62776E+06         0.00000E+00
   -0.62776E+06        -0.59644E+08         0.00000E+00
    0.00000E+00         0.00000E+00        -0.26882E+08
 
   -0.29934E+08        -0.41390E+06         0.00000E+00
   -0.41390E+06        -0.59603E+08         0.00000E+00
    0.00000E+00         0.00000E+00        -0.26771E+08
 
   -0.29388E+08        -0.15965E+06         0.00000E+00
   -0.15965E+06        -0.59597E+08         0.00000E+00
    0.00000E+00         0.00000E+00        -0.26668E+08
 
   -0.28835E+08         0.14284E+06         0.00000E+00
    0.14284E+06        -0.59636E+08         0.00000E+00
    0.00000E+00         0.00000E+00        -0.26572E+08
 
   -0.28264E+08         0.50778E+06         0.00000E+00
    0.50778E+06        -0.59727E+08         0.00000E+00
    0.00000E+00         0.00000E+00        -0.26482E+08
 
   -0.27672E+08         0.95673E+06         0.00000E+00
    0.95673E+06        -0.59873E+08         0.00000E+00
    0.00000E+00         0.00000E+00        -0.26398E+08
 
   -0.27073E+08         0.15173E+07         0.00000E+00
    0.15173E+07        -0.60069E+08         0.00000E+00
    0.00000E+00         0.00000E+00        -0.26320E+08
 
   -0.26498E+08         0.22162E+07         0.00000E+00
    0.22162E+07        -0.60295E+08         0.00000E+00
    0.00000E+00         0.00000E+00        -0.26253E+08
 
   -0.36486E+08        -0.30656E+06         0.00000E+00
   -0.30656E+06        -0.60002E+08         0.00000E+00
    0.00000E+00         0.00000E+00        -0.27467E+08
 
   -0.35252E+08        -0.71159E+06         0.00000E+00
   -0.71159E+06        -0.59991E+08         0.00000E+00
    0.00000E+00         0.00000E+00        -0.27221E+08
 
   -0.34131E+08        -0.89916E+06         0.00000E+00
   -0.89916E+06        -0.59933E+08         0.00000E+00
    0.00000E+00         0.00000E+00        -0.26991E+08
 
   -0.33156E+08        -0.94684E+06         0.00000E+00
   -0.94684E+06        -0.59827E+08         0.00000E+00
    0.00000E+00         0.00000E+00        -0.26782E+08
 
   -0.32315E+08        -0.91129E+06         0.00000E+00
   -0.91129E+06        -0.59690E+08         0.00000E+00
    0.00000E+00         0.00000E+00        -0.26595E+08
 
   -0.31580E+08        -0.82441E+06         0.00000E+00
   -0.82441E+06        -0.59545E+08         0.00000E+00
    0.00000E+00         0.00000E+00        -0.26427E+08
 
   -0.30920E+08        -0.70199E+06         0.00000E+00
   -0.70199E+06        -0.59409E+08         0.00000E+00
    0.00000E+00         0.00000E+00        -0.26276E+08
 
   -0.30308E+08        -0.55090E+06         0.00000E+00
   -0.55090E+06        -0.59297E+08         0.00000E+00
    0.00000E+00         0.00000E+00        -0.26140E+08
 
   -0.29721E+08        -0.37244E+06         0.00000E+00
   -0.37244E+06        -0.59219E+08         0.00000E+00
    0.00000E+00         0.00000E+00        -0.26014E+08
 
   -0.29135E+08        -0.16337E+06         0.00000E+00
   -0.16337E+06        -0.59186E+08         0.00000E+00
    0.00000E+00         0.00000E+00        -0.25898E+08
 
   -0.28532E+08         0.84484E+05         0.00000E+00
    0.84484E+05        -0.59207E+08         0.00000E+00
    0.00000E+00         0.00000E+00        -0.25788E+08
 
   -0.27892E+08         0.38639E+06         0.00000E+00
    0.38639E+06        -0.59294E+08         0.00000E+00
    0.00000E+00         0.00000E+00        -0.25683E+08
 
   -0.27202E+08         0.76905E+06         0.00000E+00
    0.76905E+06        -0.59456E+08         0.00000E+00
    0.00000E+00         0.00000E+00        -0.25582E+08
 
   -0.26467E+08         0.12732E+07         0.00000E+00
    0.12732E+07        -0.59695E+08         0.00000E+00
    0.00000E+00         0.00000E+00        -0.25486E+08
 
   -0.25724E+08         0.19467E+07         0.00000E+00
    0.19467E+07        -0.59989E+08         0.00000E+00
    0.00000E+00         0.00000E+00        -0.25398E+08
 
   -0.37018E+08        -0.30668E+06         0.00000E+00
   -0.30668E+06        -0.59998E+08         0.00000E+00
    0.00000E+00         0.00000E+00        -0.26941E+08
 
   -0.35505E+08        -0.65701E+06         0.00000E+00
   -0.65701E+06        -0.59952E+08         0.00000E+00
    0.00000E+00         0.00000E+00        -0.26632E+08
 
   -0.34210E+08        -0.77507E+06         0.00000E+00
   -0.77507E+06        -0.59821E+08         0.00000E+00
    0.00000E+00         0.00000E+00        -0.26353E+08
 
   -0.33142E+08        -0.77960E+06         0.00000E+00
   -0.77960E+06        -0.59627E+08         0.00000E+00
    0.00000E+00         0.00000E+00        -0.26107E+08
 
   -0.32250E+08        -0.73038E+06         0.00000E+00
   -0.73038E+06        -0.59412E+08         0.00000E+00
    0.00000E+00         0.00000E+00        -0.25893E+08
 
   -0.31481E+08        -0.65085E+06         0.00000E+00
   -0.65085E+06        -0.59201E+08         0.00000E+00
    0.00000E+00         0.00000E+00        -0.25704E+08
 
   -0.30796E+08        -0.55067E+06         0.00000E+00
   -0.55067E+06        -0.59012E+08         0.00000E+00
    0.00000E+00         0.00000E+00        -0.25537E+08
 
   -0.30163E+08        -0.43327E+06         0.00000E+00
   -0.43327E+06        -0.58855E+08         0.00000E+00
    0.00000E+00         0.00000E+00        -0.25385E+08
 
   -0.29552E+08        -0.29844E+06         0.00000E+00
   -0.29844E+06        -0.58742E+08         0.00000E+00
    0.00000E+00         0.00000E+00        -0.25247E+08
 
   -0.28938E+08        -0.14297E+06         0.00000E+00
   -0.14297E+06        -0.58681E+08         0.00000E+00
    0.00000E+00         0.00000E+00        -0.25118E+08
 
   -0.28295E+08         0.40161E+05         0.00000E+00
    0.40161E+05        -0.58682E+08         0.00000E+00
    0.00000E+00         0.00000E+00        -0.24995E+08
 
   -0.27596E+08         0.26423E+06         0.00000E+00
    0.26423E+06        -0.58759E+08         0.00000E+00
    0.00000E+00         0.00000E+00        -0.24876E+08
 
   -0.26811E+08         0.55508E+06         0.00000E+00
    0.55508E+06        -0.58929E+08         0.00000E+00
    0.00000E+00         0.00000E+00        -0.24757E+08
 
   -0.25922E+08         0.96728E+06         0.00000E+00
    0.96728E+06        -0.59212E+08         0.00000E+00
    0.00000E+00         0.00000E+00        -0.24639E+08
 
   -0.24960E+08         0.15860E+07         0.00000E+00
    0.15860E+07        -0.59593E+08         0.00000E+00
    0.00000E+00         0.00000E+00        -0.24525E+08
 
   -0.37504E+08        -0.28772E+06         0.00000E+00
   -0.28772E+06        -0.59984E+08         0.00000E+00
    0.00000E+00         0.00000E+00        -0.26412E+08
 
   -0.35663E+08        -0.51596E+06         0.00000E+00
   -0.51596E+06        -0.59854E+08         0.00000E+00
    0.00000E+00         0.00000E+00        -0.26020E+08
 
   -0.34231E+08        -0.54614E+06         0.00000E+00
   -0.54614E+06        -0.59596E+08         0.00000E+00
    0.00000E+00         0.00000E+00        -0.25687E+08
 
   -0.33110E+08        -0.52291E+06         0.00000E+00
   -0.52291E+06        -0.59300E+08         0.00000E+00
    0.00000E+00         0.00000E+00        -0.25408E+08
 
   -0.32190E+08        -0.47779E+06         0.00000E+00
   -0.47779E+06        -0.59007E+08         0.00000E+00
    0.00000E+00         0.00000E+00        -0.25171E+08
 
   -0.31404E+08        -0.42026E+06         0.00000E+00
   -0.42026E+06        -0.58737E+08         0.00000E+00
    0.00000E+00         0.00000E+00        -0.24965E+08
 
   -0.30706E+08        -0.35365E+06         0.00000E+00
   -0.35365E+06        -0.58501E+08         0.00000E+00
    0.00000E+00         0.00000E+00        -0.24783E+08
 
   -0.30060E+08        -0.27869E+06         0.00000E+00
   -0.27869E+06        -0.58308E+08         0.00000E+00
    0.00000E+00         0.00000E+00        -0.24620E+08
 
   -0.29434E+08        -0.19453E+06         0.00000E+00
   -0.19453E+06        -0.58165E+08         0.00000E+00
    0.00000E+00         0.00000E+00        -0.24471E+08
 
   -0.28802E+08        -0.98813E+05         0.00000E+00
   -0.98813E+05        -0.58079E+08         0.00000E+00
    0.00000E+00         0.00000E+00        -0.24332E+08
 
   -0.28133E+08         0.13039E+05         0.00000E+00
    0.13039E+05        -0.58061E+08         0.00000E+00
    0.00000E+00         0.00000E+00        -0.24198E+08
 
   -0.27392E+08         0.14965E+06         0.00000E+00
    0.14965E+06        -0.58123E+08         0.00000E+00
    0.00000E+00         0.00000E+00        -0.24066E+08
 
   -0.26534E+08         0.32872E+06         0.00000E+00
    0.32872E+06        -0.58289E+08         0.00000E+00
    0.00000E+00         0.00000E+00        -0.23931E+08
 
   -0.25487E+08         0.59476E+06         0.00000E+00
    0.59476E+06        -0.58595E+08         0.00000E+00
    0.00000E+00         0.00000E+00        -0.23785E+08
 
   -0.24233E+08         0.10942E+07         0.00000E+00
    0.10942E+07        -0.59092E+08         0.00000E+00
    0.00000E+00         0.00000E+00        -0.23635E+08
 
   -0.37847E+08        -0.17509E+06         0.00000E+00
   -0.17509E+06        -0.59872E+08         0.00000E+00
    0.00000E+00         0.00000E+00        -0.25846E+08
 
   -0.35698E+08        -0.21017E+06         0.00000E+00
   -0.21017E+06        -0.59539E+08         0.00000E+00
    0.00000E+00         0.00000E+00        -0.25351E+08
 
   -0.34222E+08        -0.20068E+06         0.00000E+00
   -0.20068E+06        -0.59153E+08         0.00000E+00
    0.00000E+00         0.00000E+00        -0.24980E+08
 
   -0.33083E+08        -0.18596E+06         0.00000E+00
   -0.18596E+06        -0.58779E+08         0.00000E+00
    0.00000E+00         0.00000E+00        -0.24680E+08
 
   -0.32154E+08        -0.16735E+06         0.00000E+00
   -0.16735E+06        -0.58433E+08         0.00000E+00
    0.00000E+00         0.00000E+00        -0.24427E+08
 
   -0.31362E+08        -0.14613E+06         0.00000E+00
   -0.14613E+06        -0.58125E+08         0.00000E+00
    0.00000E+00         0.00000E+00        -0.24209E+08
 
   -0.30658E+08        -0.12263E+06         0.00000E+00
   -0.12263E+06        -0.57861E+08         0.00000E+00
    0.00000E+00         0.00000E+00        -0.24017E+08
 
   -0.30006E+08        -0.96776E+05         0.00000E+00
   -0.96776E+05        -0.57645E+08         0.00000E+00
    0.00000E+00         0.00000E+00        -0.23845E+08
 
   -0.29374E+08        -0.68119E+05         0.00000E+00
   -0.68119E+05        -0.57483E+08         0.00000E+00
    0.00000E+00         0.00000E+00        -0.23688E+08
 
   -0.28733E+08        -0.35790E+05         0.00000E+00
   -0.35790E+05        -0.57381E+08         0.00000E+00
    0.00000E+00         0.00000E+00        -0.23541E+08
 
   -0.28051E+08         0.17768E+04         0.00000E+00
    0.17768E+04        -0.57349E+08         0.00000E+00
    0.00000E+00         0.00000E+00        -0.23400E+08
 
   -0.27289E+08         0.47451E+05         0.00000E+00
    0.47451E+05        -0.57400E+08         0.00000E+00
    0.00000E+00         0.00000E+00        -0.23259E+08
 
   -0.26391E+08         0.10745E+06         0.00000E+00
    0.10745E+06        -0.57555E+08         0.00000E+00
    0.00000E+00         0.00000E+00        -0.23111E+08
 
   -0.25258E+08         0.19585E+06         0.00000E+00
    0.19585E+06        -0.57859E+08         0.00000E+00
    0.00000E+00         0.00000E+00        -0.22946E+08
 
   -0.23611E+08         0.40450E+06         0.00000E+00
    0.40450E+06        -0.58429E+08         0.00000E+00
    0.00000E+00         0.00000E+00        -0.22731E+08
 
SCALARS stressS double 
LOOKUP_TABLE default
  -42487290.0502074     
  -42797683.0296886     
  -43083746.1110111     
  -43347444.9266532     
  -43590686.7960969     
  -43815314.7781334     
  -44023102.7973961     
  -44215751.8801512     
  -44394887.5198795     
  -44562058.1853690     
  -44718734.9823393     
  -44866312.4830885     
  -45006110.7459928     
  -45139378.5562219     
  -45267297.9287873     
  -42478211.9991454     
  -42787329.0035236     
  -43072125.4483081     
  -43334575.2568799     
  -43576593.1809095     
  -43800028.7578957     
  -44006661.3657633     
  -44198196.4032381     
  -44376262.6103327     
  -44542410.5359410     
  -44698112.1586978     
  -44844761.6719877     
  -44983677.4529668     
  -45116105.2469685     
  -45243222.6106523     
  -42460174.4989909     
  -42766728.5917252     
  -43048981.3694422     
  -43308923.5029884     
  -43548484.7431269     
  -43769527.6941026     
  -43973842.7302859     
  -44163144.0716288     
  -44339067.0194854     
  -44503166.3479383     
  -44656915.8466397     
  -44801709.0184255     
  -44938860.9472653     
  -45069611.3676687     
  -45195128.9832429     
  -42433414.6385529     
  -42736096.6930604     
  -43014507.7580396     
  -43270664.0351766     
  -43506518.1053200     
  -43723952.4403594     
  -43924774.1281096     
  -44110710.8055682     
  -44283407.7819800     
  -44444426.3280391     
  -44595243.1109252     
  -44737250.7659174     
  -44871759.6127455     
  -45000000.5466891     
  -45123129.1582480     
  -42398287.7069101     
  -42695754.6473126     
  -42968993.8682579     
  -43220056.3641663     
  -43450925.7593586     
  -43663511.4986831     
  -43859643.3460527     
  -44041067.1575432     
  -44209441.8819283     
  -44366337.7379391     
  -44513235.5240662     
  -44651527.0328316     
  -44782516.5658881     
  -44907423.5770002     
  -45027386.5040674     
  -42355266.6211718     
  -42646128.8767891     
  -42912822.3051386     
  -43157442.5703353     
  -43382013.0367801     
  -43588477.6046924     
  -43778694.9749186     
  -43954434.2714884     
  -44117371.9363646     
  -44269089.8086117     
  -44411074.3103174     
  -44544716.6839403     
  -44671314.2592750     
  -44792072.7707043     
  -44908109.7935188     
  -42304940.8933937     
  -42587748.8243890     
  -42846466.1061514     
  -43083243.6791872     
  -43300153.9038553     
  -43499183.0411819     
  -43682225.3128886     
  -43851078.4203764     
  -44007440.3870714     
  -44152907.5868801     
  -44288973.8350892     
  -44417030.4476037     
  -44538367.2192448     
  -44654174.3295878     
  -44765545.2515044     
  -42248014.8964271     
  -42521243.9673747     
  -42770484.7264874     
  -42997954.8122703     
  -43205785.4392948     
  -43396013.5679904     
  -43570575.8354086     
  -43731304.0665884     
  -43879922.1672527     
  -44018044.1954592     
  -44147173.4259421     
  -44268702.2582471     
  -44383912.8783292     
  -44493978.6605389     
  -44599966.3879708     
  -42185305.1189097     
  -42447339.6239416     
  -42685518.6762988     
  -42902138.8966928     
  -43099400.8160419     
  -43279400.8301399     
  -43444125.1343188     
  -43595445.3860083     
  -43735115.8161814     
  -43864771.5021411     
  -43985927.5303319     
  -44099978.8230098     
  -44208200.4775612     
  -44311748.5692680     
  -44411661.4911719     
  -42117736.0260126     
  -42366851.2042039     
  -42592282.5003730     
  -42796418.6673802     
  -42981540.5701442     
  -43149813.0803904     
  -43303279.2174116     
  -43443856.2000707     
  -43573333.0322280     
  -43693369.2225549     
  -43805494.2514270     
  -43911107.4495708     
  -44011478.0475134     
  -44107745.2883852     
  -44200918.6610680     
  -42046334.0667942     
  -42280676.4886512     
  -42491555.7285547     
  -42681466.6421045     
  -42852781.8969417     
  -43007744.0248212     
  -43148460.0505049     
  -43276898.2710158     
  -43394886.6853332     
  -43504112.5283713     
  -43606122.3624306     
  -43702322.2359740     
  -43793977.5371661     
  -43882212.3436333     
  -43968008.2890195     
  -41972219.2947541     
  -42189785.4461212     
  -42384171.3565423     
  -42557992.6862774     
  -42713725.6634795     
  -42853699.5672487     
  -42980092.2156734     
  -43094927.9348883     
  -43200077.3571281     
  -43297258.3044625     
  -43388036.9894142     
  -43473828.8216285     
  -43555898.2559340     
  -43635357.3443636     
  -43713162.9464195     
  -41896594.0014505     
  -42095207.0304034     
  -42271001.3373697     
  -42426728.7055997     
  -42564980.7584692     
  -42688182.1838631     
  -42798587.5478774     
  -42898281.0743510     
  -42989178.5442812     
  -43073030.3015196     
  -43151424.2825374     
  -43225788.0431902     
  -43297388.9388873     
  -43367331.9136842     
  -43436554.7432552     
  -41820727.7125553     
  -41998012.3189832     
  -42152938.4657417     
  -42288409.8974576     
  -42407145.3041917     
  -42511672.5926538     
  -42604327.5916008     
  -42687256.4683994     
  -42762420.7530031     
  -42831603.5745260     
  -42896415.5788754     
  -42958299.0451780     
  -43018528.9548282     
  -43078210.1664504     
  -43138270.3732844     
  -41745937.8728295     
  -41899293.2748302     
  -42030873.9044505     
  -42143751.8346187     
  -42240784.1065332     
  -42324608.2757033     
  -42397643.6794162     
  -42462097.5971732     
  -42519974.8366296     
  -42573088.7955561     
  -42623071.8148692     
  -42671382.6835904     
  -42719309.4728999     
  -42767966.4204242     
  -42818284.2954216     
  -41673565.5639058     
  -41800136.3097871     
  -41905669.4041202     
  -41993422.4096429     
  -42066401.4843064     
  -42127358.2395641     
  -42178794.3613196     
  -42222973.0259223     
  -42261935.0939508     
  -42297517.3006813     
  -42331369.2976624     
  -42364966.4593163     
  -42399615.8138134     
  -42436453.2138034     
  -42476430.8352551     
  -41604945.6668249     
  -41701589.6757121     
  -41778122.9485471     
  -41838007.2716367     
  -41884408.2406423     
  -41920193.1202815     
  -41947939.7883614     
  -41969955.5433074     
  -41988302.8698733     
  -42004828.1033554     
  -42021188.4275608     
  -42038872.7648634     
  -42059212.7732398     
  -42083381.2331636     
  -42112376.4537461     
  -41541370.9993431     
  -41604623.4415854     
  -41648926.0159825     
  -41677966.7316080     
  -41695080.9303878     
  -41703249.3004349     
  -41705112.4553443     
  -41703000.2922710     
  -41698971.7091609     
  -41694858.6217504     
  -41692307.6286314     
  -41692812.9759603     
  -41697735.4666063     
  -41708303.4688132     
  -41725594.0494904     
  -41484050.0965924     
  -41510080.2973279     
  -41518609.6976122     
  -41513581.0213979     
  -41498510.6080000     
  -41476485.0369823     
  -41450183.4198963     
  -41421922.2280251     
  -41393715.5521295     
  -41367341.5838134     
  -41344405.6614495     
  -41326390.9448037     
  -41314689.2763038     
  -41310606.8591921     
  -41315341.9585045     
  -41434058.3688114     
  -41418614.3907387     
  -41387475.2239282     
  -41344878.9717147     
  -41294536.7259223     
  -41239625.6322055     
  -41182822.7522590     
  -41126373.4196313     
  -41072182.0933607     
  -41021911.5677066     
  -40977076.7556404     
  -40939120.8668624     
  -40909463.8929624     
  -40889515.9348343     
  -40880651.3013344     
  -41392282.1347405     
  -41330613.3187398     
  -41255501.4026904     
  -41171542.1460808     
  -41082659.5574003     
  -40992093.3980227     
  -40902452.6298077     
  -40815821.0890561     
  -40733894.3337978     
  -40658125.9802949     
  -40589864.7268694     
  -40530466.4690438     
  -40481368.4271414     
  -40444114.6562831     
  -40420326.5001956     
  -41359353.9861555     
  -41246094.1744808     
  -41122215.8981934     
  -40992771.4443453     
  -40861921.2054386     
  -40732916.7494946     
  -40608191.4807634     
  -40489528.0684853     
  -40378264.5916537     
  -40275506.9827387     
  -40182324.5236710     
  -40099911.2937302     
  -40029697.4984462     
  -39973395.0649993     
  -39932965.1529384     
  -41335575.0111455     
  -41164555.8543970     
  -40986506.8880163     
  -40807094.8969112     
  -40630740.9435758     
  -40460611.9846097     
  -40298788.7087299     
  -40146538.8859782     
  -40004626.7015796     
  -39873612.6087098     
  -39754122.5163727     
  -39647073.9265101     
  -39553842.9809194     
  -39476345.2069088     
  -39417005.1674651     
  -41320811.9157322     
  -41084751.4651718     
  -40846331.5416792     
  -40612081.9791410     
  -40386686.3743517     
  -40173033.4901638     
  -39972553.5857626     
  -39785677.4786683     
  -39612292.9435114     
  -39452146.2212007     
  -39305189.4670914     
  -39171888.5049834     
  -39053474.1666067     
  -38952096.2626174     
  -38870809.4686248     
  -41314339.4130505     
  -41004302.5807086     
  -40698238.0742026     
  -40403909.2463568     
  -40126162.4408786     
  -39867199.4463950     
  -39627292.3263428     
  -39405566.5127967     
  -39200640.8566786     
  -39011109.1487529     
  -38835942.3979945     
  -38674878.6450618     
  -38528827.1831428     
  -38400162.8307418     
  -38292804.9131513     
  -41314545.2783462     
  -40918978.4862922     
  -40536533.5558159     
  -40176698.5606579     
  -39844023.4984517     
  -39539132.6066742     
  -39260289.5680731     
  -39004682.6152728     
  -38769223.8107859     
  -38550990.9050336     
  -38347577.0819990     
  -38157575.4590014     
  -37981168.6856120     
  -37820857.0308438     
  -37681700.1598214     
  -41318288.0306967     
  -40821164.9203186     
  -40351769.1159071     
  -39921562.4195311     
  -39533204.1669655     
  -39183840.1159755     
  -38868392.4993684     
  -38581462.6829037     
  -38317886.3906581     
  -38072930.9533962     
  -37842432.0235184     
  -37623086.7339635     
  -37413638.5963432     
  -37215998.2518107     
  -37036889.4255878     
  -41318906.5269800     
  -40696310.2473154     
  -40127903.8890365     
  -39625530.0401075     
  -39184834.6460638     
  -38795593.8648346     
  -38448270.3984685     
  -38134470.0889213     
  -37846841.4623173     
  -37578773.1618719     
  -37324111.0912996     
  -37077076.5640147     
  -36832456.2907849     
  -36590728.5188368     
  -36359031.5037771     
  -41300042.6501068     
  -40512491.6916368     
  -39837933.7261604     
  -39272620.7373874     
  -38789188.7270906     
  -38368693.9030482     
  -37996875.8548101     
  -37662612.2430043     
  -37356678.1976355     
  -37070868.2528167     
  -36797247.2150640     
  -36527325.4612119     
  -36251335.6200667     
  -35955583.8988827     
  -35653265.7868235     
  -41188468.3983232     
  -40196348.0512915     
  -39452021.0271857     
  -38847060.7598478     
  -38337876.4880560     
  -37898629.3317049     
  -37512055.4481344     
  -37165377.4433424     
  -36848285.7365241     
  -36551655.8778576     
  -36266470.8126273     
  -35982527.0126101     
  -35686034.4580531     
  -35354629.1475014     
  -34923746.5538989     
SCALARS 2waySource double 
LOOKUP_TABLE default
 -8.722571389836305E-005
 -9.069462954527016E-005
 -9.392126940127274E-005
 -9.691856538548102E-005
 -9.970033958910489E-005
 -1.022809703712901E-004
 -1.046751081196993E-004
 -1.068974352651794E-004
 -1.089624656234882E-004
 -1.108843785860003E-004
 -1.126768841119711E-004
 -1.143531148966244E-004
 -1.159255425057285E-004
 -1.174059146757655E-004
 -1.188052113686008E-004
 -8.705704071444622E-005
 -9.051841618825143E-005
 -9.373654073332213E-005
 -9.672463925205338E-005
 -9.949678761485987E-005
 -1.020675832539782E-004
 -1.044518648271988E-004
 -1.066644756329199E-004
 -1.087200659323142E-004
 -1.106329297723494E-004
 -1.124168723209757E-004
 -1.140851041317927E-004
 -1.156501591552511E-004
 -1.171238337040466E-004
 -1.185171439545155E-004
 -8.678813383925998E-005
 -9.023332652128427E-005
 -9.343303500780554E-005
 -9.640113393212421E-005
 -9.915226191462861E-005
 -1.017015015063406E-004
 -1.040641071016465E-004
 -1.062552756579153E-004
 -1.082899555046782E-004
 -1.101826889375614E-004
 -1.119474846869625E-004
 -1.135977167391719E-004
 -1.151460463725465E-004
 -1.166043646542729E-004
 -1.179837530171236E-004
 -8.642177616678002E-005
 -8.984156381117995E-005
 -9.301245257544649E-005
 -9.594931551974671E-005
 -9.866765608890698E-005
 -1.011833020559947E-004
 -1.035121458684525E-004
 -1.056699264471371E-004
 -1.076720478858371E-004
 -1.095334308712921E-004
 -1.112683930072580E-004
 -1.128905545900069E-004
 -1.144127667551707E-004
 -1.158470592991816E-004
 -1.172046058679034E-004
 -8.596218127409726E-005
 -8.934646562806325E-005
 -9.247737028817355E-005
 -9.537110370957854E-005
 -9.804432609815226E-005
 -1.005138617276995E-004
 -1.027964556906656E-004
 -1.049085703892690E-004
 -1.068662174057276E-004
 -1.086848207102889E-004
 -1.103791074858319E-004
 -1.119630231823487E-004
 -1.134496677742212E-004
 -1.148512505846184E-004
 -1.161790614624407E-004
 -8.541499588160301E-005
 -8.875250744254251E-005
 -9.183124526877202E-005
 -9.466907507812840E-005
 -9.728409261593260E-005
 -9.969435838495070E-005
 -1.019176745223672E-004
 -1.039713994131344E-004
 -1.058722958839151E-004
 -1.076364090725413E-004
 -1.092789703318853E-004
 -1.108143238211887E-004
 -1.122558727823065E-004
 -1.136160429041583E-004
 -1.149062606487022E-004
 -8.478729741958835E-005
 -8.806530152614091E-005
 -9.107841405703551E-005
 -9.384646175074793E-005
 -9.638923874764836E-005
 -9.872626740318972E-005
 -1.008765987425160E-004
 -1.028586484417197E-004
 -1.046900643849038E-004
 -1.063876220091523E-004
 -1.079671438362557E-004
 -1.094434398273381E-004
 -1.108302655178245E-004
 -1.121402953157988E-004
 -1.133851088847310E-004
 -8.408758362372042E-005
 -8.729158791882238E-005
 -9.022408385399799E-005
 -9.290714222189025E-005
 -9.536249999857337E-005
 -9.761135052552305E-005
 -9.967417071983921E-005
 -1.015705814996328E-004
 -1.033192376691369E-004
 -1.049377435548031E-004
 -1.064425907585233E-004
 -1.078491145472902E-004
 -1.091714656809294E-004
 -1.104225949279926E-004
 -1.116142481490336E-004
 -8.332575023566631E-005
 -8.643921339934860E-005
 -8.927431178769377E-005
 -9.185562034518296E-005
 -9.420704268770161E-005
 -9.635163354966686E-005
 -9.831145565845464E-005
 -1.001074675426595E-004
 -1.017594387049709E-004
 -1.032858884711191E-004
 -1.047040447334898E-004
 -1.060298188293340E-004
 -1.072777930105714E-004
 -1.084612174342579E-004
 -1.095920143519156E-004
 -8.251305199213481E-005
 -8.551709354264318E-005
 -8.823596731518543E-005
 -9.069698775396385E-005
 -9.292642632625308E-005
 -9.494936872419950E-005
 -9.678960403958686E-005
 -9.846954279960452E-005
 -1.000101604878111E-004
 -1.014309628005573E-004
 -1.027499685337060E-004
 -1.039837058069857E-004
 -1.051472174443621E-004
 -1.062540718229232E-004
 -1.073163764126409E-004
 -8.166204117363786E-005
 -8.453515208812216E-005
 -8.711667204980537E-005
 -8.943686419477473E-005
 -9.152454478432529E-005
 -9.340697717101380E-005
 -9.510979559816745E-005
 -9.665695626020640E-005
 -9.807071248858136E-005
 -9.937161013934404E-005
 -1.005784984829971E-004
 -1.017085513831007E-004
 -1.027772934945280E-004
 -1.037986267324055E-004
 -1.047848533919726E-004
 -8.078647710503336E-005
 -8.350423099028638E-005
 -8.592471044331206E-005
 -8.808130941066687E-005
 -9.000554030226874E-005
 -9.172696605037359E-005
 -9.327316042526948E-005
 -9.466969491172874E-005
 -9.594014936360984E-005
 -9.710614216845175E-005
 -9.818737420420743E-005
 -9.920167985454678E-005
 -1.001650780535076E-004
 -1.010918168953116E-004
 -1.019944067872614E-004
 -7.990119924190391E-005
 -8.243596370118575E-005
 -8.466890381912768E-005
 -8.663669921238660E-005
 -8.837368346012248E-005
 -8.991181445214407E-005
 -9.128067241241365E-005
 -9.250748541328506E-005
 -9.361718014594342E-005
 -9.463245304394734E-005
 -9.557385433157463E-005
 -9.645987581385367E-005
 -9.730703262011293E-005
 -9.812992978661757E-005
 -9.894130647160585E-005
 -7.902195597251632E-005
 -8.134260345660865E-005
 -8.335843914890627E-005
 -8.510955705745812E-005
 -8.663321091112920E-005
 -8.796382097060710E-005
 -8.913300975188219E-005
 -9.016966908185128E-005
 -9.110005706635820E-005
 -9.194791886974079E-005
 -9.273462100021179E-005
 -9.347928601416888E-005
 -9.419891362846121E-005
 -9.490847518067705E-005
 -9.562097099933894E-005
 -7.816518119596776E-005
 -8.023679757812504E-005
 -8.200264249245490E-005
 -8.350633051444140E-005
 -8.478811068924542E-005
 -8.588490433534366E-005
 -8.683037642490746E-005
 -8.765504732414887E-005
 -8.838644451516748E-005
 -8.904928584339733E-005
 -8.966567908522523E-005
 -9.025531855913799E-005
 -9.083565844685584E-005
 -9.142204410358490E-005
 -9.202778637006691E-005
 -7.734771133319213E-005
 -7.913129794452236E-005
 -8.061068478162717E-005
 -8.183309887444443E-005
 -8.284184166779259E-005
 -8.367634590528819E-005
 -8.437227732749080E-005
 -8.496169497777920E-005
 -8.547327062437312E-005
 -8.593255406505535E-005
 -8.636226064491078E-005
 -8.678255194051289E-005
 -8.721128004572680E-005
 -8.766416897686613E-005
 -8.815491215649115E-005
 -7.658643693121594E-005
 -7.803859649474908E-005
 -7.919120385434741E-005
 -8.009519291902361E-005
 -8.079696837377118E-005
 -8.133845865235085E-005
 -8.175723762480713E-005
 -8.208673948715360E-005
 -8.235656683763375E-005
 -8.259286888216995E-005
 -8.281875132140238E-005
 -8.305467357265687E-005
 -8.331879075258508E-005
 -8.362720398002947E-005
 -8.399409050871887E-005
 -7.589788562534804E-005
 -7.697047213760671E-005
 -7.775181989379737E-005
 -7.829669878204031E-005
 -7.865468339341402E-005
 -7.887016054794908E-005
 -7.898245381163715E-005
 -7.902610469408383E-005
 -7.903130523300831E-005
 -7.902443872613726E-005
 -7.902866427111228E-005
 -7.906447719231829E-005
 -7.915018545501647E-005
 -7.930225426260566E-005
 -7.953548230709326E-005
 -7.529773689471172E-005
 -7.593743013009350E-005
 -7.629850900557823E-005
 -7.643980204608515E-005
 -7.641417474189415E-005
 -7.626841981443516E-005
 -7.604335969061493E-005
 -7.577421996198450E-005
 -7.549125033896184E-005
 -7.522050879178860E-005
 -7.498469952039678E-005
 -7.480396161456931E-005
 -7.469652774161161E-005
 -7.467919512325502E-005
 -7.476756597301204E-005
 -7.480027321674539E-005
 -7.494800350732910E-005
 -7.483477653475912E-005
 -7.452390066019710E-005
 -7.407177131438336E-005
 -7.352752400329308E-005
 -7.293308562093213E-005
 -7.232369997477482E-005
 -7.172885356801682E-005
 -7.117343523870141E-005
 -7.067894374713384E-005
 -7.026459089430327E-005
 -6.994819963801788E-005
 -6.974683831936166E-005
 -6.967714845451690E-005
 -7.441777520231730E-005
 -7.400786166936840E-005
 -7.336052827158444E-005
 -7.254436719158716E-005
 -7.161976091159928E-005
 -7.063810372376564E-005
 -6.964178631645050E-005
 -6.866501112592275E-005
 -6.773523703516952E-005
 -6.687492685551505E-005
 -6.610328888956078E-005
 -6.543779919270571E-005
 -6.489539814507829E-005
 -6.449332341197249E-005
 -6.424955515584762E-005
 -7.415986601400497E-005
 -7.311861953028661E-005
 -7.187045476801372E-005
 -7.049075701835544E-005
 -6.904471634673094E-005
 -6.758581792560382E-005
 -6.615581795694186E-005
 -6.478616306921594E-005
 -6.350034283062798E-005
 -6.231655210798080E-005
 -6.125017871346324E-005
 -6.031585455372985E-005
 -5.952899197914368E-005
 -5.890684037673123E-005
 -5.846908736593173E-005
 -7.403279457913343E-005
 -7.227612956110717E-005
 -7.035158191614170E-005
 -6.834411232200326E-005
 -6.632508281140957E-005
 -6.434959498129568E-005
 -6.245677628815806E-005
 -6.067250803733677E-005
 -5.901336586662115E-005
 -5.749064691455962E-005
 -5.611383148932710E-005
 -5.489323604944143E-005
 -5.384189663396930E-005
 -5.297683141195548E-005
 -5.231986737678911E-005
 -7.403859542353938E-005
 -7.146779423986336E-005
 -6.877930864593120E-005
 -6.607275872321296E-005
 -6.342769006559359E-005
 -6.089936858049447E-005
 -5.852050029349916E-005
 -5.630680677436513E-005
 -5.426363169166147E-005
 -5.239179446602909E-005
 -5.069212516754973E-005
 -4.916874204143091E-005
 -4.783119123289161E-005
 -4.669589924266419E-005
 -4.578724364577197E-005
 -7.417394124824437E-005
 -7.066783507202235E-005
 -6.711054903152903E-005
 -6.362557200796220E-005
 -6.030285172987017E-005
 -5.719348031817686E-005
 -5.431636512233501E-005
 -5.166981936855552E-005
 -4.924209205405504E-005
 -4.701902406968428E-005
 -4.498938962758134E-005
 -4.314861092050269E-005
 -4.150136379624895E-005
 -4.006277075324934E-005
 -3.886006636438418E-005
 -7.442804275645769E-005
 -6.982794272118175E-005
 -6.527095450631043E-005
 -6.092116956504398E-005
 -5.687819063289727E-005
 -5.317660636813555E-005
 -4.980762136348430E-005
 -4.674172871862268E-005
 -4.394343681575563E-005
 -4.137878929935319E-005
 -3.902022733554389E-005
 -3.685127181694145E-005
 -3.486915623554350E-005
 -3.308718132935091E-005
 -3.153435011570182E-005
 -7.477807081646324E-005
 -6.885548709531275E-005
 -6.312981163238193E-005
 -5.783169471147372E-005
 -5.305337144713793E-005
 -4.878080154087404E-005
 -4.495382994483389E-005
 -4.150458317848167E-005
 -3.836844742417196E-005
 -3.548794006587910E-005
 -3.281484442046945E-005
 -3.031378411326296E-005
 -2.797228810332207E-005
 -2.579720264857995E-005
 -2.382041936685160E-005
 -7.517002495990255E-005
 -6.755716812781585E-005
 -6.044895419988511E-005
 -5.416583467686574E-005
 -4.870587704865475E-005
 -4.393254577347005E-005
 -3.971631944849891E-005
 -3.594551733592849E-005
 -3.252560548977347E-005
 -2.937510134370867E-005
 -2.642238643424203E-005
 -2.360566991163663E-005
 -2.087918771476296E-005
 -1.825887821362043E-005
 -1.575398938287426E-005
 -7.545099672960627E-005
 -6.544462504063327E-005
 -5.680657156133701E-005
 -4.970144473219185E-005
 -4.371336805127591E-005
 -3.856764332119220E-005
 -3.406602596002421E-005
 -3.005995832775210E-005
 -2.643088003249900E-005
 -2.307777460914380E-005
 -1.990803196904988E-005
 -1.682989946961228E-005
 -1.374853814063815E-005
 -1.057100340562213E-005
 -7.455512024395548E-006
 -7.451659125062070E-005
 -6.129434393858116E-005
 -5.180619541202975E-005
 -4.425806651158740E-005
 -3.799325939606274E-005
 -3.264876613475618E-005
 -2.799131362115571E-005
 -2.385370798987689E-005
 -2.010530878193288E-005
 -1.663477989397686E-005
 -1.333732422313422E-005
 -1.010159724761734E-005
 -6.791132304123521E-006
 -3.205044442151593E-006
  9.480442108302025E-007
SCALARS poroP double 
LOOKUP_TABLE default
  0.000000000000000E+000
  0.000000000000000E+000
  0.000000000000000E+000
  0.000000000000000E+000
  0.000000000000000E+000
  0.000000000000000E+000
  0.000000000000000E+000
  0.000000000000000E+000
  0.000000000000000E+000
  0.000000000000000E+000
  0.000000000000000E+000
  0.000000000000000E+000
  0.000000000000000E+000
  0.000000000000000E+000
  0.000000000000000E+000
  0.000000000000000E+000
  0.000000000000000E+000
  0.000000000000000E+000
  0.000000000000000E+000
  0.000000000000000E+000
  0.000000000000000E+000
  0.000000000000000E+000
  0.000000000000000E+000
  0.000000000000000E+000
  0.000000000000000E+000
  0.000000000000000E+000
  0.000000000000000E+000
  0.000000000000000E+000
  0.000000000000000E+000
  0.000000000000000E+000
  0.000000000000000E+000
  0.000000000000000E+000
  0.000000000000000E+000
  0.000000000000000E+000
  0.000000000000000E+000
  0.000000000000000E+000
  0.000000000000000E+000
  0.000000000000000E+000
  0.000000000000000E+000
  0.000000000000000E+000
  0.000000000000000E+000
  0.000000000000000E+000
  0.000000000000000E+000
  0.000000000000000E+000
  0.000000000000000E+000
  0.000000000000000E+000
  0.000000000000000E+000
  0.000000000000000E+000
  0.000000000000000E+000
  0.000000000000000E+000
  0.000000000000000E+000
  0.000000000000000E+000
  0.000000000000000E+000
  0.000000000000000E+000
  0.000000000000000E+000
  0.000000000000000E+000
  0.000000000000000E+000
  0.000000000000000E+000
  0.000000000000000E+000
  0.000000000000000E+000
  0.000000000000000E+000
  0.000000000000000E+000
  0.000000000000000E+000
  0.000000000000000E+000
  0.000000000000000E+000
  0.000000000000000E+000
  0.000000000000000E+000
  0.000000000000000E+000
  0.000000000000000E+000
  0.000000000000000E+000
  0.000000000000000E+000
  0.000000000000000E+000
  0.000000000000000E+000
  0.000000000000000E+000
  0.000000000000000E+000
  0.000000000000000E+000
  0.000000000000000E+000
  0.000000000000000E+000
  0.000000000000000E+000
  0.000000000000000E+000
  0.000000000000000E+000
  0.000000000000000E+000
  0.000000000000000E+000
  0.000000000000000E+000
  0.000000000000000E+000
  0.000000000000000E+000
  0.000000000000000E+000
  0.000000000000000E+000
  0.000000000000000E+000
  0.000000000000000E+000
  0.000000000000000E+000
  0.000000000000000E+000
  0.000000000000000E+000
  0.000000000000000E+000
  0.000000000000000E+000
  0.000000000000000E+000
  0.000000000000000E+000
  0.000000000000000E+000
  0.000000000000000E+000
  0.000000000000000E+000
  0.000000000000000E+000
  0.000000000000000E+000
  0.000000000000000E+000
  0.000000000000000E+000
  0.000000000000000E+000
  0.000000000000000E+000
  0.000000000000000E+000
  0.000000000000000E+000
  0.000000000000000E+000
  0.000000000000000E+000
  0.000000000000000E+000
  0.000000000000000E+000
  0.000000000000000E+000
  0.000000000000000E+000
  0.000000000000000E+000
  0.000000000000000E+000
  0.000000000000000E+000
  0.000000000000000E+000
  0.000000000000000E+000
  0.000000000000000E+000
  0.000000000000000E+000
  0.000000000000000E+000
  0.000000000000000E+000
  0.000000000000000E+000
  0.000000000000000E+000
  0.000000000000000E+000
  0.000000000000000E+000
  0.000000000000000E+000
  0.000000000000000E+000
  0.000000000000000E+000
  0.000000000000000E+000
  0.000000000000000E+000
  0.000000000000000E+000
  0.000000000000000E+000
  0.000000000000000E+000
  0.000000000000000E+000
  0.000000000000000E+000
  0.000000000000000E+000
  0.000000000000000E+000
  0.000000000000000E+000
  0.000000000000000E+000
  0.000000000000000E+000
  0.000000000000000E+000
  0.000000000000000E+000
  0.000000000000000E+000
  0.000000000000000E+000
  0.000000000000000E+000
  0.000000000000000E+000
  0.000000000000000E+000
  0.000000000000000E+000
  0.000000000000000E+000
  0.000000000000000E+000
  0.000000000000000E+000
  0.000000000000000E+000
  0.000000000000000E+000
  0.000000000000000E+000
  0.000000000000000E+000
  0.000000000000000E+000
  0.000000000000000E+000
  0.000000000000000E+000
  0.000000000000000E+000
  0.000000000000000E+000
  0.000000000000000E+000
  0.000000000000000E+000
  0.000000000000000E+000
  0.000000000000000E+000
  0.000000000000000E+000
  0.000000000000000E+000
  0.000000000000000E+000
  0.000000000000000E+000
  0.000000000000000E+000
  0.000000000000000E+000
  0.000000000000000E+000
  0.000000000000000E+000
  0.000000000000000E+000
  0.000000000000000E+000
  0.000000000000000E+000
  0.000000000000000E+000
  0.000000000000000E+000
  0.000000000000000E+000
  0.000000000000000E+000
  0.000000000000000E+000
  0.000000000000000E+000
  0.000000000000000E+000
  0.000000000000000E+000
  0.000000000000000E+000
  0.000000000000000E+000
  0.000000000000000E+000
  0.000000000000000E+000
  0.000000000000000E+000
  0.000000000000000E+000
  0.000000000000000E+000
  0.000000000000000E+000
  0.000000000000000E+000
  0.000000000000000E+000
  0.000000000000000E+000
  0.000000000000000E+000
  0.000000000000000E+000
  0.000000000000000E+000
  0.000000000000000E+000
  0.000000000000000E+000
  0.000000000000000E+000
  0.000000000000000E+000
  0.000000000000000E+000
  0.000000000000000E+000
  0.000000000000000E+000
  0.000000000000000E+000
  0.000000000000000E+000
  0.000000000000000E+000
  0.000000000000000E+000
  0.000000000000000E+000
  0.000000000000000E+000
  0.000000000000000E+000
  0.000000000000000E+000
  0.000000000000000E+000
  0.000000000000000E+000
  0.000000000000000E+000
  0.000000000000000E+000
  0.000000000000000E+000
  0.000000000000000E+000
  0.000000000000000E+000
  0.000000000000000E+000
  0.000000000000000E+000
  0.000000000000000E+000
  0.000000000000000E+000
  0.000000000000000E+000
  0.000000000000000E+000
  0.000000000000000E+000
  0.000000000000000E+000
  0.000000000000000E+000
  0.000000000000000E+000
  0.000000000000000E+000
  0.000000000000000E+000
  0.000000000000000E+000
  0.000000000000000E+000
  0.000000000000000E+000
  0.000000000000000E+000
  0.000000000000000E+000
  0.000000000000000E+000
  0.000000000000000E+000
  0.000000000000000E+000
  0.000000000000000E+000
  0.000000000000000E+000
  0.000000000000000E+000
  0.000000000000000E+000
  0.000000000000000E+000
  0.000000000000000E+000
  0.000000000000000E+000
  0.000000000000000E+000
  0.000000000000000E+000
  0.000000000000000E+000
  0.000000000000000E+000
  0.000000000000000E+000
  0.000000000000000E+000
  0.000000000000000E+000
  0.000000000000000E+000
  0.000000000000000E+000
  0.000000000000000E+000
  0.000000000000000E+000
  0.000000000000000E+000
  0.000000000000000E+000
  0.000000000000000E+000
  0.000000000000000E+000
  0.000000000000000E+000
  0.000000000000000E+000
  0.000000000000000E+000
  0.000000000000000E+000
  0.000000000000000E+000
  0.000000000000000E+000
  0.000000000000000E+000
  0.000000000000000E+000
  0.000000000000000E+000
  0.000000000000000E+000
  0.000000000000000E+000
  0.000000000000000E+000
  0.000000000000000E+000
  0.000000000000000E+000
  0.000000000000000E+000
  0.000000000000000E+000
  0.000000000000000E+000
  0.000000000000000E+000
  0.000000000000000E+000
  0.000000000000000E+000
  0.000000000000000E+000
  0.000000000000000E+000
  0.000000000000000E+000
  0.000000000000000E+000
  0.000000000000000E+000
  0.000000000000000E+000
  0.000000000000000E+000
  0.000000000000000E+000
  0.000000000000000E+000
  0.000000000000000E+000
  0.000000000000000E+000
  0.000000000000000E+000
  0.000000000000000E+000
  0.000000000000000E+000
  0.000000000000000E+000
  0.000000000000000E+000
  0.000000000000000E+000
  0.000000000000000E+000
  0.000000000000000E+000
  0.000000000000000E+000
  0.000000000000000E+000
  0.000000000000000E+000
  0.000000000000000E+000
  0.000000000000000E+000
  0.000000000000000E+000
  0.000000000000000E+000
  0.000000000000000E+000
  0.000000000000000E+000
  0.000000000000000E+000
  0.000000000000000E+000
  0.000000000000000E+000
  0.000000000000000E+000
  0.000000000000000E+000
  0.000000000000000E+000
  0.000000000000000E+000
  0.000000000000000E+000
  0.000000000000000E+000
  0.000000000000000E+000
  0.000000000000000E+000
  0.000000000000000E+000
  0.000000000000000E+000
  0.000000000000000E+000
  0.000000000000000E+000
  0.000000000000000E+000
  0.000000000000000E+000
  0.000000000000000E+000
  0.000000000000000E+000
  0.000000000000000E+000
  0.000000000000000E+000
  0.000000000000000E+000
  0.000000000000000E+000
  0.000000000000000E+000
  0.000000000000000E+000
  0.000000000000000E+000
  0.000000000000000E+000
  0.000000000000000E+000
  0.000000000000000E+000
  0.000000000000000E+000
  0.000000000000000E+000
  0.000000000000000E+000
  0.000000000000000E+000
  0.000000000000000E+000
  0.000000000000000E+000
  0.000000000000000E+000
  0.000000000000000E+000
  0.000000000000000E+000
  0.000000000000000E+000
  0.000000000000000E+000
  0.000000000000000E+000
  0.000000000000000E+000
  0.000000000000000E+000
  0.000000000000000E+000
  0.000000000000000E+000
  0.000000000000000E+000
  0.000000000000000E+000
  0.000000000000000E+000
  0.000000000000000E+000
  0.000000000000000E+000
  0.000000000000000E+000
  0.000000000000000E+000
  0.000000000000000E+000
  0.000000000000000E+000
  0.000000000000000E+000
  0.000000000000000E+000
  0.000000000000000E+000
  0.000000000000000E+000
  0.000000000000000E+000
  0.000000000000000E+000
  0.000000000000000E+000
  0.000000000000000E+000
  0.000000000000000E+000
  0.000000000000000E+000
  0.000000000000000E+000
  0.000000000000000E+000
  0.000000000000000E+000
  0.000000000000000E+000
  0.000000000000000E+000
  0.000000000000000E+000
  0.000000000000000E+000
  0.000000000000000E+000
  0.000000000000000E+000
  0.000000000000000E+000
  0.000000000000000E+000
  0.000000000000000E+000
  0.000000000000000E+000
  0.000000000000000E+000
  0.000000000000000E+000
  0.000000000000000E+000
  0.000000000000000E+000
  0.000000000000000E+000
  0.000000000000000E+000
  0.000000000000000E+000
  0.000000000000000E+000
  0.000000000000000E+000
  0.000000000000000E+000
  0.000000000000000E+000
  0.000000000000000E+000
  0.000000000000000E+000
  0.000000000000000E+000
  0.000000000000000E+000
  0.000000000000000E+000
  0.000000000000000E+000
  0.000000000000000E+000
  0.000000000000000E+000
  0.000000000000000E+000
  0.000000000000000E+000
  0.000000000000000E+000
  0.000000000000000E+000
  0.000000000000000E+000
  0.000000000000000E+000
  0.000000000000000E+000
  0.000000000000000E+000
  0.000000000000000E+000
  0.000000000000000E+000
  0.000000000000000E+000
  0.000000000000000E+000
  0.000000000000000E+000
  0.000000000000000E+000
  0.000000000000000E+000
  0.000000000000000E+000
  0.000000000000000E+000
  0.000000000000000E+000
  0.000000000000000E+000
  0.000000000000000E+000
  0.000000000000000E+000
  0.000000000000000E+000
  0.000000000000000E+000
  0.000000000000000E+000
  0.000000000000000E+000
  0.000000000000000E+000
  0.000000000000000E+000
  0.000000000000000E+000
  0.000000000000000E+000
  0.000000000000000E+000
  0.000000000000000E+000
  0.000000000000000E+000
  0.000000000000000E+000
  0.000000000000000E+000
  0.000000000000000E+000
  0.000000000000000E+000
  0.000000000000000E+000
  0.000000000000000E+000
  0.000000000000000E+000
  0.000000000000000E+000
  0.000000000000000E+000
  0.000000000000000E+000
  0.000000000000000E+000
SCALARS elementIsPlast double 
LOOKUP_TABLE default
  0.000000000000000E+000
  0.000000000000000E+000
  0.000000000000000E+000
  0.000000000000000E+000
  0.000000000000000E+000
  0.000000000000000E+000
  0.000000000000000E+000
  0.000000000000000E+000
  0.000000000000000E+000
  0.000000000000000E+000
  0.000000000000000E+000
  0.000000000000000E+000
  0.000000000000000E+000
  0.000000000000000E+000
  0.000000000000000E+000
  0.000000000000000E+000
  0.000000000000000E+000
  0.000000000000000E+000
  0.000000000000000E+000
  0.000000000000000E+000
  0.000000000000000E+000
  0.000000000000000E+000
  0.000000000000000E+000
  0.000000000000000E+000
  0.000000000000000E+000
  0.000000000000000E+000
  0.000000000000000E+000
  0.000000000000000E+000
  0.000000000000000E+000
  0.000000000000000E+000
  0.000000000000000E+000
  0.000000000000000E+000
  0.000000000000000E+000
  0.000000000000000E+000
  0.000000000000000E+000
  0.000000000000000E+000
  0.000000000000000E+000
  0.000000000000000E+000
  0.000000000000000E+000
  0.000000000000000E+000
  0.000000000000000E+000
  0.000000000000000E+000
  0.000000000000000E+000
  0.000000000000000E+000
  0.000000000000000E+000
  0.000000000000000E+000
  0.000000000000000E+000
  0.000000000000000E+000
  0.000000000000000E+000
  0.000000000000000E+000
  0.000000000000000E+000
  0.000000000000000E+000
  0.000000000000000E+000
  0.000000000000000E+000
  0.000000000000000E+000
  0.000000000000000E+000
  0.000000000000000E+000
  0.000000000000000E+000
  0.000000000000000E+000
  0.000000000000000E+000
  0.000000000000000E+000
  0.000000000000000E+000
  0.000000000000000E+000
  0.000000000000000E+000
  0.000000000000000E+000
  0.000000000000000E+000
  0.000000000000000E+000
  0.000000000000000E+000
  0.000000000000000E+000
  0.000000000000000E+000
  0.000000000000000E+000
  0.000000000000000E+000
  0.000000000000000E+000
  0.000000000000000E+000
  0.000000000000000E+000
  0.000000000000000E+000
  0.000000000000000E+000
  0.000000000000000E+000
  0.000000000000000E+000
  0.000000000000000E+000
  0.000000000000000E+000
  0.000000000000000E+000
  0.000000000000000E+000
  0.000000000000000E+000
  0.000000000000000E+000
  0.000000000000000E+000
  0.000000000000000E+000
  0.000000000000000E+000
  0.000000000000000E+000
  0.000000000000000E+000
  0.000000000000000E+000
  0.000000000000000E+000
  0.000000000000000E+000
  0.000000000000000E+000
  0.000000000000000E+000
  0.000000000000000E+000
  0.000000000000000E+000
  0.000000000000000E+000
  0.000000000000000E+000
  0.000000000000000E+000
  0.000000000000000E+000
  0.000000000000000E+000
  0.000000000000000E+000
  0.000000000000000E+000
  0.000000000000000E+000
  0.000000000000000E+000
  0.000000000000000E+000
  0.000000000000000E+000
  0.000000000000000E+000
  0.000000000000000E+000
  0.000000000000000E+000
  0.000000000000000E+000
  0.000000000000000E+000
  0.000000000000000E+000
  0.000000000000000E+000
  0.000000000000000E+000
  0.000000000000000E+000
  0.000000000000000E+000
  0.000000000000000E+000
  0.000000000000000E+000
  0.000000000000000E+000
  0.000000000000000E+000
  0.000000000000000E+000
  0.000000000000000E+000
  0.000000000000000E+000
  0.000000000000000E+000
  0.000000000000000E+000
  0.000000000000000E+000
  0.000000000000000E+000
  0.000000000000000E+000
  0.000000000000000E+000
  0.000000000000000E+000
  0.000000000000000E+000
  0.000000000000000E+000
  0.000000000000000E+000
  0.000000000000000E+000
  0.000000000000000E+000
  0.000000000000000E+000
  0.000000000000000E+000
  0.000000000000000E+000
  0.000000000000000E+000
  0.000000000000000E+000
  0.000000000000000E+000
  0.000000000000000E+000
  0.000000000000000E+000
  0.000000000000000E+000
  0.000000000000000E+000
  0.000000000000000E+000
  0.000000000000000E+000
  0.000000000000000E+000
  0.000000000000000E+000
  0.000000000000000E+000
  0.000000000000000E+000
  0.000000000000000E+000
  0.000000000000000E+000
  0.000000000000000E+000
  0.000000000000000E+000
  0.000000000000000E+000
  0.000000000000000E+000
  0.000000000000000E+000
  0.000000000000000E+000
  0.000000000000000E+000
  0.000000000000000E+000
  0.000000000000000E+000
  0.000000000000000E+000
  0.000000000000000E+000
  0.000000000000000E+000
  0.000000000000000E+000
  0.000000000000000E+000
  0.000000000000000E+000
  0.000000000000000E+000
  0.000000000000000E+000
  0.000000000000000E+000
  0.000000000000000E+000
  0.000000000000000E+000
  0.000000000000000E+000
  0.000000000000000E+000
  0.000000000000000E+000
  0.000000000000000E+000
  0.000000000000000E+000
  0.000000000000000E+000
  0.000000000000000E+000
  0.000000000000000E+000
  0.000000000000000E+000
  0.000000000000000E+000
  0.000000000000000E+000
  0.000000000000000E+000
  0.000000000000000E+000
  0.000000000000000E+000
  0.000000000000000E+000
  0.000000000000000E+000
  0.000000000000000E+000
  0.000000000000000E+000
  0.000000000000000E+000
  0.000000000000000E+000
  0.000000000000000E+000
  0.000000000000000E+000
  0.000000000000000E+000
  0.000000000000000E+000
  0.000000000000000E+000
  0.000000000000000E+000
  0.000000000000000E+000
  0.000000000000000E+000
  0.000000000000000E+000
  0.000000000000000E+000
  0.000000000000000E+000
  0.000000000000000E+000
  0.000000000000000E+000
  0.000000000000000E+000
  0.000000000000000E+000
  0.000000000000000E+000
  0.000000000000000E+000
  0.000000000000000E+000
  0.000000000000000E+000
  0.000000000000000E+000
  0.000000000000000E+000
  0.000000000000000E+000
  0.000000000000000E+000
  0.000000000000000E+000
  0.000000000000000E+000
  0.000000000000000E+000
  0.000000000000000E+000
  0.000000000000000E+000
  0.000000000000000E+000
  0.000000000000000E+000
  0.000000000000000E+000
  0.000000000000000E+000
  0.000000000000000E+000
  0.000000000000000E+000
  0.000000000000000E+000
  0.000000000000000E+000
  0.000000000000000E+000
  0.000000000000000E+000
  0.000000000000000E+000
  0.000000000000000E+000
  0.000000000000000E+000
  0.000000000000000E+000
  0.000000000000000E+000
  0.000000000000000E+000
  0.000000000000000E+000
  0.000000000000000E+000
  0.000000000000000E+000
  0.000000000000000E+000
  0.000000000000000E+000
  0.000000000000000E+000
  0.000000000000000E+000
  0.000000000000000E+000
  0.000000000000000E+000
  0.000000000000000E+000
  0.000000000000000E+000
  0.000000000000000E+000
  0.000000000000000E+000
  0.000000000000000E+000
  0.000000000000000E+000
  0.000000000000000E+000
  0.000000000000000E+000
  0.000000000000000E+000
  0.000000000000000E+000
  0.000000000000000E+000
  0.000000000000000E+000
  0.000000000000000E+000
  0.000000000000000E+000
  0.000000000000000E+000
  0.000000000000000E+000
  0.000000000000000E+000
  0.000000000000000E+000
  0.000000000000000E+000
  0.000000000000000E+000
  0.000000000000000E+000
  0.000000000000000E+000
  0.000000000000000E+000
  0.000000000000000E+000
  0.000000000000000E+000
  0.000000000000000E+000
  0.000000000000000E+000
  0.000000000000000E+000
  0.000000000000000E+000
  0.000000000000000E+000
  0.000000000000000E+000
  0.000000000000000E+000
  0.000000000000000E+000
  0.000000000000000E+000
  0.000000000000000E+000
  0.000000000000000E+000
  0.000000000000000E+000
  0.000000000000000E+000
  0.000000000000000E+000
  0.000000000000000E+000
  0.000000000000000E+000
  0.000000000000000E+000
  0.000000000000000E+000
  0.000000000000000E+000
  0.000000000000000E+000
  0.000000000000000E+000
  0.000000000000000E+000
  0.000000000000000E+000
  0.000000000000000E+000
  0.000000000000000E+000
  0.000000000000000E+000
  0.000000000000000E+000
  0.000000000000000E+000
  0.000000000000000E+000
  0.000000000000000E+000
  0.000000000000000E+000
  0.000000000000000E+000
  0.000000000000000E+000
  0.000000000000000E+000
  0.000000000000000E+000
  0.000000000000000E+000
  0.000000000000000E+000
  0.000000000000000E+000
  0.000000000000000E+000
  0.000000000000000E+000
  0.000000000000000E+000
  0.000000000000000E+000
  0.000000000000000E+000
  0.000000000000000E+000
  0.000000000000000E+000
  0.000000000000000E+000
  0.000000000000000E+000
  0.000000000000000E+000
  0.000000000000000E+000
  0.000000000000000E+000
  0.000000000000000E+000
  0.000000000000000E+000
  0.000000000000000E+000
  0.000000000000000E+000
  0.000000000000000E+000
  0.000000000000000E+000
  0.000000000000000E+000
  0.000000000000000E+000
  0.000000000000000E+000
  0.000000000000000E+000
  0.000000000000000E+000
  0.000000000000000E+000
  0.000000000000000E+000
  0.000000000000000E+000
  0.000000000000000E+000
  0.000000000000000E+000
  0.000000000000000E+000
  0.000000000000000E+000
  0.000000000000000E+000
  0.000000000000000E+000
  0.000000000000000E+000
  0.000000000000000E+000
  0.000000000000000E+000
  0.000000000000000E+000
  0.000000000000000E+000
  0.000000000000000E+000
  0.000000000000000E+000
  0.000000000000000E+000
  0.000000000000000E+000
  0.000000000000000E+000
  0.000000000000000E+000
  0.000000000000000E+000
  0.000000000000000E+000
  0.000000000000000E+000
  0.000000000000000E+000
  0.000000000000000E+000
  0.000000000000000E+000
  0.000000000000000E+000
  0.000000000000000E+000
  0.000000000000000E+000
  0.000000000000000E+000
  0.000000000000000E+000
  0.000000000000000E+000
  0.000000000000000E+000
  0.000000000000000E+000
  0.000000000000000E+000
  0.000000000000000E+000
  0.000000000000000E+000
  0.000000000000000E+000
  0.000000000000000E+000
  0.000000000000000E+000
  0.000000000000000E+000
  0.000000000000000E+000
  0.000000000000000E+000
  0.000000000000000E+000
  0.000000000000000E+000
  0.000000000000000E+000
  0.000000000000000E+000
  0.000000000000000E+000
  0.000000000000000E+000
  0.000000000000000E+000
  0.000000000000000E+000
  0.000000000000000E+000
  0.000000000000000E+000
  0.000000000000000E+000
  0.000000000000000E+000
  0.000000000000000E+000
  0.000000000000000E+000
  0.000000000000000E+000
  0.000000000000000E+000
  0.000000000000000E+000
  0.000000000000000E+000
  0.000000000000000E+000
  0.000000000000000E+000
  0.000000000000000E+000
  0.000000000000000E+000
  0.000000000000000E+000
  0.000000000000000E+000
  0.000000000000000E+000
  0.000000000000000E+000
  0.000000000000000E+000
  0.000000000000000E+000
  0.000000000000000E+000
  0.000000000000000E+000
  0.000000000000000E+000
  0.000000000000000E+000
  0.000000000000000E+000
  0.000000000000000E+000
  0.000000000000000E+000
  0.000000000000000E+000
  0.000000000000000E+000
  0.000000000000000E+000
  0.000000000000000E+000
  0.000000000000000E+000
  0.000000000000000E+000
  0.000000000000000E+000
  0.000000000000000E+000
  0.000000000000000E+000
  0.000000000000000E+000
  0.000000000000000E+000
  0.000000000000000E+000
  0.000000000000000E+000
  0.000000000000000E+000
  0.000000000000000E+000
  0.000000000000000E+000
  0.000000000000000E+000
  0.000000000000000E+000
  0.000000000000000E+000
  0.000000000000000E+000
  0.000000000000000E+000
  0.000000000000000E+000
  0.000000000000000E+000
  0.000000000000000E+000
  0.000000000000000E+000
  0.000000000000000E+000
  0.000000000000000E+000
  0.000000000000000E+000
  0.000000000000000E+000
  0.000000000000000E+000
  0.000000000000000E+000
  0.000000000000000E+000
  0.000000000000000E+000
  0.000000000000000E+000
  0.000000000000000E+000
  0.000000000000000E+000
  0.000000000000000E+000
  0.000000000000000E+000
SCALARS poroL double 
LOOKUP_TABLE default
  0.155917286166952     
  0.155914842968349     
  0.155912540877304     
  0.155910375080441     
  0.155908340378071     
  0.155906431291925     
  0.155904642169072     
  0.155902967279986     
  0.155901400909024     
  0.155899937435812     
  0.155898571406276     
  0.155897297592202     
  0.155896111038343     
  0.155895007096238     
  0.155893981443960     
  0.155916868124251     
  0.155914435010843     
  0.155912143175221     
  0.155909987703678     
  0.155907963299074     
  0.155906064390629     
  0.155904285239562     
  0.155902620038606     
  0.155901063003673     
  0.155899608456268     
  0.155898250895398     
  0.155896985057916     
  0.155895805966339     
  0.155894708963301     
  0.155893689731874     
  0.155916032683301     
  0.155913619827769     
  0.155911348588485     
  0.155909213848990     
  0.155907210115520     
  0.155905331630872     
  0.155903572483444     
  0.155901926709553     
  0.155900388387459     
  0.155898951721755     
  0.155897611117002     
  0.155896361239610     
  0.155895197067069     
  0.155894113923690     
  0.155893107502083     
  0.155914781134722     
  0.155912398886697     
  0.155910158757237     
  0.155908055320574     
  0.155906082783762     
  0.155904235106531     
  0.155902506115276     
  0.155900889609450     
  0.155899379458958     
  0.155897969691398     
  0.155896654568170     
  0.155895428648593     
  0.155894286841226     
  0.155893224441566     
  0.155892237155342     
  0.155913115419073     
  0.155910774398505     
  0.155908576155134     
  0.155906514841233     
  0.155904584257173     
  0.155902777979015     
  0.155901089478826     
  0.155899512236218     
  0.155898039839951     
  0.155896666078714     
  0.155895385020324     
  0.155894191078684     
  0.155893079067824     
  0.155892044242259     
  0.155891082322843     
  0.155911038133334     
  0.155908749329657     
  0.155906604106212     
  0.155904596072764     
  0.155902718509166     
  0.155900964502226     
  0.155899327073466     
  0.155897799296603     
  0.155896374403944     
  0.155895045881140     
  0.155893807549883     
  0.155892653638160     
  0.155891578837583     
  0.155890578347134     
  0.155889647902453     
  0.155908552541159     
  0.155906327420010     
  0.155904246808599     
  0.155902303644115     
  0.155900490564590     
  0.155898800056244     
  0.155897224589476     
  0.155895756742718     
  0.155894389313826     
  0.155893115418894     
  0.155891928578567     
  0.155890822791825     
  0.155889792597064     
  0.155888833119967     
  0.155887940107271     
  0.155905662588376     
  0.155903513207486     
  0.155901509366190     
  0.155899643188202     
  0.155897906540119     
  0.155896291190088     
  0.155894788952353     
  0.155893391817450     
  0.155892092068279     
  0.155890882382620     
  0.155889755922734     
  0.155888706412608     
  0.155887728203084     
  0.155886816324588     
  0.155885966526612     
  0.155902372925666     
  0.155900312061312     
  0.155898397829760     
  0.155896621388532     
  0.155894973694453     
  0.155893445673996     
  0.155892028376180     
  0.155890713108422     
  0.155889491556357     
  0.155888355889013     
  0.155887298850817     
  0.155886313841778     
  0.155885394986671     
  0.155884537193354     
  0.155883736199394     
  0.155898688940924     
  0.155896730226036     
  0.155894919249359     
  0.155893246037116     
  0.155891700489356     
  0.155890272561784     
  0.155888952426109     
  0.155887730610105     
  0.155886598119366     
  0.155885546543225     
  0.155884568147488     
  0.155883655956364     
  0.155882803825330     
  0.155882006505620     
  0.155881259699703     
  0.155894616804332     
  0.155892774879028     
  0.155891081740313     
  0.155889526105515     
  0.155888096662858     
  0.155886782263972     
  0.155885572089999     
  0.155884455793423     
  0.155883423618799     
  0.155882466506335     
  0.155881576182529     
  0.155880745241750     
  0.155879967221779     
  0.155879236674844     
  0.155878549233892     
  0.155890163529807     
  0.155888454204725     
  0.155886894565683     
  0.155885471831367     
  0.155884173316288     
  0.155882986632573     
  0.155881899859218     
  0.155880901681979     
  0.155879981508631     
  0.155879129565488     
  0.155878336981572     
  0.155877595866422     
  0.155876899386369     
  0.155876241842121     
  0.155875618747971     
  0.155885337057038     
  0.155883777489509     
  0.155882368238671     
  0.155881094823324     
  0.155879943017328     
  0.155878899058757     
  0.155877949818662     
  0.155877082933730     
  0.155876286909597     
  0.155875551203360     
  0.155874866294706     
  0.155874223754625     
  0.155873616319141     
  0.155873037972788     
  0.155872484043083     
  0.155880146358802     
  0.155878755241773     
  0.155877514649310     
  0.155876408188274     
  0.155875419922078     
  0.155874534585102     
  0.155873737746159     
  0.155873015926575     
  0.155872356682310     
  0.155871748662403     
  0.155871181657385     
  0.155870646650902     
  0.155870135885651     
  0.155869642951076     
  0.155869162895517     
  0.155874601578606     
  0.155873399342489     
  0.155872347220913     
  0.155871426685941     
  0.155870619920253     
  0.155869910034968     
  0.155869281221706     
  0.155868718845975     
  0.155868209495007     
  0.155867740997642     
  0.155867302435991     
  0.155866884168155     
  0.155866477878317     
  0.155866076665498     
  0.155865675175734     
  0.155868714203712     
  0.155867723232584     
  0.155866881103405     
  0.155866166918029     
  0.155865560809594     
  0.155865044162921     
  0.155864599747529     
  0.155864211772294     
  0.155863865880362     
  0.155863549109663     
  0.155863249847590     
  0.155862957807645     
  0.155862664051707     
  0.155862361074543     
  0.155862042958203     
  0.155862497278375     
  0.155861742144824     
  0.155861133413369     
  0.155860647562251     
  0.155860262508500     
  0.155859957832266     
  0.155859714880917     
  0.155859516765126     
  0.155859348274019     
  0.155859195746440     
  0.155859046939608     
  0.155858890935086     
  0.155858718115804     
  0.155858520238082     
  0.155858290610167     
  0.155855965661542     
  0.155855473390277     
  0.155855123535022     
  0.155854889666784     
  0.155854747320721     
  0.155854674229178     
  0.155854650383272     
  0.155854657941316     
  0.155854681025062     
  0.155854705458660     
  0.155854718510008     
  0.155854708691172     
  0.155854665665379     
  0.155854580294352     
  0.155854444842670     
  0.155849136332614     
  0.155848936713821     
  0.155848873503949     
  0.155848917029293     
  0.155849040273403     
  0.155849219127982     
  0.155849432390915     
  0.155849661542580     
  0.155849890365215     
  0.155850104487698     
  0.155850290941522     
  0.155850437807052     
  0.155850534015724     
  0.155850569355179     
  0.155850534701087     
  0.155842028749026     
  0.155842154741608     
  0.155842408508752     
  0.155842756698722     
  0.155843169561360     
  0.155843621229370     
  0.155844089615780     
  0.155844555987052     
  0.155845004318683     
  0.155845420557828     
  0.155845791913965     
  0.155846106284582     
  0.155846351904321     
  0.155846517282662     
  0.155846591464966     
  0.155834665262007     
  0.155835153560135     
  0.155835757569582     
  0.155836439661348     
  0.155837167147724     
  0.155837912602673     
  0.155838653586273     
  0.155839371895961     
  0.155840052527604     
  0.155840682534209     
  0.155841249945762     
  0.155841742886425     
  0.155842149003171     
  0.155842455297914     
  0.155842648418265     
  0.155827071606199     
  0.155827963499934     
  0.155828954495629     
  0.155830001810762     
  0.155831069595653     
  0.155832129273109     
  0.155833158937781     
  0.155834142080209     
  0.155835065958714     
  0.155835919895653     
  0.155836693699145     
  0.155837376360170     
  0.155837955164641     
  0.155838415354309     
  0.155838740440989     
  0.155819277503345     
  0.155820620265102     
  0.155822039303723     
  0.155823485364020     
  0.155824919236940     
  0.155826311998749     
  0.155827643752090     
  0.155828901459256     
  0.155830076446039     
  0.155831161959077     
  0.155832150963017     
  0.155833034290853     
  0.155833799288146     
  0.155834429178891     
  0.155834903360499     
  0.155811317481182     
  0.155813166693048     
  0.155815060434105     
  0.155816940986282     
  0.155818765811985     
  0.155820507261323     
  0.155822149911253     
  0.155823686862546     
  0.155825116019212     
  0.155826436787964     
  0.155827647210257     
  0.155828741429049     
  0.155829707634646     
  0.155830526828986     
  0.155831172982594     
  0.155803232150679     
  0.155805655755394     
  0.155808078402474     
  0.155810431037662     
  0.155812668703493     
  0.155814768401227     
  0.155816723347438     
  0.155818536632382     
  0.155820215979700     
  0.155821769754460     
  0.155823203613956     
  0.155824517286606     
  0.155825701280049     
  0.155826734504200     
  0.155827583673421     
  0.155795070603873     
  0.155798156173466     
  0.155801172170860     
  0.155804034522819     
  0.155806699693633     
  0.155809156566988     
  0.155811413894678     
  0.155813489913640     
  0.155815405777556     
  0.155817181811784     
  0.155818834527654     
  0.155820372627734     
  0.155821792218252     
  0.155823070995447     
  0.155824166298498     
  0.155786895599285     
  0.155790764322796     
  0.155794450733805     
  0.155797854191397     
  0.155800945453979     
  0.155803740487658     
  0.155806274275180     
  0.155808585510575     
  0.155810711845031     
  0.155812688007723     
  0.155814544455692     
  0.155816304835782     
  0.155817976561997     
  0.155819541836899     
  0.155820944685171     
  0.155778799340952     
  0.155783631760062     
  0.155788074740130     
  0.155792024334145     
  0.155795506099471     
  0.155798593779068     
  0.155801357643058     
  0.155803860244554     
  0.155806156734983     
  0.155808296877300     
  0.155810326970496     
  0.155812290230299     
  0.155814225016951     
  0.155816124938651     
  0.155817930655248     
  0.155770951946042     
  0.155777045668303     
  0.155782289498206     
  0.155786701621734     
  0.155790487023159     
  0.155793788345734     
  0.155796713481815     
  0.155799346889986     
  0.155801758819409     
  0.155804011859195     
  0.155806166541219     
  0.155808287520897     
  0.155810448914826     
  0.155812754270668     
  0.155815098588926     
  0.155763966598200     
  0.155771613230046     
  0.155777360705302     
  0.155782038766334     
  0.155785980798898     
  0.155789384559674     
  0.155792382291013     
  0.155795071961162     
  0.155797532681482     
  0.155799834504629     
  0.155802046662278     
  0.155804247463562     
  0.155806542677185     
  0.155809103736563     
  0.155812425990398     
