# vtk DataFile Version 3.0
vtk output
ASCII
DATASET UNSTRUCTURED_GRID
POINTS       496 double 
  0.00000000E+00  3.00000000E+02  0.00000000E+00
  0.00000000E+00  2.80000000E+02  0.00000000E+00
  0.00000000E+00  2.60000000E+02  0.00000000E+00
  0.00000000E+00  2.40000000E+02  0.00000000E+00
  0.00000000E+00  2.20000000E+02  0.00000000E+00
  0.00000000E+00  2.00000000E+02  0.00000000E+00
  0.00000000E+00  1.80000000E+02  0.00000000E+00
  0.00000000E+00  1.60000000E+02  0.00000000E+00
  0.00000000E+00  1.40000000E+02  0.00000000E+00
  0.00000000E+00  1.20000000E+02  0.00000000E+00
  0.00000000E+00  1.00000000E+02  0.00000000E+00
  0.00000000E+00  8.00000000E+01  0.00000000E+00
  0.00000000E+00  6.00000000E+01  0.00000000E+00
  0.00000000E+00  4.00000000E+01  0.00000000E+00
  0.00000000E+00  2.00000000E+01  0.00000000E+00
  0.00000000E+00  4.99600361E-14  0.00000000E+00
  2.00000000E+01  3.00000000E+02  0.00000000E+00
  2.00000000E+01  2.80000000E+02  0.00000000E+00
  2.00000000E+01  2.60000000E+02  0.00000000E+00
  2.00000000E+01  2.40000000E+02  0.00000000E+00
  2.00000000E+01  2.20000000E+02  0.00000000E+00
  2.00000000E+01  2.00000000E+02  0.00000000E+00
  2.00000000E+01  1.80000000E+02  0.00000000E+00
  2.00000000E+01  1.60000000E+02  0.00000000E+00
  2.00000000E+01  1.40000000E+02  0.00000000E+00
  2.00000000E+01  1.20000000E+02  0.00000000E+00
  2.00000000E+01  1.00000000E+02  0.00000000E+00
  2.00000000E+01  8.00000000E+01  0.00000000E+00
  2.00000000E+01  6.00000000E+01  0.00000000E+00
  2.00000000E+01  4.00000000E+01  0.00000000E+00
  2.00000000E+01  2.00000000E+01  0.00000000E+00
  2.00000000E+01  4.99600361E-14  0.00000000E+00
  4.00000000E+01  3.00000000E+02  0.00000000E+00
  4.00000000E+01  2.80000000E+02  0.00000000E+00
  4.00000000E+01  2.60000000E+02  0.00000000E+00
  4.00000000E+01  2.40000000E+02  0.00000000E+00
  4.00000000E+01  2.20000000E+02  0.00000000E+00
  4.00000000E+01  2.00000000E+02  0.00000000E+00
  4.00000000E+01  1.80000000E+02  0.00000000E+00
  4.00000000E+01  1.60000000E+02  0.00000000E+00
  4.00000000E+01  1.40000000E+02  0.00000000E+00
  4.00000000E+01  1.20000000E+02  0.00000000E+00
  4.00000000E+01  1.00000000E+02  0.00000000E+00
  4.00000000E+01  8.00000000E+01  0.00000000E+00
  4.00000000E+01  6.00000000E+01  0.00000000E+00
  4.00000000E+01  4.00000000E+01  0.00000000E+00
  4.00000000E+01  2.00000000E+01  0.00000000E+00
  4.00000000E+01  4.99600361E-14  0.00000000E+00
  6.00000000E+01  3.00000000E+02  0.00000000E+00
  6.00000000E+01  2.80000000E+02  0.00000000E+00
  6.00000000E+01  2.60000000E+02  0.00000000E+00
  6.00000000E+01  2.40000000E+02  0.00000000E+00
  6.00000000E+01  2.20000000E+02  0.00000000E+00
  6.00000000E+01  2.00000000E+02  0.00000000E+00
  6.00000000E+01  1.80000000E+02  0.00000000E+00
  6.00000000E+01  1.60000000E+02  0.00000000E+00
  6.00000000E+01  1.40000000E+02  0.00000000E+00
  6.00000000E+01  1.20000000E+02  0.00000000E+00
  6.00000000E+01  1.00000000E+02  0.00000000E+00
  6.00000000E+01  8.00000000E+01  0.00000000E+00
  6.00000000E+01  6.00000000E+01  0.00000000E+00
  6.00000000E+01  4.00000000E+01  0.00000000E+00
  6.00000000E+01  2.00000000E+01  0.00000000E+00
  6.00000000E+01  4.99600361E-14  0.00000000E+00
  8.00000000E+01  3.00000000E+02  0.00000000E+00
  8.00000000E+01  2.80000000E+02  0.00000000E+00
  8.00000000E+01  2.60000000E+02  0.00000000E+00
  8.00000000E+01  2.40000000E+02  0.00000000E+00
  8.00000000E+01  2.20000000E+02  0.00000000E+00
  8.00000000E+01  2.00000000E+02  0.00000000E+00
  8.00000000E+01  1.80000000E+02  0.00000000E+00
  8.00000000E+01  1.60000000E+02  0.00000000E+00
  8.00000000E+01  1.40000000E+02  0.00000000E+00
  8.00000000E+01  1.20000000E+02  0.00000000E+00
  8.00000000E+01  1.00000000E+02  0.00000000E+00
  8.00000000E+01  8.00000000E+01  0.00000000E+00
  8.00000000E+01  6.00000000E+01  0.00000000E+00
  8.00000000E+01  4.00000000E+01  0.00000000E+00
  8.00000000E+01  2.00000000E+01  0.00000000E+00
  8.00000000E+01  4.99600361E-14  0.00000000E+00
  1.00000000E+02  3.00000000E+02  0.00000000E+00
  1.00000000E+02  2.80000000E+02  0.00000000E+00
  1.00000000E+02  2.60000000E+02  0.00000000E+00
  1.00000000E+02  2.40000000E+02  0.00000000E+00
  1.00000000E+02  2.20000000E+02  0.00000000E+00
  1.00000000E+02  2.00000000E+02  0.00000000E+00
  1.00000000E+02  1.80000000E+02  0.00000000E+00
  1.00000000E+02  1.60000000E+02  0.00000000E+00
  1.00000000E+02  1.40000000E+02  0.00000000E+00
  1.00000000E+02  1.20000000E+02  0.00000000E+00
  1.00000000E+02  1.00000000E+02  0.00000000E+00
  1.00000000E+02  8.00000000E+01  0.00000000E+00
  1.00000000E+02  6.00000000E+01  0.00000000E+00
  1.00000000E+02  4.00000000E+01  0.00000000E+00
  1.00000000E+02  2.00000000E+01  0.00000000E+00
  1.00000000E+02  4.99600361E-14  0.00000000E+00
  1.20000000E+02  3.00000000E+02  0.00000000E+00
  1.20000000E+02  2.80000000E+02  0.00000000E+00
  1.20000000E+02  2.60000000E+02  0.00000000E+00
  1.20000000E+02  2.40000000E+02  0.00000000E+00
  1.20000000E+02  2.20000000E+02  0.00000000E+00
  1.20000000E+02  2.00000000E+02  0.00000000E+00
  1.20000000E+02  1.80000000E+02  0.00000000E+00
  1.20000000E+02  1.60000000E+02  0.00000000E+00
  1.20000000E+02  1.40000000E+02  0.00000000E+00
  1.20000000E+02  1.20000000E+02  0.00000000E+00
  1.20000000E+02  1.00000000E+02  0.00000000E+00
  1.20000000E+02  8.00000000E+01  0.00000000E+00
  1.20000000E+02  6.00000000E+01  0.00000000E+00
  1.20000000E+02  4.00000000E+01  0.00000000E+00
  1.20000000E+02  2.00000000E+01  0.00000000E+00
  1.20000000E+02  4.99600361E-14  0.00000000E+00
  1.40000000E+02  3.00000000E+02  0.00000000E+00
  1.40000000E+02  2.80000000E+02  0.00000000E+00
  1.40000000E+02  2.60000000E+02  0.00000000E+00
  1.40000000E+02  2.40000000E+02  0.00000000E+00
  1.40000000E+02  2.20000000E+02  0.00000000E+00
  1.40000000E+02  2.00000000E+02  0.00000000E+00
  1.40000000E+02  1.80000000E+02  0.00000000E+00
  1.40000000E+02  1.60000000E+02  0.00000000E+00
  1.40000000E+02  1.40000000E+02  0.00000000E+00
  1.40000000E+02  1.20000000E+02  0.00000000E+00
  1.40000000E+02  1.00000000E+02  0.00000000E+00
  1.40000000E+02  8.00000000E+01  0.00000000E+00
  1.40000000E+02  6.00000000E+01  0.00000000E+00
  1.40000000E+02  4.00000000E+01  0.00000000E+00
  1.40000000E+02  2.00000000E+01  0.00000000E+00
  1.40000000E+02  4.99600361E-14  0.00000000E+00
  1.60000000E+02  3.00000000E+02  0.00000000E+00
  1.60000000E+02  2.80000000E+02  0.00000000E+00
  1.60000000E+02  2.60000000E+02  0.00000000E+00
  1.60000000E+02  2.40000000E+02  0.00000000E+00
  1.60000000E+02  2.20000000E+02  0.00000000E+00
  1.60000000E+02  2.00000000E+02  0.00000000E+00
  1.60000000E+02  1.80000000E+02  0.00000000E+00
  1.60000000E+02  1.60000000E+02  0.00000000E+00
  1.60000000E+02  1.40000000E+02  0.00000000E+00
  1.60000000E+02  1.20000000E+02  0.00000000E+00
  1.60000000E+02  1.00000000E+02  0.00000000E+00
  1.60000000E+02  8.00000000E+01  0.00000000E+00
  1.60000000E+02  6.00000000E+01  0.00000000E+00
  1.60000000E+02  4.00000000E+01  0.00000000E+00
  1.60000000E+02  2.00000000E+01  0.00000000E+00
  1.60000000E+02  4.99600361E-14  0.00000000E+00
  1.80000000E+02  3.00000000E+02  0.00000000E+00
  1.80000000E+02  2.80000000E+02  0.00000000E+00
  1.80000000E+02  2.60000000E+02  0.00000000E+00
  1.80000000E+02  2.40000000E+02  0.00000000E+00
  1.80000000E+02  2.20000000E+02  0.00000000E+00
  1.80000000E+02  2.00000000E+02  0.00000000E+00
  1.80000000E+02  1.80000000E+02  0.00000000E+00
  1.80000000E+02  1.60000000E+02  0.00000000E+00
  1.80000000E+02  1.40000000E+02  0.00000000E+00
  1.80000000E+02  1.20000000E+02  0.00000000E+00
  1.80000000E+02  1.00000000E+02  0.00000000E+00
  1.80000000E+02  8.00000000E+01  0.00000000E+00
  1.80000000E+02  6.00000000E+01  0.00000000E+00
  1.80000000E+02  4.00000000E+01  0.00000000E+00
  1.80000000E+02  2.00000000E+01  0.00000000E+00
  1.80000000E+02  4.99600361E-14  0.00000000E+00
  2.00000000E+02  3.00000000E+02  0.00000000E+00
  2.00000000E+02  2.80000000E+02  0.00000000E+00
  2.00000000E+02  2.60000000E+02  0.00000000E+00
  2.00000000E+02  2.40000000E+02  0.00000000E+00
  2.00000000E+02  2.20000000E+02  0.00000000E+00
  2.00000000E+02  2.00000000E+02  0.00000000E+00
  2.00000000E+02  1.80000000E+02  0.00000000E+00
  2.00000000E+02  1.60000000E+02  0.00000000E+00
  2.00000000E+02  1.40000000E+02  0.00000000E+00
  2.00000000E+02  1.20000000E+02  0.00000000E+00
  2.00000000E+02  1.00000000E+02  0.00000000E+00
  2.00000000E+02  8.00000000E+01  0.00000000E+00
  2.00000000E+02  6.00000000E+01  0.00000000E+00
  2.00000000E+02  4.00000000E+01  0.00000000E+00
  2.00000000E+02  2.00000000E+01  0.00000000E+00
  2.00000000E+02  4.99600361E-14  0.00000000E+00
  2.20000000E+02  3.00000000E+02  0.00000000E+00
  2.20000000E+02  2.80000000E+02  0.00000000E+00
  2.20000000E+02  2.60000000E+02  0.00000000E+00
  2.20000000E+02  2.40000000E+02  0.00000000E+00
  2.20000000E+02  2.20000000E+02  0.00000000E+00
  2.20000000E+02  2.00000000E+02  0.00000000E+00
  2.20000000E+02  1.80000000E+02  0.00000000E+00
  2.20000000E+02  1.60000000E+02  0.00000000E+00
  2.20000000E+02  1.40000000E+02  0.00000000E+00
  2.20000000E+02  1.20000000E+02  0.00000000E+00
  2.20000000E+02  1.00000000E+02  0.00000000E+00
  2.20000000E+02  8.00000000E+01  0.00000000E+00
  2.20000000E+02  6.00000000E+01  0.00000000E+00
  2.20000000E+02  4.00000000E+01  0.00000000E+00
  2.20000000E+02  2.00000000E+01  0.00000000E+00
  2.20000000E+02  4.99600361E-14  0.00000000E+00
  2.40000000E+02  3.00000000E+02  0.00000000E+00
  2.40000000E+02  2.80000000E+02  0.00000000E+00
  2.40000000E+02  2.60000000E+02  0.00000000E+00
  2.40000000E+02  2.40000000E+02  0.00000000E+00
  2.40000000E+02  2.20000000E+02  0.00000000E+00
  2.40000000E+02  2.00000000E+02  0.00000000E+00
  2.40000000E+02  1.80000000E+02  0.00000000E+00
  2.40000000E+02  1.60000000E+02  0.00000000E+00
  2.40000000E+02  1.40000000E+02  0.00000000E+00
  2.40000000E+02  1.20000000E+02  0.00000000E+00
  2.40000000E+02  1.00000000E+02  0.00000000E+00
  2.40000000E+02  8.00000000E+01  0.00000000E+00
  2.40000000E+02  6.00000000E+01  0.00000000E+00
  2.40000000E+02  4.00000000E+01  0.00000000E+00
  2.40000000E+02  2.00000000E+01  0.00000000E+00
  2.40000000E+02  4.99600361E-14  0.00000000E+00
  2.60000000E+02  3.00000000E+02  0.00000000E+00
  2.60000000E+02  2.80000000E+02  0.00000000E+00
  2.60000000E+02  2.60000000E+02  0.00000000E+00
  2.60000000E+02  2.40000000E+02  0.00000000E+00
  2.60000000E+02  2.20000000E+02  0.00000000E+00
  2.60000000E+02  2.00000000E+02  0.00000000E+00
  2.60000000E+02  1.80000000E+02  0.00000000E+00
  2.60000000E+02  1.60000000E+02  0.00000000E+00
  2.60000000E+02  1.40000000E+02  0.00000000E+00
  2.60000000E+02  1.20000000E+02  0.00000000E+00
  2.60000000E+02  1.00000000E+02  0.00000000E+00
  2.60000000E+02  8.00000000E+01  0.00000000E+00
  2.60000000E+02  6.00000000E+01  0.00000000E+00
  2.60000000E+02  4.00000000E+01  0.00000000E+00
  2.60000000E+02  2.00000000E+01  0.00000000E+00
  2.60000000E+02  4.99600361E-14  0.00000000E+00
  2.80000000E+02  3.00000000E+02  0.00000000E+00
  2.80000000E+02  2.80000000E+02  0.00000000E+00
  2.80000000E+02  2.60000000E+02  0.00000000E+00
  2.80000000E+02  2.40000000E+02  0.00000000E+00
  2.80000000E+02  2.20000000E+02  0.00000000E+00
  2.80000000E+02  2.00000000E+02  0.00000000E+00
  2.80000000E+02  1.80000000E+02  0.00000000E+00
  2.80000000E+02  1.60000000E+02  0.00000000E+00
  2.80000000E+02  1.40000000E+02  0.00000000E+00
  2.80000000E+02  1.20000000E+02  0.00000000E+00
  2.80000000E+02  1.00000000E+02  0.00000000E+00
  2.80000000E+02  8.00000000E+01  0.00000000E+00
  2.80000000E+02  6.00000000E+01  0.00000000E+00
  2.80000000E+02  4.00000000E+01  0.00000000E+00
  2.80000000E+02  2.00000000E+01  0.00000000E+00
  2.80000000E+02  4.99600361E-14  0.00000000E+00
  3.00000000E+02  3.00000000E+02  0.00000000E+00
  3.00000000E+02  2.80000000E+02  0.00000000E+00
  3.00000000E+02  2.60000000E+02  0.00000000E+00
  3.00000000E+02  2.40000000E+02  0.00000000E+00
  3.00000000E+02  2.20000000E+02  0.00000000E+00
  3.00000000E+02  2.00000000E+02  0.00000000E+00
  3.00000000E+02  1.80000000E+02  0.00000000E+00
  3.00000000E+02  1.60000000E+02  0.00000000E+00
  3.00000000E+02  1.40000000E+02  0.00000000E+00
  3.00000000E+02  1.20000000E+02  0.00000000E+00
  3.00000000E+02  1.00000000E+02  0.00000000E+00
  3.00000000E+02  8.00000000E+01  0.00000000E+00
  3.00000000E+02  6.00000000E+01  0.00000000E+00
  3.00000000E+02  4.00000000E+01  0.00000000E+00
  3.00000000E+02  2.00000000E+01  0.00000000E+00
  3.00000000E+02  4.99600361E-14  0.00000000E+00
  3.20000000E+02  3.00000000E+02  0.00000000E+00
  3.20000000E+02  2.80000000E+02  0.00000000E+00
  3.20000000E+02  2.60000000E+02  0.00000000E+00
  3.20000000E+02  2.40000000E+02  0.00000000E+00
  3.20000000E+02  2.20000000E+02  0.00000000E+00
  3.20000000E+02  2.00000000E+02  0.00000000E+00
  3.20000000E+02  1.80000000E+02  0.00000000E+00
  3.20000000E+02  1.60000000E+02  0.00000000E+00
  3.20000000E+02  1.40000000E+02  0.00000000E+00
  3.20000000E+02  1.20000000E+02  0.00000000E+00
  3.20000000E+02  1.00000000E+02  0.00000000E+00
  3.20000000E+02  8.00000000E+01  0.00000000E+00
  3.20000000E+02  6.00000000E+01  0.00000000E+00
  3.20000000E+02  4.00000000E+01  0.00000000E+00
  3.20000000E+02  2.00000000E+01  0.00000000E+00
  3.20000000E+02  4.99600361E-14  0.00000000E+00
  3.40000000E+02  3.00000000E+02  0.00000000E+00
  3.40000000E+02  2.80000000E+02  0.00000000E+00
  3.40000000E+02  2.60000000E+02  0.00000000E+00
  3.40000000E+02  2.40000000E+02  0.00000000E+00
  3.40000000E+02  2.20000000E+02  0.00000000E+00
  3.40000000E+02  2.00000000E+02  0.00000000E+00
  3.40000000E+02  1.80000000E+02  0.00000000E+00
  3.40000000E+02  1.60000000E+02  0.00000000E+00
  3.40000000E+02  1.40000000E+02  0.00000000E+00
  3.40000000E+02  1.20000000E+02  0.00000000E+00
  3.40000000E+02  1.00000000E+02  0.00000000E+00
  3.40000000E+02  8.00000000E+01  0.00000000E+00
  3.40000000E+02  6.00000000E+01  0.00000000E+00
  3.40000000E+02  4.00000000E+01  0.00000000E+00
  3.40000000E+02  2.00000000E+01  0.00000000E+00
  3.40000000E+02  4.99600361E-14  0.00000000E+00
  3.60000000E+02  3.00000000E+02  0.00000000E+00
  3.60000000E+02  2.80000000E+02  0.00000000E+00
  3.60000000E+02  2.60000000E+02  0.00000000E+00
  3.60000000E+02  2.40000000E+02  0.00000000E+00
  3.60000000E+02  2.20000000E+02  0.00000000E+00
  3.60000000E+02  2.00000000E+02  0.00000000E+00
  3.60000000E+02  1.80000000E+02  0.00000000E+00
  3.60000000E+02  1.60000000E+02  0.00000000E+00
  3.60000000E+02  1.40000000E+02  0.00000000E+00
  3.60000000E+02  1.20000000E+02  0.00000000E+00
  3.60000000E+02  1.00000000E+02  0.00000000E+00
  3.60000000E+02  8.00000000E+01  0.00000000E+00
  3.60000000E+02  6.00000000E+01  0.00000000E+00
  3.60000000E+02  4.00000000E+01  0.00000000E+00
  3.60000000E+02  2.00000000E+01  0.00000000E+00
  3.60000000E+02  4.99600361E-14  0.00000000E+00
  3.80000000E+02  3.00000000E+02  0.00000000E+00
  3.80000000E+02  2.80000000E+02  0.00000000E+00
  3.80000000E+02  2.60000000E+02  0.00000000E+00
  3.80000000E+02  2.40000000E+02  0.00000000E+00
  3.80000000E+02  2.20000000E+02  0.00000000E+00
  3.80000000E+02  2.00000000E+02  0.00000000E+00
  3.80000000E+02  1.80000000E+02  0.00000000E+00
  3.80000000E+02  1.60000000E+02  0.00000000E+00
  3.80000000E+02  1.40000000E+02  0.00000000E+00
  3.80000000E+02  1.20000000E+02  0.00000000E+00
  3.80000000E+02  1.00000000E+02  0.00000000E+00
  3.80000000E+02  8.00000000E+01  0.00000000E+00
  3.80000000E+02  6.00000000E+01  0.00000000E+00
  3.80000000E+02  4.00000000E+01  0.00000000E+00
  3.80000000E+02  2.00000000E+01  0.00000000E+00
  3.80000000E+02  4.99600361E-14  0.00000000E+00
  4.00000000E+02  3.00000000E+02  0.00000000E+00
  4.00000000E+02  2.80000000E+02  0.00000000E+00
  4.00000000E+02  2.60000000E+02  0.00000000E+00
  4.00000000E+02  2.40000000E+02  0.00000000E+00
  4.00000000E+02  2.20000000E+02  0.00000000E+00
  4.00000000E+02  2.00000000E+02  0.00000000E+00
  4.00000000E+02  1.80000000E+02  0.00000000E+00
  4.00000000E+02  1.60000000E+02  0.00000000E+00
  4.00000000E+02  1.40000000E+02  0.00000000E+00
  4.00000000E+02  1.20000000E+02  0.00000000E+00
  4.00000000E+02  1.00000000E+02  0.00000000E+00
  4.00000000E+02  8.00000000E+01  0.00000000E+00
  4.00000000E+02  6.00000000E+01  0.00000000E+00
  4.00000000E+02  4.00000000E+01  0.00000000E+00
  4.00000000E+02  2.00000000E+01  0.00000000E+00
  4.00000000E+02  4.99600361E-14  0.00000000E+00
  4.20000000E+02  3.00000000E+02  0.00000000E+00
  4.20000000E+02  2.80000000E+02  0.00000000E+00
  4.20000000E+02  2.60000000E+02  0.00000000E+00
  4.20000000E+02  2.40000000E+02  0.00000000E+00
  4.20000000E+02  2.20000000E+02  0.00000000E+00
  4.20000000E+02  2.00000000E+02  0.00000000E+00
  4.20000000E+02  1.80000000E+02  0.00000000E+00
  4.20000000E+02  1.60000000E+02  0.00000000E+00
  4.20000000E+02  1.40000000E+02  0.00000000E+00
  4.20000000E+02  1.20000000E+02  0.00000000E+00
  4.20000000E+02  1.00000000E+02  0.00000000E+00
  4.20000000E+02  8.00000000E+01  0.00000000E+00
  4.20000000E+02  6.00000000E+01  0.00000000E+00
  4.20000000E+02  4.00000000E+01  0.00000000E+00
  4.20000000E+02  2.00000000E+01  0.00000000E+00
  4.20000000E+02  4.99600361E-14  0.00000000E+00
  4.40000000E+02  3.00000000E+02  0.00000000E+00
  4.40000000E+02  2.80000000E+02  0.00000000E+00
  4.40000000E+02  2.60000000E+02  0.00000000E+00
  4.40000000E+02  2.40000000E+02  0.00000000E+00
  4.40000000E+02  2.20000000E+02  0.00000000E+00
  4.40000000E+02  2.00000000E+02  0.00000000E+00
  4.40000000E+02  1.80000000E+02  0.00000000E+00
  4.40000000E+02  1.60000000E+02  0.00000000E+00
  4.40000000E+02  1.40000000E+02  0.00000000E+00
  4.40000000E+02  1.20000000E+02  0.00000000E+00
  4.40000000E+02  1.00000000E+02  0.00000000E+00
  4.40000000E+02  8.00000000E+01  0.00000000E+00
  4.40000000E+02  6.00000000E+01  0.00000000E+00
  4.40000000E+02  4.00000000E+01  0.00000000E+00
  4.40000000E+02  2.00000000E+01  0.00000000E+00
  4.40000000E+02  4.99600361E-14  0.00000000E+00
  4.60000000E+02  3.00000000E+02  0.00000000E+00
  4.60000000E+02  2.80000000E+02  0.00000000E+00
  4.60000000E+02  2.60000000E+02  0.00000000E+00
  4.60000000E+02  2.40000000E+02  0.00000000E+00
  4.60000000E+02  2.20000000E+02  0.00000000E+00
  4.60000000E+02  2.00000000E+02  0.00000000E+00
  4.60000000E+02  1.80000000E+02  0.00000000E+00
  4.60000000E+02  1.60000000E+02  0.00000000E+00
  4.60000000E+02  1.40000000E+02  0.00000000E+00
  4.60000000E+02  1.20000000E+02  0.00000000E+00
  4.60000000E+02  1.00000000E+02  0.00000000E+00
  4.60000000E+02  8.00000000E+01  0.00000000E+00
  4.60000000E+02  6.00000000E+01  0.00000000E+00
  4.60000000E+02  4.00000000E+01  0.00000000E+00
  4.60000000E+02  2.00000000E+01  0.00000000E+00
  4.60000000E+02  4.99600361E-14  0.00000000E+00
  4.80000000E+02  3.00000000E+02  0.00000000E+00
  4.80000000E+02  2.80000000E+02  0.00000000E+00
  4.80000000E+02  2.60000000E+02  0.00000000E+00
  4.80000000E+02  2.40000000E+02  0.00000000E+00
  4.80000000E+02  2.20000000E+02  0.00000000E+00
  4.80000000E+02  2.00000000E+02  0.00000000E+00
  4.80000000E+02  1.80000000E+02  0.00000000E+00
  4.80000000E+02  1.60000000E+02  0.00000000E+00
  4.80000000E+02  1.40000000E+02  0.00000000E+00
  4.80000000E+02  1.20000000E+02  0.00000000E+00
  4.80000000E+02  1.00000000E+02  0.00000000E+00
  4.80000000E+02  8.00000000E+01  0.00000000E+00
  4.80000000E+02  6.00000000E+01  0.00000000E+00
  4.80000000E+02  4.00000000E+01  0.00000000E+00
  4.80000000E+02  2.00000000E+01  0.00000000E+00
  4.80000000E+02  4.99600361E-14  0.00000000E+00
  5.00000000E+02  3.00000000E+02  0.00000000E+00
  5.00000000E+02  2.80000000E+02  0.00000000E+00
  5.00000000E+02  2.60000000E+02  0.00000000E+00
  5.00000000E+02  2.40000000E+02  0.00000000E+00
  5.00000000E+02  2.20000000E+02  0.00000000E+00
  5.00000000E+02  2.00000000E+02  0.00000000E+00
  5.00000000E+02  1.80000000E+02  0.00000000E+00
  5.00000000E+02  1.60000000E+02  0.00000000E+00
  5.00000000E+02  1.40000000E+02  0.00000000E+00
  5.00000000E+02  1.20000000E+02  0.00000000E+00
  5.00000000E+02  1.00000000E+02  0.00000000E+00
  5.00000000E+02  8.00000000E+01  0.00000000E+00
  5.00000000E+02  6.00000000E+01  0.00000000E+00
  5.00000000E+02  4.00000000E+01  0.00000000E+00
  5.00000000E+02  2.00000000E+01  0.00000000E+00
  5.00000000E+02  4.99600361E-14  0.00000000E+00
  5.20000000E+02  3.00000000E+02  0.00000000E+00
  5.20000000E+02  2.80000000E+02  0.00000000E+00
  5.20000000E+02  2.60000000E+02  0.00000000E+00
  5.20000000E+02  2.40000000E+02  0.00000000E+00
  5.20000000E+02  2.20000000E+02  0.00000000E+00
  5.20000000E+02  2.00000000E+02  0.00000000E+00
  5.20000000E+02  1.80000000E+02  0.00000000E+00
  5.20000000E+02  1.60000000E+02  0.00000000E+00
  5.20000000E+02  1.40000000E+02  0.00000000E+00
  5.20000000E+02  1.20000000E+02  0.00000000E+00
  5.20000000E+02  1.00000000E+02  0.00000000E+00
  5.20000000E+02  8.00000000E+01  0.00000000E+00
  5.20000000E+02  6.00000000E+01  0.00000000E+00
  5.20000000E+02  4.00000000E+01  0.00000000E+00
  5.20000000E+02  2.00000000E+01  0.00000000E+00
  5.20000000E+02  4.99600361E-14  0.00000000E+00
  5.40000000E+02  3.00000000E+02  0.00000000E+00
  5.40000000E+02  2.80000000E+02  0.00000000E+00
  5.40000000E+02  2.60000000E+02  0.00000000E+00
  5.40000000E+02  2.40000000E+02  0.00000000E+00
  5.40000000E+02  2.20000000E+02  0.00000000E+00
  5.40000000E+02  2.00000000E+02  0.00000000E+00
  5.40000000E+02  1.80000000E+02  0.00000000E+00
  5.40000000E+02  1.60000000E+02  0.00000000E+00
  5.40000000E+02  1.40000000E+02  0.00000000E+00
  5.40000000E+02  1.20000000E+02  0.00000000E+00
  5.40000000E+02  1.00000000E+02  0.00000000E+00
  5.40000000E+02  8.00000000E+01  0.00000000E+00
  5.40000000E+02  6.00000000E+01  0.00000000E+00
  5.40000000E+02  4.00000000E+01  0.00000000E+00
  5.40000000E+02  2.00000000E+01  0.00000000E+00
  5.40000000E+02  4.99600361E-14  0.00000000E+00
  5.60000000E+02  3.00000000E+02  0.00000000E+00
  5.60000000E+02  2.80000000E+02  0.00000000E+00
  5.60000000E+02  2.60000000E+02  0.00000000E+00
  5.60000000E+02  2.40000000E+02  0.00000000E+00
  5.60000000E+02  2.20000000E+02  0.00000000E+00
  5.60000000E+02  2.00000000E+02  0.00000000E+00
  5.60000000E+02  1.80000000E+02  0.00000000E+00
  5.60000000E+02  1.60000000E+02  0.00000000E+00
  5.60000000E+02  1.40000000E+02  0.00000000E+00
  5.60000000E+02  1.20000000E+02  0.00000000E+00
  5.60000000E+02  1.00000000E+02  0.00000000E+00
  5.60000000E+02  8.00000000E+01  0.00000000E+00
  5.60000000E+02  6.00000000E+01  0.00000000E+00
  5.60000000E+02  4.00000000E+01  0.00000000E+00
  5.60000000E+02  2.00000000E+01  0.00000000E+00
  5.60000000E+02  4.99600361E-14  0.00000000E+00
  5.80000000E+02  3.00000000E+02  0.00000000E+00
  5.80000000E+02  2.80000000E+02  0.00000000E+00
  5.80000000E+02  2.60000000E+02  0.00000000E+00
  5.80000000E+02  2.40000000E+02  0.00000000E+00
  5.80000000E+02  2.20000000E+02  0.00000000E+00
  5.80000000E+02  2.00000000E+02  0.00000000E+00
  5.80000000E+02  1.80000000E+02  0.00000000E+00
  5.80000000E+02  1.60000000E+02  0.00000000E+00
  5.80000000E+02  1.40000000E+02  0.00000000E+00
  5.80000000E+02  1.20000000E+02  0.00000000E+00
  5.80000000E+02  1.00000000E+02  0.00000000E+00
  5.80000000E+02  8.00000000E+01  0.00000000E+00
  5.80000000E+02  6.00000000E+01  0.00000000E+00
  5.80000000E+02  4.00000000E+01  0.00000000E+00
  5.80000000E+02  2.00000000E+01  0.00000000E+00
  5.80000000E+02  4.99600361E-14  0.00000000E+00
  6.00000000E+02  3.00000000E+02  0.00000000E+00
  6.00000000E+02  2.80000000E+02  0.00000000E+00
  6.00000000E+02  2.60000000E+02  0.00000000E+00
  6.00000000E+02  2.40000000E+02  0.00000000E+00
  6.00000000E+02  2.20000000E+02  0.00000000E+00
  6.00000000E+02  2.00000000E+02  0.00000000E+00
  6.00000000E+02  1.80000000E+02  0.00000000E+00
  6.00000000E+02  1.60000000E+02  0.00000000E+00
  6.00000000E+02  1.40000000E+02  0.00000000E+00
  6.00000000E+02  1.20000000E+02  0.00000000E+00
  6.00000000E+02  1.00000000E+02  0.00000000E+00
  6.00000000E+02  8.00000000E+01  0.00000000E+00
  6.00000000E+02  6.00000000E+01  0.00000000E+00
  6.00000000E+02  4.00000000E+01  0.00000000E+00
  6.00000000E+02  2.00000000E+01  0.00000000E+00
  6.00000000E+02  4.99600361E-14  0.00000000E+00
CELLS       450      2250
         4           0           1          17          16
         4           1           2          18          17
         4           2           3          19          18
         4           3           4          20          19
         4           4           5          21          20
         4           5           6          22          21
         4           6           7          23          22
         4           7           8          24          23
         4           8           9          25          24
         4           9          10          26          25
         4          10          11          27          26
         4          11          12          28          27
         4          12          13          29          28
         4          13          14          30          29
         4          14          15          31          30
         4          16          17          33          32
         4          17          18          34          33
         4          18          19          35          34
         4          19          20          36          35
         4          20          21          37          36
         4          21          22          38          37
         4          22          23          39          38
         4          23          24          40          39
         4          24          25          41          40
         4          25          26          42          41
         4          26          27          43          42
         4          27          28          44          43
         4          28          29          45          44
         4          29          30          46          45
         4          30          31          47          46
         4          32          33          49          48
         4          33          34          50          49
         4          34          35          51          50
         4          35          36          52          51
         4          36          37          53          52
         4          37          38          54          53
         4          38          39          55          54
         4          39          40          56          55
         4          40          41          57          56
         4          41          42          58          57
         4          42          43          59          58
         4          43          44          60          59
         4          44          45          61          60
         4          45          46          62          61
         4          46          47          63          62
         4          48          49          65          64
         4          49          50          66          65
         4          50          51          67          66
         4          51          52          68          67
         4          52          53          69          68
         4          53          54          70          69
         4          54          55          71          70
         4          55          56          72          71
         4          56          57          73          72
         4          57          58          74          73
         4          58          59          75          74
         4          59          60          76          75
         4          60          61          77          76
         4          61          62          78          77
         4          62          63          79          78
         4          64          65          81          80
         4          65          66          82          81
         4          66          67          83          82
         4          67          68          84          83
         4          68          69          85          84
         4          69          70          86          85
         4          70          71          87          86
         4          71          72          88          87
         4          72          73          89          88
         4          73          74          90          89
         4          74          75          91          90
         4          75          76          92          91
         4          76          77          93          92
         4          77          78          94          93
         4          78          79          95          94
         4          80          81          97          96
         4          81          82          98          97
         4          82          83          99          98
         4          83          84         100          99
         4          84          85         101         100
         4          85          86         102         101
         4          86          87         103         102
         4          87          88         104         103
         4          88          89         105         104
         4          89          90         106         105
         4          90          91         107         106
         4          91          92         108         107
         4          92          93         109         108
         4          93          94         110         109
         4          94          95         111         110
         4          96          97         113         112
         4          97          98         114         113
         4          98          99         115         114
         4          99         100         116         115
         4         100         101         117         116
         4         101         102         118         117
         4         102         103         119         118
         4         103         104         120         119
         4         104         105         121         120
         4         105         106         122         121
         4         106         107         123         122
         4         107         108         124         123
         4         108         109         125         124
         4         109         110         126         125
         4         110         111         127         126
         4         112         113         129         128
         4         113         114         130         129
         4         114         115         131         130
         4         115         116         132         131
         4         116         117         133         132
         4         117         118         134         133
         4         118         119         135         134
         4         119         120         136         135
         4         120         121         137         136
         4         121         122         138         137
         4         122         123         139         138
         4         123         124         140         139
         4         124         125         141         140
         4         125         126         142         141
         4         126         127         143         142
         4         128         129         145         144
         4         129         130         146         145
         4         130         131         147         146
         4         131         132         148         147
         4         132         133         149         148
         4         133         134         150         149
         4         134         135         151         150
         4         135         136         152         151
         4         136         137         153         152
         4         137         138         154         153
         4         138         139         155         154
         4         139         140         156         155
         4         140         141         157         156
         4         141         142         158         157
         4         142         143         159         158
         4         144         145         161         160
         4         145         146         162         161
         4         146         147         163         162
         4         147         148         164         163
         4         148         149         165         164
         4         149         150         166         165
         4         150         151         167         166
         4         151         152         168         167
         4         152         153         169         168
         4         153         154         170         169
         4         154         155         171         170
         4         155         156         172         171
         4         156         157         173         172
         4         157         158         174         173
         4         158         159         175         174
         4         160         161         177         176
         4         161         162         178         177
         4         162         163         179         178
         4         163         164         180         179
         4         164         165         181         180
         4         165         166         182         181
         4         166         167         183         182
         4         167         168         184         183
         4         168         169         185         184
         4         169         170         186         185
         4         170         171         187         186
         4         171         172         188         187
         4         172         173         189         188
         4         173         174         190         189
         4         174         175         191         190
         4         176         177         193         192
         4         177         178         194         193
         4         178         179         195         194
         4         179         180         196         195
         4         180         181         197         196
         4         181         182         198         197
         4         182         183         199         198
         4         183         184         200         199
         4         184         185         201         200
         4         185         186         202         201
         4         186         187         203         202
         4         187         188         204         203
         4         188         189         205         204
         4         189         190         206         205
         4         190         191         207         206
         4         192         193         209         208
         4         193         194         210         209
         4         194         195         211         210
         4         195         196         212         211
         4         196         197         213         212
         4         197         198         214         213
         4         198         199         215         214
         4         199         200         216         215
         4         200         201         217         216
         4         201         202         218         217
         4         202         203         219         218
         4         203         204         220         219
         4         204         205         221         220
         4         205         206         222         221
         4         206         207         223         222
         4         208         209         225         224
         4         209         210         226         225
         4         210         211         227         226
         4         211         212         228         227
         4         212         213         229         228
         4         213         214         230         229
         4         214         215         231         230
         4         215         216         232         231
         4         216         217         233         232
         4         217         218         234         233
         4         218         219         235         234
         4         219         220         236         235
         4         220         221         237         236
         4         221         222         238         237
         4         222         223         239         238
         4         224         225         241         240
         4         225         226         242         241
         4         226         227         243         242
         4         227         228         244         243
         4         228         229         245         244
         4         229         230         246         245
         4         230         231         247         246
         4         231         232         248         247
         4         232         233         249         248
         4         233         234         250         249
         4         234         235         251         250
         4         235         236         252         251
         4         236         237         253         252
         4         237         238         254         253
         4         238         239         255         254
         4         240         241         257         256
         4         241         242         258         257
         4         242         243         259         258
         4         243         244         260         259
         4         244         245         261         260
         4         245         246         262         261
         4         246         247         263         262
         4         247         248         264         263
         4         248         249         265         264
         4         249         250         266         265
         4         250         251         267         266
         4         251         252         268         267
         4         252         253         269         268
         4         253         254         270         269
         4         254         255         271         270
         4         256         257         273         272
         4         257         258         274         273
         4         258         259         275         274
         4         259         260         276         275
         4         260         261         277         276
         4         261         262         278         277
         4         262         263         279         278
         4         263         264         280         279
         4         264         265         281         280
         4         265         266         282         281
         4         266         267         283         282
         4         267         268         284         283
         4         268         269         285         284
         4         269         270         286         285
         4         270         271         287         286
         4         272         273         289         288
         4         273         274         290         289
         4         274         275         291         290
         4         275         276         292         291
         4         276         277         293         292
         4         277         278         294         293
         4         278         279         295         294
         4         279         280         296         295
         4         280         281         297         296
         4         281         282         298         297
         4         282         283         299         298
         4         283         284         300         299
         4         284         285         301         300
         4         285         286         302         301
         4         286         287         303         302
         4         288         289         305         304
         4         289         290         306         305
         4         290         291         307         306
         4         291         292         308         307
         4         292         293         309         308
         4         293         294         310         309
         4         294         295         311         310
         4         295         296         312         311
         4         296         297         313         312
         4         297         298         314         313
         4         298         299         315         314
         4         299         300         316         315
         4         300         301         317         316
         4         301         302         318         317
         4         302         303         319         318
         4         304         305         321         320
         4         305         306         322         321
         4         306         307         323         322
         4         307         308         324         323
         4         308         309         325         324
         4         309         310         326         325
         4         310         311         327         326
         4         311         312         328         327
         4         312         313         329         328
         4         313         314         330         329
         4         314         315         331         330
         4         315         316         332         331
         4         316         317         333         332
         4         317         318         334         333
         4         318         319         335         334
         4         320         321         337         336
         4         321         322         338         337
         4         322         323         339         338
         4         323         324         340         339
         4         324         325         341         340
         4         325         326         342         341
         4         326         327         343         342
         4         327         328         344         343
         4         328         329         345         344
         4         329         330         346         345
         4         330         331         347         346
         4         331         332         348         347
         4         332         333         349         348
         4         333         334         350         349
         4         334         335         351         350
         4         336         337         353         352
         4         337         338         354         353
         4         338         339         355         354
         4         339         340         356         355
         4         340         341         357         356
         4         341         342         358         357
         4         342         343         359         358
         4         343         344         360         359
         4         344         345         361         360
         4         345         346         362         361
         4         346         347         363         362
         4         347         348         364         363
         4         348         349         365         364
         4         349         350         366         365
         4         350         351         367         366
         4         352         353         369         368
         4         353         354         370         369
         4         354         355         371         370
         4         355         356         372         371
         4         356         357         373         372
         4         357         358         374         373
         4         358         359         375         374
         4         359         360         376         375
         4         360         361         377         376
         4         361         362         378         377
         4         362         363         379         378
         4         363         364         380         379
         4         364         365         381         380
         4         365         366         382         381
         4         366         367         383         382
         4         368         369         385         384
         4         369         370         386         385
         4         370         371         387         386
         4         371         372         388         387
         4         372         373         389         388
         4         373         374         390         389
         4         374         375         391         390
         4         375         376         392         391
         4         376         377         393         392
         4         377         378         394         393
         4         378         379         395         394
         4         379         380         396         395
         4         380         381         397         396
         4         381         382         398         397
         4         382         383         399         398
         4         384         385         401         400
         4         385         386         402         401
         4         386         387         403         402
         4         387         388         404         403
         4         388         389         405         404
         4         389         390         406         405
         4         390         391         407         406
         4         391         392         408         407
         4         392         393         409         408
         4         393         394         410         409
         4         394         395         411         410
         4         395         396         412         411
         4         396         397         413         412
         4         397         398         414         413
         4         398         399         415         414
         4         400         401         417         416
         4         401         402         418         417
         4         402         403         419         418
         4         403         404         420         419
         4         404         405         421         420
         4         405         406         422         421
         4         406         407         423         422
         4         407         408         424         423
         4         408         409         425         424
         4         409         410         426         425
         4         410         411         427         426
         4         411         412         428         427
         4         412         413         429         428
         4         413         414         430         429
         4         414         415         431         430
         4         416         417         433         432
         4         417         418         434         433
         4         418         419         435         434
         4         419         420         436         435
         4         420         421         437         436
         4         421         422         438         437
         4         422         423         439         438
         4         423         424         440         439
         4         424         425         441         440
         4         425         426         442         441
         4         426         427         443         442
         4         427         428         444         443
         4         428         429         445         444
         4         429         430         446         445
         4         430         431         447         446
         4         432         433         449         448
         4         433         434         450         449
         4         434         435         451         450
         4         435         436         452         451
         4         436         437         453         452
         4         437         438         454         453
         4         438         439         455         454
         4         439         440         456         455
         4         440         441         457         456
         4         441         442         458         457
         4         442         443         459         458
         4         443         444         460         459
         4         444         445         461         460
         4         445         446         462         461
         4         446         447         463         462
         4         448         449         465         464
         4         449         450         466         465
         4         450         451         467         466
         4         451         452         468         467
         4         452         453         469         468
         4         453         454         470         469
         4         454         455         471         470
         4         455         456         472         471
         4         456         457         473         472
         4         457         458         474         473
         4         458         459         475         474
         4         459         460         476         475
         4         460         461         477         476
         4         461         462         478         477
         4         462         463         479         478
         4         464         465         481         480
         4         465         466         482         481
         4         466         467         483         482
         4         467         468         484         483
         4         468         469         485         484
         4         469         470         486         485
         4         470         471         487         486
         4         471         472         488         487
         4         472         473         489         488
         4         473         474         490         489
         4         474         475         491         490
         4         475         476         492         491
         4         476         477         493         492
         4         477         478         494         493
         4         478         479         495         494
CELL_TYPES        450
9
9
9
9
9
9
9
9
9
9
9
9
9
9
9
9
9
9
9
9
9
9
9
9
9
9
9
9
9
9
9
9
9
9
9
9
9
9
9
9
9
9
9
9
9
9
9
9
9
9
9
9
9
9
9
9
9
9
9
9
9
9
9
9
9
9
9
9
9
9
9
9
9
9
9
9
9
9
9
9
9
9
9
9
9
9
9
9
9
9
9
9
9
9
9
9
9
9
9
9
9
9
9
9
9
9
9
9
9
9
9
9
9
9
9
9
9
9
9
9
9
9
9
9
9
9
9
9
9
9
9
9
9
9
9
9
9
9
9
9
9
9
9
9
9
9
9
9
9
9
9
9
9
9
9
9
9
9
9
9
9
9
9
9
9
9
9
9
9
9
9
9
9
9
9
9
9
9
9
9
9
9
9
9
9
9
9
9
9
9
9
9
9
9
9
9
9
9
9
9
9
9
9
9
9
9
9
9
9
9
9
9
9
9
9
9
9
9
9
9
9
9
9
9
9
9
9
9
9
9
9
9
9
9
9
9
9
9
9
9
9
9
9
9
9
9
9
9
9
9
9
9
9
9
9
9
9
9
9
9
9
9
9
9
9
9
9
9
9
9
9
9
9
9
9
9
9
9
9
9
9
9
9
9
9
9
9
9
9
9
9
9
9
9
9
9
9
9
9
9
9
9
9
9
9
9
9
9
9
9
9
9
9
9
9
9
9
9
9
9
9
9
9
9
9
9
9
9
9
9
9
9
9
9
9
9
9
9
9
9
9
9
9
9
9
9
9
9
9
9
9
9
9
9
9
9
9
9
9
9
9
9
9
9
9
9
9
9
9
9
9
9
9
9
9
9
9
9
9
9
9
9
9
9
9
9
9
9
9
9
9
9
9
9
9
9
9
9
9
9
9
9
9
9
9
9
9
9
9
9
9
9
9
9
9
9
9
9
9
9
9
9
9
9
9
9
9
9
9
9
9
9
9
9
9
9
9
9
9
9
9
9
9
9
9
9
9
9
9
9
POINT_DATA       496
SCALARS p double 
LOOKUP_TABLE default
   10000039.4167127     
   10000039.4091467     
   10000039.3885808     
   10000039.3577647     
   10000039.3192120     
   10000039.2752209     
   10000039.2278933     
   10000039.1791553     
   10000039.1307769     
   10000039.0843916     
   10000039.0415149     
   10000039.0035630     
   10000038.9718693     
   10000038.9477009     
   10000038.9322740     
   10000038.9267678     
   10000039.3581432     
   10000039.3505996     
   10000039.3300963     
   10000039.2993762     
   10000039.2609464     
   10000039.2170982     
   10000039.1699268     
   10000039.1213521     
   10000039.0731376     
   10000039.0269110     
   10000038.9841820     
   10000038.9463615     
   10000038.9147778     
   10000038.8906933     
   10000038.8753200     
   10000038.8698328     
   10000039.1826470     
   10000039.1751707     
   10000039.1548553     
   10000039.1244235     
   10000039.0863624     
   10000039.0429429     
   10000038.9962406     
   10000038.9481557     
   10000038.9004332     
   10000038.8546825     
   10000038.8123967     
   10000038.7749701     
   10000038.7437163     
   10000038.7198836     
   10000038.7046708     
   10000038.6992407     
   10000038.8908607     
   10000038.8834968     
   10000038.8634949     
   10000038.8335442     
   10000038.7960981     
   10000038.7533938     
   10000038.7074736     
   10000038.6602054     
   10000038.6133028     
   10000038.5683455     
   10000038.5267979     
   10000038.4900278     
   10000038.4593235     
   10000038.4359101     
   10000038.4209644     
   10000038.4156293     
   10000038.4838430     
   10000038.4766368     
   10000038.4570747     
   10000038.4277988     
   10000038.3912149     
   10000038.3495130     
   10000038.3046886     
   10000038.2585642     
   10000038.2128098     
   10000038.1689629     
   10000038.1284484     
   10000038.0925966     
   10000038.0626608     
   10000038.0398335     
   10000038.0252614     
   10000038.0200590     
   10000037.9630719     
   10000037.9560691     
   10000037.9370738     
   10000037.9086675     
   10000037.8731941     
   10000037.8327826     
   10000037.7893684     
   10000037.7447154     
   10000037.7004372     
   10000037.6580176     
   10000037.6188303     
   10000037.5841579     
   10000037.5552088     
   10000037.5331337     
   10000037.5190407     
   10000037.5140085     
   10000037.3304400     
   10000037.3236868     
   10000037.3053866     
   10000037.2780457     
   10000037.2439324     
   10000037.2051005     
   10000037.1634114     
   10000037.1205575     
   10000037.0780833     
   10000037.0374069     
   10000036.9998401     
   10000036.9666068     
   10000036.9388611     
   10000036.9177030     
   10000036.9041938     
   10000036.8993689     
   10000036.5882496     
   10000036.5817924     
   10000036.5643167     
   10000036.5382385     
   10000036.5057362     
   10000036.4687738     
   10000036.4291251     
   10000036.3883976     
   10000036.3480543     
   10000036.3094359     
   10000036.2737808     
   10000036.2422445     
   10000036.2159170     
   10000036.1958391     
   10000036.1830171     
   10000036.1784360     
   10000035.7392053     
   10000035.7330915     
   10000035.7165706     
   10000035.6919539     
   10000035.6613144     
   10000035.6265118     
   10000035.5892186     
   10000035.5509438     
   10000035.5130566     
   10000035.4768084     
   10000035.4433538     
   10000035.4137694     
   10000035.3890721     
   10000035.3702351     
   10000035.3582022     
   10000035.3539008     
   10000034.7864072     
   10000034.7806843     
   10000034.7652500     
   10000034.7422945     
   10000034.7137700     
   10000034.6814174     
   10000034.6467934     
   10000034.6112954     
   10000034.5761864     
   10000034.5426171     
   10000034.5116474     
   10000034.4842658     
   10000034.4614071     
   10000034.4439685     
   10000034.4328243     
   10000034.4288377     
   10000033.7333415     
   10000033.7280578     
   10000033.7138425     
   10000033.6927485     
   10000033.6665910     
   10000033.6369770     
   10000033.6053331     
   10000033.5729320     
   10000033.5409183     
   10000033.5103308     
   10000033.4821248     
   10000033.4571910     
   10000033.4363739     
   10000033.4204873     
   10000033.4103284     
   10000033.4066906     
   10000032.5838716     
   10000032.5790758     
   10000032.5662125     
   10000032.5471797     
   10000032.5236396     
   10000032.4970494     
   10000032.4686915     
   10000032.4397010     
   10000032.4110920     
   10000032.3837811     
   10000032.3586090     
   10000032.3363602     
   10000032.3177807     
   10000032.3035937     
   10000032.2945133     
   10000032.2912569     
   10000031.3422276     
   10000031.3379685     
   10000031.3265898     
   10000031.3098166     
   10000031.2891404     
   10000031.2658533     
   10000031.2410792     
   10000031.2158029     
   10000031.1908969     
   10000031.1671455     
   10000031.1452659     
   10000031.1259283     
   10000031.1097731     
   10000031.0974262     
   10000031.0895127     
   10000031.0866685     
   10000030.0129956     
   10000030.0093218     
   10000029.9995590     
   10000029.9852398     
   10000029.9676677     
   10000029.9479535     
   10000029.9270487     
   10000029.9057757     
   10000029.8848552     
   10000029.8649296     
   10000029.8465851     
   10000029.8303703     
   10000029.8168137     
   10000029.8064379     
   10000029.7997735     
   10000029.7973703     
   10000028.6011061     
   10000028.5980658     
   10000028.5900474     
   10000028.5783705     
   10000028.5641321     
   10000028.5482461     
   10000028.5314782     
   10000028.5144772     
   10000028.4978021     
   10000028.4819462     
   10000028.4673577     
   10000028.4544580     
   10000028.4436579     
   10000028.4353719     
   10000028.4300313     
   10000028.4280952     
   10000027.1118231     
   10000027.1094631     
   10000027.1033125     
   10000027.0944560     
   10000027.0837657     
   10000027.0719425     
   10000027.0595538     
   10000027.0470645     
   10000027.0348647     
   10000027.0232921     
   10000027.0126519     
   10000027.0032338     
   10000026.9953271     
   10000026.9892339     
   10000026.9852820     
   10000026.9838359     
   10000025.5507320     
   10000025.5490971     
   10000025.5449299     
   10000025.5390573     
   10000025.5321069     
   10000025.5245520     
   10000025.5167499     
   10000025.5089735     
   10000025.5014380     
   10000025.4943218     
   10000025.4877844     
   10000025.4819814     
   10000025.4770777     
   10000025.4732603     
   10000025.4707499     
   10000025.4698125     
   10000023.9237292     
   10000023.9228609     
   10000023.9207810     
   10000023.9180344     
   10000023.9149849     
   10000023.9118637     
   10000023.9088083     
   10000023.9058939     
   10000023.9031579     
   10000023.9006186     
   10000023.8982895     
   10000023.8961921     
   10000023.8943665     
   10000023.8928826     
   10000023.8918513     
   10000023.8914365     
   10000022.2370109     
   10000022.2369457     
   10000022.2370407     
   10000022.2375327     
   10000022.2385028     
   10000022.2399269     
   10000022.2417156     
   10000022.2437440     
   10000022.2458724     
   10000022.2479618     
   10000022.2498835     
   10000022.2515276     
   10000022.2528113     
   10000022.2536870     
   10000022.2541537     
   10000022.2542691     
   10000020.4970646     
   10000020.4978322     
   10000020.5001667     
   10000020.5039699     
   10000020.5090213     
   10000020.5150309     
   10000020.5216788     
   10000020.5286416     
   10000020.5356086     
   10000020.5422910     
   10000020.5484255     
   10000020.5537781     
   10000020.5581470     
   10000020.5613690     
   10000020.5633294     
   10000020.5639755     
   10000018.7106613     
   10000018.7122817     
   10000018.7168893     
   10000018.7240226     
   10000018.7331417     
   10000018.7436833     
   10000018.7550984     
   10000018.7668728     
   10000018.7785368     
   10000018.7896651     
   10000018.7998737     
   10000018.8088152     
   10000018.8161769     
   10000018.8216831     
   10000018.8251045     
   10000018.8262729     
   10000016.8848506     
   10000016.8873309     
   10000016.8942037     
   10000016.9046145     
   10000016.9176886     
   10000016.9325871     
   10000016.9485398     
   10000016.9648575     
   10000016.9809308     
   10000016.9962190     
   10000017.0102369     
   10000017.0225403     
   10000017.0327174     
   10000017.0403860     
   10000017.0452013     
   10000017.0468729     
   10000015.0269598     
   10000015.0302897     
   10000015.0393641     
   10000015.0529053     
   10000015.0696922     
   10000015.0886154     
   10000015.1087012     
   10000015.1291107     
   10000015.1491237     
   10000015.1681137     
   10000015.1855210     
   10000015.2008276     
   10000015.2135388     
   10000015.2231747     
   10000015.2292748     
   10000015.2314181     
   10000013.1445986     
   10000013.1487442     
   10000013.1598819     
   10000013.1762807     
   10000013.1963687     
   10000013.2187827     
   10000013.2423762     
   10000013.2661988     
   10000013.2894595     
   10000013.3114839     
   10000013.3316726     
   10000013.3494631     
   10000013.3643002     
   10000013.3756189     
   10000013.3828438     
   10000013.3854120     
   10000011.2456715     
   10000011.2505669     
   10000011.2635280     
   10000011.2823430     
   10000011.3050976     
   10000011.3302100     
   10000011.3564107     
   10000011.3826907     
   10000011.4082392     
   10000011.4323807     
   10000011.4545178     
   10000011.4740798     
   10000011.4904803     
   10000011.5030873     
   10000011.5112143     
   10000011.5141422     
   10000009.3384042     
   10000009.3439383     
   10000009.3583405     
   10000009.3788986     
   10000009.4033897     
   10000009.4300788     
   10000009.4576476     
   10000009.4850985     
   10000009.5116616     
   10000009.5367127     
   10000009.5597022     
   10000009.5800935     
   10000009.5973064     
   10000009.6106704     
   10000009.6193978     
   10000009.6225976     
   10000007.4313920     
   10000007.4373869     
   10000007.4526382     
   10000007.4739380     
   10000007.4988385     
   10000007.5255648     
   10000007.5528554     
   10000007.5798085     
   10000007.6057599     
   10000007.6301874     
   10000007.6526348     
   10000007.6726435     
   10000007.6896866     
   10000007.7030999     
   10000007.7120211     
   10000007.7153748     
   10000005.5336885     
   10000005.5398589     
   10000005.5550355     
   10000005.5755897     
   10000005.5990343     
   10000005.6237390     
   10000005.6486331     
   10000005.6729987     
   10000005.6963339     
   10000005.7182588     
   10000005.7384445     
   10000005.7565499     
   10000005.7721540     
   10000005.7846702     
   10000005.7932264     
   10000005.7965726     
   10000003.6549826     
   10000003.6608400     
   10000003.6744380     
   10000003.6920062     
   10000003.7114109     
   10000003.7314185     
   10000003.7512843     
   10000003.7705413     
   10000003.7888819     
   10000003.8060842     
   10000003.8219595     
   10000003.8363049     
   10000003.8488494     
   10000003.8591719     
   10000003.8665551     
   10000003.8696512     
   10000001.8059705     
   10000001.8105880     
   10000001.8198969     
   10000001.8310949     
   10000001.8429879     
   10000001.8549588     
   10000001.8666622     
   10000001.8778955     
   10000001.8885350     
   10000001.8984981     
   10000001.9077168     
   10000001.9161150     
   10000001.9235811     
   10000001.9299213     
   10000001.9347592     
   10000001.9372466     
   10000000.0000000     
   10000000.0000000     
   10000000.0000000     
   10000000.0000000     
   10000000.0000000     
   10000000.0000000     
   10000000.0000000     
   10000000.0000000     
   10000000.0000000     
   10000000.0000000     
   10000000.0000000     
   10000000.0000000     
   10000000.0000000     
  10000000.00000000     
   10000000.0000000     
   10000000.0000000     
VECTORS u double 
    0.00000E+00        -0.57692E-01         0.00000E+00
    0.00000E+00        -0.53846E-01         0.00000E+00
    0.00000E+00        -0.50000E-01         0.00000E+00
    0.00000E+00        -0.46154E-01         0.00000E+00
    0.00000E+00        -0.42308E-01         0.00000E+00
    0.00000E+00        -0.38462E-01         0.00000E+00
    0.00000E+00        -0.34615E-01         0.00000E+00
    0.00000E+00        -0.30769E-01         0.00000E+00
    0.00000E+00        -0.26923E-01         0.00000E+00
    0.00000E+00        -0.23077E-01         0.00000E+00
    0.00000E+00        -0.19231E-01         0.00000E+00
    0.00000E+00        -0.15385E-01         0.00000E+00
    0.00000E+00        -0.11538E-01         0.00000E+00
    0.00000E+00        -0.76923E-02         0.00000E+00
    0.00000E+00        -0.38462E-02         0.00000E+00
    0.00000E+00         0.00000E+00         0.00000E+00
    0.13246E-08        -0.57692E-01         0.00000E+00
    0.12036E-08        -0.53846E-01         0.00000E+00
    0.10923E-08        -0.50000E-01         0.00000E+00
    0.98961E-09        -0.46154E-01         0.00000E+00
    0.89433E-09        -0.42308E-01         0.00000E+00
    0.80524E-09        -0.38462E-01         0.00000E+00
    0.72112E-09        -0.34615E-01         0.00000E+00
    0.64079E-09        -0.30769E-01         0.00000E+00
    0.56308E-09        -0.26923E-01         0.00000E+00
    0.48685E-09        -0.23077E-01         0.00000E+00
    0.41097E-09        -0.19231E-01         0.00000E+00
    0.33436E-09        -0.15385E-01         0.00000E+00
    0.25598E-09        -0.11538E-01         0.00000E+00
    0.17478E-09        -0.76923E-02         0.00000E+00
    0.89783E-10        -0.38462E-02         0.00000E+00
    0.00000E+00         0.00000E+00         0.00000E+00
    0.26404E-08        -0.57692E-01         0.00000E+00
    0.23988E-08        -0.53846E-01         0.00000E+00
    0.21768E-08        -0.50000E-01         0.00000E+00
    0.19720E-08        -0.46154E-01         0.00000E+00
    0.17821E-08        -0.42308E-01         0.00000E+00
    0.16045E-08        -0.38462E-01         0.00000E+00
    0.14369E-08        -0.34615E-01         0.00000E+00
    0.12768E-08        -0.30769E-01         0.00000E+00
    0.11220E-08        -0.26923E-01         0.00000E+00
    0.97017E-09        -0.23077E-01         0.00000E+00
    0.81901E-09        -0.19231E-01         0.00000E+00
    0.66639E-09        -0.15385E-01         0.00000E+00
    0.51020E-09        -0.11538E-01         0.00000E+00
    0.34840E-09        -0.76923E-02         0.00000E+00
    0.17898E-09        -0.38462E-02         0.00000E+00
    0.00000E+00         0.00000E+00         0.00000E+00
    0.39383E-08        -0.57692E-01         0.00000E+00
    0.35773E-08        -0.53846E-01         0.00000E+00
    0.32457E-08        -0.50000E-01         0.00000E+00
    0.29401E-08        -0.46154E-01         0.00000E+00
    0.26566E-08        -0.42308E-01         0.00000E+00
    0.23918E-08        -0.38462E-01         0.00000E+00
    0.21419E-08        -0.34615E-01         0.00000E+00
    0.19034E-08        -0.30769E-01         0.00000E+00
    0.16727E-08        -0.26923E-01         0.00000E+00
    0.14465E-08        -0.23077E-01         0.00000E+00
    0.12212E-08        -0.19231E-01         0.00000E+00
    0.99377E-09        -0.15385E-01         0.00000E+00
    0.76094E-09        -0.11538E-01         0.00000E+00
    0.51969E-09        -0.76923E-02         0.00000E+00
    0.26701E-09        -0.38462E-02         0.00000E+00
    0.00000E+00         0.00000E+00         0.00000E+00
    0.52097E-08        -0.57692E-01         0.00000E+00
    0.47308E-08        -0.53846E-01         0.00000E+00
    0.42913E-08        -0.50000E-01         0.00000E+00
    0.38865E-08        -0.46154E-01         0.00000E+00
    0.35114E-08        -0.42308E-01         0.00000E+00
    0.31612E-08        -0.38462E-01         0.00000E+00
    0.28309E-08        -0.34615E-01         0.00000E+00
    0.25158E-08        -0.30769E-01         0.00000E+00
    0.22111E-08        -0.26923E-01         0.00000E+00
    0.19122E-08        -0.23077E-01         0.00000E+00
    0.16147E-08        -0.19231E-01         0.00000E+00
    0.13142E-08        -0.15385E-01         0.00000E+00
    0.10065E-08        -0.11538E-01         0.00000E+00
    0.68750E-09        -0.76923E-02         0.00000E+00
    0.35330E-09        -0.38462E-02         0.00000E+00
    0.00000E+00         0.00000E+00         0.00000E+00
    0.64455E-08        -0.57692E-01         0.00000E+00
    0.58509E-08        -0.53846E-01         0.00000E+00
    0.53058E-08        -0.50000E-01         0.00000E+00
    0.48043E-08        -0.46154E-01         0.00000E+00
    0.43400E-08        -0.42308E-01         0.00000E+00
    0.39068E-08        -0.38462E-01         0.00000E+00
    0.34986E-08        -0.34615E-01         0.00000E+00
    0.31093E-08        -0.30769E-01         0.00000E+00
    0.27330E-08        -0.26923E-01         0.00000E+00
    0.23640E-08        -0.23077E-01         0.00000E+00
    0.19966E-08        -0.19231E-01         0.00000E+00
    0.16254E-08        -0.15385E-01         0.00000E+00
    0.12451E-08        -0.11538E-01         0.00000E+00
    0.85073E-09        -0.76923E-02         0.00000E+00
    0.43728E-09        -0.38462E-02         0.00000E+00
    0.00000E+00         0.00000E+00         0.00000E+00
    0.76368E-08        -0.57692E-01         0.00000E+00
    0.69293E-08        -0.53846E-01         0.00000E+00
    0.62815E-08        -0.50000E-01         0.00000E+00
    0.56862E-08        -0.46154E-01         0.00000E+00
    0.51357E-08        -0.42308E-01         0.00000E+00
    0.46227E-08        -0.38462E-01         0.00000E+00
    0.41397E-08        -0.34615E-01         0.00000E+00
    0.36794E-08        -0.30769E-01         0.00000E+00
    0.32346E-08        -0.26923E-01         0.00000E+00
    0.27985E-08        -0.23077E-01         0.00000E+00
    0.23642E-08        -0.19231E-01         0.00000E+00
    0.19252E-08        -0.15385E-01         0.00000E+00
    0.14753E-08        -0.11538E-01         0.00000E+00
    0.10083E-08        -0.76923E-02         0.00000E+00
    0.51843E-09        -0.38462E-02         0.00000E+00
    0.00000E+00         0.00000E+00         0.00000E+00
    0.87749E-08        -0.57692E-01         0.00000E+00
    0.79577E-08        -0.53846E-01         0.00000E+00
    0.72107E-08        -0.50000E-01         0.00000E+00
    0.65252E-08        -0.46154E-01         0.00000E+00
    0.58923E-08        -0.42308E-01         0.00000E+00
    0.53032E-08        -0.38462E-01         0.00000E+00
    0.47491E-08        -0.34615E-01         0.00000E+00
    0.42215E-08        -0.30769E-01         0.00000E+00
    0.37120E-08        -0.26923E-01         0.00000E+00
    0.32123E-08        -0.23077E-01         0.00000E+00
    0.27147E-08        -0.19231E-01         0.00000E+00
    0.22114E-08        -0.15385E-01         0.00000E+00
    0.16952E-08        -0.11538E-01         0.00000E+00
    0.11591E-08        -0.76923E-02         0.00000E+00
    0.59621E-09        -0.38462E-02         0.00000E+00
    0.00000E+00         0.00000E+00         0.00000E+00
    0.98506E-08        -0.57692E-01         0.00000E+00
    0.89277E-08        -0.53846E-01         0.00000E+00
    0.80856E-08        -0.50000E-01         0.00000E+00
    0.73142E-08        -0.46154E-01         0.00000E+00
    0.66032E-08        -0.42308E-01         0.00000E+00
    0.59424E-08        -0.38462E-01         0.00000E+00
    0.53217E-08        -0.34615E-01         0.00000E+00
    0.47312E-08        -0.30769E-01         0.00000E+00
    0.41612E-08        -0.26923E-01         0.00000E+00
    0.36022E-08        -0.23077E-01         0.00000E+00
    0.30454E-08        -0.19231E-01         0.00000E+00
    0.24820E-08        -0.15385E-01         0.00000E+00
    0.19036E-08        -0.11538E-01         0.00000E+00
    0.13022E-08        -0.76923E-02         0.00000E+00
    0.67013E-09        -0.38462E-02         0.00000E+00
    0.00000E+00         0.00000E+00         0.00000E+00
    0.10855E-07        -0.57692E-01         0.00000E+00
    0.98310E-08        -0.53846E-01         0.00000E+00
    0.88986E-08        -0.50000E-01         0.00000E+00
    0.80463E-08        -0.46154E-01         0.00000E+00
    0.72623E-08        -0.42308E-01         0.00000E+00
    0.65349E-08        -0.38462E-01         0.00000E+00
    0.58526E-08        -0.34615E-01         0.00000E+00
    0.52041E-08        -0.30769E-01         0.00000E+00
    0.45785E-08        -0.26923E-01         0.00000E+00
    0.39652E-08        -0.23077E-01         0.00000E+00
    0.33539E-08        -0.19231E-01         0.00000E+00
    0.27349E-08        -0.15385E-01         0.00000E+00
    0.20988E-08        -0.11538E-01         0.00000E+00
    0.14366E-08        -0.76923E-02         0.00000E+00
    0.73971E-09        -0.38462E-02         0.00000E+00
    0.00000E+00         0.00000E+00         0.00000E+00
    0.11779E-07        -0.57692E-01         0.00000E+00
    0.10659E-07        -0.53846E-01         0.00000E+00
    0.96422E-08        -0.50000E-01         0.00000E+00
    0.87145E-08        -0.46154E-01         0.00000E+00
    0.78632E-08        -0.42308E-01         0.00000E+00
    0.70749E-08        -0.38462E-01         0.00000E+00
    0.63367E-08        -0.34615E-01         0.00000E+00
    0.56360E-08        -0.30769E-01         0.00000E+00
    0.49604E-08        -0.26923E-01         0.00000E+00
    0.42981E-08        -0.23077E-01         0.00000E+00
    0.36377E-08        -0.19231E-01         0.00000E+00
    0.29683E-08        -0.15385E-01         0.00000E+00
    0.22795E-08        -0.11538E-01         0.00000E+00
    0.15614E-08        -0.76923E-02         0.00000E+00
    0.80453E-09        -0.38462E-02         0.00000E+00
    0.00000E+00         0.00000E+00         0.00000E+00
    0.12614E-07        -0.57692E-01         0.00000E+00
    0.11404E-07        -0.53846E-01         0.00000E+00
    0.10309E-07        -0.50000E-01         0.00000E+00
    0.93121E-08        -0.46154E-01         0.00000E+00
    0.83999E-08        -0.42308E-01         0.00000E+00
    0.75572E-08        -0.38462E-01         0.00000E+00
    0.67695E-08        -0.34615E-01         0.00000E+00
    0.60228E-08        -0.30769E-01         0.00000E+00
    0.53034E-08        -0.26923E-01         0.00000E+00
    0.45981E-08        -0.23077E-01         0.00000E+00
    0.38944E-08        -0.19231E-01         0.00000E+00
    0.31803E-08        -0.15385E-01         0.00000E+00
    0.24443E-08        -0.11538E-01         0.00000E+00
    0.16757E-08        -0.76923E-02         0.00000E+00
    0.86417E-09        -0.38462E-02         0.00000E+00
    0.00000E+00         0.00000E+00         0.00000E+00
    0.13351E-07        -0.57692E-01         0.00000E+00
    0.12058E-07        -0.53846E-01         0.00000E+00
    0.10891E-07        -0.50000E-01         0.00000E+00
    0.98322E-08        -0.46154E-01         0.00000E+00
    0.88663E-08        -0.42308E-01         0.00000E+00
    0.79763E-08        -0.38462E-01         0.00000E+00
    0.71462E-08        -0.34615E-01         0.00000E+00
    0.63604E-08        -0.30769E-01         0.00000E+00
    0.56040E-08        -0.26923E-01         0.00000E+00
    0.48623E-08        -0.23077E-01         0.00000E+00
    0.41218E-08        -0.19231E-01         0.00000E+00
    0.33692E-08        -0.15385E-01         0.00000E+00
    0.25921E-08        -0.11538E-01         0.00000E+00
    0.17788E-08        -0.76923E-02         0.00000E+00
    0.91826E-09        -0.38462E-02         0.00000E+00
    0.00000E+00         0.00000E+00         0.00000E+00
    0.13981E-07        -0.57692E-01         0.00000E+00
    0.12612E-07        -0.53846E-01         0.00000E+00
    0.11380E-07        -0.50000E-01         0.00000E+00
    0.10268E-07        -0.46154E-01         0.00000E+00
    0.92565E-08        -0.42308E-01         0.00000E+00
    0.83272E-08        -0.38462E-01         0.00000E+00
    0.74624E-08        -0.34615E-01         0.00000E+00
    0.66451E-08        -0.30769E-01         0.00000E+00
    0.58590E-08        -0.26923E-01         0.00000E+00
    0.50881E-08        -0.23077E-01         0.00000E+00
    0.43176E-08        -0.19231E-01         0.00000E+00
    0.35332E-08        -0.15385E-01         0.00000E+00
    0.27216E-08        -0.11538E-01         0.00000E+00
    0.18699E-08        -0.76923E-02         0.00000E+00
    0.96644E-09        -0.38462E-02         0.00000E+00
    0.00000E+00         0.00000E+00         0.00000E+00
    0.14494E-07        -0.57692E-01         0.00000E+00
    0.13057E-07        -0.53846E-01         0.00000E+00
    0.11771E-07        -0.50000E-01         0.00000E+00
    0.10614E-07        -0.46154E-01         0.00000E+00
    0.95650E-08        -0.42308E-01         0.00000E+00
    0.86048E-08        -0.38462E-01         0.00000E+00
    0.77137E-08        -0.34615E-01         0.00000E+00
    0.68732E-08        -0.30769E-01         0.00000E+00
    0.60652E-08        -0.26923E-01         0.00000E+00
    0.52728E-08        -0.23077E-01         0.00000E+00
    0.44799E-08        -0.19231E-01         0.00000E+00
    0.36709E-08        -0.15385E-01         0.00000E+00
    0.28316E-08        -0.11538E-01         0.00000E+00
    0.19483E-08        -0.76923E-02         0.00000E+00
    0.10084E-08        -0.38462E-02         0.00000E+00
    0.00000E+00         0.00000E+00         0.00000E+00
    0.14881E-07        -0.57692E-01         0.00000E+00
    0.13387E-07        -0.53846E-01         0.00000E+00
    0.12055E-07        -0.50000E-01         0.00000E+00
    0.10862E-07        -0.46154E-01         0.00000E+00
    0.97860E-08        -0.42308E-01         0.00000E+00
    0.88044E-08        -0.38462E-01         0.00000E+00
    0.78961E-08        -0.34615E-01         0.00000E+00
    0.70410E-08        -0.30769E-01         0.00000E+00
    0.62198E-08        -0.26923E-01         0.00000E+00
    0.54141E-08        -0.23077E-01         0.00000E+00
    0.46065E-08        -0.19231E-01         0.00000E+00
    0.37807E-08        -0.15385E-01         0.00000E+00
    0.29211E-08        -0.11538E-01         0.00000E+00
    0.20133E-08        -0.76923E-02         0.00000E+00
    0.10438E-08        -0.38462E-02         0.00000E+00
    0.00000E+00         0.00000E+00         0.00000E+00
    0.15134E-07        -0.57692E-01         0.00000E+00
    0.13593E-07        -0.53846E-01         0.00000E+00
    0.12226E-07        -0.50000E-01         0.00000E+00
    0.11008E-07        -0.46154E-01         0.00000E+00
    0.99144E-08        -0.42308E-01         0.00000E+00
    0.89213E-08        -0.38462E-01         0.00000E+00
    0.80054E-08        -0.34615E-01         0.00000E+00
    0.71451E-08        -0.30769E-01         0.00000E+00
    0.63196E-08        -0.26923E-01         0.00000E+00
    0.55093E-08        -0.23077E-01         0.00000E+00
    0.46955E-08        -0.19231E-01         0.00000E+00
    0.38610E-08        -0.15385E-01         0.00000E+00
    0.29890E-08        -0.11538E-01         0.00000E+00
    0.20642E-08        -0.76923E-02         0.00000E+00
    0.10723E-08        -0.38462E-02         0.00000E+00
    0.00000E+00         0.00000E+00         0.00000E+00
    0.15244E-07        -0.57692E-01         0.00000E+00
    0.13666E-07        -0.53846E-01         0.00000E+00
    0.12276E-07        -0.50000E-01         0.00000E+00
    0.11045E-07        -0.46154E-01         0.00000E+00
    0.99451E-08        -0.42308E-01         0.00000E+00
    0.89511E-08        -0.38462E-01         0.00000E+00
    0.80380E-08        -0.34615E-01         0.00000E+00
    0.71824E-08        -0.30769E-01         0.00000E+00
    0.63620E-08        -0.26923E-01         0.00000E+00
    0.55561E-08        -0.23077E-01         0.00000E+00
    0.47450E-08        -0.19231E-01         0.00000E+00
    0.39101E-08        -0.15385E-01         0.00000E+00
    0.30340E-08        -0.11538E-01         0.00000E+00
    0.21003E-08        -0.76923E-02         0.00000E+00
    0.10936E-08        -0.38462E-02         0.00000E+00
    0.00000E+00         0.00000E+00         0.00000E+00
    0.15201E-07        -0.57692E-01         0.00000E+00
    0.13600E-07        -0.53846E-01         0.00000E+00
    0.12199E-07        -0.50000E-01         0.00000E+00
    0.10967E-07        -0.46154E-01         0.00000E+00
    0.98732E-08        -0.42308E-01         0.00000E+00
    0.88899E-08        -0.38462E-01         0.00000E+00
    0.79903E-08        -0.34615E-01         0.00000E+00
    0.71495E-08        -0.30769E-01         0.00000E+00
    0.63440E-08        -0.26923E-01         0.00000E+00
    0.55520E-08        -0.23077E-01         0.00000E+00
    0.47526E-08        -0.19231E-01         0.00000E+00
    0.39264E-08        -0.15385E-01         0.00000E+00
    0.30550E-08        -0.11538E-01         0.00000E+00
    0.21207E-08        -0.76923E-02         0.00000E+00
    0.11074E-08        -0.38462E-02         0.00000E+00
    0.00000E+00         0.00000E+00         0.00000E+00
    0.14996E-07        -0.57692E-01         0.00000E+00
    0.13387E-07        -0.53846E-01         0.00000E+00
    0.11990E-07        -0.50000E-01         0.00000E+00
    0.10770E-07        -0.46154E-01         0.00000E+00
    0.96945E-08        -0.42308E-01         0.00000E+00
    0.87337E-08        -0.38462E-01         0.00000E+00
    0.78588E-08        -0.34615E-01         0.00000E+00
    0.70434E-08        -0.30769E-01         0.00000E+00
    0.62629E-08        -0.26923E-01         0.00000E+00
    0.54943E-08        -0.23077E-01         0.00000E+00
    0.47162E-08        -0.19231E-01         0.00000E+00
    0.39080E-08        -0.15385E-01         0.00000E+00
    0.30502E-08        -0.11538E-01         0.00000E+00
    0.21244E-08        -0.76923E-02         0.00000E+00
    0.11130E-08        -0.38462E-02         0.00000E+00
    0.00000E+00         0.00000E+00         0.00000E+00
    0.14622E-07        -0.57692E-01         0.00000E+00
    0.13020E-07        -0.53846E-01         0.00000E+00
    0.11641E-07        -0.50000E-01         0.00000E+00
    0.10448E-07        -0.46154E-01         0.00000E+00
    0.94049E-08        -0.42308E-01         0.00000E+00
    0.84791E-08        -0.38462E-01         0.00000E+00
    0.76404E-08        -0.34615E-01         0.00000E+00
    0.68610E-08        -0.30769E-01         0.00000E+00
    0.61156E-08        -0.26923E-01         0.00000E+00
    0.53803E-08        -0.23077E-01         0.00000E+00
    0.46330E-08        -0.19231E-01         0.00000E+00
    0.38524E-08        -0.15385E-01         0.00000E+00
    0.30179E-08        -0.11538E-01         0.00000E+00
    0.21101E-08        -0.76923E-02         0.00000E+00
    0.11099E-08        -0.38462E-02         0.00000E+00
    0.00000E+00         0.00000E+00         0.00000E+00
    0.14069E-07        -0.57692E-01         0.00000E+00
    0.12492E-07        -0.53846E-01         0.00000E+00
    0.11149E-07        -0.50000E-01         0.00000E+00
    0.99980E-08        -0.46154E-01         0.00000E+00
    0.90011E-08        -0.42308E-01         0.00000E+00
    0.81231E-08        -0.38462E-01         0.00000E+00
    0.73321E-08        -0.34615E-01         0.00000E+00
    0.65994E-08        -0.30769E-01         0.00000E+00
    0.58990E-08        -0.26923E-01         0.00000E+00
    0.52068E-08        -0.23077E-01         0.00000E+00
    0.45000E-08        -0.19231E-01         0.00000E+00
    0.37567E-08        -0.15385E-01         0.00000E+00
    0.29557E-08        -0.11538E-01         0.00000E+00
    0.20761E-08        -0.76923E-02         0.00000E+00
    0.10973E-08        -0.38462E-02         0.00000E+00
    0.00000E+00         0.00000E+00         0.00000E+00
    0.13330E-07        -0.57692E-01         0.00000E+00
    0.11797E-07        -0.53846E-01         0.00000E+00
    0.10508E-07        -0.50000E-01         0.00000E+00
    0.94161E-08        -0.46154E-01         0.00000E+00
    0.84803E-08        -0.42308E-01         0.00000E+00
    0.76630E-08        -0.38462E-01         0.00000E+00
    0.69311E-08        -0.34615E-01         0.00000E+00
    0.62554E-08        -0.30769E-01         0.00000E+00
    0.56097E-08        -0.26923E-01         0.00000E+00
    0.49699E-08        -0.23077E-01         0.00000E+00
    0.43132E-08        -0.19231E-01         0.00000E+00
    0.36174E-08        -0.15385E-01         0.00000E+00
    0.28605E-08        -0.11538E-01         0.00000E+00
    0.20201E-08        -0.76923E-02         0.00000E+00
    0.10739E-08        -0.38462E-02         0.00000E+00
    0.00000E+00         0.00000E+00         0.00000E+00
    0.12398E-07        -0.57692E-01         0.00000E+00
    0.10931E-07        -0.53846E-01         0.00000E+00
    0.97151E-08        -0.50000E-01         0.00000E+00
    0.87002E-08        -0.46154E-01         0.00000E+00
    0.78405E-08        -0.42308E-01         0.00000E+00
    0.70966E-08        -0.38462E-01         0.00000E+00
    0.64348E-08        -0.34615E-01         0.00000E+00
    0.58257E-08        -0.30769E-01         0.00000E+00
    0.52436E-08        -0.26923E-01         0.00000E+00
    0.46651E-08        -0.23077E-01         0.00000E+00
    0.40678E-08        -0.19231E-01         0.00000E+00
    0.34297E-08        -0.15385E-01         0.00000E+00
    0.27280E-08        -0.11538E-01         0.00000E+00
    0.19390E-08        -0.76923E-02         0.00000E+00
    0.10380E-08        -0.38462E-02         0.00000E+00
    0.00000E+00         0.00000E+00         0.00000E+00
    0.11264E-07        -0.57692E-01         0.00000E+00
    0.98878E-08        -0.53846E-01         0.00000E+00
    0.87683E-08        -0.50000E-01         0.00000E+00
    0.78489E-08        -0.46154E-01         0.00000E+00
    0.70807E-08        -0.42308E-01         0.00000E+00
    0.64225E-08        -0.38462E-01         0.00000E+00
    0.58405E-08        -0.34615E-01         0.00000E+00
    0.53065E-08        -0.30769E-01         0.00000E+00
    0.47960E-08        -0.26923E-01         0.00000E+00
    0.42868E-08        -0.23077E-01         0.00000E+00
    0.37578E-08        -0.19231E-01         0.00000E+00
    0.31874E-08        -0.15385E-01         0.00000E+00
    0.25528E-08        -0.11538E-01         0.00000E+00
    0.18286E-08        -0.76923E-02         0.00000E+00
    0.98746E-09        -0.38462E-02         0.00000E+00
    0.00000E+00         0.00000E+00         0.00000E+00
    0.99240E-08        -0.57692E-01         0.00000E+00
    0.86662E-08        -0.53846E-01         0.00000E+00
    0.76670E-08        -0.50000E-01         0.00000E+00
    0.68627E-08        -0.46154E-01         0.00000E+00
    0.62006E-08        -0.42308E-01         0.00000E+00
    0.56392E-08        -0.38462E-01         0.00000E+00
    0.51456E-08        -0.34615E-01         0.00000E+00
    0.46937E-08        -0.30769E-01         0.00000E+00
    0.42612E-08        -0.26923E-01         0.00000E+00
    0.38283E-08        -0.23077E-01         0.00000E+00
    0.33755E-08        -0.19231E-01         0.00000E+00
    0.28828E-08        -0.15385E-01         0.00000E+00
    0.23274E-08        -0.11538E-01         0.00000E+00
    0.16831E-08        -0.76923E-02         0.00000E+00
    0.91893E-09        -0.38462E-02         0.00000E+00
    0.00000E+00         0.00000E+00         0.00000E+00
    0.83719E-08        -0.57692E-01         0.00000E+00
    0.72650E-08        -0.53846E-01         0.00000E+00
    0.64130E-08        -0.50000E-01         0.00000E+00
    0.57436E-08        -0.46154E-01         0.00000E+00
    0.52012E-08        -0.42308E-01         0.00000E+00
    0.47455E-08        -0.38462E-01         0.00000E+00
    0.43467E-08        -0.34615E-01         0.00000E+00
    0.39821E-08        -0.30769E-01         0.00000E+00
    0.36326E-08        -0.26923E-01         0.00000E+00
    0.32814E-08        -0.23077E-01         0.00000E+00
    0.29117E-08        -0.19231E-01         0.00000E+00
    0.25058E-08        -0.15385E-01         0.00000E+00
    0.20423E-08        -0.11538E-01         0.00000E+00
    0.14944E-08        -0.76923E-02         0.00000E+00
    0.82778E-09        -0.38462E-02         0.00000E+00
    0.00000E+00         0.00000E+00         0.00000E+00
    0.66036E-08        -0.57692E-01         0.00000E+00
    0.56864E-08        -0.53846E-01         0.00000E+00
    0.50111E-08        -0.50000E-01         0.00000E+00
    0.44952E-08        -0.46154E-01         0.00000E+00
    0.40833E-08        -0.42308E-01         0.00000E+00
    0.37395E-08        -0.38462E-01         0.00000E+00
    0.34396E-08        -0.34615E-01         0.00000E+00
    0.31654E-08        -0.30769E-01         0.00000E+00
    0.29020E-08        -0.26923E-01         0.00000E+00
    0.26364E-08        -0.23077E-01         0.00000E+00
    0.23553E-08        -0.19231E-01         0.00000E+00
    0.20440E-08        -0.15385E-01         0.00000E+00
    0.16845E-08        -0.11538E-01         0.00000E+00
    0.12512E-08        -0.76923E-02         0.00000E+00
    0.70712E-09        -0.38462E-02         0.00000E+00
    0.00000E+00         0.00000E+00         0.00000E+00
    0.46163E-08        -0.57692E-01         0.00000E+00
    0.39374E-08        -0.53846E-01         0.00000E+00
    0.34697E-08        -0.50000E-01         0.00000E+00
    0.31219E-08        -0.46154E-01         0.00000E+00
    0.28467E-08        -0.42308E-01         0.00000E+00
    0.26178E-08        -0.38462E-01         0.00000E+00
    0.24184E-08        -0.34615E-01         0.00000E+00
    0.22358E-08        -0.30769E-01         0.00000E+00
    0.20602E-08        -0.26923E-01         0.00000E+00
    0.18825E-08        -0.23077E-01         0.00000E+00
    0.16936E-08        -0.19231E-01         0.00000E+00
    0.14831E-08        -0.15385E-01         0.00000E+00
    0.12377E-08        -0.11538E-01         0.00000E+00
    0.93731E-09        -0.76923E-02         0.00000E+00
    0.54601E-09        -0.38462E-02         0.00000E+00
    0.00000E+00         0.00000E+00         0.00000E+00
    0.24097E-08        -0.57692E-01         0.00000E+00
    0.20343E-08        -0.53846E-01         0.00000E+00
    0.17989E-08        -0.50000E-01         0.00000E+00
    0.16252E-08        -0.46154E-01         0.00000E+00
    0.14882E-08        -0.42308E-01         0.00000E+00
    0.13743E-08        -0.38462E-01         0.00000E+00
    0.12751E-08        -0.34615E-01         0.00000E+00
    0.11842E-08        -0.30769E-01         0.00000E+00
    0.10966E-08        -0.26923E-01         0.00000E+00
    0.10078E-08        -0.23077E-01         0.00000E+00
    0.91308E-09        -0.19231E-01         0.00000E+00
    0.80716E-09        -0.15385E-01         0.00000E+00
    0.68290E-09        -0.11538E-01         0.00000E+00
    0.52912E-09        -0.76923E-02         0.00000E+00
    0.32476E-09        -0.38462E-02         0.00000E+00
    0.00000E+00         0.00000E+00         0.00000E+00
    0.00000E+00        -0.57692E-01         0.00000E+00
    0.00000E+00        -0.53846E-01         0.00000E+00
    0.00000E+00        -0.50000E-01         0.00000E+00
    0.00000E+00        -0.46154E-01         0.00000E+00
    0.00000E+00        -0.42308E-01         0.00000E+00
    0.00000E+00        -0.38462E-01         0.00000E+00
    0.00000E+00        -0.34615E-01         0.00000E+00
    0.00000E+00        -0.30769E-01         0.00000E+00
    0.00000E+00        -0.26923E-01         0.00000E+00
    0.00000E+00        -0.23077E-01         0.00000E+00
    0.00000E+00        -0.19231E-01         0.00000E+00
    0.00000E+00        -0.15385E-01         0.00000E+00
    0.00000E+00        -0.11538E-01         0.00000E+00
    0.00000E+00        -0.76923E-02         0.00000E+00
    0.00000E+00        -0.38462E-02         0.00000E+00
    0.00000E+00         0.00000E+00         0.00000E+00
CELL_DATA        450
VECTORS vDarcy double 
    0.33356E-13        -0.43034E-14         0.00000E+00
    0.33332E-13        -0.11697E-13         0.00000E+00
    0.33286E-13        -0.17526E-13         0.00000E+00
    0.33224E-13        -0.21925E-13         0.00000E+00
    0.33148E-13        -0.25017E-13         0.00000E+00
    0.33063E-13        -0.26914E-13         0.00000E+00
    0.32972E-13        -0.27716E-13         0.00000E+00
    0.32879E-13        -0.27510E-13         0.00000E+00
    0.32787E-13        -0.26377E-13         0.00000E+00
    0.32700E-13        -0.24381E-13         0.00000E+00
    0.32620E-13        -0.21581E-13         0.00000E+00
    0.32552E-13        -0.18022E-13         0.00000E+00
    0.32496E-13        -0.13743E-13         0.00000E+00
    0.32457E-13        -0.87722E-14         0.00000E+00
    0.32437E-13        -0.31310E-14         0.00000E+00
    0.99946E-13        -0.42778E-14         0.00000E+00
    0.99874E-13        -0.11626E-13         0.00000E+00
    0.99738E-13        -0.17417E-13         0.00000E+00
    0.99551E-13        -0.21785E-13         0.00000E+00
    0.99324E-13        -0.24855E-13         0.00000E+00
    0.99068E-13        -0.26736E-13         0.00000E+00
    0.98795E-13        -0.27529E-13         0.00000E+00
    0.98515E-13        -0.27324E-13         0.00000E+00
    0.98240E-13        -0.26196E-13         0.00000E+00
    0.97978E-13        -0.24213E-13         0.00000E+00
    0.97740E-13        -0.21431E-13         0.00000E+00
    0.97533E-13        -0.17897E-13         0.00000E+00
    0.97368E-13        -0.13647E-13         0.00000E+00
    0.97250E-13        -0.87112E-14         0.00000E+00
    0.97188E-13        -0.31093E-14         0.00000E+00
    0.16617E-12        -0.42266E-14         0.00000E+00
    0.16605E-12        -0.11483E-13         0.00000E+00
    0.16583E-12        -0.17197E-13         0.00000E+00
    0.16551E-12        -0.21505E-13         0.00000E+00
    0.16514E-12        -0.24529E-13         0.00000E+00
    0.16471E-12        -0.26380E-13         0.00000E+00
    0.16425E-12        -0.27157E-13         0.00000E+00
    0.16379E-12        -0.26950E-13         0.00000E+00
    0.16333E-12        -0.25834E-13         0.00000E+00
    0.16289E-12        -0.23876E-13         0.00000E+00
    0.16249E-12        -0.21132E-13         0.00000E+00
    0.16215E-12        -0.17646E-13         0.00000E+00
    0.16188E-12        -0.13456E-13         0.00000E+00
    0.16168E-12        -0.85894E-14         0.00000E+00
    0.16158E-12        -0.30660E-14         0.00000E+00
    0.23180E-12        -0.41497E-14         0.00000E+00
    0.23163E-12        -0.11268E-13         0.00000E+00
    0.23131E-12        -0.16868E-13         0.00000E+00
    0.23087E-12        -0.21084E-13         0.00000E+00
    0.23034E-12        -0.24040E-13         0.00000E+00
    0.22975E-12        -0.25845E-13         0.00000E+00
    0.22911E-12        -0.26599E-13         0.00000E+00
    0.22845E-12        -0.26390E-13         0.00000E+00
    0.22781E-12        -0.25292E-13         0.00000E+00
    0.22720E-12        -0.23372E-13         0.00000E+00
    0.22665E-12        -0.20683E-13         0.00000E+00
    0.22616E-12        -0.17271E-13         0.00000E+00
    0.22578E-12        -0.13170E-13         0.00000E+00
    0.22551E-12        -0.84069E-14         0.00000E+00
    0.22536E-12        -0.30012E-14         0.00000E+00
    0.29658E-12        -0.40468E-14         0.00000E+00
    0.29636E-12        -0.10981E-13         0.00000E+00
    0.29595E-12        -0.16428E-13         0.00000E+00
    0.29539E-12        -0.20523E-13         0.00000E+00
    0.29471E-12        -0.23387E-13         0.00000E+00
    0.29394E-12        -0.25131E-13         0.00000E+00
    0.29312E-12        -0.25854E-13         0.00000E+00
    0.29228E-12        -0.25642E-13         0.00000E+00
    0.29145E-12        -0.24569E-13         0.00000E+00
    0.29067E-12        -0.22700E-13         0.00000E+00
    0.28995E-12        -0.20086E-13         0.00000E+00
    0.28933E-12        -0.16771E-13         0.00000E+00
    0.28884E-12        -0.12789E-13         0.00000E+00
    0.28849E-12        -0.81641E-14         0.00000E+00
    0.28830E-12        -0.29149E-14         0.00000E+00
    0.36029E-12        -0.39178E-14         0.00000E+00
    0.36002E-12        -0.10622E-13         0.00000E+00
    0.35952E-12        -0.15877E-13         0.00000E+00
    0.35883E-12        -0.19819E-13         0.00000E+00
    0.35799E-12        -0.22569E-13         0.00000E+00
    0.35705E-12        -0.24238E-13         0.00000E+00
    0.35604E-12        -0.24923E-13         0.00000E+00
    0.35502E-12        -0.24708E-13         0.00000E+00
    0.35401E-12        -0.23666E-13         0.00000E+00
    0.35305E-12        -0.21860E-13         0.00000E+00
    0.35218E-12        -0.19340E-13         0.00000E+00
    0.35142E-12        -0.16147E-13         0.00000E+00
    0.35082E-12        -0.12313E-13         0.00000E+00
    0.35039E-12        -0.78614E-14         0.00000E+00
    0.35017E-12        -0.28074E-14         0.00000E+00
    0.42268E-12        -0.37624E-14         0.00000E+00
    0.42236E-12        -0.10189E-13         0.00000E+00
    0.42177E-12        -0.15214E-13         0.00000E+00
    0.42095E-12        -0.18973E-13         0.00000E+00
    0.41996E-12        -0.21587E-13         0.00000E+00
    0.41884E-12        -0.23166E-13         0.00000E+00
    0.41766E-12        -0.23805E-13         0.00000E+00
    0.41644E-12        -0.23587E-13         0.00000E+00
    0.41525E-12        -0.22584E-13         0.00000E+00
    0.41412E-12        -0.20854E-13         0.00000E+00
    0.41309E-12        -0.18447E-13         0.00000E+00
    0.41221E-12        -0.15401E-13         0.00000E+00
    0.41149E-12        -0.11744E-13         0.00000E+00
    0.41099E-12        -0.74994E-14         0.00000E+00
    0.41073E-12        -0.26789E-14         0.00000E+00
    0.48353E-12        -0.35803E-14         0.00000E+00
    0.48316E-12        -0.96825E-14         0.00000E+00
    0.48247E-12        -0.14438E-13         0.00000E+00
    0.48153E-12        -0.17983E-13         0.00000E+00
    0.48038E-12        -0.20439E-13         0.00000E+00
    0.47910E-12        -0.21914E-13         0.00000E+00
    0.47773E-12        -0.22501E-13         0.00000E+00
    0.47633E-12        -0.22281E-13         0.00000E+00
    0.47495E-12        -0.21323E-13         0.00000E+00
    0.47365E-12        -0.19683E-13         0.00000E+00
    0.47247E-12        -0.17408E-13         0.00000E+00
    0.47145E-12        -0.14532E-13         0.00000E+00
    0.47063E-12        -0.11083E-13         0.00000E+00
    0.47005E-12        -0.70789E-14         0.00000E+00
    0.46975E-12        -0.25298E-14         0.00000E+00
    0.54262E-12        -0.33712E-14         0.00000E+00
    0.54220E-12        -0.91011E-14         0.00000E+00
    0.54142E-12        -0.13549E-13         0.00000E+00
    0.54034E-12        -0.16850E-13         0.00000E+00
    0.53904E-12        -0.19126E-13         0.00000E+00
    0.53758E-12        -0.20483E-13         0.00000E+00
    0.53603E-12        -0.21011E-13         0.00000E+00
    0.53445E-12        -0.20790E-13         0.00000E+00
    0.53289E-12        -0.19885E-13         0.00000E+00
    0.53142E-12        -0.18349E-13         0.00000E+00
    0.53009E-12        -0.16224E-13         0.00000E+00
    0.52894E-12        -0.13544E-13         0.00000E+00
    0.52802E-12        -0.10332E-13         0.00000E+00
    0.52736E-12        -0.66011E-14         0.00000E+00
    0.52702E-12        -0.23605E-14         0.00000E+00
    0.59972E-12        -0.31347E-14         0.00000E+00
    0.59925E-12        -0.84445E-14         0.00000E+00
    0.59837E-12        -0.12546E-13         0.00000E+00
    0.59717E-12        -0.15574E-13         0.00000E+00
    0.59571E-12        -0.17649E-13         0.00000E+00
    0.59408E-12        -0.18874E-13         0.00000E+00
    0.59235E-12        -0.19338E-13         0.00000E+00
    0.59059E-12        -0.19117E-13         0.00000E+00
    0.58886E-12        -0.18272E-13         0.00000E+00
    0.58722E-12        -0.16854E-13         0.00000E+00
    0.58574E-12        -0.14900E-13         0.00000E+00
    0.58446E-12        -0.12439E-13         0.00000E+00
    0.58343E-12        -0.94913E-14         0.00000E+00
    0.58271E-12        -0.60673E-14         0.00000E+00
    0.58233E-12        -0.21715E-14         0.00000E+00
    0.65462E-12        -0.28707E-14         0.00000E+00
    0.65409E-12        -0.77122E-14         0.00000E+00
    0.65312E-12        -0.11428E-13         0.00000E+00
    0.65179E-12        -0.14154E-13         0.00000E+00
    0.65018E-12        -0.16007E-13         0.00000E+00
    0.64839E-12        -0.17089E-13         0.00000E+00
    0.64648E-12        -0.17485E-13         0.00000E+00
    0.64454E-12        -0.17266E-13         0.00000E+00
    0.64263E-12        -0.16490E-13         0.00000E+00
    0.64084E-12        -0.15203E-13         0.00000E+00
    0.63921E-12        -0.13438E-13         0.00000E+00
    0.63781E-12        -0.11220E-13         0.00000E+00
    0.63669E-12        -0.85652E-14         0.00000E+00
    0.63589E-12        -0.54795E-14         0.00000E+00
    0.63548E-12        -0.19636E-14         0.00000E+00
    0.70711E-12        -0.25789E-14         0.00000E+00
    0.70653E-12        -0.69043E-14         0.00000E+00
    0.70547E-12        -0.10198E-13         0.00000E+00
    0.70401E-12        -0.12593E-13         0.00000E+00
    0.70225E-12        -0.14205E-13         0.00000E+00
    0.70029E-12        -0.15132E-13         0.00000E+00
    0.69821E-12        -0.15456E-13         0.00000E+00
    0.69610E-12        -0.15242E-13         0.00000E+00
    0.69403E-12        -0.14543E-13         0.00000E+00
    0.69208E-12        -0.13401E-13         0.00000E+00
    0.69031E-12        -0.11844E-13         0.00000E+00
    0.68879E-12        -0.98927E-14         0.00000E+00
    0.68758E-12        -0.75571E-14         0.00000E+00
    0.68672E-12        -0.48400E-14         0.00000E+00
    0.68627E-12        -0.17375E-14         0.00000E+00
    0.75699E-12        -0.22594E-14         0.00000E+00
    0.75636E-12        -0.60213E-14         0.00000E+00
    0.75520E-12        -0.88554E-14         0.00000E+00
    0.75362E-12        -0.10893E-13         0.00000E+00
    0.75172E-12        -0.12247E-13         0.00000E+00
    0.74960E-12        -0.13010E-13         0.00000E+00
    0.74735E-12        -0.13258E-13         0.00000E+00
    0.74508E-12        -0.13052E-13         0.00000E+00
    0.74285E-12        -0.12440E-13         0.00000E+00
    0.74076E-12        -0.11456E-13         0.00000E+00
    0.73886E-12        -0.10126E-13         0.00000E+00
    0.73723E-12        -0.84622E-14         0.00000E+00
    0.73593E-12        -0.64716E-14         0.00000E+00
    0.73501E-12        -0.41519E-14         0.00000E+00
    0.73453E-12        -0.14945E-14         0.00000E+00
    0.80406E-12        -0.19123E-14         0.00000E+00
    0.80338E-12        -0.50642E-14         0.00000E+00
    0.80213E-12        -0.74039E-14         0.00000E+00
    0.80043E-12        -0.90599E-14         0.00000E+00
    0.79839E-12        -0.10139E-13         0.00000E+00
    0.79612E-12        -0.10730E-13         0.00000E+00
    0.79372E-12        -0.10901E-13         0.00000E+00
    0.79130E-12        -0.10708E-13         0.00000E+00
    0.78893E-12        -0.10191E-13         0.00000E+00
    0.78670E-12        -0.93796E-14         0.00000E+00
    0.78469E-12        -0.82920E-14         0.00000E+00
    0.78296E-12        -0.69370E-14         0.00000E+00
    0.78158E-12        -0.53150E-14         0.00000E+00
    0.78061E-12        -0.34191E-14         0.00000E+00
    0.78010E-12        -0.12358E-14         0.00000E+00
    0.84813E-12        -0.15381E-14         0.00000E+00
    0.84740E-12        -0.40354E-14         0.00000E+00
    0.84607E-12        -0.58481E-14         0.00000E+00
    0.84425E-12        -0.70999E-14         0.00000E+00
    0.84208E-12        -0.78918E-14         0.00000E+00
    0.83968E-12        -0.83041E-14         0.00000E+00
    0.83715E-12        -0.83991E-14         0.00000E+00
    0.83459E-12        -0.82238E-14         0.00000E+00
    0.83209E-12        -0.78119E-14         0.00000E+00
    0.82975E-12        -0.71853E-14         0.00000E+00
    0.82763E-12        -0.63563E-14         0.00000E+00
    0.82582E-12        -0.53279E-14         0.00000E+00
    0.82437E-12        -0.40953E-14         0.00000E+00
    0.82335E-12        -0.26466E-14         0.00000E+00
    0.82281E-12        -0.96326E-15         0.00000E+00
    0.88902E-12        -0.11378E-14         0.00000E+00
    0.88825E-12        -0.29386E-14         0.00000E+00
    0.88683E-12        -0.41950E-14         0.00000E+00
    0.88492E-12        -0.50242E-14         0.00000E+00
    0.88264E-12        -0.55190E-14         0.00000E+00
    0.88011E-12        -0.57505E-14         0.00000E+00
    0.87746E-12        -0.57718E-14         0.00000E+00
    0.87479E-12        -0.56208E-14         0.00000E+00
    0.87220E-12        -0.53227E-14         0.00000E+00
    0.86976E-12        -0.48923E-14         0.00000E+00
    0.86756E-12        -0.43351E-14         0.00000E+00
    0.86568E-12        -0.36485E-14         0.00000E+00
    0.86417E-12        -0.28226E-14         0.00000E+00
    0.86311E-12        -0.18405E-14         0.00000E+00
    0.86256E-12        -0.67883E-15         0.00000E+00
    0.92655E-12        -0.71293E-15         0.00000E+00
    0.92574E-12        -0.17792E-14         0.00000E+00
    0.92425E-12        -0.24548E-14         0.00000E+00
    0.92225E-12        -0.28480E-14         0.00000E+00
    0.91988E-12        -0.30406E-14         0.00000E+00
    0.91726E-12        -0.30923E-14         0.00000E+00
    0.91453E-12        -0.30448E-14         0.00000E+00
    0.91177E-12        -0.29254E-14         0.00000E+00
    0.90910E-12        -0.27500E-14         0.00000E+00
    0.90660E-12        -0.25252E-14         0.00000E+00
    0.90435E-12        -0.22501E-14         0.00000E+00
    0.90242E-12        -0.19166E-14         0.00000E+00
    0.90087E-12        -0.15099E-14         0.00000E+00
    0.89979E-12        -0.10087E-14         0.00000E+00
    0.89922E-12        -0.38513E-15         0.00000E+00
    0.96055E-12        -0.26587E-15         0.00000E+00
    0.95971E-12        -0.56531E-15         0.00000E+00
    0.95816E-12        -0.64214E-15         0.00000E+00
    0.95610E-12        -0.59222E-15         0.00000E+00
    0.95366E-12        -0.48335E-15         0.00000E+00
    0.95098E-12        -0.36077E-15         0.00000E+00
    0.94820E-12        -0.25236E-15         0.00000E+00
    0.94540E-12        -0.17302E-15         0.00000E+00
    0.94270E-12        -0.12816E-15         0.00000E+00
    0.94017E-12        -0.11604E-15         0.00000E+00
    0.93789E-12        -0.12909E-15         0.00000E+00
    0.93594E-12        -0.15436E-15         0.00000E+00
    0.93439E-12        -0.17322E-15         0.00000E+00
    0.93329E-12        -0.16078E-15         0.00000E+00
    0.93271E-12        -0.85282E-16         0.00000E+00
    0.99087E-12         0.20005E-15         0.00000E+00
    0.98999E-12         0.69193E-15         0.00000E+00
    0.98841E-12         0.12233E-14         0.00000E+00
    0.98630E-12         0.17150E-14         0.00000E+00
    0.98384E-12         0.21172E-14         0.00000E+00
    0.98115E-12         0.24028E-14         0.00000E+00
    0.97836E-12         0.25607E-14         0.00000E+00
    0.97557E-12         0.25905E-14         0.00000E+00
    0.97289E-12         0.24983E-14         0.00000E+00
    0.97038E-12         0.22945E-14         0.00000E+00
    0.96812E-12         0.19927E-14         0.00000E+00
    0.96619E-12         0.16099E-14         0.00000E+00
    0.96464E-12         0.11671E-14         0.00000E+00
    0.96355E-12         0.69126E-15         0.00000E+00
    0.96297E-12         0.21689E-15         0.00000E+00
    0.10173E-11         0.68012E-15         0.00000E+00
    0.10164E-11         0.19772E-14         0.00000E+00
    0.10148E-11         0.31148E-14         0.00000E+00
    0.10127E-11         0.40359E-14         0.00000E+00
    0.10103E-11         0.47139E-14         0.00000E+00
    0.10076E-11         0.51445E-14         0.00000E+00
    0.10049E-11         0.53365E-14         0.00000E+00
    0.10022E-11         0.53063E-14         0.00000E+00
    0.99959E-12         0.50726E-14         0.00000E+00
    0.99717E-12         0.46547E-14         0.00000E+00
    0.99498E-12         0.40711E-14         0.00000E+00
    0.99311E-12         0.33410E-14         0.00000E+00
    0.99161E-12         0.24859E-14         0.00000E+00
    0.99054E-12         0.15328E-14         0.00000E+00
    0.98997E-12         0.51678E-15         0.00000E+00
    0.10398E-11         0.11679E-14         0.00000E+00
    0.10389E-11         0.32697E-14         0.00000E+00
    0.10373E-11         0.49967E-14         0.00000E+00
    0.10352E-11         0.63208E-14         0.00000E+00
    0.10329E-11         0.72456E-14         0.00000E+00
    0.10303E-11         0.77946E-14         0.00000E+00
    0.10278E-11         0.80009E-14         0.00000E+00
    0.10252E-11         0.78998E-14         0.00000E+00
    0.10228E-11         0.75237E-14         0.00000E+00
    0.10205E-11         0.68999E-14         0.00000E+00
    0.10184E-11         0.60507E-14         0.00000E+00
    0.10167E-11         0.49952E-14         0.00000E+00
    0.10153E-11         0.37523E-14         0.00000E+00
    0.10143E-11         0.23459E-14         0.00000E+00
    0.10137E-11         0.80887E-15         0.00000E+00
    0.10580E-11         0.16548E-14         0.00000E+00
    0.10572E-11         0.45419E-14         0.00000E+00
    0.10557E-11         0.68217E-14         0.00000E+00
    0.10537E-11         0.85047E-14         0.00000E+00
    0.10515E-11         0.96327E-14         0.00000E+00
    0.10492E-11         0.10264E-13         0.00000E+00
    0.10468E-11         0.10460E-13         0.00000E+00
    0.10446E-11         0.10278E-13         0.00000E+00
    0.10424E-11         0.97628E-14         0.00000E+00
    0.10404E-11         0.89501E-14         0.00000E+00
    0.10385E-11         0.78636E-14         0.00000E+00
    0.10370E-11         0.65188E-14         0.00000E+00
    0.10357E-11         0.49285E-14         0.00000E+00
    0.10347E-11         0.31088E-14         0.00000E+00
    0.10342E-11         0.10865E-14         0.00000E+00
    0.10720E-11         0.21291E-14         0.00000E+00
    0.10712E-11         0.57565E-14         0.00000E+00
    0.10698E-11         0.85272E-14         0.00000E+00
    0.10680E-11         0.10502E-13         0.00000E+00
    0.10661E-11         0.11773E-13         0.00000E+00
    0.10641E-11         0.12440E-13         0.00000E+00
    0.10621E-11         0.12598E-13         0.00000E+00
    0.10602E-11         0.12325E-13         0.00000E+00
    0.10584E-11         0.11681E-13         0.00000E+00
    0.10568E-11         0.10708E-13         0.00000E+00
    0.10553E-11         0.94263E-14         0.00000E+00
    0.10540E-11         0.78460E-14         0.00000E+00
    0.10529E-11         0.59680E-14         0.00000E+00
    0.10521E-11         0.37951E-14         0.00000E+00
    0.10516E-11         0.13419E-14         0.00000E+00
    0.10814E-11         0.25750E-14         0.00000E+00
    0.10807E-11         0.68635E-14         0.00000E+00
    0.10795E-11         0.10029E-13         0.00000E+00
    0.10781E-11         0.12202E-13         0.00000E+00
    0.10765E-11         0.13536E-13         0.00000E+00
    0.10750E-11         0.14182E-13         0.00000E+00
    0.10736E-11         0.14270E-13         0.00000E+00
    0.10722E-11         0.13901E-13         0.00000E+00
    0.10710E-11         0.13148E-13         0.00000E+00
    0.10698E-11         0.12055E-13         0.00000E+00
    0.10688E-11         0.10638E-13         0.00000E+00
    0.10678E-11         0.88967E-14         0.00000E+00
    0.10670E-11         0.68142E-14         0.00000E+00
    0.10664E-11         0.43724E-14         0.00000E+00
    0.10660E-11         0.15653E-14         0.00000E+00
    0.10862E-11         0.29704E-14         0.00000E+00
    0.10856E-11         0.77933E-14         0.00000E+00
    0.10847E-11         0.11214E-13         0.00000E+00
    0.10837E-11         0.13456E-13         0.00000E+00
    0.10828E-11         0.14754E-13         0.00000E+00
    0.10820E-11         0.15314E-13         0.00000E+00
    0.10812E-11         0.15303E-13         0.00000E+00
    0.10806E-11         0.14842E-13         0.00000E+00
    0.10801E-11         0.14010E-13         0.00000E+00
    0.10796E-11         0.12852E-13         0.00000E+00
    0.10791E-11         0.11379E-13         0.00000E+00
    0.10786E-11         0.95734E-14         0.00000E+00
    0.10782E-11         0.73967E-14         0.00000E+00
    0.10778E-11         0.48003E-14         0.00000E+00
    0.10775E-11         0.17452E-14         0.00000E+00
    0.10861E-11         0.32836E-14         0.00000E+00
    0.10858E-11         0.84455E-14         0.00000E+00
    0.10853E-11         0.11921E-13         0.00000E+00
    0.10850E-11         0.14067E-13         0.00000E+00
    0.10849E-11         0.15213E-13         0.00000E+00
    0.10849E-11         0.15624E-13         0.00000E+00
    0.10851E-11         0.15495E-13         0.00000E+00
    0.10855E-11         0.14957E-13         0.00000E+00
    0.10858E-11         0.14092E-13         0.00000E+00
    0.10861E-11         0.12941E-13         0.00000E+00
    0.10864E-11         0.11506E-13         0.00000E+00
    0.10866E-11         0.97564E-14         0.00000E+00
    0.10866E-11         0.76264E-14         0.00000E+00
    0.10865E-11         0.50265E-14         0.00000E+00
    0.10864E-11         0.18665E-14         0.00000E+00
    0.10809E-11         0.34648E-14         0.00000E+00
    0.10809E-11         0.86661E-14         0.00000E+00
    0.10811E-11         0.11920E-13         0.00000E+00
    0.10817E-11         0.13769E-13         0.00000E+00
    0.10827E-11         0.14648E-13         0.00000E+00
    0.10840E-11         0.14863E-13         0.00000E+00
    0.10854E-11         0.14616E-13         0.00000E+00
    0.10869E-11         0.14037E-13         0.00000E+00
    0.10884E-11         0.13202E-13         0.00000E+00
    0.10897E-11         0.12142E-13         0.00000E+00
    0.10909E-11         0.10855E-13         0.00000E+00
    0.10918E-11         0.92982E-14         0.00000E+00
    0.10925E-11         0.73849E-14         0.00000E+00
    0.10929E-11         0.49777E-14         0.00000E+00
    0.10930E-11         0.19082E-14         0.00000E+00
    0.10702E-11         0.34256E-14         0.00000E+00
    0.10708E-11         0.81952E-14         0.00000E+00
    0.10721E-11         0.10858E-13         0.00000E+00
    0.10741E-11         0.12204E-13         0.00000E+00
    0.10766E-11         0.12734E-13         0.00000E+00
    0.10793E-11         0.12748E-13         0.00000E+00
    0.10822E-11         0.12424E-13         0.00000E+00
    0.10851E-11         0.11870E-13         0.00000E+00
    0.10879E-11         0.11144E-13         0.00000E+00
    0.10904E-11         0.10270E-13         0.00000E+00
    0.10927E-11         0.92423E-14         0.00000E+00
    0.10947E-11         0.80170E-14         0.00000E+00
    0.10962E-11         0.65047E-14         0.00000E+00
    0.10971E-11         0.45397E-14         0.00000E+00
    0.10975E-11         0.18348E-14         0.00000E+00
    0.10536E-11         0.29834E-14         0.00000E+00
    0.10552E-11         0.65241E-14         0.00000E+00
    0.10582E-11         0.81929E-14         0.00000E+00
    0.10621E-11         0.89139E-14         0.00000E+00
    0.10666E-11         0.91077E-14         0.00000E+00
    0.10712E-11         0.89912E-14         0.00000E+00
    0.10758E-11         0.86839E-14         0.00000E+00
    0.10803E-11         0.82538E-14         0.00000E+00
    0.10845E-11         0.77369E-14         0.00000E+00
    0.10885E-11         0.71470E-14         0.00000E+00
    0.10921E-11         0.64776E-14         0.00000E+00
    0.10952E-11         0.56992E-14         0.00000E+00
    0.10978E-11         0.47457E-14         0.00000E+00
    0.10997E-11         0.34807E-14         0.00000E+00
    0.11006E-11         0.15902E-14         0.00000E+00
    0.10300E-11         0.13151E-14         0.00000E+00
    0.10340E-11         0.26513E-14         0.00000E+00
    0.10398E-11         0.31893E-14         0.00000E+00
    0.10464E-11         0.33872E-14         0.00000E+00
    0.10532E-11         0.34094E-14         0.00000E+00
    0.10599E-11         0.33332E-14         0.00000E+00
    0.10665E-11         0.31993E-14         0.00000E+00
    0.10727E-11         0.30302E-14         0.00000E+00
    0.10786E-11         0.28376E-14         0.00000E+00
    0.10840E-11         0.26256E-14         0.00000E+00
    0.10891E-11         0.23919E-14         0.00000E+00
    0.10936E-11         0.21264E-14         0.00000E+00
    0.10975E-11         0.18057E-14         0.00000E+00
    0.11007E-11         0.13779E-14         0.00000E+00
    0.11028E-11         0.70842E-15         0.00000E+00
POINT_DATA        496
VECTORS vDarcyNodal double 
    0.33362E-13        -0.43097E-14         0.00000E+00
    0.33349E-13        -0.80122E-14         0.00000E+00
    0.33314E-13        -0.14634E-13         0.00000E+00
    0.33259E-13        -0.19757E-13         0.00000E+00
    0.33189E-13        -0.23509E-13         0.00000E+00
    0.33108E-13        -0.26008E-13         0.00000E+00
    0.33019E-13        -0.27360E-13         0.00000E+00
    0.32926E-13        -0.27660E-13         0.00000E+00
    0.32832E-13        -0.26990E-13         0.00000E+00
    0.32742E-13        -0.25423E-13         0.00000E+00
    0.32658E-13        -0.23021E-13         0.00000E+00
    0.32583E-13        -0.19836E-13         0.00000E+00
    0.32520E-13        -0.15910E-13         0.00000E+00
    0.32472E-13        -0.11277E-13         0.00000E+00
    0.32442E-13        -0.59619E-14         0.00000E+00
    0.32431E-13        -0.31364E-14         0.00000E+00
    0.66664E-13        -0.42970E-14         0.00000E+00
    0.66638E-13        -0.79880E-14         0.00000E+00
    0.66567E-13        -0.14589E-13         0.00000E+00
    0.66458E-13        -0.19694E-13         0.00000E+00
    0.66318E-13        -0.23433E-13         0.00000E+00
    0.66155E-13        -0.25923E-13         0.00000E+00
    0.65977E-13        -0.27269E-13         0.00000E+00
    0.65791E-13        -0.27566E-13         0.00000E+00
    0.65604E-13        -0.26898E-13         0.00000E+00
    0.65423E-13        -0.25335E-13         0.00000E+00
    0.65255E-13        -0.22941E-13         0.00000E+00
    0.65105E-13        -0.19767E-13         0.00000E+00
    0.64980E-13        -0.15855E-13         0.00000E+00
    0.64884E-13        -0.11238E-13         0.00000E+00
    0.64823E-13        -0.59413E-14         0.00000E+00
    0.64802E-13        -0.31256E-14         0.00000E+00
    0.13309E-12        -0.42586E-14         0.00000E+00
    0.13303E-12        -0.79153E-14         0.00000E+00
    0.13289E-12        -0.14453E-13         0.00000E+00
    0.13267E-12        -0.19507E-13         0.00000E+00
    0.13239E-12        -0.23206E-13         0.00000E+00
    0.13207E-12        -0.25667E-13         0.00000E+00
    0.13171E-12        -0.26996E-13         0.00000E+00
    0.13134E-12        -0.27287E-13         0.00000E+00
    0.13096E-12        -0.26622E-13         0.00000E+00
    0.13060E-12        -0.25074E-13         0.00000E+00
    0.13027E-12        -0.22703E-13         0.00000E+00
    0.12997E-12        -0.19561E-13         0.00000E+00
    0.12972E-12        -0.15689E-13         0.00000E+00
    0.12953E-12        -0.11120E-13         0.00000E+00
    0.12940E-12        -0.58793E-14         0.00000E+00
    0.12936E-12        -0.30931E-14         0.00000E+00
    0.19903E-12        -0.41946E-14         0.00000E+00
    0.19895E-12        -0.77940E-14         0.00000E+00
    0.19873E-12        -0.14227E-13         0.00000E+00
    0.19840E-12        -0.19195E-13         0.00000E+00
    0.19798E-12        -0.22828E-13         0.00000E+00
    0.19749E-12        -0.25241E-13         0.00000E+00
    0.19696E-12        -0.26541E-13         0.00000E+00
    0.19640E-12        -0.26821E-13         0.00000E+00
    0.19584E-12        -0.26162E-13         0.00000E+00
    0.19530E-12        -0.24637E-13         0.00000E+00
    0.19479E-12        -0.22306E-13         0.00000E+00
    0.19435E-12        -0.19217E-13         0.00000E+00
    0.19397E-12        -0.15413E-13         0.00000E+00
    0.19368E-12        -0.10925E-13         0.00000E+00
    0.19350E-12        -0.57761E-14         0.00000E+00
    0.19344E-12        -0.30390E-14         0.00000E+00
    0.26424E-12        -0.41048E-14         0.00000E+00
    0.26414E-12        -0.76238E-14         0.00000E+00
    0.26385E-12        -0.13909E-13         0.00000E+00
    0.26341E-12        -0.18757E-13         0.00000E+00
    0.26285E-12        -0.22296E-13         0.00000E+00
    0.26220E-12        -0.24643E-13         0.00000E+00
    0.26148E-12        -0.25903E-13         0.00000E+00
    0.26074E-12        -0.26168E-13         0.00000E+00
    0.25999E-12        -0.25519E-13         0.00000E+00
    0.25927E-12        -0.24027E-13         0.00000E+00
    0.25860E-12        -0.21750E-13         0.00000E+00
    0.25800E-12        -0.18737E-13         0.00000E+00
    0.25750E-12        -0.15027E-13         0.00000E+00
    0.25712E-12        -0.10652E-13         0.00000E+00
    0.25688E-12        -0.56320E-14         0.00000E+00
    0.25679E-12        -0.29634E-14         0.00000E+00
    0.32850E-12        -0.39889E-14         0.00000E+00
    0.32837E-12        -0.74045E-14         0.00000E+00
    0.32801E-12        -0.13500E-13         0.00000E+00
    0.32746E-12        -0.18193E-13         0.00000E+00
    0.32676E-12        -0.21613E-13         0.00000E+00
    0.32594E-12        -0.23874E-13         0.00000E+00
    0.32505E-12        -0.25082E-13         0.00000E+00
    0.32411E-12        -0.25328E-13         0.00000E+00
    0.32318E-12        -0.24692E-13         0.00000E+00
    0.32228E-12        -0.23242E-13         0.00000E+00
    0.32144E-12        -0.21036E-13         0.00000E+00
    0.32069E-12        -0.18120E-13         0.00000E+00
    0.32007E-12        -0.14532E-13         0.00000E+00
    0.31959E-12        -0.10301E-13         0.00000E+00
    0.31929E-12        -0.54470E-14         0.00000E+00
    0.31918E-12        -0.28664E-14         0.00000E+00
    0.39156E-12        -0.38468E-14         0.00000E+00
    0.39141E-12        -0.71354E-14         0.00000E+00
    0.39097E-12        -0.12999E-13         0.00000E+00
    0.39031E-12        -0.17503E-13         0.00000E+00
    0.38946E-12        -0.20775E-13         0.00000E+00
    0.38848E-12        -0.22933E-13         0.00000E+00
    0.38741E-12        -0.24079E-13         0.00000E+00
    0.38629E-12        -0.24302E-13         0.00000E+00
    0.38517E-12        -0.23682E-13         0.00000E+00
    0.38409E-12        -0.22284E-13         0.00000E+00
    0.38308E-12        -0.20164E-13         0.00000E+00
    0.38219E-12        -0.17367E-13         0.00000E+00
    0.38144E-12        -0.13928E-13         0.00000E+00
    0.38087E-12        -0.98735E-14         0.00000E+00
    0.38051E-12        -0.52217E-14         0.00000E+00
    0.38038E-12        -0.27484E-14         0.00000E+00
    0.45320E-12        -0.36781E-14         0.00000E+00
    0.45302E-12        -0.68163E-14         0.00000E+00
    0.45251E-12        -0.12405E-13         0.00000E+00
    0.45173E-12        -0.16684E-13         0.00000E+00
    0.45074E-12        -0.19784E-13         0.00000E+00
    0.44960E-12        -0.21819E-13         0.00000E+00
    0.44834E-12        -0.22892E-13         0.00000E+00
    0.44704E-12        -0.23090E-13         0.00000E+00
    0.44573E-12        -0.22489E-13         0.00000E+00
    0.44447E-12        -0.21154E-13         0.00000E+00
    0.44330E-12        -0.19137E-13         0.00000E+00
    0.44226E-12        -0.16480E-13         0.00000E+00
    0.44139E-12        -0.13217E-13         0.00000E+00
    0.44073E-12        -0.93702E-14         0.00000E+00
    0.44031E-12        -0.49565E-14         0.00000E+00
    0.44016E-12        -0.26095E-14         0.00000E+00
    0.51318E-12        -0.34825E-14         0.00000E+00
    0.51297E-12        -0.64466E-14         0.00000E+00
    0.51239E-12        -0.11716E-13         0.00000E+00
    0.51150E-12        -0.15737E-13         0.00000E+00
    0.51037E-12        -0.18638E-13         0.00000E+00
    0.50905E-12        -0.20533E-13         0.00000E+00
    0.50762E-12        -0.21522E-13         0.00000E+00
    0.50613E-12        -0.21692E-13         0.00000E+00
    0.50464E-12        -0.21114E-13         0.00000E+00
    0.50320E-12        -0.19852E-13         0.00000E+00
    0.50187E-12        -0.17954E-13         0.00000E+00
    0.50069E-12        -0.15460E-13         0.00000E+00
    0.49970E-12        -0.12399E-13         0.00000E+00
    0.49895E-12        -0.87920E-14         0.00000E+00
    0.49847E-12        -0.46521E-14         0.00000E+00
    0.49830E-12        -0.24501E-14         0.00000E+00
    0.57129E-12        -0.32598E-14         0.00000E+00
    0.57105E-12        -0.60257E-14         0.00000E+00
    0.57039E-12        -0.10934E-13         0.00000E+00
    0.56939E-12        -0.14662E-13         0.00000E+00
    0.56811E-12        -0.17338E-13         0.00000E+00
    0.56664E-12        -0.19076E-13         0.00000E+00
    0.56503E-12        -0.19971E-13         0.00000E+00
    0.56335E-12        -0.20109E-13         0.00000E+00
    0.56168E-12        -0.19560E-13         0.00000E+00
    0.56007E-12        -0.18381E-13         0.00000E+00
    0.55857E-12        -0.16619E-13         0.00000E+00
    0.55725E-12        -0.14309E-13         0.00000E+00
    0.55614E-12        -0.11477E-13         0.00000E+00
    0.55530E-12        -0.81406E-14         0.00000E+00
    0.55477E-12        -0.43094E-14         0.00000E+00
    0.55458E-12        -0.22708E-14         0.00000E+00
    0.62730E-12        -0.30096E-14         0.00000E+00
    0.62704E-12        -0.55535E-14         0.00000E+00
    0.62630E-12        -0.10056E-13         0.00000E+00
    0.62519E-12        -0.13458E-13         0.00000E+00
    0.62377E-12        -0.15884E-13         0.00000E+00
    0.62213E-12        -0.17447E-13         0.00000E+00
    0.62034E-12        -0.18241E-13         0.00000E+00
    0.61849E-12        -0.18346E-13         0.00000E+00
    0.61664E-12        -0.17829E-13         0.00000E+00
    0.61485E-12        -0.16745E-13         0.00000E+00
    0.61320E-12        -0.15135E-13         0.00000E+00
    0.61174E-12        -0.13030E-13         0.00000E+00
    0.61052E-12        -0.10454E-13         0.00000E+00
    0.60960E-12        -0.74180E-14         0.00000E+00
    0.60901E-12        -0.39294E-14         0.00000E+00
    0.60880E-12        -0.20722E-14         0.00000E+00
    0.68101E-12        -0.27318E-14         0.00000E+00
    0.68072E-12        -0.50295E-14         0.00000E+00
    0.67991E-12        -0.90843E-14         0.00000E+00
    0.67868E-12        -0.12125E-13         0.00000E+00
    0.67712E-12        -0.14278E-13         0.00000E+00
    0.67532E-12        -0.15650E-13         0.00000E+00
    0.67336E-12        -0.16333E-13         0.00000E+00
    0.67133E-12        -0.16405E-13         0.00000E+00
    0.66931E-12        -0.15926E-13         0.00000E+00
    0.66736E-12        -0.14948E-13         0.00000E+00
    0.66556E-12        -0.13506E-13         0.00000E+00
    0.66396E-12        -0.11628E-13         0.00000E+00
    0.66264E-12        -0.93322E-14         0.00000E+00
    0.66163E-12        -0.66267E-14         0.00000E+00
    0.66099E-12        -0.35136E-14         0.00000E+00
    0.66076E-12        -0.18549E-14         0.00000E+00
    0.73221E-12        -0.24261E-14         0.00000E+00
    0.73189E-12        -0.44538E-14         0.00000E+00
    0.73100E-12        -0.80179E-14         0.00000E+00
    0.72966E-12        -0.10666E-13         0.00000E+00
    0.72796E-12        -0.12521E-13         0.00000E+00
    0.72600E-12        -0.13688E-13         0.00000E+00
    0.72388E-12        -0.14255E-13         0.00000E+00
    0.72168E-12        -0.14292E-13         0.00000E+00
    0.71949E-12        -0.13858E-13         0.00000E+00
    0.71739E-12        -0.12996E-13         0.00000E+00
    0.71545E-12        -0.11739E-13         0.00000E+00
    0.71373E-12        -0.10109E-13         0.00000E+00
    0.71230E-12        -0.81176E-14         0.00000E+00
    0.71121E-12        -0.57703E-14         0.00000E+00
    0.71052E-12        -0.30639E-14         0.00000E+00
    0.71028E-12        -0.16201E-14         0.00000E+00
    0.78069E-12        -0.20927E-14         0.00000E+00
    0.78035E-12        -0.38269E-14         0.00000E+00
    0.77939E-12        -0.68587E-14         0.00000E+00
    0.77794E-12        -0.90829E-14         0.00000E+00
    0.77611E-12        -0.10619E-13         0.00000E+00
    0.77400E-12        -0.11569E-13         0.00000E+00
    0.77172E-12        -0.12013E-13         0.00000E+00
    0.76936E-12        -0.12017E-13         0.00000E+00
    0.76702E-12        -0.11633E-13         0.00000E+00
    0.76477E-12        -0.10900E-13         0.00000E+00
    0.76269E-12        -0.98428E-14         0.00000E+00
    0.76086E-12        -0.84791E-14         0.00000E+00
    0.75933E-12        -0.68162E-14         0.00000E+00
    0.75818E-12        -0.48532E-14         0.00000E+00
    0.75744E-12        -0.25825E-14         0.00000E+00
    0.75718E-12        -0.13689E-14         0.00000E+00
    0.82628E-12        -0.17319E-14         0.00000E+00
    0.82590E-12        -0.31496E-14         0.00000E+00
    0.82488E-12        -0.56094E-14         0.00000E+00
    0.82332E-12        -0.73809E-14         0.00000E+00
    0.82136E-12        -0.85797E-14         0.00000E+00
    0.81911E-12        -0.93001E-14         0.00000E+00
    0.81669E-12        -0.96177E-14         0.00000E+00
    0.81419E-12        -0.95912E-14         0.00000E+00
    0.81170E-12        -0.92651E-14         0.00000E+00
    0.80932E-12        -0.86708E-14         0.00000E+00
    0.80713E-12        -0.78289E-14         0.00000E+00
    0.80519E-12        -0.67499E-14         0.00000E+00
    0.80358E-12        -0.54359E-14         0.00000E+00
    0.80236E-12        -0.38810E-14         0.00000E+00
    0.80159E-12        -0.20724E-14         0.00000E+00
    0.80132E-12        -0.11028E-14         0.00000E+00
    0.86877E-12        -0.13443E-14         0.00000E+00
    0.86837E-12        -0.24239E-14         0.00000E+00
    0.86728E-12        -0.42741E-14         0.00000E+00
    0.86562E-12        -0.55671E-14         0.00000E+00
    0.86355E-12        -0.64120E-14         0.00000E+00
    0.86117E-12        -0.68957E-14         0.00000E+00
    0.85862E-12        -0.70855E-14         0.00000E+00
    0.85599E-12        -0.70317E-14         0.00000E+00
    0.85339E-12        -0.67706E-14         0.00000E+00
    0.85090E-12        -0.63264E-14         0.00000E+00
    0.84861E-12        -0.57128E-14         0.00000E+00
    0.84659E-12        -0.49343E-14         0.00000E+00
    0.84491E-12        -0.39873E-14         0.00000E+00
    0.84363E-12        -0.28609E-14         0.00000E+00
    0.84283E-12        -0.15374E-14         0.00000E+00
    0.84254E-12        -0.82372E-15         0.00000E+00
    0.90800E-12        -0.93126E-15         0.00000E+00
    0.90757E-12        -0.16525E-14         0.00000E+00
    0.90641E-12        -0.28594E-14         0.00000E+00
    0.90467E-12        -0.36521E-14         0.00000E+00
    0.90250E-12        -0.41312E-14         0.00000E+00
    0.90002E-12        -0.43738E-14         0.00000E+00
    0.89736E-12        -0.44369E-14         0.00000E+00
    0.89463E-12        -0.43610E-14         0.00000E+00
    0.89194E-12        -0.41729E-14         0.00000E+00
    0.88936E-12        -0.38886E-14         0.00000E+00
    0.88700E-12        -0.35146E-14         0.00000E+00
    0.88491E-12        -0.30494E-14         0.00000E+00
    0.88318E-12        -0.24838E-14         0.00000E+00
    0.88187E-12        -0.18022E-14         0.00000E+00
    0.88104E-12        -0.98195E-15         0.00000E+00
    0.88074E-12        -0.53394E-15         0.00000E+00
    0.94378E-12        -0.49460E-15         0.00000E+00
    0.94333E-12        -0.83966E-15         0.00000E+00
    0.94211E-12        -0.13746E-14         0.00000E+00
    0.94030E-12        -0.16508E-14         0.00000E+00
    0.93805E-12        -0.17575E-14         0.00000E+00
    0.93549E-12        -0.17592E-14         0.00000E+00
    0.93276E-12        -0.17003E-14         0.00000E+00
    0.92997E-12        -0.16093E-14         0.00000E+00
    0.92721E-12        -0.15025E-14         0.00000E+00
    0.92459E-12        -0.13866E-14         0.00000E+00
    0.92218E-12        -0.12607E-14         0.00000E+00
    0.92006E-12        -0.11173E-14         0.00000E+00
    0.91830E-12        -0.94258E-15         0.00000E+00
    0.91696E-12        -0.71634E-15         0.00000E+00
    0.91611E-12        -0.41186E-15         0.00000E+00
    0.91581E-12        -0.23631E-15         0.00000E+00
    0.97594E-12        -0.37129E-16         0.00000E+00
    0.97548E-12         0.84883E-17         0.00000E+00
    0.97422E-12         0.16718E-15         0.00000E+00
    0.97235E-12         0.41642E-15         0.00000E+00
    0.97005E-12         0.68188E-15         0.00000E+00
    0.96745E-12         0.91504E-15         0.00000E+00
    0.96468E-12         0.10871E-14         0.00000E+00
    0.96187E-12         0.11839E-14         0.00000E+00
    0.95911E-12         0.12013E-14         0.00000E+00
    0.95648E-12         0.11424E-14         0.00000E+00
    0.95407E-12         0.10156E-14         0.00000E+00
    0.95195E-12         0.83386E-15         0.00000E+00
    0.95018E-12         0.61499E-15         0.00000E+00
    0.94884E-12         0.38233E-15         0.00000E+00
    0.94799E-12         0.16580E-15         0.00000E+00
    0.94769E-12         0.65743E-16         0.00000E+00
    0.10043E-11         0.43723E-15         0.00000E+00
    0.10039E-11         0.88349E-15         0.00000E+00
    0.10026E-11         0.17481E-14         0.00000E+00
    0.10007E-11         0.25219E-14         0.00000E+00
    0.99836E-12         0.31503E-14         0.00000E+00
    0.99576E-12         0.36050E-14         0.00000E+00
    0.99302E-12         0.38764E-14         0.00000E+00
    0.99024E-12         0.39673E-14         0.00000E+00
    0.98753E-12         0.38875E-14         0.00000E+00
    0.98495E-12         0.36504E-14         0.00000E+00
    0.98259E-12         0.32716E-14         0.00000E+00
    0.98051E-12         0.27688E-14         0.00000E+00
    0.97878E-12         0.21620E-14         0.00000E+00
    0.97746E-12         0.14760E-14         0.00000E+00
    0.97662E-12         0.74235E-15         0.00000E+00
    0.97632E-12         0.36803E-15         0.00000E+00
    0.10288E-11         0.92301E-15         0.00000E+00
    0.10283E-11         0.17738E-14         0.00000E+00
    0.10270E-11         0.33439E-14         0.00000E+00
    0.10251E-11         0.46288E-14         0.00000E+00
    0.10228E-11         0.55995E-14         0.00000E+00
    0.10203E-11         0.62535E-14         0.00000E+00
    0.10177E-11         0.66046E-14         0.00000E+00
    0.10150E-11         0.66755E-14         0.00000E+00
    0.10124E-11         0.64914E-14         0.00000E+00
    0.10100E-11         0.60769E-14         0.00000E+00
    0.10077E-11         0.54541E-14         0.00000E+00
    0.10057E-11         0.46433E-14         0.00000E+00
    0.10041E-11         0.36649E-14         0.00000E+00
    0.10028E-11         0.25427E-14         0.00000E+00
    0.10020E-11         0.13072E-14         0.00000E+00
    0.10017E-11         0.66553E-15         0.00000E+00
    0.10491E-11         0.14128E-14         0.00000E+00
    0.10487E-11         0.26638E-14         0.00000E+00
    0.10474E-11         0.49225E-14         0.00000E+00
    0.10456E-11         0.66887E-14         0.00000E+00
    0.10434E-11         0.79668E-14         0.00000E+00
    0.10410E-11         0.87867E-14         0.00000E+00
    0.10385E-11         0.91909E-14         0.00000E+00
    0.10361E-11         0.92252E-14         0.00000E+00
    0.10337E-11         0.89320E-14         0.00000E+00
    0.10314E-11         0.83466E-14         0.00000E+00
    0.10294E-11         0.74965E-14         0.00000E+00
    0.10276E-11         0.64026E-14         0.00000E+00
    0.10261E-11         0.50826E-14         0.00000E+00
    0.10249E-11         0.35555E-14         0.00000E+00
    0.10241E-11         0.18475E-14         0.00000E+00
    0.10238E-11         0.95221E-15         0.00000E+00
    0.10653E-11         0.18968E-14         0.00000E+00
    0.10648E-11         0.35328E-14         0.00000E+00
    0.10636E-11         0.64411E-14         0.00000E+00
    0.10619E-11         0.86377E-14         0.00000E+00
    0.10599E-11         0.10171E-13         0.00000E+00
    0.10577E-11         0.11110E-13         0.00000E+00
    0.10555E-11         0.11533E-13         0.00000E+00
    0.10534E-11         0.11513E-13         0.00000E+00
    0.10514E-11         0.11108E-13         0.00000E+00
    0.10494E-11         0.10366E-13         0.00000E+00
    0.10477E-11         0.93172E-14         0.00000E+00
    0.10461E-11         0.79797E-14         0.00000E+00
    0.10448E-11         0.63646E-14         0.00000E+00
    0.10438E-11         0.44818E-14         0.00000E+00
    0.10431E-11         0.23478E-14         0.00000E+00
    0.10428E-11         0.12209E-14         0.00000E+00
    0.10769E-11         0.23614E-14         0.00000E+00
    0.10765E-11         0.43528E-14         0.00000E+00
    0.10754E-11         0.78426E-14         0.00000E+00
    0.10739E-11         0.10392E-13         0.00000E+00
    0.10722E-11         0.12105E-13         0.00000E+00
    0.10704E-11         0.13103E-13         0.00000E+00
    0.10687E-11         0.13505E-13         0.00000E+00
    0.10670E-11         0.13410E-13         0.00000E+00
    0.10654E-11         0.12898E-13         0.00000E+00
    0.10640E-11         0.12023E-13         0.00000E+00
    0.10626E-11         0.10817E-13         0.00000E+00
    0.10614E-11         0.92926E-14         0.00000E+00
    0.10604E-11         0.74494E-14         0.00000E+00
    0.10595E-11         0.52814E-14         0.00000E+00
    0.10589E-11         0.27892E-14         0.00000E+00
    0.10587E-11         0.14629E-14         0.00000E+00
    0.10840E-11         0.27885E-14         0.00000E+00
    0.10836E-11         0.50857E-14         0.00000E+00
    0.10827E-11         0.90501E-14         0.00000E+00
    0.10815E-11         0.11839E-13         0.00000E+00
    0.10803E-11         0.13633E-13         0.00000E+00
    0.10791E-11         0.14614E-13         0.00000E+00
    0.10779E-11         0.14947E-13         0.00000E+00
    0.10769E-11         0.14761E-13         0.00000E+00
    0.10759E-11         0.14152E-13         0.00000E+00
    0.10751E-11         0.13181E-13         0.00000E+00
    0.10743E-11         0.11876E-13         0.00000E+00
    0.10735E-11         0.10242E-13         0.00000E+00
    0.10729E-11         0.82616E-14         0.00000E+00
    0.10723E-11         0.59052E-14         0.00000E+00
    0.10719E-11         0.31485E-14         0.00000E+00
    0.10717E-11         0.16678E-14         0.00000E+00
    0.10863E-11         0.31523E-14         0.00000E+00
    0.10860E-11         0.56780E-14         0.00000E+00
    0.10854E-11         0.99570E-14         0.00000E+00
    0.10847E-11         0.12830E-13         0.00000E+00
    0.10841E-11         0.14577E-13         0.00000E+00
    0.10836E-11         0.15453E-13         0.00000E+00
    0.10833E-11         0.15670E-13         0.00000E+00
    0.10831E-11         0.15384E-13         0.00000E+00
    0.10830E-11         0.14700E-13         0.00000E+00
    0.10829E-11         0.13682E-13         0.00000E+00
    0.10828E-11         0.12355E-13         0.00000E+00
    0.10827E-11         0.10710E-13         0.00000E+00
    0.10825E-11         0.87085E-14         0.00000E+00
    0.10823E-11         0.62918E-14         0.00000E+00
    0.10820E-11         0.33970E-14         0.00000E+00
    0.10819E-11         0.18227E-14         0.00000E+00
    0.10836E-11         0.34149E-14         0.00000E+00
    0.10834E-11         0.60511E-14         0.00000E+00
    0.10832E-11         0.10410E-13         0.00000E+00
    0.10832E-11         0.13158E-13         0.00000E+00
    0.10835E-11         0.14704E-13         0.00000E+00
    0.10841E-11         0.15384E-13         0.00000E+00
    0.10848E-11         0.15449E-13         0.00000E+00
    0.10857E-11         0.15068E-13         0.00000E+00
    0.10866E-11         0.14348E-13         0.00000E+00
    0.10875E-11         0.13350E-13         0.00000E+00
    0.10883E-11         0.12092E-13         0.00000E+00
    0.10890E-11         0.10553E-13         0.00000E+00
    0.10894E-11         0.86743E-14         0.00000E+00
    0.10897E-11         0.63611E-14         0.00000E+00
    0.10897E-11         0.34960E-14         0.00000E+00
    0.10897E-11         0.19103E-14         0.00000E+00
    0.10756E-11         0.35147E-14         0.00000E+00
    0.10756E-11         0.60798E-14         0.00000E+00
    0.10761E-11         0.10176E-13         0.00000E+00
    0.10771E-11         0.12531E-13         0.00000E+00
    0.10787E-11         0.13713E-13         0.00000E+00
    0.10806E-11         0.14126E-13         0.00000E+00
    0.10827E-11         0.14030E-13         0.00000E+00
    0.10849E-11         0.13586E-13         0.00000E+00
    0.10871E-11         0.12890E-13         0.00000E+00
    0.10891E-11         0.11993E-13         0.00000E+00
    0.10910E-11         0.10906E-13         0.00000E+00
    0.10926E-11         0.96008E-14         0.00000E+00
    0.10939E-11         0.80089E-14         0.00000E+00
    0.10948E-11         0.60016E-14         0.00000E+00
    0.10952E-11         0.33899E-14         0.00000E+00
    0.10953E-11         0.19061E-14         0.00000E+00
    0.10617E-11         0.33365E-14         0.00000E+00
    0.10621E-11         0.55411E-14         0.00000E+00
    0.10638E-11         0.88764E-14         0.00000E+00
    0.10665E-11         0.10530E-13         0.00000E+00
    0.10698E-11         0.11225E-13         0.00000E+00
    0.10734E-11         0.11356E-13         0.00000E+00
    0.10771E-11         0.11143E-13         0.00000E+00
    0.10809E-11         0.10708E-13         0.00000E+00
    0.10845E-11         0.10123E-13         0.00000E+00
    0.10879E-11         0.94208E-14         0.00000E+00
    0.10910E-11         0.86071E-14         0.00000E+00
    0.10938E-11         0.76585E-14         0.00000E+00
    0.10961E-11         0.65127E-14         0.00000E+00
    0.10979E-11         0.50427E-14         0.00000E+00
    0.10989E-11         0.29846E-14         0.00000E+00
    0.10992E-11         0.17636E-14         0.00000E+00
    0.10410E-11         0.26302E-14         0.00000E+00
    0.10426E-11         0.39664E-14         0.00000E+00
    0.10465E-11         0.58405E-14         0.00000E+00
    0.10515E-11         0.65765E-14         0.00000E+00
    0.10570E-11         0.67967E-14         0.00000E+00
    0.10627E-11         0.67426E-14         0.00000E+00
    0.10684E-11         0.65325E-14         0.00000E+00
    0.10739E-11         0.62296E-14         0.00000E+00
    0.10791E-11         0.58678E-14         0.00000E+00
    0.10840E-11         0.54631E-14         0.00000E+00
    0.10885E-11         0.50175E-14         0.00000E+00
    0.10926E-11         0.45183E-14         0.00000E+00
    0.10962E-11         0.39321E-14         0.00000E+00
    0.10991E-11         0.31836E-14         0.00000E+00
    0.11012E-11         0.20863E-14         0.00000E+00
    0.11021E-11         0.14168E-14         0.00000E+00
    0.10287E-11         0.00000E+00         0.00000E+00
    0.10313E-11         0.00000E+00         0.00000E+00
    0.10366E-11         0.00000E+00         0.00000E+00
    0.10430E-11         0.00000E+00         0.00000E+00
    0.10498E-11         0.33156E-21         0.00000E+00
    0.10566E-11         0.00000E+00         0.00000E+00
    0.10633E-11         0.00000E+00         0.00000E+00
    0.10697E-11         0.00000E+00         0.00000E+00
    0.10757E-11         0.00000E+00         0.00000E+00
    0.10814E-11         0.00000E+00         0.00000E+00
    0.10867E-11         0.33156E-21         0.00000E+00
    0.10915E-11        -0.33156E-21         0.00000E+00
    0.10957E-11        -0.33156E-21         0.00000E+00
    0.10993E-11         0.33156E-21         0.00000E+00
    0.11021E-11         0.66312E-21         0.00000E+00
    0.11035E-11         0.00000E+00         0.00000E+00
CELL_DATA        450
TENSORS stressef double 
   -0.12500E+08        -0.46769E-02         0.00000E+00
   -0.46769E-02        -0.50000E+08         0.00000E+00
    0.00000E+00         0.00000E+00        -0.12500E+08
 
   -0.12500E+08        -0.11632E-01         0.00000E+00
   -0.11632E-01        -0.50000E+08         0.00000E+00
    0.00000E+00         0.00000E+00        -0.12500E+08
 
   -0.12500E+08        -0.15273E-01         0.00000E+00
   -0.15273E-01        -0.50000E+08         0.00000E+00
    0.00000E+00         0.00000E+00        -0.12500E+08
 
   -0.12500E+08        -0.15515E-01         0.00000E+00
   -0.15515E-01        -0.50000E+08         0.00000E+00
    0.00000E+00         0.00000E+00        -0.12500E+08
 
   -0.12500E+08        -0.12307E-01         0.00000E+00
   -0.12307E-01        -0.50000E+08         0.00000E+00
    0.00000E+00         0.00000E+00        -0.12500E+08
 
   -0.12500E+08        -0.56270E-02         0.00000E+00
   -0.56270E-02        -0.50000E+08         0.00000E+00
    0.00000E+00         0.00000E+00        -0.12500E+08
 
   -0.12500E+08         0.45232E-02         0.00000E+00
    0.45232E-02        -0.50000E+08         0.00000E+00
    0.00000E+00         0.00000E+00        -0.12500E+08
 
   -0.12500E+08         0.18121E-01         0.00000E+00
    0.18121E-01        -0.50000E+08         0.00000E+00
    0.00000E+00         0.00000E+00        -0.12500E+08
 
   -0.12500E+08         0.35128E-01         0.00000E+00
    0.35128E-01        -0.50000E+08         0.00000E+00
    0.00000E+00         0.00000E+00        -0.12500E+08
 
   -0.12500E+08         0.55498E-01         0.00000E+00
    0.55498E-01        -0.50000E+08         0.00000E+00
    0.00000E+00         0.00000E+00        -0.12500E+08
 
   -0.12500E+08         0.79178E-01         0.00000E+00
    0.79178E-01        -0.50000E+08         0.00000E+00
    0.00000E+00         0.00000E+00        -0.12500E+08
 
   -0.12500E+08         0.10612E+00         0.00000E+00
    0.10612E+00        -0.50000E+08         0.00000E+00
    0.00000E+00         0.00000E+00        -0.12500E+08
 
   -0.12500E+08         0.13628E+00         0.00000E+00
    0.13628E+00        -0.50000E+08         0.00000E+00
    0.00000E+00         0.00000E+00        -0.12500E+08
 
   -0.12500E+08         0.16964E+00         0.00000E+00
    0.16964E+00        -0.50000E+08         0.00000E+00
    0.00000E+00         0.00000E+00        -0.12500E+08
 
   -0.12500E+08         0.20619E+00         0.00000E+00
    0.20619E+00        -0.50000E+08         0.00000E+00
    0.00000E+00         0.00000E+00        -0.12500E+08
 
   -0.12500E+08        -0.14115E-01         0.00000E+00
   -0.14115E-01        -0.50000E+08         0.00000E+00
    0.00000E+00         0.00000E+00        -0.12500E+08
 
   -0.12500E+08        -0.35133E-01         0.00000E+00
   -0.35133E-01        -0.50000E+08         0.00000E+00
    0.00000E+00         0.00000E+00        -0.12500E+08
 
   -0.12500E+08        -0.46189E-01         0.00000E+00
   -0.46189E-01        -0.50000E+08         0.00000E+00
    0.00000E+00         0.00000E+00        -0.12500E+08
 
   -0.12500E+08        -0.47031E-01         0.00000E+00
   -0.47031E-01        -0.50000E+08         0.00000E+00
    0.00000E+00         0.00000E+00        -0.12500E+08
 
   -0.12500E+08        -0.37508E-01         0.00000E+00
   -0.37508E-01        -0.50000E+08         0.00000E+00
    0.00000E+00         0.00000E+00        -0.12500E+08
 
   -0.12500E+08        -0.17554E-01         0.00000E+00
   -0.17554E-01        -0.50000E+08         0.00000E+00
    0.00000E+00         0.00000E+00        -0.12500E+08
 
   -0.12500E+08         0.12822E-01         0.00000E+00
    0.12822E-01        -0.50000E+08         0.00000E+00
    0.00000E+00         0.00000E+00        -0.12500E+08
 
   -0.12500E+08         0.53547E-01         0.00000E+00
    0.53547E-01        -0.50000E+08         0.00000E+00
    0.00000E+00         0.00000E+00        -0.12500E+08
 
   -0.12500E+08         0.10451E+00         0.00000E+00
    0.10451E+00        -0.50000E+08         0.00000E+00
    0.00000E+00         0.00000E+00        -0.12500E+08
 
   -0.12500E+08         0.16555E+00         0.00000E+00
    0.16555E+00        -0.50000E+08         0.00000E+00
    0.00000E+00         0.00000E+00        -0.12500E+08
 
   -0.12500E+08         0.23652E+00         0.00000E+00
    0.23652E+00        -0.50000E+08         0.00000E+00
    0.00000E+00         0.00000E+00        -0.12500E+08
 
   -0.12500E+08         0.31727E+00         0.00000E+00
    0.31727E+00        -0.50000E+08         0.00000E+00
    0.00000E+00         0.00000E+00        -0.12500E+08
 
   -0.12500E+08         0.40768E+00         0.00000E+00
    0.40768E+00        -0.50000E+08         0.00000E+00
    0.00000E+00         0.00000E+00        -0.12500E+08
 
   -0.12500E+08         0.50765E+00         0.00000E+00
    0.50765E+00        -0.50000E+08         0.00000E+00
    0.00000E+00         0.00000E+00        -0.12500E+08
 
   -0.12500E+08         0.61719E+00         0.00000E+00
    0.61719E+00        -0.50000E+08         0.00000E+00
    0.00000E+00         0.00000E+00        -0.12500E+08
 
   -0.12500E+08        -0.23804E-01         0.00000E+00
   -0.23804E-01        -0.50000E+08         0.00000E+00
    0.00000E+00         0.00000E+00        -0.12500E+08
 
   -0.12500E+08        -0.59346E-01         0.00000E+00
   -0.59346E-01        -0.50000E+08         0.00000E+00
    0.00000E+00         0.00000E+00        -0.12500E+08
 
   -0.12500E+08        -0.78217E-01         0.00000E+00
   -0.78217E-01        -0.50000E+08         0.00000E+00
    0.00000E+00         0.00000E+00        -0.12500E+08
 
   -0.12500E+08        -0.80006E-01         0.00000E+00
   -0.80006E-01        -0.50000E+08         0.00000E+00
    0.00000E+00         0.00000E+00        -0.12500E+08
 
   -0.12500E+08        -0.64465E-01         0.00000E+00
   -0.64465E-01        -0.50000E+08         0.00000E+00
    0.00000E+00         0.00000E+00        -0.12500E+08
 
   -0.12500E+08        -0.31494E-01         0.00000E+00
   -0.31494E-01        -0.50000E+08         0.00000E+00
    0.00000E+00         0.00000E+00        -0.12500E+08
 
   -0.12500E+08         0.18881E-01         0.00000E+00
    0.18881E-01        -0.50000E+08         0.00000E+00
    0.00000E+00         0.00000E+00        -0.12500E+08
 
   -0.12500E+08         0.86530E-01         0.00000E+00
    0.86530E-01        -0.50000E+08         0.00000E+00
    0.00000E+00         0.00000E+00        -0.12500E+08
 
   -0.12500E+08         0.17125E+00         0.00000E+00
    0.17125E+00        -0.50000E+08         0.00000E+00
    0.00000E+00         0.00000E+00        -0.12500E+08
 
   -0.12500E+08         0.27278E+00         0.00000E+00
    0.27278E+00        -0.50000E+08         0.00000E+00
    0.00000E+00         0.00000E+00        -0.12500E+08
 
   -0.12500E+08         0.39085E+00         0.00000E+00
    0.39085E+00        -0.50000E+08         0.00000E+00
    0.00000E+00         0.00000E+00        -0.12500E+08
 
   -0.12500E+08         0.52520E+00         0.00000E+00
    0.52520E+00        -0.50000E+08         0.00000E+00
    0.00000E+00         0.00000E+00        -0.12500E+08
 
   -0.12500E+08         0.67560E+00         0.00000E+00
    0.67560E+00        -0.50000E+08         0.00000E+00
    0.00000E+00         0.00000E+00        -0.12500E+08
 
   -0.12500E+08         0.84190E+00         0.00000E+00
    0.84190E+00        -0.50000E+08         0.00000E+00
    0.00000E+00         0.00000E+00        -0.12500E+08
 
   -0.12500E+08         0.10241E+01         0.00000E+00
    0.10241E+01        -0.50000E+08         0.00000E+00
    0.00000E+00         0.00000E+00        -0.12500E+08
 
   -0.12500E+08        -0.33914E-01         0.00000E+00
   -0.33914E-01        -0.50000E+08         0.00000E+00
    0.00000E+00         0.00000E+00        -0.12500E+08
 
   -0.12500E+08        -0.84744E-01         0.00000E+00
   -0.84744E-01        -0.50000E+08         0.00000E+00
    0.00000E+00         0.00000E+00        -0.12500E+08
 
   -0.12500E+08        -0.11210E+00         0.00000E+00
   -0.11210E+00        -0.50000E+08         0.00000E+00
    0.00000E+00         0.00000E+00        -0.12500E+08
 
   -0.12500E+08        -0.11541E+00         0.00000E+00
   -0.11541E+00        -0.50000E+08         0.00000E+00
    0.00000E+00         0.00000E+00        -0.12500E+08
 
   -0.12500E+08        -0.94339E-01         0.00000E+00
   -0.94339E-01        -0.50000E+08         0.00000E+00
    0.00000E+00         0.00000E+00        -0.12500E+08
 
   -0.12500E+08        -0.48776E-01         0.00000E+00
   -0.48776E-01        -0.50000E+08         0.00000E+00
    0.00000E+00         0.00000E+00        -0.12500E+08
 
   -0.12500E+08         0.21225E-01         0.00000E+00
    0.21225E-01        -0.50000E+08         0.00000E+00
    0.00000E+00         0.00000E+00        -0.12500E+08
 
   -0.12500E+08         0.11546E+00         0.00000E+00
    0.11546E+00        -0.50000E+08         0.00000E+00
    0.00000E+00         0.00000E+00        -0.12500E+08
 
   -0.12500E+08         0.23362E+00         0.00000E+00
    0.23362E+00        -0.50000E+08         0.00000E+00
    0.00000E+00         0.00000E+00        -0.12500E+08
 
   -0.12500E+08         0.37533E+00         0.00000E+00
    0.37533E+00        -0.50000E+08         0.00000E+00
    0.00000E+00         0.00000E+00        -0.12500E+08
 
   -0.12500E+08         0.54018E+00         0.00000E+00
    0.54018E+00        -0.50000E+08         0.00000E+00
    0.00000E+00         0.00000E+00        -0.12500E+08
 
   -0.12500E+08         0.72776E+00         0.00000E+00
    0.72776E+00        -0.50000E+08         0.00000E+00
    0.00000E+00         0.00000E+00        -0.12500E+08
 
   -0.12500E+08         0.93774E+00         0.00000E+00
    0.93774E+00        -0.50000E+08         0.00000E+00
    0.00000E+00         0.00000E+00        -0.12500E+08
 
   -0.12500E+08         0.11699E+01         0.00000E+00
    0.11699E+01        -0.50000E+08         0.00000E+00
    0.00000E+00         0.00000E+00        -0.12500E+08
 
   -0.12500E+08         0.14242E+01         0.00000E+00
    0.14242E+01        -0.50000E+08         0.00000E+00
    0.00000E+00         0.00000E+00        -0.12500E+08
 
   -0.12500E+08        -0.44613E-01         0.00000E+00
   -0.44613E-01        -0.50000E+08         0.00000E+00
    0.00000E+00         0.00000E+00        -0.12500E+08
 
   -0.12500E+08        -0.11180E+00         0.00000E+00
   -0.11180E+00        -0.50000E+08         0.00000E+00
    0.00000E+00         0.00000E+00        -0.12500E+08
 
   -0.12500E+08        -0.14856E+00         0.00000E+00
   -0.14856E+00        -0.50000E+08         0.00000E+00
    0.00000E+00         0.00000E+00        -0.12500E+08
 
   -0.12500E+08        -0.15418E+00         0.00000E+00
   -0.15418E+00        -0.50000E+08         0.00000E+00
    0.00000E+00         0.00000E+00        -0.12500E+08
 
   -0.12500E+08        -0.12827E+00         0.00000E+00
   -0.12827E+00        -0.50000E+08         0.00000E+00
    0.00000E+00         0.00000E+00        -0.12500E+08
 
   -0.12500E+08        -0.70706E-01         0.00000E+00
   -0.70706E-01        -0.50000E+08         0.00000E+00
    0.00000E+00         0.00000E+00        -0.12500E+08
 
   -0.12500E+08         0.18407E-01         0.00000E+00
    0.18407E-01        -0.50000E+08         0.00000E+00
    0.00000E+00         0.00000E+00        -0.12500E+08
 
   -0.12500E+08         0.13877E+00         0.00000E+00
    0.13877E+00        -0.50000E+08         0.00000E+00
    0.00000E+00         0.00000E+00        -0.12500E+08
 
   -0.12500E+08         0.28994E+00         0.00000E+00
    0.28994E+00        -0.50000E+08         0.00000E+00
    0.00000E+00         0.00000E+00        -0.12500E+08
 
   -0.12500E+08         0.47138E+00         0.00000E+00
    0.47138E+00        -0.50000E+08         0.00000E+00
    0.00000E+00         0.00000E+00        -0.12500E+08
 
   -0.12500E+08         0.68255E+00         0.00000E+00
    0.68255E+00        -0.50000E+08         0.00000E+00
    0.00000E+00         0.00000E+00        -0.12500E+08
 
   -0.12500E+08         0.92287E+00         0.00000E+00
    0.92287E+00        -0.50000E+08         0.00000E+00
    0.00000E+00         0.00000E+00        -0.12500E+08
 
   -0.12500E+08         0.11919E+01         0.00000E+00
    0.11919E+01        -0.50000E+08         0.00000E+00
    0.00000E+00         0.00000E+00        -0.12500E+08
 
   -0.12500E+08         0.14892E+01         0.00000E+00
    0.14892E+01        -0.50000E+08         0.00000E+00
    0.00000E+00         0.00000E+00        -0.12500E+08
 
   -0.12500E+08         0.18147E+01         0.00000E+00
    0.18147E+01        -0.50000E+08         0.00000E+00
    0.00000E+00         0.00000E+00        -0.12500E+08
 
   -0.12500E+08        -0.56069E-01         0.00000E+00
   -0.56069E-01        -0.50000E+08         0.00000E+00
    0.00000E+00         0.00000E+00        -0.12500E+08
 
   -0.12500E+08        -0.14098E+00         0.00000E+00
   -0.14098E+00        -0.50000E+08         0.00000E+00
    0.00000E+00         0.00000E+00        -0.12500E+08
 
   -0.12500E+08        -0.18833E+00         0.00000E+00
   -0.18833E+00        -0.50000E+08         0.00000E+00
    0.00000E+00         0.00000E+00        -0.12500E+08
 
   -0.12500E+08        -0.19727E+00         0.00000E+00
   -0.19727E+00        -0.50000E+08         0.00000E+00
    0.00000E+00         0.00000E+00        -0.12500E+08
 
   -0.12500E+08        -0.16738E+00         0.00000E+00
   -0.16738E+00        -0.50000E+08         0.00000E+00
    0.00000E+00         0.00000E+00        -0.12500E+08
 
   -0.12500E+08        -0.98553E-01         0.00000E+00
   -0.98553E-01        -0.50000E+08         0.00000E+00
    0.00000E+00         0.00000E+00        -0.12500E+08
 
   -0.12500E+08         0.90207E-02         0.00000E+00
    0.90207E-02        -0.50000E+08         0.00000E+00
    0.00000E+00         0.00000E+00        -0.12500E+08
 
   -0.12500E+08         0.15491E+00         0.00000E+00
    0.15491E+00        -0.50000E+08         0.00000E+00
    0.00000E+00         0.00000E+00        -0.12500E+08
 
   -0.12500E+08         0.33853E+00         0.00000E+00
    0.33853E+00        -0.50000E+08         0.00000E+00
    0.00000E+00         0.00000E+00        -0.12500E+08
 
   -0.12500E+08         0.55917E+00         0.00000E+00
    0.55917E+00        -0.50000E+08         0.00000E+00
    0.00000E+00         0.00000E+00        -0.12500E+08
 
   -0.12500E+08         0.81608E+00         0.00000E+00
    0.81608E+00        -0.50000E+08         0.00000E+00
    0.00000E+00         0.00000E+00        -0.12500E+08
 
   -0.12500E+08         0.11085E+01         0.00000E+00
    0.11085E+01        -0.50000E+08         0.00000E+00
    0.00000E+00         0.00000E+00        -0.12500E+08
 
   -0.12500E+08         0.14358E+01         0.00000E+00
    0.14358E+01        -0.50000E+08         0.00000E+00
    0.00000E+00         0.00000E+00        -0.12500E+08
 
   -0.12500E+08         0.17975E+01         0.00000E+00
    0.17975E+01        -0.50000E+08         0.00000E+00
    0.00000E+00         0.00000E+00        -0.12500E+08
 
   -0.12500E+08         0.21933E+01         0.00000E+00
    0.21933E+01        -0.50000E+08         0.00000E+00
    0.00000E+00         0.00000E+00        -0.12500E+08
 
   -0.12500E+08        -0.68450E-01         0.00000E+00
   -0.68450E-01        -0.50000E+08         0.00000E+00
    0.00000E+00         0.00000E+00        -0.12500E+08
 
   -0.12500E+08        -0.17275E+00         0.00000E+00
   -0.17275E+00        -0.50000E+08         0.00000E+00
    0.00000E+00         0.00000E+00        -0.12500E+08
 
   -0.12500E+08        -0.23210E+00         0.00000E+00
   -0.23210E+00        -0.50000E+08         0.00000E+00
    0.00000E+00         0.00000E+00        -0.12500E+08
 
   -0.12500E+08        -0.24559E+00         0.00000E+00
   -0.24559E+00        -0.50000E+08         0.00000E+00
    0.00000E+00         0.00000E+00        -0.12500E+08
 
   -0.12500E+08        -0.21274E+00         0.00000E+00
   -0.21274E+00        -0.50000E+08         0.00000E+00
    0.00000E+00         0.00000E+00        -0.12500E+08
 
   -0.12500E+08        -0.13354E+00         0.00000E+00
   -0.13354E+00        -0.50000E+08         0.00000E+00
    0.00000E+00         0.00000E+00        -0.12500E+08
 
   -0.12500E+08        -0.82815E-02         0.00000E+00
   -0.82815E-02        -0.50000E+08         0.00000E+00
    0.00000E+00         0.00000E+00        -0.12500E+08
 
   -0.12500E+08         0.16244E+00         0.00000E+00
    0.16244E+00        -0.50000E+08         0.00000E+00
    0.00000E+00         0.00000E+00        -0.12500E+08
 
   -0.12500E+08         0.37784E+00         0.00000E+00
    0.37784E+00        -0.50000E+08         0.00000E+00
    0.00000E+00         0.00000E+00        -0.12500E+08
 
   -0.12500E+08         0.63700E+00         0.00000E+00
    0.63700E+00        -0.50000E+08         0.00000E+00
    0.00000E+00         0.00000E+00        -0.12500E+08
 
   -0.12500E+08         0.93895E+00         0.00000E+00
    0.93895E+00        -0.50000E+08         0.00000E+00
    0.00000E+00         0.00000E+00        -0.12500E+08
 
   -0.12500E+08         0.12827E+01         0.00000E+00
    0.12827E+01        -0.50000E+08         0.00000E+00
    0.00000E+00         0.00000E+00        -0.12500E+08
 
   -0.12500E+08         0.16675E+01         0.00000E+00
    0.16675E+01        -0.50000E+08         0.00000E+00
    0.00000E+00         0.00000E+00        -0.12500E+08
 
   -0.12500E+08         0.20925E+01         0.00000E+00
    0.20925E+01        -0.50000E+08         0.00000E+00
    0.00000E+00         0.00000E+00        -0.12500E+08
 
   -0.12500E+08         0.25573E+01         0.00000E+00
    0.25573E+01        -0.50000E+08         0.00000E+00
    0.00000E+00         0.00000E+00        -0.12500E+08
 
   -0.12500E+08        -0.81921E-01         0.00000E+00
   -0.81921E-01        -0.50000E+08         0.00000E+00
    0.00000E+00         0.00000E+00        -0.12500E+08
 
   -0.12500E+08        -0.20755E+00         0.00000E+00
   -0.20755E+00        -0.50000E+08         0.00000E+00
    0.00000E+00         0.00000E+00        -0.12500E+08
 
   -0.12500E+08        -0.28057E+00         0.00000E+00
   -0.28057E+00        -0.50000E+08         0.00000E+00
    0.00000E+00         0.00000E+00        -0.12500E+08
 
   -0.12500E+08        -0.29999E+00         0.00000E+00
   -0.29999E+00        -0.50000E+08         0.00000E+00
    0.00000E+00         0.00000E+00        -0.12500E+08
 
   -0.12500E+08        -0.26538E+00         0.00000E+00
   -0.26538E+00        -0.50000E+08         0.00000E+00
    0.00000E+00         0.00000E+00        -0.12500E+08
 
   -0.12500E+08        -0.17681E+00         0.00000E+00
   -0.17681E+00        -0.50000E+08         0.00000E+00
    0.00000E+00         0.00000E+00        -0.12500E+08
 
   -0.12500E+08        -0.34765E-01         0.00000E+00
   -0.34765E-01        -0.50000E+08         0.00000E+00
    0.00000E+00         0.00000E+00        -0.12500E+08
 
   -0.12500E+08         0.15997E+00         0.00000E+00
    0.15997E+00        -0.50000E+08         0.00000E+00
    0.00000E+00         0.00000E+00        -0.12500E+08
 
   -0.12500E+08         0.40636E+00         0.00000E+00
    0.40636E+00        -0.50000E+08         0.00000E+00
    0.00000E+00         0.00000E+00        -0.12500E+08
 
   -0.12500E+08         0.70326E+00         0.00000E+00
    0.70326E+00        -0.50000E+08         0.00000E+00
    0.00000E+00         0.00000E+00        -0.12500E+08
 
   -0.12500E+08         0.10494E+01         0.00000E+00
    0.10494E+01        -0.50000E+08         0.00000E+00
    0.00000E+00         0.00000E+00        -0.12500E+08
 
   -0.12500E+08         0.14437E+01         0.00000E+00
    0.14437E+01        -0.50000E+08         0.00000E+00
    0.00000E+00         0.00000E+00        -0.12500E+08
 
   -0.12500E+08         0.18848E+01         0.00000E+00
    0.18848E+01        -0.50000E+08         0.00000E+00
    0.00000E+00         0.00000E+00        -0.12500E+08
 
   -0.12500E+08         0.23720E+01         0.00000E+00
    0.23720E+01        -0.50000E+08         0.00000E+00
    0.00000E+00         0.00000E+00        -0.12500E+08
 
   -0.12500E+08         0.29045E+01         0.00000E+00
    0.29045E+01        -0.50000E+08         0.00000E+00
    0.00000E+00         0.00000E+00        -0.12500E+08
 
   -0.12500E+08        -0.96642E-01         0.00000E+00
   -0.96642E-01        -0.50000E+08         0.00000E+00
    0.00000E+00         0.00000E+00        -0.12500E+08
 
   -0.12500E+08        -0.24582E+00         0.00000E+00
   -0.24582E+00        -0.50000E+08         0.00000E+00
    0.00000E+00         0.00000E+00        -0.12500E+08
 
   -0.12500E+08        -0.33437E+00         0.00000E+00
   -0.33437E+00        -0.50000E+08         0.00000E+00
    0.00000E+00         0.00000E+00        -0.12500E+08
 
   -0.12500E+08        -0.36128E+00         0.00000E+00
   -0.36128E+00        -0.50000E+08         0.00000E+00
    0.00000E+00         0.00000E+00        -0.12500E+08
 
   -0.12500E+08        -0.32622E+00         0.00000E+00
   -0.32622E+00        -0.50000E+08         0.00000E+00
    0.00000E+00         0.00000E+00        -0.12500E+08
 
   -0.12500E+08        -0.22942E+00         0.00000E+00
   -0.22942E+00        -0.50000E+08         0.00000E+00
    0.00000E+00         0.00000E+00        -0.12500E+08
 
   -0.12500E+08        -0.71589E-01         0.00000E+00
   -0.71589E-01        -0.50000E+08         0.00000E+00
    0.00000E+00         0.00000E+00        -0.12500E+08
 
   -0.12500E+08         0.14623E+00         0.00000E+00
    0.14623E+00        -0.50000E+08         0.00000E+00
    0.00000E+00         0.00000E+00        -0.12500E+08
 
   -0.12500E+08         0.42274E+00         0.00000E+00
    0.42274E+00        -0.50000E+08         0.00000E+00
    0.00000E+00         0.00000E+00        -0.12500E+08
 
   -0.12500E+08         0.75649E+00         0.00000E+00
    0.75649E+00        -0.50000E+08         0.00000E+00
    0.00000E+00         0.00000E+00        -0.12500E+08
 
   -0.12500E+08         0.11459E+01         0.00000E+00
    0.11459E+01        -0.50000E+08         0.00000E+00
    0.00000E+00         0.00000E+00        -0.12500E+08
 
   -0.12500E+08         0.15896E+01         0.00000E+00
    0.15896E+01        -0.50000E+08         0.00000E+00
    0.00000E+00         0.00000E+00        -0.12500E+08
 
   -0.12500E+08         0.20860E+01         0.00000E+00
    0.20860E+01        -0.50000E+08         0.00000E+00
    0.00000E+00         0.00000E+00        -0.12500E+08
 
   -0.12500E+08         0.26340E+01         0.00000E+00
    0.26340E+01        -0.50000E+08         0.00000E+00
    0.00000E+00         0.00000E+00        -0.12500E+08
 
   -0.12500E+08         0.32326E+01         0.00000E+00
    0.32326E+01        -0.50000E+08         0.00000E+00
    0.00000E+00         0.00000E+00        -0.12500E+08
 
   -0.12500E+08        -0.11277E+00         0.00000E+00
   -0.11277E+00        -0.50000E+08         0.00000E+00
    0.00000E+00         0.00000E+00        -0.12500E+08
 
   -0.12500E+08        -0.28795E+00         0.00000E+00
   -0.28795E+00        -0.50000E+08         0.00000E+00
    0.00000E+00         0.00000E+00        -0.12500E+08
 
   -0.12500E+08        -0.39408E+00         0.00000E+00
   -0.39408E+00        -0.50000E+08         0.00000E+00
    0.00000E+00         0.00000E+00        -0.12500E+08
 
   -0.12500E+08        -0.43019E+00         0.00000E+00
   -0.43019E+00        -0.50000E+08         0.00000E+00
    0.00000E+00         0.00000E+00        -0.12500E+08
 
   -0.12500E+08        -0.39610E+00         0.00000E+00
   -0.39610E+00        -0.50000E+08         0.00000E+00
    0.00000E+00         0.00000E+00        -0.12500E+08
 
   -0.12500E+08        -0.29230E+00         0.00000E+00
   -0.29230E+00        -0.50000E+08         0.00000E+00
    0.00000E+00         0.00000E+00        -0.12500E+08
 
   -0.12500E+08        -0.11977E+00         0.00000E+00
   -0.11977E+00        -0.50000E+08         0.00000E+00
    0.00000E+00         0.00000E+00        -0.12500E+08
 
   -0.12500E+08         0.12013E+00         0.00000E+00
    0.12013E+00        -0.50000E+08         0.00000E+00
    0.00000E+00         0.00000E+00        -0.12500E+08
 
   -0.12500E+08         0.42576E+00         0.00000E+00
    0.42576E+00        -0.50000E+08         0.00000E+00
    0.00000E+00         0.00000E+00        -0.12500E+08
 
   -0.12500E+08         0.79533E+00         0.00000E+00
    0.79533E+00        -0.50000E+08         0.00000E+00
    0.00000E+00         0.00000E+00        -0.12500E+08
 
   -0.12500E+08         0.12270E+01         0.00000E+00
    0.12270E+01        -0.50000E+08         0.00000E+00
    0.00000E+00         0.00000E+00        -0.12500E+08
 
   -0.12500E+08         0.17189E+01         0.00000E+00
    0.17189E+01        -0.50000E+08         0.00000E+00
    0.00000E+00         0.00000E+00        -0.12500E+08
 
   -0.12500E+08         0.22693E+01         0.00000E+00
    0.22693E+01        -0.50000E+08         0.00000E+00
    0.00000E+00         0.00000E+00        -0.12500E+08
 
   -0.12500E+08         0.28765E+01         0.00000E+00
    0.28765E+01        -0.50000E+08         0.00000E+00
    0.00000E+00         0.00000E+00        -0.12500E+08
 
   -0.12500E+08         0.35395E+01         0.00000E+00
    0.35395E+01        -0.50000E+08         0.00000E+00
    0.00000E+00         0.00000E+00        -0.12500E+08
 
   -0.12500E+08        -0.13044E+00         0.00000E+00
   -0.13044E+00        -0.50000E+08         0.00000E+00
    0.00000E+00         0.00000E+00        -0.12500E+08
 
   -0.12500E+08        -0.33431E+00         0.00000E+00
   -0.33431E+00        -0.50000E+08         0.00000E+00
    0.00000E+00         0.00000E+00        -0.12500E+08
 
   -0.12500E+08        -0.46021E+00         0.00000E+00
   -0.46021E+00        -0.50000E+08         0.00000E+00
    0.00000E+00         0.00000E+00        -0.12500E+08
 
   -0.12500E+08        -0.50732E+00         0.00000E+00
   -0.50732E+00        -0.50000E+08         0.00000E+00
    0.00000E+00         0.00000E+00        -0.12500E+08
 
   -0.12500E+08        -0.47572E+00         0.00000E+00
   -0.47572E+00        -0.50000E+08         0.00000E+00
    0.00000E+00         0.00000E+00        -0.12500E+08
 
   -0.12500E+08        -0.36620E+00         0.00000E+00
   -0.36620E+00        -0.50000E+08         0.00000E+00
    0.00000E+00         0.00000E+00        -0.12500E+08
 
   -0.12500E+08        -0.18014E+00         0.00000E+00
   -0.18014E+00        -0.50000E+08         0.00000E+00
    0.00000E+00         0.00000E+00        -0.12500E+08
 
   -0.12500E+08         0.80730E-01         0.00000E+00
    0.80730E-01        -0.50000E+08         0.00000E+00
    0.00000E+00         0.00000E+00        -0.12500E+08
 
   -0.12500E+08         0.41438E+00         0.00000E+00
    0.41438E+00        -0.50000E+08         0.00000E+00
    0.00000E+00         0.00000E+00        -0.12500E+08
 
   -0.12500E+08         0.81863E+00         0.00000E+00
    0.81863E+00        -0.50000E+08         0.00000E+00
    0.00000E+00         0.00000E+00        -0.12500E+08
 
   -0.12500E+08         0.12913E+01         0.00000E+00
    0.12913E+01        -0.50000E+08         0.00000E+00
    0.00000E+00         0.00000E+00        -0.12500E+08
 
   -0.12500E+08         0.18301E+01         0.00000E+00
    0.18301E+01        -0.50000E+08         0.00000E+00
    0.00000E+00         0.00000E+00        -0.12500E+08
 
   -0.12500E+08         0.24330E+01         0.00000E+00
    0.24330E+01        -0.50000E+08         0.00000E+00
    0.00000E+00         0.00000E+00        -0.12500E+08
 
   -0.12500E+08         0.30979E+01         0.00000E+00
    0.30979E+01        -0.50000E+08         0.00000E+00
    0.00000E+00         0.00000E+00        -0.12500E+08
 
   -0.12500E+08         0.38233E+01         0.00000E+00
    0.38233E+01        -0.50000E+08         0.00000E+00
    0.00000E+00         0.00000E+00        -0.12500E+08
 
   -0.12500E+08        -0.14977E+00         0.00000E+00
   -0.14977E+00        -0.50000E+08         0.00000E+00
    0.00000E+00         0.00000E+00        -0.12500E+08
 
   -0.12500E+08        -0.38519E+00         0.00000E+00
   -0.38519E+00        -0.50000E+08         0.00000E+00
    0.00000E+00         0.00000E+00        -0.12500E+08
 
   -0.12500E+08        -0.53316E+00         0.00000E+00
   -0.53316E+00        -0.50000E+08         0.00000E+00
    0.00000E+00         0.00000E+00        -0.12500E+08
 
   -0.12500E+08        -0.59313E+00         0.00000E+00
   -0.59313E+00        -0.50000E+08         0.00000E+00
    0.00000E+00         0.00000E+00        -0.12500E+08
 
   -0.12500E+08        -0.56555E+00         0.00000E+00
   -0.56555E+00        -0.50000E+08         0.00000E+00
    0.00000E+00         0.00000E+00        -0.12500E+08
 
   -0.12500E+08        -0.45166E+00         0.00000E+00
   -0.45166E+00        -0.50000E+08         0.00000E+00
    0.00000E+00         0.00000E+00        -0.12500E+08
 
   -0.12500E+08        -0.25328E+00         0.00000E+00
   -0.25328E+00        -0.50000E+08         0.00000E+00
    0.00000E+00         0.00000E+00        -0.12500E+08
 
   -0.12500E+08         0.27360E-01         0.00000E+00
    0.27360E-01        -0.50000E+08         0.00000E+00
    0.00000E+00         0.00000E+00        -0.12500E+08
 
   -0.12500E+08         0.38780E+00         0.00000E+00
    0.38780E+00        -0.50000E+08         0.00000E+00
    0.00000E+00         0.00000E+00        -0.12500E+08
 
   -0.12500E+08         0.82545E+00         0.00000E+00
    0.82545E+00        -0.50000E+08         0.00000E+00
    0.00000E+00         0.00000E+00        -0.12500E+08
 
   -0.12500E+08         0.13377E+01         0.00000E+00
    0.13377E+01        -0.50000E+08         0.00000E+00
    0.00000E+00         0.00000E+00        -0.12500E+08
 
   -0.12500E+08         0.19219E+01         0.00000E+00
    0.19219E+01        -0.50000E+08         0.00000E+00
    0.00000E+00         0.00000E+00        -0.12500E+08
 
   -0.12500E+08         0.25757E+01         0.00000E+00
    0.25757E+01        -0.50000E+08         0.00000E+00
    0.00000E+00         0.00000E+00        -0.12500E+08
 
   -0.12500E+08         0.32965E+01         0.00000E+00
    0.32965E+01        -0.50000E+08         0.00000E+00
    0.00000E+00         0.00000E+00        -0.12500E+08
 
   -0.12500E+08         0.40822E+01         0.00000E+00
    0.40822E+01        -0.50000E+08         0.00000E+00
    0.00000E+00         0.00000E+00        -0.12500E+08
 
   -0.12500E+08        -0.17087E+00         0.00000E+00
   -0.17087E+00        -0.50000E+08         0.00000E+00
    0.00000E+00         0.00000E+00        -0.12500E+08
 
   -0.12500E+08        -0.44079E+00         0.00000E+00
   -0.44079E+00        -0.50000E+08         0.00000E+00
    0.00000E+00         0.00000E+00        -0.12500E+08
 
   -0.12500E+08        -0.61318E+00         0.00000E+00
   -0.61318E+00        -0.50000E+08         0.00000E+00
    0.00000E+00         0.00000E+00        -0.12500E+08
 
   -0.12500E+08        -0.68787E+00         0.00000E+00
   -0.68787E+00        -0.50000E+08         0.00000E+00
    0.00000E+00         0.00000E+00        -0.12500E+08
 
   -0.12500E+08        -0.66584E+00         0.00000E+00
   -0.66584E+00        -0.50000E+08         0.00000E+00
    0.00000E+00         0.00000E+00        -0.12500E+08
 
   -0.12500E+08        -0.54891E+00         0.00000E+00
   -0.54891E+00        -0.50000E+08         0.00000E+00
    0.00000E+00         0.00000E+00        -0.12500E+08
 
   -0.12500E+08        -0.33949E+00         0.00000E+00
   -0.33949E+00        -0.50000E+08         0.00000E+00
    0.00000E+00         0.00000E+00        -0.12500E+08
 
   -0.12500E+08        -0.40355E-01         0.00000E+00
   -0.40355E-01        -0.50000E+08         0.00000E+00
    0.00000E+00         0.00000E+00        -0.12500E+08
 
   -0.12500E+08         0.34552E+00         0.00000E+00
    0.34552E+00        -0.50000E+08         0.00000E+00
    0.00000E+00         0.00000E+00        -0.12500E+08
 
   -0.12500E+08         0.81509E+00         0.00000E+00
    0.81509E+00        -0.50000E+08         0.00000E+00
    0.00000E+00         0.00000E+00        -0.12500E+08
 
   -0.12500E+08         0.13653E+01         0.00000E+00
    0.13653E+01        -0.50000E+08         0.00000E+00
    0.00000E+00         0.00000E+00        -0.12500E+08
 
   -0.12500E+08         0.19933E+01         0.00000E+00
    0.19933E+01        -0.50000E+08         0.00000E+00
    0.00000E+00         0.00000E+00        -0.12500E+08
 
   -0.12500E+08         0.26960E+01         0.00000E+00
    0.26960E+01        -0.50000E+08         0.00000E+00
    0.00000E+00         0.00000E+00        -0.12500E+08
 
   -0.12500E+08         0.34708E+01         0.00000E+00
    0.34708E+01        -0.50000E+08         0.00000E+00
    0.00000E+00         0.00000E+00        -0.12500E+08
 
   -0.12500E+08         0.43147E+01         0.00000E+00
    0.43147E+01        -0.50000E+08         0.00000E+00
    0.00000E+00         0.00000E+00        -0.12500E+08
 
   -0.12500E+08        -0.19379E+00         0.00000E+00
   -0.19379E+00        -0.50000E+08         0.00000E+00
    0.00000E+00         0.00000E+00        -0.12500E+08
 
   -0.12500E+08        -0.50124E+00         0.00000E+00
   -0.50124E+00        -0.50000E+08         0.00000E+00
    0.00000E+00         0.00000E+00        -0.12500E+08
 
   -0.12500E+08        -0.70034E+00         0.00000E+00
   -0.70034E+00        -0.50000E+08         0.00000E+00
    0.00000E+00         0.00000E+00        -0.12500E+08
 
   -0.12500E+08        -0.79154E+00         0.00000E+00
   -0.79154E+00        -0.50000E+08         0.00000E+00
    0.00000E+00         0.00000E+00        -0.12500E+08
 
   -0.12500E+08        -0.77652E+00         0.00000E+00
   -0.77652E+00        -0.50000E+08         0.00000E+00
    0.00000E+00         0.00000E+00        -0.12500E+08
 
   -0.12500E+08        -0.65785E+00         0.00000E+00
   -0.65785E+00        -0.50000E+08         0.00000E+00
    0.00000E+00         0.00000E+00        -0.12500E+08
 
   -0.12500E+08        -0.43866E+00         0.00000E+00
   -0.43866E+00        -0.50000E+08         0.00000E+00
    0.00000E+00         0.00000E+00        -0.12500E+08
 
   -0.12500E+08        -0.12240E+00         0.00000E+00
   -0.12240E+00        -0.50000E+08         0.00000E+00
    0.00000E+00         0.00000E+00        -0.12500E+08
 
   -0.12500E+08         0.28739E+00         0.00000E+00
    0.28739E+00        -0.50000E+08         0.00000E+00
    0.00000E+00         0.00000E+00        -0.12500E+08
 
   -0.12500E+08         0.78720E+00         0.00000E+00
    0.78720E+00        -0.50000E+08         0.00000E+00
    0.00000E+00         0.00000E+00        -0.12500E+08
 
   -0.12500E+08         0.13736E+01         0.00000E+00
    0.13736E+01        -0.50000E+08         0.00000E+00
    0.00000E+00         0.00000E+00        -0.12500E+08
 
   -0.12500E+08         0.20433E+01         0.00000E+00
    0.20433E+01        -0.50000E+08         0.00000E+00
    0.00000E+00         0.00000E+00        -0.12500E+08
 
   -0.12500E+08         0.27930E+01         0.00000E+00
    0.27930E+01        -0.50000E+08         0.00000E+00
    0.00000E+00         0.00000E+00        -0.12500E+08
 
   -0.12500E+08         0.36194E+01         0.00000E+00
    0.36194E+01        -0.50000E+08         0.00000E+00
    0.00000E+00         0.00000E+00        -0.12500E+08
 
   -0.12500E+08         0.45193E+01         0.00000E+00
    0.45193E+01        -0.50000E+08         0.00000E+00
    0.00000E+00         0.00000E+00        -0.12500E+08
 
   -0.12500E+08        -0.21856E+00         0.00000E+00
   -0.21856E+00        -0.50000E+08         0.00000E+00
    0.00000E+00         0.00000E+00        -0.12500E+08
 
   -0.12500E+08        -0.56648E+00         0.00000E+00
   -0.56648E+00        -0.50000E+08         0.00000E+00
    0.00000E+00         0.00000E+00        -0.12500E+08
 
   -0.12500E+08        -0.79447E+00         0.00000E+00
   -0.79447E+00        -0.50000E+08         0.00000E+00
    0.00000E+00         0.00000E+00        -0.12500E+08
 
   -0.12500E+08        -0.90380E+00         0.00000E+00
   -0.90380E+00        -0.50000E+08         0.00000E+00
    0.00000E+00         0.00000E+00        -0.12500E+08
 
   -0.12500E+08        -0.89710E+00         0.00000E+00
   -0.89710E+00        -0.50000E+08         0.00000E+00
    0.00000E+00         0.00000E+00        -0.12500E+08
 
   -0.12500E+08        -0.77788E+00         0.00000E+00
   -0.77788E+00        -0.50000E+08         0.00000E+00
    0.00000E+00         0.00000E+00        -0.12500E+08
 
   -0.12500E+08        -0.55021E+00         0.00000E+00
   -0.55021E+00        -0.50000E+08         0.00000E+00
    0.00000E+00         0.00000E+00        -0.12500E+08
 
   -0.12500E+08        -0.21829E+00         0.00000E+00
   -0.21829E+00        -0.50000E+08         0.00000E+00
    0.00000E+00         0.00000E+00        -0.12500E+08
 
   -0.12500E+08         0.21370E+00         0.00000E+00
    0.21370E+00        -0.50000E+08         0.00000E+00
    0.00000E+00         0.00000E+00        -0.12500E+08
 
   -0.12500E+08         0.74178E+00         0.00000E+00
    0.74178E+00        -0.50000E+08         0.00000E+00
    0.00000E+00         0.00000E+00        -0.12500E+08
 
   -0.12500E+08         0.13622E+01         0.00000E+00
    0.13622E+01        -0.50000E+08         0.00000E+00
    0.00000E+00         0.00000E+00        -0.12500E+08
 
   -0.12500E+08         0.20713E+01         0.00000E+00
    0.20713E+01        -0.50000E+08         0.00000E+00
    0.00000E+00         0.00000E+00        -0.12500E+08
 
   -0.12500E+08         0.28655E+01         0.00000E+00
    0.28655E+01        -0.50000E+08         0.00000E+00
    0.00000E+00         0.00000E+00        -0.12500E+08
 
   -0.12500E+08         0.37412E+01         0.00000E+00
    0.37412E+01        -0.50000E+08         0.00000E+00
    0.00000E+00         0.00000E+00        -0.12500E+08
 
   -0.12500E+08         0.46946E+01         0.00000E+00
    0.46946E+01        -0.50000E+08         0.00000E+00
    0.00000E+00         0.00000E+00        -0.12500E+08
 
   -0.12500E+08        -0.24513E+00         0.00000E+00
   -0.24513E+00        -0.50000E+08         0.00000E+00
    0.00000E+00         0.00000E+00        -0.12500E+08
 
   -0.12500E+08        -0.63631E+00         0.00000E+00
   -0.63631E+00        -0.50000E+08         0.00000E+00
    0.00000E+00         0.00000E+00        -0.12500E+08
 
   -0.12500E+08        -0.89509E+00         0.00000E+00
   -0.89509E+00        -0.50000E+08         0.00000E+00
    0.00000E+00         0.00000E+00        -0.12500E+08
 
   -0.12500E+08        -0.10239E+01         0.00000E+00
   -0.10239E+01        -0.50000E+08         0.00000E+00
    0.00000E+00         0.00000E+00        -0.12500E+08
 
   -0.12500E+08        -0.10266E+01         0.00000E+00
   -0.10266E+01        -0.50000E+08         0.00000E+00
    0.00000E+00         0.00000E+00        -0.12500E+08
 
   -0.12500E+08        -0.90785E+00         0.00000E+00
   -0.90785E+00        -0.50000E+08         0.00000E+00
    0.00000E+00         0.00000E+00        -0.12500E+08
 
   -0.12500E+08        -0.67292E+00         0.00000E+00
   -0.67292E+00        -0.50000E+08         0.00000E+00
    0.00000E+00         0.00000E+00        -0.12500E+08
 
   -0.12500E+08        -0.32693E+00         0.00000E+00
   -0.32693E+00        -0.50000E+08         0.00000E+00
    0.00000E+00         0.00000E+00        -0.12500E+08
 
   -0.12500E+08         0.12529E+00         0.00000E+00
    0.12529E+00        -0.50000E+08         0.00000E+00
    0.00000E+00         0.00000E+00        -0.12500E+08
 
   -0.12500E+08         0.67928E+00         0.00000E+00
    0.67928E+00        -0.50000E+08         0.00000E+00
    0.00000E+00         0.00000E+00        -0.12500E+08
 
   -0.12500E+08         0.13310E+01         0.00000E+00
    0.13310E+01        -0.50000E+08         0.00000E+00
    0.00000E+00         0.00000E+00        -0.12500E+08
 
   -0.12500E+08         0.20767E+01         0.00000E+00
    0.20767E+01        -0.50000E+08         0.00000E+00
    0.00000E+00         0.00000E+00        -0.12500E+08
 
   -0.12500E+08         0.29127E+01         0.00000E+00
    0.29127E+01        -0.50000E+08         0.00000E+00
    0.00000E+00         0.00000E+00        -0.12500E+08
 
   -0.12500E+08         0.38350E+01         0.00000E+00
    0.38350E+01        -0.50000E+08         0.00000E+00
    0.00000E+00         0.00000E+00        -0.12500E+08
 
   -0.12500E+08         0.48393E+01         0.00000E+00
    0.48393E+01        -0.50000E+08         0.00000E+00
    0.00000E+00         0.00000E+00        -0.12500E+08
 
   -0.12500E+08        -0.27340E+00         0.00000E+00
   -0.27340E+00        -0.50000E+08         0.00000E+00
    0.00000E+00         0.00000E+00        -0.12500E+08
 
   -0.12500E+08        -0.71030E+00         0.00000E+00
   -0.71030E+00        -0.50000E+08         0.00000E+00
    0.00000E+00         0.00000E+00        -0.12500E+08
 
   -0.12500E+08        -0.10014E+01         0.00000E+00
   -0.10014E+01        -0.50000E+08         0.00000E+00
    0.00000E+00         0.00000E+00        -0.12500E+08
 
   -0.12500E+08        -0.11505E+01         0.00000E+00
   -0.11505E+01        -0.50000E+08         0.00000E+00
    0.00000E+00         0.00000E+00        -0.12500E+08
 
   -0.12500E+08        -0.11632E+01         0.00000E+00
   -0.11632E+01        -0.50000E+08         0.00000E+00
    0.00000E+00         0.00000E+00        -0.12500E+08
 
   -0.12500E+08        -0.10458E+01         0.00000E+00
   -0.10458E+01        -0.50000E+08         0.00000E+00
    0.00000E+00         0.00000E+00        -0.12500E+08
 
   -0.12500E+08        -0.80485E+00         0.00000E+00
   -0.80485E+00        -0.50000E+08         0.00000E+00
    0.00000E+00         0.00000E+00        -0.12500E+08
 
   -0.12500E+08        -0.44649E+00         0.00000E+00
   -0.44649E+00        -0.50000E+08         0.00000E+00
    0.00000E+00         0.00000E+00        -0.12500E+08
 
   -0.12500E+08         0.23631E-01         0.00000E+00
    0.23631E-01        -0.50000E+08         0.00000E+00
    0.00000E+00         0.00000E+00        -0.12500E+08
 
   -0.12500E+08         0.60069E+00         0.00000E+00
    0.60069E+00        -0.50000E+08         0.00000E+00
    0.00000E+00         0.00000E+00        -0.12500E+08
 
   -0.12500E+08         0.12805E+01         0.00000E+00
    0.12805E+01        -0.50000E+08         0.00000E+00
    0.00000E+00         0.00000E+00        -0.12500E+08
 
   -0.12500E+08         0.20594E+01         0.00000E+00
    0.20594E+01        -0.50000E+08         0.00000E+00
    0.00000E+00         0.00000E+00        -0.12500E+08
 
   -0.12500E+08         0.29337E+01         0.00000E+00
    0.29337E+01        -0.50000E+08         0.00000E+00
    0.00000E+00         0.00000E+00        -0.12500E+08
 
   -0.12500E+08         0.38995E+01         0.00000E+00
    0.38995E+01        -0.50000E+08         0.00000E+00
    0.00000E+00         0.00000E+00        -0.12500E+08
 
   -0.12500E+08         0.49520E+01         0.00000E+00
    0.49520E+01        -0.50000E+08         0.00000E+00
    0.00000E+00         0.00000E+00        -0.12500E+08
 
   -0.12500E+08        -0.30318E+00         0.00000E+00
   -0.30318E+00        -0.50000E+08         0.00000E+00
    0.00000E+00         0.00000E+00        -0.12500E+08
 
   -0.12500E+08        -0.78775E+00         0.00000E+00
   -0.78775E+00        -0.50000E+08         0.00000E+00
    0.00000E+00         0.00000E+00        -0.12500E+08
 
   -0.12500E+08        -0.11120E+01         0.00000E+00
   -0.11120E+01        -0.50000E+08         0.00000E+00
    0.00000E+00         0.00000E+00        -0.12500E+08
 
   -0.12500E+08        -0.12817E+01         0.00000E+00
   -0.12817E+01        -0.50000E+08         0.00000E+00
    0.00000E+00         0.00000E+00        -0.12500E+08
 
   -0.12500E+08        -0.13047E+01         0.00000E+00
   -0.13047E+01        -0.50000E+08         0.00000E+00
    0.00000E+00         0.00000E+00        -0.12500E+08
 
   -0.12500E+08        -0.11890E+01         0.00000E+00
   -0.11890E+01        -0.50000E+08         0.00000E+00
    0.00000E+00         0.00000E+00        -0.12500E+08
 
   -0.12500E+08        -0.94307E+00         0.00000E+00
   -0.94307E+00        -0.50000E+08         0.00000E+00
    0.00000E+00         0.00000E+00        -0.12500E+08
 
   -0.12500E+08        -0.57427E+00         0.00000E+00
   -0.57427E+00        -0.50000E+08         0.00000E+00
    0.00000E+00         0.00000E+00        -0.12500E+08
 
   -0.12500E+08        -0.88988E-01         0.00000E+00
   -0.88988E-01        -0.50000E+08         0.00000E+00
    0.00000E+00         0.00000E+00        -0.12500E+08
 
   -0.12500E+08         0.50763E+00         0.00000E+00
    0.50763E+00        -0.50000E+08         0.00000E+00
    0.00000E+00         0.00000E+00        -0.12500E+08
 
   -0.12500E+08         0.12115E+01         0.00000E+00
    0.12115E+01        -0.50000E+08         0.00000E+00
    0.00000E+00         0.00000E+00        -0.12500E+08
 
   -0.12500E+08         0.20194E+01         0.00000E+00
    0.20194E+01        -0.50000E+08         0.00000E+00
    0.00000E+00         0.00000E+00        -0.12500E+08
 
   -0.12500E+08         0.29279E+01         0.00000E+00
    0.29279E+01        -0.50000E+08         0.00000E+00
    0.00000E+00         0.00000E+00        -0.12500E+08
 
   -0.12500E+08         0.39335E+01         0.00000E+00
    0.39335E+01        -0.50000E+08         0.00000E+00
    0.00000E+00         0.00000E+00        -0.12500E+08
 
   -0.12500E+08         0.50312E+01         0.00000E+00
    0.50312E+01        -0.50000E+08         0.00000E+00
    0.00000E+00         0.00000E+00        -0.12500E+08
 
   -0.12500E+08        -0.33418E+00         0.00000E+00
   -0.33418E+00        -0.50000E+08         0.00000E+00
    0.00000E+00         0.00000E+00        -0.12500E+08
 
   -0.12500E+08        -0.86765E+00         0.00000E+00
   -0.86765E+00        -0.50000E+08         0.00000E+00
    0.00000E+00         0.00000E+00        -0.12500E+08
 
   -0.12500E+08        -0.12250E+01         0.00000E+00
   -0.12250E+01        -0.50000E+08         0.00000E+00
    0.00000E+00         0.00000E+00        -0.12500E+08
 
   -0.12500E+08        -0.14148E+01         0.00000E+00
   -0.14148E+01        -0.50000E+08         0.00000E+00
    0.00000E+00         0.00000E+00        -0.12500E+08
 
   -0.12500E+08        -0.14474E+01         0.00000E+00
   -0.14474E+01        -0.50000E+08         0.00000E+00
    0.00000E+00         0.00000E+00        -0.12500E+08
 
   -0.12500E+08        -0.13335E+01         0.00000E+00
   -0.13335E+01        -0.50000E+08         0.00000E+00
    0.00000E+00         0.00000E+00        -0.12500E+08
 
   -0.12500E+08        -0.10835E+01         0.00000E+00
   -0.10835E+01        -0.50000E+08         0.00000E+00
    0.00000E+00         0.00000E+00        -0.12500E+08
 
   -0.12500E+08        -0.70642E+00         0.00000E+00
   -0.70642E+00        -0.50000E+08         0.00000E+00
    0.00000E+00         0.00000E+00        -0.12500E+08
 
   -0.12500E+08        -0.20935E+00         0.00000E+00
   -0.20935E+00        -0.50000E+08         0.00000E+00
    0.00000E+00         0.00000E+00        -0.12500E+08
 
   -0.12500E+08         0.40244E+00         0.00000E+00
    0.40244E+00        -0.50000E+08         0.00000E+00
    0.00000E+00         0.00000E+00        -0.12500E+08
 
   -0.12500E+08         0.11253E+01         0.00000E+00
    0.11253E+01        -0.50000E+08         0.00000E+00
    0.00000E+00         0.00000E+00        -0.12500E+08
 
   -0.12500E+08         0.19567E+01         0.00000E+00
    0.19567E+01        -0.50000E+08         0.00000E+00
    0.00000E+00         0.00000E+00        -0.12500E+08
 
   -0.12500E+08         0.28944E+01         0.00000E+00
    0.28944E+01        -0.50000E+08         0.00000E+00
    0.00000E+00         0.00000E+00        -0.12500E+08
 
   -0.12500E+08         0.39354E+01         0.00000E+00
    0.39354E+01        -0.50000E+08         0.00000E+00
    0.00000E+00         0.00000E+00        -0.12500E+08
 
   -0.12500E+08         0.50750E+01         0.00000E+00
    0.50750E+01        -0.50000E+08         0.00000E+00
    0.00000E+00         0.00000E+00        -0.12500E+08
 
   -0.12500E+08        -0.36603E+00         0.00000E+00
   -0.36603E+00        -0.50000E+08         0.00000E+00
    0.00000E+00         0.00000E+00        -0.12500E+08
 
   -0.12500E+08        -0.94861E+00         0.00000E+00
   -0.94861E+00        -0.50000E+08         0.00000E+00
    0.00000E+00         0.00000E+00        -0.12500E+08
 
   -0.12500E+08        -0.13380E+01         0.00000E+00
   -0.13380E+01        -0.50000E+08         0.00000E+00
    0.00000E+00         0.00000E+00        -0.12500E+08
 
   -0.12500E+08        -0.15461E+01         0.00000E+00
   -0.15461E+01        -0.50000E+08         0.00000E+00
    0.00000E+00         0.00000E+00        -0.12500E+08
 
   -0.12500E+08        -0.15867E+01         0.00000E+00
   -0.15867E+01        -0.50000E+08         0.00000E+00
    0.00000E+00         0.00000E+00        -0.12500E+08
 
   -0.12500E+08        -0.14739E+01         0.00000E+00
   -0.14739E+01        -0.50000E+08         0.00000E+00
    0.00000E+00         0.00000E+00        -0.12500E+08
 
   -0.12500E+08        -0.12208E+01         0.00000E+00
   -0.12208E+01        -0.50000E+08         0.00000E+00
    0.00000E+00         0.00000E+00        -0.12500E+08
 
   -0.12500E+08        -0.83784E+00         0.00000E+00
   -0.83784E+00        -0.50000E+08         0.00000E+00
    0.00000E+00         0.00000E+00        -0.12500E+08
 
   -0.12500E+08        -0.33311E+00         0.00000E+00
   -0.33311E+00        -0.50000E+08         0.00000E+00
    0.00000E+00         0.00000E+00        -0.12500E+08
 
   -0.12500E+08         0.28830E+00         0.00000E+00
    0.28830E+00        -0.50000E+08         0.00000E+00
    0.00000E+00         0.00000E+00        -0.12500E+08
 
   -0.12500E+08         0.10237E+01         0.00000E+00
    0.10237E+01        -0.50000E+08         0.00000E+00
    0.00000E+00         0.00000E+00        -0.12500E+08
 
   -0.12500E+08         0.18718E+01         0.00000E+00
    0.18718E+01        -0.50000E+08         0.00000E+00
    0.00000E+00         0.00000E+00        -0.12500E+08
 
   -0.12500E+08         0.28322E+01         0.00000E+00
    0.28322E+01        -0.50000E+08         0.00000E+00
    0.00000E+00         0.00000E+00        -0.12500E+08
 
   -0.12500E+08         0.39031E+01         0.00000E+00
    0.39031E+01        -0.50000E+08         0.00000E+00
    0.00000E+00         0.00000E+00        -0.12500E+08
 
   -0.12500E+08         0.50809E+01         0.00000E+00
    0.50809E+01        -0.50000E+08         0.00000E+00
    0.00000E+00         0.00000E+00        -0.12500E+08
 
   -0.12500E+08        -0.39820E+00         0.00000E+00
   -0.39820E+00        -0.50000E+08         0.00000E+00
    0.00000E+00         0.00000E+00        -0.12500E+08
 
   -0.12500E+08        -0.10288E+01         0.00000E+00
   -0.10288E+01        -0.50000E+08         0.00000E+00
    0.00000E+00         0.00000E+00        -0.12500E+08
 
   -0.12500E+08        -0.14474E+01         0.00000E+00
   -0.14474E+01        -0.50000E+08         0.00000E+00
    0.00000E+00         0.00000E+00        -0.12500E+08
 
   -0.12500E+08        -0.16704E+01         0.00000E+00
   -0.16704E+01        -0.50000E+08         0.00000E+00
    0.00000E+00         0.00000E+00        -0.12500E+08
 
   -0.12500E+08        -0.17163E+01         0.00000E+00
   -0.17163E+01        -0.50000E+08         0.00000E+00
    0.00000E+00         0.00000E+00        -0.12500E+08
 
   -0.12500E+08        -0.16033E+01         0.00000E+00
   -0.16033E+01        -0.50000E+08         0.00000E+00
    0.00000E+00         0.00000E+00        -0.12500E+08
 
   -0.12500E+08        -0.13476E+01         0.00000E+00
   -0.13476E+01        -0.50000E+08         0.00000E+00
    0.00000E+00         0.00000E+00        -0.12500E+08
 
   -0.12500E+08        -0.96186E+00         0.00000E+00
   -0.96186E+00        -0.50000E+08         0.00000E+00
    0.00000E+00         0.00000E+00        -0.12500E+08
 
   -0.12500E+08        -0.45466E+00         0.00000E+00
   -0.45466E+00        -0.50000E+08         0.00000E+00
    0.00000E+00         0.00000E+00        -0.12500E+08
 
   -0.12500E+08         0.16935E+00         0.00000E+00
    0.16935E+00        -0.50000E+08         0.00000E+00
    0.00000E+00         0.00000E+00        -0.12500E+08
 
   -0.12500E+08         0.90890E+00         0.00000E+00
    0.90890E+00        -0.50000E+08         0.00000E+00
    0.00000E+00         0.00000E+00        -0.12500E+08
 
   -0.12500E+08         0.17651E+01         0.00000E+00
    0.17651E+01        -0.50000E+08         0.00000E+00
    0.00000E+00         0.00000E+00        -0.12500E+08
 
   -0.12500E+08         0.27399E+01         0.00000E+00
    0.27399E+01        -0.50000E+08         0.00000E+00
    0.00000E+00         0.00000E+00        -0.12500E+08
 
   -0.12500E+08         0.38341E+01         0.00000E+00
    0.38341E+01        -0.50000E+08         0.00000E+00
    0.00000E+00         0.00000E+00        -0.12500E+08
 
   -0.12500E+08         0.50456E+01         0.00000E+00
    0.50456E+01        -0.50000E+08         0.00000E+00
    0.00000E+00         0.00000E+00        -0.12500E+08
 
   -0.12500E+08        -0.43007E+00         0.00000E+00
   -0.43007E+00        -0.50000E+08         0.00000E+00
    0.00000E+00         0.00000E+00        -0.12500E+08
 
   -0.12500E+08        -0.11058E+01         0.00000E+00
   -0.11058E+01        -0.50000E+08         0.00000E+00
    0.00000E+00         0.00000E+00        -0.12500E+08
 
   -0.12500E+08        -0.15487E+01         0.00000E+00
   -0.15487E+01        -0.50000E+08         0.00000E+00
    0.00000E+00         0.00000E+00        -0.12500E+08
 
   -0.12500E+08        -0.17812E+01         0.00000E+00
   -0.17812E+01        -0.50000E+08         0.00000E+00
    0.00000E+00         0.00000E+00        -0.12500E+08
 
   -0.12500E+08        -0.18280E+01         0.00000E+00
   -0.18280E+01        -0.50000E+08         0.00000E+00
    0.00000E+00         0.00000E+00        -0.12500E+08
 
   -0.12500E+08        -0.17126E+01         0.00000E+00
   -0.17126E+01        -0.50000E+08         0.00000E+00
    0.00000E+00         0.00000E+00        -0.12500E+08
 
   -0.12500E+08        -0.14551E+01         0.00000E+00
   -0.14551E+01        -0.50000E+08         0.00000E+00
    0.00000E+00         0.00000E+00        -0.12500E+08
 
   -0.12500E+08        -0.10701E+01         0.00000E+00
   -0.10701E+01        -0.50000E+08         0.00000E+00
    0.00000E+00         0.00000E+00        -0.12500E+08
 
   -0.12500E+08        -0.56698E+00         0.00000E+00
   -0.56698E+00        -0.50000E+08         0.00000E+00
    0.00000E+00         0.00000E+00        -0.12500E+08
 
   -0.12500E+08         0.50730E-01         0.00000E+00
    0.50730E-01        -0.50000E+08         0.00000E+00
    0.00000E+00         0.00000E+00        -0.12500E+08
 
   -0.12500E+08         0.78393E+00         0.00000E+00
    0.78393E+00        -0.50000E+08         0.00000E+00
    0.00000E+00         0.00000E+00        -0.12500E+08
 
   -0.12500E+08         0.16369E+01         0.00000E+00
    0.16369E+01        -0.50000E+08         0.00000E+00
    0.00000E+00         0.00000E+00        -0.12500E+08
 
   -0.12500E+08         0.26155E+01         0.00000E+00
    0.26155E+01        -0.50000E+08         0.00000E+00
    0.00000E+00         0.00000E+00        -0.12500E+08
 
   -0.12500E+08         0.37243E+01         0.00000E+00
    0.37243E+01        -0.50000E+08         0.00000E+00
    0.00000E+00         0.00000E+00        -0.12500E+08
 
   -0.12500E+08         0.49642E+01         0.00000E+00
    0.49642E+01        -0.50000E+08         0.00000E+00
    0.00000E+00         0.00000E+00        -0.12500E+08
 
   -0.12500E+08        -0.46088E+00         0.00000E+00
   -0.46088E+00        -0.50000E+08         0.00000E+00
    0.00000E+00         0.00000E+00        -0.12500E+08
 
   -0.12500E+08        -0.11766E+01         0.00000E+00
   -0.11766E+01        -0.50000E+08         0.00000E+00
    0.00000E+00         0.00000E+00        -0.12500E+08
 
   -0.12500E+08        -0.16359E+01         0.00000E+00
   -0.16359E+01        -0.50000E+08         0.00000E+00
    0.00000E+00         0.00000E+00        -0.12500E+08
 
   -0.12500E+08        -0.18698E+01         0.00000E+00
   -0.18698E+01        -0.50000E+08         0.00000E+00
    0.00000E+00         0.00000E+00        -0.12500E+08
 
   -0.12500E+08        -0.19112E+01         0.00000E+00
   -0.19112E+01        -0.50000E+08         0.00000E+00
    0.00000E+00         0.00000E+00        -0.12500E+08
 
   -0.12500E+08        -0.17905E+01         0.00000E+00
   -0.17905E+01        -0.50000E+08         0.00000E+00
    0.00000E+00         0.00000E+00        -0.12500E+08
 
   -0.12500E+08        -0.15320E+01         0.00000E+00
   -0.15320E+01        -0.50000E+08         0.00000E+00
    0.00000E+00         0.00000E+00        -0.12500E+08
 
   -0.12500E+08        -0.11526E+01         0.00000E+00
   -0.11526E+01        -0.50000E+08         0.00000E+00
    0.00000E+00         0.00000E+00        -0.12500E+08
 
   -0.12500E+08        -0.66162E+00         0.00000E+00
   -0.66162E+00        -0.50000E+08         0.00000E+00
    0.00000E+00         0.00000E+00        -0.12500E+08
 
   -0.12500E+08        -0.61321E-01         0.00000E+00
   -0.61321E-01        -0.50000E+08         0.00000E+00
    0.00000E+00         0.00000E+00        -0.12500E+08
 
   -0.12500E+08         0.65225E+00         0.00000E+00
    0.65225E+00        -0.50000E+08         0.00000E+00
    0.00000E+00         0.00000E+00        -0.12500E+08
 
   -0.12500E+08         0.14877E+01         0.00000E+00
    0.14877E+01        -0.50000E+08         0.00000E+00
    0.00000E+00         0.00000E+00        -0.12500E+08
 
   -0.12500E+08         0.24564E+01         0.00000E+00
    0.24564E+01        -0.50000E+08         0.00000E+00
    0.00000E+00         0.00000E+00        -0.12500E+08
 
   -0.12500E+08         0.35686E+01         0.00000E+00
    0.35686E+01        -0.50000E+08         0.00000E+00
    0.00000E+00         0.00000E+00        -0.12500E+08
 
   -0.12500E+08         0.48301E+01         0.00000E+00
    0.48301E+01        -0.50000E+08         0.00000E+00
    0.00000E+00         0.00000E+00        -0.12500E+08
 
   -0.12500E+08        -0.48970E+00         0.00000E+00
   -0.48970E+00        -0.50000E+08         0.00000E+00
    0.00000E+00         0.00000E+00        -0.12500E+08
 
   -0.12500E+08        -0.12369E+01         0.00000E+00
   -0.12369E+01        -0.50000E+08         0.00000E+00
    0.00000E+00         0.00000E+00        -0.12500E+08
 
   -0.12500E+08        -0.17009E+01         0.00000E+00
   -0.17009E+01        -0.50000E+08         0.00000E+00
    0.00000E+00         0.00000E+00        -0.12500E+08
 
   -0.12500E+08        -0.19247E+01         0.00000E+00
   -0.19247E+01        -0.50000E+08         0.00000E+00
    0.00000E+00         0.00000E+00        -0.12500E+08
 
   -0.12500E+08        -0.19525E+01         0.00000E+00
   -0.19525E+01        -0.50000E+08         0.00000E+00
    0.00000E+00         0.00000E+00        -0.12500E+08
 
   -0.12500E+08        -0.18230E+01         0.00000E+00
   -0.18230E+01        -0.50000E+08         0.00000E+00
    0.00000E+00         0.00000E+00        -0.12500E+08
 
   -0.12500E+08        -0.15651E+01         0.00000E+00
   -0.15651E+01        -0.50000E+08         0.00000E+00
    0.00000E+00         0.00000E+00        -0.12500E+08
 
   -0.12500E+08        -0.11975E+01         0.00000E+00
   -0.11975E+01        -0.50000E+08         0.00000E+00
    0.00000E+00         0.00000E+00        -0.12500E+08
 
   -0.12500E+08        -0.72888E+00         0.00000E+00
   -0.72888E+00        -0.50000E+08         0.00000E+00
    0.00000E+00         0.00000E+00        -0.12500E+08
 
   -0.12500E+08        -0.15955E+00         0.00000E+00
   -0.15955E+00        -0.50000E+08         0.00000E+00
    0.00000E+00         0.00000E+00        -0.12500E+08
 
   -0.12500E+08         0.51803E+00         0.00000E+00
    0.51803E+00        -0.50000E+08         0.00000E+00
    0.00000E+00         0.00000E+00        -0.12500E+08
 
   -0.12500E+08         0.13180E+01         0.00000E+00
    0.13180E+01        -0.50000E+08         0.00000E+00
    0.00000E+00         0.00000E+00        -0.12500E+08
 
   -0.12500E+08         0.22588E+01         0.00000E+00
    0.22588E+01        -0.50000E+08         0.00000E+00
    0.00000E+00         0.00000E+00        -0.12500E+08
 
   -0.12500E+08         0.33596E+01         0.00000E+00
    0.33596E+01        -0.50000E+08         0.00000E+00
    0.00000E+00         0.00000E+00        -0.12500E+08
 
   -0.12500E+08         0.46340E+01         0.00000E+00
    0.46340E+01        -0.50000E+08         0.00000E+00
    0.00000E+00         0.00000E+00        -0.12500E+08
 
   -0.12500E+08        -0.51535E+00         0.00000E+00
   -0.51535E+00        -0.50000E+08         0.00000E+00
    0.00000E+00         0.00000E+00        -0.12500E+08
 
   -0.12500E+08        -0.12809E+01         0.00000E+00
   -0.12809E+01        -0.50000E+08         0.00000E+00
    0.00000E+00         0.00000E+00        -0.12500E+08
 
   -0.12500E+08        -0.17321E+01         0.00000E+00
   -0.17321E+01        -0.50000E+08         0.00000E+00
    0.00000E+00         0.00000E+00        -0.12500E+08
 
   -0.12500E+08        -0.19301E+01         0.00000E+00
   -0.19301E+01        -0.50000E+08         0.00000E+00
    0.00000E+00         0.00000E+00        -0.12500E+08
 
   -0.12500E+08        -0.19347E+01         0.00000E+00
   -0.19347E+01        -0.50000E+08         0.00000E+00
    0.00000E+00         0.00000E+00        -0.12500E+08
 
   -0.12500E+08        -0.17938E+01         0.00000E+00
   -0.17938E+01        -0.50000E+08         0.00000E+00
    0.00000E+00         0.00000E+00        -0.12500E+08
 
   -0.12500E+08        -0.15400E+01         0.00000E+00
   -0.15400E+01        -0.50000E+08         0.00000E+00
    0.00000E+00         0.00000E+00        -0.12500E+08
 
   -0.12500E+08        -0.11923E+01         0.00000E+00
   -0.11923E+01        -0.50000E+08         0.00000E+00
    0.00000E+00         0.00000E+00        -0.12500E+08
 
   -0.12500E+08        -0.75834E+00         0.00000E+00
   -0.75834E+00        -0.50000E+08         0.00000E+00
    0.00000E+00         0.00000E+00        -0.12500E+08
 
   -0.12500E+08        -0.23586E+00         0.00000E+00
   -0.23586E+00        -0.50000E+08         0.00000E+00
    0.00000E+00         0.00000E+00        -0.12500E+08
 
   -0.12500E+08         0.38633E+00         0.00000E+00
    0.38633E+00        -0.50000E+08         0.00000E+00
    0.00000E+00         0.00000E+00        -0.12500E+08
 
   -0.12500E+08         0.11284E+01         0.00000E+00
    0.11284E+01        -0.50000E+08         0.00000E+00
    0.00000E+00         0.00000E+00        -0.12500E+08
 
   -0.12500E+08         0.20182E+01         0.00000E+00
    0.20182E+01        -0.50000E+08         0.00000E+00
    0.00000E+00         0.00000E+00        -0.12500E+08
 
   -0.12500E+08         0.30874E+01         0.00000E+00
    0.30874E+01        -0.50000E+08         0.00000E+00
    0.00000E+00         0.00000E+00        -0.12500E+08
 
   -0.12500E+08         0.43624E+01         0.00000E+00
    0.43624E+01        -0.50000E+08         0.00000E+00
    0.00000E+00         0.00000E+00        -0.12500E+08
 
   -0.12500E+08        -0.53625E+00         0.00000E+00
   -0.53625E+00        -0.50000E+08         0.00000E+00
    0.00000E+00         0.00000E+00        -0.12500E+08
 
   -0.12500E+08        -0.12995E+01         0.00000E+00
   -0.12995E+01        -0.50000E+08         0.00000E+00
    0.00000E+00         0.00000E+00        -0.12500E+08
 
   -0.12500E+08        -0.17121E+01         0.00000E+00
   -0.17121E+01        -0.50000E+08         0.00000E+00
    0.00000E+00         0.00000E+00        -0.12500E+08
 
   -0.12500E+08        -0.18646E+01         0.00000E+00
   -0.18646E+01        -0.50000E+08         0.00000E+00
    0.00000E+00         0.00000E+00        -0.12500E+08
 
   -0.12500E+08        -0.18369E+01         0.00000E+00
   -0.18369E+01        -0.50000E+08         0.00000E+00
    0.00000E+00         0.00000E+00        -0.12500E+08
 
   -0.12500E+08        -0.16849E+01         0.00000E+00
   -0.16849E+01        -0.50000E+08         0.00000E+00
    0.00000E+00         0.00000E+00        -0.12500E+08
 
   -0.12500E+08        -0.14420E+01         0.00000E+00
   -0.14420E+01        -0.50000E+08         0.00000E+00
    0.00000E+00         0.00000E+00        -0.12500E+08
 
   -0.12500E+08        -0.11253E+01         0.00000E+00
   -0.11253E+01        -0.50000E+08         0.00000E+00
    0.00000E+00         0.00000E+00        -0.12500E+08
 
   -0.12500E+08        -0.74000E+00         0.00000E+00
   -0.74000E+00        -0.50000E+08         0.00000E+00
    0.00000E+00         0.00000E+00        -0.12500E+08
 
   -0.12500E+08        -0.28177E+00         0.00000E+00
   -0.28177E+00        -0.50000E+08         0.00000E+00
    0.00000E+00         0.00000E+00        -0.12500E+08
 
   -0.12500E+08         0.26341E+00         0.00000E+00
    0.26341E+00        -0.50000E+08         0.00000E+00
    0.00000E+00         0.00000E+00        -0.12500E+08
 
   -0.12500E+08         0.92103E+00         0.00000E+00
    0.92103E+00        -0.50000E+08         0.00000E+00
    0.00000E+00         0.00000E+00        -0.12500E+08
 
   -0.12500E+08         0.17297E+01         0.00000E+00
    0.17297E+01        -0.50000E+08         0.00000E+00
    0.00000E+00         0.00000E+00        -0.12500E+08
 
   -0.12500E+08         0.27389E+01         0.00000E+00
    0.27389E+01        -0.50000E+08         0.00000E+00
    0.00000E+00         0.00000E+00        -0.12500E+08
 
   -0.12500E+08         0.39965E+01         0.00000E+00
    0.39965E+01        -0.50000E+08         0.00000E+00
    0.00000E+00         0.00000E+00        -0.12500E+08
 
   -0.12500E+08        -0.54977E+00         0.00000E+00
   -0.54977E+00        -0.50000E+08         0.00000E+00
    0.00000E+00         0.00000E+00        -0.12500E+08
 
   -0.12500E+08        -0.12765E+01         0.00000E+00
   -0.12765E+01        -0.50000E+08         0.00000E+00
    0.00000E+00         0.00000E+00        -0.12500E+08
 
   -0.12500E+08        -0.16134E+01         0.00000E+00
   -0.16134E+01        -0.50000E+08         0.00000E+00
    0.00000E+00         0.00000E+00        -0.12500E+08
 
   -0.12500E+08        -0.16993E+01         0.00000E+00
   -0.16993E+01        -0.50000E+08         0.00000E+00
    0.00000E+00         0.00000E+00        -0.12500E+08
 
   -0.12500E+08        -0.16356E+01         0.00000E+00
   -0.16356E+01        -0.50000E+08         0.00000E+00
    0.00000E+00         0.00000E+00        -0.12500E+08
 
   -0.12500E+08        -0.14796E+01         0.00000E+00
   -0.14796E+01        -0.50000E+08         0.00000E+00
    0.00000E+00         0.00000E+00        -0.12500E+08
 
   -0.12500E+08        -0.12595E+01         0.00000E+00
   -0.12595E+01        -0.50000E+08         0.00000E+00
    0.00000E+00         0.00000E+00        -0.12500E+08
 
   -0.12500E+08        -0.98760E+00         0.00000E+00
   -0.98760E+00        -0.50000E+08         0.00000E+00
    0.00000E+00         0.00000E+00        -0.12500E+08
 
   -0.12500E+08        -0.66617E+00         0.00000E+00
   -0.66617E+00        -0.50000E+08         0.00000E+00
    0.00000E+00         0.00000E+00        -0.12500E+08
 
   -0.12500E+08        -0.28949E+00         0.00000E+00
   -0.28949E+00        -0.50000E+08         0.00000E+00
    0.00000E+00         0.00000E+00        -0.12500E+08
 
   -0.12500E+08         0.15712E+00         0.00000E+00
    0.15712E+00        -0.50000E+08         0.00000E+00
    0.00000E+00         0.00000E+00        -0.12500E+08
 
   -0.12500E+08         0.70102E+00         0.00000E+00
    0.70102E+00        -0.50000E+08         0.00000E+00
    0.00000E+00         0.00000E+00        -0.12500E+08
 
   -0.12500E+08         0.13901E+01         0.00000E+00
    0.13901E+01        -0.50000E+08         0.00000E+00
    0.00000E+00         0.00000E+00        -0.12500E+08
 
   -0.12500E+08         0.22974E+01         0.00000E+00
    0.22974E+01        -0.50000E+08         0.00000E+00
    0.00000E+00         0.00000E+00        -0.12500E+08
 
   -0.12500E+08         0.35086E+01         0.00000E+00
    0.35086E+01        -0.50000E+08         0.00000E+00
    0.00000E+00         0.00000E+00        -0.12500E+08
 
   -0.12500E+08        -0.54991E+00         0.00000E+00
   -0.54991E+00        -0.50000E+08         0.00000E+00
    0.00000E+00         0.00000E+00        -0.12500E+08
 
   -0.12500E+08        -0.11784E+01         0.00000E+00
   -0.11784E+01        -0.50000E+08         0.00000E+00
    0.00000E+00         0.00000E+00        -0.12500E+08
 
   -0.12500E+08        -0.13905E+01         0.00000E+00
   -0.13905E+01        -0.50000E+08         0.00000E+00
    0.00000E+00         0.00000E+00        -0.12500E+08
 
   -0.12500E+08        -0.13989E+01         0.00000E+00
   -0.13989E+01        -0.50000E+08         0.00000E+00
    0.00000E+00         0.00000E+00        -0.12500E+08
 
   -0.12500E+08        -0.13108E+01         0.00000E+00
   -0.13108E+01        -0.50000E+08         0.00000E+00
    0.00000E+00         0.00000E+00        -0.12500E+08
 
   -0.12500E+08        -0.11681E+01         0.00000E+00
   -0.11681E+01        -0.50000E+08         0.00000E+00
    0.00000E+00         0.00000E+00        -0.12500E+08
 
   -0.12500E+08        -0.98802E+00         0.00000E+00
   -0.98802E+00        -0.50000E+08         0.00000E+00
    0.00000E+00         0.00000E+00        -0.12500E+08
 
   -0.12500E+08        -0.77680E+00         0.00000E+00
   -0.77680E+00        -0.50000E+08         0.00000E+00
    0.00000E+00         0.00000E+00        -0.12500E+08
 
   -0.12500E+08        -0.53404E+00         0.00000E+00
   -0.53404E+00        -0.50000E+08         0.00000E+00
    0.00000E+00         0.00000E+00        -0.12500E+08
 
   -0.12500E+08        -0.25397E+00         0.00000E+00
   -0.25397E+00        -0.50000E+08         0.00000E+00
    0.00000E+00         0.00000E+00        -0.12500E+08
 
   -0.12500E+08         0.75964E-01         0.00000E+00
    0.75964E-01        -0.50000E+08         0.00000E+00
    0.00000E+00         0.00000E+00        -0.12500E+08
 
   -0.12500E+08         0.47957E+00         0.00000E+00
    0.47957E+00        -0.50000E+08         0.00000E+00
    0.00000E+00         0.00000E+00        -0.12500E+08
 
   -0.12500E+08         0.10032E+01         0.00000E+00
    0.10032E+01        -0.50000E+08         0.00000E+00
    0.00000E+00         0.00000E+00        -0.12500E+08
 
   -0.12500E+08         0.17447E+01         0.00000E+00
    0.17447E+01        -0.50000E+08         0.00000E+00
    0.00000E+00         0.00000E+00        -0.12500E+08
 
   -0.12500E+08         0.28569E+01         0.00000E+00
    0.28569E+01        -0.50000E+08         0.00000E+00
    0.00000E+00         0.00000E+00        -0.12500E+08
 
   -0.12500E+08        -0.51589E+00         0.00000E+00
   -0.51589E+00        -0.50000E+08         0.00000E+00
    0.00000E+00         0.00000E+00        -0.12500E+08
 
   -0.12500E+08        -0.92531E+00         0.00000E+00
   -0.92531E+00        -0.50000E+08         0.00000E+00
    0.00000E+00         0.00000E+00        -0.12500E+08
 
   -0.12500E+08        -0.97967E+00         0.00000E+00
   -0.97967E+00        -0.50000E+08         0.00000E+00
    0.00000E+00         0.00000E+00        -0.12500E+08
 
   -0.12500E+08        -0.93823E+00         0.00000E+00
   -0.93823E+00        -0.50000E+08         0.00000E+00
    0.00000E+00         0.00000E+00        -0.12500E+08
 
   -0.12500E+08        -0.85744E+00         0.00000E+00
   -0.85744E+00        -0.50000E+08         0.00000E+00
    0.00000E+00         0.00000E+00        -0.12500E+08
 
   -0.12500E+08        -0.75422E+00         0.00000E+00
   -0.75422E+00        -0.50000E+08         0.00000E+00
    0.00000E+00         0.00000E+00        -0.12500E+08
 
   -0.12500E+08        -0.63455E+00         0.00000E+00
   -0.63455E+00        -0.50000E+08         0.00000E+00
    0.00000E+00         0.00000E+00        -0.12500E+08
 
   -0.12500E+08        -0.49972E+00         0.00000E+00
   -0.49972E+00        -0.50000E+08         0.00000E+00
    0.00000E+00         0.00000E+00        -0.12500E+08
 
   -0.12500E+08        -0.34823E+00         0.00000E+00
   -0.34823E+00        -0.50000E+08         0.00000E+00
    0.00000E+00         0.00000E+00        -0.12500E+08
 
   -0.12500E+08        -0.17582E+00         0.00000E+00
   -0.17582E+00        -0.50000E+08         0.00000E+00
    0.00000E+00         0.00000E+00        -0.12500E+08
 
   -0.12500E+08         0.25685E-01         0.00000E+00
    0.25685E-01        -0.50000E+08         0.00000E+00
    0.00000E+00         0.00000E+00        -0.12500E+08
 
   -0.12500E+08         0.27175E+00         0.00000E+00
    0.27175E+00        -0.50000E+08         0.00000E+00
    0.00000E+00         0.00000E+00        -0.12500E+08
 
   -0.12500E+08         0.59412E+00         0.00000E+00
    0.59412E+00        -0.50000E+08         0.00000E+00
    0.00000E+00         0.00000E+00        -0.12500E+08
 
   -0.12500E+08         0.10726E+01         0.00000E+00
    0.10726E+01        -0.50000E+08         0.00000E+00
    0.00000E+00         0.00000E+00        -0.12500E+08
 
   -0.12500E+08         0.19701E+01         0.00000E+00
    0.19701E+01        -0.50000E+08         0.00000E+00
    0.00000E+00         0.00000E+00        -0.12500E+08
 
   -0.12500E+08        -0.31395E+00         0.00000E+00
   -0.31395E+00        -0.50000E+08         0.00000E+00
    0.00000E+00         0.00000E+00        -0.12500E+08
 
   -0.12500E+08        -0.37690E+00         0.00000E+00
   -0.37690E+00        -0.50000E+08         0.00000E+00
    0.00000E+00         0.00000E+00        -0.12500E+08
 
   -0.12500E+08        -0.35997E+00         0.00000E+00
   -0.35997E+00        -0.50000E+08         0.00000E+00
    0.00000E+00         0.00000E+00        -0.12500E+08
 
   -0.12500E+08        -0.33366E+00         0.00000E+00
   -0.33366E+00        -0.50000E+08         0.00000E+00
    0.00000E+00         0.00000E+00        -0.12500E+08
 
   -0.12500E+08        -0.30032E+00         0.00000E+00
   -0.30032E+00        -0.50000E+08         0.00000E+00
    0.00000E+00         0.00000E+00        -0.12500E+08
 
   -0.12500E+08        -0.26226E+00         0.00000E+00
   -0.26226E+00        -0.50000E+08         0.00000E+00
    0.00000E+00         0.00000E+00        -0.12500E+08
 
   -0.12500E+08        -0.22006E+00         0.00000E+00
   -0.22006E+00        -0.50000E+08         0.00000E+00
    0.00000E+00         0.00000E+00        -0.12500E+08
 
   -0.12500E+08        -0.17357E+00         0.00000E+00
   -0.17357E+00        -0.50000E+08         0.00000E+00
    0.00000E+00         0.00000E+00        -0.12500E+08
 
   -0.12500E+08        -0.12198E+00         0.00000E+00
   -0.12198E+00        -0.50000E+08         0.00000E+00
    0.00000E+00         0.00000E+00        -0.12500E+08
 
   -0.12500E+08        -0.63752E-01         0.00000E+00
   -0.63752E-01        -0.50000E+08         0.00000E+00
    0.00000E+00         0.00000E+00        -0.12500E+08
 
   -0.12500E+08         0.39260E-02         0.00000E+00
    0.39260E-02        -0.50000E+08         0.00000E+00
    0.00000E+00         0.00000E+00        -0.12500E+08
 
   -0.12500E+08         0.86198E-01         0.00000E+00
    0.86198E-01        -0.50000E+08         0.00000E+00
    0.00000E+00         0.00000E+00        -0.12500E+08
 
   -0.12500E+08         0.19422E+00         0.00000E+00
    0.19422E+00        -0.50000E+08         0.00000E+00
    0.00000E+00         0.00000E+00        -0.12500E+08
 
   -0.12500E+08         0.35322E+00         0.00000E+00
    0.35322E+00        -0.50000E+08         0.00000E+00
    0.00000E+00         0.00000E+00        -0.12500E+08
 
   -0.12500E+08         0.72806E+00         0.00000E+00
    0.72806E+00        -0.50000E+08         0.00000E+00
    0.00000E+00         0.00000E+00        -0.12500E+08
 
TENSORS stresstot double 
   -0.22500E+08        -0.46769E-02         0.00000E+00
   -0.46769E-02        -0.60000E+08         0.00000E+00
    0.00000E+00         0.00000E+00        -0.22500E+08
 
   -0.22500E+08        -0.11632E-01         0.00000E+00
   -0.11632E-01        -0.60000E+08         0.00000E+00
    0.00000E+00         0.00000E+00        -0.22500E+08
 
   -0.22500E+08        -0.15273E-01         0.00000E+00
   -0.15273E-01        -0.60000E+08         0.00000E+00
    0.00000E+00         0.00000E+00        -0.22500E+08
 
   -0.22500E+08        -0.15515E-01         0.00000E+00
   -0.15515E-01        -0.60000E+08         0.00000E+00
    0.00000E+00         0.00000E+00        -0.22500E+08
 
   -0.22500E+08        -0.12307E-01         0.00000E+00
   -0.12307E-01        -0.60000E+08         0.00000E+00
    0.00000E+00         0.00000E+00        -0.22500E+08
 
   -0.22500E+08        -0.56270E-02         0.00000E+00
   -0.56270E-02        -0.60000E+08         0.00000E+00
    0.00000E+00         0.00000E+00        -0.22500E+08
 
   -0.22500E+08         0.45232E-02         0.00000E+00
    0.45232E-02        -0.60000E+08         0.00000E+00
    0.00000E+00         0.00000E+00        -0.22500E+08
 
   -0.22500E+08         0.18121E-01         0.00000E+00
    0.18121E-01        -0.60000E+08         0.00000E+00
    0.00000E+00         0.00000E+00        -0.22500E+08
 
   -0.22500E+08         0.35128E-01         0.00000E+00
    0.35128E-01        -0.60000E+08         0.00000E+00
    0.00000E+00         0.00000E+00        -0.22500E+08
 
   -0.22500E+08         0.55498E-01         0.00000E+00
    0.55498E-01        -0.60000E+08         0.00000E+00
    0.00000E+00         0.00000E+00        -0.22500E+08
 
   -0.22500E+08         0.79178E-01         0.00000E+00
    0.79178E-01        -0.60000E+08         0.00000E+00
    0.00000E+00         0.00000E+00        -0.22500E+08
 
   -0.22500E+08         0.10612E+00         0.00000E+00
    0.10612E+00        -0.60000E+08         0.00000E+00
    0.00000E+00         0.00000E+00        -0.22500E+08
 
   -0.22500E+08         0.13628E+00         0.00000E+00
    0.13628E+00        -0.60000E+08         0.00000E+00
    0.00000E+00         0.00000E+00        -0.22500E+08
 
   -0.22500E+08         0.16964E+00         0.00000E+00
    0.16964E+00        -0.60000E+08         0.00000E+00
    0.00000E+00         0.00000E+00        -0.22500E+08
 
   -0.22500E+08         0.20619E+00         0.00000E+00
    0.20619E+00        -0.60000E+08         0.00000E+00
    0.00000E+00         0.00000E+00        -0.22500E+08
 
   -0.22500E+08        -0.14115E-01         0.00000E+00
   -0.14115E-01        -0.60000E+08         0.00000E+00
    0.00000E+00         0.00000E+00        -0.22500E+08
 
   -0.22500E+08        -0.35133E-01         0.00000E+00
   -0.35133E-01        -0.60000E+08         0.00000E+00
    0.00000E+00         0.00000E+00        -0.22500E+08
 
   -0.22500E+08        -0.46189E-01         0.00000E+00
   -0.46189E-01        -0.60000E+08         0.00000E+00
    0.00000E+00         0.00000E+00        -0.22500E+08
 
   -0.22500E+08        -0.47031E-01         0.00000E+00
   -0.47031E-01        -0.60000E+08         0.00000E+00
    0.00000E+00         0.00000E+00        -0.22500E+08
 
   -0.22500E+08        -0.37508E-01         0.00000E+00
   -0.37508E-01        -0.60000E+08         0.00000E+00
    0.00000E+00         0.00000E+00        -0.22500E+08
 
   -0.22500E+08        -0.17554E-01         0.00000E+00
   -0.17554E-01        -0.60000E+08         0.00000E+00
    0.00000E+00         0.00000E+00        -0.22500E+08
 
   -0.22500E+08         0.12822E-01         0.00000E+00
    0.12822E-01        -0.60000E+08         0.00000E+00
    0.00000E+00         0.00000E+00        -0.22500E+08
 
   -0.22500E+08         0.53547E-01         0.00000E+00
    0.53547E-01        -0.60000E+08         0.00000E+00
    0.00000E+00         0.00000E+00        -0.22500E+08
 
   -0.22500E+08         0.10451E+00         0.00000E+00
    0.10451E+00        -0.60000E+08         0.00000E+00
    0.00000E+00         0.00000E+00        -0.22500E+08
 
   -0.22500E+08         0.16555E+00         0.00000E+00
    0.16555E+00        -0.60000E+08         0.00000E+00
    0.00000E+00         0.00000E+00        -0.22500E+08
 
   -0.22500E+08         0.23652E+00         0.00000E+00
    0.23652E+00        -0.60000E+08         0.00000E+00
    0.00000E+00         0.00000E+00        -0.22500E+08
 
   -0.22500E+08         0.31727E+00         0.00000E+00
    0.31727E+00        -0.60000E+08         0.00000E+00
    0.00000E+00         0.00000E+00        -0.22500E+08
 
   -0.22500E+08         0.40768E+00         0.00000E+00
    0.40768E+00        -0.60000E+08         0.00000E+00
    0.00000E+00         0.00000E+00        -0.22500E+08
 
   -0.22500E+08         0.50765E+00         0.00000E+00
    0.50765E+00        -0.60000E+08         0.00000E+00
    0.00000E+00         0.00000E+00        -0.22500E+08
 
   -0.22500E+08         0.61719E+00         0.00000E+00
    0.61719E+00        -0.60000E+08         0.00000E+00
    0.00000E+00         0.00000E+00        -0.22500E+08
 
   -0.22500E+08        -0.23804E-01         0.00000E+00
   -0.23804E-01        -0.60000E+08         0.00000E+00
    0.00000E+00         0.00000E+00        -0.22500E+08
 
   -0.22500E+08        -0.59346E-01         0.00000E+00
   -0.59346E-01        -0.60000E+08         0.00000E+00
    0.00000E+00         0.00000E+00        -0.22500E+08
 
   -0.22500E+08        -0.78217E-01         0.00000E+00
   -0.78217E-01        -0.60000E+08         0.00000E+00
    0.00000E+00         0.00000E+00        -0.22500E+08
 
   -0.22500E+08        -0.80006E-01         0.00000E+00
   -0.80006E-01        -0.60000E+08         0.00000E+00
    0.00000E+00         0.00000E+00        -0.22500E+08
 
   -0.22500E+08        -0.64465E-01         0.00000E+00
   -0.64465E-01        -0.60000E+08         0.00000E+00
    0.00000E+00         0.00000E+00        -0.22500E+08
 
   -0.22500E+08        -0.31494E-01         0.00000E+00
   -0.31494E-01        -0.60000E+08         0.00000E+00
    0.00000E+00         0.00000E+00        -0.22500E+08
 
   -0.22500E+08         0.18881E-01         0.00000E+00
    0.18881E-01        -0.60000E+08         0.00000E+00
    0.00000E+00         0.00000E+00        -0.22500E+08
 
   -0.22500E+08         0.86530E-01         0.00000E+00
    0.86530E-01        -0.60000E+08         0.00000E+00
    0.00000E+00         0.00000E+00        -0.22500E+08
 
   -0.22500E+08         0.17125E+00         0.00000E+00
    0.17125E+00        -0.60000E+08         0.00000E+00
    0.00000E+00         0.00000E+00        -0.22500E+08
 
   -0.22500E+08         0.27278E+00         0.00000E+00
    0.27278E+00        -0.60000E+08         0.00000E+00
    0.00000E+00         0.00000E+00        -0.22500E+08
 
   -0.22500E+08         0.39085E+00         0.00000E+00
    0.39085E+00        -0.60000E+08         0.00000E+00
    0.00000E+00         0.00000E+00        -0.22500E+08
 
   -0.22500E+08         0.52520E+00         0.00000E+00
    0.52520E+00        -0.60000E+08         0.00000E+00
    0.00000E+00         0.00000E+00        -0.22500E+08
 
   -0.22500E+08         0.67560E+00         0.00000E+00
    0.67560E+00        -0.60000E+08         0.00000E+00
    0.00000E+00         0.00000E+00        -0.22500E+08
 
   -0.22500E+08         0.84190E+00         0.00000E+00
    0.84190E+00        -0.60000E+08         0.00000E+00
    0.00000E+00         0.00000E+00        -0.22500E+08
 
   -0.22500E+08         0.10241E+01         0.00000E+00
    0.10241E+01        -0.60000E+08         0.00000E+00
    0.00000E+00         0.00000E+00        -0.22500E+08
 
   -0.22500E+08        -0.33914E-01         0.00000E+00
   -0.33914E-01        -0.60000E+08         0.00000E+00
    0.00000E+00         0.00000E+00        -0.22500E+08
 
   -0.22500E+08        -0.84744E-01         0.00000E+00
   -0.84744E-01        -0.60000E+08         0.00000E+00
    0.00000E+00         0.00000E+00        -0.22500E+08
 
   -0.22500E+08        -0.11210E+00         0.00000E+00
   -0.11210E+00        -0.60000E+08         0.00000E+00
    0.00000E+00         0.00000E+00        -0.22500E+08
 
   -0.22500E+08        -0.11541E+00         0.00000E+00
   -0.11541E+00        -0.60000E+08         0.00000E+00
    0.00000E+00         0.00000E+00        -0.22500E+08
 
   -0.22500E+08        -0.94339E-01         0.00000E+00
   -0.94339E-01        -0.60000E+08         0.00000E+00
    0.00000E+00         0.00000E+00        -0.22500E+08
 
   -0.22500E+08        -0.48776E-01         0.00000E+00
   -0.48776E-01        -0.60000E+08         0.00000E+00
    0.00000E+00         0.00000E+00        -0.22500E+08
 
   -0.22500E+08         0.21225E-01         0.00000E+00
    0.21225E-01        -0.60000E+08         0.00000E+00
    0.00000E+00         0.00000E+00        -0.22500E+08
 
   -0.22500E+08         0.11546E+00         0.00000E+00
    0.11546E+00        -0.60000E+08         0.00000E+00
    0.00000E+00         0.00000E+00        -0.22500E+08
 
   -0.22500E+08         0.23362E+00         0.00000E+00
    0.23362E+00        -0.60000E+08         0.00000E+00
    0.00000E+00         0.00000E+00        -0.22500E+08
 
   -0.22500E+08         0.37533E+00         0.00000E+00
    0.37533E+00        -0.60000E+08         0.00000E+00
    0.00000E+00         0.00000E+00        -0.22500E+08
 
   -0.22500E+08         0.54018E+00         0.00000E+00
    0.54018E+00        -0.60000E+08         0.00000E+00
    0.00000E+00         0.00000E+00        -0.22500E+08
 
   -0.22500E+08         0.72776E+00         0.00000E+00
    0.72776E+00        -0.60000E+08         0.00000E+00
    0.00000E+00         0.00000E+00        -0.22500E+08
 
   -0.22500E+08         0.93774E+00         0.00000E+00
    0.93774E+00        -0.60000E+08         0.00000E+00
    0.00000E+00         0.00000E+00        -0.22500E+08
 
   -0.22500E+08         0.11699E+01         0.00000E+00
    0.11699E+01        -0.60000E+08         0.00000E+00
    0.00000E+00         0.00000E+00        -0.22500E+08
 
   -0.22500E+08         0.14242E+01         0.00000E+00
    0.14242E+01        -0.60000E+08         0.00000E+00
    0.00000E+00         0.00000E+00        -0.22500E+08
 
   -0.22500E+08        -0.44613E-01         0.00000E+00
   -0.44613E-01        -0.60000E+08         0.00000E+00
    0.00000E+00         0.00000E+00        -0.22500E+08
 
   -0.22500E+08        -0.11180E+00         0.00000E+00
   -0.11180E+00        -0.60000E+08         0.00000E+00
    0.00000E+00         0.00000E+00        -0.22500E+08
 
   -0.22500E+08        -0.14856E+00         0.00000E+00
   -0.14856E+00        -0.60000E+08         0.00000E+00
    0.00000E+00         0.00000E+00        -0.22500E+08
 
   -0.22500E+08        -0.15418E+00         0.00000E+00
   -0.15418E+00        -0.60000E+08         0.00000E+00
    0.00000E+00         0.00000E+00        -0.22500E+08
 
   -0.22500E+08        -0.12827E+00         0.00000E+00
   -0.12827E+00        -0.60000E+08         0.00000E+00
    0.00000E+00         0.00000E+00        -0.22500E+08
 
   -0.22500E+08        -0.70706E-01         0.00000E+00
   -0.70706E-01        -0.60000E+08         0.00000E+00
    0.00000E+00         0.00000E+00        -0.22500E+08
 
   -0.22500E+08         0.18407E-01         0.00000E+00
    0.18407E-01        -0.60000E+08         0.00000E+00
    0.00000E+00         0.00000E+00        -0.22500E+08
 
   -0.22500E+08         0.13877E+00         0.00000E+00
    0.13877E+00        -0.60000E+08         0.00000E+00
    0.00000E+00         0.00000E+00        -0.22500E+08
 
   -0.22500E+08         0.28994E+00         0.00000E+00
    0.28994E+00        -0.60000E+08         0.00000E+00
    0.00000E+00         0.00000E+00        -0.22500E+08
 
   -0.22500E+08         0.47138E+00         0.00000E+00
    0.47138E+00        -0.60000E+08         0.00000E+00
    0.00000E+00         0.00000E+00        -0.22500E+08
 
   -0.22500E+08         0.68255E+00         0.00000E+00
    0.68255E+00        -0.60000E+08         0.00000E+00
    0.00000E+00         0.00000E+00        -0.22500E+08
 
   -0.22500E+08         0.92287E+00         0.00000E+00
    0.92287E+00        -0.60000E+08         0.00000E+00
    0.00000E+00         0.00000E+00        -0.22500E+08
 
   -0.22500E+08         0.11919E+01         0.00000E+00
    0.11919E+01        -0.60000E+08         0.00000E+00
    0.00000E+00         0.00000E+00        -0.22500E+08
 
   -0.22500E+08         0.14892E+01         0.00000E+00
    0.14892E+01        -0.60000E+08         0.00000E+00
    0.00000E+00         0.00000E+00        -0.22500E+08
 
   -0.22500E+08         0.18147E+01         0.00000E+00
    0.18147E+01        -0.60000E+08         0.00000E+00
    0.00000E+00         0.00000E+00        -0.22500E+08
 
   -0.22500E+08        -0.56069E-01         0.00000E+00
   -0.56069E-01        -0.60000E+08         0.00000E+00
    0.00000E+00         0.00000E+00        -0.22500E+08
 
   -0.22500E+08        -0.14098E+00         0.00000E+00
   -0.14098E+00        -0.60000E+08         0.00000E+00
    0.00000E+00         0.00000E+00        -0.22500E+08
 
   -0.22500E+08        -0.18833E+00         0.00000E+00
   -0.18833E+00        -0.60000E+08         0.00000E+00
    0.00000E+00         0.00000E+00        -0.22500E+08
 
   -0.22500E+08        -0.19727E+00         0.00000E+00
   -0.19727E+00        -0.60000E+08         0.00000E+00
    0.00000E+00         0.00000E+00        -0.22500E+08
 
   -0.22500E+08        -0.16738E+00         0.00000E+00
   -0.16738E+00        -0.60000E+08         0.00000E+00
    0.00000E+00         0.00000E+00        -0.22500E+08
 
   -0.22500E+08        -0.98553E-01         0.00000E+00
   -0.98553E-01        -0.60000E+08         0.00000E+00
    0.00000E+00         0.00000E+00        -0.22500E+08
 
   -0.22500E+08         0.90207E-02         0.00000E+00
    0.90207E-02        -0.60000E+08         0.00000E+00
    0.00000E+00         0.00000E+00        -0.22500E+08
 
   -0.22500E+08         0.15491E+00         0.00000E+00
    0.15491E+00        -0.60000E+08         0.00000E+00
    0.00000E+00         0.00000E+00        -0.22500E+08
 
   -0.22500E+08         0.33853E+00         0.00000E+00
    0.33853E+00        -0.60000E+08         0.00000E+00
    0.00000E+00         0.00000E+00        -0.22500E+08
 
   -0.22500E+08         0.55917E+00         0.00000E+00
    0.55917E+00        -0.60000E+08         0.00000E+00
    0.00000E+00         0.00000E+00        -0.22500E+08
 
   -0.22500E+08         0.81608E+00         0.00000E+00
    0.81608E+00        -0.60000E+08         0.00000E+00
    0.00000E+00         0.00000E+00        -0.22500E+08
 
   -0.22500E+08         0.11085E+01         0.00000E+00
    0.11085E+01        -0.60000E+08         0.00000E+00
    0.00000E+00         0.00000E+00        -0.22500E+08
 
   -0.22500E+08         0.14358E+01         0.00000E+00
    0.14358E+01        -0.60000E+08         0.00000E+00
    0.00000E+00         0.00000E+00        -0.22500E+08
 
   -0.22500E+08         0.17975E+01         0.00000E+00
    0.17975E+01        -0.60000E+08         0.00000E+00
    0.00000E+00         0.00000E+00        -0.22500E+08
 
   -0.22500E+08         0.21933E+01         0.00000E+00
    0.21933E+01        -0.60000E+08         0.00000E+00
    0.00000E+00         0.00000E+00        -0.22500E+08
 
   -0.22500E+08        -0.68450E-01         0.00000E+00
   -0.68450E-01        -0.60000E+08         0.00000E+00
    0.00000E+00         0.00000E+00        -0.22500E+08
 
   -0.22500E+08        -0.17275E+00         0.00000E+00
   -0.17275E+00        -0.60000E+08         0.00000E+00
    0.00000E+00         0.00000E+00        -0.22500E+08
 
   -0.22500E+08        -0.23210E+00         0.00000E+00
   -0.23210E+00        -0.60000E+08         0.00000E+00
    0.00000E+00         0.00000E+00        -0.22500E+08
 
   -0.22500E+08        -0.24559E+00         0.00000E+00
   -0.24559E+00        -0.60000E+08         0.00000E+00
    0.00000E+00         0.00000E+00        -0.22500E+08
 
   -0.22500E+08        -0.21274E+00         0.00000E+00
   -0.21274E+00        -0.60000E+08         0.00000E+00
    0.00000E+00         0.00000E+00        -0.22500E+08
 
   -0.22500E+08        -0.13354E+00         0.00000E+00
   -0.13354E+00        -0.60000E+08         0.00000E+00
    0.00000E+00         0.00000E+00        -0.22500E+08
 
   -0.22500E+08        -0.82815E-02         0.00000E+00
   -0.82815E-02        -0.60000E+08         0.00000E+00
    0.00000E+00         0.00000E+00        -0.22500E+08
 
   -0.22500E+08         0.16244E+00         0.00000E+00
    0.16244E+00        -0.60000E+08         0.00000E+00
    0.00000E+00         0.00000E+00        -0.22500E+08
 
   -0.22500E+08         0.37784E+00         0.00000E+00
    0.37784E+00        -0.60000E+08         0.00000E+00
    0.00000E+00         0.00000E+00        -0.22500E+08
 
   -0.22500E+08         0.63700E+00         0.00000E+00
    0.63700E+00        -0.60000E+08         0.00000E+00
    0.00000E+00         0.00000E+00        -0.22500E+08
 
   -0.22500E+08         0.93895E+00         0.00000E+00
    0.93895E+00        -0.60000E+08         0.00000E+00
    0.00000E+00         0.00000E+00        -0.22500E+08
 
   -0.22500E+08         0.12827E+01         0.00000E+00
    0.12827E+01        -0.60000E+08         0.00000E+00
    0.00000E+00         0.00000E+00        -0.22500E+08
 
   -0.22500E+08         0.16675E+01         0.00000E+00
    0.16675E+01        -0.60000E+08         0.00000E+00
    0.00000E+00         0.00000E+00        -0.22500E+08
 
   -0.22500E+08         0.20925E+01         0.00000E+00
    0.20925E+01        -0.60000E+08         0.00000E+00
    0.00000E+00         0.00000E+00        -0.22500E+08
 
   -0.22500E+08         0.25573E+01         0.00000E+00
    0.25573E+01        -0.60000E+08         0.00000E+00
    0.00000E+00         0.00000E+00        -0.22500E+08
 
   -0.22500E+08        -0.81921E-01         0.00000E+00
   -0.81921E-01        -0.60000E+08         0.00000E+00
    0.00000E+00         0.00000E+00        -0.22500E+08
 
   -0.22500E+08        -0.20755E+00         0.00000E+00
   -0.20755E+00        -0.60000E+08         0.00000E+00
    0.00000E+00         0.00000E+00        -0.22500E+08
 
   -0.22500E+08        -0.28057E+00         0.00000E+00
   -0.28057E+00        -0.60000E+08         0.00000E+00
    0.00000E+00         0.00000E+00        -0.22500E+08
 
   -0.22500E+08        -0.29999E+00         0.00000E+00
   -0.29999E+00        -0.60000E+08         0.00000E+00
    0.00000E+00         0.00000E+00        -0.22500E+08
 
   -0.22500E+08        -0.26538E+00         0.00000E+00
   -0.26538E+00        -0.60000E+08         0.00000E+00
    0.00000E+00         0.00000E+00        -0.22500E+08
 
   -0.22500E+08        -0.17681E+00         0.00000E+00
   -0.17681E+00        -0.60000E+08         0.00000E+00
    0.00000E+00         0.00000E+00        -0.22500E+08
 
   -0.22500E+08        -0.34765E-01         0.00000E+00
   -0.34765E-01        -0.60000E+08         0.00000E+00
    0.00000E+00         0.00000E+00        -0.22500E+08
 
   -0.22500E+08         0.15997E+00         0.00000E+00
    0.15997E+00        -0.60000E+08         0.00000E+00
    0.00000E+00         0.00000E+00        -0.22500E+08
 
   -0.22500E+08         0.40636E+00         0.00000E+00
    0.40636E+00        -0.60000E+08         0.00000E+00
    0.00000E+00         0.00000E+00        -0.22500E+08
 
   -0.22500E+08         0.70326E+00         0.00000E+00
    0.70326E+00        -0.60000E+08         0.00000E+00
    0.00000E+00         0.00000E+00        -0.22500E+08
 
   -0.22500E+08         0.10494E+01         0.00000E+00
    0.10494E+01        -0.60000E+08         0.00000E+00
    0.00000E+00         0.00000E+00        -0.22500E+08
 
   -0.22500E+08         0.14437E+01         0.00000E+00
    0.14437E+01        -0.60000E+08         0.00000E+00
    0.00000E+00         0.00000E+00        -0.22500E+08
 
   -0.22500E+08         0.18848E+01         0.00000E+00
    0.18848E+01        -0.60000E+08         0.00000E+00
    0.00000E+00         0.00000E+00        -0.22500E+08
 
   -0.22500E+08         0.23720E+01         0.00000E+00
    0.23720E+01        -0.60000E+08         0.00000E+00
    0.00000E+00         0.00000E+00        -0.22500E+08
 
   -0.22500E+08         0.29045E+01         0.00000E+00
    0.29045E+01        -0.60000E+08         0.00000E+00
    0.00000E+00         0.00000E+00        -0.22500E+08
 
   -0.22500E+08        -0.96642E-01         0.00000E+00
   -0.96642E-01        -0.60000E+08         0.00000E+00
    0.00000E+00         0.00000E+00        -0.22500E+08
 
   -0.22500E+08        -0.24582E+00         0.00000E+00
   -0.24582E+00        -0.60000E+08         0.00000E+00
    0.00000E+00         0.00000E+00        -0.22500E+08
 
   -0.22500E+08        -0.33437E+00         0.00000E+00
   -0.33437E+00        -0.60000E+08         0.00000E+00
    0.00000E+00         0.00000E+00        -0.22500E+08
 
   -0.22500E+08        -0.36128E+00         0.00000E+00
   -0.36128E+00        -0.60000E+08         0.00000E+00
    0.00000E+00         0.00000E+00        -0.22500E+08
 
   -0.22500E+08        -0.32622E+00         0.00000E+00
   -0.32622E+00        -0.60000E+08         0.00000E+00
    0.00000E+00         0.00000E+00        -0.22500E+08
 
   -0.22500E+08        -0.22942E+00         0.00000E+00
   -0.22942E+00        -0.60000E+08         0.00000E+00
    0.00000E+00         0.00000E+00        -0.22500E+08
 
   -0.22500E+08        -0.71589E-01         0.00000E+00
   -0.71589E-01        -0.60000E+08         0.00000E+00
    0.00000E+00         0.00000E+00        -0.22500E+08
 
   -0.22500E+08         0.14623E+00         0.00000E+00
    0.14623E+00        -0.60000E+08         0.00000E+00
    0.00000E+00         0.00000E+00        -0.22500E+08
 
   -0.22500E+08         0.42274E+00         0.00000E+00
    0.42274E+00        -0.60000E+08         0.00000E+00
    0.00000E+00         0.00000E+00        -0.22500E+08
 
   -0.22500E+08         0.75649E+00         0.00000E+00
    0.75649E+00        -0.60000E+08         0.00000E+00
    0.00000E+00         0.00000E+00        -0.22500E+08
 
   -0.22500E+08         0.11459E+01         0.00000E+00
    0.11459E+01        -0.60000E+08         0.00000E+00
    0.00000E+00         0.00000E+00        -0.22500E+08
 
   -0.22500E+08         0.15896E+01         0.00000E+00
    0.15896E+01        -0.60000E+08         0.00000E+00
    0.00000E+00         0.00000E+00        -0.22500E+08
 
   -0.22500E+08         0.20860E+01         0.00000E+00
    0.20860E+01        -0.60000E+08         0.00000E+00
    0.00000E+00         0.00000E+00        -0.22500E+08
 
   -0.22500E+08         0.26340E+01         0.00000E+00
    0.26340E+01        -0.60000E+08         0.00000E+00
    0.00000E+00         0.00000E+00        -0.22500E+08
 
   -0.22500E+08         0.32326E+01         0.00000E+00
    0.32326E+01        -0.60000E+08         0.00000E+00
    0.00000E+00         0.00000E+00        -0.22500E+08
 
   -0.22500E+08        -0.11277E+00         0.00000E+00
   -0.11277E+00        -0.60000E+08         0.00000E+00
    0.00000E+00         0.00000E+00        -0.22500E+08
 
   -0.22500E+08        -0.28795E+00         0.00000E+00
   -0.28795E+00        -0.60000E+08         0.00000E+00
    0.00000E+00         0.00000E+00        -0.22500E+08
 
   -0.22500E+08        -0.39408E+00         0.00000E+00
   -0.39408E+00        -0.60000E+08         0.00000E+00
    0.00000E+00         0.00000E+00        -0.22500E+08
 
   -0.22500E+08        -0.43019E+00         0.00000E+00
   -0.43019E+00        -0.60000E+08         0.00000E+00
    0.00000E+00         0.00000E+00        -0.22500E+08
 
   -0.22500E+08        -0.39610E+00         0.00000E+00
   -0.39610E+00        -0.60000E+08         0.00000E+00
    0.00000E+00         0.00000E+00        -0.22500E+08
 
   -0.22500E+08        -0.29230E+00         0.00000E+00
   -0.29230E+00        -0.60000E+08         0.00000E+00
    0.00000E+00         0.00000E+00        -0.22500E+08
 
   -0.22500E+08        -0.11977E+00         0.00000E+00
   -0.11977E+00        -0.60000E+08         0.00000E+00
    0.00000E+00         0.00000E+00        -0.22500E+08
 
   -0.22500E+08         0.12013E+00         0.00000E+00
    0.12013E+00        -0.60000E+08         0.00000E+00
    0.00000E+00         0.00000E+00        -0.22500E+08
 
   -0.22500E+08         0.42576E+00         0.00000E+00
    0.42576E+00        -0.60000E+08         0.00000E+00
    0.00000E+00         0.00000E+00        -0.22500E+08
 
   -0.22500E+08         0.79533E+00         0.00000E+00
    0.79533E+00        -0.60000E+08         0.00000E+00
    0.00000E+00         0.00000E+00        -0.22500E+08
 
   -0.22500E+08         0.12270E+01         0.00000E+00
    0.12270E+01        -0.60000E+08         0.00000E+00
    0.00000E+00         0.00000E+00        -0.22500E+08
 
   -0.22500E+08         0.17189E+01         0.00000E+00
    0.17189E+01        -0.60000E+08         0.00000E+00
    0.00000E+00         0.00000E+00        -0.22500E+08
 
   -0.22500E+08         0.22693E+01         0.00000E+00
    0.22693E+01        -0.60000E+08         0.00000E+00
    0.00000E+00         0.00000E+00        -0.22500E+08
 
   -0.22500E+08         0.28765E+01         0.00000E+00
    0.28765E+01        -0.60000E+08         0.00000E+00
    0.00000E+00         0.00000E+00        -0.22500E+08
 
   -0.22500E+08         0.35395E+01         0.00000E+00
    0.35395E+01        -0.60000E+08         0.00000E+00
    0.00000E+00         0.00000E+00        -0.22500E+08
 
   -0.22500E+08        -0.13044E+00         0.00000E+00
   -0.13044E+00        -0.60000E+08         0.00000E+00
    0.00000E+00         0.00000E+00        -0.22500E+08
 
   -0.22500E+08        -0.33431E+00         0.00000E+00
   -0.33431E+00        -0.60000E+08         0.00000E+00
    0.00000E+00         0.00000E+00        -0.22500E+08
 
   -0.22500E+08        -0.46021E+00         0.00000E+00
   -0.46021E+00        -0.60000E+08         0.00000E+00
    0.00000E+00         0.00000E+00        -0.22500E+08
 
   -0.22500E+08        -0.50732E+00         0.00000E+00
   -0.50732E+00        -0.60000E+08         0.00000E+00
    0.00000E+00         0.00000E+00        -0.22500E+08
 
   -0.22500E+08        -0.47572E+00         0.00000E+00
   -0.47572E+00        -0.60000E+08         0.00000E+00
    0.00000E+00         0.00000E+00        -0.22500E+08
 
   -0.22500E+08        -0.36620E+00         0.00000E+00
   -0.36620E+00        -0.60000E+08         0.00000E+00
    0.00000E+00         0.00000E+00        -0.22500E+08
 
   -0.22500E+08        -0.18014E+00         0.00000E+00
   -0.18014E+00        -0.60000E+08         0.00000E+00
    0.00000E+00         0.00000E+00        -0.22500E+08
 
   -0.22500E+08         0.80730E-01         0.00000E+00
    0.80730E-01        -0.60000E+08         0.00000E+00
    0.00000E+00         0.00000E+00        -0.22500E+08
 
   -0.22500E+08         0.41438E+00         0.00000E+00
    0.41438E+00        -0.60000E+08         0.00000E+00
    0.00000E+00         0.00000E+00        -0.22500E+08
 
   -0.22500E+08         0.81863E+00         0.00000E+00
    0.81863E+00        -0.60000E+08         0.00000E+00
    0.00000E+00         0.00000E+00        -0.22500E+08
 
   -0.22500E+08         0.12913E+01         0.00000E+00
    0.12913E+01        -0.60000E+08         0.00000E+00
    0.00000E+00         0.00000E+00        -0.22500E+08
 
   -0.22500E+08         0.18301E+01         0.00000E+00
    0.18301E+01        -0.60000E+08         0.00000E+00
    0.00000E+00         0.00000E+00        -0.22500E+08
 
   -0.22500E+08         0.24330E+01         0.00000E+00
    0.24330E+01        -0.60000E+08         0.00000E+00
    0.00000E+00         0.00000E+00        -0.22500E+08
 
   -0.22500E+08         0.30979E+01         0.00000E+00
    0.30979E+01        -0.60000E+08         0.00000E+00
    0.00000E+00         0.00000E+00        -0.22500E+08
 
   -0.22500E+08         0.38233E+01         0.00000E+00
    0.38233E+01        -0.60000E+08         0.00000E+00
    0.00000E+00         0.00000E+00        -0.22500E+08
 
   -0.22500E+08        -0.14977E+00         0.00000E+00
   -0.14977E+00        -0.60000E+08         0.00000E+00
    0.00000E+00         0.00000E+00        -0.22500E+08
 
   -0.22500E+08        -0.38519E+00         0.00000E+00
   -0.38519E+00        -0.60000E+08         0.00000E+00
    0.00000E+00         0.00000E+00        -0.22500E+08
 
   -0.22500E+08        -0.53316E+00         0.00000E+00
   -0.53316E+00        -0.60000E+08         0.00000E+00
    0.00000E+00         0.00000E+00        -0.22500E+08
 
   -0.22500E+08        -0.59313E+00         0.00000E+00
   -0.59313E+00        -0.60000E+08         0.00000E+00
    0.00000E+00         0.00000E+00        -0.22500E+08
 
   -0.22500E+08        -0.56555E+00         0.00000E+00
   -0.56555E+00        -0.60000E+08         0.00000E+00
    0.00000E+00         0.00000E+00        -0.22500E+08
 
   -0.22500E+08        -0.45166E+00         0.00000E+00
   -0.45166E+00        -0.60000E+08         0.00000E+00
    0.00000E+00         0.00000E+00        -0.22500E+08
 
   -0.22500E+08        -0.25328E+00         0.00000E+00
   -0.25328E+00        -0.60000E+08         0.00000E+00
    0.00000E+00         0.00000E+00        -0.22500E+08
 
   -0.22500E+08         0.27360E-01         0.00000E+00
    0.27360E-01        -0.60000E+08         0.00000E+00
    0.00000E+00         0.00000E+00        -0.22500E+08
 
   -0.22500E+08         0.38780E+00         0.00000E+00
    0.38780E+00        -0.60000E+08         0.00000E+00
    0.00000E+00         0.00000E+00        -0.22500E+08
 
   -0.22500E+08         0.82545E+00         0.00000E+00
    0.82545E+00        -0.60000E+08         0.00000E+00
    0.00000E+00         0.00000E+00        -0.22500E+08
 
   -0.22500E+08         0.13377E+01         0.00000E+00
    0.13377E+01        -0.60000E+08         0.00000E+00
    0.00000E+00         0.00000E+00        -0.22500E+08
 
   -0.22500E+08         0.19219E+01         0.00000E+00
    0.19219E+01        -0.60000E+08         0.00000E+00
    0.00000E+00         0.00000E+00        -0.22500E+08
 
   -0.22500E+08         0.25757E+01         0.00000E+00
    0.25757E+01        -0.60000E+08         0.00000E+00
    0.00000E+00         0.00000E+00        -0.22500E+08
 
   -0.22500E+08         0.32965E+01         0.00000E+00
    0.32965E+01        -0.60000E+08         0.00000E+00
    0.00000E+00         0.00000E+00        -0.22500E+08
 
   -0.22500E+08         0.40822E+01         0.00000E+00
    0.40822E+01        -0.60000E+08         0.00000E+00
    0.00000E+00         0.00000E+00        -0.22500E+08
 
   -0.22500E+08        -0.17087E+00         0.00000E+00
   -0.17087E+00        -0.60000E+08         0.00000E+00
    0.00000E+00         0.00000E+00        -0.22500E+08
 
   -0.22500E+08        -0.44079E+00         0.00000E+00
   -0.44079E+00        -0.60000E+08         0.00000E+00
    0.00000E+00         0.00000E+00        -0.22500E+08
 
   -0.22500E+08        -0.61318E+00         0.00000E+00
   -0.61318E+00        -0.60000E+08         0.00000E+00
    0.00000E+00         0.00000E+00        -0.22500E+08
 
   -0.22500E+08        -0.68787E+00         0.00000E+00
   -0.68787E+00        -0.60000E+08         0.00000E+00
    0.00000E+00         0.00000E+00        -0.22500E+08
 
   -0.22500E+08        -0.66584E+00         0.00000E+00
   -0.66584E+00        -0.60000E+08         0.00000E+00
    0.00000E+00         0.00000E+00        -0.22500E+08
 
   -0.22500E+08        -0.54891E+00         0.00000E+00
   -0.54891E+00        -0.60000E+08         0.00000E+00
    0.00000E+00         0.00000E+00        -0.22500E+08
 
   -0.22500E+08        -0.33949E+00         0.00000E+00
   -0.33949E+00        -0.60000E+08         0.00000E+00
    0.00000E+00         0.00000E+00        -0.22500E+08
 
   -0.22500E+08        -0.40355E-01         0.00000E+00
   -0.40355E-01        -0.60000E+08         0.00000E+00
    0.00000E+00         0.00000E+00        -0.22500E+08
 
   -0.22500E+08         0.34552E+00         0.00000E+00
    0.34552E+00        -0.60000E+08         0.00000E+00
    0.00000E+00         0.00000E+00        -0.22500E+08
 
   -0.22500E+08         0.81509E+00         0.00000E+00
    0.81509E+00        -0.60000E+08         0.00000E+00
    0.00000E+00         0.00000E+00        -0.22500E+08
 
   -0.22500E+08         0.13653E+01         0.00000E+00
    0.13653E+01        -0.60000E+08         0.00000E+00
    0.00000E+00         0.00000E+00        -0.22500E+08
 
   -0.22500E+08         0.19933E+01         0.00000E+00
    0.19933E+01        -0.60000E+08         0.00000E+00
    0.00000E+00         0.00000E+00        -0.22500E+08
 
   -0.22500E+08         0.26960E+01         0.00000E+00
    0.26960E+01        -0.60000E+08         0.00000E+00
    0.00000E+00         0.00000E+00        -0.22500E+08
 
   -0.22500E+08         0.34708E+01         0.00000E+00
    0.34708E+01        -0.60000E+08         0.00000E+00
    0.00000E+00         0.00000E+00        -0.22500E+08
 
   -0.22500E+08         0.43147E+01         0.00000E+00
    0.43147E+01        -0.60000E+08         0.00000E+00
    0.00000E+00         0.00000E+00        -0.22500E+08
 
   -0.22500E+08        -0.19379E+00         0.00000E+00
   -0.19379E+00        -0.60000E+08         0.00000E+00
    0.00000E+00         0.00000E+00        -0.22500E+08
 
   -0.22500E+08        -0.50124E+00         0.00000E+00
   -0.50124E+00        -0.60000E+08         0.00000E+00
    0.00000E+00         0.00000E+00        -0.22500E+08
 
   -0.22500E+08        -0.70034E+00         0.00000E+00
   -0.70034E+00        -0.60000E+08         0.00000E+00
    0.00000E+00         0.00000E+00        -0.22500E+08
 
   -0.22500E+08        -0.79154E+00         0.00000E+00
   -0.79154E+00        -0.60000E+08         0.00000E+00
    0.00000E+00         0.00000E+00        -0.22500E+08
 
   -0.22500E+08        -0.77652E+00         0.00000E+00
   -0.77652E+00        -0.60000E+08         0.00000E+00
    0.00000E+00         0.00000E+00        -0.22500E+08
 
   -0.22500E+08        -0.65785E+00         0.00000E+00
   -0.65785E+00        -0.60000E+08         0.00000E+00
    0.00000E+00         0.00000E+00        -0.22500E+08
 
   -0.22500E+08        -0.43866E+00         0.00000E+00
   -0.43866E+00        -0.60000E+08         0.00000E+00
    0.00000E+00         0.00000E+00        -0.22500E+08
 
   -0.22500E+08        -0.12240E+00         0.00000E+00
   -0.12240E+00        -0.60000E+08         0.00000E+00
    0.00000E+00         0.00000E+00        -0.22500E+08
 
   -0.22500E+08         0.28739E+00         0.00000E+00
    0.28739E+00        -0.60000E+08         0.00000E+00
    0.00000E+00         0.00000E+00        -0.22500E+08
 
   -0.22500E+08         0.78720E+00         0.00000E+00
    0.78720E+00        -0.60000E+08         0.00000E+00
    0.00000E+00         0.00000E+00        -0.22500E+08
 
   -0.22500E+08         0.13736E+01         0.00000E+00
    0.13736E+01        -0.60000E+08         0.00000E+00
    0.00000E+00         0.00000E+00        -0.22500E+08
 
   -0.22500E+08         0.20433E+01         0.00000E+00
    0.20433E+01        -0.60000E+08         0.00000E+00
    0.00000E+00         0.00000E+00        -0.22500E+08
 
   -0.22500E+08         0.27930E+01         0.00000E+00
    0.27930E+01        -0.60000E+08         0.00000E+00
    0.00000E+00         0.00000E+00        -0.22500E+08
 
   -0.22500E+08         0.36194E+01         0.00000E+00
    0.36194E+01        -0.60000E+08         0.00000E+00
    0.00000E+00         0.00000E+00        -0.22500E+08
 
   -0.22500E+08         0.45193E+01         0.00000E+00
    0.45193E+01        -0.60000E+08         0.00000E+00
    0.00000E+00         0.00000E+00        -0.22500E+08
 
   -0.22500E+08        -0.21856E+00         0.00000E+00
   -0.21856E+00        -0.60000E+08         0.00000E+00
    0.00000E+00         0.00000E+00        -0.22500E+08
 
   -0.22500E+08        -0.56648E+00         0.00000E+00
   -0.56648E+00        -0.60000E+08         0.00000E+00
    0.00000E+00         0.00000E+00        -0.22500E+08
 
   -0.22500E+08        -0.79447E+00         0.00000E+00
   -0.79447E+00        -0.60000E+08         0.00000E+00
    0.00000E+00         0.00000E+00        -0.22500E+08
 
   -0.22500E+08        -0.90380E+00         0.00000E+00
   -0.90380E+00        -0.60000E+08         0.00000E+00
    0.00000E+00         0.00000E+00        -0.22500E+08
 
   -0.22500E+08        -0.89710E+00         0.00000E+00
   -0.89710E+00        -0.60000E+08         0.00000E+00
    0.00000E+00         0.00000E+00        -0.22500E+08
 
   -0.22500E+08        -0.77788E+00         0.00000E+00
   -0.77788E+00        -0.60000E+08         0.00000E+00
    0.00000E+00         0.00000E+00        -0.22500E+08
 
   -0.22500E+08        -0.55021E+00         0.00000E+00
   -0.55021E+00        -0.60000E+08         0.00000E+00
    0.00000E+00         0.00000E+00        -0.22500E+08
 
   -0.22500E+08        -0.21829E+00         0.00000E+00
   -0.21829E+00        -0.60000E+08         0.00000E+00
    0.00000E+00         0.00000E+00        -0.22500E+08
 
   -0.22500E+08         0.21370E+00         0.00000E+00
    0.21370E+00        -0.60000E+08         0.00000E+00
    0.00000E+00         0.00000E+00        -0.22500E+08
 
   -0.22500E+08         0.74178E+00         0.00000E+00
    0.74178E+00        -0.60000E+08         0.00000E+00
    0.00000E+00         0.00000E+00        -0.22500E+08
 
   -0.22500E+08         0.13622E+01         0.00000E+00
    0.13622E+01        -0.60000E+08         0.00000E+00
    0.00000E+00         0.00000E+00        -0.22500E+08
 
   -0.22500E+08         0.20713E+01         0.00000E+00
    0.20713E+01        -0.60000E+08         0.00000E+00
    0.00000E+00         0.00000E+00        -0.22500E+08
 
   -0.22500E+08         0.28655E+01         0.00000E+00
    0.28655E+01        -0.60000E+08         0.00000E+00
    0.00000E+00         0.00000E+00        -0.22500E+08
 
   -0.22500E+08         0.37412E+01         0.00000E+00
    0.37412E+01        -0.60000E+08         0.00000E+00
    0.00000E+00         0.00000E+00        -0.22500E+08
 
   -0.22500E+08         0.46946E+01         0.00000E+00
    0.46946E+01        -0.60000E+08         0.00000E+00
    0.00000E+00         0.00000E+00        -0.22500E+08
 
   -0.22500E+08        -0.24513E+00         0.00000E+00
   -0.24513E+00        -0.60000E+08         0.00000E+00
    0.00000E+00         0.00000E+00        -0.22500E+08
 
   -0.22500E+08        -0.63631E+00         0.00000E+00
   -0.63631E+00        -0.60000E+08         0.00000E+00
    0.00000E+00         0.00000E+00        -0.22500E+08
 
   -0.22500E+08        -0.89509E+00         0.00000E+00
   -0.89509E+00        -0.60000E+08         0.00000E+00
    0.00000E+00         0.00000E+00        -0.22500E+08
 
   -0.22500E+08        -0.10239E+01         0.00000E+00
   -0.10239E+01        -0.60000E+08         0.00000E+00
    0.00000E+00         0.00000E+00        -0.22500E+08
 
   -0.22500E+08        -0.10266E+01         0.00000E+00
   -0.10266E+01        -0.60000E+08         0.00000E+00
    0.00000E+00         0.00000E+00        -0.22500E+08
 
   -0.22500E+08        -0.90785E+00         0.00000E+00
   -0.90785E+00        -0.60000E+08         0.00000E+00
    0.00000E+00         0.00000E+00        -0.22500E+08
 
   -0.22500E+08        -0.67292E+00         0.00000E+00
   -0.67292E+00        -0.60000E+08         0.00000E+00
    0.00000E+00         0.00000E+00        -0.22500E+08
 
   -0.22500E+08        -0.32693E+00         0.00000E+00
   -0.32693E+00        -0.60000E+08         0.00000E+00
    0.00000E+00         0.00000E+00        -0.22500E+08
 
   -0.22500E+08         0.12529E+00         0.00000E+00
    0.12529E+00        -0.60000E+08         0.00000E+00
    0.00000E+00         0.00000E+00        -0.22500E+08
 
   -0.22500E+08         0.67928E+00         0.00000E+00
    0.67928E+00        -0.60000E+08         0.00000E+00
    0.00000E+00         0.00000E+00        -0.22500E+08
 
   -0.22500E+08         0.13310E+01         0.00000E+00
    0.13310E+01        -0.60000E+08         0.00000E+00
    0.00000E+00         0.00000E+00        -0.22500E+08
 
   -0.22500E+08         0.20767E+01         0.00000E+00
    0.20767E+01        -0.60000E+08         0.00000E+00
    0.00000E+00         0.00000E+00        -0.22500E+08
 
   -0.22500E+08         0.29127E+01         0.00000E+00
    0.29127E+01        -0.60000E+08         0.00000E+00
    0.00000E+00         0.00000E+00        -0.22500E+08
 
   -0.22500E+08         0.38350E+01         0.00000E+00
    0.38350E+01        -0.60000E+08         0.00000E+00
    0.00000E+00         0.00000E+00        -0.22500E+08
 
   -0.22500E+08         0.48393E+01         0.00000E+00
    0.48393E+01        -0.60000E+08         0.00000E+00
    0.00000E+00         0.00000E+00        -0.22500E+08
 
   -0.22500E+08        -0.27340E+00         0.00000E+00
   -0.27340E+00        -0.60000E+08         0.00000E+00
    0.00000E+00         0.00000E+00        -0.22500E+08
 
   -0.22500E+08        -0.71030E+00         0.00000E+00
   -0.71030E+00        -0.60000E+08         0.00000E+00
    0.00000E+00         0.00000E+00        -0.22500E+08
 
   -0.22500E+08        -0.10014E+01         0.00000E+00
   -0.10014E+01        -0.60000E+08         0.00000E+00
    0.00000E+00         0.00000E+00        -0.22500E+08
 
   -0.22500E+08        -0.11505E+01         0.00000E+00
   -0.11505E+01        -0.60000E+08         0.00000E+00
    0.00000E+00         0.00000E+00        -0.22500E+08
 
   -0.22500E+08        -0.11632E+01         0.00000E+00
   -0.11632E+01        -0.60000E+08         0.00000E+00
    0.00000E+00         0.00000E+00        -0.22500E+08
 
   -0.22500E+08        -0.10458E+01         0.00000E+00
   -0.10458E+01        -0.60000E+08         0.00000E+00
    0.00000E+00         0.00000E+00        -0.22500E+08
 
   -0.22500E+08        -0.80485E+00         0.00000E+00
   -0.80485E+00        -0.60000E+08         0.00000E+00
    0.00000E+00         0.00000E+00        -0.22500E+08
 
   -0.22500E+08        -0.44649E+00         0.00000E+00
   -0.44649E+00        -0.60000E+08         0.00000E+00
    0.00000E+00         0.00000E+00        -0.22500E+08
 
   -0.22500E+08         0.23631E-01         0.00000E+00
    0.23631E-01        -0.60000E+08         0.00000E+00
    0.00000E+00         0.00000E+00        -0.22500E+08
 
   -0.22500E+08         0.60069E+00         0.00000E+00
    0.60069E+00        -0.60000E+08         0.00000E+00
    0.00000E+00         0.00000E+00        -0.22500E+08
 
   -0.22500E+08         0.12805E+01         0.00000E+00
    0.12805E+01        -0.60000E+08         0.00000E+00
    0.00000E+00         0.00000E+00        -0.22500E+08
 
   -0.22500E+08         0.20594E+01         0.00000E+00
    0.20594E+01        -0.60000E+08         0.00000E+00
    0.00000E+00         0.00000E+00        -0.22500E+08
 
   -0.22500E+08         0.29337E+01         0.00000E+00
    0.29337E+01        -0.60000E+08         0.00000E+00
    0.00000E+00         0.00000E+00        -0.22500E+08
 
   -0.22500E+08         0.38995E+01         0.00000E+00
    0.38995E+01        -0.60000E+08         0.00000E+00
    0.00000E+00         0.00000E+00        -0.22500E+08
 
   -0.22500E+08         0.49520E+01         0.00000E+00
    0.49520E+01        -0.60000E+08         0.00000E+00
    0.00000E+00         0.00000E+00        -0.22500E+08
 
   -0.22500E+08        -0.30318E+00         0.00000E+00
   -0.30318E+00        -0.60000E+08         0.00000E+00
    0.00000E+00         0.00000E+00        -0.22500E+08
 
   -0.22500E+08        -0.78775E+00         0.00000E+00
   -0.78775E+00        -0.60000E+08         0.00000E+00
    0.00000E+00         0.00000E+00        -0.22500E+08
 
   -0.22500E+08        -0.11120E+01         0.00000E+00
   -0.11120E+01        -0.60000E+08         0.00000E+00
    0.00000E+00         0.00000E+00        -0.22500E+08
 
   -0.22500E+08        -0.12817E+01         0.00000E+00
   -0.12817E+01        -0.60000E+08         0.00000E+00
    0.00000E+00         0.00000E+00        -0.22500E+08
 
   -0.22500E+08        -0.13047E+01         0.00000E+00
   -0.13047E+01        -0.60000E+08         0.00000E+00
    0.00000E+00         0.00000E+00        -0.22500E+08
 
   -0.22500E+08        -0.11890E+01         0.00000E+00
   -0.11890E+01        -0.60000E+08         0.00000E+00
    0.00000E+00         0.00000E+00        -0.22500E+08
 
   -0.22500E+08        -0.94307E+00         0.00000E+00
   -0.94307E+00        -0.60000E+08         0.00000E+00
    0.00000E+00         0.00000E+00        -0.22500E+08
 
   -0.22500E+08        -0.57427E+00         0.00000E+00
   -0.57427E+00        -0.60000E+08         0.00000E+00
    0.00000E+00         0.00000E+00        -0.22500E+08
 
   -0.22500E+08        -0.88988E-01         0.00000E+00
   -0.88988E-01        -0.60000E+08         0.00000E+00
    0.00000E+00         0.00000E+00        -0.22500E+08
 
   -0.22500E+08         0.50763E+00         0.00000E+00
    0.50763E+00        -0.60000E+08         0.00000E+00
    0.00000E+00         0.00000E+00        -0.22500E+08
 
   -0.22500E+08         0.12115E+01         0.00000E+00
    0.12115E+01        -0.60000E+08         0.00000E+00
    0.00000E+00         0.00000E+00        -0.22500E+08
 
   -0.22500E+08         0.20194E+01         0.00000E+00
    0.20194E+01        -0.60000E+08         0.00000E+00
    0.00000E+00         0.00000E+00        -0.22500E+08
 
   -0.22500E+08         0.29279E+01         0.00000E+00
    0.29279E+01        -0.60000E+08         0.00000E+00
    0.00000E+00         0.00000E+00        -0.22500E+08
 
   -0.22500E+08         0.39335E+01         0.00000E+00
    0.39335E+01        -0.60000E+08         0.00000E+00
    0.00000E+00         0.00000E+00        -0.22500E+08
 
   -0.22500E+08         0.50312E+01         0.00000E+00
    0.50312E+01        -0.60000E+08         0.00000E+00
    0.00000E+00         0.00000E+00        -0.22500E+08
 
   -0.22500E+08        -0.33418E+00         0.00000E+00
   -0.33418E+00        -0.60000E+08         0.00000E+00
    0.00000E+00         0.00000E+00        -0.22500E+08
 
   -0.22500E+08        -0.86765E+00         0.00000E+00
   -0.86765E+00        -0.60000E+08         0.00000E+00
    0.00000E+00         0.00000E+00        -0.22500E+08
 
   -0.22500E+08        -0.12250E+01         0.00000E+00
   -0.12250E+01        -0.60000E+08         0.00000E+00
    0.00000E+00         0.00000E+00        -0.22500E+08
 
   -0.22500E+08        -0.14148E+01         0.00000E+00
   -0.14148E+01        -0.60000E+08         0.00000E+00
    0.00000E+00         0.00000E+00        -0.22500E+08
 
   -0.22500E+08        -0.14474E+01         0.00000E+00
   -0.14474E+01        -0.60000E+08         0.00000E+00
    0.00000E+00         0.00000E+00        -0.22500E+08
 
   -0.22500E+08        -0.13335E+01         0.00000E+00
   -0.13335E+01        -0.60000E+08         0.00000E+00
    0.00000E+00         0.00000E+00        -0.22500E+08
 
   -0.22500E+08        -0.10835E+01         0.00000E+00
   -0.10835E+01        -0.60000E+08         0.00000E+00
    0.00000E+00         0.00000E+00        -0.22500E+08
 
   -0.22500E+08        -0.70642E+00         0.00000E+00
   -0.70642E+00        -0.60000E+08         0.00000E+00
    0.00000E+00         0.00000E+00        -0.22500E+08
 
   -0.22500E+08        -0.20935E+00         0.00000E+00
   -0.20935E+00        -0.60000E+08         0.00000E+00
    0.00000E+00         0.00000E+00        -0.22500E+08
 
   -0.22500E+08         0.40244E+00         0.00000E+00
    0.40244E+00        -0.60000E+08         0.00000E+00
    0.00000E+00         0.00000E+00        -0.22500E+08
 
   -0.22500E+08         0.11253E+01         0.00000E+00
    0.11253E+01        -0.60000E+08         0.00000E+00
    0.00000E+00         0.00000E+00        -0.22500E+08
 
   -0.22500E+08         0.19567E+01         0.00000E+00
    0.19567E+01        -0.60000E+08         0.00000E+00
    0.00000E+00         0.00000E+00        -0.22500E+08
 
   -0.22500E+08         0.28944E+01         0.00000E+00
    0.28944E+01        -0.60000E+08         0.00000E+00
    0.00000E+00         0.00000E+00        -0.22500E+08
 
   -0.22500E+08         0.39354E+01         0.00000E+00
    0.39354E+01        -0.60000E+08         0.00000E+00
    0.00000E+00         0.00000E+00        -0.22500E+08
 
   -0.22500E+08         0.50750E+01         0.00000E+00
    0.50750E+01        -0.60000E+08         0.00000E+00
    0.00000E+00         0.00000E+00        -0.22500E+08
 
   -0.22500E+08        -0.36603E+00         0.00000E+00
   -0.36603E+00        -0.60000E+08         0.00000E+00
    0.00000E+00         0.00000E+00        -0.22500E+08
 
   -0.22500E+08        -0.94861E+00         0.00000E+00
   -0.94861E+00        -0.60000E+08         0.00000E+00
    0.00000E+00         0.00000E+00        -0.22500E+08
 
   -0.22500E+08        -0.13380E+01         0.00000E+00
   -0.13380E+01        -0.60000E+08         0.00000E+00
    0.00000E+00         0.00000E+00        -0.22500E+08
 
   -0.22500E+08        -0.15461E+01         0.00000E+00
   -0.15461E+01        -0.60000E+08         0.00000E+00
    0.00000E+00         0.00000E+00        -0.22500E+08
 
   -0.22500E+08        -0.15867E+01         0.00000E+00
   -0.15867E+01        -0.60000E+08         0.00000E+00
    0.00000E+00         0.00000E+00        -0.22500E+08
 
   -0.22500E+08        -0.14739E+01         0.00000E+00
   -0.14739E+01        -0.60000E+08         0.00000E+00
    0.00000E+00         0.00000E+00        -0.22500E+08
 
   -0.22500E+08        -0.12208E+01         0.00000E+00
   -0.12208E+01        -0.60000E+08         0.00000E+00
    0.00000E+00         0.00000E+00        -0.22500E+08
 
   -0.22500E+08        -0.83784E+00         0.00000E+00
   -0.83784E+00        -0.60000E+08         0.00000E+00
    0.00000E+00         0.00000E+00        -0.22500E+08
 
   -0.22500E+08        -0.33311E+00         0.00000E+00
   -0.33311E+00        -0.60000E+08         0.00000E+00
    0.00000E+00         0.00000E+00        -0.22500E+08
 
   -0.22500E+08         0.28830E+00         0.00000E+00
    0.28830E+00        -0.60000E+08         0.00000E+00
    0.00000E+00         0.00000E+00        -0.22500E+08
 
   -0.22500E+08         0.10237E+01         0.00000E+00
    0.10237E+01        -0.60000E+08         0.00000E+00
    0.00000E+00         0.00000E+00        -0.22500E+08
 
   -0.22500E+08         0.18718E+01         0.00000E+00
    0.18718E+01        -0.60000E+08         0.00000E+00
    0.00000E+00         0.00000E+00        -0.22500E+08
 
   -0.22500E+08         0.28322E+01         0.00000E+00
    0.28322E+01        -0.60000E+08         0.00000E+00
    0.00000E+00         0.00000E+00        -0.22500E+08
 
   -0.22500E+08         0.39031E+01         0.00000E+00
    0.39031E+01        -0.60000E+08         0.00000E+00
    0.00000E+00         0.00000E+00        -0.22500E+08
 
   -0.22500E+08         0.50809E+01         0.00000E+00
    0.50809E+01        -0.60000E+08         0.00000E+00
    0.00000E+00         0.00000E+00        -0.22500E+08
 
   -0.22500E+08        -0.39820E+00         0.00000E+00
   -0.39820E+00        -0.60000E+08         0.00000E+00
    0.00000E+00         0.00000E+00        -0.22500E+08
 
   -0.22500E+08        -0.10288E+01         0.00000E+00
   -0.10288E+01        -0.60000E+08         0.00000E+00
    0.00000E+00         0.00000E+00        -0.22500E+08
 
   -0.22500E+08        -0.14474E+01         0.00000E+00
   -0.14474E+01        -0.60000E+08         0.00000E+00
    0.00000E+00         0.00000E+00        -0.22500E+08
 
   -0.22500E+08        -0.16704E+01         0.00000E+00
   -0.16704E+01        -0.60000E+08         0.00000E+00
    0.00000E+00         0.00000E+00        -0.22500E+08
 
   -0.22500E+08        -0.17163E+01         0.00000E+00
   -0.17163E+01        -0.60000E+08         0.00000E+00
    0.00000E+00         0.00000E+00        -0.22500E+08
 
   -0.22500E+08        -0.16033E+01         0.00000E+00
   -0.16033E+01        -0.60000E+08         0.00000E+00
    0.00000E+00         0.00000E+00        -0.22500E+08
 
   -0.22500E+08        -0.13476E+01         0.00000E+00
   -0.13476E+01        -0.60000E+08         0.00000E+00
    0.00000E+00         0.00000E+00        -0.22500E+08
 
   -0.22500E+08        -0.96186E+00         0.00000E+00
   -0.96186E+00        -0.60000E+08         0.00000E+00
    0.00000E+00         0.00000E+00        -0.22500E+08
 
   -0.22500E+08        -0.45466E+00         0.00000E+00
   -0.45466E+00        -0.60000E+08         0.00000E+00
    0.00000E+00         0.00000E+00        -0.22500E+08
 
   -0.22500E+08         0.16935E+00         0.00000E+00
    0.16935E+00        -0.60000E+08         0.00000E+00
    0.00000E+00         0.00000E+00        -0.22500E+08
 
   -0.22500E+08         0.90890E+00         0.00000E+00
    0.90890E+00        -0.60000E+08         0.00000E+00
    0.00000E+00         0.00000E+00        -0.22500E+08
 
   -0.22500E+08         0.17651E+01         0.00000E+00
    0.17651E+01        -0.60000E+08         0.00000E+00
    0.00000E+00         0.00000E+00        -0.22500E+08
 
   -0.22500E+08         0.27399E+01         0.00000E+00
    0.27399E+01        -0.60000E+08         0.00000E+00
    0.00000E+00         0.00000E+00        -0.22500E+08
 
   -0.22500E+08         0.38341E+01         0.00000E+00
    0.38341E+01        -0.60000E+08         0.00000E+00
    0.00000E+00         0.00000E+00        -0.22500E+08
 
   -0.22500E+08         0.50456E+01         0.00000E+00
    0.50456E+01        -0.60000E+08         0.00000E+00
    0.00000E+00         0.00000E+00        -0.22500E+08
 
   -0.22500E+08        -0.43007E+00         0.00000E+00
   -0.43007E+00        -0.60000E+08         0.00000E+00
    0.00000E+00         0.00000E+00        -0.22500E+08
 
   -0.22500E+08        -0.11058E+01         0.00000E+00
   -0.11058E+01        -0.60000E+08         0.00000E+00
    0.00000E+00         0.00000E+00        -0.22500E+08
 
   -0.22500E+08        -0.15487E+01         0.00000E+00
   -0.15487E+01        -0.60000E+08         0.00000E+00
    0.00000E+00         0.00000E+00        -0.22500E+08
 
   -0.22500E+08        -0.17812E+01         0.00000E+00
   -0.17812E+01        -0.60000E+08         0.00000E+00
    0.00000E+00         0.00000E+00        -0.22500E+08
 
   -0.22500E+08        -0.18280E+01         0.00000E+00
   -0.18280E+01        -0.60000E+08         0.00000E+00
    0.00000E+00         0.00000E+00        -0.22500E+08
 
   -0.22500E+08        -0.17126E+01         0.00000E+00
   -0.17126E+01        -0.60000E+08         0.00000E+00
    0.00000E+00         0.00000E+00        -0.22500E+08
 
   -0.22500E+08        -0.14551E+01         0.00000E+00
   -0.14551E+01        -0.60000E+08         0.00000E+00
    0.00000E+00         0.00000E+00        -0.22500E+08
 
   -0.22500E+08        -0.10701E+01         0.00000E+00
   -0.10701E+01        -0.60000E+08         0.00000E+00
    0.00000E+00         0.00000E+00        -0.22500E+08
 
   -0.22500E+08        -0.56698E+00         0.00000E+00
   -0.56698E+00        -0.60000E+08         0.00000E+00
    0.00000E+00         0.00000E+00        -0.22500E+08
 
   -0.22500E+08         0.50730E-01         0.00000E+00
    0.50730E-01        -0.60000E+08         0.00000E+00
    0.00000E+00         0.00000E+00        -0.22500E+08
 
   -0.22500E+08         0.78393E+00         0.00000E+00
    0.78393E+00        -0.60000E+08         0.00000E+00
    0.00000E+00         0.00000E+00        -0.22500E+08
 
   -0.22500E+08         0.16369E+01         0.00000E+00
    0.16369E+01        -0.60000E+08         0.00000E+00
    0.00000E+00         0.00000E+00        -0.22500E+08
 
   -0.22500E+08         0.26155E+01         0.00000E+00
    0.26155E+01        -0.60000E+08         0.00000E+00
    0.00000E+00         0.00000E+00        -0.22500E+08
 
   -0.22500E+08         0.37243E+01         0.00000E+00
    0.37243E+01        -0.60000E+08         0.00000E+00
    0.00000E+00         0.00000E+00        -0.22500E+08
 
   -0.22500E+08         0.49642E+01         0.00000E+00
    0.49642E+01        -0.60000E+08         0.00000E+00
    0.00000E+00         0.00000E+00        -0.22500E+08
 
   -0.22500E+08        -0.46088E+00         0.00000E+00
   -0.46088E+00        -0.60000E+08         0.00000E+00
    0.00000E+00         0.00000E+00        -0.22500E+08
 
   -0.22500E+08        -0.11766E+01         0.00000E+00
   -0.11766E+01        -0.60000E+08         0.00000E+00
    0.00000E+00         0.00000E+00        -0.22500E+08
 
   -0.22500E+08        -0.16359E+01         0.00000E+00
   -0.16359E+01        -0.60000E+08         0.00000E+00
    0.00000E+00         0.00000E+00        -0.22500E+08
 
   -0.22500E+08        -0.18698E+01         0.00000E+00
   -0.18698E+01        -0.60000E+08         0.00000E+00
    0.00000E+00         0.00000E+00        -0.22500E+08
 
   -0.22500E+08        -0.19112E+01         0.00000E+00
   -0.19112E+01        -0.60000E+08         0.00000E+00
    0.00000E+00         0.00000E+00        -0.22500E+08
 
   -0.22500E+08        -0.17905E+01         0.00000E+00
   -0.17905E+01        -0.60000E+08         0.00000E+00
    0.00000E+00         0.00000E+00        -0.22500E+08
 
   -0.22500E+08        -0.15320E+01         0.00000E+00
   -0.15320E+01        -0.60000E+08         0.00000E+00
    0.00000E+00         0.00000E+00        -0.22500E+08
 
   -0.22500E+08        -0.11526E+01         0.00000E+00
   -0.11526E+01        -0.60000E+08         0.00000E+00
    0.00000E+00         0.00000E+00        -0.22500E+08
 
   -0.22500E+08        -0.66162E+00         0.00000E+00
   -0.66162E+00        -0.60000E+08         0.00000E+00
    0.00000E+00         0.00000E+00        -0.22500E+08
 
   -0.22500E+08        -0.61321E-01         0.00000E+00
   -0.61321E-01        -0.60000E+08         0.00000E+00
    0.00000E+00         0.00000E+00        -0.22500E+08
 
   -0.22500E+08         0.65225E+00         0.00000E+00
    0.65225E+00        -0.60000E+08         0.00000E+00
    0.00000E+00         0.00000E+00        -0.22500E+08
 
   -0.22500E+08         0.14877E+01         0.00000E+00
    0.14877E+01        -0.60000E+08         0.00000E+00
    0.00000E+00         0.00000E+00        -0.22500E+08
 
   -0.22500E+08         0.24564E+01         0.00000E+00
    0.24564E+01        -0.60000E+08         0.00000E+00
    0.00000E+00         0.00000E+00        -0.22500E+08
 
   -0.22500E+08         0.35686E+01         0.00000E+00
    0.35686E+01        -0.60000E+08         0.00000E+00
    0.00000E+00         0.00000E+00        -0.22500E+08
 
   -0.22500E+08         0.48301E+01         0.00000E+00
    0.48301E+01        -0.60000E+08         0.00000E+00
    0.00000E+00         0.00000E+00        -0.22500E+08
 
   -0.22500E+08        -0.48970E+00         0.00000E+00
   -0.48970E+00        -0.60000E+08         0.00000E+00
    0.00000E+00         0.00000E+00        -0.22500E+08
 
   -0.22500E+08        -0.12369E+01         0.00000E+00
   -0.12369E+01        -0.60000E+08         0.00000E+00
    0.00000E+00         0.00000E+00        -0.22500E+08
 
   -0.22500E+08        -0.17009E+01         0.00000E+00
   -0.17009E+01        -0.60000E+08         0.00000E+00
    0.00000E+00         0.00000E+00        -0.22500E+08
 
   -0.22500E+08        -0.19247E+01         0.00000E+00
   -0.19247E+01        -0.60000E+08         0.00000E+00
    0.00000E+00         0.00000E+00        -0.22500E+08
 
   -0.22500E+08        -0.19525E+01         0.00000E+00
   -0.19525E+01        -0.60000E+08         0.00000E+00
    0.00000E+00         0.00000E+00        -0.22500E+08
 
   -0.22500E+08        -0.18230E+01         0.00000E+00
   -0.18230E+01        -0.60000E+08         0.00000E+00
    0.00000E+00         0.00000E+00        -0.22500E+08
 
   -0.22500E+08        -0.15651E+01         0.00000E+00
   -0.15651E+01        -0.60000E+08         0.00000E+00
    0.00000E+00         0.00000E+00        -0.22500E+08
 
   -0.22500E+08        -0.11975E+01         0.00000E+00
   -0.11975E+01        -0.60000E+08         0.00000E+00
    0.00000E+00         0.00000E+00        -0.22500E+08
 
   -0.22500E+08        -0.72888E+00         0.00000E+00
   -0.72888E+00        -0.60000E+08         0.00000E+00
    0.00000E+00         0.00000E+00        -0.22500E+08
 
   -0.22500E+08        -0.15955E+00         0.00000E+00
   -0.15955E+00        -0.60000E+08         0.00000E+00
    0.00000E+00         0.00000E+00        -0.22500E+08
 
   -0.22500E+08         0.51803E+00         0.00000E+00
    0.51803E+00        -0.60000E+08         0.00000E+00
    0.00000E+00         0.00000E+00        -0.22500E+08
 
   -0.22500E+08         0.13180E+01         0.00000E+00
    0.13180E+01        -0.60000E+08         0.00000E+00
    0.00000E+00         0.00000E+00        -0.22500E+08
 
   -0.22500E+08         0.22588E+01         0.00000E+00
    0.22588E+01        -0.60000E+08         0.00000E+00
    0.00000E+00         0.00000E+00        -0.22500E+08
 
   -0.22500E+08         0.33596E+01         0.00000E+00
    0.33596E+01        -0.60000E+08         0.00000E+00
    0.00000E+00         0.00000E+00        -0.22500E+08
 
   -0.22500E+08         0.46340E+01         0.00000E+00
    0.46340E+01        -0.60000E+08         0.00000E+00
    0.00000E+00         0.00000E+00        -0.22500E+08
 
   -0.22500E+08        -0.51535E+00         0.00000E+00
   -0.51535E+00        -0.60000E+08         0.00000E+00
    0.00000E+00         0.00000E+00        -0.22500E+08
 
   -0.22500E+08        -0.12809E+01         0.00000E+00
   -0.12809E+01        -0.60000E+08         0.00000E+00
    0.00000E+00         0.00000E+00        -0.22500E+08
 
   -0.22500E+08        -0.17321E+01         0.00000E+00
   -0.17321E+01        -0.60000E+08         0.00000E+00
    0.00000E+00         0.00000E+00        -0.22500E+08
 
   -0.22500E+08        -0.19301E+01         0.00000E+00
   -0.19301E+01        -0.60000E+08         0.00000E+00
    0.00000E+00         0.00000E+00        -0.22500E+08
 
   -0.22500E+08        -0.19347E+01         0.00000E+00
   -0.19347E+01        -0.60000E+08         0.00000E+00
    0.00000E+00         0.00000E+00        -0.22500E+08
 
   -0.22500E+08        -0.17938E+01         0.00000E+00
   -0.17938E+01        -0.60000E+08         0.00000E+00
    0.00000E+00         0.00000E+00        -0.22500E+08
 
   -0.22500E+08        -0.15400E+01         0.00000E+00
   -0.15400E+01        -0.60000E+08         0.00000E+00
    0.00000E+00         0.00000E+00        -0.22500E+08
 
   -0.22500E+08        -0.11923E+01         0.00000E+00
   -0.11923E+01        -0.60000E+08         0.00000E+00
    0.00000E+00         0.00000E+00        -0.22500E+08
 
   -0.22500E+08        -0.75834E+00         0.00000E+00
   -0.75834E+00        -0.60000E+08         0.00000E+00
    0.00000E+00         0.00000E+00        -0.22500E+08
 
   -0.22500E+08        -0.23586E+00         0.00000E+00
   -0.23586E+00        -0.60000E+08         0.00000E+00
    0.00000E+00         0.00000E+00        -0.22500E+08
 
   -0.22500E+08         0.38633E+00         0.00000E+00
    0.38633E+00        -0.60000E+08         0.00000E+00
    0.00000E+00         0.00000E+00        -0.22500E+08
 
   -0.22500E+08         0.11284E+01         0.00000E+00
    0.11284E+01        -0.60000E+08         0.00000E+00
    0.00000E+00         0.00000E+00        -0.22500E+08
 
   -0.22500E+08         0.20182E+01         0.00000E+00
    0.20182E+01        -0.60000E+08         0.00000E+00
    0.00000E+00         0.00000E+00        -0.22500E+08
 
   -0.22500E+08         0.30874E+01         0.00000E+00
    0.30874E+01        -0.60000E+08         0.00000E+00
    0.00000E+00         0.00000E+00        -0.22500E+08
 
   -0.22500E+08         0.43624E+01         0.00000E+00
    0.43624E+01        -0.60000E+08         0.00000E+00
    0.00000E+00         0.00000E+00        -0.22500E+08
 
   -0.22500E+08        -0.53625E+00         0.00000E+00
   -0.53625E+00        -0.60000E+08         0.00000E+00
    0.00000E+00         0.00000E+00        -0.22500E+08
 
   -0.22500E+08        -0.12995E+01         0.00000E+00
   -0.12995E+01        -0.60000E+08         0.00000E+00
    0.00000E+00         0.00000E+00        -0.22500E+08
 
   -0.22500E+08        -0.17121E+01         0.00000E+00
   -0.17121E+01        -0.60000E+08         0.00000E+00
    0.00000E+00         0.00000E+00        -0.22500E+08
 
   -0.22500E+08        -0.18646E+01         0.00000E+00
   -0.18646E+01        -0.60000E+08         0.00000E+00
    0.00000E+00         0.00000E+00        -0.22500E+08
 
   -0.22500E+08        -0.18369E+01         0.00000E+00
   -0.18369E+01        -0.60000E+08         0.00000E+00
    0.00000E+00         0.00000E+00        -0.22500E+08
 
   -0.22500E+08        -0.16849E+01         0.00000E+00
   -0.16849E+01        -0.60000E+08         0.00000E+00
    0.00000E+00         0.00000E+00        -0.22500E+08
 
   -0.22500E+08        -0.14420E+01         0.00000E+00
   -0.14420E+01        -0.60000E+08         0.00000E+00
    0.00000E+00         0.00000E+00        -0.22500E+08
 
   -0.22500E+08        -0.11253E+01         0.00000E+00
   -0.11253E+01        -0.60000E+08         0.00000E+00
    0.00000E+00         0.00000E+00        -0.22500E+08
 
   -0.22500E+08        -0.74000E+00         0.00000E+00
   -0.74000E+00        -0.60000E+08         0.00000E+00
    0.00000E+00         0.00000E+00        -0.22500E+08
 
   -0.22500E+08        -0.28177E+00         0.00000E+00
   -0.28177E+00        -0.60000E+08         0.00000E+00
    0.00000E+00         0.00000E+00        -0.22500E+08
 
   -0.22500E+08         0.26341E+00         0.00000E+00
    0.26341E+00        -0.60000E+08         0.00000E+00
    0.00000E+00         0.00000E+00        -0.22500E+08
 
   -0.22500E+08         0.92103E+00         0.00000E+00
    0.92103E+00        -0.60000E+08         0.00000E+00
    0.00000E+00         0.00000E+00        -0.22500E+08
 
   -0.22500E+08         0.17297E+01         0.00000E+00
    0.17297E+01        -0.60000E+08         0.00000E+00
    0.00000E+00         0.00000E+00        -0.22500E+08
 
   -0.22500E+08         0.27389E+01         0.00000E+00
    0.27389E+01        -0.60000E+08         0.00000E+00
    0.00000E+00         0.00000E+00        -0.22500E+08
 
   -0.22500E+08         0.39965E+01         0.00000E+00
    0.39965E+01        -0.60000E+08         0.00000E+00
    0.00000E+00         0.00000E+00        -0.22500E+08
 
   -0.22500E+08        -0.54977E+00         0.00000E+00
   -0.54977E+00        -0.60000E+08         0.00000E+00
    0.00000E+00         0.00000E+00        -0.22500E+08
 
   -0.22500E+08        -0.12765E+01         0.00000E+00
   -0.12765E+01        -0.60000E+08         0.00000E+00
    0.00000E+00         0.00000E+00        -0.22500E+08
 
   -0.22500E+08        -0.16134E+01         0.00000E+00
   -0.16134E+01        -0.60000E+08         0.00000E+00
    0.00000E+00         0.00000E+00        -0.22500E+08
 
   -0.22500E+08        -0.16993E+01         0.00000E+00
   -0.16993E+01        -0.60000E+08         0.00000E+00
    0.00000E+00         0.00000E+00        -0.22500E+08
 
   -0.22500E+08        -0.16356E+01         0.00000E+00
   -0.16356E+01        -0.60000E+08         0.00000E+00
    0.00000E+00         0.00000E+00        -0.22500E+08
 
   -0.22500E+08        -0.14796E+01         0.00000E+00
   -0.14796E+01        -0.60000E+08         0.00000E+00
    0.00000E+00         0.00000E+00        -0.22500E+08
 
   -0.22500E+08        -0.12595E+01         0.00000E+00
   -0.12595E+01        -0.60000E+08         0.00000E+00
    0.00000E+00         0.00000E+00        -0.22500E+08
 
   -0.22500E+08        -0.98760E+00         0.00000E+00
   -0.98760E+00        -0.60000E+08         0.00000E+00
    0.00000E+00         0.00000E+00        -0.22500E+08
 
   -0.22500E+08        -0.66617E+00         0.00000E+00
   -0.66617E+00        -0.60000E+08         0.00000E+00
    0.00000E+00         0.00000E+00        -0.22500E+08
 
   -0.22500E+08        -0.28949E+00         0.00000E+00
   -0.28949E+00        -0.60000E+08         0.00000E+00
    0.00000E+00         0.00000E+00        -0.22500E+08
 
   -0.22500E+08         0.15712E+00         0.00000E+00
    0.15712E+00        -0.60000E+08         0.00000E+00
    0.00000E+00         0.00000E+00        -0.22500E+08
 
   -0.22500E+08         0.70102E+00         0.00000E+00
    0.70102E+00        -0.60000E+08         0.00000E+00
    0.00000E+00         0.00000E+00        -0.22500E+08
 
   -0.22500E+08         0.13901E+01         0.00000E+00
    0.13901E+01        -0.60000E+08         0.00000E+00
    0.00000E+00         0.00000E+00        -0.22500E+08
 
   -0.22500E+08         0.22974E+01         0.00000E+00
    0.22974E+01        -0.60000E+08         0.00000E+00
    0.00000E+00         0.00000E+00        -0.22500E+08
 
   -0.22500E+08         0.35086E+01         0.00000E+00
    0.35086E+01        -0.60000E+08         0.00000E+00
    0.00000E+00         0.00000E+00        -0.22500E+08
 
   -0.22500E+08        -0.54991E+00         0.00000E+00
   -0.54991E+00        -0.60000E+08         0.00000E+00
    0.00000E+00         0.00000E+00        -0.22500E+08
 
   -0.22500E+08        -0.11784E+01         0.00000E+00
   -0.11784E+01        -0.60000E+08         0.00000E+00
    0.00000E+00         0.00000E+00        -0.22500E+08
 
   -0.22500E+08        -0.13905E+01         0.00000E+00
   -0.13905E+01        -0.60000E+08         0.00000E+00
    0.00000E+00         0.00000E+00        -0.22500E+08
 
   -0.22500E+08        -0.13989E+01         0.00000E+00
   -0.13989E+01        -0.60000E+08         0.00000E+00
    0.00000E+00         0.00000E+00        -0.22500E+08
 
   -0.22500E+08        -0.13108E+01         0.00000E+00
   -0.13108E+01        -0.60000E+08         0.00000E+00
    0.00000E+00         0.00000E+00        -0.22500E+08
 
   -0.22500E+08        -0.11681E+01         0.00000E+00
   -0.11681E+01        -0.60000E+08         0.00000E+00
    0.00000E+00         0.00000E+00        -0.22500E+08
 
   -0.22500E+08        -0.98802E+00         0.00000E+00
   -0.98802E+00        -0.60000E+08         0.00000E+00
    0.00000E+00         0.00000E+00        -0.22500E+08
 
   -0.22500E+08        -0.77680E+00         0.00000E+00
   -0.77680E+00        -0.60000E+08         0.00000E+00
    0.00000E+00         0.00000E+00        -0.22500E+08
 
   -0.22500E+08        -0.53404E+00         0.00000E+00
   -0.53404E+00        -0.60000E+08         0.00000E+00
    0.00000E+00         0.00000E+00        -0.22500E+08
 
   -0.22500E+08        -0.25397E+00         0.00000E+00
   -0.25397E+00        -0.60000E+08         0.00000E+00
    0.00000E+00         0.00000E+00        -0.22500E+08
 
   -0.22500E+08         0.75964E-01         0.00000E+00
    0.75964E-01        -0.60000E+08         0.00000E+00
    0.00000E+00         0.00000E+00        -0.22500E+08
 
   -0.22500E+08         0.47957E+00         0.00000E+00
    0.47957E+00        -0.60000E+08         0.00000E+00
    0.00000E+00         0.00000E+00        -0.22500E+08
 
   -0.22500E+08         0.10032E+01         0.00000E+00
    0.10032E+01        -0.60000E+08         0.00000E+00
    0.00000E+00         0.00000E+00        -0.22500E+08
 
   -0.22500E+08         0.17447E+01         0.00000E+00
    0.17447E+01        -0.60000E+08         0.00000E+00
    0.00000E+00         0.00000E+00        -0.22500E+08
 
   -0.22500E+08         0.28569E+01         0.00000E+00
    0.28569E+01        -0.60000E+08         0.00000E+00
    0.00000E+00         0.00000E+00        -0.22500E+08
 
   -0.22500E+08        -0.51589E+00         0.00000E+00
   -0.51589E+00        -0.60000E+08         0.00000E+00
    0.00000E+00         0.00000E+00        -0.22500E+08
 
   -0.22500E+08        -0.92531E+00         0.00000E+00
   -0.92531E+00        -0.60000E+08         0.00000E+00
    0.00000E+00         0.00000E+00        -0.22500E+08
 
   -0.22500E+08        -0.97967E+00         0.00000E+00
   -0.97967E+00        -0.60000E+08         0.00000E+00
    0.00000E+00         0.00000E+00        -0.22500E+08
 
   -0.22500E+08        -0.93823E+00         0.00000E+00
   -0.93823E+00        -0.60000E+08         0.00000E+00
    0.00000E+00         0.00000E+00        -0.22500E+08
 
   -0.22500E+08        -0.85744E+00         0.00000E+00
   -0.85744E+00        -0.60000E+08         0.00000E+00
    0.00000E+00         0.00000E+00        -0.22500E+08
 
   -0.22500E+08        -0.75422E+00         0.00000E+00
   -0.75422E+00        -0.60000E+08         0.00000E+00
    0.00000E+00         0.00000E+00        -0.22500E+08
 
   -0.22500E+08        -0.63455E+00         0.00000E+00
   -0.63455E+00        -0.60000E+08         0.00000E+00
    0.00000E+00         0.00000E+00        -0.22500E+08
 
   -0.22500E+08        -0.49972E+00         0.00000E+00
   -0.49972E+00        -0.60000E+08         0.00000E+00
    0.00000E+00         0.00000E+00        -0.22500E+08
 
   -0.22500E+08        -0.34823E+00         0.00000E+00
   -0.34823E+00        -0.60000E+08         0.00000E+00
    0.00000E+00         0.00000E+00        -0.22500E+08
 
   -0.22500E+08        -0.17582E+00         0.00000E+00
   -0.17582E+00        -0.60000E+08         0.00000E+00
    0.00000E+00         0.00000E+00        -0.22500E+08
 
   -0.22500E+08         0.25685E-01         0.00000E+00
    0.25685E-01        -0.60000E+08         0.00000E+00
    0.00000E+00         0.00000E+00        -0.22500E+08
 
   -0.22500E+08         0.27175E+00         0.00000E+00
    0.27175E+00        -0.60000E+08         0.00000E+00
    0.00000E+00         0.00000E+00        -0.22500E+08
 
   -0.22500E+08         0.59412E+00         0.00000E+00
    0.59412E+00        -0.60000E+08         0.00000E+00
    0.00000E+00         0.00000E+00        -0.22500E+08
 
   -0.22500E+08         0.10726E+01         0.00000E+00
    0.10726E+01        -0.60000E+08         0.00000E+00
    0.00000E+00         0.00000E+00        -0.22500E+08
 
   -0.22500E+08         0.19701E+01         0.00000E+00
    0.19701E+01        -0.60000E+08         0.00000E+00
    0.00000E+00         0.00000E+00        -0.22500E+08
 
   -0.22500E+08        -0.31395E+00         0.00000E+00
   -0.31395E+00        -0.60000E+08         0.00000E+00
    0.00000E+00         0.00000E+00        -0.22500E+08
 
   -0.22500E+08        -0.37690E+00         0.00000E+00
   -0.37690E+00        -0.60000E+08         0.00000E+00
    0.00000E+00         0.00000E+00        -0.22500E+08
 
   -0.22500E+08        -0.35997E+00         0.00000E+00
   -0.35997E+00        -0.60000E+08         0.00000E+00
    0.00000E+00         0.00000E+00        -0.22500E+08
 
   -0.22500E+08        -0.33366E+00         0.00000E+00
   -0.33366E+00        -0.60000E+08         0.00000E+00
    0.00000E+00         0.00000E+00        -0.22500E+08
 
   -0.22500E+08        -0.30032E+00         0.00000E+00
   -0.30032E+00        -0.60000E+08         0.00000E+00
    0.00000E+00         0.00000E+00        -0.22500E+08
 
   -0.22500E+08        -0.26226E+00         0.00000E+00
   -0.26226E+00        -0.60000E+08         0.00000E+00
    0.00000E+00         0.00000E+00        -0.22500E+08
 
   -0.22500E+08        -0.22006E+00         0.00000E+00
   -0.22006E+00        -0.60000E+08         0.00000E+00
    0.00000E+00         0.00000E+00        -0.22500E+08
 
   -0.22500E+08        -0.17357E+00         0.00000E+00
   -0.17357E+00        -0.60000E+08         0.00000E+00
    0.00000E+00         0.00000E+00        -0.22500E+08
 
   -0.22500E+08        -0.12198E+00         0.00000E+00
   -0.12198E+00        -0.60000E+08         0.00000E+00
    0.00000E+00         0.00000E+00        -0.22500E+08
 
   -0.22500E+08        -0.63752E-01         0.00000E+00
   -0.63752E-01        -0.60000E+08         0.00000E+00
    0.00000E+00         0.00000E+00        -0.22500E+08
 
   -0.22500E+08         0.39260E-02         0.00000E+00
    0.39260E-02        -0.60000E+08         0.00000E+00
    0.00000E+00         0.00000E+00        -0.22500E+08
 
   -0.22500E+08         0.86198E-01         0.00000E+00
    0.86198E-01        -0.60000E+08         0.00000E+00
    0.00000E+00         0.00000E+00        -0.22500E+08
 
   -0.22500E+08         0.19422E+00         0.00000E+00
    0.19422E+00        -0.60000E+08         0.00000E+00
    0.00000E+00         0.00000E+00        -0.22500E+08
 
   -0.22500E+08         0.35322E+00         0.00000E+00
    0.35322E+00        -0.60000E+08         0.00000E+00
    0.00000E+00         0.00000E+00        -0.22500E+08
 
   -0.22500E+08         0.72806E+00         0.00000E+00
    0.72806E+00        -0.60000E+08         0.00000E+00
    0.00000E+00         0.00000E+00        -0.22500E+08
 
SCALARS stressS double 
LOOKUP_TABLE default
  -35000013.5319794     
  -35000014.0995459     
  -35000014.6217980     
  -35000015.1025393     
  -35000015.5454324     
  -35000015.9539946     
  -35000016.3315938     
  -35000016.6814462     
  -35000017.0066153     
  -35000017.3100123     
  -35000017.5943991     
  -35000017.8623914     
  -35000018.1164657     
  -35000018.3589670     
  -35000018.5921190     
  -35000013.5154906     
  -35000014.0805914     
  -35000014.6004272     
  -35000015.0788103     
  -35000015.5194117     
  -35000015.9257559     
  -35000016.3012166     
  -35000016.6490147     
  -35000016.9722165     
  -35000017.2737345     
  -35000017.5563297     
  -35000017.8226151     
  -35000018.0750621     
  -35000018.3160080     
  -35000018.5476666     
  -35000013.4827286     
  -35000014.0428820     
  -35000014.5578696     
  -35000015.0315216     
  -35000015.4675258     
  -35000015.8694213     
  -35000016.2405942     
  -35000016.5842745     
  -35000016.9035348     
  -35000017.2012900     
  -35000017.4802996     
  -35000017.7431713     
  -35000017.9923662     
  -35000018.2302071     
  -35000018.4588878     
  -35000013.4341240     
  -35000013.9868164     
  -35000014.4944922     
  -35000014.9610101     
  -35000015.3900834     
  -35000015.7852745     
  -35000016.1499881     
  -35000016.4874690     
  -35000016.8007991     
  -35000017.0928977     
  -35000017.3665226     
  -35000017.6242736     
  -35000017.8685974     
  -35000018.1017948     
  -35000018.3260304     
  -35000013.3703217     
  -35000013.9129899     
  -35000014.4108421     
  -35000014.8677763     
  -35000015.2875427     
  -35000015.6737348     
  -35000016.0297841     
  -35000016.3589558     
  -35000016.6643452     
  -35000016.9488781     
  -35000017.2153110     
  -35000017.4662339     
  -35000017.7040751     
  -35000017.9311072     
  -35000018.1494562     
  -35000013.2921804     
  -35000013.8221927     
  -35000014.3076423     
  -35000014.7524802     
  -35000015.1605043     
  -35000015.5353503     
  -35000015.8804845     
  -35000016.1991986     
  -35000016.4946068     
  -35000016.7696437     
  -35000017.0270656     
  -35000017.2694516     
  -35000017.4992081     
  -35000017.7185740     
  -35000017.9296286     
  -35000013.2007704     
  -35000013.7154045     
  -35000014.1857855     
  -35000014.6159320     
  -35000015.0097032     
  -35000015.3707881     
  -35000015.7026970     
  -35000016.0087562     
  -35000016.2921034     
  -35000016.5556863     
  -35000016.8022621     
  -35000017.0343992     
  -35000017.2544794     
  -35000017.4647035     
  -35000017.6670966     
  -35000013.0973696     
  -35000013.5937896     
  -35000014.0463263     
  -35000014.4590836     
  -35000014.8359971     
  -35000015.1808215     
  -35000015.4971220     
  -35000015.7882673     
  -35000016.0574252     
  -35000016.3075606     
  -35000016.5414344     
  -35000016.7616044     
  -35000016.9704273     
  -35000017.1700618     
  -35000017.3624738     
  -35000012.9834595     
  -35000013.4586878     
  -35000013.8904700     
  -35000014.2830151     
  -35000014.6403517     
  -35000014.9663148     
  -35000015.2645354     
  -35000015.5384338     
  -35000015.7912149     
  -35000016.0258657     
  -35000016.2451541     
  -35000016.4516295     
  -35000016.6476230     
  -35000016.8352500     
  -35000017.0164129     
  -35000012.8607167     
  -35000013.3116038     
  -35000013.7195591     
  -35000014.0889190     
  -35000014.4238240     
  -35000014.7282043     
  -35000015.0057692     
  -35000015.2600001     
  -35000015.4941463     
  -35000015.7112225     
  -35000015.9140079     
  -35000016.1050459     
  -35000016.2866442     
  -35000016.4608751     
  -35000016.6295760     
  -35000012.7310022     
  -35000013.1541922     
  -35000013.5350556     
  -35000013.8780808     
  -35000014.1875405     
  -35000014.4674763     
  -35000014.7216885     
  -35000014.9537295     
  -35000015.1669002     
  -35000015.3642490     
  -35000015.5485707     
  -35000015.7224070     
  -35000015.8880455     
  -35000016.0475183     
  -35000016.2025995     
  -35000012.5963463     
  -35000012.9882388     
  -35000013.3385191     
  -35000013.6518546     
  -35000013.9326718     
  -35000014.1851407     
  -35000014.4131651     
  -35000014.6203775     
  -35000014.8101375     
  -35000014.9855321     
  -35000015.1493771     
  -35000015.3042171     
  -35000015.4523251     
  -35000015.5956986     
  -35000015.7360542     
  -35000012.4589274     
  -35000012.8156354     
  -35000013.1315789     
  -35000013.4116337     
  -35000013.6604027     
  -35000013.8822008     
  -35000014.0810472     
  -35000014.2606623     
  -35000014.4244695     
  -35000014.5755989     
  -35000014.7168910     
  -35000014.8508995     
  -35000014.9798896     
  -35000015.1058338     
  -35000015.2304017     
  -35000012.3210453     
  -35000012.6383490     
  -35000012.9159008     
  -35000013.1588156     
  -35000013.3718961     
  -35000013.5596180     
  -35000013.7261255     
  -35000013.8752320     
  -35000014.0104269     
  -35000014.1348849     
  -35000014.2514742     
  -35000014.3627625     
  -35000014.4710169     
  -35000014.5781981     
  -35000014.6859456     
  -35000012.1850862     
  -35000012.4583827     
  -35000012.6931446     
  -35000012.8947588     
  -35000013.0682507     
  -35000013.2182711     
  -35000013.3490951     
  -35000013.4646295     
  -35000013.5684272     
  -35000013.6637039     
  -35000013.7533551     
  -35000013.8399669     
  -35000013.9258192     
  -35000014.0128788     
  -35000014.1027798     
  -35000012.0534783     
  -35000012.2777275     
  -35000012.4649137     
  -35000012.6207309     
  -35000012.7504502     
  -35000012.8589085     
  -35000012.9505124     
  -35000013.0292551     
  -35000013.0987414     
  -35000013.1622179     
  -35000013.2226008     
  -35000013.2824961     
  -35000013.3442085     
  -35000013.4097340     
  -35000013.4807356     
  -35000011.9286387     
  -35000012.0983026     
  -35000012.2326915     
  -35000012.3378449     
  -35000012.4193023     
  -35000012.4820931     
  -35000012.5307474     
  -35000012.5693261     
  -35000012.6014627     
  -35000012.6304117     
  -35000012.6590941     
  -35000012.6901324     
  -35000012.7258675     
  -35000012.7683538     
  -35000012.8193289     
  -35000011.8129079     
  -35000011.9218833     
  -35000011.9977641     
  -35000012.0469806     
  -35000012.0753639     
  -35000012.0881356     
  -35000012.0899289     
  -35000012.0848364     
  -35000012.0764776     
  -35000012.0680740     
  -35000012.0625209     
  -35000012.0624442     
  -35000012.0702309     
  -35000012.0880290     
  -35000012.1177112     
  -35000011.7084746     
  -35000011.7500117     
  -35000011.7611225     
  -35000011.7486853     
  -35000011.7188478     
  -35000011.6770149     
  -35000011.6278827     
  -35000011.5755142     
  -35000011.5234432     
  -35000011.4747902     
  -35000011.4323721     
  -35000011.3987903     
  -35000011.3764834     
  -35000011.3677348     
  -35000011.3746301     
  -35000011.6172870     
  -35000011.5838863     
  -35000011.5233370     
  -35000011.4430444     
  -35000011.3495032     
  -35000011.2482781     
  -35000011.1440592     
  -35000011.0407794     
  -35000010.9417737     
  -35000010.8499529     
  -35000010.7679693     
  -35000010.6983504     
  -35000010.6435831     
  -35000010.6061348     
  -35000010.5884048     
  -35000011.5409521     
  -35000011.4242217     
  -35000011.2843906     
  -35000011.1295093     
  -35000010.9664572     
  -35000010.8009139     
  -35000010.6374482     
  -35000010.4797044     
  -35000010.3306425     
  -35000010.1927983     
  -35000010.0685257     
  -35000009.9601950     
  -35000009.8703239     
  -35000009.8016201     
  -35000009.7569257     
  -35000011.4806202     
  -35000011.2710617     
  -35000011.0434473     
  -35000010.8066567     
  -35000010.5680017     
  -35000010.3331894     
  -35000010.1064788     
  -35000009.8909774     
  -35000009.6890070     
  -35000009.5024816     
  -35000009.3332554     
  -35000009.1834105     
  -35000009.0554535     
  -35000008.9523952     
  -35000008.8776897     
  -35000011.4368438     
  -35000011.1235137     
  -35000010.7985143     
  -35000010.4718443     
  -35000010.1512967     
  -35000009.8424374     
  -35000009.5489012     
  -35000009.2728784     
  -35000009.0156660     
  -35000008.7782037     
  -35000008.5615541     
  -35000008.3673062     
  -35000008.1978736     
  -35000008.0566362     
  -35000007.9478842     
  -35000011.4093937     
  -35000010.9793401     
  -35000010.5459184     
  -35000010.1206978     
  -35000009.7119606     
  -35000009.3247883     
  -35000008.9616605     
  -35000008.6232745     
  -35000008.3093626     
  -35000008.0194092     
  -35000007.7532734     
  -35000007.5117390     
  -35000007.2969641     
  -35000007.1127554     
  -35000006.9645401     
  -35000011.3969750     
  -35000010.8342669     
  -35000010.2794488     
  -35000009.7463316     
  -35000009.2435120     
  -35000008.7748573     
  -35000008.3407832     
  -35000007.9396563     
  -35000007.5689407     
  -35000007.2260605     
  -35000006.9091208     
  -35000006.6176059     
  -35000006.3531038     
  -35000006.1198330     
  -35000005.9247816     
  -35000011.3966983     
  -35000010.6806894     
  -35000009.9888649     
  -35000009.3381628     
  -35000008.7366751     
  -35000008.1854600     
  -35000007.6813461     
  -35000007.2192371     
  -35000006.7935446     
  -35000006.3989808     
  -35000006.0311855     
  -35000005.6875958     
  -35000005.3685038     
  -35000005.0783626     
  -35000004.8262185     
  -35000011.4029270     
  -35000010.5049269     
  -35000009.6571786     
  -35000008.8801988     
  -35000008.1787180     
  -35000007.5475771     
  -35000006.9776278     
  -35000006.4591458     
  -35000005.9828277     
  -35000005.5401457     
  -35000005.1235936     
  -35000004.7272133     
  -35000004.3487226     
  -35000003.9915270     
  -35000003.6676732     
  -35000011.4037070     
  -35000010.2808477     
  -35000009.2555684     
  -35000008.3491117     
  -35000007.5536602     
  -35000006.8508587     
  -35000006.2235758     
  -35000005.6567260     
  -35000005.1370920     
  -35000004.6527833     
  -35000004.1927304     
  -35000003.7465394     
  -35000003.3048341     
  -35000002.8684598     
  -35000002.4502223     
  -35000011.3696878     
  -35000009.9511552     
  -35000008.7355385     
  -35000007.7161642     
  -35000006.8439754     
  -35000006.0849957     
  -35000005.4136362     
  -35000004.8099288     
  -35000004.2573045     
  -35000003.7410204     
  -35000003.2468178     
  -35000002.7594441     
  -35000002.2613558     
  -35000001.7279672     
  -35000001.1829730     
  -35000011.1695161     
  -35000009.3842190     
  -35000008.0434984     
  -35000006.9529814     
  -35000006.0345263     
  -35000005.2418045     
  -35000004.5438510     
  -35000003.9177389     
  -35000003.3449615     
  -35000002.8091342     
  -35000002.2940638     
  -35000001.7814277     
  -35000001.2464677     
  -35000000.6490409     
  -34999999.8732589     
SCALARS 2waySource double 
LOOKUP_TABLE default
 -1.258132727001234E-008
 -1.312644169102657E-008
 -1.362737408067933E-008
 -1.408771700283457E-008
 -1.451093781261198E-008
 -1.490037342625839E-008
 -1.525922571859085E-008
 -1.559055809732938E-008
 -1.589729317768725E-008
 -1.618221192574537E-008
 -1.644795433365317E-008
 -1.669702163620012E-008
 -1.693178035373988E-008
 -1.715446809826992E-008
 -1.736720132435182E-008
 -1.255504090885379E-008
 -1.309802748454198E-008
 -1.359690856685514E-008
 -1.405527946650843E-008
 -1.447661045471934E-008
 -1.486424109484086E-008
 -1.522137556293663E-008
 -1.555107902254259E-008
 -1.585627522884869E-008
 -1.613974547279091E-008
 -1.640412918737029E-008
 -1.665192609179081E-008
 -1.688550013778697E-008
 -1.710708528267286E-008
 -1.731879316595412E-008
 -1.251405857213451E-008
 -1.305260659065553E-008
 -1.354716657959130E-008
 -1.400134566137301E-008
 -1.441862552677126E-008
 -1.480235621444330E-008
 -1.515575098657113E-008
 -1.548188226674485E-008
 -1.578367889424453E-008
 -1.606392481566476E-008
 -1.632525948097820E-008
 -1.657017970477678E-008
 -1.680104348935361E-008
 -1.702007556323350E-008
 -1.722937489185216E-008
 -1.245882419381215E-008
 -1.299059349344921E-008
 -1.347853311185997E-008
 -1.392627183440582E-008
 -1.433731209273707E-008
 -1.471502280813420E-008
 -1.506263371584048E-008
 -1.538323034402485E-008
 -1.567975103002405E-008
 -1.595498507312122E-008
 -1.621157276033921E-008
 -1.645200693031729E-008
 -1.667863650088099E-008
 -1.689367165292320E-008
 -1.709919105720483E-008
 -1.238998662452899E-008
 -1.291259096209037E-008
 -1.339156502618279E-008
 -1.383057041375771E-008
 -1.423314066795684E-008
 -1.460267312904077E-008
 -1.494242192685461E-008
 -1.525549237866346E-008
 -1.554483724056692E-008
 -1.581325432113002E-008
 -1.606338602844247E-008
 -1.629772059053261E-008
 -1.651859506879062E-008
 -1.672820021122647E-008
 -1.692858716839621E-008
 -1.230839875652662E-008
 -1.281938749116145E-008
 -1.328698702754335E-008
 -1.371490464673267E-008
 -1.410671698052943E-008
 -1.446586030267416E-008
 -1.479562229110089E-008
 -1.509913546218165E-008
 -1.537937260370737E-008
 -1.563914382664272E-008
 -1.588109553428944E-008
 -1.610771117229281E-008
 -1.632131378267353E-008
 -1.652407031723281E-008
 -1.671799776685959E-008
 -1.221511614910667E-008
 -1.271195354349773E-008
 -1.316568595821113E-008
 -1.358008136386367E-008
 -1.395877317873787E-008
 -1.430524865417016E-008
 -1.462283925602265E-008
 -1.491471311043522E-008
 -1.518386947646494E-008
 -1.543313523055127E-008
 -1.566516326835987E-008
 -1.588243277197822E-008
 -1.608725123109634E-008
 -1.628175817474803E-008
 -1.646793056482013E-008
 -1.211139420987520E-008
 -1.259143616479158E-008
 -1.302870310224743E-008
 -1.342704133100827E-008
 -1.379015671056362E-008
 -1.412160115406869E-008
 -1.442476148611625E-008
 -1.470285084778577E-008
 -1.495890225514593E-008
 -1.519576453968710E-008
 -1.541610028623619E-008
 -1.562238562513799E-008
 -1.581691175182760E-008
 -1.600178802812653E-008
 -1.617894654189890E-008
 -1.199868421061405E-008
 -1.245915151467566E-008
 -1.287722410528176E-008
 -1.325684693734899E-008
 -1.360181624056178E-008
 -1.391576400430751E-008
 -1.420214530768417E-008
 -1.446422869149398E-008
 -1.470508904113107E-008
 -1.492760302147820E-008
 -1.513444675137237E-008
 -1.532809525835945E-008
 -1.551082357625551E-008
 -1.568470923640305E-008
 -1.585163586538991E-008
 -1.187862676346667E-008
 -1.231657483838274E-008
 -1.271256588494736E-008
 -1.307066681443615E-008
 -1.339478444688761E-008
 -1.368864796747723E-008
 -1.395579489387067E-008
 -1.419956047719778E-008
 -1.442307018633200E-008
 -1.462923498775313E-008
 -1.482074888713177E-008
 -1.500008842254667E-008
 -1.516951355392262E-008
 -1.533106954095246E-008
 -1.548658958415574E-008
 -1.175304229352583E-008
 -1.216532701099196E-008
 -1.253616013608130E-008
 -1.286975687417670E-008
 -1.317015717180246E-008
 -1.344120620685248E-008
 -1.368653914000944E-008
 -1.390956997010463E-008
 -1.411348385806990E-008
 -1.430123266421481E-008
 -1.447553297092740E-008
 -1.463886598596582E-008
 -1.479347854691140E-008
 -1.494138466340295E-008
 -1.508436710086649E-008
 -1.162391765635973E-008
 -1.200715698943385E-008
 -1.234953244558148E-008
 -1.265543698869543E-008
 -1.292906837414488E-008
 -1.317440803015862E-008
 -1.339520483336701E-008
 -1.359496371069873E-008
 -1.377693849297418E-008
 -1.394412828878234E-008
 -1.409927678746125E-008
 -1.424487319576986E-008
 -1.438315399946989E-008
 -1.451610452531532E-008
 -1.464545951642998E-008
 -1.149338767324765E-008
 -1.184391913183718E-008
 -1.215427644278497E-008
 -1.242906271690532E-008
 -1.267266035169208E-008
 -1.288920844020493E-008
 -1.308258591185866E-008
 -1.325640045889413E-008
 -1.341398258362340E-008
 -1.355838398693684E-008
 -1.369237903708845E-008
 -1.381846796985075E-008
 -1.393888022654228E-008
 -1.405557662700476E-008
 -1.417024925484458E-008
 -1.136371079763393E-008
 -1.167754444877017E-008
 -1.195202170640391E-008
 -1.219199105566003E-008
 -1.240204832643608E-008
 -1.258651246869078E-008
 -1.274940846346202E-008
 -1.289445721655490E-008
 -1.302507193696267E-008
 -1.314435984790505E-008
 -1.325512761703410E-008
 -1.335988825369494E-008
 -1.346086749974077E-008
 -1.356000754742504E-008
 -1.365896657785075E-008
 -1.123723749107854E-008
 -1.151000467603076E-008
 -1.174439445479969E-008
 -1.194553904826738E-008
 -1.211827830624691E-008
 -1.226713370678611E-008
 -1.239629102669837E-008
 -1.250959209221083E-008
 -1.261053501955355E-008
 -1.270228141080790E-008
 -1.278766803089146E-008
 -1.286921988241890E-008
 -1.294916153006248E-008
 -1.302942390125435E-008
 -1.311164414144250E-008
 -1.111637042453137E-008
 -1.134326774689025E-008
 -1.153296937543897E-008
 -1.169093346426436E-008
 -1.182227671068363E-008
 -1.193174577253753E-008
 -1.202369953632486E-008
 -1.210210368244040E-008
 -1.217053709882443E-008
 -1.223220770159283E-008
 -1.228997390323300E-008
 -1.234636721569225E-008
 -1.240361153034310E-008
 -1.246363499623203E-008
 -1.252807132753631E-008
 -1.100351578072111E-008
 -1.117924318356123E-008
 -1.131921058879313E-008
 -1.142924933541192E-008
 -1.151478930262572E-008
 -1.158082478756935E-008
 -1.163189591330007E-008
 -1.167208732036295E-008
 -1.170504431952556E-008
 -1.173400211119884E-008
 -1.176182222920865E-008
 -1.179102967951951E-008
 -1.182384421763645E-008
 -1.186220021421386E-008
 -1.190775100778590E-008
 -1.090102510881155E-008
 -1.101971608636036E-008
 -1.110439856375735E-008
 -1.116133358920637E-008
 -1.119630601968067E-008
 -1.121458026745858E-008
 -1.122087892019245E-008
 -1.121938823357412E-008
 -1.121378945131592E-008
 -1.120730890230569E-008
 -1.120277738037895E-008
 -1.120268866410544E-008
 -1.120924832791510E-008
 -1.122440552664135E-008
 -1.124986252215528E-008
 -1.081112768095187E-008
 -1.086626637217122E-008
 -1.088953853288919E-008
 -1.088770775536358E-008
 -1.086696590576493E-008
 -1.083286997001567E-008
 -1.079031527657219E-008
 -1.074355210780974E-008
 -1.069624182994335E-008
 -1.065153985262663E-008
 -1.061218937731400E-008
 -1.058061099291820E-008
 -1.055897600877603E-008
 -1.054925518429292E-008
 -1.055323614821975E-008
 -1.073585409359214E-008
 -1.072016971364120E-008
 -1.067524222664582E-008
 -1.060844025516896E-008
 -1.052643302139376E-008
 -1.043509250240331E-008
 -1.033945813531036E-008
 -1.024377380540688E-008
 -1.015158574579581E-008
 -1.006587737980152E-008
 -9.989214310505748E-009
 -9.923877482742884E-009
 -9.871969725124312E-009
 -9.835486744342937E-009
 -9.816346200818030E-009
 -1.067695220972150E-008
 -1.058227256220057E-008
 -1.046156884393487E-008
 -1.032297168480461E-008
 -1.017372908018680E-008
 -1.002004803226052E-008
 -9.867049769558904E-009
 -9.718846921858549E-009
 -9.578713848218443E-009
 -9.449303626446895E-009
 -9.332867818300287E-009
 -9.231448421600140E-009
 -9.147026397983500E-009
 -9.081620434014189E-009
 -9.037332151811882E-009
 -1.063579573601320E-008
 -1.045282607027729E-008
 -1.024780014226263E-008
 -1.002986527407902E-008
 -9.807000011218597E-009
 -9.585754635189711E-009
 -9.371205957596142E-009
 -9.167119337218054E-009
 -8.976246137871162E-009
 -8.800669084634469E-009
 -8.642127014169400E-009
 -8.502281656470844E-009
 -8.382914515694234E-009
 -8.286057531818701E-009
 -8.214060137653967E-009
 -1.061328456866244E-008
 -1.033124960143990E-008
 -1.003210136957289E-008
 -9.726433993867060E-009
 -9.423182590475240E-009
 -9.129205419176983E-009
 -8.849283592622561E-009
 -8.586466370608899E-009
 -8.342590982812996E-009
 -8.118819501806731E-009
 -7.916101111394486E-009
 -7.735524748291001E-009
 -7.578566081325286E-009
 -7.447248327965255E-009
 -7.344241376688960E-009
 -1.060972784157201E-008
 -1.021575942546384E-008
 -9.810974790042525E-009
 -9.408161499243025E-009
 -9.017524733880333E-009
 -8.646058462168187E-009
 -8.297746160164563E-009
 -7.974303424807603E-009
 -7.676070267823776E-009
 -7.402804518200840E-009
 -7.154296434946025E-009
 -6.930811130526376E-009
 -6.733374129274601E-009
 -6.563960896251903E-009
 -6.425631263033306E-009
 -1.062468459483418E-008
 -1.010271615749218E-008
 -9.578314850962580E-009
 -9.067775519000645E-009
 -8.582912955437991E-009
 -8.130283011784758E-009
 -7.712071614612765E-009
 -7.327673575393482E-009
 -6.975132378026840E-009
 -6.652188272792212E-009
 -6.357009332810260E-009
 -6.088698816390020E-009
 -5.847649078748133E-009
 -5.635698699678272E-009
 -5.456351803475021E-009
 -1.065667290634808E-008
 -9.985335947783666E-009
 -9.323648242648329E-009
 -8.693761366847218E-009
 -8.109026382340298E-009
 -7.573880445214915E-009
 -7.086807072164251E-009
 -6.643452428493010E-009
 -6.238652475862300E-009
 -5.867469542511536E-009
 -5.525863202274882E-009
 -5.211336558961357E-009
 -4.923298601059259E-009
 -4.663386512259603E-009
 -4.435408685879187E-009
 -1.070253804644344E-008
 -9.850687476419808E-009
 -9.028676318577555E-009
 -8.268131699689277E-009
 -7.581618258630971E-009
 -6.967037801985040E-009
 -6.415915154668102E-009
 -5.918695815864491E-009
 -5.466267748237224E-009
 -5.050502451077669E-009
 -4.664555451353285E-009
 -4.303364705272533E-009
 -3.965045491016144E-009
 -3.650396670231589E-009
 -3.363692813385486E-009
 -1.075481604213802E-008
 -9.671926885879738E-009
 -8.660237390613923E-009
 -7.764092944229471E-009
 -6.983322958750576E-009
 -6.299112520764230E-009
 -5.693539937767494E-009
 -5.151096568134592E-009
 -4.658610782157496E-009
 -4.204697392134412E-009
 -3.779328587060345E-009
 -3.373837890693021E-009
 -2.981785281511866E-009
 -2.605278932200391E-009
 -2.245530022551848E-009
 -1.079240689145005E-008
 -9.381509425172593E-009
 -8.159808682463500E-009
 -7.150551069984746E-009
 -6.296755278737687E-009
 -5.560704240281404E-009
 -4.915104296431789E-009
 -4.339440675810019E-009
 -3.817291611431533E-009
 -3.334630066705521E-009
 -2.878576810054526E-009
 -2.436369326447352E-009
 -1.994827762988533E-009
 -1.541055532455035E-009
 -1.096909965987011E-009
 -1.066308385452590E-008
 -8.810529444814196E-009
 -7.472303895334299E-009
 -6.402133606287371E-009
 -5.509992134442443E-009
 -4.746095888134960E-009
 -4.078406276513099E-009
 -3.483908746175697E-009
 -2.944574925821527E-009
 -2.445005723713282E-009
 -1.970685855687779E-009
 -1.506189483861843E-009
 -1.032625217167807E-009
 -5.222169038091437E-010
  6.528676252801939E-011
SCALARS poroP double 
LOOKUP_TABLE default
  0.000000000000000E+000
  0.000000000000000E+000
  0.000000000000000E+000
  0.000000000000000E+000
  0.000000000000000E+000
  0.000000000000000E+000
  0.000000000000000E+000
  0.000000000000000E+000
  0.000000000000000E+000
  0.000000000000000E+000
  0.000000000000000E+000
  0.000000000000000E+000
  0.000000000000000E+000
  0.000000000000000E+000
  0.000000000000000E+000
  0.000000000000000E+000
  0.000000000000000E+000
  0.000000000000000E+000
  0.000000000000000E+000
  0.000000000000000E+000
  0.000000000000000E+000
  0.000000000000000E+000
  0.000000000000000E+000
  0.000000000000000E+000
  0.000000000000000E+000
  0.000000000000000E+000
  0.000000000000000E+000
  0.000000000000000E+000
  0.000000000000000E+000
  0.000000000000000E+000
  0.000000000000000E+000
  0.000000000000000E+000
  0.000000000000000E+000
  0.000000000000000E+000
  0.000000000000000E+000
  0.000000000000000E+000
  0.000000000000000E+000
  0.000000000000000E+000
  0.000000000000000E+000
  0.000000000000000E+000
  0.000000000000000E+000
  0.000000000000000E+000
  0.000000000000000E+000
  0.000000000000000E+000
  0.000000000000000E+000
  0.000000000000000E+000
  0.000000000000000E+000
  0.000000000000000E+000
  0.000000000000000E+000
  0.000000000000000E+000
  0.000000000000000E+000
  0.000000000000000E+000
  0.000000000000000E+000
  0.000000000000000E+000
  0.000000000000000E+000
  0.000000000000000E+000
  0.000000000000000E+000
  0.000000000000000E+000
  0.000000000000000E+000
  0.000000000000000E+000
  0.000000000000000E+000
  0.000000000000000E+000
  0.000000000000000E+000
  0.000000000000000E+000
  0.000000000000000E+000
  0.000000000000000E+000
  0.000000000000000E+000
  0.000000000000000E+000
  0.000000000000000E+000
  0.000000000000000E+000
  0.000000000000000E+000
  0.000000000000000E+000
  0.000000000000000E+000
  0.000000000000000E+000
  0.000000000000000E+000
  0.000000000000000E+000
  0.000000000000000E+000
  0.000000000000000E+000
  0.000000000000000E+000
  0.000000000000000E+000
  0.000000000000000E+000
  0.000000000000000E+000
  0.000000000000000E+000
  0.000000000000000E+000
  0.000000000000000E+000
  0.000000000000000E+000
  0.000000000000000E+000
  0.000000000000000E+000
  0.000000000000000E+000
  0.000000000000000E+000
  0.000000000000000E+000
  0.000000000000000E+000
  0.000000000000000E+000
  0.000000000000000E+000
  0.000000000000000E+000
  0.000000000000000E+000
  0.000000000000000E+000
  0.000000000000000E+000
  0.000000000000000E+000
  0.000000000000000E+000
  0.000000000000000E+000
  0.000000000000000E+000
  0.000000000000000E+000
  0.000000000000000E+000
  0.000000000000000E+000
  0.000000000000000E+000
  0.000000000000000E+000
  0.000000000000000E+000
  0.000000000000000E+000
  0.000000000000000E+000
  0.000000000000000E+000
  0.000000000000000E+000
  0.000000000000000E+000
  0.000000000000000E+000
  0.000000000000000E+000
  0.000000000000000E+000
  0.000000000000000E+000
  0.000000000000000E+000
  0.000000000000000E+000
  0.000000000000000E+000
  0.000000000000000E+000
  0.000000000000000E+000
  0.000000000000000E+000
  0.000000000000000E+000
  0.000000000000000E+000
  0.000000000000000E+000
  0.000000000000000E+000
  0.000000000000000E+000
  0.000000000000000E+000
  0.000000000000000E+000
  0.000000000000000E+000
  0.000000000000000E+000
  0.000000000000000E+000
  0.000000000000000E+000
  0.000000000000000E+000
  0.000000000000000E+000
  0.000000000000000E+000
  0.000000000000000E+000
  0.000000000000000E+000
  0.000000000000000E+000
  0.000000000000000E+000
  0.000000000000000E+000
  0.000000000000000E+000
  0.000000000000000E+000
  0.000000000000000E+000
  0.000000000000000E+000
  0.000000000000000E+000
  0.000000000000000E+000
  0.000000000000000E+000
  0.000000000000000E+000
  0.000000000000000E+000
  0.000000000000000E+000
  0.000000000000000E+000
  0.000000000000000E+000
  0.000000000000000E+000
  0.000000000000000E+000
  0.000000000000000E+000
  0.000000000000000E+000
  0.000000000000000E+000
  0.000000000000000E+000
  0.000000000000000E+000
  0.000000000000000E+000
  0.000000000000000E+000
  0.000000000000000E+000
  0.000000000000000E+000
  0.000000000000000E+000
  0.000000000000000E+000
  0.000000000000000E+000
  0.000000000000000E+000
  0.000000000000000E+000
  0.000000000000000E+000
  0.000000000000000E+000
  0.000000000000000E+000
  0.000000000000000E+000
  0.000000000000000E+000
  0.000000000000000E+000
  0.000000000000000E+000
  0.000000000000000E+000
  0.000000000000000E+000
  0.000000000000000E+000
  0.000000000000000E+000
  0.000000000000000E+000
  0.000000000000000E+000
  0.000000000000000E+000
  0.000000000000000E+000
  0.000000000000000E+000
  0.000000000000000E+000
  0.000000000000000E+000
  0.000000000000000E+000
  0.000000000000000E+000
  0.000000000000000E+000
  0.000000000000000E+000
  0.000000000000000E+000
  0.000000000000000E+000
  0.000000000000000E+000
  0.000000000000000E+000
  0.000000000000000E+000
  0.000000000000000E+000
  0.000000000000000E+000
  0.000000000000000E+000
  0.000000000000000E+000
  0.000000000000000E+000
  0.000000000000000E+000
  0.000000000000000E+000
  0.000000000000000E+000
  0.000000000000000E+000
  0.000000000000000E+000
  0.000000000000000E+000
  0.000000000000000E+000
  0.000000000000000E+000
  0.000000000000000E+000
  0.000000000000000E+000
  0.000000000000000E+000
  0.000000000000000E+000
  0.000000000000000E+000
  0.000000000000000E+000
  0.000000000000000E+000
  0.000000000000000E+000
  0.000000000000000E+000
  0.000000000000000E+000
  0.000000000000000E+000
  0.000000000000000E+000
  0.000000000000000E+000
  0.000000000000000E+000
  0.000000000000000E+000
  0.000000000000000E+000
  0.000000000000000E+000
  0.000000000000000E+000
  0.000000000000000E+000
  0.000000000000000E+000
  0.000000000000000E+000
  0.000000000000000E+000
  0.000000000000000E+000
  0.000000000000000E+000
  0.000000000000000E+000
  0.000000000000000E+000
  0.000000000000000E+000
  0.000000000000000E+000
  0.000000000000000E+000
  0.000000000000000E+000
  0.000000000000000E+000
  0.000000000000000E+000
  0.000000000000000E+000
  0.000000000000000E+000
  0.000000000000000E+000
  0.000000000000000E+000
  0.000000000000000E+000
  0.000000000000000E+000
  0.000000000000000E+000
  0.000000000000000E+000
  0.000000000000000E+000
  0.000000000000000E+000
  0.000000000000000E+000
  0.000000000000000E+000
  0.000000000000000E+000
  0.000000000000000E+000
  0.000000000000000E+000
  0.000000000000000E+000
  0.000000000000000E+000
  0.000000000000000E+000
  0.000000000000000E+000
  0.000000000000000E+000
  0.000000000000000E+000
  0.000000000000000E+000
  0.000000000000000E+000
  0.000000000000000E+000
  0.000000000000000E+000
  0.000000000000000E+000
  0.000000000000000E+000
  0.000000000000000E+000
  0.000000000000000E+000
  0.000000000000000E+000
  0.000000000000000E+000
  0.000000000000000E+000
  0.000000000000000E+000
  0.000000000000000E+000
  0.000000000000000E+000
  0.000000000000000E+000
  0.000000000000000E+000
  0.000000000000000E+000
  0.000000000000000E+000
  0.000000000000000E+000
  0.000000000000000E+000
  0.000000000000000E+000
  0.000000000000000E+000
  0.000000000000000E+000
  0.000000000000000E+000
  0.000000000000000E+000
  0.000000000000000E+000
  0.000000000000000E+000
  0.000000000000000E+000
  0.000000000000000E+000
  0.000000000000000E+000
  0.000000000000000E+000
  0.000000000000000E+000
  0.000000000000000E+000
  0.000000000000000E+000
  0.000000000000000E+000
  0.000000000000000E+000
  0.000000000000000E+000
  0.000000000000000E+000
  0.000000000000000E+000
  0.000000000000000E+000
  0.000000000000000E+000
  0.000000000000000E+000
  0.000000000000000E+000
  0.000000000000000E+000
  0.000000000000000E+000
  0.000000000000000E+000
  0.000000000000000E+000
  0.000000000000000E+000
  0.000000000000000E+000
  0.000000000000000E+000
  0.000000000000000E+000
  0.000000000000000E+000
  0.000000000000000E+000
  0.000000000000000E+000
  0.000000000000000E+000
  0.000000000000000E+000
  0.000000000000000E+000
  0.000000000000000E+000
  0.000000000000000E+000
  0.000000000000000E+000
  0.000000000000000E+000
  0.000000000000000E+000
  0.000000000000000E+000
  0.000000000000000E+000
  0.000000000000000E+000
  0.000000000000000E+000
  0.000000000000000E+000
  0.000000000000000E+000
  0.000000000000000E+000
  0.000000000000000E+000
  0.000000000000000E+000
  0.000000000000000E+000
  0.000000000000000E+000
  0.000000000000000E+000
  0.000000000000000E+000
  0.000000000000000E+000
  0.000000000000000E+000
  0.000000000000000E+000
  0.000000000000000E+000
  0.000000000000000E+000
  0.000000000000000E+000
  0.000000000000000E+000
  0.000000000000000E+000
  0.000000000000000E+000
  0.000000000000000E+000
  0.000000000000000E+000
  0.000000000000000E+000
  0.000000000000000E+000
  0.000000000000000E+000
  0.000000000000000E+000
  0.000000000000000E+000
  0.000000000000000E+000
  0.000000000000000E+000
  0.000000000000000E+000
  0.000000000000000E+000
  0.000000000000000E+000
  0.000000000000000E+000
  0.000000000000000E+000
  0.000000000000000E+000
  0.000000000000000E+000
  0.000000000000000E+000
  0.000000000000000E+000
  0.000000000000000E+000
  0.000000000000000E+000
  0.000000000000000E+000
  0.000000000000000E+000
  0.000000000000000E+000
  0.000000000000000E+000
  0.000000000000000E+000
  0.000000000000000E+000
  0.000000000000000E+000
  0.000000000000000E+000
  0.000000000000000E+000
  0.000000000000000E+000
  0.000000000000000E+000
  0.000000000000000E+000
  0.000000000000000E+000
  0.000000000000000E+000
  0.000000000000000E+000
  0.000000000000000E+000
  0.000000000000000E+000
  0.000000000000000E+000
  0.000000000000000E+000
  0.000000000000000E+000
  0.000000000000000E+000
  0.000000000000000E+000
  0.000000000000000E+000
  0.000000000000000E+000
  0.000000000000000E+000
  0.000000000000000E+000
  0.000000000000000E+000
  0.000000000000000E+000
  0.000000000000000E+000
  0.000000000000000E+000
  0.000000000000000E+000
  0.000000000000000E+000
  0.000000000000000E+000
  0.000000000000000E+000
  0.000000000000000E+000
  0.000000000000000E+000
  0.000000000000000E+000
  0.000000000000000E+000
  0.000000000000000E+000
  0.000000000000000E+000
  0.000000000000000E+000
  0.000000000000000E+000
  0.000000000000000E+000
  0.000000000000000E+000
  0.000000000000000E+000
  0.000000000000000E+000
  0.000000000000000E+000
  0.000000000000000E+000
  0.000000000000000E+000
  0.000000000000000E+000
  0.000000000000000E+000
  0.000000000000000E+000
  0.000000000000000E+000
  0.000000000000000E+000
  0.000000000000000E+000
  0.000000000000000E+000
  0.000000000000000E+000
  0.000000000000000E+000
  0.000000000000000E+000
  0.000000000000000E+000
  0.000000000000000E+000
  0.000000000000000E+000
  0.000000000000000E+000
  0.000000000000000E+000
  0.000000000000000E+000
  0.000000000000000E+000
  0.000000000000000E+000
  0.000000000000000E+000
  0.000000000000000E+000
  0.000000000000000E+000
  0.000000000000000E+000
  0.000000000000000E+000
  0.000000000000000E+000
  0.000000000000000E+000
  0.000000000000000E+000
  0.000000000000000E+000
  0.000000000000000E+000
  0.000000000000000E+000
  0.000000000000000E+000
  0.000000000000000E+000
  0.000000000000000E+000
  0.000000000000000E+000
  0.000000000000000E+000
SCALARS elementIsPlast double 
LOOKUP_TABLE default
  0.000000000000000E+000
  0.000000000000000E+000
  0.000000000000000E+000
  0.000000000000000E+000
  0.000000000000000E+000
  0.000000000000000E+000
  0.000000000000000E+000
  0.000000000000000E+000
  0.000000000000000E+000
  0.000000000000000E+000
  0.000000000000000E+000
  0.000000000000000E+000
  0.000000000000000E+000
  0.000000000000000E+000
  0.000000000000000E+000
  0.000000000000000E+000
  0.000000000000000E+000
  0.000000000000000E+000
  0.000000000000000E+000
  0.000000000000000E+000
  0.000000000000000E+000
  0.000000000000000E+000
  0.000000000000000E+000
  0.000000000000000E+000
  0.000000000000000E+000
  0.000000000000000E+000
  0.000000000000000E+000
  0.000000000000000E+000
  0.000000000000000E+000
  0.000000000000000E+000
  0.000000000000000E+000
  0.000000000000000E+000
  0.000000000000000E+000
  0.000000000000000E+000
  0.000000000000000E+000
  0.000000000000000E+000
  0.000000000000000E+000
  0.000000000000000E+000
  0.000000000000000E+000
  0.000000000000000E+000
  0.000000000000000E+000
  0.000000000000000E+000
  0.000000000000000E+000
  0.000000000000000E+000
  0.000000000000000E+000
  0.000000000000000E+000
  0.000000000000000E+000
  0.000000000000000E+000
  0.000000000000000E+000
  0.000000000000000E+000
  0.000000000000000E+000
  0.000000000000000E+000
  0.000000000000000E+000
  0.000000000000000E+000
  0.000000000000000E+000
  0.000000000000000E+000
  0.000000000000000E+000
  0.000000000000000E+000
  0.000000000000000E+000
  0.000000000000000E+000
  0.000000000000000E+000
  0.000000000000000E+000
  0.000000000000000E+000
  0.000000000000000E+000
  0.000000000000000E+000
  0.000000000000000E+000
  0.000000000000000E+000
  0.000000000000000E+000
  0.000000000000000E+000
  0.000000000000000E+000
  0.000000000000000E+000
  0.000000000000000E+000
  0.000000000000000E+000
  0.000000000000000E+000
  0.000000000000000E+000
  0.000000000000000E+000
  0.000000000000000E+000
  0.000000000000000E+000
  0.000000000000000E+000
  0.000000000000000E+000
  0.000000000000000E+000
  0.000000000000000E+000
  0.000000000000000E+000
  0.000000000000000E+000
  0.000000000000000E+000
  0.000000000000000E+000
  0.000000000000000E+000
  0.000000000000000E+000
  0.000000000000000E+000
  0.000000000000000E+000
  0.000000000000000E+000
  0.000000000000000E+000
  0.000000000000000E+000
  0.000000000000000E+000
  0.000000000000000E+000
  0.000000000000000E+000
  0.000000000000000E+000
  0.000000000000000E+000
  0.000000000000000E+000
  0.000000000000000E+000
  0.000000000000000E+000
  0.000000000000000E+000
  0.000000000000000E+000
  0.000000000000000E+000
  0.000000000000000E+000
  0.000000000000000E+000
  0.000000000000000E+000
  0.000000000000000E+000
  0.000000000000000E+000
  0.000000000000000E+000
  0.000000000000000E+000
  0.000000000000000E+000
  0.000000000000000E+000
  0.000000000000000E+000
  0.000000000000000E+000
  0.000000000000000E+000
  0.000000000000000E+000
  0.000000000000000E+000
  0.000000000000000E+000
  0.000000000000000E+000
  0.000000000000000E+000
  0.000000000000000E+000
  0.000000000000000E+000
  0.000000000000000E+000
  0.000000000000000E+000
  0.000000000000000E+000
  0.000000000000000E+000
  0.000000000000000E+000
  0.000000000000000E+000
  0.000000000000000E+000
  0.000000000000000E+000
  0.000000000000000E+000
  0.000000000000000E+000
  0.000000000000000E+000
  0.000000000000000E+000
  0.000000000000000E+000
  0.000000000000000E+000
  0.000000000000000E+000
  0.000000000000000E+000
  0.000000000000000E+000
  0.000000000000000E+000
  0.000000000000000E+000
  0.000000000000000E+000
  0.000000000000000E+000
  0.000000000000000E+000
  0.000000000000000E+000
  0.000000000000000E+000
  0.000000000000000E+000
  0.000000000000000E+000
  0.000000000000000E+000
  0.000000000000000E+000
  0.000000000000000E+000
  0.000000000000000E+000
  0.000000000000000E+000
  0.000000000000000E+000
  0.000000000000000E+000
  0.000000000000000E+000
  0.000000000000000E+000
  0.000000000000000E+000
  0.000000000000000E+000
  0.000000000000000E+000
  0.000000000000000E+000
  0.000000000000000E+000
  0.000000000000000E+000
  0.000000000000000E+000
  0.000000000000000E+000
  0.000000000000000E+000
  0.000000000000000E+000
  0.000000000000000E+000
  0.000000000000000E+000
  0.000000000000000E+000
  0.000000000000000E+000
  0.000000000000000E+000
  0.000000000000000E+000
  0.000000000000000E+000
  0.000000000000000E+000
  0.000000000000000E+000
  0.000000000000000E+000
  0.000000000000000E+000
  0.000000000000000E+000
  0.000000000000000E+000
  0.000000000000000E+000
  0.000000000000000E+000
  0.000000000000000E+000
  0.000000000000000E+000
  0.000000000000000E+000
  0.000000000000000E+000
  0.000000000000000E+000
  0.000000000000000E+000
  0.000000000000000E+000
  0.000000000000000E+000
  0.000000000000000E+000
  0.000000000000000E+000
  0.000000000000000E+000
  0.000000000000000E+000
  0.000000000000000E+000
  0.000000000000000E+000
  0.000000000000000E+000
  0.000000000000000E+000
  0.000000000000000E+000
  0.000000000000000E+000
  0.000000000000000E+000
  0.000000000000000E+000
  0.000000000000000E+000
  0.000000000000000E+000
  0.000000000000000E+000
  0.000000000000000E+000
  0.000000000000000E+000
  0.000000000000000E+000
  0.000000000000000E+000
  0.000000000000000E+000
  0.000000000000000E+000
  0.000000000000000E+000
  0.000000000000000E+000
  0.000000000000000E+000
  0.000000000000000E+000
  0.000000000000000E+000
  0.000000000000000E+000
  0.000000000000000E+000
  0.000000000000000E+000
  0.000000000000000E+000
  0.000000000000000E+000
  0.000000000000000E+000
  0.000000000000000E+000
  0.000000000000000E+000
  0.000000000000000E+000
  0.000000000000000E+000
  0.000000000000000E+000
  0.000000000000000E+000
  0.000000000000000E+000
  0.000000000000000E+000
  0.000000000000000E+000
  0.000000000000000E+000
  0.000000000000000E+000
  0.000000000000000E+000
  0.000000000000000E+000
  0.000000000000000E+000
  0.000000000000000E+000
  0.000000000000000E+000
  0.000000000000000E+000
  0.000000000000000E+000
  0.000000000000000E+000
  0.000000000000000E+000
  0.000000000000000E+000
  0.000000000000000E+000
  0.000000000000000E+000
  0.000000000000000E+000
  0.000000000000000E+000
  0.000000000000000E+000
  0.000000000000000E+000
  0.000000000000000E+000
  0.000000000000000E+000
  0.000000000000000E+000
  0.000000000000000E+000
  0.000000000000000E+000
  0.000000000000000E+000
  0.000000000000000E+000
  0.000000000000000E+000
  0.000000000000000E+000
  0.000000000000000E+000
  0.000000000000000E+000
  0.000000000000000E+000
  0.000000000000000E+000
  0.000000000000000E+000
  0.000000000000000E+000
  0.000000000000000E+000
  0.000000000000000E+000
  0.000000000000000E+000
  0.000000000000000E+000
  0.000000000000000E+000
  0.000000000000000E+000
  0.000000000000000E+000
  0.000000000000000E+000
  0.000000000000000E+000
  0.000000000000000E+000
  0.000000000000000E+000
  0.000000000000000E+000
  0.000000000000000E+000
  0.000000000000000E+000
  0.000000000000000E+000
  0.000000000000000E+000
  0.000000000000000E+000
  0.000000000000000E+000
  0.000000000000000E+000
  0.000000000000000E+000
  0.000000000000000E+000
  0.000000000000000E+000
  0.000000000000000E+000
  0.000000000000000E+000
  0.000000000000000E+000
  0.000000000000000E+000
  0.000000000000000E+000
  0.000000000000000E+000
  0.000000000000000E+000
  0.000000000000000E+000
  0.000000000000000E+000
  0.000000000000000E+000
  0.000000000000000E+000
  0.000000000000000E+000
  0.000000000000000E+000
  0.000000000000000E+000
  0.000000000000000E+000
  0.000000000000000E+000
  0.000000000000000E+000
  0.000000000000000E+000
  0.000000000000000E+000
  0.000000000000000E+000
  0.000000000000000E+000
  0.000000000000000E+000
  0.000000000000000E+000
  0.000000000000000E+000
  0.000000000000000E+000
  0.000000000000000E+000
  0.000000000000000E+000
  0.000000000000000E+000
  0.000000000000000E+000
  0.000000000000000E+000
  0.000000000000000E+000
  0.000000000000000E+000
  0.000000000000000E+000
  0.000000000000000E+000
  0.000000000000000E+000
  0.000000000000000E+000
  0.000000000000000E+000
  0.000000000000000E+000
  0.000000000000000E+000
  0.000000000000000E+000
  0.000000000000000E+000
  0.000000000000000E+000
  0.000000000000000E+000
  0.000000000000000E+000
  0.000000000000000E+000
  0.000000000000000E+000
  0.000000000000000E+000
  0.000000000000000E+000
  0.000000000000000E+000
  0.000000000000000E+000
  0.000000000000000E+000
  0.000000000000000E+000
  0.000000000000000E+000
  0.000000000000000E+000
  0.000000000000000E+000
  0.000000000000000E+000
  0.000000000000000E+000
  0.000000000000000E+000
  0.000000000000000E+000
  0.000000000000000E+000
  0.000000000000000E+000
  0.000000000000000E+000
  0.000000000000000E+000
  0.000000000000000E+000
  0.000000000000000E+000
  0.000000000000000E+000
  0.000000000000000E+000
  0.000000000000000E+000
  0.000000000000000E+000
  0.000000000000000E+000
  0.000000000000000E+000
  0.000000000000000E+000
  0.000000000000000E+000
  0.000000000000000E+000
  0.000000000000000E+000
  0.000000000000000E+000
  0.000000000000000E+000
  0.000000000000000E+000
  0.000000000000000E+000
  0.000000000000000E+000
  0.000000000000000E+000
  0.000000000000000E+000
  0.000000000000000E+000
  0.000000000000000E+000
  0.000000000000000E+000
  0.000000000000000E+000
  0.000000000000000E+000
  0.000000000000000E+000
  0.000000000000000E+000
  0.000000000000000E+000
  0.000000000000000E+000
  0.000000000000000E+000
  0.000000000000000E+000
  0.000000000000000E+000
  0.000000000000000E+000
  0.000000000000000E+000
  0.000000000000000E+000
  0.000000000000000E+000
  0.000000000000000E+000
  0.000000000000000E+000
  0.000000000000000E+000
  0.000000000000000E+000
  0.000000000000000E+000
  0.000000000000000E+000
  0.000000000000000E+000
  0.000000000000000E+000
  0.000000000000000E+000
  0.000000000000000E+000
  0.000000000000000E+000
  0.000000000000000E+000
  0.000000000000000E+000
  0.000000000000000E+000
  0.000000000000000E+000
  0.000000000000000E+000
  0.000000000000000E+000
  0.000000000000000E+000
  0.000000000000000E+000
  0.000000000000000E+000
  0.000000000000000E+000
  0.000000000000000E+000
  0.000000000000000E+000
  0.000000000000000E+000
  0.000000000000000E+000
  0.000000000000000E+000
  0.000000000000000E+000
  0.000000000000000E+000
  0.000000000000000E+000
  0.000000000000000E+000
  0.000000000000000E+000
  0.000000000000000E+000
  0.000000000000000E+000
  0.000000000000000E+000
  0.000000000000000E+000
  0.000000000000000E+000
  0.000000000000000E+000
  0.000000000000000E+000
  0.000000000000000E+000
  0.000000000000000E+000
  0.000000000000000E+000
  0.000000000000000E+000
  0.000000000000000E+000
  0.000000000000000E+000
  0.000000000000000E+000
  0.000000000000000E+000
  0.000000000000000E+000
  0.000000000000000E+000
  0.000000000000000E+000
  0.000000000000000E+000
  0.000000000000000E+000
  0.000000000000000E+000
  0.000000000000000E+000
  0.000000000000000E+000
  0.000000000000000E+000
  0.000000000000000E+000
  0.000000000000000E+000
  0.000000000000000E+000
  0.000000000000000E+000
  0.000000000000000E+000
  0.000000000000000E+000
  0.000000000000000E+000
  0.000000000000000E+000
  0.000000000000000E+000
  0.000000000000000E+000
SCALARS poroL double 
LOOKUP_TABLE default
  0.155807692506551     
  0.155807692502077     
  0.155807692497863     
  0.155807692493898     
  0.155807692490175     
  0.155807692486681     
  0.155807692483408     
  0.155807692480344     
  0.155807692477478     
  0.155807692474802     
  0.155807692472304     
  0.155807692469975     
  0.155807692467806     
  0.155807692465789     
  0.155807692463915     
  0.155807692505778     
  0.155807692501324     
  0.155807692497129     
  0.155807692493184     
  0.155807692489480     
  0.155807692486006     
  0.155807692482752     
  0.155807692479706     
  0.155807692476858     
  0.155807692474199     
  0.155807692471717     
  0.155807692469403     
  0.155807692467248     
  0.155807692465243     
  0.155807692463382     
  0.155807692504233     
  0.155807692499818     
  0.155807692495663     
  0.155807692491758     
  0.155807692488094     
  0.155807692484658     
  0.155807692481442     
  0.155807692478433     
  0.155807692475620     
  0.155807692472994     
  0.155807692470544     
  0.155807692468260     
  0.155807692466133     
  0.155807692464155     
  0.155807692462317     
  0.155807692501920     
  0.155807692497564     
  0.155807692493469     
  0.155807692489624     
  0.155807692486019     
  0.155807692482642     
  0.155807692479483     
  0.155807692476529     
  0.155807692473770     
  0.155807692471194     
  0.155807692468792     
  0.155807692466553     
  0.155807692464468     
  0.155807692462528     
  0.155807692460727     
  0.155807692498843     
  0.155807692494567     
  0.155807692490552     
  0.155807692486788     
  0.155807692483263     
  0.155807692479964     
  0.155807692476881     
  0.155807692474001     
  0.155807692471313     
  0.155807692468805     
  0.155807692466467     
  0.155807692464288     
  0.155807692462259     
  0.155807692460371     
  0.155807692458616     
  0.155807692495009     
  0.155807692490834     
  0.155807692486920     
  0.155807692483258     
  0.155807692479833     
  0.155807692476633     
  0.155807692473646     
  0.155807692470860     
  0.155807692468261     
  0.155807692465838     
  0.155807692463579     
  0.155807692461475     
  0.155807692459516     
  0.155807692457692     
  0.155807692455996     
  0.155807692490425     
  0.155807692486372     
  0.155807692482582     
  0.155807692479043     
  0.155807692475740     
  0.155807692472660     
  0.155807692469790     
  0.155807692467116     
  0.155807692464624     
  0.155807692462303     
  0.155807692460141     
  0.155807692458127     
  0.155807692456251     
  0.155807692454504     
  0.155807692452878     
  0.155807692485102     
  0.155807692481193     
  0.155807692477550     
  0.155807692474156     
  0.155807692470997     
  0.155807692468058     
  0.155807692465325     
  0.155807692462783     
  0.155807692460419     
  0.155807692458218     
  0.155807692456168     
  0.155807692454259     
  0.155807692452480     
  0.155807692450821     
  0.155807692449276     
  0.155807692479049     
  0.155807692475309     
  0.155807692471835     
  0.155807692468610     
  0.155807692465618     
  0.155807692462844     
  0.155807692460269     
  0.155807692457880     
  0.155807692455661     
  0.155807692453598     
  0.155807692451678     
  0.155807692449888     
  0.155807692448220     
  0.155807692446662     
  0.155807692445208     
  0.155807692472280     
  0.155807692468733     
  0.155807692465454     
  0.155807692462423     
  0.155807692459622     
  0.155807692457034     
  0.155807692454641     
  0.155807692452426     
  0.155807692450372     
  0.155807692448465     
  0.155807692446691     
  0.155807692445037     
  0.155807692443492     
  0.155807692442046     
  0.155807692440693     
  0.155807692464808     
  0.155807692461482     
  0.155807692458423     
  0.155807692455611     
  0.155807692453027     
  0.155807692450650     
  0.155807692448461     
  0.155807692446442     
  0.155807692444574     
  0.155807692442842     
  0.155807692441231     
  0.155807692439727     
  0.155807692438319     
  0.155807692436998     
  0.155807692435755     
  0.155807692456650     
  0.155807692453571     
  0.155807692450761     
  0.155807692448197     
  0.155807692445856     
  0.155807692443716     
  0.155807692441755     
  0.155807692439954     
  0.155807692438293     
  0.155807692436755     
  0.155807692435324     
  0.155807692433986     
  0.155807692432729     
  0.155807692431543     
  0.155807692430419     
  0.155807692447821     
  0.155807692445021     
  0.155807692442490     
  0.155807692440203     
  0.155807692438133     
  0.155807692436256     
  0.155807692434549     
  0.155807692432990     
  0.155807692431558     
  0.155807692430234     
  0.155807692429001     
  0.155807692427845     
  0.155807692426752     
  0.155807692425711     
  0.155807692424715     
  0.155807692438341     
  0.155807692435853     
  0.155807692433634     
  0.155807692431654     
  0.155807692429885     
  0.155807692428300     
  0.155807692426874     
  0.155807692425581     
  0.155807692424400     
  0.155807692423310     
  0.155807692422294     
  0.155807692421335     
  0.155807692420420     
  0.155807692419536     
  0.155807692418676     
  0.155807692428231     
  0.155807692426091     
  0.155807692424218     
  0.155807692422580     
  0.155807692421144     
  0.155807692419881     
  0.155807692418762     
  0.155807692417761     
  0.155807692416854     
  0.155807692416020     
  0.155807692415239     
  0.155807692414494     
  0.155807692413770     
  0.155807692413055     
  0.155807692412339     
  0.155807692417514     
  0.155807692415761     
  0.155807692414273     
  0.155807692413012     
  0.155807692411943     
  0.155807692411033     
  0.155807692410251     
  0.155807692409568     
  0.155807692408960     
  0.155807692408402     
  0.155807692407875     
  0.155807692407361     
  0.155807692406842     
  0.155807692406307     
  0.155807692405744     
  0.155807692406215     
  0.155807692404893     
  0.155807692403831     
  0.155807692402986     
  0.155807692402320     
  0.155807692401795     
  0.155807692401380     
  0.155807692401043     
  0.155807692400757     
  0.155807692400499     
  0.155807692400246     
  0.155807692399979     
  0.155807692399681     
  0.155807692399337     
  0.155807692398936     
  0.155807692394363     
  0.155807692393519     
  0.155807692392928     
  0.155807692392541     
  0.155807692392315     
  0.155807692392211     
  0.155807692392193     
  0.155807692392229     
  0.155807692392292     
  0.155807692392355     
  0.155807692392396     
  0.155807692392394     
  0.155807692392332     
  0.155807692392193     
  0.155807692391963     
  0.155807692381990     
  0.155807692381677     
  0.155807692381604     
  0.155807692381720     
  0.155807692381975     
  0.155807692382327     
  0.155807692382739     
  0.155807692383177     
  0.155807692383611     
  0.155807692384018     
  0.155807692384373     
  0.155807692384656     
  0.155807692384846     
  0.155807692384926     
  0.155807692384879     
  0.155807692369132     
  0.155807692369407     
  0.155807692369907     
  0.155807692370573     
  0.155807692371352     
  0.155807692372197     
  0.155807692373069     
  0.155807692373936     
  0.155807692374767     
  0.155807692375539     
  0.155807692376229     
  0.155807692376814     
  0.155807692377275     
  0.155807692377590     
  0.155807692377741     
  0.155807692355829     
  0.155807692356757     
  0.155807692357889     
  0.155807692359157     
  0.155807692360502     
  0.155807692361877     
  0.155807692363241     
  0.155807692364562     
  0.155807692365813     
  0.155807692366971     
  0.155807692368014     
  0.155807692368922     
  0.155807692369672     
  0.155807692370242     
  0.155807692370607     
  0.155807692342129     
  0.155807692343783     
  0.155807692345610     
  0.155807692347535     
  0.155807692349493     
  0.155807692351434     
  0.155807692353318     
  0.155807692355116     
  0.155807692356805     
  0.155807692358366     
  0.155807692359781     
  0.155807692361031     
  0.155807692362092     
  0.155807692362939     
  0.155807692363542     
  0.155807692328083     
  0.155807692330547     
  0.155807692333143     
  0.155807692335784     
  0.155807692338401     
  0.155807692340940     
  0.155807692343367     
  0.155807692345658     
  0.155807692347799     
  0.155807692349777     
  0.155807692351579     
  0.155807692353190     
  0.155807692354587     
  0.155807692355739     
  0.155807692356610     
  0.155807692313754     
  0.155807692317126     
  0.155807692320574     
  0.155807692323995     
  0.155807692327313     
  0.155807692330478     
  0.155807692333464     
  0.155807692336257     
  0.155807692338854     
  0.155807692341255     
  0.155807692343455     
  0.155807692345445     
  0.155807692347203     
  0.155807692348696     
  0.155807692349876     
  0.155807692299213     
  0.155807692303614     
  0.155807692308010     
  0.155807692312278     
  0.155807692316336     
  0.155807692320144     
  0.155807692323690     
  0.155807692326979     
  0.155807692330025     
  0.155807692332844     
  0.155807692335446     
  0.155807692337830     
  0.155807692339979     
  0.155807692341856     
  0.155807692343400     
  0.155807692284547     
  0.155807692290134     
  0.155807692295593     
  0.155807692300774     
  0.155807692305598     
  0.155807692310047     
  0.155807692314135     
  0.155807692317895     
  0.155807692321366     
  0.155807692324583     
  0.155807692327578     
  0.155807692330364     
  0.155807692332936     
  0.155807692335253     
  0.155807692337239     
  0.155807692269867     
  0.155807692276856     
  0.155807692283516     
  0.155807692289667     
  0.155807692295254     
  0.155807692300309     
  0.155807692304892     
  0.155807692309074     
  0.155807692312922     
  0.155807692316498     
  0.155807692319857     
  0.155807692323043     
  0.155807692326067     
  0.155807692328898     
  0.155807692331436     
  0.155807692255336     
  0.155807692264052     
  0.155807692272067     
  0.155807692279195     
  0.155807692285483     
  0.155807692291061     
  0.155807692296056     
  0.155807692300580     
  0.155807692304733     
  0.155807692308603     
  0.155807692312274     
  0.155807692315823     
  0.155807692319318     
  0.155807692322750     
  0.155807692326010     
  0.155807692241257     
  0.155807692252233     
  0.155807692261683     
  0.155807692269640     
  0.155807692276471     
  0.155807692282431     
  0.155807692287715     
  0.155807692292473     
  0.155807692296832     
  0.155807692300904     
  0.155807692304798     
  0.155807692308629     
  0.155807692312531     
  0.155807692316690     
  0.155807692320916     
  0.155807692228728     
  0.155807692242488     
  0.155807692252840     
  0.155807692261273     
  0.155807692268384     
  0.155807692274528     
  0.155807692279941     
  0.155807692284799     
  0.155807692289245     
  0.155807692293403     
  0.155807692297399     
  0.155807692301373     
  0.155807692305515     
  0.155807692310132     
  0.155807692316113     
