# vtk DataFile Version 3.0
vtk output
ASCII
DATASET UNSTRUCTURED_GRID
POINTS       496 double 
  0.00000000E+00  3.00000000E+02  0.00000000E+00
  0.00000000E+00  2.80000000E+02  0.00000000E+00
  0.00000000E+00  2.60000000E+02  0.00000000E+00
  0.00000000E+00  2.40000000E+02  0.00000000E+00
  0.00000000E+00  2.20000000E+02  0.00000000E+00
  0.00000000E+00  2.00000000E+02  0.00000000E+00
  0.00000000E+00  1.80000000E+02  0.00000000E+00
  0.00000000E+00  1.60000000E+02  0.00000000E+00
  0.00000000E+00  1.40000000E+02  0.00000000E+00
  0.00000000E+00  1.20000000E+02  0.00000000E+00
  0.00000000E+00  1.00000000E+02  0.00000000E+00
  0.00000000E+00  8.00000000E+01  0.00000000E+00
  0.00000000E+00  6.00000000E+01  0.00000000E+00
  0.00000000E+00  4.00000000E+01  0.00000000E+00
  0.00000000E+00  2.00000000E+01  0.00000000E+00
  0.00000000E+00  4.99600361E-14  0.00000000E+00
  2.00000000E+01  3.00000000E+02  0.00000000E+00
  2.00000000E+01  2.80000000E+02  0.00000000E+00
  2.00000000E+01  2.60000000E+02  0.00000000E+00
  2.00000000E+01  2.40000000E+02  0.00000000E+00
  2.00000000E+01  2.20000000E+02  0.00000000E+00
  2.00000000E+01  2.00000000E+02  0.00000000E+00
  2.00000000E+01  1.80000000E+02  0.00000000E+00
  2.00000000E+01  1.60000000E+02  0.00000000E+00
  2.00000000E+01  1.40000000E+02  0.00000000E+00
  2.00000000E+01  1.20000000E+02  0.00000000E+00
  2.00000000E+01  1.00000000E+02  0.00000000E+00
  2.00000000E+01  8.00000000E+01  0.00000000E+00
  2.00000000E+01  6.00000000E+01  0.00000000E+00
  2.00000000E+01  4.00000000E+01  0.00000000E+00
  2.00000000E+01  2.00000000E+01  0.00000000E+00
  2.00000000E+01  4.99600361E-14  0.00000000E+00
  4.00000000E+01  3.00000000E+02  0.00000000E+00
  4.00000000E+01  2.80000000E+02  0.00000000E+00
  4.00000000E+01  2.60000000E+02  0.00000000E+00
  4.00000000E+01  2.40000000E+02  0.00000000E+00
  4.00000000E+01  2.20000000E+02  0.00000000E+00
  4.00000000E+01  2.00000000E+02  0.00000000E+00
  4.00000000E+01  1.80000000E+02  0.00000000E+00
  4.00000000E+01  1.60000000E+02  0.00000000E+00
  4.00000000E+01  1.40000000E+02  0.00000000E+00
  4.00000000E+01  1.20000000E+02  0.00000000E+00
  4.00000000E+01  1.00000000E+02  0.00000000E+00
  4.00000000E+01  8.00000000E+01  0.00000000E+00
  4.00000000E+01  6.00000000E+01  0.00000000E+00
  4.00000000E+01  4.00000000E+01  0.00000000E+00
  4.00000000E+01  2.00000000E+01  0.00000000E+00
  4.00000000E+01  4.99600361E-14  0.00000000E+00
  6.00000000E+01  3.00000000E+02  0.00000000E+00
  6.00000000E+01  2.80000000E+02  0.00000000E+00
  6.00000000E+01  2.60000000E+02  0.00000000E+00
  6.00000000E+01  2.40000000E+02  0.00000000E+00
  6.00000000E+01  2.20000000E+02  0.00000000E+00
  6.00000000E+01  2.00000000E+02  0.00000000E+00
  6.00000000E+01  1.80000000E+02  0.00000000E+00
  6.00000000E+01  1.60000000E+02  0.00000000E+00
  6.00000000E+01  1.40000000E+02  0.00000000E+00
  6.00000000E+01  1.20000000E+02  0.00000000E+00
  6.00000000E+01  1.00000000E+02  0.00000000E+00
  6.00000000E+01  8.00000000E+01  0.00000000E+00
  6.00000000E+01  6.00000000E+01  0.00000000E+00
  6.00000000E+01  4.00000000E+01  0.00000000E+00
  6.00000000E+01  2.00000000E+01  0.00000000E+00
  6.00000000E+01  4.99600361E-14  0.00000000E+00
  8.00000000E+01  3.00000000E+02  0.00000000E+00
  8.00000000E+01  2.80000000E+02  0.00000000E+00
  8.00000000E+01  2.60000000E+02  0.00000000E+00
  8.00000000E+01  2.40000000E+02  0.00000000E+00
  8.00000000E+01  2.20000000E+02  0.00000000E+00
  8.00000000E+01  2.00000000E+02  0.00000000E+00
  8.00000000E+01  1.80000000E+02  0.00000000E+00
  8.00000000E+01  1.60000000E+02  0.00000000E+00
  8.00000000E+01  1.40000000E+02  0.00000000E+00
  8.00000000E+01  1.20000000E+02  0.00000000E+00
  8.00000000E+01  1.00000000E+02  0.00000000E+00
  8.00000000E+01  8.00000000E+01  0.00000000E+00
  8.00000000E+01  6.00000000E+01  0.00000000E+00
  8.00000000E+01  4.00000000E+01  0.00000000E+00
  8.00000000E+01  2.00000000E+01  0.00000000E+00
  8.00000000E+01  4.99600361E-14  0.00000000E+00
  1.00000000E+02  3.00000000E+02  0.00000000E+00
  1.00000000E+02  2.80000000E+02  0.00000000E+00
  1.00000000E+02  2.60000000E+02  0.00000000E+00
  1.00000000E+02  2.40000000E+02  0.00000000E+00
  1.00000000E+02  2.20000000E+02  0.00000000E+00
  1.00000000E+02  2.00000000E+02  0.00000000E+00
  1.00000000E+02  1.80000000E+02  0.00000000E+00
  1.00000000E+02  1.60000000E+02  0.00000000E+00
  1.00000000E+02  1.40000000E+02  0.00000000E+00
  1.00000000E+02  1.20000000E+02  0.00000000E+00
  1.00000000E+02  1.00000000E+02  0.00000000E+00
  1.00000000E+02  8.00000000E+01  0.00000000E+00
  1.00000000E+02  6.00000000E+01  0.00000000E+00
  1.00000000E+02  4.00000000E+01  0.00000000E+00
  1.00000000E+02  2.00000000E+01  0.00000000E+00
  1.00000000E+02  4.99600361E-14  0.00000000E+00
  1.20000000E+02  3.00000000E+02  0.00000000E+00
  1.20000000E+02  2.80000000E+02  0.00000000E+00
  1.20000000E+02  2.60000000E+02  0.00000000E+00
  1.20000000E+02  2.40000000E+02  0.00000000E+00
  1.20000000E+02  2.20000000E+02  0.00000000E+00
  1.20000000E+02  2.00000000E+02  0.00000000E+00
  1.20000000E+02  1.80000000E+02  0.00000000E+00
  1.20000000E+02  1.60000000E+02  0.00000000E+00
  1.20000000E+02  1.40000000E+02  0.00000000E+00
  1.20000000E+02  1.20000000E+02  0.00000000E+00
  1.20000000E+02  1.00000000E+02  0.00000000E+00
  1.20000000E+02  8.00000000E+01  0.00000000E+00
  1.20000000E+02  6.00000000E+01  0.00000000E+00
  1.20000000E+02  4.00000000E+01  0.00000000E+00
  1.20000000E+02  2.00000000E+01  0.00000000E+00
  1.20000000E+02  4.99600361E-14  0.00000000E+00
  1.40000000E+02  3.00000000E+02  0.00000000E+00
  1.40000000E+02  2.80000000E+02  0.00000000E+00
  1.40000000E+02  2.60000000E+02  0.00000000E+00
  1.40000000E+02  2.40000000E+02  0.00000000E+00
  1.40000000E+02  2.20000000E+02  0.00000000E+00
  1.40000000E+02  2.00000000E+02  0.00000000E+00
  1.40000000E+02  1.80000000E+02  0.00000000E+00
  1.40000000E+02  1.60000000E+02  0.00000000E+00
  1.40000000E+02  1.40000000E+02  0.00000000E+00
  1.40000000E+02  1.20000000E+02  0.00000000E+00
  1.40000000E+02  1.00000000E+02  0.00000000E+00
  1.40000000E+02  8.00000000E+01  0.00000000E+00
  1.40000000E+02  6.00000000E+01  0.00000000E+00
  1.40000000E+02  4.00000000E+01  0.00000000E+00
  1.40000000E+02  2.00000000E+01  0.00000000E+00
  1.40000000E+02  4.99600361E-14  0.00000000E+00
  1.60000000E+02  3.00000000E+02  0.00000000E+00
  1.60000000E+02  2.80000000E+02  0.00000000E+00
  1.60000000E+02  2.60000000E+02  0.00000000E+00
  1.60000000E+02  2.40000000E+02  0.00000000E+00
  1.60000000E+02  2.20000000E+02  0.00000000E+00
  1.60000000E+02  2.00000000E+02  0.00000000E+00
  1.60000000E+02  1.80000000E+02  0.00000000E+00
  1.60000000E+02  1.60000000E+02  0.00000000E+00
  1.60000000E+02  1.40000000E+02  0.00000000E+00
  1.60000000E+02  1.20000000E+02  0.00000000E+00
  1.60000000E+02  1.00000000E+02  0.00000000E+00
  1.60000000E+02  8.00000000E+01  0.00000000E+00
  1.60000000E+02  6.00000000E+01  0.00000000E+00
  1.60000000E+02  4.00000000E+01  0.00000000E+00
  1.60000000E+02  2.00000000E+01  0.00000000E+00
  1.60000000E+02  4.99600361E-14  0.00000000E+00
  1.80000000E+02  3.00000000E+02  0.00000000E+00
  1.80000000E+02  2.80000000E+02  0.00000000E+00
  1.80000000E+02  2.60000000E+02  0.00000000E+00
  1.80000000E+02  2.40000000E+02  0.00000000E+00
  1.80000000E+02  2.20000000E+02  0.00000000E+00
  1.80000000E+02  2.00000000E+02  0.00000000E+00
  1.80000000E+02  1.80000000E+02  0.00000000E+00
  1.80000000E+02  1.60000000E+02  0.00000000E+00
  1.80000000E+02  1.40000000E+02  0.00000000E+00
  1.80000000E+02  1.20000000E+02  0.00000000E+00
  1.80000000E+02  1.00000000E+02  0.00000000E+00
  1.80000000E+02  8.00000000E+01  0.00000000E+00
  1.80000000E+02  6.00000000E+01  0.00000000E+00
  1.80000000E+02  4.00000000E+01  0.00000000E+00
  1.80000000E+02  2.00000000E+01  0.00000000E+00
  1.80000000E+02  4.99600361E-14  0.00000000E+00
  2.00000000E+02  3.00000000E+02  0.00000000E+00
  2.00000000E+02  2.80000000E+02  0.00000000E+00
  2.00000000E+02  2.60000000E+02  0.00000000E+00
  2.00000000E+02  2.40000000E+02  0.00000000E+00
  2.00000000E+02  2.20000000E+02  0.00000000E+00
  2.00000000E+02  2.00000000E+02  0.00000000E+00
  2.00000000E+02  1.80000000E+02  0.00000000E+00
  2.00000000E+02  1.60000000E+02  0.00000000E+00
  2.00000000E+02  1.40000000E+02  0.00000000E+00
  2.00000000E+02  1.20000000E+02  0.00000000E+00
  2.00000000E+02  1.00000000E+02  0.00000000E+00
  2.00000000E+02  8.00000000E+01  0.00000000E+00
  2.00000000E+02  6.00000000E+01  0.00000000E+00
  2.00000000E+02  4.00000000E+01  0.00000000E+00
  2.00000000E+02  2.00000000E+01  0.00000000E+00
  2.00000000E+02  4.99600361E-14  0.00000000E+00
  2.20000000E+02  3.00000000E+02  0.00000000E+00
  2.20000000E+02  2.80000000E+02  0.00000000E+00
  2.20000000E+02  2.60000000E+02  0.00000000E+00
  2.20000000E+02  2.40000000E+02  0.00000000E+00
  2.20000000E+02  2.20000000E+02  0.00000000E+00
  2.20000000E+02  2.00000000E+02  0.00000000E+00
  2.20000000E+02  1.80000000E+02  0.00000000E+00
  2.20000000E+02  1.60000000E+02  0.00000000E+00
  2.20000000E+02  1.40000000E+02  0.00000000E+00
  2.20000000E+02  1.20000000E+02  0.00000000E+00
  2.20000000E+02  1.00000000E+02  0.00000000E+00
  2.20000000E+02  8.00000000E+01  0.00000000E+00
  2.20000000E+02  6.00000000E+01  0.00000000E+00
  2.20000000E+02  4.00000000E+01  0.00000000E+00
  2.20000000E+02  2.00000000E+01  0.00000000E+00
  2.20000000E+02  4.99600361E-14  0.00000000E+00
  2.40000000E+02  3.00000000E+02  0.00000000E+00
  2.40000000E+02  2.80000000E+02  0.00000000E+00
  2.40000000E+02  2.60000000E+02  0.00000000E+00
  2.40000000E+02  2.40000000E+02  0.00000000E+00
  2.40000000E+02  2.20000000E+02  0.00000000E+00
  2.40000000E+02  2.00000000E+02  0.00000000E+00
  2.40000000E+02  1.80000000E+02  0.00000000E+00
  2.40000000E+02  1.60000000E+02  0.00000000E+00
  2.40000000E+02  1.40000000E+02  0.00000000E+00
  2.40000000E+02  1.20000000E+02  0.00000000E+00
  2.40000000E+02  1.00000000E+02  0.00000000E+00
  2.40000000E+02  8.00000000E+01  0.00000000E+00
  2.40000000E+02  6.00000000E+01  0.00000000E+00
  2.40000000E+02  4.00000000E+01  0.00000000E+00
  2.40000000E+02  2.00000000E+01  0.00000000E+00
  2.40000000E+02  4.99600361E-14  0.00000000E+00
  2.60000000E+02  3.00000000E+02  0.00000000E+00
  2.60000000E+02  2.80000000E+02  0.00000000E+00
  2.60000000E+02  2.60000000E+02  0.00000000E+00
  2.60000000E+02  2.40000000E+02  0.00000000E+00
  2.60000000E+02  2.20000000E+02  0.00000000E+00
  2.60000000E+02  2.00000000E+02  0.00000000E+00
  2.60000000E+02  1.80000000E+02  0.00000000E+00
  2.60000000E+02  1.60000000E+02  0.00000000E+00
  2.60000000E+02  1.40000000E+02  0.00000000E+00
  2.60000000E+02  1.20000000E+02  0.00000000E+00
  2.60000000E+02  1.00000000E+02  0.00000000E+00
  2.60000000E+02  8.00000000E+01  0.00000000E+00
  2.60000000E+02  6.00000000E+01  0.00000000E+00
  2.60000000E+02  4.00000000E+01  0.00000000E+00
  2.60000000E+02  2.00000000E+01  0.00000000E+00
  2.60000000E+02  4.99600361E-14  0.00000000E+00
  2.80000000E+02  3.00000000E+02  0.00000000E+00
  2.80000000E+02  2.80000000E+02  0.00000000E+00
  2.80000000E+02  2.60000000E+02  0.00000000E+00
  2.80000000E+02  2.40000000E+02  0.00000000E+00
  2.80000000E+02  2.20000000E+02  0.00000000E+00
  2.80000000E+02  2.00000000E+02  0.00000000E+00
  2.80000000E+02  1.80000000E+02  0.00000000E+00
  2.80000000E+02  1.60000000E+02  0.00000000E+00
  2.80000000E+02  1.40000000E+02  0.00000000E+00
  2.80000000E+02  1.20000000E+02  0.00000000E+00
  2.80000000E+02  1.00000000E+02  0.00000000E+00
  2.80000000E+02  8.00000000E+01  0.00000000E+00
  2.80000000E+02  6.00000000E+01  0.00000000E+00
  2.80000000E+02  4.00000000E+01  0.00000000E+00
  2.80000000E+02  2.00000000E+01  0.00000000E+00
  2.80000000E+02  4.99600361E-14  0.00000000E+00
  3.00000000E+02  3.00000000E+02  0.00000000E+00
  3.00000000E+02  2.80000000E+02  0.00000000E+00
  3.00000000E+02  2.60000000E+02  0.00000000E+00
  3.00000000E+02  2.40000000E+02  0.00000000E+00
  3.00000000E+02  2.20000000E+02  0.00000000E+00
  3.00000000E+02  2.00000000E+02  0.00000000E+00
  3.00000000E+02  1.80000000E+02  0.00000000E+00
  3.00000000E+02  1.60000000E+02  0.00000000E+00
  3.00000000E+02  1.40000000E+02  0.00000000E+00
  3.00000000E+02  1.20000000E+02  0.00000000E+00
  3.00000000E+02  1.00000000E+02  0.00000000E+00
  3.00000000E+02  8.00000000E+01  0.00000000E+00
  3.00000000E+02  6.00000000E+01  0.00000000E+00
  3.00000000E+02  4.00000000E+01  0.00000000E+00
  3.00000000E+02  2.00000000E+01  0.00000000E+00
  3.00000000E+02  4.99600361E-14  0.00000000E+00
  3.20000000E+02  3.00000000E+02  0.00000000E+00
  3.20000000E+02  2.80000000E+02  0.00000000E+00
  3.20000000E+02  2.60000000E+02  0.00000000E+00
  3.20000000E+02  2.40000000E+02  0.00000000E+00
  3.20000000E+02  2.20000000E+02  0.00000000E+00
  3.20000000E+02  2.00000000E+02  0.00000000E+00
  3.20000000E+02  1.80000000E+02  0.00000000E+00
  3.20000000E+02  1.60000000E+02  0.00000000E+00
  3.20000000E+02  1.40000000E+02  0.00000000E+00
  3.20000000E+02  1.20000000E+02  0.00000000E+00
  3.20000000E+02  1.00000000E+02  0.00000000E+00
  3.20000000E+02  8.00000000E+01  0.00000000E+00
  3.20000000E+02  6.00000000E+01  0.00000000E+00
  3.20000000E+02  4.00000000E+01  0.00000000E+00
  3.20000000E+02  2.00000000E+01  0.00000000E+00
  3.20000000E+02  4.99600361E-14  0.00000000E+00
  3.40000000E+02  3.00000000E+02  0.00000000E+00
  3.40000000E+02  2.80000000E+02  0.00000000E+00
  3.40000000E+02  2.60000000E+02  0.00000000E+00
  3.40000000E+02  2.40000000E+02  0.00000000E+00
  3.40000000E+02  2.20000000E+02  0.00000000E+00
  3.40000000E+02  2.00000000E+02  0.00000000E+00
  3.40000000E+02  1.80000000E+02  0.00000000E+00
  3.40000000E+02  1.60000000E+02  0.00000000E+00
  3.40000000E+02  1.40000000E+02  0.00000000E+00
  3.40000000E+02  1.20000000E+02  0.00000000E+00
  3.40000000E+02  1.00000000E+02  0.00000000E+00
  3.40000000E+02  8.00000000E+01  0.00000000E+00
  3.40000000E+02  6.00000000E+01  0.00000000E+00
  3.40000000E+02  4.00000000E+01  0.00000000E+00
  3.40000000E+02  2.00000000E+01  0.00000000E+00
  3.40000000E+02  4.99600361E-14  0.00000000E+00
  3.60000000E+02  3.00000000E+02  0.00000000E+00
  3.60000000E+02  2.80000000E+02  0.00000000E+00
  3.60000000E+02  2.60000000E+02  0.00000000E+00
  3.60000000E+02  2.40000000E+02  0.00000000E+00
  3.60000000E+02  2.20000000E+02  0.00000000E+00
  3.60000000E+02  2.00000000E+02  0.00000000E+00
  3.60000000E+02  1.80000000E+02  0.00000000E+00
  3.60000000E+02  1.60000000E+02  0.00000000E+00
  3.60000000E+02  1.40000000E+02  0.00000000E+00
  3.60000000E+02  1.20000000E+02  0.00000000E+00
  3.60000000E+02  1.00000000E+02  0.00000000E+00
  3.60000000E+02  8.00000000E+01  0.00000000E+00
  3.60000000E+02  6.00000000E+01  0.00000000E+00
  3.60000000E+02  4.00000000E+01  0.00000000E+00
  3.60000000E+02  2.00000000E+01  0.00000000E+00
  3.60000000E+02  4.99600361E-14  0.00000000E+00
  3.80000000E+02  3.00000000E+02  0.00000000E+00
  3.80000000E+02  2.80000000E+02  0.00000000E+00
  3.80000000E+02  2.60000000E+02  0.00000000E+00
  3.80000000E+02  2.40000000E+02  0.00000000E+00
  3.80000000E+02  2.20000000E+02  0.00000000E+00
  3.80000000E+02  2.00000000E+02  0.00000000E+00
  3.80000000E+02  1.80000000E+02  0.00000000E+00
  3.80000000E+02  1.60000000E+02  0.00000000E+00
  3.80000000E+02  1.40000000E+02  0.00000000E+00
  3.80000000E+02  1.20000000E+02  0.00000000E+00
  3.80000000E+02  1.00000000E+02  0.00000000E+00
  3.80000000E+02  8.00000000E+01  0.00000000E+00
  3.80000000E+02  6.00000000E+01  0.00000000E+00
  3.80000000E+02  4.00000000E+01  0.00000000E+00
  3.80000000E+02  2.00000000E+01  0.00000000E+00
  3.80000000E+02  4.99600361E-14  0.00000000E+00
  4.00000000E+02  3.00000000E+02  0.00000000E+00
  4.00000000E+02  2.80000000E+02  0.00000000E+00
  4.00000000E+02  2.60000000E+02  0.00000000E+00
  4.00000000E+02  2.40000000E+02  0.00000000E+00
  4.00000000E+02  2.20000000E+02  0.00000000E+00
  4.00000000E+02  2.00000000E+02  0.00000000E+00
  4.00000000E+02  1.80000000E+02  0.00000000E+00
  4.00000000E+02  1.60000000E+02  0.00000000E+00
  4.00000000E+02  1.40000000E+02  0.00000000E+00
  4.00000000E+02  1.20000000E+02  0.00000000E+00
  4.00000000E+02  1.00000000E+02  0.00000000E+00
  4.00000000E+02  8.00000000E+01  0.00000000E+00
  4.00000000E+02  6.00000000E+01  0.00000000E+00
  4.00000000E+02  4.00000000E+01  0.00000000E+00
  4.00000000E+02  2.00000000E+01  0.00000000E+00
  4.00000000E+02  4.99600361E-14  0.00000000E+00
  4.20000000E+02  3.00000000E+02  0.00000000E+00
  4.20000000E+02  2.80000000E+02  0.00000000E+00
  4.20000000E+02  2.60000000E+02  0.00000000E+00
  4.20000000E+02  2.40000000E+02  0.00000000E+00
  4.20000000E+02  2.20000000E+02  0.00000000E+00
  4.20000000E+02  2.00000000E+02  0.00000000E+00
  4.20000000E+02  1.80000000E+02  0.00000000E+00
  4.20000000E+02  1.60000000E+02  0.00000000E+00
  4.20000000E+02  1.40000000E+02  0.00000000E+00
  4.20000000E+02  1.20000000E+02  0.00000000E+00
  4.20000000E+02  1.00000000E+02  0.00000000E+00
  4.20000000E+02  8.00000000E+01  0.00000000E+00
  4.20000000E+02  6.00000000E+01  0.00000000E+00
  4.20000000E+02  4.00000000E+01  0.00000000E+00
  4.20000000E+02  2.00000000E+01  0.00000000E+00
  4.20000000E+02  4.99600361E-14  0.00000000E+00
  4.40000000E+02  3.00000000E+02  0.00000000E+00
  4.40000000E+02  2.80000000E+02  0.00000000E+00
  4.40000000E+02  2.60000000E+02  0.00000000E+00
  4.40000000E+02  2.40000000E+02  0.00000000E+00
  4.40000000E+02  2.20000000E+02  0.00000000E+00
  4.40000000E+02  2.00000000E+02  0.00000000E+00
  4.40000000E+02  1.80000000E+02  0.00000000E+00
  4.40000000E+02  1.60000000E+02  0.00000000E+00
  4.40000000E+02  1.40000000E+02  0.00000000E+00
  4.40000000E+02  1.20000000E+02  0.00000000E+00
  4.40000000E+02  1.00000000E+02  0.00000000E+00
  4.40000000E+02  8.00000000E+01  0.00000000E+00
  4.40000000E+02  6.00000000E+01  0.00000000E+00
  4.40000000E+02  4.00000000E+01  0.00000000E+00
  4.40000000E+02  2.00000000E+01  0.00000000E+00
  4.40000000E+02  4.99600361E-14  0.00000000E+00
  4.60000000E+02  3.00000000E+02  0.00000000E+00
  4.60000000E+02  2.80000000E+02  0.00000000E+00
  4.60000000E+02  2.60000000E+02  0.00000000E+00
  4.60000000E+02  2.40000000E+02  0.00000000E+00
  4.60000000E+02  2.20000000E+02  0.00000000E+00
  4.60000000E+02  2.00000000E+02  0.00000000E+00
  4.60000000E+02  1.80000000E+02  0.00000000E+00
  4.60000000E+02  1.60000000E+02  0.00000000E+00
  4.60000000E+02  1.40000000E+02  0.00000000E+00
  4.60000000E+02  1.20000000E+02  0.00000000E+00
  4.60000000E+02  1.00000000E+02  0.00000000E+00
  4.60000000E+02  8.00000000E+01  0.00000000E+00
  4.60000000E+02  6.00000000E+01  0.00000000E+00
  4.60000000E+02  4.00000000E+01  0.00000000E+00
  4.60000000E+02  2.00000000E+01  0.00000000E+00
  4.60000000E+02  4.99600361E-14  0.00000000E+00
  4.80000000E+02  3.00000000E+02  0.00000000E+00
  4.80000000E+02  2.80000000E+02  0.00000000E+00
  4.80000000E+02  2.60000000E+02  0.00000000E+00
  4.80000000E+02  2.40000000E+02  0.00000000E+00
  4.80000000E+02  2.20000000E+02  0.00000000E+00
  4.80000000E+02  2.00000000E+02  0.00000000E+00
  4.80000000E+02  1.80000000E+02  0.00000000E+00
  4.80000000E+02  1.60000000E+02  0.00000000E+00
  4.80000000E+02  1.40000000E+02  0.00000000E+00
  4.80000000E+02  1.20000000E+02  0.00000000E+00
  4.80000000E+02  1.00000000E+02  0.00000000E+00
  4.80000000E+02  8.00000000E+01  0.00000000E+00
  4.80000000E+02  6.00000000E+01  0.00000000E+00
  4.80000000E+02  4.00000000E+01  0.00000000E+00
  4.80000000E+02  2.00000000E+01  0.00000000E+00
  4.80000000E+02  4.99600361E-14  0.00000000E+00
  5.00000000E+02  3.00000000E+02  0.00000000E+00
  5.00000000E+02  2.80000000E+02  0.00000000E+00
  5.00000000E+02  2.60000000E+02  0.00000000E+00
  5.00000000E+02  2.40000000E+02  0.00000000E+00
  5.00000000E+02  2.20000000E+02  0.00000000E+00
  5.00000000E+02  2.00000000E+02  0.00000000E+00
  5.00000000E+02  1.80000000E+02  0.00000000E+00
  5.00000000E+02  1.60000000E+02  0.00000000E+00
  5.00000000E+02  1.40000000E+02  0.00000000E+00
  5.00000000E+02  1.20000000E+02  0.00000000E+00
  5.00000000E+02  1.00000000E+02  0.00000000E+00
  5.00000000E+02  8.00000000E+01  0.00000000E+00
  5.00000000E+02  6.00000000E+01  0.00000000E+00
  5.00000000E+02  4.00000000E+01  0.00000000E+00
  5.00000000E+02  2.00000000E+01  0.00000000E+00
  5.00000000E+02  4.99600361E-14  0.00000000E+00
  5.20000000E+02  3.00000000E+02  0.00000000E+00
  5.20000000E+02  2.80000000E+02  0.00000000E+00
  5.20000000E+02  2.60000000E+02  0.00000000E+00
  5.20000000E+02  2.40000000E+02  0.00000000E+00
  5.20000000E+02  2.20000000E+02  0.00000000E+00
  5.20000000E+02  2.00000000E+02  0.00000000E+00
  5.20000000E+02  1.80000000E+02  0.00000000E+00
  5.20000000E+02  1.60000000E+02  0.00000000E+00
  5.20000000E+02  1.40000000E+02  0.00000000E+00
  5.20000000E+02  1.20000000E+02  0.00000000E+00
  5.20000000E+02  1.00000000E+02  0.00000000E+00
  5.20000000E+02  8.00000000E+01  0.00000000E+00
  5.20000000E+02  6.00000000E+01  0.00000000E+00
  5.20000000E+02  4.00000000E+01  0.00000000E+00
  5.20000000E+02  2.00000000E+01  0.00000000E+00
  5.20000000E+02  4.99600361E-14  0.00000000E+00
  5.40000000E+02  3.00000000E+02  0.00000000E+00
  5.40000000E+02  2.80000000E+02  0.00000000E+00
  5.40000000E+02  2.60000000E+02  0.00000000E+00
  5.40000000E+02  2.40000000E+02  0.00000000E+00
  5.40000000E+02  2.20000000E+02  0.00000000E+00
  5.40000000E+02  2.00000000E+02  0.00000000E+00
  5.40000000E+02  1.80000000E+02  0.00000000E+00
  5.40000000E+02  1.60000000E+02  0.00000000E+00
  5.40000000E+02  1.40000000E+02  0.00000000E+00
  5.40000000E+02  1.20000000E+02  0.00000000E+00
  5.40000000E+02  1.00000000E+02  0.00000000E+00
  5.40000000E+02  8.00000000E+01  0.00000000E+00
  5.40000000E+02  6.00000000E+01  0.00000000E+00
  5.40000000E+02  4.00000000E+01  0.00000000E+00
  5.40000000E+02  2.00000000E+01  0.00000000E+00
  5.40000000E+02  4.99600361E-14  0.00000000E+00
  5.60000000E+02  3.00000000E+02  0.00000000E+00
  5.60000000E+02  2.80000000E+02  0.00000000E+00
  5.60000000E+02  2.60000000E+02  0.00000000E+00
  5.60000000E+02  2.40000000E+02  0.00000000E+00
  5.60000000E+02  2.20000000E+02  0.00000000E+00
  5.60000000E+02  2.00000000E+02  0.00000000E+00
  5.60000000E+02  1.80000000E+02  0.00000000E+00
  5.60000000E+02  1.60000000E+02  0.00000000E+00
  5.60000000E+02  1.40000000E+02  0.00000000E+00
  5.60000000E+02  1.20000000E+02  0.00000000E+00
  5.60000000E+02  1.00000000E+02  0.00000000E+00
  5.60000000E+02  8.00000000E+01  0.00000000E+00
  5.60000000E+02  6.00000000E+01  0.00000000E+00
  5.60000000E+02  4.00000000E+01  0.00000000E+00
  5.60000000E+02  2.00000000E+01  0.00000000E+00
  5.60000000E+02  4.99600361E-14  0.00000000E+00
  5.80000000E+02  3.00000000E+02  0.00000000E+00
  5.80000000E+02  2.80000000E+02  0.00000000E+00
  5.80000000E+02  2.60000000E+02  0.00000000E+00
  5.80000000E+02  2.40000000E+02  0.00000000E+00
  5.80000000E+02  2.20000000E+02  0.00000000E+00
  5.80000000E+02  2.00000000E+02  0.00000000E+00
  5.80000000E+02  1.80000000E+02  0.00000000E+00
  5.80000000E+02  1.60000000E+02  0.00000000E+00
  5.80000000E+02  1.40000000E+02  0.00000000E+00
  5.80000000E+02  1.20000000E+02  0.00000000E+00
  5.80000000E+02  1.00000000E+02  0.00000000E+00
  5.80000000E+02  8.00000000E+01  0.00000000E+00
  5.80000000E+02  6.00000000E+01  0.00000000E+00
  5.80000000E+02  4.00000000E+01  0.00000000E+00
  5.80000000E+02  2.00000000E+01  0.00000000E+00
  5.80000000E+02  4.99600361E-14  0.00000000E+00
  6.00000000E+02  3.00000000E+02  0.00000000E+00
  6.00000000E+02  2.80000000E+02  0.00000000E+00
  6.00000000E+02  2.60000000E+02  0.00000000E+00
  6.00000000E+02  2.40000000E+02  0.00000000E+00
  6.00000000E+02  2.20000000E+02  0.00000000E+00
  6.00000000E+02  2.00000000E+02  0.00000000E+00
  6.00000000E+02  1.80000000E+02  0.00000000E+00
  6.00000000E+02  1.60000000E+02  0.00000000E+00
  6.00000000E+02  1.40000000E+02  0.00000000E+00
  6.00000000E+02  1.20000000E+02  0.00000000E+00
  6.00000000E+02  1.00000000E+02  0.00000000E+00
  6.00000000E+02  8.00000000E+01  0.00000000E+00
  6.00000000E+02  6.00000000E+01  0.00000000E+00
  6.00000000E+02  4.00000000E+01  0.00000000E+00
  6.00000000E+02  2.00000000E+01  0.00000000E+00
  6.00000000E+02  4.99600361E-14  0.00000000E+00
CELLS       450      2250
         4           0           1          17          16
         4           1           2          18          17
         4           2           3          19          18
         4           3           4          20          19
         4           4           5          21          20
         4           5           6          22          21
         4           6           7          23          22
         4           7           8          24          23
         4           8           9          25          24
         4           9          10          26          25
         4          10          11          27          26
         4          11          12          28          27
         4          12          13          29          28
         4          13          14          30          29
         4          14          15          31          30
         4          16          17          33          32
         4          17          18          34          33
         4          18          19          35          34
         4          19          20          36          35
         4          20          21          37          36
         4          21          22          38          37
         4          22          23          39          38
         4          23          24          40          39
         4          24          25          41          40
         4          25          26          42          41
         4          26          27          43          42
         4          27          28          44          43
         4          28          29          45          44
         4          29          30          46          45
         4          30          31          47          46
         4          32          33          49          48
         4          33          34          50          49
         4          34          35          51          50
         4          35          36          52          51
         4          36          37          53          52
         4          37          38          54          53
         4          38          39          55          54
         4          39          40          56          55
         4          40          41          57          56
         4          41          42          58          57
         4          42          43          59          58
         4          43          44          60          59
         4          44          45          61          60
         4          45          46          62          61
         4          46          47          63          62
         4          48          49          65          64
         4          49          50          66          65
         4          50          51          67          66
         4          51          52          68          67
         4          52          53          69          68
         4          53          54          70          69
         4          54          55          71          70
         4          55          56          72          71
         4          56          57          73          72
         4          57          58          74          73
         4          58          59          75          74
         4          59          60          76          75
         4          60          61          77          76
         4          61          62          78          77
         4          62          63          79          78
         4          64          65          81          80
         4          65          66          82          81
         4          66          67          83          82
         4          67          68          84          83
         4          68          69          85          84
         4          69          70          86          85
         4          70          71          87          86
         4          71          72          88          87
         4          72          73          89          88
         4          73          74          90          89
         4          74          75          91          90
         4          75          76          92          91
         4          76          77          93          92
         4          77          78          94          93
         4          78          79          95          94
         4          80          81          97          96
         4          81          82          98          97
         4          82          83          99          98
         4          83          84         100          99
         4          84          85         101         100
         4          85          86         102         101
         4          86          87         103         102
         4          87          88         104         103
         4          88          89         105         104
         4          89          90         106         105
         4          90          91         107         106
         4          91          92         108         107
         4          92          93         109         108
         4          93          94         110         109
         4          94          95         111         110
         4          96          97         113         112
         4          97          98         114         113
         4          98          99         115         114
         4          99         100         116         115
         4         100         101         117         116
         4         101         102         118         117
         4         102         103         119         118
         4         103         104         120         119
         4         104         105         121         120
         4         105         106         122         121
         4         106         107         123         122
         4         107         108         124         123
         4         108         109         125         124
         4         109         110         126         125
         4         110         111         127         126
         4         112         113         129         128
         4         113         114         130         129
         4         114         115         131         130
         4         115         116         132         131
         4         116         117         133         132
         4         117         118         134         133
         4         118         119         135         134
         4         119         120         136         135
         4         120         121         137         136
         4         121         122         138         137
         4         122         123         139         138
         4         123         124         140         139
         4         124         125         141         140
         4         125         126         142         141
         4         126         127         143         142
         4         128         129         145         144
         4         129         130         146         145
         4         130         131         147         146
         4         131         132         148         147
         4         132         133         149         148
         4         133         134         150         149
         4         134         135         151         150
         4         135         136         152         151
         4         136         137         153         152
         4         137         138         154         153
         4         138         139         155         154
         4         139         140         156         155
         4         140         141         157         156
         4         141         142         158         157
         4         142         143         159         158
         4         144         145         161         160
         4         145         146         162         161
         4         146         147         163         162
         4         147         148         164         163
         4         148         149         165         164
         4         149         150         166         165
         4         150         151         167         166
         4         151         152         168         167
         4         152         153         169         168
         4         153         154         170         169
         4         154         155         171         170
         4         155         156         172         171
         4         156         157         173         172
         4         157         158         174         173
         4         158         159         175         174
         4         160         161         177         176
         4         161         162         178         177
         4         162         163         179         178
         4         163         164         180         179
         4         164         165         181         180
         4         165         166         182         181
         4         166         167         183         182
         4         167         168         184         183
         4         168         169         185         184
         4         169         170         186         185
         4         170         171         187         186
         4         171         172         188         187
         4         172         173         189         188
         4         173         174         190         189
         4         174         175         191         190
         4         176         177         193         192
         4         177         178         194         193
         4         178         179         195         194
         4         179         180         196         195
         4         180         181         197         196
         4         181         182         198         197
         4         182         183         199         198
         4         183         184         200         199
         4         184         185         201         200
         4         185         186         202         201
         4         186         187         203         202
         4         187         188         204         203
         4         188         189         205         204
         4         189         190         206         205
         4         190         191         207         206
         4         192         193         209         208
         4         193         194         210         209
         4         194         195         211         210
         4         195         196         212         211
         4         196         197         213         212
         4         197         198         214         213
         4         198         199         215         214
         4         199         200         216         215
         4         200         201         217         216
         4         201         202         218         217
         4         202         203         219         218
         4         203         204         220         219
         4         204         205         221         220
         4         205         206         222         221
         4         206         207         223         222
         4         208         209         225         224
         4         209         210         226         225
         4         210         211         227         226
         4         211         212         228         227
         4         212         213         229         228
         4         213         214         230         229
         4         214         215         231         230
         4         215         216         232         231
         4         216         217         233         232
         4         217         218         234         233
         4         218         219         235         234
         4         219         220         236         235
         4         220         221         237         236
         4         221         222         238         237
         4         222         223         239         238
         4         224         225         241         240
         4         225         226         242         241
         4         226         227         243         242
         4         227         228         244         243
         4         228         229         245         244
         4         229         230         246         245
         4         230         231         247         246
         4         231         232         248         247
         4         232         233         249         248
         4         233         234         250         249
         4         234         235         251         250
         4         235         236         252         251
         4         236         237         253         252
         4         237         238         254         253
         4         238         239         255         254
         4         240         241         257         256
         4         241         242         258         257
         4         242         243         259         258
         4         243         244         260         259
         4         244         245         261         260
         4         245         246         262         261
         4         246         247         263         262
         4         247         248         264         263
         4         248         249         265         264
         4         249         250         266         265
         4         250         251         267         266
         4         251         252         268         267
         4         252         253         269         268
         4         253         254         270         269
         4         254         255         271         270
         4         256         257         273         272
         4         257         258         274         273
         4         258         259         275         274
         4         259         260         276         275
         4         260         261         277         276
         4         261         262         278         277
         4         262         263         279         278
         4         263         264         280         279
         4         264         265         281         280
         4         265         266         282         281
         4         266         267         283         282
         4         267         268         284         283
         4         268         269         285         284
         4         269         270         286         285
         4         270         271         287         286
         4         272         273         289         288
         4         273         274         290         289
         4         274         275         291         290
         4         275         276         292         291
         4         276         277         293         292
         4         277         278         294         293
         4         278         279         295         294
         4         279         280         296         295
         4         280         281         297         296
         4         281         282         298         297
         4         282         283         299         298
         4         283         284         300         299
         4         284         285         301         300
         4         285         286         302         301
         4         286         287         303         302
         4         288         289         305         304
         4         289         290         306         305
         4         290         291         307         306
         4         291         292         308         307
         4         292         293         309         308
         4         293         294         310         309
         4         294         295         311         310
         4         295         296         312         311
         4         296         297         313         312
         4         297         298         314         313
         4         298         299         315         314
         4         299         300         316         315
         4         300         301         317         316
         4         301         302         318         317
         4         302         303         319         318
         4         304         305         321         320
         4         305         306         322         321
         4         306         307         323         322
         4         307         308         324         323
         4         308         309         325         324
         4         309         310         326         325
         4         310         311         327         326
         4         311         312         328         327
         4         312         313         329         328
         4         313         314         330         329
         4         314         315         331         330
         4         315         316         332         331
         4         316         317         333         332
         4         317         318         334         333
         4         318         319         335         334
         4         320         321         337         336
         4         321         322         338         337
         4         322         323         339         338
         4         323         324         340         339
         4         324         325         341         340
         4         325         326         342         341
         4         326         327         343         342
         4         327         328         344         343
         4         328         329         345         344
         4         329         330         346         345
         4         330         331         347         346
         4         331         332         348         347
         4         332         333         349         348
         4         333         334         350         349
         4         334         335         351         350
         4         336         337         353         352
         4         337         338         354         353
         4         338         339         355         354
         4         339         340         356         355
         4         340         341         357         356
         4         341         342         358         357
         4         342         343         359         358
         4         343         344         360         359
         4         344         345         361         360
         4         345         346         362         361
         4         346         347         363         362
         4         347         348         364         363
         4         348         349         365         364
         4         349         350         366         365
         4         350         351         367         366
         4         352         353         369         368
         4         353         354         370         369
         4         354         355         371         370
         4         355         356         372         371
         4         356         357         373         372
         4         357         358         374         373
         4         358         359         375         374
         4         359         360         376         375
         4         360         361         377         376
         4         361         362         378         377
         4         362         363         379         378
         4         363         364         380         379
         4         364         365         381         380
         4         365         366         382         381
         4         366         367         383         382
         4         368         369         385         384
         4         369         370         386         385
         4         370         371         387         386
         4         371         372         388         387
         4         372         373         389         388
         4         373         374         390         389
         4         374         375         391         390
         4         375         376         392         391
         4         376         377         393         392
         4         377         378         394         393
         4         378         379         395         394
         4         379         380         396         395
         4         380         381         397         396
         4         381         382         398         397
         4         382         383         399         398
         4         384         385         401         400
         4         385         386         402         401
         4         386         387         403         402
         4         387         388         404         403
         4         388         389         405         404
         4         389         390         406         405
         4         390         391         407         406
         4         391         392         408         407
         4         392         393         409         408
         4         393         394         410         409
         4         394         395         411         410
         4         395         396         412         411
         4         396         397         413         412
         4         397         398         414         413
         4         398         399         415         414
         4         400         401         417         416
         4         401         402         418         417
         4         402         403         419         418
         4         403         404         420         419
         4         404         405         421         420
         4         405         406         422         421
         4         406         407         423         422
         4         407         408         424         423
         4         408         409         425         424
         4         409         410         426         425
         4         410         411         427         426
         4         411         412         428         427
         4         412         413         429         428
         4         413         414         430         429
         4         414         415         431         430
         4         416         417         433         432
         4         417         418         434         433
         4         418         419         435         434
         4         419         420         436         435
         4         420         421         437         436
         4         421         422         438         437
         4         422         423         439         438
         4         423         424         440         439
         4         424         425         441         440
         4         425         426         442         441
         4         426         427         443         442
         4         427         428         444         443
         4         428         429         445         444
         4         429         430         446         445
         4         430         431         447         446
         4         432         433         449         448
         4         433         434         450         449
         4         434         435         451         450
         4         435         436         452         451
         4         436         437         453         452
         4         437         438         454         453
         4         438         439         455         454
         4         439         440         456         455
         4         440         441         457         456
         4         441         442         458         457
         4         442         443         459         458
         4         443         444         460         459
         4         444         445         461         460
         4         445         446         462         461
         4         446         447         463         462
         4         448         449         465         464
         4         449         450         466         465
         4         450         451         467         466
         4         451         452         468         467
         4         452         453         469         468
         4         453         454         470         469
         4         454         455         471         470
         4         455         456         472         471
         4         456         457         473         472
         4         457         458         474         473
         4         458         459         475         474
         4         459         460         476         475
         4         460         461         477         476
         4         461         462         478         477
         4         462         463         479         478
         4         464         465         481         480
         4         465         466         482         481
         4         466         467         483         482
         4         467         468         484         483
         4         468         469         485         484
         4         469         470         486         485
         4         470         471         487         486
         4         471         472         488         487
         4         472         473         489         488
         4         473         474         490         489
         4         474         475         491         490
         4         475         476         492         491
         4         476         477         493         492
         4         477         478         494         493
         4         478         479         495         494
CELL_TYPES        450
9
9
9
9
9
9
9
9
9
9
9
9
9
9
9
9
9
9
9
9
9
9
9
9
9
9
9
9
9
9
9
9
9
9
9
9
9
9
9
9
9
9
9
9
9
9
9
9
9
9
9
9
9
9
9
9
9
9
9
9
9
9
9
9
9
9
9
9
9
9
9
9
9
9
9
9
9
9
9
9
9
9
9
9
9
9
9
9
9
9
9
9
9
9
9
9
9
9
9
9
9
9
9
9
9
9
9
9
9
9
9
9
9
9
9
9
9
9
9
9
9
9
9
9
9
9
9
9
9
9
9
9
9
9
9
9
9
9
9
9
9
9
9
9
9
9
9
9
9
9
9
9
9
9
9
9
9
9
9
9
9
9
9
9
9
9
9
9
9
9
9
9
9
9
9
9
9
9
9
9
9
9
9
9
9
9
9
9
9
9
9
9
9
9
9
9
9
9
9
9
9
9
9
9
9
9
9
9
9
9
9
9
9
9
9
9
9
9
9
9
9
9
9
9
9
9
9
9
9
9
9
9
9
9
9
9
9
9
9
9
9
9
9
9
9
9
9
9
9
9
9
9
9
9
9
9
9
9
9
9
9
9
9
9
9
9
9
9
9
9
9
9
9
9
9
9
9
9
9
9
9
9
9
9
9
9
9
9
9
9
9
9
9
9
9
9
9
9
9
9
9
9
9
9
9
9
9
9
9
9
9
9
9
9
9
9
9
9
9
9
9
9
9
9
9
9
9
9
9
9
9
9
9
9
9
9
9
9
9
9
9
9
9
9
9
9
9
9
9
9
9
9
9
9
9
9
9
9
9
9
9
9
9
9
9
9
9
9
9
9
9
9
9
9
9
9
9
9
9
9
9
9
9
9
9
9
9
9
9
9
9
9
9
9
9
9
9
9
9
9
9
9
9
9
9
9
9
9
9
9
9
9
9
9
9
9
9
9
9
9
9
9
9
9
9
9
9
9
9
9
9
9
9
9
9
9
9
9
9
9
9
9
9
9
9
9
9
9
9
9
POINT_DATA       496
SCALARS p double 
LOOKUP_TABLE default
   34446197.2271532     
   34442092.3220952     
   34430900.5697044     
   34414083.9555604     
   34392994.3500948     
   34368879.2350617     
   34342888.6946367     
   34316083.3170792     
   34289442.6892156     
   34263874.2022882     
   34240221.9233607     
   34219275.3211170     
   34201777.6683287     
   34188433.9755052     
   34179918.3413913     
   34176880.6362476     
   34411038.8986556     
   34406941.2200514     
   34395770.7017349     
   34378988.1665296     
   34357943.7671986     
   34333882.8566179     
   34307953.1055033     
   34281212.5142858     
   34254638.0023131     
   34229134.2940241     
   34205542.8574900     
   34184650.6853651     
   34167198.7416661     
   34153889.9298989     
   34145396.4690488     
   34142366.5940485     
   34305663.1279887     
   34301587.3374430     
   34290481.0665281     
   34273801.5507564     
   34252893.7060700     
   34228996.4289700     
   34203250.0927877     
   34176704.8887112     
   34150329.6975666     
   34125021.2153802     
   34101613.0917870     
   34080884.8750193     
   34063570.5903618     
   34050366.8106532     
   34041940.1078865     
   34038933.8045449     
   34130367.9886790     
   34126329.3689296     
   34115331.9802936     
   34098826.7506129     
   34078149.5898325     
   34054528.4028823     
   34029091.2123546     
   34002875.0431140     
   33976835.2597492     
   33951855.0857617     
   33928755.0699129     
   33908302.2998355     
   33891219.1957436     
   33878191.7480175     
   33869877.0919609     
   33866910.3416389     
   33885651.6836865     
   33881666.5361215     
   33870825.3204676     
   33854569.4479165     
   33834221.6412949     
   33810993.9376859     
   33785996.6785165     
   33760248.1445318     
   33734684.5338896     
   33710170.0210003     
   33687506.6709571     
   33667444.0190578     
   33650688.1569583     
   33637910.1967289     
   33629754.0120833     
   33626843.1830815     
   33572214.6091220     
   33568300.6262894     
   33557666.4937730     
   33541740.2222472     
   33521826.5995915     
   33499116.4519986     
   33474696.7326555     
   33449561.1028385     
   33424620.7138922     
   33400714.9398668     
   33378621.8487237     
   33359068.2345571     
   33342739.0642577     
   33330286.2199446     
   33322336.4441839     
   33319498.4196269     
   33190962.1315564     
   33187138.7343432     
   33176767.0782118     
   33161257.0373992     
   33141890.0056019     
   33119829.6735247     
   33096133.4343035     
   33071764.0917483     
   33047601.5937076     
   33024454.5566894     
   33003071.3871685     
   32984150.8392837     
   32968351.8780269     
   32956302.7422557     
   32948609.1241795     
   32945861.4029893     
   32743007.9714918     
   32739296.6002823     
   32729248.0299841     
   32714248.2448620     
   32695548.9421125     
   32674280.0702620     
   32651462.7528936     
   32628022.2861485     
   32604800.9506703     
   32582570.4257707     
   32562043.6343319     
   32543885.8807705     
   32528725.1714913     
   32517161.6286904     
   32509775.9258492     
   32507136.6890752     
   32229678.0611788     
   32226102.4097678     
   32216443.3212582     
   32202055.9672870     
   32184155.0875350     
   32163829.5168323     
   32142056.8081298     
   32119717.6576354     
   32097609.8969034     
   32076461.8680064     
   32056945.0404719     
   32039685.7617154     
   32025276.0565827     
   32014283.4077129     
   32007259.4591264     
   32004747.5938438     
   31652514.7252216     
   31649100.9055072     
   31639903.8541085     
   31626239.7032035     
   31609277.9188471     
   31590058.0247067     
   31569506.0799662     
   31548450.6410690     
   31527638.0035542     
   31507746.5770567     
   31489400.2914048     
   31473180.9636817     
   31459639.5755341     
   31449306.4187628     
   31442700.0685144     
   31440335.1414058     
   31013281.0182204     
   31010057.6426913     
   31001401.4806871     
   30988579.9776931     
   30972707.8810606     
   30954766.3445540     
   30935621.3861887     
   30916041.4593857     
   30896713.9745321     
   30878260.6720149     
   30861251.7956768     
   30846219.0460066     
   30833667.3057240     
   30824085.1291728     
   30817953.9753339     
   30815756.1479342     
   30313965.0459482     
   30310963.2136461     
   30302932.9506624     
   30291081.8530839     
   30276459.3276950     
   30259978.2334393     
   30242435.4071024     
   30224530.8723192     
   30206885.6218004     
   30190057.9361383     
   30174558.2544572     
   30160862.6404376     
   30149424.8924315     
   30140687.3316748     
   30135090.2735513     
   30133080.1509462     
   29556784.0960614     
   29554037.2659910     
   29546723.6049254     
   29535978.1097644     
   29522773.0300965     
   29507942.1697164     
   29492203.5233311     
   29476180.0974475     
   29460418.8734574     
   29445407.9571573     
   29431592.0162848     
   29419386.1331622     
   29409188.1938541     
   29401389.9025464     
   29396386.4574238     
   29394584.8619642     
   28744188.4119183     
   28741732.1457277     
   28735230.6403172     
   28725731.9105903     
   28714118.0535428     
   28701132.2945818     
   28687403.7245050     
   28673469.6393590     
   28659795.5290673     
   28646792.8642461     
   28634834.8953523     
   28624270.7001600     
   28615437.6954547     
   28608672.7722906     
   28604322.1306970     
   28602749.7920418     
   27878864.4595516     
   27876736.0126430     
   27871145.7843901     
   27863038.7736578     
   27853192.8052732     
   27842248.3615715     
   27830735.3436974     
   27819096.7547021     
   27807709.4640372     
   27796902.3401335     
   27786972.1122696     
   27778197.3397480     
   27770850.8271232     
   27765210.7363393     
   27761570.5224112     
   27760247.6749719     
   26963737.5641889     
   26961975.3011223     
   26957397.2427480     
   26950827.6978653     
   26942925.0739229     
   26934214.4834815     
   26925116.3744303     
   26915971.2770956     
   26907060.9761721     
   26898626.5742777     
   26890884.0007563     
   26884037.5286262     
   26878291.7977654     
   26873862.7137459     
   26870987.4146965     
   26869933.2933981     
   26001973.8302018     
   26000616.4361233     
   25997150.8151087     
   25992261.3138546     
   25986470.9007894     
   25980176.4792342     
   25973679.1326706     
   25967209.5253382     
   25960948.9624308     
   25955046.8147775     
   25949635.1133698     
   25944841.1160085     
   25940798.5493658     
   25937658.0489071     
   25935597.0750197     
   25934829.3002705     
   24996981.3089492     
   24996066.7633662     
   24993810.1208290     
   24990734.9692899     
   24987212.1492940     
   24983497.6385966     
   24979764.0328838     
   24976126.0191111     
   24972660.6115918     
   24969423.1732668     
   24966460.3557561     
   24963821.0667767     
   24961566.4288222     
   24959779.4475225     
   24958574.7816398     
   24958108.6245770     
   23952410.4458687     
   23951974.7175102     
   23951015.9313627     
   23949874.7007266     
   23948752.6662781     
   23947752.7353093     
   23946911.2498699     
   23946222.7248841     
   23945658.2977920     
   23945179.3396204     
   23944747.7849957     
   23944334.6728851     
   23943928.1848409     
   23943542.1469212     
   23943225.5398673     
   23943073.0592569     
   22872153.9270523     
   22872229.3368645     
   22872644.6774320     
   22873534.0913611     
   22874912.9499026     
   22876720.1193652     
   22878850.0276652     
   22881175.5450456     
   22883563.3592395     
   22885883.8746501     
   22888017.7290318     
   22889860.8791249     
   22891329.9251252     
   22892368.9475786     
   22892958.6121920     
   22893127.6544692     
   21760346.1666836     
   21760959.3462632     
   21762806.2844108     
   21765790.0577085     
   21769723.2391561     
   21774371.6887174     
   21779485.3571788     
   21784817.7357985     
   21790136.4445730     
   21795227.7752791     
   21799897.9316391     
   21803973.4264789     
   21807302.7256651     
   21809760.7837982     
   21811257.5318173     
   21811750.5846105     
   20621362.8492231     
   20622532.1859906     
   20625841.5926079     
   20630937.6338183     
   20637414.8907602     
   20644860.4465601     
   20652881.6481113     
   20661119.8795424     
   20669254.1067498     
   20676998.0609585     
   20684094.5209692     
   20690309.6240685     
   20695429.6845557     
   20699262.5955197     
   20701645.3397190     
   20702458.2242099     
   19459821.2004572     
   19461553.5916494     
   19466319.7410729     
   19473483.7973260     
   19482409.7555356     
   19492505.1335345     
   19503242.8234382     
   19514165.9249954     
   19524881.3262642     
   19535047.2379797     
   19544358.7760445     
   19552534.7550892     
   19559308.3824864     
   19564424.3899643     
   19567644.8784999     
   19568765.2511499     
   18280582.0810480     
   18282868.6799632     
   18289036.0304003     
   18298140.2385468     
   18309306.9015483     
   18321770.9825929     
   18334887.8985625     
   18348124.6193144     
   18361039.6677646     
   18373258.7064267     
   18384449.9889763     
   18394302.4669982     
   18402508.9940662     
   18408757.5631898     
   18412734.0787418     
   18414139.6748843     
   17088755.7225499     
   17091566.0713568     
   17099010.9065270     
   17109814.5555377     
   17122865.2482230     
   17137244.8098637     
   17152220.4839559     
   17167215.3746345     
   17181770.8521078     
   17195508.5571366     
   17208095.2974588     
   17219212.1055594     
   17228528.7705742     
   17235686.8050728     
   17240296.2460976     
   17241952.7052747     
   15889714.2835422     
   15892987.5906151     
   15901490.7164134     
   15913598.2897605     
   15927979.0719503     
   15943601.1828329     
   15959689.6973719     
   15975667.2630276     
   15991095.7198730     
   16005624.8589755     
   16018948.3437317     
   16030765.0348966     
   16040744.4591533     
   16048498.2831315     
   16053565.3027684     
   16055423.1985304     
   14689117.1809829     
   14692747.9648689     
   14701950.3607434     
   14714747.5488402     
   14729640.1779472     
   14745554.0487692     
   14761738.7703538     
   14777669.5574979     
   14792968.9618690     
   14807346.4977249     
   14820550.1719822     
   14832323.8867861     
   14842365.8872186     
   14850285.4332001     
   14855565.5614620     
   14857555.6570589     
   13492961.3909055     
   13496772.7110619     
   13506095.1339806     
   13518645.3076416     
   13532874.6288405     
   13547785.1801914     
   13562736.7036433     
   13577312.4108657     
   13591230.6622548     
   13604284.7688169     
   13616297.6919126     
   13627082.0964332     
   13636397.3856967     
   13643895.4994812     
   13649044.1505830     
   13651068.7985521     
   12307687.1390942     
   12311368.2296156     
   12319847.8555853     
   12330717.0593517     
   12342633.5679817     
   12354838.8005940     
   12366889.1504935     
   12378517.5269827     
   12389556.6139637     
   12399891.6101658     
   12409426.5858882     
   12418054.7626024     
   12425623.9397960     
   12431883.8785932     
   12436393.2640388     
   12438301.8511478     
   11140410.8805229     
   11143362.1121001     
   11149240.9309797     
   11156242.5065502     
   11163613.1711590     
   11170976.1433920     
   11178129.4171724     
   11184961.6385756     
   11191410.2943041     
   11197437.6068896     
   11203014.0444727     
   11208103.8501576     
   11212647.4358033     
   11216531.7957867     
   11219524.4188057     
   11221091.2453588     
   10000000.0000000     
   10000000.0000000     
   10000000.0000000     
   10000000.0000000     
   10000000.0000000     
   10000000.0000000     
   10000000.0000000     
   10000000.0000000     
   10000000.0000000     
   10000000.0000000     
   10000000.0000000     
   10000000.0000000     
   10000000.0000000     
  10000000.00000000     
   10000000.0000000     
   10000000.0000000     
VECTORS u double 
    0.00000E+00        -0.30940E-01         0.00000E+00
    0.00000E+00        -0.28780E-01         0.00000E+00
    0.00000E+00        -0.26636E-01         0.00000E+00
    0.00000E+00        -0.24506E-01         0.00000E+00
    0.00000E+00        -0.22389E-01         0.00000E+00
    0.00000E+00        -0.20283E-01         0.00000E+00
    0.00000E+00        -0.18187E-01         0.00000E+00
    0.00000E+00        -0.16103E-01         0.00000E+00
    0.00000E+00        -0.14030E-01         0.00000E+00
    0.00000E+00        -0.11969E-01         0.00000E+00
    0.00000E+00        -0.99221E-02         0.00000E+00
    0.00000E+00        -0.78920E-02         0.00000E+00
    0.00000E+00        -0.58812E-02         0.00000E+00
    0.00000E+00        -0.38930E-02         0.00000E+00
    0.00000E+00        -0.19312E-02         0.00000E+00
    0.00000E+00         0.00000E+00         0.00000E+00
    0.81290E-03        -0.30979E-01         0.00000E+00
    0.73913E-03        -0.28816E-01         0.00000E+00
    0.67113E-03        -0.26670E-01         0.00000E+00
    0.60824E-03        -0.24538E-01         0.00000E+00
    0.54978E-03        -0.22419E-01         0.00000E+00
    0.49502E-03        -0.20310E-01         0.00000E+00
    0.44327E-03        -0.18213E-01         0.00000E+00
    0.39381E-03        -0.16126E-01         0.00000E+00
    0.34595E-03        -0.14050E-01         0.00000E+00
    0.29899E-03        -0.11986E-01         0.00000E+00
    0.25227E-03        -0.99370E-02         0.00000E+00
    0.20513E-03        -0.79041E-02         0.00000E+00
    0.15694E-03        -0.58904E-02         0.00000E+00
    0.10708E-03        -0.38992E-02         0.00000E+00
    0.54960E-04        -0.19343E-02         0.00000E+00
    0.00000E+00         0.00000E+00         0.00000E+00
    0.16205E-02        -0.31094E-01         0.00000E+00
    0.14733E-02        -0.28925E-01         0.00000E+00
    0.13376E-02        -0.26773E-01         0.00000E+00
    0.12122E-02        -0.24635E-01         0.00000E+00
    0.10956E-02        -0.22508E-01         0.00000E+00
    0.98645E-03        -0.20393E-01         0.00000E+00
    0.88332E-03        -0.18288E-01         0.00000E+00
    0.78478E-03        -0.16194E-01         0.00000E+00
    0.68942E-03        -0.14110E-01         0.00000E+00
    0.59588E-03        -0.12039E-01         0.00000E+00
    0.50280E-03        -0.99816E-02         0.00000E+00
    0.40888E-03        -0.79404E-02         0.00000E+00
    0.31284E-03        -0.59180E-02         0.00000E+00
    0.21347E-03        -0.39179E-02         0.00000E+00
    0.10958E-03        -0.19438E-02         0.00000E+00
    0.00000E+00         0.00000E+00         0.00000E+00
    0.24177E-02        -0.31286E-01         0.00000E+00
    0.21975E-02        -0.29107E-01         0.00000E+00
    0.19948E-02        -0.26944E-01         0.00000E+00
    0.18075E-02        -0.24795E-01         0.00000E+00
    0.16335E-02        -0.22657E-01         0.00000E+00
    0.14707E-02        -0.20530E-01         0.00000E+00
    0.13169E-02        -0.18414E-01         0.00000E+00
    0.11701E-02        -0.16307E-01         0.00000E+00
    0.10280E-02        -0.14211E-01         0.00000E+00
    0.88856E-03        -0.12127E-01         0.00000E+00
    0.74985E-03        -0.10056E-01         0.00000E+00
    0.60986E-03        -0.80006E-02         0.00000E+00
    0.46669E-03        -0.59640E-02         0.00000E+00
    0.31849E-03        -0.39490E-02         0.00000E+00
    0.16351E-03        -0.19596E-02         0.00000E+00
    0.00000E+00         0.00000E+00         0.00000E+00
    0.31990E-02        -0.31553E-01         0.00000E+00
    0.29068E-02        -0.29360E-01         0.00000E+00
    0.26380E-02        -0.27182E-01         0.00000E+00
    0.23899E-02        -0.25018E-01         0.00000E+00
    0.21596E-02        -0.22865E-01         0.00000E+00
    0.19442E-02        -0.20722E-01         0.00000E+00
    0.17409E-02        -0.18589E-01         0.00000E+00
    0.15468E-02        -0.16465E-01         0.00000E+00
    0.13591E-02        -0.14351E-01         0.00000E+00
    0.11750E-02        -0.12249E-01         0.00000E+00
    0.99170E-03        -0.10159E-01         0.00000E+00
    0.80671E-03        -0.80847E-02         0.00000E+00
    0.61745E-03        -0.60280E-02         0.00000E+00
    0.42147E-03        -0.39924E-02         0.00000E+00
    0.21642E-03        -0.19817E-02         0.00000E+00
    0.00000E+00         0.00000E+00         0.00000E+00
    0.39592E-02        -0.31895E-01         0.00000E+00
    0.35962E-02        -0.29683E-01         0.00000E+00
    0.32627E-02        -0.27487E-01         0.00000E+00
    0.29551E-02        -0.25303E-01         0.00000E+00
    0.26699E-02        -0.23131E-01         0.00000E+00
    0.24034E-02        -0.20967E-01         0.00000E+00
    0.21521E-02        -0.18813E-01         0.00000E+00
    0.19123E-02        -0.16667E-01         0.00000E+00
    0.16804E-02        -0.14531E-01         0.00000E+00
    0.14530E-02        -0.12405E-01         0.00000E+00
    0.12266E-02        -0.10292E-01         0.00000E+00
    0.99808E-03        -0.81922E-02         0.00000E+00
    0.76413E-03        -0.61099E-02         0.00000E+00
    0.52174E-03        -0.40479E-02         0.00000E+00
    0.26798E-03        -0.20099E-02         0.00000E+00
    0.00000E+00         0.00000E+00         0.00000E+00
    0.46929E-02        -0.32310E-01         0.00000E+00
    0.42606E-02        -0.30076E-01         0.00000E+00
    0.38640E-02        -0.27857E-01         0.00000E+00
    0.34987E-02        -0.25650E-01         0.00000E+00
    0.31605E-02        -0.23453E-01         0.00000E+00
    0.28448E-02        -0.21265E-01         0.00000E+00
    0.25473E-02        -0.19085E-01         0.00000E+00
    0.22637E-02        -0.16913E-01         0.00000E+00
    0.19895E-02        -0.14749E-01         0.00000E+00
    0.17207E-02        -0.12595E-01         0.00000E+00
    0.14530E-02        -0.10452E-01         0.00000E+00
    0.11826E-02        -0.83228E-02         0.00000E+00
    0.90574E-03        -0.62094E-02         0.00000E+00
    0.61865E-03        -0.41153E-02         0.00000E+00
    0.31786E-03        -0.20441E-02         0.00000E+00
    0.00000E+00         0.00000E+00         0.00000E+00
    0.53948E-02        -0.32797E-01         0.00000E+00
    0.48951E-02        -0.30537E-01         0.00000E+00
    0.44374E-02        -0.28291E-01         0.00000E+00
    0.40165E-02        -0.26057E-01         0.00000E+00
    0.36274E-02        -0.23832E-01         0.00000E+00
    0.32648E-02        -0.21614E-01         0.00000E+00
    0.29234E-02        -0.19404E-01         0.00000E+00
    0.25982E-02        -0.17201E-01         0.00000E+00
    0.22840E-02        -0.15005E-01         0.00000E+00
    0.19759E-02        -0.12818E-01         0.00000E+00
    0.16692E-02        -0.10641E-01         0.00000E+00
    0.13591E-02        -0.84759E-02         0.00000E+00
    0.10413E-02        -0.63260E-02         0.00000E+00
    0.71158E-03        -0.41942E-02         0.00000E+00
    0.36577E-03        -0.20842E-02         0.00000E+00
    0.00000E+00         0.00000E+00         0.00000E+00
    0.60594E-02        -0.33354E-01         0.00000E+00
    0.54945E-02        -0.31064E-01         0.00000E+00
    0.49781E-02        -0.28788E-01         0.00000E+00
    0.45042E-02        -0.26522E-01         0.00000E+00
    0.40668E-02        -0.24265E-01         0.00000E+00
    0.36599E-02        -0.22014E-01         0.00000E+00
    0.32773E-02        -0.19769E-01         0.00000E+00
    0.29132E-02        -0.17530E-01         0.00000E+00
    0.25616E-02        -0.15298E-01         0.00000E+00
    0.22169E-02        -0.13073E-01         0.00000E+00
    0.18735E-02        -0.10856E-01         0.00000E+00
    0.15262E-02        -0.86509E-02         0.00000E+00
    0.11700E-02        -0.64593E-02         0.00000E+00
    0.79991E-03        -0.42845E-02         0.00000E+00
    0.41139E-03        -0.21300E-02         0.00000E+00
    0.00000E+00         0.00000E+00         0.00000E+00
    0.66813E-02        -0.33979E-01         0.00000E+00
    0.60538E-02        -0.31656E-01         0.00000E+00
    0.54815E-02        -0.29345E-01         0.00000E+00
    0.49574E-02        -0.27044E-01         0.00000E+00
    0.44748E-02        -0.24750E-01         0.00000E+00
    0.40266E-02        -0.22462E-01         0.00000E+00
    0.36059E-02        -0.20178E-01         0.00000E+00
    0.32059E-02        -0.17900E-01         0.00000E+00
    0.28199E-02        -0.15626E-01         0.00000E+00
    0.24415E-02        -0.13358E-01         0.00000E+00
    0.20645E-02        -0.11098E-01         0.00000E+00
    0.16828E-02        -0.88470E-02         0.00000E+00
    0.12908E-02        -0.66086E-02         0.00000E+00
    0.88308E-03        -0.43856E-02         0.00000E+00
    0.45445E-03        -0.21814E-02         0.00000E+00
    0.00000E+00         0.00000E+00         0.00000E+00
    0.72549E-02        -0.34668E-01         0.00000E+00
    0.65678E-02        -0.32308E-01         0.00000E+00
    0.59428E-02        -0.29960E-01         0.00000E+00
    0.53720E-02        -0.27620E-01         0.00000E+00
    0.48476E-02        -0.25286E-01         0.00000E+00
    0.43616E-02        -0.22956E-01         0.00000E+00
    0.39063E-02        -0.20630E-01         0.00000E+00
    0.34738E-02        -0.18307E-01         0.00000E+00
    0.30568E-02        -0.15988E-01         0.00000E+00
    0.26481E-02        -0.13673E-01         0.00000E+00
    0.22405E-02        -0.11364E-01         0.00000E+00
    0.18276E-02        -0.90633E-02         0.00000E+00
    0.14029E-02        -0.67733E-02         0.00000E+00
    0.96052E-03        -0.44971E-02         0.00000E+00
    0.49467E-03        -0.22380E-02         0.00000E+00
    0.00000E+00         0.00000E+00         0.00000E+00
    0.77746E-02        -0.35419E-01         0.00000E+00
    0.70314E-02        -0.33019E-01         0.00000E+00
    0.63573E-02        -0.30630E-01         0.00000E+00
    0.57436E-02        -0.28247E-01         0.00000E+00
    0.51813E-02        -0.25869E-01         0.00000E+00
    0.46615E-02        -0.23495E-01         0.00000E+00
    0.41754E-02        -0.21122E-01         0.00000E+00
    0.37144E-02        -0.18751E-01         0.00000E+00
    0.32701E-02        -0.16382E-01         0.00000E+00
    0.28347E-02        -0.14016E-01         0.00000E+00
    0.24002E-02        -0.11654E-01         0.00000E+00
    0.19595E-02        -0.92988E-02         0.00000E+00
    0.15055E-02        -0.69526E-02         0.00000E+00
    0.10317E-02        -0.46184E-02         0.00000E+00
    0.53181E-03        -0.22996E-02         0.00000E+00
    0.00000E+00         0.00000E+00         0.00000E+00
    0.82348E-02        -0.36229E-01         0.00000E+00
    0.74393E-02        -0.33785E-01         0.00000E+00
    0.67204E-02        -0.31351E-01         0.00000E+00
    0.60681E-02        -0.28923E-01         0.00000E+00
    0.54722E-02        -0.26498E-01         0.00000E+00
    0.49229E-02        -0.24075E-01         0.00000E+00
    0.44103E-02        -0.21652E-01         0.00000E+00
    0.39250E-02        -0.19229E-01         0.00000E+00
    0.34577E-02        -0.16806E-01         0.00000E+00
    0.29996E-02        -0.14385E-01         0.00000E+00
    0.25422E-02        -0.11966E-01         0.00000E+00
    0.20775E-02        -0.95522E-02         0.00000E+00
    0.15979E-02        -0.71456E-02         0.00000E+00
    0.10962E-02        -0.47490E-02         0.00000E+00
    0.56563E-03        -0.23659E-02         0.00000E+00
    0.00000E+00         0.00000E+00         0.00000E+00
    0.86297E-02        -0.37092E-01         0.00000E+00
    0.77865E-02        -0.34603E-01         0.00000E+00
    0.70274E-02        -0.32121E-01         0.00000E+00
    0.63412E-02        -0.29644E-01         0.00000E+00
    0.57166E-02        -0.27169E-01         0.00000E+00
    0.51426E-02        -0.24693E-01         0.00000E+00
    0.46084E-02        -0.22216E-01         0.00000E+00
    0.41033E-02        -0.19738E-01         0.00000E+00
    0.36175E-02        -0.17258E-01         0.00000E+00
    0.31411E-02        -0.14778E-01         0.00000E+00
    0.26650E-02        -0.12299E-01         0.00000E+00
    0.21804E-02        -0.98222E-02         0.00000E+00
    0.16791E-02        -0.73511E-02         0.00000E+00
    0.11534E-02        -0.48881E-02         0.00000E+00
    0.59591E-03        -0.24366E-02         0.00000E+00
    0.00000E+00         0.00000E+00         0.00000E+00
    0.89536E-02        -0.38005E-01         0.00000E+00
    0.80676E-02        -0.35467E-01         0.00000E+00
    0.72736E-02        -0.32935E-01         0.00000E+00
    0.65589E-02        -0.30407E-01         0.00000E+00
    0.59109E-02        -0.27878E-01         0.00000E+00
    0.53175E-02        -0.25347E-01         0.00000E+00
    0.47667E-02        -0.22813E-01         0.00000E+00
    0.42470E-02        -0.20276E-01         0.00000E+00
    0.37475E-02        -0.17735E-01         0.00000E+00
    0.32576E-02        -0.15193E-01         0.00000E+00
    0.27673E-02        -0.12650E-01         0.00000E+00
    0.22673E-02        -0.10107E-01         0.00000E+00
    0.17486E-02        -0.75680E-02         0.00000E+00
    0.12029E-02        -0.50349E-02         0.00000E+00
    0.62244E-03        -0.25111E-02         0.00000E+00
    0.00000E+00         0.00000E+00         0.00000E+00
    0.92005E-02        -0.38963E-01         0.00000E+00
    0.82776E-02        -0.36373E-01         0.00000E+00
    0.74544E-02        -0.33789E-01         0.00000E+00
    0.67170E-02        -0.31205E-01         0.00000E+00
    0.60515E-02        -0.28620E-01         0.00000E+00
    0.54444E-02        -0.26031E-01         0.00000E+00
    0.48826E-02        -0.23437E-01         0.00000E+00
    0.43537E-02        -0.20839E-01         0.00000E+00
    0.38458E-02        -0.18235E-01         0.00000E+00
    0.33474E-02        -0.15627E-01         0.00000E+00
    0.28479E-02        -0.13017E-01         0.00000E+00
    0.23372E-02        -0.10405E-01         0.00000E+00
    0.18056E-02        -0.77949E-02         0.00000E+00
    0.12443E-02        -0.51885E-02         0.00000E+00
    0.64500E-03        -0.25891E-02         0.00000E+00
    0.00000E+00         0.00000E+00         0.00000E+00
    0.93648E-02        -0.39959E-01         0.00000E+00
    0.84112E-02        -0.37316E-01         0.00000E+00
    0.75654E-02        -0.34676E-01         0.00000E+00
    0.68118E-02        -0.32036E-01         0.00000E+00
    0.61350E-02        -0.29391E-01         0.00000E+00
    0.55204E-02        -0.26742E-01         0.00000E+00
    0.49537E-02        -0.24086E-01         0.00000E+00
    0.44213E-02        -0.21423E-01         0.00000E+00
    0.39105E-02        -0.18753E-01         0.00000E+00
    0.34090E-02        -0.16077E-01         0.00000E+00
    0.29055E-02        -0.13397E-01         0.00000E+00
    0.23890E-02        -0.10714E-01         0.00000E+00
    0.18494E-02        -0.80302E-02         0.00000E+00
    0.12772E-02        -0.53478E-02         0.00000E+00
    0.66339E-03        -0.26699E-02         0.00000E+00
    0.00000E+00         0.00000E+00         0.00000E+00
    0.94405E-02        -0.40987E-01         0.00000E+00
    0.84633E-02        -0.38288E-01         0.00000E+00
    0.76020E-02        -0.35591E-01         0.00000E+00
    0.68392E-02        -0.32891E-01         0.00000E+00
    0.61582E-02        -0.30186E-01         0.00000E+00
    0.55427E-02        -0.27473E-01         0.00000E+00
    0.49774E-02        -0.24753E-01         0.00000E+00
    0.44476E-02        -0.22023E-01         0.00000E+00
    0.39397E-02        -0.19286E-01         0.00000E+00
    0.34408E-02        -0.16540E-01         0.00000E+00
    0.29386E-02        -0.13789E-01         0.00000E+00
    0.24217E-02        -0.11032E-01         0.00000E+00
    0.18792E-02        -0.82721E-02         0.00000E+00
    0.13009E-02        -0.55116E-02         0.00000E+00
    0.67738E-03        -0.27532E-02         0.00000E+00
    0.00000E+00         0.00000E+00         0.00000E+00
    0.94218E-02        -0.42039E-01         0.00000E+00
    0.84289E-02        -0.39284E-01         0.00000E+00
    0.75600E-02        -0.36527E-01         0.00000E+00
    0.67959E-02        -0.33766E-01         0.00000E+00
    0.61179E-02        -0.30998E-01         0.00000E+00
    0.55086E-02        -0.28220E-01         0.00000E+00
    0.49513E-02        -0.25433E-01         0.00000E+00
    0.44305E-02        -0.22635E-01         0.00000E+00
    0.39317E-02        -0.19828E-01         0.00000E+00
    0.34412E-02        -0.17012E-01         0.00000E+00
    0.29460E-02        -0.14187E-01         0.00000E+00
    0.24342E-02        -0.11355E-01         0.00000E+00
    0.18941E-02        -0.85186E-02         0.00000E+00
    0.13150E-02        -0.56787E-02         0.00000E+00
    0.68670E-03        -0.28381E-02         0.00000E+00
    0.00000E+00         0.00000E+00         0.00000E+00
    0.93029E-02        -0.43107E-01         0.00000E+00
    0.83032E-02        -0.40293E-01         0.00000E+00
    0.74355E-02        -0.37476E-01         0.00000E+00
    0.66782E-02        -0.34652E-01         0.00000E+00
    0.60113E-02        -0.31819E-01         0.00000E+00
    0.54156E-02        -0.28975E-01         0.00000E+00
    0.48733E-02        -0.26120E-01         0.00000E+00
    0.43681E-02        -0.23253E-01         0.00000E+00
    0.38845E-02        -0.20375E-01         0.00000E+00
    0.34083E-02        -0.17487E-01         0.00000E+00
    0.29261E-02        -0.14589E-01         0.00000E+00
    0.24251E-02        -0.11682E-01         0.00000E+00
    0.18932E-02        -0.87675E-02         0.00000E+00
    0.13188E-02        -0.58475E-02         0.00000E+00
    0.69104E-03        -0.29240E-02         0.00000E+00
    0.00000E+00         0.00000E+00         0.00000E+00
    0.90781E-02        -0.44182E-01         0.00000E+00
    0.80816E-02        -0.41309E-01         0.00000E+00
    0.72245E-02        -0.38429E-01         0.00000E+00
    0.64832E-02        -0.35541E-01         0.00000E+00
    0.58357E-02        -0.32642E-01         0.00000E+00
    0.52613E-02        -0.29730E-01         0.00000E+00
    0.47413E-02        -0.26806E-01         0.00000E+00
    0.42582E-02        -0.23870E-01         0.00000E+00
    0.37962E-02        -0.20921E-01         0.00000E+00
    0.33405E-02        -0.17961E-01         0.00000E+00
    0.28771E-02        -0.14990E-01         0.00000E+00
    0.23929E-02        -0.12008E-01         0.00000E+00
    0.18751E-02        -0.90162E-02         0.00000E+00
    0.13114E-02        -0.60164E-02         0.00000E+00
    0.68997E-03        -0.30101E-02         0.00000E+00
    0.00000E+00         0.00000E+00         0.00000E+00
    0.87421E-02        -0.45253E-01         0.00000E+00
    0.77596E-02        -0.42319E-01         0.00000E+00
    0.69236E-02        -0.39377E-01         0.00000E+00
    0.62081E-02        -0.36423E-01         0.00000E+00
    0.55889E-02        -0.33456E-01         0.00000E+00
    0.50439E-02        -0.30476E-01         0.00000E+00
    0.45532E-02        -0.27483E-01         0.00000E+00
    0.40989E-02        -0.24477E-01         0.00000E+00
    0.36647E-02        -0.21459E-01         0.00000E+00
    0.32355E-02        -0.18428E-01         0.00000E+00
    0.27971E-02        -0.15384E-01         0.00000E+00
    0.23358E-02        -0.12329E-01         0.00000E+00
    0.18384E-02        -0.92619E-02         0.00000E+00
    0.12917E-02        -0.61836E-02         0.00000E+00
    0.68293E-03        -0.30955E-02         0.00000E+00
    0.00000E+00         0.00000E+00         0.00000E+00
    0.82894E-02        -0.46308E-01         0.00000E+00
    0.73333E-02        -0.43313E-01         0.00000E+00
    0.65300E-02        -0.40307E-01         0.00000E+00
    0.58507E-02        -0.37287E-01         0.00000E+00
    0.52689E-02        -0.34252E-01         0.00000E+00
    0.47614E-02        -0.31204E-01         0.00000E+00
    0.43072E-02        -0.28142E-01         0.00000E+00
    0.38881E-02        -0.25068E-01         0.00000E+00
    0.34877E-02        -0.21980E-01         0.00000E+00
    0.30909E-02        -0.18881E-01         0.00000E+00
    0.26834E-02        -0.15768E-01         0.00000E+00
    0.22514E-02        -0.12642E-01         0.00000E+00
    0.17810E-02        -0.95014E-02         0.00000E+00
    0.12583E-02        -0.63471E-02         0.00000E+00
    0.66916E-03        -0.31794E-02         0.00000E+00
    0.00000E+00         0.00000E+00         0.00000E+00
    0.77152E-02        -0.47335E-01         0.00000E+00
    0.67993E-02        -0.44278E-01         0.00000E+00
    0.60413E-02        -0.41207E-01         0.00000E+00
    0.54092E-02        -0.38120E-01         0.00000E+00
    0.48745E-02        -0.35018E-01         0.00000E+00
    0.44124E-02        -0.31902E-01         0.00000E+00
    0.40016E-02        -0.28772E-01         0.00000E+00
    0.36237E-02        -0.25631E-01         0.00000E+00
    0.32627E-02        -0.22478E-01         0.00000E+00
    0.29038E-02        -0.19312E-01         0.00000E+00
    0.25330E-02        -0.16134E-01         0.00000E+00
    0.21366E-02        -0.12941E-01         0.00000E+00
    0.17003E-02        -0.97313E-02         0.00000E+00
    0.12091E-02        -0.65048E-02         0.00000E+00
    0.64758E-03        -0.32606E-02         0.00000E+00
    0.00000E+00         0.00000E+00         0.00000E+00
    0.70150E-02        -0.48317E-01         0.00000E+00
    0.61546E-02        -0.45199E-01         0.00000E+00
    0.54559E-02        -0.42063E-01         0.00000E+00
    0.48829E-02        -0.38909E-01         0.00000E+00
    0.44048E-02        -0.35739E-01         0.00000E+00
    0.39958E-02        -0.32556E-01         0.00000E+00
    0.36345E-02        -0.29361E-01         0.00000E+00
    0.33032E-02        -0.26156E-01         0.00000E+00
    0.29865E-02        -0.22941E-01         0.00000E+00
    0.26705E-02        -0.19714E-01         0.00000E+00
    0.23420E-02        -0.16475E-01         0.00000E+00
    0.19875E-02        -0.13221E-01         0.00000E+00
    0.15926E-02        -0.99478E-02         0.00000E+00
    0.11415E-02        -0.66543E-02         0.00000E+00
    0.61674E-03        -0.33383E-02         0.00000E+00
    0.00000E+00         0.00000E+00         0.00000E+00
    0.61847E-02        -0.49238E-01         0.00000E+00
    0.53976E-02        -0.46058E-01         0.00000E+00
    0.47734E-02        -0.42857E-01         0.00000E+00
    0.42719E-02        -0.39637E-01         0.00000E+00
    0.38597E-02        -0.36401E-01         0.00000E+00
    0.35107E-02        -0.33153E-01         0.00000E+00
    0.32042E-02        -0.29896E-01         0.00000E+00
    0.29238E-02        -0.26631E-01         0.00000E+00
    0.26555E-02        -0.23359E-01         0.00000E+00
    0.23868E-02        -0.20078E-01         0.00000E+00
    0.21056E-02        -0.16785E-01         0.00000E+00
    0.17992E-02        -0.13476E-01         0.00000E+00
    0.14535E-02        -0.10147E-01         0.00000E+00
    0.10517E-02        -0.67930E-02         0.00000E+00
    0.57456E-03        -0.34112E-02         0.00000E+00
    0.00000E+00         0.00000E+00         0.00000E+00
    0.52209E-02        -0.50078E-01         0.00000E+00
    0.45275E-02        -0.46837E-01         0.00000E+00
    0.39949E-02        -0.43571E-01         0.00000E+00
    0.35772E-02        -0.40285E-01         0.00000E+00
    0.32394E-02        -0.36985E-01         0.00000E+00
    0.29561E-02        -0.33676E-01         0.00000E+00
    0.27085E-02        -0.30363E-01         0.00000E+00
    0.24822E-02        -0.27045E-01         0.00000E+00
    0.22654E-02        -0.23723E-01         0.00000E+00
    0.20474E-02        -0.20394E-01         0.00000E+00
    0.18178E-02        -0.17055E-01         0.00000E+00
    0.15653E-02        -0.13700E-01         0.00000E+00
    0.12765E-02        -0.10323E-01         0.00000E+00
    0.93473E-03        -0.69181E-02         0.00000E+00
    0.51812E-03        -0.34782E-02         0.00000E+00
    0.00000E+00         0.00000E+00         0.00000E+00
    0.41206E-02        -0.50814E-01         0.00000E+00
    0.35455E-02        -0.47513E-01         0.00000E+00
    0.31231E-02        -0.44182E-01         0.00000E+00
    0.28011E-02        -0.40832E-01         0.00000E+00
    0.25446E-02        -0.37472E-01         0.00000E+00
    0.23309E-02        -0.34109E-01         0.00000E+00
    0.21446E-02        -0.30746E-01         0.00000E+00
    0.19745E-02        -0.27384E-01         0.00000E+00
    0.18111E-02        -0.24020E-01         0.00000E+00
    0.16462E-02        -0.20653E-01         0.00000E+00
    0.14715E-02        -0.17277E-01         0.00000E+00
    0.12779E-02        -0.13886E-01         0.00000E+00
    0.10538E-02        -0.10472E-01         0.00000E+00
    0.78334E-03        -0.70262E-02         0.00000E+00
    0.44304E-03        -0.35381E-02         0.00000E+00
    0.00000E+00         0.00000E+00         0.00000E+00
    0.28822E-02        -0.51416E-01         0.00000E+00
    0.24562E-02        -0.48054E-01         0.00000E+00
    0.21635E-02        -0.44661E-01         0.00000E+00
    0.19464E-02        -0.41252E-01         0.00000E+00
    0.17749E-02        -0.37842E-01         0.00000E+00
    0.16327E-02        -0.34435E-01         0.00000E+00
    0.15088E-02        -0.31033E-01         0.00000E+00
    0.13955E-02        -0.27636E-01         0.00000E+00
    0.12866E-02        -0.24242E-01         0.00000E+00
    0.11762E-02        -0.20846E-01         0.00000E+00
    0.10588E-02        -0.17443E-01         0.00000E+00
    0.92789E-03        -0.14026E-01         0.00000E+00
    0.77491E-03        -0.10587E-01         0.00000E+00
    0.58730E-03        -0.71130E-02         0.00000E+00
    0.34242E-03        -0.35889E-02         0.00000E+00
    0.00000E+00         0.00000E+00         0.00000E+00
    0.15052E-02        -0.51844E-01         0.00000E+00
    0.12695E-02        -0.48422E-01         0.00000E+00
    0.11222E-02        -0.44972E-01         0.00000E+00
    0.10137E-02        -0.41520E-01         0.00000E+00
    0.92838E-03        -0.38074E-01         0.00000E+00
    0.85762E-03        -0.34638E-01         0.00000E+00
    0.79600E-03        -0.31211E-01         0.00000E+00
    0.73961E-03        -0.27792E-01         0.00000E+00
    0.68526E-03        -0.24378E-01         0.00000E+00
    0.63011E-03        -0.20965E-01         0.00000E+00
    0.57125E-03        -0.17546E-01         0.00000E+00
    0.50533E-03        -0.14114E-01         0.00000E+00
    0.42786E-03        -0.10660E-01         0.00000E+00
    0.33179E-03        -0.71713E-02         0.00000E+00
    0.20385E-03        -0.36281E-02         0.00000E+00
    0.00000E+00         0.00000E+00         0.00000E+00
    0.00000E+00        -0.52025E-01         0.00000E+00
    0.00000E+00        -0.48558E-01         0.00000E+00
    0.00000E+00        -0.45082E-01         0.00000E+00
    0.00000E+00        -0.41612E-01         0.00000E+00
    0.00000E+00        -0.38153E-01         0.00000E+00
    0.00000E+00        -0.34707E-01         0.00000E+00
    0.00000E+00        -0.31271E-01         0.00000E+00
    0.00000E+00        -0.27845E-01         0.00000E+00
    0.00000E+00        -0.24425E-01         0.00000E+00
    0.00000E+00        -0.21005E-01         0.00000E+00
    0.00000E+00        -0.17581E-01         0.00000E+00
    0.00000E+00        -0.14144E-01         0.00000E+00
    0.00000E+00        -0.10686E-01         0.00000E+00
    0.00000E+00        -0.71923E-02         0.00000E+00
    0.00000E+00        -0.36445E-02         0.00000E+00
    0.00000E+00         0.00000E+00         0.00000E+00
CELL_DATA        450
VECTORS vDarcy double 
    0.25082E-09        -0.29261E-10         0.00000E+00
    0.25071E-09        -0.79770E-10         0.00000E+00
    0.25050E-09        -0.11985E-09         0.00000E+00
    0.25020E-09        -0.15029E-09         0.00000E+00
    0.24984E-09        -0.17183E-09         0.00000E+00
    0.24942E-09        -0.18518E-09         0.00000E+00
    0.24897E-09        -0.19097E-09         0.00000E+00
    0.24849E-09        -0.18979E-09         0.00000E+00
    0.24802E-09        -0.18214E-09         0.00000E+00
    0.24756E-09        -0.16848E-09         0.00000E+00
    0.24715E-09        -0.14920E-09         0.00000E+00
    0.24678E-09        -0.12463E-09         0.00000E+00
    0.24649E-09        -0.95042E-10         0.00000E+00
    0.24628E-09        -0.60652E-10         0.00000E+00
    0.24617E-09        -0.21636E-10         0.00000E+00
    0.75174E-09        -0.29157E-10         0.00000E+00
    0.75140E-09        -0.79465E-10         0.00000E+00
    0.75077E-09        -0.11936E-09         0.00000E+00
    0.74989E-09        -0.14964E-09         0.00000E+00
    0.74879E-09        -0.17105E-09         0.00000E+00
    0.74752E-09        -0.18431E-09         0.00000E+00
    0.74615E-09        -0.19004E-09         0.00000E+00
    0.74472E-09        -0.18884E-09         0.00000E+00
    0.74329E-09        -0.18121E-09         0.00000E+00
    0.74192E-09        -0.16761E-09         0.00000E+00
    0.74066E-09        -0.14842E-09         0.00000E+00
    0.73957E-09        -0.12398E-09         0.00000E+00
    0.73869E-09        -0.94542E-10         0.00000E+00
    0.73806E-09        -0.60335E-10         0.00000E+00
    0.73772E-09        -0.21524E-10         0.00000E+00
    0.12505E-08        -0.28946E-10         0.00000E+00
    0.12499E-08        -0.78846E-10         0.00000E+00
    0.12489E-08        -0.11837E-09         0.00000E+00
    0.12474E-08        -0.14833E-09         0.00000E+00
    0.12455E-08        -0.16948E-09         0.00000E+00
    0.12434E-08        -0.18255E-09         0.00000E+00
    0.12411E-08        -0.18817E-09         0.00000E+00
    0.12387E-08        -0.18693E-09         0.00000E+00
    0.12363E-08        -0.17934E-09         0.00000E+00
    0.12340E-08        -0.16585E-09         0.00000E+00
    0.12319E-08        -0.14685E-09         0.00000E+00
    0.12300E-08        -0.12266E-09         0.00000E+00
    0.12285E-08        -0.93538E-10         0.00000E+00
    0.12275E-08        -0.59697E-10         0.00000E+00
    0.12269E-08        -0.21298E-10         0.00000E+00
    0.17457E-08        -0.28622E-10         0.00000E+00
    0.17449E-08        -0.77899E-10         0.00000E+00
    0.17434E-08        -0.11685E-09         0.00000E+00
    0.17412E-08        -0.14633E-09         0.00000E+00
    0.17386E-08        -0.16709E-09         0.00000E+00
    0.17356E-08        -0.17987E-09         0.00000E+00
    0.17323E-08        -0.18533E-09         0.00000E+00
    0.17288E-08        -0.18403E-09         0.00000E+00
    0.17254E-08        -0.17651E-09         0.00000E+00
    0.17222E-08        -0.16320E-09         0.00000E+00
    0.17192E-08        -0.14448E-09         0.00000E+00
    0.17166E-08        -0.12067E-09         0.00000E+00
    0.17145E-08        -0.92018E-10         0.00000E+00
    0.17130E-08        -0.58731E-10         0.00000E+00
    0.17122E-08        -0.20958E-10         0.00000E+00
    0.22359E-08        -0.28177E-10         0.00000E+00
    0.22348E-08        -0.76601E-10         0.00000E+00
    0.22328E-08        -0.11479E-09         0.00000E+00
    0.22300E-08        -0.14360E-09         0.00000E+00
    0.22265E-08        -0.16384E-09         0.00000E+00
    0.22225E-08        -0.17624E-09         0.00000E+00
    0.22182E-08        -0.18147E-09         0.00000E+00
    0.22137E-08        -0.18011E-09         0.00000E+00
    0.22093E-08        -0.17267E-09         0.00000E+00
    0.22050E-08        -0.15960E-09         0.00000E+00
    0.22011E-08        -0.14127E-09         0.00000E+00
    0.21977E-08        -0.11798E-09         0.00000E+00
    0.21950E-08        -0.89967E-10         0.00000E+00
    0.21930E-08        -0.57429E-10         0.00000E+00
    0.21920E-08        -0.20498E-10         0.00000E+00
    0.27195E-08        -0.27599E-10         0.00000E+00
    0.27181E-08        -0.74923E-10         0.00000E+00
    0.27156E-08        -0.11212E-09         0.00000E+00
    0.27120E-08        -0.14010E-09         0.00000E+00
    0.27077E-08        -0.15967E-09         0.00000E+00
    0.27027E-08        -0.17159E-09         0.00000E+00
    0.26973E-08        -0.17654E-09         0.00000E+00
    0.26917E-08        -0.17510E-09         0.00000E+00
    0.26862E-08        -0.16779E-09         0.00000E+00
    0.26809E-08        -0.15503E-09         0.00000E+00
    0.26760E-08        -0.13719E-09         0.00000E+00
    0.26718E-08        -0.11456E-09         0.00000E+00
    0.26684E-08        -0.87366E-10         0.00000E+00
    0.26660E-08        -0.55778E-10         0.00000E+00
    0.26648E-08        -0.19916E-10         0.00000E+00
    0.31951E-08        -0.26875E-10         0.00000E+00
    0.31934E-08        -0.72831E-10         0.00000E+00
    0.31903E-08        -0.10881E-09         0.00000E+00
    0.31860E-08        -0.13576E-09         0.00000E+00
    0.31807E-08        -0.15452E-09         0.00000E+00
    0.31746E-08        -0.16587E-09         0.00000E+00
    0.31681E-08        -0.17049E-09         0.00000E+00
    0.31614E-08        -0.16897E-09         0.00000E+00
    0.31546E-08        -0.16181E-09         0.00000E+00
    0.31483E-08        -0.14944E-09         0.00000E+00
    0.31424E-08        -0.13221E-09         0.00000E+00
    0.31374E-08        -0.11039E-09         0.00000E+00
    0.31333E-08        -0.84192E-10         0.00000E+00
    0.31304E-08        -0.53765E-10         0.00000E+00
    0.31289E-08        -0.19207E-10         0.00000E+00
    0.36612E-08        -0.25990E-10         0.00000E+00
    0.36592E-08        -0.70286E-10         0.00000E+00
    0.36555E-08        -0.10480E-09         0.00000E+00
    0.36503E-08        -0.13052E-09         0.00000E+00
    0.36440E-08        -0.14833E-09         0.00000E+00
    0.36368E-08        -0.15901E-09         0.00000E+00
    0.36290E-08        -0.16324E-09         0.00000E+00
    0.36210E-08        -0.16163E-09         0.00000E+00
    0.36131E-08        -0.15467E-09         0.00000E+00
    0.36056E-08        -0.14278E-09         0.00000E+00
    0.35987E-08        -0.12628E-09         0.00000E+00
    0.35927E-08        -0.10543E-09         0.00000E+00
    0.35880E-08        -0.80422E-10         0.00000E+00
    0.35846E-08        -0.51375E-10         0.00000E+00
    0.35828E-08        -0.18365E-10         0.00000E+00
    0.41162E-08        -0.24927E-10         0.00000E+00
    0.41138E-08        -0.67245E-10         0.00000E+00
    0.41094E-08        -0.10003E-09         0.00000E+00
    0.41034E-08        -0.12432E-09         0.00000E+00
    0.40959E-08        -0.14101E-09         0.00000E+00
    0.40875E-08        -0.15092E-09         0.00000E+00
    0.40785E-08        -0.15473E-09         0.00000E+00
    0.40692E-08        -0.15304E-09         0.00000E+00
    0.40600E-08        -0.14633E-09         0.00000E+00
    0.40513E-08        -0.13500E-09         0.00000E+00
    0.40433E-08        -0.11936E-09         0.00000E+00
    0.40364E-08        -0.99654E-10         0.00000E+00
    0.40309E-08        -0.76032E-10         0.00000E+00
    0.40270E-08        -0.48595E-10         0.00000E+00
    0.40249E-08        -0.17386E-10         0.00000E+00
    0.45585E-08        -0.23669E-10         0.00000E+00
    0.45557E-08        -0.63665E-10         0.00000E+00
    0.45506E-08        -0.94445E-10         0.00000E+00
    0.45436E-08        -0.11708E-09         0.00000E+00
    0.45350E-08        -0.13251E-09         0.00000E+00
    0.45253E-08        -0.14154E-09         0.00000E+00
    0.45150E-08        -0.14488E-09         0.00000E+00
    0.45043E-08        -0.14312E-09         0.00000E+00
    0.44938E-08        -0.13671E-09         0.00000E+00
    0.44838E-08        -0.12605E-09         0.00000E+00
    0.44747E-08        -0.11142E-09         0.00000E+00
    0.44669E-08        -0.93026E-10         0.00000E+00
    0.44606E-08        -0.71000E-10         0.00000E+00
    0.44562E-08        -0.45410E-10         0.00000E+00
    0.44538E-08        -0.16266E-10         0.00000E+00
    0.49865E-08        -0.22198E-10         0.00000E+00
    0.49834E-08        -0.59500E-10         0.00000E+00
    0.49775E-08        -0.87973E-10         0.00000E+00
    0.49694E-08        -0.10873E-09         0.00000E+00
    0.49596E-08        -0.12273E-09         0.00000E+00
    0.49486E-08        -0.13080E-09         0.00000E+00
    0.49368E-08        -0.13364E-09         0.00000E+00
    0.49247E-08        -0.13181E-09         0.00000E+00
    0.49129E-08        -0.12578E-09         0.00000E+00
    0.49016E-08        -0.11590E-09         0.00000E+00
    0.48914E-08        -0.10242E-09         0.00000E+00
    0.48825E-08        -0.85521E-10         0.00000E+00
    0.48755E-08        -0.65308E-10         0.00000E+00
    0.48705E-08        -0.41809E-10         0.00000E+00
    0.48679E-08        -0.15001E-10         0.00000E+00
    0.53987E-08        -0.20497E-10         0.00000E+00
    0.53950E-08        -0.54708E-10         0.00000E+00
    0.53884E-08        -0.80565E-10         0.00000E+00
    0.53792E-08        -0.99213E-10         0.00000E+00
    0.53682E-08        -0.11163E-09         0.00000E+00
    0.53557E-08        -0.11865E-09         0.00000E+00
    0.53425E-08        -0.12095E-09         0.00000E+00
    0.53290E-08        -0.11909E-09         0.00000E+00
    0.53157E-08        -0.11350E-09         0.00000E+00
    0.53031E-08        -0.10451E-09         0.00000E+00
    0.52917E-08        -0.92333E-10         0.00000E+00
    0.52819E-08        -0.77126E-10         0.00000E+00
    0.52741E-08        -0.58945E-10         0.00000E+00
    0.52686E-08        -0.37787E-10         0.00000E+00
    0.52656E-08        -0.13587E-10         0.00000E+00
    0.57932E-08        -0.18550E-10         0.00000E+00
    0.57891E-08        -0.49253E-10         0.00000E+00
    0.57816E-08        -0.72172E-10         0.00000E+00
    0.57713E-08        -0.88479E-10         0.00000E+00
    0.57590E-08        -0.99163E-10         0.00000E+00
    0.57451E-08        -0.10505E-09         0.00000E+00
    0.57304E-08        -0.10679E-09         0.00000E+00
    0.57154E-08        -0.10493E-09         0.00000E+00
    0.57007E-08        -0.99859E-10         0.00000E+00
    0.56869E-08        -0.91874E-10         0.00000E+00
    0.56743E-08        -0.81165E-10         0.00000E+00
    0.56635E-08        -0.67836E-10         0.00000E+00
    0.56549E-08        -0.51910E-10         0.00000E+00
    0.56489E-08        -0.33342E-10         0.00000E+00
    0.56457E-08        -0.12026E-10         0.00000E+00
    0.61684E-08        -0.16344E-10         0.00000E+00
    0.61639E-08        -0.43105E-10         0.00000E+00
    0.61555E-08        -0.62760E-10         0.00000E+00
    0.61441E-08        -0.76497E-10         0.00000E+00
    0.61304E-08        -0.85302E-10         0.00000E+00
    0.61152E-08        -0.89975E-10         0.00000E+00
    0.60990E-08        -0.91153E-10         0.00000E+00
    0.60826E-08        -0.89330E-10         0.00000E+00
    0.60665E-08        -0.84868E-10         0.00000E+00
    0.60514E-08        -0.78017E-10         0.00000E+00
    0.60377E-08        -0.68930E-10         0.00000E+00
    0.60260E-08        -0.57668E-10         0.00000E+00
    0.60166E-08        -0.44215E-10         0.00000E+00
    0.60100E-08        -0.28481E-10         0.00000E+00
    0.60066E-08        -0.10319E-10         0.00000E+00
    0.65227E-08        -0.13869E-10         0.00000E+00
    0.65177E-08        -0.36245E-10         0.00000E+00
    0.65085E-08        -0.52313E-10         0.00000E+00
    0.64959E-08        -0.63262E-10         0.00000E+00
    0.64809E-08        -0.70056E-10         0.00000E+00
    0.64643E-08        -0.73463E-10         0.00000E+00
    0.64467E-08        -0.74077E-10         0.00000E+00
    0.64289E-08        -0.72344E-10         0.00000E+00
    0.64116E-08        -0.68579E-10         0.00000E+00
    0.63953E-08        -0.62987E-10         0.00000E+00
    0.63806E-08        -0.55675E-10         0.00000E+00
    0.63679E-08        -0.46661E-10         0.00000E+00
    0.63579E-08        -0.35887E-10         0.00000E+00
    0.63508E-08        -0.23221E-10         0.00000E+00
    0.63470E-08        -0.84714E-11         0.00000E+00
    0.68543E-08        -0.11119E-10         0.00000E+00
    0.68488E-08        -0.28668E-10         0.00000E+00
    0.68387E-08        -0.40840E-10         0.00000E+00
    0.68251E-08        -0.48802E-10         0.00000E+00
    0.68089E-08        -0.53477E-10         0.00000E+00
    0.67910E-08        -0.55581E-10         0.00000E+00
    0.67721E-08        -0.55649E-10         0.00000E+00
    0.67531E-08        -0.54067E-10         0.00000E+00
    0.67346E-08        -0.51093E-10         0.00000E+00
    0.67172E-08        -0.46879E-10         0.00000E+00
    0.67015E-08        -0.41484E-10         0.00000E+00
    0.66881E-08        -0.34883E-10         0.00000E+00
    0.66774E-08        -0.26976E-10         0.00000E+00
    0.66699E-08        -0.17592E-10         0.00000E+00
    0.66659E-08        -0.64927E-11         0.00000E+00
    0.71615E-08        -0.80966E-11         0.00000E+00
    0.71555E-08        -0.20392E-10         0.00000E+00
    0.71447E-08        -0.28383E-10         0.00000E+00
    0.71301E-08        -0.33189E-10         0.00000E+00
    0.71127E-08        -0.35668E-10         0.00000E+00
    0.70936E-08        -0.36459E-10         0.00000E+00
    0.70737E-08        -0.36019E-10         0.00000E+00
    0.70536E-08        -0.34659E-10         0.00000E+00
    0.70341E-08        -0.32569E-10         0.00000E+00
    0.70159E-08        -0.29843E-10         0.00000E+00
    0.69994E-08        -0.26489E-10         0.00000E+00
    0.69854E-08        -0.22440E-10         0.00000E+00
    0.69742E-08        -0.17559E-10         0.00000E+00
    0.69663E-08        -0.11637E-10         0.00000E+00
    0.69621E-08        -0.43971E-11         0.00000E+00
    0.74426E-08        -0.48115E-11         0.00000E+00
    0.74362E-08        -0.11457E-10         0.00000E+00
    0.74246E-08        -0.15024E-10         0.00000E+00
    0.74091E-08        -0.16551E-10         0.00000E+00
    0.73909E-08        -0.16799E-10         0.00000E+00
    0.73709E-08        -0.16302E-10         0.00000E+00
    0.73501E-08        -0.15416E-10         0.00000E+00
    0.73292E-08        -0.14359E-10         0.00000E+00
    0.73091E-08        -0.13242E-10         0.00000E+00
    0.72902E-08        -0.12095E-10         0.00000E+00
    0.72733E-08        -0.10876E-10         0.00000E+00
    0.72587E-08        -0.94822E-11         0.00000E+00
    0.72472E-08        -0.77430E-11         0.00000E+00
    0.72390E-08        -0.54206E-11         0.00000E+00
    0.72347E-08        -0.22043E-11         0.00000E+00
    0.76958E-08        -0.12838E-11         0.00000E+00
    0.76891E-08        -0.19362E-11         0.00000E+00
    0.76769E-08        -0.89718E-12         0.00000E+00
    0.76608E-08         0.91503E-12         0.00000E+00
    0.76419E-08         0.28761E-11         0.00000E+00
    0.76213E-08         0.45905E-11         0.00000E+00
    0.76000E-08         0.58324E-11         0.00000E+00
    0.75788E-08         0.64965E-11         0.00000E+00
    0.75583E-08         0.65613E-11         0.00000E+00
    0.75392E-08         0.60652E-11         0.00000E+00
    0.75221E-08         0.50951E-11         0.00000E+00
    0.75074E-08         0.37858E-11         0.00000E+00
    0.74956E-08         0.23266E-11         0.00000E+00
    0.74873E-08         0.97289E-12         0.00000E+00
    0.74830E-08         0.59008E-13         0.00000E+00
    0.79195E-08         0.24530E-11         0.00000E+00
    0.79125E-08         0.80592E-11         0.00000E+00
    0.79000E-08         0.13798E-10         0.00000E+00
    0.78835E-08         0.18924E-10         0.00000E+00
    0.78643E-08         0.22998E-10         0.00000E+00
    0.78436E-08         0.25805E-10         0.00000E+00
    0.78223E-08         0.27281E-10         0.00000E+00
    0.78012E-08         0.27455E-10         0.00000E+00
    0.77810E-08         0.26405E-10         0.00000E+00
    0.77621E-08         0.24240E-10         0.00000E+00
    0.77452E-08         0.21086E-10         0.00000E+00
    0.77307E-08         0.17095E-10         0.00000E+00
    0.77190E-08         0.12459E-10         0.00000E+00
    0.77108E-08         0.74332E-11         0.00000E+00
    0.77064E-08         0.23588E-11         0.00000E+00
    0.81119E-08         0.63492E-11         0.00000E+00
    0.81048E-08         0.18367E-10         0.00000E+00
    0.80922E-08         0.28780E-10         0.00000E+00
    0.80757E-08         0.37082E-10         0.00000E+00
    0.80568E-08         0.43080E-10         0.00000E+00
    0.80366E-08         0.46788E-10         0.00000E+00
    0.80160E-08         0.48341E-10         0.00000E+00
    0.79957E-08         0.47922E-10         0.00000E+00
    0.79763E-08         0.45723E-10         0.00000E+00
    0.79583E-08         0.41916E-10         0.00000E+00
    0.79421E-08         0.36659E-10         0.00000E+00
    0.79282E-08         0.30100E-10         0.00000E+00
    0.79170E-08         0.22411E-10         0.00000E+00
    0.79090E-08         0.13820E-10         0.00000E+00
    0.79047E-08         0.46523E-11         0.00000E+00
    0.82714E-08         0.10334E-10         0.00000E+00
    0.82644E-08         0.28761E-10         0.00000E+00
    0.82520E-08         0.43665E-10         0.00000E+00
    0.82360E-08         0.54860E-10         0.00000E+00
    0.82181E-08         0.62475E-10         0.00000E+00
    0.81991E-08         0.66814E-10         0.00000E+00
    0.81800E-08         0.68249E-10         0.00000E+00
    0.81614E-08         0.67140E-10         0.00000E+00
    0.81437E-08         0.63794E-10         0.00000E+00
    0.81273E-08         0.58445E-10         0.00000E+00
    0.81126E-08         0.51262E-10         0.00000E+00
    0.80998E-08         0.42366E-10         0.00000E+00
    0.80894E-08         0.31877E-10         0.00000E+00
    0.80819E-08         0.19960E-10         0.00000E+00
    0.80779E-08         0.68866E-11         0.00000E+00
    0.83963E-08         0.14311E-10         0.00000E+00
    0.83895E-08         0.38934E-10         0.00000E+00
    0.83779E-08         0.57932E-10         0.00000E+00
    0.83632E-08         0.71553E-10         0.00000E+00
    0.83470E-08         0.80340E-10         0.00000E+00
    0.83303E-08         0.84955E-10         0.00000E+00
    0.83138E-08         0.86044E-10         0.00000E+00
    0.82979E-08         0.84160E-10         0.00000E+00
    0.82830E-08         0.79726E-10         0.00000E+00
    0.82691E-08         0.73024E-10         0.00000E+00
    0.82566E-08         0.64213E-10         0.00000E+00
    0.82457E-08         0.53356E-10         0.00000E+00
    0.82366E-08         0.40479E-10         0.00000E+00
    0.82300E-08         0.25635E-10         0.00000E+00
    0.82264E-08         0.89973E-11         0.00000E+00
    0.84848E-08         0.18147E-10         0.00000E+00
    0.84787E-08         0.48466E-10         0.00000E+00
    0.84684E-08         0.70884E-10         0.00000E+00
    0.84559E-08         0.86231E-10         0.00000E+00
    0.84427E-08         0.95586E-10         0.00000E+00
    0.84295E-08         0.10004E-09         0.00000E+00
    0.84169E-08         0.10053E-09         0.00000E+00
    0.84050E-08         0.97827E-10         0.00000E+00
    0.83940E-08         0.92439E-10         0.00000E+00
    0.83838E-08         0.84682E-10         0.00000E+00
    0.83745E-08         0.74681E-10         0.00000E+00
    0.83662E-08         0.62409E-10         0.00000E+00
    0.83592E-08         0.47749E-10         0.00000E+00
    0.83538E-08         0.30580E-10         0.00000E+00
    0.83508E-08         0.10906E-10         0.00000E+00
    0.85351E-08         0.21657E-10         0.00000E+00
    0.85301E-08         0.56774E-10         0.00000E+00
    0.85220E-08         0.81567E-10         0.00000E+00
    0.85130E-08         0.97664E-10         0.00000E+00
    0.85042E-08         0.10682E-09         0.00000E+00
    0.84962E-08         0.11061E-09         0.00000E+00
    0.84890E-08         0.11028E-09         0.00000E+00
    0.84827E-08         0.10677E-09         0.00000E+00
    0.84770E-08         0.10066E-09         0.00000E+00
    0.84718E-08         0.92268E-10         0.00000E+00
    0.84669E-08         0.81669E-10         0.00000E+00
    0.84623E-08         0.68718E-10         0.00000E+00
    0.84580E-08         0.53106E-10         0.00000E+00
    0.84544E-08         0.34462E-10         0.00000E+00
    0.84522E-08         0.12516E-10         0.00000E+00
    0.85452E-08         0.24574E-10         0.00000E+00
    0.85420E-08         0.63023E-10         0.00000E+00
    0.85375E-08         0.88653E-10         0.00000E+00
    0.85337E-08         0.10421E-09         0.00000E+00
    0.85313E-08         0.11227E-09         0.00000E+00
    0.85303E-08         0.11490E-09         0.00000E+00
    0.85304E-08         0.11361E-09         0.00000E+00
    0.85314E-08         0.10941E-09         0.00000E+00
    0.85327E-08         0.10293E-09         0.00000E+00
    0.85339E-08         0.94456E-10         0.00000E+00
    0.85348E-08         0.84002E-10         0.00000E+00
    0.85350E-08         0.71295E-10         0.00000E+00
    0.85344E-08         0.55814E-10         0.00000E+00
    0.85332E-08         0.36848E-10         0.00000E+00
    0.85322E-08         0.13703E-10         0.00000E+00
    0.85130E-08         0.26484E-10         0.00000E+00
    0.85125E-08         0.65930E-10         0.00000E+00
    0.85135E-08         0.90217E-10         0.00000E+00
    0.85173E-08         0.10366E-09         0.00000E+00
    0.85237E-08         0.10972E-09         0.00000E+00
    0.85321E-08         0.11084E-09         0.00000E+00
    0.85418E-08         0.10860E-09         0.00000E+00
    0.85519E-08         0.10402E-09         0.00000E+00
    0.85618E-08         0.97665E-10         0.00000E+00
    0.85711E-08         0.89782E-10         0.00000E+00
    0.85792E-08         0.80320E-10         0.00000E+00
    0.85856E-08         0.68925E-10         0.00000E+00
    0.85899E-08         0.54899E-10         0.00000E+00
    0.85921E-08         0.37136E-10         0.00000E+00
    0.85927E-08         0.14296E-10         0.00000E+00
    0.84353E-08         0.26659E-10         0.00000E+00
    0.84396E-08         0.63349E-10         0.00000E+00
    0.84492E-08         0.83345E-10         0.00000E+00
    0.84641E-08         0.93055E-10         0.00000E+00
    0.84825E-08         0.96513E-10         0.00000E+00
    0.85029E-08         0.96113E-10         0.00000E+00
    0.85242E-08         0.93278E-10         0.00000E+00
    0.85453E-08         0.88845E-10         0.00000E+00
    0.85656E-08         0.83265E-10         0.00000E+00
    0.85845E-08         0.76714E-10         0.00000E+00
    0.86013E-08         0.69114E-10         0.00000E+00
    0.86155E-08         0.60116E-10         0.00000E+00
    0.86264E-08         0.48986E-10         0.00000E+00
    0.86334E-08         0.34389E-10         0.00000E+00
    0.86364E-08         0.14005E-10         0.00000E+00
    0.83082E-08         0.23596E-10         0.00000E+00
    0.83210E-08         0.51088E-10         0.00000E+00
    0.83448E-08         0.63592E-10         0.00000E+00
    0.83754E-08         0.68638E-10         0.00000E+00
    0.84094E-08         0.69643E-10         0.00000E+00
    0.84446E-08         0.68349E-10         0.00000E+00
    0.84796E-08         0.65708E-10         0.00000E+00
    0.85134E-08         0.62249E-10         0.00000E+00
    0.85455E-08         0.58245E-10         0.00000E+00
    0.85752E-08         0.53795E-10         0.00000E+00
    0.86023E-08         0.48836E-10         0.00000E+00
    0.86260E-08         0.43123E-10         0.00000E+00
    0.86456E-08         0.36117E-10         0.00000E+00
    0.86598E-08         0.26710E-10         0.00000E+00
    0.86668E-08         0.12375E-10         0.00000E+00
    0.81239E-08         0.10498E-10         0.00000E+00
    0.81564E-08         0.20915E-10         0.00000E+00
    0.82031E-08         0.24912E-10         0.00000E+00
    0.82550E-08         0.26228E-10         0.00000E+00
    0.83080E-08         0.26202E-10         0.00000E+00
    0.83602E-08         0.25458E-10         0.00000E+00
    0.84105E-08         0.24317E-10         0.00000E+00
    0.84582E-08         0.22953E-10         0.00000E+00
    0.85029E-08         0.21454E-10         0.00000E+00
    0.85446E-08         0.19850E-10         0.00000E+00
    0.85829E-08         0.18118E-10         0.00000E+00
    0.86176E-08         0.16175E-10         0.00000E+00
    0.86480E-08         0.13828E-10         0.00000E+00
    0.86729E-08         0.10654E-10         0.00000E+00
    0.86896E-08         0.55786E-11         0.00000E+00
POINT_DATA        496
VECTORS vDarcyNodal double 
    0.25084E-09        -0.29287E-10         0.00000E+00
    0.25079E-09        -0.54567E-10         0.00000E+00
    0.25062E-09        -0.99909E-10         0.00000E+00
    0.25037E-09        -0.13521E-09         0.00000E+00
    0.25004E-09        -0.16124E-09         0.00000E+00
    0.24964E-09        -0.17871E-09         0.00000E+00
    0.24920E-09        -0.18830E-09         0.00000E+00
    0.24873E-09        -0.19061E-09         0.00000E+00
    0.24825E-09        -0.18620E-09         0.00000E+00
    0.24778E-09        -0.17553E-09         0.00000E+00
    0.24734E-09        -0.15905E-09         0.00000E+00
    0.24695E-09        -0.13710E-09         0.00000E+00
    0.24662E-09        -0.10998E-09         0.00000E+00
    0.24636E-09        -0.77949E-10         0.00000E+00
    0.24620E-09        -0.41198E-10         0.00000E+00
    0.24614E-09        -0.21664E-10         0.00000E+00
    0.50133E-09        -0.29236E-10         0.00000E+00
    0.50122E-09        -0.54465E-10         0.00000E+00
    0.50089E-09        -0.99711E-10         0.00000E+00
    0.50038E-09        -0.13493E-09         0.00000E+00
    0.49971E-09        -0.16088E-09         0.00000E+00
    0.49892E-09        -0.17830E-09         0.00000E+00
    0.49803E-09        -0.18785E-09         0.00000E+00
    0.49709E-09        -0.19015E-09         0.00000E+00
    0.49612E-09        -0.18573E-09         0.00000E+00
    0.49518E-09        -0.17509E-09         0.00000E+00
    0.49430E-09        -0.15864E-09         0.00000E+00
    0.49351E-09        -0.13674E-09         0.00000E+00
    0.49284E-09        -0.10969E-09         0.00000E+00
    0.49233E-09        -0.77745E-10         0.00000E+00
    0.49201E-09        -0.41091E-10         0.00000E+00
    0.49189E-09        -0.21608E-10         0.00000E+00
    0.10012E-08        -0.29079E-10         0.00000E+00
    0.10010E-08        -0.54157E-10         0.00000E+00
    0.10003E-08        -0.99113E-10         0.00000E+00
    0.99931E-09        -0.13407E-09         0.00000E+00
    0.99796E-09        -0.15981E-09         0.00000E+00
    0.99636E-09        -0.17706E-09         0.00000E+00
    0.99457E-09        -0.18650E-09         0.00000E+00
    0.99267E-09        -0.18874E-09         0.00000E+00
    0.99073E-09        -0.18432E-09         0.00000E+00
    0.98884E-09        -0.17373E-09         0.00000E+00
    0.98706E-09        -0.15740E-09         0.00000E+00
    0.98547E-09        -0.13566E-09         0.00000E+00
    0.98413E-09        -0.10883E-09         0.00000E+00
    0.98311E-09        -0.77132E-10         0.00000E+00
    0.98245E-09        -0.40768E-10         0.00000E+00
    0.98221E-09        -0.21440E-10         0.00000E+00
    0.14983E-08        -0.28813E-10         0.00000E+00
    0.14979E-08        -0.53635E-10         0.00000E+00
    0.14969E-08        -0.98101E-10         0.00000E+00
    0.14953E-08        -0.13262E-09         0.00000E+00
    0.14933E-08        -0.15800E-09         0.00000E+00
    0.14908E-08        -0.17497E-09         0.00000E+00
    0.14881E-08        -0.18422E-09         0.00000E+00
    0.14852E-08        -0.18636E-09         0.00000E+00
    0.14823E-08        -0.18195E-09         0.00000E+00
    0.14794E-08        -0.17146E-09         0.00000E+00
    0.14767E-08        -0.15531E-09         0.00000E+00
    0.14743E-08        -0.13385E-09         0.00000E+00
    0.14723E-08        -0.10737E-09         0.00000E+00
    0.14707E-08        -0.76103E-10         0.00000E+00
    0.14698E-08        -0.40227E-10         0.00000E+00
    0.14694E-08        -0.21157E-10         0.00000E+00
    0.19910E-08        -0.28431E-10         0.00000E+00
    0.19905E-08        -0.52886E-10         0.00000E+00
    0.19891E-08        -0.96652E-10         0.00000E+00
    0.19870E-08        -0.13056E-09         0.00000E+00
    0.19842E-08        -0.15542E-09         0.00000E+00
    0.19809E-08        -0.17199E-09         0.00000E+00
    0.19772E-08        -0.18098E-09         0.00000E+00
    0.19733E-08        -0.18299E-09         0.00000E+00
    0.19693E-08        -0.17859E-09         0.00000E+00
    0.19654E-08        -0.16824E-09         0.00000E+00
    0.19618E-08        -0.15236E-09         0.00000E+00
    0.19585E-08        -0.13129E-09         0.00000E+00
    0.19558E-08        -0.10531E-09         0.00000E+00
    0.19537E-08        -0.74646E-10         0.00000E+00
    0.19524E-08        -0.39462E-10         0.00000E+00
    0.19519E-08        -0.20758E-10         0.00000E+00
    0.24780E-08        -0.27922E-10         0.00000E+00
    0.24773E-08        -0.51892E-10         0.00000E+00
    0.24756E-08        -0.94735E-10         0.00000E+00
    0.24728E-08        -0.12783E-09         0.00000E+00
    0.24692E-08        -0.15202E-09         0.00000E+00
    0.24650E-08        -0.16808E-09         0.00000E+00
    0.24602E-08        -0.17673E-09         0.00000E+00
    0.24553E-08        -0.17858E-09         0.00000E+00
    0.24502E-08        -0.17419E-09         0.00000E+00
    0.24452E-08        -0.16403E-09         0.00000E+00
    0.24406E-08        -0.14851E-09         0.00000E+00
    0.24365E-08        -0.12795E-09         0.00000E+00
    0.24330E-08        -0.10263E-09         0.00000E+00
    0.24304E-08        -0.72749E-10         0.00000E+00
    0.24287E-08        -0.38465E-10         0.00000E+00
    0.24281E-08        -0.20238E-10         0.00000E+00
    0.29577E-08        -0.27275E-10         0.00000E+00
    0.29569E-08        -0.50630E-10         0.00000E+00
    0.29547E-08        -0.92310E-10         0.00000E+00
    0.29513E-08        -0.12439E-09         0.00000E+00
    0.29468E-08        -0.14775E-09         0.00000E+00
    0.29416E-08        -0.16318E-09         0.00000E+00
    0.29358E-08        -0.17141E-09         0.00000E+00
    0.29296E-08        -0.17307E-09         0.00000E+00
    0.29234E-08        -0.16870E-09         0.00000E+00
    0.29174E-08        -0.15879E-09         0.00000E+00
    0.29117E-08        -0.14371E-09         0.00000E+00
    0.29067E-08        -0.12380E-09         0.00000E+00
    0.29025E-08        -0.99296E-10         0.00000E+00
    0.28992E-08        -0.70394E-10         0.00000E+00
    0.28972E-08        -0.37229E-10         0.00000E+00
    0.28965E-08        -0.19594E-10         0.00000E+00
    0.34286E-08        -0.26475E-10         0.00000E+00
    0.34276E-08        -0.49076E-10         0.00000E+00
    0.34250E-08        -0.89334E-10         0.00000E+00
    0.34208E-08        -0.12018E-09         0.00000E+00
    0.34155E-08        -0.14254E-09         0.00000E+00
    0.34092E-08        -0.15722E-09         0.00000E+00
    0.34022E-08        -0.16496E-09         0.00000E+00
    0.33949E-08        -0.16639E-09         0.00000E+00
    0.33875E-08        -0.16207E-09         0.00000E+00
    0.33803E-08        -0.15246E-09         0.00000E+00
    0.33736E-08        -0.13794E-09         0.00000E+00
    0.33676E-08        -0.11880E-09         0.00000E+00
    0.33625E-08        -0.95286E-10         0.00000E+00
    0.33587E-08        -0.67563E-10         0.00000E+00
    0.33563E-08        -0.35743E-10         0.00000E+00
    0.33554E-08        -0.18820E-10         0.00000E+00
    0.38892E-08        -0.25505E-10         0.00000E+00
    0.38881E-08        -0.47200E-10         0.00000E+00
    0.38849E-08        -0.85756E-10         0.00000E+00
    0.38800E-08        -0.11514E-09         0.00000E+00
    0.38737E-08        -0.13632E-09         0.00000E+00
    0.38663E-08        -0.15012E-09         0.00000E+00
    0.38581E-08        -0.15730E-09         0.00000E+00
    0.38495E-08        -0.15849E-09         0.00000E+00
    0.38408E-08        -0.15424E-09         0.00000E+00
    0.38324E-08        -0.14499E-09         0.00000E+00
    0.38245E-08        -0.13113E-09         0.00000E+00
    0.38175E-08        -0.11291E-09         0.00000E+00
    0.38117E-08        -0.90569E-10         0.00000E+00
    0.38072E-08        -0.64235E-10         0.00000E+00
    0.38044E-08        -0.33998E-10         0.00000E+00
    0.38034E-08        -0.17911E-10         0.00000E+00
    0.43380E-08        -0.24349E-10         0.00000E+00
    0.43366E-08        -0.44972E-10         0.00000E+00
    0.43329E-08        -0.81524E-10         0.00000E+00
    0.43272E-08        -0.10921E-09         0.00000E+00
    0.43198E-08        -0.12902E-09         0.00000E+00
    0.43112E-08        -0.14182E-09         0.00000E+00
    0.43017E-08        -0.14836E-09         0.00000E+00
    0.42918E-08        -0.14928E-09         0.00000E+00
    0.42817E-08        -0.14513E-09         0.00000E+00
    0.42721E-08        -0.13633E-09         0.00000E+00
    0.42630E-08        -0.12324E-09         0.00000E+00
    0.42550E-08        -0.10610E-09         0.00000E+00
    0.42483E-08        -0.85118E-10         0.00000E+00
    0.42432E-08        -0.60392E-10         0.00000E+00
    0.42400E-08        -0.31983E-10         0.00000E+00
    0.42388E-08        -0.16862E-10         0.00000E+00
    0.47733E-08        -0.22989E-10         0.00000E+00
    0.47717E-08        -0.42361E-10         0.00000E+00
    0.47674E-08        -0.76585E-10         0.00000E+00
    0.47608E-08        -0.10231E-09         0.00000E+00
    0.47523E-08        -0.12057E-09         0.00000E+00
    0.47424E-08        -0.13223E-09         0.00000E+00
    0.47316E-08        -0.13807E-09         0.00000E+00
    0.47202E-08        -0.13872E-09         0.00000E+00
    0.47088E-08        -0.13470E-09         0.00000E+00
    0.46978E-08        -0.12643E-09         0.00000E+00
    0.46876E-08        -0.11423E-09         0.00000E+00
    0.46785E-08        -0.98341E-10         0.00000E+00
    0.46709E-08        -0.78908E-10         0.00000E+00
    0.46652E-08        -0.56018E-10         0.00000E+00
    0.46615E-08        -0.29692E-10         0.00000E+00
    0.46602E-08        -0.15670E-10         0.00000E+00
    0.51935E-08        -0.21407E-10         0.00000E+00
    0.51917E-08        -0.39336E-10         0.00000E+00
    0.51867E-08        -0.70888E-10         0.00000E+00
    0.51792E-08        -0.94390E-10         0.00000E+00
    0.51695E-08        -0.11090E-09         0.00000E+00
    0.51583E-08        -0.12130E-09         0.00000E+00
    0.51460E-08        -0.12638E-09         0.00000E+00
    0.51333E-08        -0.12674E-09         0.00000E+00
    0.51204E-08        -0.12290E-09         0.00000E+00
    0.51081E-08        -0.11525E-09         0.00000E+00
    0.50966E-08        -0.10408E-09         0.00000E+00
    0.50865E-08        -0.89597E-10         0.00000E+00
    0.50780E-08        -0.71921E-10         0.00000E+00
    0.50716E-08        -0.51100E-10         0.00000E+00
    0.50675E-08        -0.27118E-10         0.00000E+00
    0.50661E-08        -0.14331E-10         0.00000E+00
    0.55969E-08        -0.19587E-10         0.00000E+00
    0.55949E-08        -0.35869E-10         0.00000E+00
    0.55893E-08        -0.64385E-10         0.00000E+00
    0.55807E-08        -0.85388E-10         0.00000E+00
    0.55699E-08        -0.99950E-10         0.00000E+00
    0.55573E-08        -0.10898E-09         0.00000E+00
    0.55436E-08        -0.11323E-09         0.00000E+00
    0.55293E-08        -0.11331E-09         0.00000E+00
    0.55151E-08        -0.10970E-09         0.00000E+00
    0.55013E-08        -0.10276E-09         0.00000E+00
    0.54886E-08        -0.92760E-10         0.00000E+00
    0.54774E-08        -0.79862E-10         0.00000E+00
    0.54681E-08        -0.64150E-10         0.00000E+00
    0.54610E-08        -0.45633E-10         0.00000E+00
    0.54565E-08        -0.24257E-10         0.00000E+00
    0.54549E-08        -0.12844E-10         0.00000E+00
    0.59819E-08        -0.17514E-10         0.00000E+00
    0.59796E-08        -0.31935E-10         0.00000E+00
    0.59733E-08        -0.57040E-10         0.00000E+00
    0.59638E-08        -0.75263E-10         0.00000E+00
    0.59517E-08        -0.87692E-10         0.00000E+00
    0.59377E-08        -0.95229E-10         0.00000E+00
    0.59226E-08        -0.98608E-10         0.00000E+00
    0.59068E-08        -0.98412E-10         0.00000E+00
    0.58912E-08        -0.95091E-10         0.00000E+00
    0.58761E-08        -0.88972E-10         0.00000E+00
    0.58622E-08        -0.80279E-10         0.00000E+00
    0.58499E-08        -0.69140E-10         0.00000E+00
    0.58397E-08        -0.55597E-10         0.00000E+00
    0.58319E-08        -0.39620E-10         0.00000E+00
    0.58270E-08        -0.21111E-10         0.00000E+00
    0.58252E-08        -0.11209E-10         0.00000E+00
    0.63468E-08        -0.15175E-10         0.00000E+00
    0.63443E-08        -0.27515E-10         0.00000E+00
    0.63373E-08        -0.48825E-10         0.00000E+00
    0.63267E-08        -0.63994E-10         0.00000E+00
    0.63134E-08        -0.74107E-10         0.00000E+00
    0.62980E-08        -0.80048E-10         0.00000E+00
    0.62814E-08        -0.82521E-10         0.00000E+00
    0.62643E-08        -0.82072E-10         0.00000E+00
    0.62472E-08        -0.79107E-10         0.00000E+00
    0.62309E-08        -0.73913E-10         0.00000E+00
    0.62158E-08        -0.66668E-10         0.00000E+00
    0.62025E-08        -0.57459E-10         0.00000E+00
    0.61914E-08        -0.46286E-10         0.00000E+00
    0.61831E-08        -0.33076E-10         0.00000E+00
    0.61777E-08        -0.17689E-10         0.00000E+00
    0.61759E-08        -0.94294E-11         0.00000E+00
    0.66899E-08        -0.12563E-10         0.00000E+00
    0.66871E-08        -0.22599E-10         0.00000E+00
    0.66794E-08        -0.39733E-10         0.00000E+00
    0.66678E-08        -0.51582E-10         0.00000E+00
    0.66533E-08        -0.59212E-10         0.00000E+00
    0.66366E-08        -0.63472E-10         0.00000E+00
    0.66186E-08        -0.65020E-10         0.00000E+00
    0.66002E-08        -0.64350E-10         0.00000E+00
    0.65818E-08        -0.61816E-10         0.00000E+00
    0.65643E-08        -0.57654E-10         0.00000E+00
    0.65482E-08        -0.51994E-10         0.00000E+00
    0.65339E-08        -0.44878E-10         0.00000E+00
    0.65221E-08        -0.36262E-10         0.00000E+00
    0.65132E-08        -0.26032E-10         0.00000E+00
    0.65075E-08        -0.14004E-10         0.00000E+00
    0.65055E-08        -0.75134E-11         0.00000E+00
    0.70094E-08        -0.96754E-11         0.00000E+00
    0.70063E-08        -0.17189E-10         0.00000E+00
    0.69980E-08        -0.29777E-10         0.00000E+00
    0.69854E-08        -0.38061E-10         0.00000E+00
    0.69697E-08        -0.43068E-10         0.00000E+00
    0.69519E-08        -0.45587E-10         0.00000E+00
    0.69327E-08        -0.46211E-10         0.00000E+00
    0.69130E-08        -0.45367E-10         0.00000E+00
    0.68936E-08        -0.43344E-10         0.00000E+00
    0.68751E-08        -0.40319E-10         0.00000E+00
    0.68580E-08        -0.36370E-10         0.00000E+00
    0.68430E-08        -0.31490E-10         0.00000E+00
    0.68305E-08        -0.25598E-10         0.00000E+00
    0.68211E-08        -0.18536E-10         0.00000E+00
    0.68151E-08        -0.10081E-10         0.00000E+00
    0.68130E-08        -0.54721E-11         0.00000E+00
    0.73037E-08        -0.65180E-11         0.00000E+00
    0.73004E-08        -0.11301E-10         0.00000E+00
    0.72913E-08        -0.19000E-10         0.00000E+00
    0.72779E-08        -0.23512E-10         0.00000E+00
    0.72613E-08        -0.25790E-10         0.00000E+00
    0.72424E-08        -0.26541E-10         0.00000E+00
    0.72222E-08        -0.26268E-10         0.00000E+00
    0.72016E-08        -0.25312E-10         0.00000E+00
    0.71813E-08        -0.23885E-10         0.00000E+00
    0.71619E-08        -0.22094E-10         0.00000E+00
    0.71442E-08        -0.19962E-10         0.00000E+00
    0.71285E-08        -0.17439E-10         0.00000E+00
    0.71156E-08        -0.14402E-10         0.00000E+00
    0.71057E-08        -0.10660E-10         0.00000E+00
    0.70995E-08        -0.59537E-11         0.00000E+00
    0.70973E-08        -0.33221E-11         0.00000E+00
    0.75710E-08        -0.31051E-11         0.00000E+00
    0.75674E-08        -0.49688E-11         0.00000E+00
    0.75578E-08        -0.74825E-11         0.00000E+00
    0.75437E-08        -0.80641E-11         0.00000E+00
    0.75262E-08        -0.75607E-11         0.00000E+00
    0.75065E-08        -0.65611E-11         0.00000E+00
    0.74857E-08        -0.54515E-11         0.00000E+00
    0.74644E-08        -0.44643E-11         0.00000E+00
    0.74436E-08        -0.37177E-11         0.00000E+00
    0.74238E-08        -0.32442E-11         0.00000E+00
    0.74057E-08        -0.30096E-11         0.00000E+00
    0.73897E-08        -0.29203E-11         0.00000E+00
    0.73764E-08        -0.28238E-11         0.00000E+00
    0.73664E-08        -0.25036E-11         0.00000E+00
    0.73600E-08        -0.16714E-11         0.00000E+00
    0.73577E-08        -0.10866E-11         0.00000E+00
    0.78095E-08         0.53732E-12         0.00000E+00
    0.78058E-08         0.17484E-11         0.00000E+00
    0.77958E-08         0.46484E-11         0.00000E+00
    0.77811E-08         0.80810E-11         0.00000E+00
    0.77631E-08         0.11351E-10         0.00000E+00
    0.77430E-08         0.14027E-10         0.00000E+00
    0.77219E-08         0.15873E-10         0.00000E+00
    0.77005E-08         0.16792E-10         0.00000E+00
    0.76796E-08         0.16775E-10         0.00000E+00
    0.76598E-08         0.15870E-10         0.00000E+00
    0.76416E-08         0.14169E-10         0.00000E+00
    0.76257E-08         0.11801E-10         0.00000E+00
    0.76124E-08         0.89358E-11         0.00000E+00
    0.76023E-08         0.58027E-11         0.00000E+00
    0.75958E-08         0.27031E-11         0.00000E+00
    0.75935E-08         0.12045E-11         0.00000E+00
    0.80177E-08         0.43685E-11         0.00000E+00
    0.80138E-08         0.87634E-11         0.00000E+00
    0.80035E-08         0.17208E-10         0.00000E+00
    0.79886E-08         0.24640E-10         0.00000E+00
    0.79705E-08         0.30570E-10         0.00000E+00
    0.79505E-08         0.34776E-10         0.00000E+00
    0.79296E-08         0.37212E-10         0.00000E+00
    0.79087E-08         0.37943E-10         0.00000E+00
    0.78883E-08         0.37085E-10         0.00000E+00
    0.78690E-08         0.34775E-10         0.00000E+00
    0.78514E-08         0.31156E-10         0.00000E+00
    0.78359E-08         0.26380E-10         0.00000E+00
    0.78229E-08         0.20618E-10         0.00000E+00
    0.78130E-08         0.14089E-10         0.00000E+00
    0.78067E-08         0.70888E-11         0.00000E+00
    0.78044E-08         0.35131E-11         0.00000E+00
    0.81937E-08         0.83296E-11         0.00000E+00
    0.81897E-08         0.15952E-10         0.00000E+00
    0.81795E-08         0.29938E-10         0.00000E+00
    0.81647E-08         0.41222E-10         0.00000E+00
    0.81470E-08         0.49591E-10         0.00000E+00
    0.81278E-08         0.55091E-10         0.00000E+00
    0.81079E-08         0.57915E-10         0.00000E+00
    0.80881E-08         0.58319E-10         0.00000E+00
    0.80690E-08         0.56559E-10         0.00000E+00
    0.80510E-08         0.52863E-10         0.00000E+00
    0.80346E-08         0.47418E-10         0.00000E+00
    0.80201E-08         0.40378E-10         0.00000E+00
    0.80079E-08         0.31893E-10         0.00000E+00
    0.79985E-08         0.22142E-10         0.00000E+00
    0.79924E-08         0.11384E-10         0.00000E+00
    0.79902E-08         0.57915E-11         0.00000E+00
    0.83359E-08         0.12339E-10         0.00000E+00
    0.83320E-08         0.23143E-10         0.00000E+00
    0.83220E-08         0.42487E-10         0.00000E+00
    0.83079E-08         0.57302E-10         0.00000E+00
    0.82914E-08         0.67743E-10         0.00000E+00
    0.82737E-08         0.74197E-10         0.00000E+00
    0.82557E-08         0.77147E-10         0.00000E+00
    0.82381E-08         0.77069E-10         0.00000E+00
    0.82212E-08         0.74374E-10         0.00000E+00
    0.82054E-08         0.69375E-10         0.00000E+00
    0.81910E-08         0.62288E-10         0.00000E+00
    0.81782E-08         0.53249E-10         0.00000E+00
    0.81673E-08         0.42350E-10         0.00000E+00
    0.81588E-08         0.29695E-10         0.00000E+00
    0.81532E-08         0.15462E-10         0.00000E+00
    0.81511E-08         0.79816E-11         0.00000E+00
    0.84425E-08         0.16283E-10         0.00000E+00
    0.84388E-08         0.30102E-10         0.00000E+00
    0.84295E-08         0.54379E-10         0.00000E+00
    0.84168E-08         0.72183E-10         0.00000E+00
    0.84023E-08         0.84149E-10         0.00000E+00
    0.83873E-08         0.91097E-10         0.00000E+00
    0.83725E-08         0.93851E-10         0.00000E+00
    0.83582E-08         0.93134E-10         0.00000E+00
    0.83447E-08         0.89512E-10         0.00000E+00
    0.83322E-08         0.83375E-10         0.00000E+00
    0.83207E-08         0.74948E-10         0.00000E+00
    0.83104E-08         0.64319E-10         0.00000E+00
    0.83015E-08         0.51484E-10         0.00000E+00
    0.82943E-08         0.36419E-10         0.00000E+00
    0.82895E-08         0.19170E-10         0.00000E+00
    0.82876E-08         0.10013E-10         0.00000E+00
    0.85117E-08         0.20010E-10         0.00000E+00
    0.85084E-08         0.36510E-10         0.00000E+00
    0.85004E-08         0.64970E-10         0.00000E+00
    0.84900E-08         0.84932E-10         0.00000E+00
    0.84789E-08         0.97668E-10         0.00000E+00
    0.84680E-08         0.10453E-09         0.00000E+00
    0.84577E-08         0.10672E-09         0.00000E+00
    0.84482E-08         0.10523E-09         0.00000E+00
    0.84395E-08         0.10075E-09         0.00000E+00
    0.84315E-08         0.93745E-10         0.00000E+00
    0.84241E-08         0.84414E-10         0.00000E+00
    0.84173E-08         0.72770E-10         0.00000E+00
    0.84112E-08         0.58673E-10         0.00000E+00
    0.84060E-08         0.41909E-10         0.00000E+00
    0.84022E-08         0.22316E-10         0.00000E+00
    0.84007E-08         0.11799E-10         0.00000E+00
    0.85416E-08         0.23303E-10         0.00000E+00
    0.85389E-08         0.41920E-10         0.00000E+00
    0.85331E-08         0.73371E-10         0.00000E+00
    0.85264E-08         0.94299E-10         0.00000E+00
    0.85203E-08         0.10682E-09         0.00000E+00
    0.85152E-08         0.11290E-09         0.00000E+00
    0.85112E-08         0.11417E-09         0.00000E+00
    0.85082E-08         0.11182E-09         0.00000E+00
    0.85059E-08         0.10667E-09         0.00000E+00
    0.85039E-08         0.99179E-10         0.00000E+00
    0.85019E-08         0.89523E-10         0.00000E+00
    0.84998E-08         0.77617E-10         0.00000E+00
    0.84974E-08         0.63150E-10         0.00000E+00
    0.84949E-08         0.45658E-10         0.00000E+00
    0.84927E-08         0.24661E-10         0.00000E+00
    0.84916E-08         0.13233E-10         0.00000E+00
    0.85301E-08         0.25844E-10         0.00000E+00
    0.85284E-08         0.45675E-10         0.00000E+00
    0.85260E-08         0.78305E-10         0.00000E+00
    0.85250E-08         0.98564E-10         0.00000E+00
    0.85260E-08         0.10966E-09         0.00000E+00
    0.85290E-08         0.11427E-09         0.00000E+00
    0.85334E-08         0.11433E-09         0.00000E+00
    0.85388E-08         0.11119E-09         0.00000E+00
    0.85445E-08         0.10566E-09         0.00000E+00
    0.85500E-08         0.98204E-10         0.00000E+00
    0.85550E-08         0.88936E-10         0.00000E+00
    0.85589E-08         0.77680E-10         0.00000E+00
    0.85616E-08         0.63959E-10         0.00000E+00
    0.85627E-08         0.47003E-10         0.00000E+00
    0.85626E-08         0.25890E-10         0.00000E+00
    0.85621E-08         0.14174E-10         0.00000E+00
    0.84742E-08         0.27125E-10         0.00000E+00
    0.84744E-08         0.46739E-10         0.00000E+00
    0.84776E-08         0.77843E-10         0.00000E+00
    0.84851E-08         0.95312E-10         0.00000E+00
    0.84963E-08         0.10372E-09         0.00000E+00
    0.85099E-08         0.10630E-09         0.00000E+00
    0.85251E-08         0.10511E-09         0.00000E+00
    0.85408E-08         0.10144E-09         0.00000E+00
    0.85564E-08         0.96024E-10         0.00000E+00
    0.85711E-08         0.89244E-10         0.00000E+00
    0.85845E-08         0.81167E-10         0.00000E+00
    0.85960E-08         0.71565E-10         0.00000E+00
    0.86051E-08         0.59866E-10         0.00000E+00
    0.86113E-08         0.45032E-10         0.00000E+00
    0.86143E-08         0.25543E-10         0.00000E+00
    0.86147E-08         0.14419E-10         0.00000E+00
    0.83702E-08         0.26194E-10         0.00000E+00
    0.83737E-08         0.43270E-10         0.00000E+00
    0.83868E-08         0.68852E-10         0.00000E+00
    0.84072E-08         0.81089E-10         0.00000E+00
    0.84322E-08         0.85850E-10         0.00000E+00
    0.84596E-08         0.86331E-10         0.00000E+00
    0.84879E-08         0.84283E-10         0.00000E+00
    0.85159E-08         0.80688E-10         0.00000E+00
    0.85428E-08         0.76087E-10         0.00000E+00
    0.85682E-08         0.70736E-10         0.00000E+00
    0.85915E-08         0.64662E-10         0.00000E+00
    0.86121E-08         0.57666E-10         0.00000E+00
    0.86294E-08         0.49236E-10         0.00000E+00
    0.86426E-08         0.38344E-10         0.00000E+00
    0.86506E-08         0.22852E-10         0.00000E+00
    0.86524E-08         0.13592E-10         0.00000E+00
    0.82095E-08         0.20998E-10         0.00000E+00
    0.82231E-08         0.31415E-10         0.00000E+00
    0.82542E-08         0.45830E-10         0.00000E+00
    0.82937E-08         0.51142E-10         0.00000E+00
    0.83367E-08         0.52432E-10         0.00000E+00
    0.83807E-08         0.51662E-10         0.00000E+00
    0.84241E-08         0.49776E-10         0.00000E+00
    0.84659E-08         0.47271E-10         0.00000E+00
    0.85056E-08         0.44408E-10         0.00000E+00
    0.85428E-08         0.41305E-10         0.00000E+00
    0.85771E-08         0.37970E-10         0.00000E+00
    0.86081E-08         0.34294E-10         0.00000E+00
    0.86354E-08         0.30004E-10         0.00000E+00
    0.86581E-08         0.24484E-10         0.00000E+00
    0.86746E-08         0.16233E-10         0.00000E+00
    0.86816E-08         0.11157E-10         0.00000E+00
    0.81134E-08         0.00000E+00         0.00000E+00
    0.81349E-08         0.00000E+00         0.00000E+00
    0.81778E-08        -0.20711E-22         0.00000E+00
    0.82284E-08         0.18070E-26         0.00000E+00
    0.82815E-08         0.28998E-22         0.00000E+00
    0.83345E-08         0.00000E+00         0.00000E+00
    0.83859E-08         0.00000E+00         0.00000E+00
    0.84350E-08        -0.24861E-22         0.00000E+00
    0.84813E-08        -0.24861E-22         0.00000E+00
    0.85246E-08         0.24863E-22         0.00000E+00
    0.85646E-08         0.29007E-22         0.00000E+00
    0.86012E-08        -0.29010E-22         0.00000E+00
    0.86339E-08        -0.41434E-23         0.00000E+00
    0.86620E-08         0.29011E-22         0.00000E+00
    0.86838E-08         0.82892E-23         0.00000E+00
    0.86952E-08         0.00000E+00         0.00000E+00
CELL_DATA        450
TENSORS stressef double 
    0.30636E+07        -0.26068E+04         0.00000E+00
   -0.26068E+04        -0.25576E+08         0.00000E+00
    0.00000E+00         0.00000E+00        -0.45026E+07
 
    0.21954E+07        -0.64997E+04         0.00000E+00
   -0.64997E+04        -0.25593E+08         0.00000E+00
    0.00000E+00         0.00000E+00        -0.46796E+07
 
    0.13906E+07        -0.85152E+04         0.00000E+00
   -0.85152E+04        -0.25622E+08         0.00000E+00
    0.00000E+00         0.00000E+00        -0.48464E+07
 
    0.64204E+06        -0.85565E+04         0.00000E+00
   -0.85565E+04        -0.25659E+08         0.00000E+00
    0.00000E+00         0.00000E+00        -0.50033E+07
 
   -0.57399E+05        -0.65575E+04         0.00000E+00
   -0.65575E+04        -0.25697E+08         0.00000E+00
    0.00000E+00         0.00000E+00        -0.51508E+07
 
   -0.71501E+06        -0.24787E+04         0.00000E+00
   -0.24787E+04        -0.25731E+08         0.00000E+00
    0.00000E+00         0.00000E+00        -0.52892E+07
 
   -0.13381E+07         0.36965E+04         0.00000E+00
    0.36965E+04        -0.25756E+08         0.00000E+00
    0.00000E+00         0.00000E+00        -0.54189E+07
 
   -0.19340E+07         0.11966E+05         0.00000E+00
    0.11966E+05        -0.25767E+08         0.00000E+00
    0.00000E+00         0.00000E+00        -0.55403E+07
 
   -0.25098E+07         0.22312E+05         0.00000E+00
    0.22312E+05        -0.25760E+08         0.00000E+00
    0.00000E+00         0.00000E+00        -0.56539E+07
 
   -0.30726E+07         0.34708E+05         0.00000E+00
    0.34708E+05        -0.25727E+08         0.00000E+00
    0.00000E+00         0.00000E+00        -0.57600E+07
 
   -0.36292E+07         0.49120E+05         0.00000E+00
    0.49120E+05        -0.25666E+08         0.00000E+00
    0.00000E+00         0.00000E+00        -0.58591E+07
 
   -0.41864E+07         0.65509E+05         0.00000E+00
    0.65509E+05        -0.25571E+08         0.00000E+00
    0.00000E+00         0.00000E+00        -0.59515E+07
 
   -0.47504E+07         0.83842E+05         0.00000E+00
    0.83842E+05        -0.25437E+08         0.00000E+00
    0.00000E+00         0.00000E+00        -0.60375E+07
 
   -0.53277E+07         0.10409E+06         0.00000E+00
    0.10409E+06        -0.25261E+08         0.00000E+00
    0.00000E+00         0.00000E+00        -0.61176E+07
 
   -0.59242E+07         0.12623E+06         0.00000E+00
    0.12623E+06        -0.25036E+08         0.00000E+00
    0.00000E+00         0.00000E+00        -0.61921E+07
 
    0.29837E+07        -0.78809E+04         0.00000E+00
   -0.78809E+04        -0.25647E+08         0.00000E+00
    0.00000E+00         0.00000E+00        -0.45326E+07
 
    0.21192E+07        -0.19667E+05         0.00000E+00
   -0.19667E+05        -0.25664E+08         0.00000E+00
    0.00000E+00         0.00000E+00        -0.47089E+07
 
    0.13183E+07        -0.25804E+05         0.00000E+00
   -0.25804E+05        -0.25693E+08         0.00000E+00
    0.00000E+00         0.00000E+00        -0.48750E+07
 
    0.57386E+06        -0.26004E+05         0.00000E+00
   -0.26004E+05        -0.25730E+08         0.00000E+00
    0.00000E+00         0.00000E+00        -0.50312E+07
 
   -0.12135E+06        -0.20070E+05         0.00000E+00
   -0.20070E+05        -0.25769E+08         0.00000E+00
    0.00000E+00         0.00000E+00        -0.51780E+07
 
   -0.77465E+06        -0.78855E+04         0.00000E+00
   -0.78855E+04        -0.25804E+08         0.00000E+00
    0.00000E+00         0.00000E+00        -0.53156E+07
 
   -0.13934E+07         0.10596E+05         0.00000E+00
    0.10596E+05        -0.25830E+08         0.00000E+00
    0.00000E+00         0.00000E+00        -0.54446E+07
 
   -0.19850E+07         0.35367E+05         0.00000E+00
    0.35367E+05        -0.25842E+08         0.00000E+00
    0.00000E+00         0.00000E+00        -0.55654E+07
 
   -0.25565E+07         0.66373E+05         0.00000E+00
    0.66373E+05        -0.25835E+08         0.00000E+00
    0.00000E+00         0.00000E+00        -0.56783E+07
 
   -0.31151E+07         0.10353E+06         0.00000E+00
    0.10353E+06        -0.25804E+08         0.00000E+00
    0.00000E+00         0.00000E+00        -0.57838E+07
 
   -0.36677E+07         0.14673E+06         0.00000E+00
    0.14673E+06        -0.25744E+08         0.00000E+00
    0.00000E+00         0.00000E+00        -0.58823E+07
 
   -0.42208E+07         0.19586E+06         0.00000E+00
    0.19586E+06        -0.25650E+08         0.00000E+00
    0.00000E+00         0.00000E+00        -0.59741E+07
 
   -0.47809E+07         0.25082E+06         0.00000E+00
    0.25082E+06        -0.25517E+08         0.00000E+00
    0.00000E+00         0.00000E+00        -0.60596E+07
 
   -0.53543E+07         0.31152E+06         0.00000E+00
    0.31152E+06        -0.25342E+08         0.00000E+00
    0.00000E+00         0.00000E+00        -0.61393E+07
 
   -0.59470E+07         0.37788E+06         0.00000E+00
    0.37788E+06        -0.25119E+08         0.00000E+00
    0.00000E+00         0.00000E+00        -0.62132E+07
 
    0.28239E+07        -0.13337E+05         0.00000E+00
   -0.13337E+05        -0.25787E+08         0.00000E+00
    0.00000E+00         0.00000E+00        -0.45926E+07
 
    0.19668E+07        -0.33339E+05         0.00000E+00
   -0.33339E+05        -0.25805E+08         0.00000E+00
    0.00000E+00         0.00000E+00        -0.47676E+07
 
    0.11738E+07        -0.43869E+05         0.00000E+00
   -0.43869E+05        -0.25835E+08         0.00000E+00
    0.00000E+00         0.00000E+00        -0.49322E+07
 
    0.43756E+06        -0.44454E+05         0.00000E+00
   -0.44454E+05        -0.25873E+08         0.00000E+00
    0.00000E+00         0.00000E+00        -0.50870E+07
 
   -0.24916E+06        -0.34772E+05         0.00000E+00
   -0.34772E+05        -0.25912E+08         0.00000E+00
    0.00000E+00         0.00000E+00        -0.52323E+07
 
   -0.89384E+06        -0.14637E+05         0.00000E+00
   -0.14637E+05        -0.25949E+08         0.00000E+00
    0.00000E+00         0.00000E+00        -0.53685E+07
 
   -0.15039E+07         0.16021E+05         0.00000E+00
    0.16021E+05        -0.25977E+08         0.00000E+00
    0.00000E+00         0.00000E+00        -0.54961E+07
 
   -0.20869E+07         0.57180E+05         0.00000E+00
    0.57180E+05        -0.25991E+08         0.00000E+00
    0.00000E+00         0.00000E+00        -0.56155E+07
 
   -0.26499E+07         0.10874E+06         0.00000E+00
    0.10874E+06        -0.25986E+08         0.00000E+00
    0.00000E+00         0.00000E+00        -0.57271E+07
 
   -0.32001E+07         0.17056E+06         0.00000E+00
    0.17056E+06        -0.25956E+08         0.00000E+00
    0.00000E+00         0.00000E+00        -0.58313E+07
 
   -0.37444E+07         0.24246E+06         0.00000E+00
    0.24246E+06        -0.25899E+08         0.00000E+00
    0.00000E+00         0.00000E+00        -0.59286E+07
 
   -0.42895E+07         0.32423E+06         0.00000E+00
    0.32423E+06        -0.25807E+08         0.00000E+00
    0.00000E+00         0.00000E+00        -0.60193E+07
 
   -0.48418E+07         0.41570E+06         0.00000E+00
    0.41570E+06        -0.25677E+08         0.00000E+00
    0.00000E+00         0.00000E+00        -0.61038E+07
 
   -0.54075E+07         0.51670E+06         0.00000E+00
    0.51670E+06        -0.25505E+08         0.00000E+00
    0.00000E+00         0.00000E+00        -0.61824E+07
 
   -0.59926E+07         0.62712E+06         0.00000E+00
    0.62712E+06        -0.25285E+08         0.00000E+00
    0.00000E+00         0.00000E+00        -0.62555E+07
 
    0.25841E+07        -0.19095E+05         0.00000E+00
   -0.19095E+05        -0.25997E+08         0.00000E+00
    0.00000E+00         0.00000E+00        -0.46826E+07
 
    0.17382E+07        -0.47849E+05         0.00000E+00
   -0.47849E+05        -0.26015E+08         0.00000E+00
    0.00000E+00         0.00000E+00        -0.48554E+07
 
    0.95704E+06        -0.63223E+05         0.00000E+00
   -0.63223E+05        -0.26047E+08         0.00000E+00
    0.00000E+00         0.00000E+00        -0.50179E+07
 
    0.23328E+06        -0.64566E+05         0.00000E+00
   -0.64566E+05        -0.26086E+08         0.00000E+00
    0.00000E+00         0.00000E+00        -0.51705E+07
 
   -0.44064E+06        -0.51446E+05         0.00000E+00
   -0.51446E+05        -0.26128E+08         0.00000E+00
    0.00000E+00         0.00000E+00        -0.53137E+07
 
   -0.10723E+07        -0.23619E+05         0.00000E+00
   -0.23619E+05        -0.26166E+08         0.00000E+00
    0.00000E+00         0.00000E+00        -0.54477E+07
 
   -0.16694E+07         0.18999E+05         0.00000E+00
    0.18999E+05        -0.26196E+08         0.00000E+00
    0.00000E+00         0.00000E+00        -0.55732E+07
 
   -0.22394E+07         0.76360E+05         0.00000E+00
    0.76360E+05        -0.26213E+08         0.00000E+00
    0.00000E+00         0.00000E+00        -0.56905E+07
 
   -0.27896E+07         0.14832E+06         0.00000E+00
    0.14832E+06        -0.26211E+08         0.00000E+00
    0.00000E+00         0.00000E+00        -0.58001E+07
 
   -0.33272E+07         0.23464E+06         0.00000E+00
    0.23464E+06        -0.26185E+08         0.00000E+00
    0.00000E+00         0.00000E+00        -0.59024E+07
 
   -0.38592E+07         0.33507E+06         0.00000E+00
    0.33507E+06        -0.26130E+08         0.00000E+00
    0.00000E+00         0.00000E+00        -0.59979E+07
 
   -0.43923E+07         0.44931E+06         0.00000E+00
    0.44931E+06        -0.26042E+08         0.00000E+00
    0.00000E+00         0.00000E+00        -0.60869E+07
 
   -0.49328E+07         0.57708E+06         0.00000E+00
    0.57708E+06        -0.25916E+08         0.00000E+00
    0.00000E+00         0.00000E+00        -0.61698E+07
 
   -0.54870E+07         0.71815E+06         0.00000E+00
    0.71815E+06        -0.25748E+08         0.00000E+00
    0.00000E+00         0.00000E+00        -0.62469E+07
 
   -0.60607E+07         0.87235E+06         0.00000E+00
    0.87235E+06        -0.25533E+08         0.00000E+00
    0.00000E+00         0.00000E+00        -0.63186E+07
 
    0.22642E+07        -0.25275E+05         0.00000E+00
   -0.25275E+05        -0.26276E+08         0.00000E+00
    0.00000E+00         0.00000E+00        -0.48024E+07
 
    0.14334E+07        -0.63528E+05         0.00000E+00
   -0.63528E+05        -0.26295E+08         0.00000E+00
    0.00000E+00         0.00000E+00        -0.49724E+07
 
    0.66825E+06        -0.84370E+05         0.00000E+00
   -0.84370E+05        -0.26328E+08         0.00000E+00
    0.00000E+00         0.00000E+00        -0.51320E+07
 
   -0.38785E+05        -0.86992E+05         0.00000E+00
   -0.86992E+05        -0.26369E+08         0.00000E+00
    0.00000E+00         0.00000E+00        -0.52816E+07
 
   -0.69552E+06        -0.70864E+05         0.00000E+00
   -0.70864E+05        -0.26414E+08         0.00000E+00
    0.00000E+00         0.00000E+00        -0.54218E+07
 
   -0.13098E+07        -0.35699E+05         0.00000E+00
   -0.35699E+05        -0.26455E+08         0.00000E+00
    0.00000E+00         0.00000E+00        -0.55530E+07
 
   -0.18894E+07         0.18580E+05         0.00000E+00
    0.18580E+05        -0.26488E+08         0.00000E+00
    0.00000E+00         0.00000E+00        -0.56756E+07
 
   -0.24420E+07         0.91887E+05         0.00000E+00
    0.91887E+05        -0.26509E+08         0.00000E+00
    0.00000E+00         0.00000E+00        -0.57901E+07
 
   -0.29751E+07         0.18400E+06         0.00000E+00
    0.18400E+06        -0.26510E+08         0.00000E+00
    0.00000E+00         0.00000E+00        -0.58970E+07
 
   -0.34959E+07         0.29461E+06         0.00000E+00
    0.29461E+06        -0.26488E+08         0.00000E+00
    0.00000E+00         0.00000E+00        -0.59968E+07
 
   -0.40115E+07         0.42334E+06         0.00000E+00
    0.42334E+06        -0.26438E+08         0.00000E+00
    0.00000E+00         0.00000E+00        -0.60898E+07
 
   -0.45286E+07         0.56980E+06         0.00000E+00
    0.56980E+06        -0.26354E+08         0.00000E+00
    0.00000E+00         0.00000E+00        -0.61766E+07
 
   -0.50535E+07         0.73361E+06         0.00000E+00
    0.73361E+06        -0.26233E+08         0.00000E+00
    0.00000E+00         0.00000E+00        -0.62574E+07
 
   -0.55924E+07         0.91442E+06         0.00000E+00
    0.91442E+06        -0.26070E+08         0.00000E+00
    0.00000E+00         0.00000E+00        -0.63325E+07
 
   -0.61511E+07         0.11120E+07         0.00000E+00
    0.11120E+07        -0.25861E+08         0.00000E+00
    0.00000E+00         0.00000E+00        -0.64025E+07
 
    0.18642E+07        -0.31996E+05         0.00000E+00
   -0.31996E+05        -0.26624E+08         0.00000E+00
    0.00000E+00         0.00000E+00        -0.49520E+07
 
    0.10524E+07        -0.80700E+05         0.00000E+00
   -0.80700E+05        -0.26644E+08         0.00000E+00
    0.00000E+00         0.00000E+00        -0.51183E+07
 
    0.30756E+06        -0.10781E+06         0.00000E+00
   -0.10781E+06        -0.26679E+08         0.00000E+00
    0.00000E+00         0.00000E+00        -0.52742E+07
 
   -0.37834E+06        -0.11237E+06         0.00000E+00
   -0.11237E+06        -0.26722E+08         0.00000E+00
    0.00000E+00         0.00000E+00        -0.54201E+07
 
   -0.10134E+07        -0.93771E+05         0.00000E+00
   -0.93771E+05        -0.26769E+08         0.00000E+00
    0.00000E+00         0.00000E+00        -0.55566E+07
 
   -0.16058E+07        -0.51718E+05         0.00000E+00
   -0.51718E+05        -0.26814E+08         0.00000E+00
    0.00000E+00         0.00000E+00        -0.56840E+07
 
   -0.21634E+07         0.13846E+05         0.00000E+00
    0.13846E+05        -0.26852E+08         0.00000E+00
    0.00000E+00         0.00000E+00        -0.58030E+07
 
   -0.26943E+07         0.10277E+06         0.00000E+00
    0.10277E+06        -0.26876E+08         0.00000E+00
    0.00000E+00         0.00000E+00        -0.59140E+07
 
   -0.32059E+07         0.21475E+06         0.00000E+00
    0.21475E+06        -0.26882E+08         0.00000E+00
    0.00000E+00         0.00000E+00        -0.60176E+07
 
   -0.37057E+07         0.34936E+06         0.00000E+00
    0.34936E+06        -0.26865E+08         0.00000E+00
    0.00000E+00         0.00000E+00        -0.61141E+07
 
   -0.42008E+07         0.50610E+06         0.00000E+00
    0.50610E+06        -0.26820E+08         0.00000E+00
    0.00000E+00         0.00000E+00        -0.62042E+07
 
   -0.46979E+07         0.68447E+06         0.00000E+00
    0.68447E+06        -0.26742E+08         0.00000E+00
    0.00000E+00         0.00000E+00        -0.62880E+07
 
   -0.52034E+07         0.88395E+06         0.00000E+00
    0.88395E+06        -0.26627E+08         0.00000E+00
    0.00000E+00         0.00000E+00        -0.63662E+07
 
   -0.57233E+07         0.11041E+07         0.00000E+00
    0.11041E+07        -0.26471E+08         0.00000E+00
    0.00000E+00         0.00000E+00        -0.64389E+07
 
   -0.62634E+07         0.13446E+07         0.00000E+00
    0.13446E+07        -0.26270E+08         0.00000E+00
    0.00000E+00         0.00000E+00        -0.65066E+07
 
    0.13838E+07        -0.39375E+05         0.00000E+00
   -0.39375E+05        -0.27039E+08         0.00000E+00
    0.00000E+00         0.00000E+00        -0.51310E+07
 
    0.59531E+06        -0.99683E+05         0.00000E+00
   -0.99683E+05        -0.27060E+08         0.00000E+00
    0.00000E+00         0.00000E+00        -0.52929E+07
 
   -0.12481E+06        -0.13401E+06         0.00000E+00
   -0.13401E+06        -0.27097E+08         0.00000E+00
    0.00000E+00         0.00000E+00        -0.54443E+07
 
   -0.78503E+06        -0.14130E+06         0.00000E+00
   -0.14130E+06        -0.27143E+08         0.00000E+00
    0.00000E+00         0.00000E+00        -0.55857E+07
 
   -0.13938E+07        -0.12088E+06         0.00000E+00
   -0.12088E+06        -0.27194E+08         0.00000E+00
    0.00000E+00         0.00000E+00        -0.57176E+07
 
   -0.19597E+07        -0.72478E+05         0.00000E+00
   -0.72478E+05        -0.27243E+08         0.00000E+00
    0.00000E+00         0.00000E+00        -0.58405E+07
 
   -0.24908E+07         0.39182E+04         0.00000E+00
    0.39182E+04        -0.27285E+08         0.00000E+00
    0.00000E+00         0.00000E+00        -0.59551E+07
 
   -0.29954E+07         0.10807E+06         0.00000E+00
    0.10807E+06        -0.27314E+08         0.00000E+00
    0.00000E+00         0.00000E+00        -0.60619E+07
 
   -0.34813E+07         0.23955E+06         0.00000E+00
    0.23955E+06        -0.27326E+08         0.00000E+00
    0.00000E+00         0.00000E+00        -0.61614E+07
 
   -0.39558E+07         0.39781E+06         0.00000E+00
    0.39781E+06        -0.27314E+08         0.00000E+00
    0.00000E+00         0.00000E+00        -0.62540E+07
 
   -0.44263E+07         0.58222E+06         0.00000E+00
    0.58222E+06        -0.27276E+08         0.00000E+00
    0.00000E+00         0.00000E+00        -0.63404E+07
 
   -0.48995E+07         0.79212E+06         0.00000E+00
    0.79212E+06        -0.27205E+08         0.00000E+00
    0.00000E+00         0.00000E+00        -0.64208E+07
 
   -0.53817E+07         0.10268E+07         0.00000E+00
    0.10268E+07        -0.27097E+08         0.00000E+00
    0.00000E+00         0.00000E+00        -0.64958E+07
 
   -0.58791E+07         0.12858E+07         0.00000E+00
    0.12858E+07        -0.26949E+08         0.00000E+00
    0.00000E+00         0.00000E+00        -0.65656E+07
 
   -0.63971E+07         0.15686E+07         0.00000E+00
    0.15686E+07        -0.26756E+08         0.00000E+00
    0.00000E+00         0.00000E+00        -0.66306E+07
 
    0.82289E+06        -0.47523E+05         0.00000E+00
   -0.47523E+05        -0.27520E+08         0.00000E+00
    0.00000E+00         0.00000E+00        -0.53394E+07
 
    0.62196E+05        -0.12078E+06         0.00000E+00
   -0.12078E+06        -0.27542E+08         0.00000E+00
    0.00000E+00         0.00000E+00        -0.54960E+07
 
   -0.62857E+06        -0.16344E+06         0.00000E+00
   -0.16344E+06        -0.27581E+08         0.00000E+00
    0.00000E+00         0.00000E+00        -0.56420E+07
 
   -0.12584E+07        -0.17436E+06         0.00000E+00
   -0.17436E+06        -0.27631E+08         0.00000E+00
    0.00000E+00         0.00000E+00        -0.57779E+07
 
   -0.18361E+07        -0.15287E+06         0.00000E+00
   -0.15287E+06        -0.27686E+08         0.00000E+00
    0.00000E+00         0.00000E+00        -0.59044E+07
 
   -0.23707E+07        -0.98731E+05         0.00000E+00
   -0.98731E+05        -0.27740E+08         0.00000E+00
    0.00000E+00         0.00000E+00        -0.60221E+07
 
   -0.28708E+07        -0.12023E+05         0.00000E+00
   -0.12023E+05        -0.27787E+08         0.00000E+00
    0.00000E+00         0.00000E+00        -0.61315E+07
 
   -0.33446E+07         0.10689E+06         0.00000E+00
    0.10689E+06        -0.27821E+08         0.00000E+00
    0.00000E+00         0.00000E+00        -0.62332E+07
 
   -0.38002E+07         0.25746E+06         0.00000E+00
    0.25746E+06        -0.27839E+08         0.00000E+00
    0.00000E+00         0.00000E+00        -0.63278E+07
 
   -0.42453E+07         0.43897E+06         0.00000E+00
    0.43897E+06        -0.27834E+08         0.00000E+00
    0.00000E+00         0.00000E+00        -0.64159E+07
 
   -0.46871E+07         0.65063E+06         0.00000E+00
    0.65063E+06        -0.27803E+08         0.00000E+00
    0.00000E+00         0.00000E+00        -0.64979E+07
 
   -0.51325E+07         0.89160E+06         0.00000E+00
    0.89160E+06        -0.27739E+08         0.00000E+00
    0.00000E+00         0.00000E+00        -0.65744E+07
 
   -0.55878E+07         0.11611E+07         0.00000E+00
    0.11611E+07        -0.27640E+08         0.00000E+00
    0.00000E+00         0.00000E+00        -0.66456E+07
 
   -0.60590E+07         0.14583E+07         0.00000E+00
    0.14583E+07        -0.27501E+08         0.00000E+00
    0.00000E+00         0.00000E+00        -0.67121E+07
 
   -0.65516E+07         0.17826E+07         0.00000E+00
    0.17826E+07        -0.27318E+08         0.00000E+00
    0.00000E+00         0.00000E+00        -0.67740E+07
 
    0.18137E+06        -0.56548E+05         0.00000E+00
   -0.56548E+05        -0.28065E+08         0.00000E+00
    0.00000E+00         0.00000E+00        -0.55768E+07
 
   -0.54680E+06        -0.14428E+06         0.00000E+00
   -0.14428E+06        -0.28089E+08         0.00000E+00
    0.00000E+00         0.00000E+00        -0.57272E+07
 
   -0.12033E+07        -0.19652E+06         0.00000E+00
   -0.19652E+06        -0.28131E+08         0.00000E+00
    0.00000E+00         0.00000E+00        -0.58669E+07
 
   -0.17978E+07        -0.21209E+06         0.00000E+00
   -0.21209E+06        -0.28184E+08         0.00000E+00
    0.00000E+00         0.00000E+00        -0.59965E+07
 
   -0.23396E+07        -0.19036E+06         0.00000E+00
   -0.19036E+06        -0.28244E+08         0.00000E+00
    0.00000E+00         0.00000E+00        -0.61166E+07
 
   -0.28381E+07        -0.13116E+06         0.00000E+00
   -0.13116E+06        -0.28302E+08         0.00000E+00
    0.00000E+00         0.00000E+00        -0.62281E+07
 
   -0.33022E+07        -0.34724E+05         0.00000E+00
   -0.34724E+05        -0.28355E+08         0.00000E+00
    0.00000E+00         0.00000E+00        -0.63314E+07
 
   -0.37407E+07         0.98446E+05         0.00000E+00
    0.98446E+05        -0.28396E+08         0.00000E+00
    0.00000E+00         0.00000E+00        -0.64273E+07
 
   -0.41617E+07         0.26762E+06         0.00000E+00
    0.26762E+06        -0.28420E+08         0.00000E+00
    0.00000E+00         0.00000E+00        -0.65164E+07
 
   -0.45731E+07         0.47190E+06         0.00000E+00
    0.47190E+06        -0.28423E+08         0.00000E+00
    0.00000E+00         0.00000E+00        -0.65992E+07
 
   -0.49822E+07         0.71031E+06         0.00000E+00
    0.71031E+06        -0.28399E+08         0.00000E+00
    0.00000E+00         0.00000E+00        -0.66762E+07
 
   -0.53959E+07         0.98183E+06         0.00000E+00
    0.98183E+06        -0.28344E+08         0.00000E+00
    0.00000E+00         0.00000E+00        -0.67481E+07
 
   -0.58207E+07         0.12854E+07         0.00000E+00
    0.12854E+07        -0.28255E+08         0.00000E+00
    0.00000E+00         0.00000E+00        -0.68151E+07
 
   -0.62623E+07         0.16202E+07         0.00000E+00
    0.16202E+07        -0.28126E+08         0.00000E+00
    0.00000E+00         0.00000E+00        -0.68776E+07
 
   -0.67262E+07         0.19853E+07         0.00000E+00
    0.19853E+07        -0.27954E+08         0.00000E+00
    0.00000E+00         0.00000E+00        -0.69361E+07
 
   -0.54089E+06        -0.66552E+05         0.00000E+00
   -0.66552E+05        -0.28674E+08         0.00000E+00
    0.00000E+00         0.00000E+00        -0.58430E+07
 
   -0.12315E+07        -0.17044E+06         0.00000E+00
   -0.17044E+06        -0.28699E+08         0.00000E+00
    0.00000E+00         0.00000E+00        -0.59862E+07
 
   -0.18486E+07        -0.23363E+06         0.00000E+00
   -0.23363E+06        -0.28744E+08         0.00000E+00
    0.00000E+00         0.00000E+00        -0.61185E+07
 
   -0.24025E+07        -0.25495E+06         0.00000E+00
   -0.25495E+06        -0.28801E+08         0.00000E+00
    0.00000E+00         0.00000E+00        -0.62408E+07
 
   -0.29033E+07        -0.23387E+06         0.00000E+00
   -0.23387E+06        -0.28865E+08         0.00000E+00
    0.00000E+00         0.00000E+00        -0.63537E+07
 
   -0.33607E+07        -0.17036E+06         0.00000E+00
   -0.17036E+06        -0.28929E+08         0.00000E+00
    0.00000E+00         0.00000E+00        -0.64580E+07
 
   -0.37842E+07        -0.64832E+05         0.00000E+00
   -0.64832E+05        -0.28988E+08         0.00000E+00
    0.00000E+00         0.00000E+00        -0.65544E+07
 
   -0.41826E+07         0.82018E+05         0.00000E+00
    0.82018E+05        -0.29036E+08         0.00000E+00
    0.00000E+00         0.00000E+00        -0.66436E+07
 
   -0.45645E+07         0.26925E+06         0.00000E+00
    0.26925E+06        -0.29067E+08         0.00000E+00
    0.00000E+00         0.00000E+00        -0.67263E+07
 
   -0.49379E+07         0.49576E+06         0.00000E+00
    0.49576E+06        -0.29077E+08         0.00000E+00
    0.00000E+00         0.00000E+00        -0.68031E+07
 
   -0.53103E+07         0.76037E+06         0.00000E+00
    0.76037E+06        -0.29062E+08         0.00000E+00
    0.00000E+00         0.00000E+00        -0.68745E+07
 
   -0.56886E+07         0.10618E+07         0.00000E+00
    0.10618E+07        -0.29017E+08         0.00000E+00
    0.00000E+00         0.00000E+00        -0.69411E+07
 
   -0.60792E+07         0.13989E+07         0.00000E+00
    0.13989E+07        -0.28937E+08         0.00000E+00
    0.00000E+00         0.00000E+00        -0.70033E+07
 
   -0.64879E+07         0.17705E+07         0.00000E+00
    0.17705E+07        -0.28820E+08         0.00000E+00
    0.00000E+00         0.00000E+00        -0.70616E+07
 
   -0.69200E+07         0.21755E+07         0.00000E+00
    0.21755E+07        -0.28661E+08         0.00000E+00
    0.00000E+00         0.00000E+00        -0.71161E+07
 
   -0.13440E+07        -0.77624E+05         0.00000E+00
   -0.77624E+05        -0.29344E+08         0.00000E+00
    0.00000E+00         0.00000E+00        -0.61375E+07
 
   -0.19915E+07        -0.19950E+06         0.00000E+00
   -0.19950E+06        -0.29371E+08         0.00000E+00
    0.00000E+00         0.00000E+00        -0.62724E+07
 
   -0.25638E+07        -0.27509E+06         0.00000E+00
   -0.27509E+06        -0.29418E+08         0.00000E+00
    0.00000E+00         0.00000E+00        -0.63964E+07
 
   -0.30718E+07        -0.30333E+06         0.00000E+00
   -0.30333E+06        -0.29480E+08         0.00000E+00
    0.00000E+00         0.00000E+00        -0.65103E+07
 
   -0.35262E+07        -0.28384E+06         0.00000E+00
   -0.28384E+06        -0.29548E+08         0.00000E+00
    0.00000E+00         0.00000E+00        -0.66149E+07
 
   -0.39374E+07        -0.21681E+06         0.00000E+00
   -0.21681E+06        -0.29618E+08         0.00000E+00
    0.00000E+00         0.00000E+00        -0.67111E+07
 
   -0.43152E+07        -0.10287E+06         0.00000E+00
   -0.10287E+06        -0.29683E+08         0.00000E+00
    0.00000E+00         0.00000E+00        -0.67996E+07
 
   -0.46689E+07         0.57030E+05         0.00000E+00
    0.57030E+05        -0.29738E+08         0.00000E+00
    0.00000E+00         0.00000E+00        -0.68813E+07
 
   -0.50073E+07         0.26171E+06         0.00000E+00
    0.26171E+06        -0.29777E+08         0.00000E+00
    0.00000E+00         0.00000E+00        -0.69568E+07
 
   -0.53385E+07         0.50984E+06         0.00000E+00
    0.50984E+06        -0.29795E+08         0.00000E+00
    0.00000E+00         0.00000E+00        -0.70268E+07
 
   -0.56702E+07         0.79999E+06         0.00000E+00
    0.79999E+06        -0.29789E+08         0.00000E+00
    0.00000E+00         0.00000E+00        -0.70919E+07
 
   -0.60093E+07         0.11307E+07         0.00000E+00
    0.11307E+07        -0.29754E+08         0.00000E+00
    0.00000E+00         0.00000E+00        -0.71526E+07
 
   -0.63623E+07         0.15005E+07         0.00000E+00
    0.15005E+07        -0.29685E+08         0.00000E+00
    0.00000E+00         0.00000E+00        -0.72095E+07
 
   -0.67349E+07         0.19080E+07         0.00000E+00
    0.19080E+07        -0.29580E+08         0.00000E+00
    0.00000E+00         0.00000E+00        -0.72630E+07
 
   -0.71322E+07         0.23519E+07         0.00000E+00
    0.23519E+07        -0.29434E+08         0.00000E+00
    0.00000E+00         0.00000E+00        -0.73133E+07
 
   -0.22279E+07        -0.89840E+05         0.00000E+00
   -0.89840E+05        -0.30072E+08         0.00000E+00
    0.00000E+00         0.00000E+00        -0.64600E+07
 
   -0.28265E+07        -0.23163E+06         0.00000E+00
   -0.23163E+06        -0.30101E+08         0.00000E+00
    0.00000E+00         0.00000E+00        -0.65855E+07
 
   -0.33481E+07        -0.32116E+06         0.00000E+00
   -0.32116E+06        -0.30152E+08         0.00000E+00
    0.00000E+00         0.00000E+00        -0.66999E+07
 
   -0.38044E+07        -0.35752E+06         0.00000E+00
   -0.35752E+06        -0.30217E+08         0.00000E+00
    0.00000E+00         0.00000E+00        -0.68043E+07
 
   -0.42070E+07        -0.34059E+06         0.00000E+00
   -0.34059E+06        -0.30291E+08         0.00000E+00
    0.00000E+00         0.00000E+00        -0.68996E+07
 
   -0.45667E+07        -0.27084E+06         0.00000E+00
   -0.27084E+06        -0.30366E+08         0.00000E+00
    0.00000E+00         0.00000E+00        -0.69866E+07
 
   -0.48939E+07        -0.14921E+06         0.00000E+00
   -0.14921E+06        -0.30437E+08         0.00000E+00
    0.00000E+00         0.00000E+00        -0.70663E+07
 
   -0.51982E+07         0.23064E+05         0.00000E+00
    0.23064E+05        -0.30499E+08         0.00000E+00
    0.00000E+00         0.00000E+00        -0.71394E+07
 
   -0.54886E+07         0.24451E+06         0.00000E+00
    0.24451E+06        -0.30546E+08         0.00000E+00
    0.00000E+00         0.00000E+00        -0.72069E+07
 
   -0.57734E+07         0.51354E+06         0.00000E+00
    0.51354E+06        -0.30573E+08         0.00000E+00
    0.00000E+00         0.00000E+00        -0.72693E+07
 
   -0.60603E+07         0.82847E+06         0.00000E+00
    0.82847E+06        -0.30576E+08         0.00000E+00
    0.00000E+00         0.00000E+00        -0.73274E+07
 
   -0.63566E+07         0.11876E+07         0.00000E+00
    0.11876E+07        -0.30552E+08         0.00000E+00
    0.00000E+00         0.00000E+00        -0.73817E+07
 
   -0.66685E+07         0.15893E+07         0.00000E+00
    0.15893E+07        -0.30495E+08         0.00000E+00
    0.00000E+00         0.00000E+00        -0.74327E+07
 
   -0.70018E+07         0.20317E+07         0.00000E+00
    0.20317E+07        -0.30403E+08         0.00000E+00
    0.00000E+00         0.00000E+00        -0.74809E+07
 
   -0.73617E+07         0.25134E+07         0.00000E+00
    0.25134E+07        -0.30271E+08         0.00000E+00
    0.00000E+00         0.00000E+00        -0.75266E+07
 
   -0.31925E+07        -0.10326E+06         0.00000E+00
   -0.10326E+06        -0.30857E+08         0.00000E+00
    0.00000E+00         0.00000E+00        -0.68100E+07
 
   -0.37359E+07        -0.26697E+06         0.00000E+00
   -0.26697E+06        -0.30888E+08         0.00000E+00
    0.00000E+00         0.00000E+00        -0.69248E+07
 
   -0.42005E+07        -0.37197E+06         0.00000E+00
   -0.37197E+06        -0.30942E+08         0.00000E+00
    0.00000E+00         0.00000E+00        -0.70284E+07
 
   -0.45992E+07        -0.41766E+06         0.00000E+00
   -0.41766E+06        -0.31011E+08         0.00000E+00
    0.00000E+00         0.00000E+00        -0.71221E+07
 
   -0.49442E+07        -0.40425E+06         0.00000E+00
   -0.40425E+06        -0.31090E+08         0.00000E+00
    0.00000E+00         0.00000E+00        -0.72068E+07
 
   -0.52471E+07        -0.33260E+06         0.00000E+00
   -0.33260E+06        -0.31171E+08         0.00000E+00
    0.00000E+00         0.00000E+00        -0.72835E+07
 
   -0.55186E+07        -0.20401E+06         0.00000E+00
   -0.20401E+06        -0.31248E+08         0.00000E+00
    0.00000E+00         0.00000E+00        -0.73533E+07
 
   -0.57687E+07        -0.20102E+05         0.00000E+00
   -0.20102E+05        -0.31316E+08         0.00000E+00
    0.00000E+00         0.00000E+00        -0.74170E+07
 
   -0.60066E+07         0.21735E+06         0.00000E+00
    0.21735E+06        -0.31371E+08         0.00000E+00
    0.00000E+00         0.00000E+00        -0.74755E+07
 
   -0.62409E+07         0.50645E+06         0.00000E+00
    0.50645E+06        -0.31407E+08         0.00000E+00
    0.00000E+00         0.00000E+00        -0.75295E+07
 
   -0.64793E+07         0.84528E+06         0.00000E+00
    0.84528E+06        -0.31420E+08         0.00000E+00
    0.00000E+00         0.00000E+00        -0.75798E+07
 
   -0.67290E+07         0.12319E+07         0.00000E+00
    0.12319E+07        -0.31406E+08         0.00000E+00
    0.00000E+00         0.00000E+00        -0.76270E+07
 
   -0.69965E+07         0.16644E+07         0.00000E+00
    0.16644E+07        -0.31362E+08         0.00000E+00
    0.00000E+00         0.00000E+00        -0.76716E+07
 
   -0.72876E+07         0.21408E+07         0.00000E+00
    0.21408E+07        -0.31283E+08         0.00000E+00
    0.00000E+00         0.00000E+00        -0.77141E+07
 
   -0.76072E+07         0.26591E+07         0.00000E+00
    0.26591E+07        -0.31167E+08         0.00000E+00
    0.00000E+00         0.00000E+00        -0.77548E+07
 
   -0.42375E+07        -0.11791E+06         0.00000E+00
   -0.11791E+06        -0.31697E+08         0.00000E+00
    0.00000E+00         0.00000E+00        -0.71869E+07
 
   -0.47187E+07        -0.30556E+06         0.00000E+00
   -0.30556E+06        -0.31729E+08         0.00000E+00
    0.00000E+00         0.00000E+00        -0.72895E+07
 
   -0.51198E+07        -0.42756E+06         0.00000E+00
   -0.42756E+06        -0.31786E+08         0.00000E+00
    0.00000E+00         0.00000E+00        -0.73811E+07
 
   -0.54545E+07        -0.48372E+06         0.00000E+00
   -0.48372E+06        -0.31859E+08         0.00000E+00
    0.00000E+00         0.00000E+00        -0.74627E+07
 
   -0.57361E+07        -0.47474E+06         0.00000E+00
   -0.47474E+06        -0.31942E+08         0.00000E+00
    0.00000E+00         0.00000E+00        -0.75356E+07
 
   -0.59767E+07        -0.40197E+06         0.00000E+00
   -0.40197E+06        -0.32028E+08         0.00000E+00
    0.00000E+00         0.00000E+00        -0.76009E+07
 
   -0.61875E+07        -0.26719E+06         0.00000E+00
   -0.26719E+06        -0.32111E+08         0.00000E+00
    0.00000E+00         0.00000E+00        -0.76597E+07
 
   -0.63787E+07        -0.72440E+05         0.00000E+00
   -0.72440E+05        -0.32186E+08         0.00000E+00
    0.00000E+00         0.00000E+00        -0.77129E+07
 
   -0.65598E+07         0.18013E+06         0.00000E+00
    0.18013E+06        -0.32248E+08         0.00000E+00
    0.00000E+00         0.00000E+00        -0.77615E+07
 
   -0.67394E+07         0.48834E+06         0.00000E+00
    0.48834E+06        -0.32292E+08         0.00000E+00
    0.00000E+00         0.00000E+00        -0.78063E+07
 
   -0.69254E+07         0.85003E+06         0.00000E+00
    0.85003E+06        -0.32315E+08         0.00000E+00
    0.00000E+00         0.00000E+00        -0.78481E+07
 
   -0.71250E+07         0.12630E+07         0.00000E+00
    0.12630E+07        -0.32312E+08         0.00000E+00
    0.00000E+00         0.00000E+00        -0.78875E+07
 
   -0.73448E+07         0.17252E+07         0.00000E+00
    0.17252E+07        -0.32281E+08         0.00000E+00
    0.00000E+00         0.00000E+00        -0.79251E+07
 
   -0.75906E+07         0.22343E+07         0.00000E+00
    0.22343E+07        -0.32217E+08         0.00000E+00
    0.00000E+00         0.00000E+00        -0.79614E+07
 
   -0.78675E+07         0.27881E+07         0.00000E+00
    0.27881E+07        -0.32116E+08         0.00000E+00
    0.00000E+00         0.00000E+00        -0.79968E+07
 
   -0.53625E+07        -0.13381E+06         0.00000E+00
   -0.13381E+06        -0.32587E+08         0.00000E+00
    0.00000E+00         0.00000E+00        -0.75900E+07
 
   -0.57740E+07        -0.34736E+06         0.00000E+00
   -0.34736E+06        -0.32621E+08         0.00000E+00
    0.00000E+00         0.00000E+00        -0.76790E+07
 
   -0.61044E+07        -0.48778E+06         0.00000E+00
   -0.48778E+06        -0.32680E+08         0.00000E+00
    0.00000E+00         0.00000E+00        -0.77570E+07
 
   -0.63686E+07        -0.55546E+06         0.00000E+00
   -0.55546E+06        -0.32757E+08         0.00000E+00
    0.00000E+00         0.00000E+00        -0.78252E+07
 
   -0.65807E+07        -0.55173E+06         0.00000E+00
   -0.55173E+06        -0.32844E+08         0.00000E+00
    0.00000E+00         0.00000E+00        -0.78849E+07
 
   -0.67535E+07        -0.47857E+06         0.00000E+00
   -0.47857E+06        -0.32934E+08         0.00000E+00
    0.00000E+00         0.00000E+00        -0.79375E+07
 
   -0.68985E+07        -0.33835E+06         0.00000E+00
   -0.33835E+06        -0.33022E+08         0.00000E+00
    0.00000E+00         0.00000E+00        -0.79841E+07
 
   -0.70262E+07        -0.13362E+06         0.00000E+00
   -0.13362E+06        -0.33103E+08         0.00000E+00
    0.00000E+00         0.00000E+00        -0.80258E+07
 
   -0.71463E+07         0.13308E+06         0.00000E+00
    0.13308E+06        -0.33171E+08         0.00000E+00
    0.00000E+00         0.00000E+00        -0.80635E+07
 
   -0.72673E+07         0.45925E+06         0.00000E+00
    0.45925E+06        -0.33224E+08         0.00000E+00
    0.00000E+00         0.00000E+00        -0.80982E+07
 
   -0.73971E+07         0.84251E+06         0.00000E+00
    0.84251E+06        -0.33256E+08         0.00000E+00
    0.00000E+00         0.00000E+00        -0.81306E+07
 
   -0.75431E+07         0.12805E+07         0.00000E+00
    0.12805E+07        -0.33265E+08         0.00000E+00
    0.00000E+00         0.00000E+00        -0.81616E+07
 
   -0.77119E+07         0.17710E+07         0.00000E+00
    0.17710E+07        -0.33246E+08         0.00000E+00
    0.00000E+00         0.00000E+00        -0.81917E+07
 
   -0.79095E+07         0.23114E+07         0.00000E+00
    0.23114E+07        -0.33197E+08         0.00000E+00
    0.00000E+00         0.00000E+00        -0.82214E+07
 
   -0.81411E+07         0.28993E+07         0.00000E+00
    0.28993E+07        -0.33114E+08         0.00000E+00
    0.00000E+00         0.00000E+00        -0.82510E+07
 
   -0.65666E+07        -0.15091E+06         0.00000E+00
   -0.15091E+06        -0.33526E+08         0.00000E+00
    0.00000E+00         0.00000E+00        -0.80185E+07
 
   -0.69003E+07        -0.39222E+06         0.00000E+00
   -0.39222E+06        -0.33561E+08         0.00000E+00
    0.00000E+00         0.00000E+00        -0.80923E+07
 
   -0.71524E+07        -0.55231E+06         0.00000E+00
   -0.55231E+06        -0.33623E+08         0.00000E+00
    0.00000E+00         0.00000E+00        -0.81550E+07
 
   -0.73393E+07        -0.63236E+06         0.00000E+00
   -0.63236E+06        -0.33702E+08         0.00000E+00
    0.00000E+00         0.00000E+00        -0.82083E+07
 
   -0.74757E+07        -0.63453E+06         0.00000E+00
   -0.63453E+06        -0.33792E+08         0.00000E+00
    0.00000E+00         0.00000E+00        -0.82535E+07
 
   -0.75751E+07        -0.56161E+06         0.00000E+00
   -0.56161E+06        -0.33885E+08         0.00000E+00
    0.00000E+00         0.00000E+00        -0.82920E+07
 
   -0.76494E+07        -0.41669E+06         0.00000E+00
   -0.41669E+06        -0.33977E+08         0.00000E+00
    0.00000E+00         0.00000E+00        -0.83252E+07
 
   -0.77093E+07        -0.20291E+06         0.00000E+00
   -0.20291E+06        -0.34062E+08         0.00000E+00
    0.00000E+00         0.00000E+00        -0.83542E+07
 
   -0.77643E+07         0.76729E+05         0.00000E+00
    0.76729E+05        -0.34136E+08         0.00000E+00
    0.00000E+00         0.00000E+00        -0.83801E+07
 
   -0.78229E+07         0.41946E+06         0.00000E+00
    0.41946E+06        -0.34196E+08         0.00000E+00
    0.00000E+00         0.00000E+00        -0.84037E+07
 
   -0.78930E+07         0.82273E+06         0.00000E+00
    0.82273E+06        -0.34237E+08         0.00000E+00
    0.00000E+00         0.00000E+00        -0.84261E+07
 
   -0.79818E+07         0.12841E+07         0.00000E+00
    0.12841E+07        -0.34257E+08         0.00000E+00
    0.00000E+00         0.00000E+00        -0.84479E+07
 
   -0.80963E+07         0.18012E+07         0.00000E+00
    0.18012E+07        -0.34252E+08         0.00000E+00
    0.00000E+00         0.00000E+00        -0.84698E+07
 
   -0.82427E+07         0.23715E+07         0.00000E+00
    0.23715E+07        -0.34219E+08         0.00000E+00
    0.00000E+00         0.00000E+00        -0.84923E+07
 
   -0.84263E+07         0.29920E+07         0.00000E+00
    0.29920E+07        -0.34154E+08         0.00000E+00
    0.00000E+00         0.00000E+00        -0.85160E+07
 
   -0.78487E+07        -0.16913E+06         0.00000E+00
   -0.16913E+06        -0.34510E+08         0.00000E+00
    0.00000E+00         0.00000E+00        -0.84717E+07
 
   -0.80957E+07        -0.43983E+06         0.00000E+00
   -0.43983E+06        -0.34546E+08         0.00000E+00
    0.00000E+00         0.00000E+00        -0.85283E+07
 
   -0.82615E+07        -0.62057E+06         0.00000E+00
   -0.62057E+06        -0.34609E+08         0.00000E+00
    0.00000E+00         0.00000E+00        -0.85741E+07
 
   -0.83637E+07        -0.71358E+06         0.00000E+00
   -0.71358E+06        -0.34690E+08         0.00000E+00
    0.00000E+00         0.00000E+00        -0.86107E+07
 
   -0.84182E+07        -0.72207E+06         0.00000E+00
   -0.72207E+06        -0.34781E+08         0.00000E+00
    0.00000E+00         0.00000E+00        -0.86398E+07
 
   -0.84389E+07        -0.64986E+06         0.00000E+00
   -0.64986E+06        -0.34876E+08         0.00000E+00
    0.00000E+00         0.00000E+00        -0.86629E+07
 
   -0.84379E+07        -0.50094E+06         0.00000E+00
   -0.50094E+06        -0.34969E+08         0.00000E+00
    0.00000E+00         0.00000E+00        -0.86815E+07
 
   -0.84258E+07        -0.27915E+06         0.00000E+00
   -0.27915E+06        -0.35057E+08         0.00000E+00
    0.00000E+00         0.00000E+00        -0.86966E+07
 
   -0.84120E+07         0.12048E+05         0.00000E+00
    0.12048E+05        -0.35136E+08         0.00000E+00
    0.00000E+00         0.00000E+00        -0.87096E+07
 
   -0.84047E+07         0.36963E+06         0.00000E+00
    0.36963E+06        -0.35202E+08         0.00000E+00
    0.00000E+00         0.00000E+00        -0.87213E+07
 
   -0.84116E+07         0.79096E+06         0.00000E+00
    0.79096E+06        -0.35252E+08         0.00000E+00
    0.00000E+00         0.00000E+00        -0.87327E+07
 
   -0.84400E+07         0.12737E+07         0.00000E+00
    0.12737E+07        -0.35283E+08         0.00000E+00
    0.00000E+00         0.00000E+00        -0.87446E+07
 
   -0.84968E+07         0.18154E+07         0.00000E+00
    0.18154E+07        -0.35292E+08         0.00000E+00
    0.00000E+00         0.00000E+00        -0.87577E+07
 
   -0.85887E+07         0.24136E+07         0.00000E+00
    0.24136E+07        -0.35274E+08         0.00000E+00
    0.00000E+00         0.00000E+00        -0.87726E+07
 
   -0.87216E+07         0.30652E+07         0.00000E+00
    0.30652E+07        -0.35228E+08         0.00000E+00
    0.00000E+00         0.00000E+00        -0.87898E+07
 
   -0.92071E+07        -0.18835E+06         0.00000E+00
   -0.18835E+06        -0.35535E+08         0.00000E+00
    0.00000E+00         0.00000E+00        -0.89484E+07
 
   -0.93578E+07        -0.48971E+06         0.00000E+00
   -0.48971E+06        -0.35571E+08         0.00000E+00
    0.00000E+00         0.00000E+00        -0.89858E+07
 
   -0.94287E+07        -0.69170E+06         0.00000E+00
   -0.69170E+06        -0.35635E+08         0.00000E+00
    0.00000E+00         0.00000E+00        -0.90127E+07
 
   -0.94388E+07        -0.79783E+06         0.00000E+00
   -0.79783E+06        -0.35716E+08         0.00000E+00
    0.00000E+00         0.00000E+00        -0.90310E+07
 
   -0.94051E+07        -0.81272E+06         0.00000E+00
   -0.81272E+06        -0.35807E+08         0.00000E+00
    0.00000E+00         0.00000E+00        -0.90424E+07
 
   -0.93419E+07        -0.74150E+06         0.00000E+00
   -0.74150E+06        -0.35901E+08         0.00000E+00
    0.00000E+00         0.00000E+00        -0.90486E+07
 
   -0.92614E+07        -0.58923E+06         0.00000E+00
   -0.58923E+06        -0.35994E+08         0.00000E+00
    0.00000E+00         0.00000E+00        -0.90512E+07
 
   -0.91738E+07        -0.36057E+06         0.00000E+00
   -0.36057E+06        -0.36083E+08         0.00000E+00
    0.00000E+00         0.00000E+00        -0.90513E+07
 
   -0.90878E+07        -0.59503E+05         0.00000E+00
   -0.59503E+05        -0.36164E+08         0.00000E+00
    0.00000E+00         0.00000E+00        -0.90503E+07
 
   -0.90114E+07         0.31077E+06         0.00000E+00
    0.31077E+06        -0.36234E+08         0.00000E+00
    0.00000E+00         0.00000E+00        -0.90491E+07
 
   -0.89519E+07         0.74770E+06         0.00000E+00
    0.74770E+06        -0.36292E+08         0.00000E+00
    0.00000E+00         0.00000E+00        -0.90487E+07
 
   -0.89165E+07         0.12492E+07         0.00000E+00
    0.12492E+07        -0.36333E+08         0.00000E+00
    0.00000E+00         0.00000E+00        -0.90499E+07
 
   -0.89122E+07         0.18131E+07         0.00000E+00
    0.18131E+07        -0.36356E+08         0.00000E+00
    0.00000E+00         0.00000E+00        -0.90536E+07
 
   -0.89461E+07         0.24370E+07         0.00000E+00
    0.24370E+07        -0.36355E+08         0.00000E+00
    0.00000E+00         0.00000E+00        -0.90603E+07
 
   -0.90252E+07         0.31179E+07         0.00000E+00
    0.31179E+07        -0.36328E+08         0.00000E+00
    0.00000E+00         0.00000E+00        -0.90707E+07
 
   -0.10640E+08        -0.20837E+06         0.00000E+00
   -0.20837E+06        -0.36597E+08         0.00000E+00
    0.00000E+00         0.00000E+00        -0.94474E+07
 
   -0.10683E+08        -0.54121E+06         0.00000E+00
   -0.54121E+06        -0.36634E+08         0.00000E+00
    0.00000E+00         0.00000E+00        -0.94635E+07
 
   -0.10650E+08        -0.76445E+06         0.00000E+00
   -0.76445E+06        -0.36697E+08         0.00000E+00
    0.00000E+00         0.00000E+00        -0.94694E+07
 
   -0.10561E+08        -0.88334E+06         0.00000E+00
   -0.88334E+06        -0.36776E+08         0.00000E+00
    0.00000E+00         0.00000E+00        -0.94674E+07
 
   -0.10433E+08        -0.90426E+06         0.00000E+00
   -0.90426E+06        -0.36864E+08         0.00000E+00
    0.00000E+00         0.00000E+00        -0.94594E+07
 
   -0.10281E+08        -0.83398E+06         0.00000E+00
   -0.83398E+06        -0.36955E+08         0.00000E+00
    0.00000E+00         0.00000E+00        -0.94472E+07
 
   -0.10117E+08        -0.67894E+06         0.00000E+00
   -0.67894E+06        -0.37045E+08         0.00000E+00
    0.00000E+00         0.00000E+00        -0.94324E+07
 
   -0.99510E+07        -0.44474E+06         0.00000E+00
   -0.44474E+06        -0.37131E+08         0.00000E+00
    0.00000E+00         0.00000E+00        -0.94164E+07
 
   -0.97904E+07        -0.13586E+06         0.00000E+00
   -0.13586E+06        -0.37211E+08         0.00000E+00
    0.00000E+00         0.00000E+00        -0.94003E+07
 
   -0.96424E+07         0.24440E+06         0.00000E+00
    0.24440E+06        -0.37284E+08         0.00000E+00
    0.00000E+00         0.00000E+00        -0.93852E+07
 
   -0.95135E+07         0.69378E+06         0.00000E+00
    0.69378E+06        -0.37347E+08         0.00000E+00
    0.00000E+00         0.00000E+00        -0.93722E+07
 
   -0.94109E+07         0.12107E+07         0.00000E+00
    0.12107E+07        -0.37399E+08         0.00000E+00
    0.00000E+00         0.00000E+00        -0.93620E+07
 
   -0.93417E+07         0.17936E+07         0.00000E+00
    0.17936E+07        -0.37435E+08         0.00000E+00
    0.00000E+00         0.00000E+00        -0.93554E+07
 
   -0.93138E+07         0.24406E+07         0.00000E+00
    0.24406E+07        -0.37453E+08         0.00000E+00
    0.00000E+00         0.00000E+00        -0.93533E+07
 
   -0.93352E+07         0.31489E+07         0.00000E+00
    0.31489E+07        -0.37447E+08         0.00000E+00
    0.00000E+00         0.00000E+00        -0.93564E+07
 
   -0.12143E+08        -0.22893E+06         0.00000E+00
   -0.22893E+06        -0.37693E+08         0.00000E+00
    0.00000E+00         0.00000E+00        -0.99673E+07
 
   -0.12069E+08        -0.59340E+06         0.00000E+00
   -0.59340E+06        -0.37729E+08         0.00000E+00
    0.00000E+00         0.00000E+00        -0.99596E+07
 
   -0.11922E+08        -0.83716E+06         0.00000E+00
   -0.83716E+06        -0.37790E+08         0.00000E+00
    0.00000E+00         0.00000E+00        -0.99423E+07
 
   -0.11725E+08        -0.96768E+06         0.00000E+00
   -0.96768E+06        -0.37865E+08         0.00000E+00
    0.00000E+00         0.00000E+00        -0.99179E+07
 
   -0.11497E+08        -0.99364E+06         0.00000E+00
   -0.99364E+06        -0.37947E+08         0.00000E+00
    0.00000E+00         0.00000E+00        -0.98887E+07
 
   -0.11252E+08        -0.92391E+06         0.00000E+00
   -0.92391E+06        -0.38031E+08         0.00000E+00
    0.00000E+00         0.00000E+00        -0.98566E+07
 
   -0.11002E+08        -0.76658E+06         0.00000E+00
   -0.76658E+06        -0.38113E+08         0.00000E+00
    0.00000E+00         0.00000E+00        -0.98231E+07
 
   -0.10756E+08        -0.52838E+06         0.00000E+00
   -0.52838E+06        -0.38193E+08         0.00000E+00
    0.00000E+00         0.00000E+00        -0.97897E+07
 
   -0.10519E+08        -0.21427E+06         0.00000E+00
   -0.21427E+06        -0.38269E+08         0.00000E+00
    0.00000E+00         0.00000E+00        -0.97576E+07
 
   -0.10297E+08         0.17252E+06         0.00000E+00
    0.17252E+06        -0.38341E+08         0.00000E+00
    0.00000E+00         0.00000E+00        -0.97277E+07
 
   -0.10097E+08         0.63030E+06         0.00000E+00
    0.63030E+06        -0.38409E+08         0.00000E+00
    0.00000E+00         0.00000E+00        -0.97011E+07
 
   -0.99234E+07         0.11584E+07         0.00000E+00
    0.11584E+07        -0.38470E+08         0.00000E+00
    0.00000E+00         0.00000E+00        -0.96786E+07
 
   -0.97852E+07         0.17563E+07         0.00000E+00
    0.17563E+07        -0.38521E+08         0.00000E+00
    0.00000E+00         0.00000E+00        -0.96612E+07
 
   -0.96908E+07         0.24231E+07         0.00000E+00
    0.24231E+07        -0.38557E+08         0.00000E+00
    0.00000E+00         0.00000E+00        -0.96496E+07
 
   -0.96499E+07         0.31564E+07         0.00000E+00
    0.31564E+07        -0.38573E+08         0.00000E+00
    0.00000E+00         0.00000E+00        -0.96446E+07
 
   -0.13715E+08        -0.24970E+06         0.00000E+00
   -0.24970E+06        -0.38818E+08         0.00000E+00
    0.00000E+00         0.00000E+00        -0.10507E+08
 
   -0.13508E+08        -0.64509E+06         0.00000E+00
   -0.64509E+06        -0.38853E+08         0.00000E+00
    0.00000E+00         0.00000E+00        -0.10472E+08
 
   -0.13237E+08        -0.90762E+06         0.00000E+00
   -0.90762E+06        -0.38909E+08         0.00000E+00
    0.00000E+00         0.00000E+00        -0.10429E+08
 
   -0.12925E+08        -0.10476E+07         0.00000E+00
   -0.10476E+07        -0.38977E+08         0.00000E+00
    0.00000E+00         0.00000E+00        -0.10380E+08
 
   -0.12592E+08        -0.10769E+07         0.00000E+00
   -0.10769E+07        -0.39049E+08         0.00000E+00
    0.00000E+00         0.00000E+00        -0.10328E+08
 
   -0.12252E+08        -0.10068E+07         0.00000E+00
   -0.10068E+07        -0.39121E+08         0.00000E+00
    0.00000E+00         0.00000E+00        -0.10274E+08
 
   -0.11914E+08        -0.84761E+06         0.00000E+00
   -0.84761E+06        -0.39190E+08         0.00000E+00
    0.00000E+00         0.00000E+00        -0.10221E+08
 
   -0.11587E+08        -0.60726E+06         0.00000E+00
   -0.60726E+06        -0.39259E+08         0.00000E+00
    0.00000E+00         0.00000E+00        -0.10169E+08
 
   -0.11273E+08        -0.29116E+06         0.00000E+00
   -0.29116E+06        -0.39327E+08         0.00000E+00
    0.00000E+00         0.00000E+00        -0.10120E+08
 
   -0.10977E+08         0.97765E+05         0.00000E+00
    0.97765E+05        -0.39395E+08         0.00000E+00
    0.00000E+00         0.00000E+00        -0.10074E+08
 
   -0.10702E+08         0.55876E+06         0.00000E+00
    0.55876E+06        -0.39465E+08         0.00000E+00
    0.00000E+00         0.00000E+00        -0.10033E+08
 
   -0.10455E+08         0.10925E+07         0.00000E+00
    0.10925E+07        -0.39534E+08         0.00000E+00
    0.00000E+00         0.00000E+00        -0.99978E+07
 
   -0.10243E+08         0.17003E+07         0.00000E+00
    0.17003E+07        -0.39600E+08         0.00000E+00
    0.00000E+00         0.00000E+00        -0.99686E+07
 
   -0.10077E+08         0.23826E+07         0.00000E+00
    0.23826E+07        -0.39657E+08         0.00000E+00
    0.00000E+00         0.00000E+00        -0.99467E+07
 
   -0.99674E+07         0.31382E+07         0.00000E+00
    0.31382E+07        -0.39698E+08         0.00000E+00
    0.00000E+00         0.00000E+00        -0.99331E+07
 
   -0.15348E+08        -0.27025E+06         0.00000E+00
   -0.27025E+06        -0.39968E+08         0.00000E+00
    0.00000E+00         0.00000E+00        -0.11063E+08
 
   -0.14996E+08        -0.69474E+06         0.00000E+00
   -0.69474E+06        -0.40000E+08         0.00000E+00
    0.00000E+00         0.00000E+00        -0.10999E+08
 
   -0.14589E+08        -0.97291E+06         0.00000E+00
   -0.97291E+06        -0.40050E+08         0.00000E+00
    0.00000E+00         0.00000E+00        -0.10928E+08
 
   -0.14154E+08        -0.11190E+07         0.00000E+00
   -0.11190E+07        -0.40106E+08         0.00000E+00
    0.00000E+00         0.00000E+00        -0.10852E+08
 
   -0.13712E+08        -0.11487E+07         0.00000E+00
   -0.11487E+07        -0.40163E+08         0.00000E+00
    0.00000E+00         0.00000E+00        -0.10775E+08
 
   -0.13274E+08        -0.10770E+07         0.00000E+00
   -0.10770E+07        -0.40216E+08         0.00000E+00
    0.00000E+00         0.00000E+00        -0.10698E+08
 
   -0.12850E+08        -0.91629E+06         0.00000E+00
   -0.91629E+06        -0.40267E+08         0.00000E+00
    0.00000E+00         0.00000E+00        -0.10623E+08
 
   -0.12442E+08        -0.67609E+06         0.00000E+00
   -0.67609E+06        -0.40318E+08         0.00000E+00
    0.00000E+00         0.00000E+00        -0.10552E+08
 
   -0.12053E+08        -0.36209E+06         0.00000E+00
   -0.36209E+06        -0.40373E+08         0.00000E+00
    0.00000E+00         0.00000E+00        -0.10485E+08
 
   -0.11682E+08         0.23381E+05         0.00000E+00
    0.23381E+05        -0.40433E+08         0.00000E+00
    0.00000E+00         0.00000E+00        -0.10423E+08
 
   -0.11333E+08         0.48096E+06         0.00000E+00
    0.48096E+06        -0.40502E+08         0.00000E+00
    0.00000E+00         0.00000E+00        -0.10367E+08
 
   -0.11009E+08         0.10134E+07         0.00000E+00
    0.10134E+07        -0.40579E+08         0.00000E+00
    0.00000E+00         0.00000E+00        -0.10317E+08
 
   -0.10718E+08         0.16243E+07         0.00000E+00
    0.16243E+07        -0.40660E+08         0.00000E+00
    0.00000E+00         0.00000E+00        -0.10276E+08
 
   -0.10473E+08         0.23168E+07         0.00000E+00
    0.23168E+07        -0.40739E+08         0.00000E+00
    0.00000E+00         0.00000E+00        -0.10242E+08
 
   -0.10286E+08         0.30914E+07         0.00000E+00
    0.30914E+07        -0.40809E+08         0.00000E+00
    0.00000E+00         0.00000E+00        -0.10219E+08
 
   -0.17038E+08        -0.29011E+06         0.00000E+00
   -0.29011E+06        -0.41138E+08         0.00000E+00
    0.00000E+00         0.00000E+00        -0.11635E+08
 
   -0.16524E+08        -0.74035E+06         0.00000E+00
   -0.74035E+06        -0.41165E+08         0.00000E+00
    0.00000E+00         0.00000E+00        -0.11538E+08
 
   -0.15970E+08        -0.10292E+07         0.00000E+00
   -0.10292E+07        -0.41205E+08         0.00000E+00
    0.00000E+00         0.00000E+00        -0.11435E+08
 
   -0.15405E+08        -0.11763E+07         0.00000E+00
   -0.11763E+07        -0.41245E+08         0.00000E+00
    0.00000E+00         0.00000E+00        -0.11330E+08
 
   -0.14850E+08        -0.12025E+07         0.00000E+00
   -0.12025E+07        -0.41279E+08         0.00000E+00
    0.00000E+00         0.00000E+00        -0.11226E+08
 
   -0.14316E+08        -0.11271E+07         0.00000E+00
   -0.11271E+07        -0.41307E+08         0.00000E+00
    0.00000E+00         0.00000E+00        -0.11125E+08
 
   -0.13807E+08        -0.96556E+06         0.00000E+00
   -0.96556E+06        -0.41331E+08         0.00000E+00
    0.00000E+00         0.00000E+00        -0.11028E+08
 
   -0.13322E+08        -0.72847E+06         0.00000E+00
   -0.72847E+06        -0.41358E+08         0.00000E+00
    0.00000E+00         0.00000E+00        -0.10936E+08
 
   -0.12860E+08        -0.42172E+06         0.00000E+00
   -0.42172E+06        -0.41393E+08         0.00000E+00
    0.00000E+00         0.00000E+00        -0.10851E+08
 
   -0.12417E+08        -0.46699E+05         0.00000E+00
   -0.46699E+05        -0.41441E+08         0.00000E+00
    0.00000E+00         0.00000E+00        -0.10772E+08
 
   -0.11993E+08         0.39910E+06         0.00000E+00
    0.39910E+06        -0.41506E+08         0.00000E+00
    0.00000E+00         0.00000E+00        -0.10700E+08
 
   -0.11589E+08         0.92117E+06         0.00000E+00
    0.92117E+06        -0.41589E+08         0.00000E+00
    0.00000E+00         0.00000E+00        -0.10636E+08
 
   -0.11213E+08         0.15266E+07         0.00000E+00
    0.15266E+07        -0.41687E+08         0.00000E+00
    0.00000E+00         0.00000E+00        -0.10580E+08
 
   -0.10879E+08         0.22222E+07         0.00000E+00
    0.22222E+07        -0.41792E+08         0.00000E+00
    0.00000E+00         0.00000E+00        -0.10534E+08
 
   -0.10605E+08         0.30115E+07         0.00000E+00
    0.30115E+07        -0.41895E+08         0.00000E+00
    0.00000E+00         0.00000E+00        -0.10500E+08
 
   -0.18776E+08        -0.30865E+06         0.00000E+00
   -0.30865E+06        -0.42322E+08         0.00000E+00
    0.00000E+00         0.00000E+00        -0.12220E+08
 
   -0.18081E+08        -0.77928E+06         0.00000E+00
   -0.77928E+06        -0.42344E+08         0.00000E+00
    0.00000E+00         0.00000E+00        -0.12085E+08
 
   -0.17367E+08        -0.10713E+07         0.00000E+00
   -0.10713E+07        -0.42369E+08         0.00000E+00
    0.00000E+00         0.00000E+00        -0.11947E+08
 
   -0.16666E+08        -0.12120E+07         0.00000E+00
   -0.12120E+07        -0.42386E+08         0.00000E+00
    0.00000E+00         0.00000E+00        -0.11810E+08
 
   -0.15998E+08        -0.12296E+07         0.00000E+00
   -0.12296E+07        -0.42388E+08         0.00000E+00
    0.00000E+00         0.00000E+00        -0.11677E+08
 
   -0.15371E+08        -0.11485E+07         0.00000E+00
   -0.11485E+07        -0.42381E+08         0.00000E+00
    0.00000E+00         0.00000E+00        -0.11550E+08
 
   -0.14783E+08        -0.98708E+06         0.00000E+00
   -0.98708E+06        -0.42371E+08         0.00000E+00
    0.00000E+00         0.00000E+00        -0.11431E+08
 
   -0.14228E+08        -0.75701E+06         0.00000E+00
   -0.75701E+06        -0.42365E+08         0.00000E+00
    0.00000E+00         0.00000E+00        -0.11319E+08
 
   -0.13698E+08        -0.46391E+06         0.00000E+00
   -0.46391E+06        -0.42374E+08         0.00000E+00
    0.00000E+00         0.00000E+00        -0.11214E+08
 
   -0.13186E+08        -0.10790E+06         0.00000E+00
   -0.10790E+06        -0.42404E+08         0.00000E+00
    0.00000E+00         0.00000E+00        -0.11118E+08
 
   -0.12688E+08         0.31580E+06         0.00000E+00
    0.31580E+06        -0.42462E+08         0.00000E+00
    0.00000E+00         0.00000E+00        -0.11030E+08
 
   -0.12202E+08         0.81613E+06         0.00000E+00
    0.81613E+06        -0.42550E+08         0.00000E+00
    0.00000E+00         0.00000E+00        -0.10950E+08
 
   -0.11734E+08         0.14049E+07         0.00000E+00
    0.14049E+07        -0.42665E+08         0.00000E+00
    0.00000E+00         0.00000E+00        -0.10880E+08
 
   -0.11300E+08         0.20941E+07         0.00000E+00
    0.20941E+07        -0.42801E+08         0.00000E+00
    0.00000E+00         0.00000E+00        -0.10820E+08
 
   -0.10924E+08         0.28925E+07         0.00000E+00
    0.28925E+07        -0.42943E+08         0.00000E+00
    0.00000E+00         0.00000E+00        -0.10773E+08
 
   -0.20552E+08        -0.32515E+06         0.00000E+00
   -0.32515E+06        -0.43516E+08         0.00000E+00
    0.00000E+00         0.00000E+00        -0.12814E+08
 
   -0.19655E+08        -0.80778E+06         0.00000E+00
   -0.80778E+06        -0.43530E+08         0.00000E+00
    0.00000E+00         0.00000E+00        -0.12637E+08
 
   -0.18766E+08        -0.10919E+07         0.00000E+00
   -0.10919E+07        -0.43534E+08         0.00000E+00
    0.00000E+00         0.00000E+00        -0.12460E+08
 
   -0.17925E+08        -0.12164E+07         0.00000E+00
   -0.12164E+07        -0.43517E+08         0.00000E+00
    0.00000E+00         0.00000E+00        -0.12288E+08
 
   -0.17148E+08        -0.12193E+07         0.00000E+00
   -0.12193E+07        -0.43477E+08         0.00000E+00
    0.00000E+00         0.00000E+00        -0.12125E+08
 
   -0.16434E+08        -0.11308E+07         0.00000E+00
   -0.11308E+07        -0.43424E+08         0.00000E+00
    0.00000E+00         0.00000E+00        -0.11972E+08
 
   -0.15776E+08        -0.97163E+06         0.00000E+00
   -0.97163E+06        -0.43368E+08         0.00000E+00
    0.00000E+00         0.00000E+00        -0.11829E+08
 
   -0.15160E+08        -0.75381E+06         0.00000E+00
   -0.75381E+06        -0.43323E+08         0.00000E+00
    0.00000E+00         0.00000E+00        -0.11697E+08
 
   -0.14571E+08        -0.48210E+06         0.00000E+00
   -0.48210E+06        -0.43299E+08         0.00000E+00
    0.00000E+00         0.00000E+00        -0.11574E+08
 
   -0.13996E+08        -0.15512E+06         0.00000E+00
   -0.15512E+06        -0.43306E+08         0.00000E+00
    0.00000E+00         0.00000E+00        -0.11461E+08
 
   -0.13427E+08         0.23424E+06         0.00000E+00
    0.23424E+06        -0.43353E+08         0.00000E+00
    0.00000E+00         0.00000E+00        -0.11356E+08
 
   -0.12857E+08         0.69874E+06         0.00000E+00
    0.69874E+06        -0.43444E+08         0.00000E+00
    0.00000E+00         0.00000E+00        -0.11260E+08
 
   -0.12290E+08         0.12561E+07         0.00000E+00
    0.12561E+07        -0.43579E+08         0.00000E+00
    0.00000E+00         0.00000E+00        -0.11174E+08
 
   -0.11741E+08         0.19262E+07         0.00000E+00
    0.19262E+07        -0.43750E+08         0.00000E+00
    0.00000E+00         0.00000E+00        -0.11098E+08
 
   -0.11242E+08         0.27260E+07         0.00000E+00
    0.27260E+07        -0.43940E+08         0.00000E+00
    0.00000E+00         0.00000E+00        -0.11036E+08
 
   -0.22354E+08        -0.33857E+06         0.00000E+00
   -0.33857E+06        -0.44714E+08         0.00000E+00
    0.00000E+00         0.00000E+00        -0.13414E+08
 
   -0.21225E+08        -0.82008E+06         0.00000E+00
   -0.82008E+06        -0.44715E+08         0.00000E+00
    0.00000E+00         0.00000E+00        -0.13188E+08
 
   -0.20150E+08        -0.10800E+07         0.00000E+00
   -0.10800E+07        -0.44688E+08         0.00000E+00
    0.00000E+00         0.00000E+00        -0.12968E+08
 
   -0.19169E+08        -0.11758E+07         0.00000E+00
   -0.11758E+07        -0.44623E+08         0.00000E+00
    0.00000E+00         0.00000E+00        -0.12758E+08
 
   -0.18291E+08        -0.11582E+07         0.00000E+00
   -0.11582E+07        -0.44527E+08         0.00000E+00
    0.00000E+00         0.00000E+00        -0.12563E+08
 
   -0.17504E+08        -0.10625E+07         0.00000E+00
   -0.10625E+07        -0.44415E+08         0.00000E+00
    0.00000E+00         0.00000E+00        -0.12384E+08
 
   -0.16788E+08        -0.91003E+06         0.00000E+00
   -0.91003E+06        -0.44306E+08         0.00000E+00
    0.00000E+00         0.00000E+00        -0.12219E+08
 
   -0.16121E+08        -0.71140E+06         0.00000E+00
   -0.71140E+06        -0.44214E+08         0.00000E+00
    0.00000E+00         0.00000E+00        -0.12067E+08
 
   -0.15483E+08        -0.46999E+06         0.00000E+00
   -0.46999E+06        -0.44152E+08         0.00000E+00
    0.00000E+00         0.00000E+00        -0.11927E+08
 
   -0.14855E+08        -0.18303E+06         0.00000E+00
   -0.18303E+06        -0.44132E+08         0.00000E+00
    0.00000E+00         0.00000E+00        -0.11797E+08
 
   -0.14220E+08         0.15834E+06         0.00000E+00
    0.15834E+06        -0.44163E+08         0.00000E+00
    0.00000E+00         0.00000E+00        -0.11677E+08
 
   -0.13567E+08         0.57025E+06         0.00000E+00
    0.57025E+06        -0.44254E+08         0.00000E+00
    0.00000E+00         0.00000E+00        -0.11564E+08
 
   -0.12893E+08         0.10771E+07         0.00000E+00
    0.10771E+07        -0.44409E+08         0.00000E+00
    0.00000E+00         0.00000E+00        -0.11460E+08
 
   -0.12213E+08         0.17103E+07         0.00000E+00
    0.17103E+07        -0.44623E+08         0.00000E+00
    0.00000E+00         0.00000E+00        -0.11367E+08
 
   -0.11562E+08         0.25000E+07         0.00000E+00
    0.25000E+07        -0.44873E+08         0.00000E+00
    0.00000E+00         0.00000E+00        -0.11287E+08
 
   -0.24165E+08        -0.34727E+06         0.00000E+00
   -0.34727E+06        -0.45910E+08         0.00000E+00
    0.00000E+00         0.00000E+00        -0.14015E+08
 
   -0.22768E+08        -0.80592E+06         0.00000E+00
   -0.80592E+06        -0.45891E+08         0.00000E+00
    0.00000E+00         0.00000E+00        -0.13732E+08
 
   -0.21495E+08        -0.10182E+07         0.00000E+00
   -0.10182E+07        -0.45814E+08         0.00000E+00
    0.00000E+00         0.00000E+00        -0.13462E+08
 
   -0.20383E+08        -0.10720E+07         0.00000E+00
   -0.10720E+07        -0.45680E+08         0.00000E+00
    0.00000E+00         0.00000E+00        -0.13213E+08
 
   -0.19422E+08        -0.10317E+07         0.00000E+00
   -0.10317E+07        -0.45510E+08         0.00000E+00
    0.00000E+00         0.00000E+00        -0.12986E+08
 
   -0.18579E+08        -0.93336E+06         0.00000E+00
   -0.93336E+06        -0.45331E+08         0.00000E+00
    0.00000E+00         0.00000E+00        -0.12782E+08
 
   -0.17821E+08        -0.79496E+06         0.00000E+00
   -0.79496E+06        -0.45162E+08         0.00000E+00
    0.00000E+00         0.00000E+00        -0.12597E+08
 
   -0.17118E+08        -0.62428E+06         0.00000E+00
   -0.62428E+06        -0.45020E+08         0.00000E+00
    0.00000E+00         0.00000E+00        -0.12427E+08
 
   -0.16443E+08        -0.42275E+06         0.00000E+00
   -0.42275E+06        -0.44917E+08         0.00000E+00
    0.00000E+00         0.00000E+00        -0.12272E+08
 
   -0.15771E+08        -0.18675E+06         0.00000E+00
   -0.18675E+06        -0.44866E+08         0.00000E+00
    0.00000E+00         0.00000E+00        -0.12127E+08
 
   -0.15081E+08         0.93018E+05         0.00000E+00
    0.93018E+05        -0.44878E+08         0.00000E+00
    0.00000E+00         0.00000E+00        -0.11992E+08
 
   -0.14350E+08         0.43385E+06         0.00000E+00
    0.43385E+06        -0.44965E+08         0.00000E+00
    0.00000E+00         0.00000E+00        -0.11863E+08
 
   -0.13565E+08         0.86601E+06         0.00000E+00
    0.86601E+06        -0.45139E+08         0.00000E+00
    0.00000E+00         0.00000E+00        -0.11741E+08
 
   -0.12730E+08         0.14357E+07         0.00000E+00
    0.14357E+07        -0.45400E+08         0.00000E+00
    0.00000E+00         0.00000E+00        -0.11626E+08
 
   -0.11890E+08         0.21970E+07         0.00000E+00
    0.21970E+07        -0.45728E+08         0.00000E+00
    0.00000E+00         0.00000E+00        -0.11523E+08
 
   -0.25959E+08        -0.34744E+06         0.00000E+00
   -0.34744E+06        -0.47095E+08         0.00000E+00
    0.00000E+00         0.00000E+00        -0.14611E+08
 
   -0.24246E+08        -0.74419E+06         0.00000E+00
   -0.74419E+06        -0.47037E+08         0.00000E+00
    0.00000E+00         0.00000E+00        -0.14257E+08
 
   -0.22776E+08        -0.87775E+06         0.00000E+00
   -0.87775E+06        -0.46878E+08         0.00000E+00
    0.00000E+00         0.00000E+00        -0.13931E+08
 
   -0.21560E+08        -0.88275E+06         0.00000E+00
   -0.88275E+06        -0.46647E+08         0.00000E+00
    0.00000E+00         0.00000E+00        -0.13641E+08
 
   -0.20542E+08        -0.82694E+06         0.00000E+00
   -0.82694E+06        -0.46390E+08         0.00000E+00
    0.00000E+00         0.00000E+00        -0.13386E+08
 
   -0.19664E+08        -0.73690E+06         0.00000E+00
   -0.73690E+06        -0.46138E+08         0.00000E+00
    0.00000E+00         0.00000E+00        -0.13160E+08
 
   -0.18880E+08        -0.62361E+06         0.00000E+00
   -0.62361E+06        -0.45910E+08         0.00000E+00
    0.00000E+00         0.00000E+00        -0.12958E+08
 
   -0.18154E+08        -0.49094E+06         0.00000E+00
   -0.49094E+06        -0.45720E+08         0.00000E+00
    0.00000E+00         0.00000E+00        -0.12775E+08
 
   -0.17455E+08        -0.33866E+06         0.00000E+00
   -0.33866E+06        -0.45579E+08         0.00000E+00
    0.00000E+00         0.00000E+00        -0.12607E+08
 
   -0.16753E+08        -0.16313E+06         0.00000E+00
   -0.16313E+06        -0.45498E+08         0.00000E+00
    0.00000E+00         0.00000E+00        -0.12450E+08
 
   -0.16019E+08         0.43601E+05         0.00000E+00
    0.43601E+05        -0.45489E+08         0.00000E+00
    0.00000E+00         0.00000E+00        -0.12302E+08
 
   -0.15224E+08         0.29659E+06         0.00000E+00
    0.29659E+06        -0.45566E+08         0.00000E+00
    0.00000E+00         0.00000E+00        -0.12158E+08
 
   -0.14332E+08         0.62511E+06         0.00000E+00
    0.62511E+06        -0.45750E+08         0.00000E+00
    0.00000E+00         0.00000E+00        -0.12016E+08
 
   -0.13323E+08         0.10910E+07         0.00000E+00
    0.10910E+07        -0.46062E+08         0.00000E+00
    0.00000E+00         0.00000E+00        -0.11877E+08
 
   -0.12235E+08         0.17906E+07         0.00000E+00
    0.17906E+07        -0.46489E+08         0.00000E+00
    0.00000E+00         0.00000E+00        -0.11745E+08
 
   -0.27686E+08        -0.32595E+06         0.00000E+00
   -0.32595E+06        -0.48256E+08         0.00000E+00
    0.00000E+00         0.00000E+00        -0.15188E+08
 
   -0.25603E+08        -0.58444E+06         0.00000E+00
   -0.58444E+06        -0.48103E+08         0.00000E+00
    0.00000E+00         0.00000E+00        -0.14741E+08
 
   -0.23980E+08        -0.61853E+06         0.00000E+00
   -0.61853E+06        -0.47803E+08         0.00000E+00
    0.00000E+00         0.00000E+00        -0.14357E+08
 
   -0.22707E+08        -0.59213E+06         0.00000E+00
   -0.59213E+06        -0.47458E+08         0.00000E+00
    0.00000E+00         0.00000E+00        -0.14033E+08
 
   -0.21661E+08        -0.54098E+06         0.00000E+00
   -0.54098E+06        -0.47117E+08         0.00000E+00
    0.00000E+00         0.00000E+00        -0.13756E+08
 
   -0.20767E+08        -0.47583E+06         0.00000E+00
   -0.47583E+06        -0.46802E+08         0.00000E+00
    0.00000E+00         0.00000E+00        -0.13514E+08
 
   -0.19972E+08        -0.40047E+06         0.00000E+00
   -0.40047E+06        -0.46525E+08         0.00000E+00
    0.00000E+00         0.00000E+00        -0.13300E+08
 
   -0.19236E+08        -0.31575E+06         0.00000E+00
   -0.31575E+06        -0.46298E+08         0.00000E+00
    0.00000E+00         0.00000E+00        -0.13107E+08
 
   -0.18524E+08        -0.22069E+06         0.00000E+00
   -0.22069E+06        -0.46127E+08         0.00000E+00
    0.00000E+00         0.00000E+00        -0.12930E+08
 
   -0.17805E+08        -0.11261E+06         0.00000E+00
   -0.11261E+06        -0.46021E+08         0.00000E+00
    0.00000E+00         0.00000E+00        -0.12765E+08
 
   -0.17044E+08         0.13661E+05         0.00000E+00
    0.13661E+05        -0.45993E+08         0.00000E+00
    0.00000E+00         0.00000E+00        -0.12607E+08
 
   -0.16204E+08         0.16791E+06         0.00000E+00
    0.16791E+06        -0.46057E+08         0.00000E+00
    0.00000E+00         0.00000E+00        -0.12452E+08
 
   -0.15231E+08         0.37018E+06         0.00000E+00
    0.37018E+06        -0.46238E+08         0.00000E+00
    0.00000E+00         0.00000E+00        -0.12294E+08
 
   -0.14046E+08         0.67088E+06         0.00000E+00
    0.67088E+06        -0.46578E+08         0.00000E+00
    0.00000E+00         0.00000E+00        -0.12125E+08
 
   -0.12628E+08         0.12358E+07         0.00000E+00
    0.12358E+07        -0.47136E+08         0.00000E+00
    0.00000E+00         0.00000E+00        -0.11953E+08
 
   -0.29229E+08        -0.19833E+06         0.00000E+00
   -0.19833E+06        -0.49284E+08         0.00000E+00
    0.00000E+00         0.00000E+00        -0.15703E+08
 
   -0.26800E+08        -0.23807E+06         0.00000E+00
   -0.23807E+06        -0.48905E+08         0.00000E+00
    0.00000E+00         0.00000E+00        -0.15141E+08
 
   -0.25132E+08        -0.22729E+06         0.00000E+00
   -0.22729E+06        -0.48465E+08         0.00000E+00
    0.00000E+00         0.00000E+00        -0.14719E+08
 
   -0.23844E+08        -0.21058E+06         0.00000E+00
   -0.21058E+06        -0.48037E+08         0.00000E+00
    0.00000E+00         0.00000E+00        -0.14376E+08
 
   -0.22794E+08        -0.18947E+06         0.00000E+00
   -0.18947E+06        -0.47642E+08         0.00000E+00
    0.00000E+00         0.00000E+00        -0.14087E+08
 
   -0.21899E+08        -0.16544E+06         0.00000E+00
   -0.16544E+06        -0.47290E+08         0.00000E+00
    0.00000E+00         0.00000E+00        -0.13838E+08
 
   -0.21104E+08        -0.13886E+06         0.00000E+00
   -0.13886E+06        -0.46987E+08         0.00000E+00
    0.00000E+00         0.00000E+00        -0.13618E+08
 
   -0.20367E+08        -0.10963E+06         0.00000E+00
   -0.10963E+06        -0.46739E+08         0.00000E+00
    0.00000E+00         0.00000E+00        -0.13421E+08
 
   -0.19654E+08        -0.77260E+05         0.00000E+00
   -0.77260E+05        -0.46552E+08         0.00000E+00
    0.00000E+00         0.00000E+00        -0.13241E+08
 
   -0.18929E+08        -0.40755E+05         0.00000E+00
   -0.40755E+05        -0.46433E+08         0.00000E+00
    0.00000E+00         0.00000E+00        -0.13072E+08
 
   -0.18159E+08         0.16546E+04         0.00000E+00
    0.16546E+04        -0.46394E+08         0.00000E+00
    0.00000E+00         0.00000E+00        -0.12910E+08
 
   -0.17299E+08         0.53223E+05         0.00000E+00
    0.53223E+05        -0.46448E+08         0.00000E+00
    0.00000E+00         0.00000E+00        -0.12749E+08
 
   -0.16284E+08         0.12100E+06         0.00000E+00
    0.12100E+06        -0.46621E+08         0.00000E+00
    0.00000E+00         0.00000E+00        -0.12581E+08
 
   -0.15004E+08         0.22091E+06         0.00000E+00
    0.22091E+06        -0.46962E+08         0.00000E+00
    0.00000E+00         0.00000E+00        -0.12393E+08
 
   -0.13143E+08         0.45696E+06         0.00000E+00
    0.45696E+06        -0.47604E+08         0.00000E+00
    0.00000E+00         0.00000E+00        -0.12149E+08
 
TENSORS stresstot double 
   -0.31363E+08        -0.26068E+04         0.00000E+00
   -0.26068E+04        -0.60003E+08         0.00000E+00
    0.00000E+00         0.00000E+00        -0.38929E+08
 
   -0.32223E+08        -0.64997E+04         0.00000E+00
   -0.64997E+04        -0.60012E+08         0.00000E+00
    0.00000E+00         0.00000E+00        -0.39098E+08
 
   -0.33014E+08        -0.85152E+04         0.00000E+00
   -0.85152E+04        -0.60027E+08         0.00000E+00
    0.00000E+00         0.00000E+00        -0.39251E+08
 
   -0.33744E+08        -0.85565E+04         0.00000E+00
   -0.85565E+04        -0.60045E+08         0.00000E+00
    0.00000E+00         0.00000E+00        -0.39389E+08
 
   -0.34421E+08        -0.65575E+04         0.00000E+00
   -0.65575E+04        -0.60060E+08         0.00000E+00
    0.00000E+00         0.00000E+00        -0.39514E+08
 
   -0.35053E+08        -0.24787E+04         0.00000E+00
   -0.24787E+04        -0.60069E+08         0.00000E+00
    0.00000E+00         0.00000E+00        -0.39628E+08
 
   -0.35650E+08         0.36965E+04         0.00000E+00
    0.36965E+04        -0.60068E+08         0.00000E+00
    0.00000E+00         0.00000E+00        -0.39731E+08
 
   -0.36219E+08         0.11966E+05         0.00000E+00
    0.11966E+05        -0.60053E+08         0.00000E+00
    0.00000E+00         0.00000E+00        -0.39826E+08
 
   -0.36769E+08         0.22312E+05         0.00000E+00
    0.22312E+05        -0.60019E+08         0.00000E+00
    0.00000E+00         0.00000E+00        -0.39913E+08
 
   -0.37307E+08         0.34708E+05         0.00000E+00
    0.34708E+05        -0.59962E+08         0.00000E+00
    0.00000E+00         0.00000E+00        -0.39995E+08
 
   -0.37842E+08         0.49120E+05         0.00000E+00
    0.49120E+05        -0.59878E+08         0.00000E+00
    0.00000E+00         0.00000E+00        -0.40071E+08
 
   -0.38380E+08         0.65509E+05         0.00000E+00
    0.65509E+05        -0.59764E+08         0.00000E+00
    0.00000E+00         0.00000E+00        -0.40145E+08
 
   -0.38928E+08         0.83842E+05         0.00000E+00
    0.83842E+05        -0.59615E+08         0.00000E+00
    0.00000E+00         0.00000E+00        -0.40215E+08
 
   -0.39495E+08         0.10409E+06         0.00000E+00
    0.10409E+06        -0.59427E+08         0.00000E+00
    0.00000E+00         0.00000E+00        -0.40285E+08
 
   -0.40085E+08         0.12623E+06         0.00000E+00
    0.12623E+06        -0.59197E+08         0.00000E+00
    0.00000E+00         0.00000E+00        -0.40353E+08
 
   -0.31373E+08        -0.78809E+04         0.00000E+00
   -0.78809E+04        -0.60003E+08         0.00000E+00
    0.00000E+00         0.00000E+00        -0.38889E+08
 
   -0.32229E+08        -0.19667E+05         0.00000E+00
   -0.19667E+05        -0.60012E+08         0.00000E+00
    0.00000E+00         0.00000E+00        -0.39058E+08
 
   -0.33016E+08        -0.25804E+05         0.00000E+00
   -0.25804E+05        -0.60028E+08         0.00000E+00
    0.00000E+00         0.00000E+00        -0.39210E+08
 
   -0.33742E+08        -0.26004E+05         0.00000E+00
   -0.26004E+05        -0.60046E+08         0.00000E+00
    0.00000E+00         0.00000E+00        -0.39347E+08
 
   -0.34415E+08        -0.20070E+05         0.00000E+00
   -0.20070E+05        -0.60062E+08         0.00000E+00
    0.00000E+00         0.00000E+00        -0.39471E+08
 
   -0.35043E+08        -0.78855E+04         0.00000E+00
   -0.78855E+04        -0.60072E+08         0.00000E+00
    0.00000E+00         0.00000E+00        -0.39584E+08
 
   -0.35636E+08         0.10596E+05         0.00000E+00
    0.10596E+05        -0.60072E+08         0.00000E+00
    0.00000E+00         0.00000E+00        -0.39687E+08
 
   -0.36201E+08         0.35367E+05         0.00000E+00
    0.35367E+05        -0.60058E+08         0.00000E+00
    0.00000E+00         0.00000E+00        -0.39781E+08
 
   -0.36746E+08         0.66373E+05         0.00000E+00
    0.66373E+05        -0.60025E+08         0.00000E+00
    0.00000E+00         0.00000E+00        -0.39868E+08
 
   -0.37280E+08         0.10353E+06         0.00000E+00
    0.10353E+06        -0.59969E+08         0.00000E+00
    0.00000E+00         0.00000E+00        -0.39949E+08
 
   -0.37811E+08         0.14673E+06         0.00000E+00
    0.14673E+06        -0.59887E+08         0.00000E+00
    0.00000E+00         0.00000E+00        -0.40025E+08
 
   -0.38345E+08         0.19586E+06         0.00000E+00
    0.19586E+06        -0.59774E+08         0.00000E+00
    0.00000E+00         0.00000E+00        -0.40098E+08
 
   -0.38890E+08         0.25082E+06         0.00000E+00
    0.25082E+06        -0.59626E+08         0.00000E+00
    0.00000E+00         0.00000E+00        -0.40168E+08
 
   -0.39452E+08         0.31152E+06         0.00000E+00
    0.31152E+06        -0.59440E+08         0.00000E+00
    0.00000E+00         0.00000E+00        -0.40237E+08
 
   -0.40039E+08         0.37788E+06         0.00000E+00
    0.37788E+06        -0.59211E+08         0.00000E+00
    0.00000E+00         0.00000E+00        -0.40305E+08
 
   -0.31392E+08        -0.13337E+05         0.00000E+00
   -0.13337E+05        -0.60003E+08         0.00000E+00
    0.00000E+00         0.00000E+00        -0.38809E+08
 
   -0.32242E+08        -0.33339E+05         0.00000E+00
   -0.33339E+05        -0.60013E+08         0.00000E+00
    0.00000E+00         0.00000E+00        -0.38976E+08
 
   -0.33021E+08        -0.43869E+05         0.00000E+00
   -0.43869E+05        -0.60029E+08         0.00000E+00
    0.00000E+00         0.00000E+00        -0.39127E+08
 
   -0.33738E+08        -0.44454E+05         0.00000E+00
   -0.44454E+05        -0.60049E+08         0.00000E+00
    0.00000E+00         0.00000E+00        -0.39263E+08
 
   -0.34403E+08        -0.34772E+05         0.00000E+00
   -0.34772E+05        -0.60066E+08         0.00000E+00
    0.00000E+00         0.00000E+00        -0.39386E+08
 
   -0.35023E+08        -0.14637E+05         0.00000E+00
   -0.14637E+05        -0.60078E+08         0.00000E+00
    0.00000E+00         0.00000E+00        -0.39498E+08
 
   -0.35607E+08         0.16021E+05         0.00000E+00
    0.16021E+05        -0.60080E+08         0.00000E+00
    0.00000E+00         0.00000E+00        -0.39599E+08
 
   -0.36164E+08         0.57180E+05         0.00000E+00
    0.57180E+05        -0.60067E+08         0.00000E+00
    0.00000E+00         0.00000E+00        -0.39692E+08
 
   -0.36701E+08         0.10874E+06         0.00000E+00
    0.10874E+06        -0.60037E+08         0.00000E+00
    0.00000E+00         0.00000E+00        -0.39778E+08
 
   -0.37227E+08         0.17056E+06         0.00000E+00
    0.17056E+06        -0.59983E+08         0.00000E+00
    0.00000E+00         0.00000E+00        -0.39858E+08
 
   -0.37749E+08         0.24246E+06         0.00000E+00
    0.24246E+06        -0.59903E+08         0.00000E+00
    0.00000E+00         0.00000E+00        -0.39933E+08
 
   -0.38276E+08         0.32423E+06         0.00000E+00
    0.32423E+06        -0.59793E+08         0.00000E+00
    0.00000E+00         0.00000E+00        -0.40005E+08
 
   -0.38813E+08         0.41570E+06         0.00000E+00
    0.41570E+06        -0.59648E+08         0.00000E+00
    0.00000E+00         0.00000E+00        -0.40075E+08
 
   -0.39368E+08         0.51670E+06         0.00000E+00
    0.51670E+06        -0.59465E+08         0.00000E+00
    0.00000E+00         0.00000E+00        -0.40143E+08
 
   -0.39947E+08         0.62712E+06         0.00000E+00
    0.62712E+06        -0.59239E+08         0.00000E+00
    0.00000E+00         0.00000E+00        -0.40210E+08
 
   -0.31422E+08        -0.19095E+05         0.00000E+00
   -0.19095E+05        -0.60003E+08         0.00000E+00
    0.00000E+00         0.00000E+00        -0.38689E+08
 
   -0.32260E+08        -0.47849E+05         0.00000E+00
   -0.47849E+05        -0.60014E+08         0.00000E+00
    0.00000E+00         0.00000E+00        -0.38854E+08
 
   -0.33028E+08        -0.63223E+05         0.00000E+00
   -0.63223E+05        -0.60032E+08         0.00000E+00
    0.00000E+00         0.00000E+00        -0.39003E+08
 
   -0.33733E+08        -0.64566E+05         0.00000E+00
   -0.64566E+05        -0.60052E+08         0.00000E+00
    0.00000E+00         0.00000E+00        -0.39137E+08
 
   -0.34385E+08        -0.51446E+05         0.00000E+00
   -0.51446E+05        -0.60072E+08         0.00000E+00
    0.00000E+00         0.00000E+00        -0.39258E+08
 
   -0.34992E+08        -0.23619E+05         0.00000E+00
   -0.23619E+05        -0.60086E+08         0.00000E+00
    0.00000E+00         0.00000E+00        -0.39368E+08
 
   -0.35564E+08         0.18999E+05         0.00000E+00
    0.18999E+05        -0.60091E+08         0.00000E+00
    0.00000E+00         0.00000E+00        -0.39468E+08
 
   -0.36108E+08         0.76360E+05         0.00000E+00
    0.76360E+05        -0.60082E+08         0.00000E+00
    0.00000E+00         0.00000E+00        -0.39559E+08
 
   -0.36633E+08         0.14832E+06         0.00000E+00
    0.14832E+06        -0.60054E+08         0.00000E+00
    0.00000E+00         0.00000E+00        -0.39643E+08
 
   -0.37147E+08         0.23464E+06         0.00000E+00
    0.23464E+06        -0.60004E+08         0.00000E+00
    0.00000E+00         0.00000E+00        -0.39722E+08
 
   -0.37657E+08         0.33507E+06         0.00000E+00
    0.33507E+06        -0.59928E+08         0.00000E+00
    0.00000E+00         0.00000E+00        -0.39796E+08
 
   -0.38172E+08         0.44931E+06         0.00000E+00
    0.44931E+06        -0.59821E+08         0.00000E+00
    0.00000E+00         0.00000E+00        -0.39866E+08
 
   -0.38697E+08         0.57708E+06         0.00000E+00
    0.57708E+06        -0.59681E+08         0.00000E+00
    0.00000E+00         0.00000E+00        -0.39934E+08
 
   -0.39241E+08         0.71815E+06         0.00000E+00
    0.71815E+06        -0.59502E+08         0.00000E+00
    0.00000E+00         0.00000E+00        -0.40001E+08
 
   -0.39809E+08         0.87235E+06         0.00000E+00
    0.87235E+06        -0.59281E+08         0.00000E+00
    0.00000E+00         0.00000E+00        -0.40067E+08
 
   -0.31463E+08        -0.25275E+05         0.00000E+00
   -0.25275E+05        -0.60003E+08         0.00000E+00
    0.00000E+00         0.00000E+00        -0.38529E+08
 
   -0.32286E+08        -0.63528E+05         0.00000E+00
   -0.63528E+05        -0.60015E+08         0.00000E+00
    0.00000E+00         0.00000E+00        -0.38692E+08
 
   -0.33038E+08        -0.84370E+05         0.00000E+00
   -0.84370E+05        -0.60034E+08         0.00000E+00
    0.00000E+00         0.00000E+00        -0.38838E+08
 
   -0.33727E+08        -0.86992E+05         0.00000E+00
   -0.86992E+05        -0.60058E+08         0.00000E+00
    0.00000E+00         0.00000E+00        -0.38970E+08
 
   -0.34362E+08        -0.70864E+05         0.00000E+00
   -0.70864E+05        -0.60080E+08         0.00000E+00
    0.00000E+00         0.00000E+00        -0.39088E+08
 
   -0.34953E+08        -0.35699E+05         0.00000E+00
   -0.35699E+05        -0.60098E+08         0.00000E+00
    0.00000E+00         0.00000E+00        -0.39196E+08
 
   -0.35507E+08         0.18580E+05         0.00000E+00
    0.18580E+05        -0.60106E+08         0.00000E+00
    0.00000E+00         0.00000E+00        -0.39293E+08
 
   -0.36034E+08         0.91887E+05         0.00000E+00
    0.91887E+05        -0.60101E+08         0.00000E+00
    0.00000E+00         0.00000E+00        -0.39382E+08
 
   -0.36543E+08         0.18400E+06         0.00000E+00
    0.18400E+06        -0.60078E+08         0.00000E+00
    0.00000E+00         0.00000E+00        -0.39465E+08
 
   -0.37040E+08         0.29461E+06         0.00000E+00
    0.29461E+06        -0.60032E+08         0.00000E+00
    0.00000E+00         0.00000E+00        -0.39541E+08
 
   -0.37535E+08         0.42334E+06         0.00000E+00
    0.42334E+06        -0.59961E+08         0.00000E+00
    0.00000E+00         0.00000E+00        -0.39613E+08
 
   -0.38034E+08         0.56980E+06         0.00000E+00
    0.56980E+06        -0.59859E+08         0.00000E+00
    0.00000E+00         0.00000E+00        -0.39682E+08
 
   -0.38544E+08         0.73361E+06         0.00000E+00
    0.73361E+06        -0.59724E+08         0.00000E+00
    0.00000E+00         0.00000E+00        -0.39748E+08
 
   -0.39072E+08         0.91442E+06         0.00000E+00
    0.91442E+06        -0.59550E+08         0.00000E+00
    0.00000E+00         0.00000E+00        -0.39813E+08
 
   -0.39626E+08         0.11120E+07         0.00000E+00
    0.11120E+07        -0.59336E+08         0.00000E+00
    0.00000E+00         0.00000E+00        -0.39877E+08
 
   -0.31515E+08        -0.31996E+05         0.00000E+00
   -0.31996E+05        -0.60004E+08         0.00000E+00
    0.00000E+00         0.00000E+00        -0.38332E+08
 
   -0.32320E+08        -0.80700E+05         0.00000E+00
   -0.80700E+05        -0.60016E+08         0.00000E+00
    0.00000E+00         0.00000E+00        -0.38491E+08
 
   -0.33052E+08        -0.10781E+06         0.00000E+00
   -0.10781E+06        -0.60038E+08         0.00000E+00
    0.00000E+00         0.00000E+00        -0.38634E+08
 
   -0.33720E+08        -0.11237E+06         0.00000E+00
   -0.11237E+06        -0.60064E+08         0.00000E+00
    0.00000E+00         0.00000E+00        -0.38762E+08
 
   -0.34334E+08        -0.93771E+05         0.00000E+00
   -0.93771E+05        -0.60090E+08         0.00000E+00
    0.00000E+00         0.00000E+00        -0.38877E+08
 
   -0.34903E+08        -0.51718E+05         0.00000E+00
   -0.51718E+05        -0.60112E+08         0.00000E+00
    0.00000E+00         0.00000E+00        -0.38981E+08
 
   -0.35436E+08         0.13846E+05         0.00000E+00
    0.13846E+05        -0.60125E+08         0.00000E+00
    0.00000E+00         0.00000E+00        -0.39076E+08
 
   -0.35943E+08         0.10277E+06         0.00000E+00
    0.10277E+06        -0.60124E+08         0.00000E+00
    0.00000E+00         0.00000E+00        -0.39162E+08
 
   -0.36430E+08         0.21475E+06         0.00000E+00
    0.21475E+06        -0.60106E+08         0.00000E+00
    0.00000E+00         0.00000E+00        -0.39242E+08
 
   -0.36907E+08         0.34936E+06         0.00000E+00
    0.34936E+06        -0.60067E+08         0.00000E+00
    0.00000E+00         0.00000E+00        -0.39316E+08
 
   -0.37382E+08         0.50610E+06         0.00000E+00
    0.50610E+06        -0.60001E+08         0.00000E+00
    0.00000E+00         0.00000E+00        -0.39385E+08
 
   -0.37861E+08         0.68447E+06         0.00000E+00
    0.68447E+06        -0.59906E+08         0.00000E+00
    0.00000E+00         0.00000E+00        -0.39452E+08
 
   -0.38353E+08         0.88395E+06         0.00000E+00
    0.88395E+06        -0.59777E+08         0.00000E+00
    0.00000E+00         0.00000E+00        -0.39516E+08
 
   -0.38863E+08         0.11041E+07         0.00000E+00
    0.11041E+07        -0.59611E+08         0.00000E+00
    0.00000E+00         0.00000E+00        -0.39578E+08
 
   -0.39397E+08         0.13446E+07         0.00000E+00
    0.13446E+07        -0.59404E+08         0.00000E+00
    0.00000E+00         0.00000E+00        -0.39641E+08
 
   -0.31581E+08        -0.39375E+05         0.00000E+00
   -0.39375E+05        -0.60004E+08         0.00000E+00
    0.00000E+00         0.00000E+00        -0.38096E+08
 
   -0.32363E+08        -0.99683E+05         0.00000E+00
   -0.99683E+05        -0.60018E+08         0.00000E+00
    0.00000E+00         0.00000E+00        -0.38251E+08
 
   -0.33070E+08        -0.13401E+06         0.00000E+00
   -0.13401E+06        -0.60042E+08         0.00000E+00
    0.00000E+00         0.00000E+00        -0.38390E+08
 
   -0.33713E+08        -0.14130E+06         0.00000E+00
   -0.14130E+06        -0.60071E+08         0.00000E+00
    0.00000E+00         0.00000E+00        -0.38514E+08
 
   -0.34302E+08        -0.12088E+06         0.00000E+00
   -0.12088E+06        -0.60102E+08         0.00000E+00
    0.00000E+00         0.00000E+00        -0.38625E+08
 
   -0.34845E+08        -0.72478E+05         0.00000E+00
   -0.72478E+05        -0.60128E+08         0.00000E+00
    0.00000E+00         0.00000E+00        -0.38726E+08
 
   -0.35353E+08         0.39182E+04         0.00000E+00
    0.39182E+04        -0.60147E+08         0.00000E+00
    0.00000E+00         0.00000E+00        -0.38817E+08
 
   -0.35833E+08         0.10807E+06         0.00000E+00
    0.10807E+06        -0.60152E+08         0.00000E+00
    0.00000E+00         0.00000E+00        -0.38900E+08
 
   -0.36296E+08         0.23955E+06         0.00000E+00
    0.23955E+06        -0.60140E+08         0.00000E+00
    0.00000E+00         0.00000E+00        -0.38976E+08
 
   -0.36749E+08         0.39781E+06         0.00000E+00
    0.39781E+06        -0.60107E+08         0.00000E+00
    0.00000E+00         0.00000E+00        -0.39047E+08
 
   -0.37200E+08         0.58222E+06         0.00000E+00
    0.58222E+06        -0.60049E+08         0.00000E+00
    0.00000E+00         0.00000E+00        -0.39114E+08
 
   -0.37656E+08         0.79212E+06         0.00000E+00
    0.79212E+06        -0.59961E+08         0.00000E+00
    0.00000E+00         0.00000E+00        -0.39177E+08
 
   -0.38124E+08         0.10268E+07         0.00000E+00
    0.10268E+07        -0.59840E+08         0.00000E+00
    0.00000E+00         0.00000E+00        -0.39238E+08
 
   -0.38612E+08         0.12858E+07         0.00000E+00
    0.12858E+07        -0.59682E+08         0.00000E+00
    0.00000E+00         0.00000E+00        -0.39299E+08
 
   -0.39125E+08         0.15686E+07         0.00000E+00
    0.15686E+07        -0.59484E+08         0.00000E+00
    0.00000E+00         0.00000E+00        -0.39358E+08
 
   -0.31662E+08        -0.47523E+05         0.00000E+00
   -0.47523E+05        -0.60004E+08         0.00000E+00
    0.00000E+00         0.00000E+00        -0.37824E+08
 
   -0.32416E+08        -0.12078E+06         0.00000E+00
   -0.12078E+06        -0.60020E+08         0.00000E+00
    0.00000E+00         0.00000E+00        -0.37974E+08
 
   -0.33094E+08        -0.16344E+06         0.00000E+00
   -0.16344E+06        -0.60047E+08         0.00000E+00
    0.00000E+00         0.00000E+00        -0.38107E+08
 
   -0.33707E+08        -0.17436E+06         0.00000E+00
   -0.17436E+06        -0.60080E+08         0.00000E+00
    0.00000E+00         0.00000E+00        -0.38227E+08
 
   -0.34266E+08        -0.15287E+06         0.00000E+00
   -0.15287E+06        -0.60115E+08         0.00000E+00
    0.00000E+00         0.00000E+00        -0.38334E+08
 
   -0.34779E+08        -0.98731E+05         0.00000E+00
   -0.98731E+05        -0.60147E+08         0.00000E+00
    0.00000E+00         0.00000E+00        -0.38430E+08
 
   -0.35256E+08        -0.12023E+05         0.00000E+00
   -0.12023E+05        -0.60172E+08         0.00000E+00
    0.00000E+00         0.00000E+00        -0.38517E+08
 
   -0.35707E+08         0.10689E+06         0.00000E+00
    0.10689E+06        -0.60184E+08         0.00000E+00
    0.00000E+00         0.00000E+00        -0.38596E+08
 
   -0.36141E+08         0.25746E+06         0.00000E+00
    0.25746E+06        -0.60179E+08         0.00000E+00
    0.00000E+00         0.00000E+00        -0.38668E+08
 
   -0.36565E+08         0.43897E+06         0.00000E+00
    0.43897E+06        -0.60154E+08         0.00000E+00
    0.00000E+00         0.00000E+00        -0.38735E+08
 
   -0.36988E+08         0.65063E+06         0.00000E+00
    0.65063E+06        -0.60103E+08         0.00000E+00
    0.00000E+00         0.00000E+00        -0.38799E+08
 
   -0.37417E+08         0.89160E+06         0.00000E+00
    0.89160E+06        -0.60024E+08         0.00000E+00
    0.00000E+00         0.00000E+00        -0.38859E+08
 
   -0.37859E+08         0.11611E+07         0.00000E+00
    0.11611E+07        -0.59912E+08         0.00000E+00
    0.00000E+00         0.00000E+00        -0.38917E+08
 
   -0.38321E+08         0.14583E+07         0.00000E+00
    0.14583E+07        -0.59763E+08         0.00000E+00
    0.00000E+00         0.00000E+00        -0.38974E+08
 
   -0.38809E+08         0.17826E+07         0.00000E+00
    0.17826E+07        -0.59576E+08         0.00000E+00
    0.00000E+00         0.00000E+00        -0.39031E+08
 
   -0.31758E+08        -0.56548E+05         0.00000E+00
   -0.56548E+05        -0.60005E+08         0.00000E+00
    0.00000E+00         0.00000E+00        -0.37516E+08
 
   -0.32480E+08        -0.14428E+06         0.00000E+00
   -0.14428E+06        -0.60022E+08         0.00000E+00
    0.00000E+00         0.00000E+00        -0.37660E+08
 
   -0.33124E+08        -0.19652E+06         0.00000E+00
   -0.19652E+06        -0.60052E+08         0.00000E+00
    0.00000E+00         0.00000E+00        -0.37788E+08
 
   -0.33703E+08        -0.21209E+06         0.00000E+00
   -0.21209E+06        -0.60090E+08         0.00000E+00
    0.00000E+00         0.00000E+00        -0.37902E+08
 
   -0.34226E+08        -0.19036E+06         0.00000E+00
   -0.19036E+06        -0.60130E+08         0.00000E+00
    0.00000E+00         0.00000E+00        -0.38003E+08
 
   -0.34704E+08        -0.13116E+06         0.00000E+00
   -0.13116E+06        -0.60169E+08         0.00000E+00
    0.00000E+00         0.00000E+00        -0.38094E+08
 
   -0.35147E+08        -0.34724E+05         0.00000E+00
   -0.34724E+05        -0.60200E+08         0.00000E+00
    0.00000E+00         0.00000E+00        -0.38176E+08
 
   -0.35564E+08         0.98446E+05         0.00000E+00
    0.98446E+05        -0.60219E+08         0.00000E+00
    0.00000E+00         0.00000E+00        -0.38251E+08
 
   -0.35964E+08         0.26762E+06         0.00000E+00
    0.26762E+06        -0.60223E+08         0.00000E+00
    0.00000E+00         0.00000E+00        -0.38319E+08
 
   -0.36356E+08         0.47190E+06         0.00000E+00
    0.47190E+06        -0.60205E+08         0.00000E+00
    0.00000E+00         0.00000E+00        -0.38382E+08
 
   -0.36747E+08         0.71031E+06         0.00000E+00
    0.71031E+06        -0.60164E+08         0.00000E+00
    0.00000E+00         0.00000E+00        -0.38441E+08
 
   -0.37145E+08         0.98183E+06         0.00000E+00
    0.98183E+06        -0.60094E+08         0.00000E+00
    0.00000E+00         0.00000E+00        -0.38498E+08
 
   -0.37558E+08         0.12854E+07         0.00000E+00
    0.12854E+07        -0.59992E+08         0.00000E+00
    0.00000E+00         0.00000E+00        -0.38552E+08
 
   -0.37991E+08         0.16202E+07         0.00000E+00
    0.16202E+07        -0.59854E+08         0.00000E+00
    0.00000E+00         0.00000E+00        -0.38606E+08
 
   -0.38450E+08         0.19853E+07         0.00000E+00
    0.19853E+07        -0.59678E+08         0.00000E+00
    0.00000E+00         0.00000E+00        -0.38660E+08
 
   -0.31872E+08        -0.66552E+05         0.00000E+00
   -0.66552E+05        -0.60005E+08         0.00000E+00
    0.00000E+00         0.00000E+00        -0.37174E+08
 
   -0.32557E+08        -0.17044E+06         0.00000E+00
   -0.17044E+06        -0.60024E+08         0.00000E+00
    0.00000E+00         0.00000E+00        -0.37311E+08
 
   -0.33163E+08        -0.23363E+06         0.00000E+00
   -0.23363E+06        -0.60058E+08         0.00000E+00
    0.00000E+00         0.00000E+00        -0.37433E+08
 
   -0.33702E+08        -0.25495E+06         0.00000E+00
   -0.25495E+06        -0.60101E+08         0.00000E+00
    0.00000E+00         0.00000E+00        -0.37540E+08
 
   -0.34185E+08        -0.23387E+06         0.00000E+00
   -0.23387E+06        -0.60147E+08         0.00000E+00
    0.00000E+00         0.00000E+00        -0.37635E+08
 
   -0.34623E+08        -0.17036E+06         0.00000E+00
   -0.17036E+06        -0.60192E+08         0.00000E+00
    0.00000E+00         0.00000E+00        -0.37720E+08
 
   -0.35027E+08        -0.64832E+05         0.00000E+00
   -0.64832E+05        -0.60230E+08         0.00000E+00
    0.00000E+00         0.00000E+00        -0.37797E+08
 
   -0.35405E+08         0.82018E+05         0.00000E+00
    0.82018E+05        -0.60258E+08         0.00000E+00
    0.00000E+00         0.00000E+00        -0.37866E+08
 
   -0.35767E+08         0.26925E+06         0.00000E+00
    0.26925E+06        -0.60270E+08         0.00000E+00
    0.00000E+00         0.00000E+00        -0.37929E+08
 
   -0.36122E+08         0.49576E+06         0.00000E+00
    0.49576E+06        -0.60262E+08         0.00000E+00
    0.00000E+00         0.00000E+00        -0.37987E+08
 
   -0.36478E+08         0.76037E+06         0.00000E+00
    0.76037E+06        -0.60230E+08         0.00000E+00
    0.00000E+00         0.00000E+00        -0.38042E+08
 
   -0.36842E+08         0.10618E+07         0.00000E+00
    0.10618E+07        -0.60170E+08         0.00000E+00
    0.00000E+00         0.00000E+00        -0.38094E+08
 
   -0.37221E+08         0.13989E+07         0.00000E+00
    0.13989E+07        -0.60079E+08         0.00000E+00
    0.00000E+00         0.00000E+00        -0.38145E+08
 
   -0.37621E+08         0.17705E+07         0.00000E+00
    0.17705E+07        -0.59953E+08         0.00000E+00
    0.00000E+00         0.00000E+00        -0.38195E+08
 
   -0.38049E+08         0.21755E+07         0.00000E+00
    0.21755E+07        -0.59790E+08         0.00000E+00
    0.00000E+00         0.00000E+00        -0.38245E+08
 
   -0.32006E+08        -0.77624E+05         0.00000E+00
   -0.77624E+05        -0.60006E+08         0.00000E+00
    0.00000E+00         0.00000E+00        -0.36800E+08
 
   -0.32648E+08        -0.19950E+06         0.00000E+00
   -0.19950E+06        -0.60027E+08         0.00000E+00
    0.00000E+00         0.00000E+00        -0.36929E+08
 
   -0.33210E+08        -0.27509E+06         0.00000E+00
   -0.27509E+06        -0.60064E+08         0.00000E+00
    0.00000E+00         0.00000E+00        -0.37042E+08
 
   -0.33704E+08        -0.30333E+06         0.00000E+00
   -0.30333E+06        -0.60112E+08         0.00000E+00
    0.00000E+00         0.00000E+00        -0.37143E+08
 
   -0.34142E+08        -0.28384E+06         0.00000E+00
   -0.28384E+06        -0.60164E+08         0.00000E+00
    0.00000E+00         0.00000E+00        -0.37231E+08
 
   -0.34536E+08        -0.21681E+06         0.00000E+00
   -0.21681E+06        -0.60216E+08         0.00000E+00
    0.00000E+00         0.00000E+00        -0.37309E+08
 
   -0.34895E+08        -0.10287E+06         0.00000E+00
   -0.10287E+06        -0.60263E+08         0.00000E+00
    0.00000E+00         0.00000E+00        -0.37379E+08
 
   -0.35230E+08         0.57030E+05         0.00000E+00
    0.57030E+05        -0.60299E+08         0.00000E+00
    0.00000E+00         0.00000E+00        -0.37442E+08
 
   -0.35550E+08         0.26171E+06         0.00000E+00
    0.26171E+06        -0.60320E+08         0.00000E+00
    0.00000E+00         0.00000E+00        -0.37500E+08
 
   -0.35865E+08         0.50984E+06         0.00000E+00
    0.50984E+06        -0.60321E+08         0.00000E+00
    0.00000E+00         0.00000E+00        -0.37553E+08
 
   -0.36181E+08         0.79999E+06         0.00000E+00
    0.79999E+06        -0.60300E+08         0.00000E+00
    0.00000E+00         0.00000E+00        -0.37603E+08
 
   -0.36507E+08         0.11307E+07         0.00000E+00
    0.11307E+07        -0.60251E+08         0.00000E+00
    0.00000E+00         0.00000E+00        -0.37650E+08
 
   -0.36849E+08         0.15005E+07         0.00000E+00
    0.15005E+07        -0.60172E+08         0.00000E+00
    0.00000E+00         0.00000E+00        -0.37697E+08
 
   -0.37214E+08         0.19080E+07         0.00000E+00
    0.19080E+07        -0.60060E+08         0.00000E+00
    0.00000E+00         0.00000E+00        -0.37742E+08
 
   -0.37608E+08         0.23519E+07         0.00000E+00
    0.23519E+07        -0.59910E+08         0.00000E+00
    0.00000E+00         0.00000E+00        -0.37789E+08
 
   -0.32162E+08        -0.89840E+05         0.00000E+00
   -0.89840E+05        -0.60006E+08         0.00000E+00
    0.00000E+00         0.00000E+00        -0.36394E+08
 
   -0.32755E+08        -0.23163E+06         0.00000E+00
   -0.23163E+06        -0.60030E+08         0.00000E+00
    0.00000E+00         0.00000E+00        -0.36514E+08
 
   -0.33267E+08        -0.32116E+06         0.00000E+00
   -0.32116E+06        -0.60071E+08         0.00000E+00
    0.00000E+00         0.00000E+00        -0.36619E+08
 
   -0.33711E+08        -0.35752E+06         0.00000E+00
   -0.35752E+06        -0.60124E+08         0.00000E+00
    0.00000E+00         0.00000E+00        -0.36711E+08
 
   -0.34099E+08        -0.34059E+06         0.00000E+00
   -0.34059E+06        -0.60183E+08         0.00000E+00
    0.00000E+00         0.00000E+00        -0.36791E+08
 
   -0.34442E+08        -0.27084E+06         0.00000E+00
   -0.27084E+06        -0.60242E+08         0.00000E+00
    0.00000E+00         0.00000E+00        -0.36862E+08
 
   -0.34753E+08        -0.14921E+06         0.00000E+00
   -0.14921E+06        -0.60296E+08         0.00000E+00
    0.00000E+00         0.00000E+00        -0.36925E+08
 
   -0.35040E+08         0.23064E+05         0.00000E+00
    0.23064E+05        -0.60341E+08         0.00000E+00
    0.00000E+00         0.00000E+00        -0.36981E+08
 
   -0.35314E+08         0.24451E+06         0.00000E+00
    0.24451E+06        -0.60371E+08         0.00000E+00
    0.00000E+00         0.00000E+00        -0.37033E+08
 
   -0.35584E+08         0.51354E+06         0.00000E+00
    0.51354E+06        -0.60383E+08         0.00000E+00
    0.00000E+00         0.00000E+00        -0.37080E+08
 
   -0.35857E+08         0.82847E+06         0.00000E+00
    0.82847E+06        -0.60373E+08         0.00000E+00
    0.00000E+00         0.00000E+00        -0.37124E+08
 
   -0.36141E+08         0.11876E+07         0.00000E+00
    0.11876E+07        -0.60336E+08         0.00000E+00
    0.00000E+00         0.00000E+00        -0.37166E+08
 
   -0.36444E+08         0.15893E+07         0.00000E+00
    0.15893E+07        -0.60270E+08         0.00000E+00
    0.00000E+00         0.00000E+00        -0.37208E+08
 
   -0.36770E+08         0.20317E+07         0.00000E+00
    0.20317E+07        -0.60171E+08         0.00000E+00
    0.00000E+00         0.00000E+00        -0.37249E+08
 
   -0.37126E+08         0.25134E+07         0.00000E+00
    0.25134E+07        -0.60036E+08         0.00000E+00
    0.00000E+00         0.00000E+00        -0.37291E+08
 
   -0.32342E+08        -0.10326E+06         0.00000E+00
   -0.10326E+06        -0.60007E+08         0.00000E+00
    0.00000E+00         0.00000E+00        -0.35959E+08
 
   -0.32880E+08        -0.26697E+06         0.00000E+00
   -0.26697E+06        -0.60032E+08         0.00000E+00
    0.00000E+00         0.00000E+00        -0.36069E+08
 
   -0.33336E+08        -0.37197E+06         0.00000E+00
   -0.37197E+06        -0.60078E+08         0.00000E+00
    0.00000E+00         0.00000E+00        -0.36164E+08
 
   -0.33724E+08        -0.41766E+06         0.00000E+00
   -0.41766E+06        -0.60136E+08         0.00000E+00
    0.00000E+00         0.00000E+00        -0.36247E+08
 
   -0.34056E+08        -0.40425E+06         0.00000E+00
   -0.40425E+06        -0.60201E+08         0.00000E+00
    0.00000E+00         0.00000E+00        -0.36318E+08
 
   -0.34344E+08        -0.33260E+06         0.00000E+00
   -0.33260E+06        -0.60268E+08         0.00000E+00
    0.00000E+00         0.00000E+00        -0.36381E+08
 
   -0.34601E+08        -0.20401E+06         0.00000E+00
   -0.20401E+06        -0.60330E+08         0.00000E+00
    0.00000E+00         0.00000E+00        -0.36436E+08
 
   -0.34836E+08        -0.20102E+05         0.00000E+00
   -0.20102E+05        -0.60384E+08         0.00000E+00
    0.00000E+00         0.00000E+00        -0.36484E+08
 
   -0.35060E+08         0.21735E+06         0.00000E+00
    0.21735E+06        -0.60424E+08         0.00000E+00
    0.00000E+00         0.00000E+00        -0.36529E+08
 
   -0.35281E+08         0.50645E+06         0.00000E+00
    0.50645E+06        -0.60446E+08         0.00000E+00
    0.00000E+00         0.00000E+00        -0.36569E+08
 
   -0.35507E+08         0.84528E+06         0.00000E+00
    0.84528E+06        -0.60447E+08         0.00000E+00
    0.00000E+00         0.00000E+00        -0.36607E+08
 
   -0.35746E+08         0.12319E+07         0.00000E+00
    0.12319E+07        -0.60423E+08         0.00000E+00
    0.00000E+00         0.00000E+00        -0.36644E+08
 
   -0.36005E+08         0.16644E+07         0.00000E+00
    0.16644E+07        -0.60370E+08         0.00000E+00
    0.00000E+00         0.00000E+00        -0.36680E+08
 
   -0.36290E+08         0.21408E+07         0.00000E+00
    0.21408E+07        -0.60286E+08         0.00000E+00
    0.00000E+00         0.00000E+00        -0.36717E+08
 
   -0.36607E+08         0.26591E+07         0.00000E+00
    0.26591E+07        -0.60166E+08         0.00000E+00
    0.00000E+00         0.00000E+00        -0.36754E+08
 
   -0.32548E+08        -0.11791E+06         0.00000E+00
   -0.11791E+06        -0.60007E+08         0.00000E+00
    0.00000E+00         0.00000E+00        -0.35497E+08
 
   -0.33025E+08        -0.30556E+06         0.00000E+00
   -0.30556E+06        -0.60035E+08         0.00000E+00
    0.00000E+00         0.00000E+00        -0.35596E+08
 
   -0.33419E+08        -0.42756E+06         0.00000E+00
   -0.42756E+06        -0.60084E+08         0.00000E+00
    0.00000E+00         0.00000E+00        -0.35680E+08
 
   -0.33744E+08        -0.48372E+06         0.00000E+00
   -0.48372E+06        -0.60148E+08         0.00000E+00
    0.00000E+00         0.00000E+00        -0.35752E+08
 
   -0.34014E+08        -0.47474E+06         0.00000E+00
   -0.47474E+06        -0.60220E+08         0.00000E+00
    0.00000E+00         0.00000E+00        -0.35813E+08
 
   -0.34242E+08        -0.40197E+06         0.00000E+00
   -0.40197E+06        -0.60293E+08         0.00000E+00
    0.00000E+00         0.00000E+00        -0.35866E+08
 
   -0.34440E+08        -0.26719E+06         0.00000E+00
   -0.26719E+06        -0.60364E+08         0.00000E+00
    0.00000E+00         0.00000E+00        -0.35912E+08
 
   -0.34619E+08        -0.72440E+05         0.00000E+00
   -0.72440E+05        -0.60426E+08         0.00000E+00
    0.00000E+00         0.00000E+00        -0.35953E+08
 
   -0.34788E+08         0.18013E+06         0.00000E+00
    0.18013E+06        -0.60475E+08         0.00000E+00
    0.00000E+00         0.00000E+00        -0.35989E+08
 
   -0.34956E+08         0.48834E+06         0.00000E+00
    0.48834E+06        -0.60508E+08         0.00000E+00
    0.00000E+00         0.00000E+00        -0.36023E+08
 
   -0.35131E+08         0.85003E+06         0.00000E+00
    0.85003E+06        -0.60521E+08         0.00000E+00
    0.00000E+00         0.00000E+00        -0.36054E+08
 
   -0.35322E+08         0.12630E+07         0.00000E+00
    0.12630E+07        -0.60510E+08         0.00000E+00
    0.00000E+00         0.00000E+00        -0.36085E+08
 
   -0.35535E+08         0.17252E+07         0.00000E+00
    0.17252E+07        -0.60471E+08         0.00000E+00
    0.00000E+00         0.00000E+00        -0.36115E+08
 
   -0.35776E+08         0.22343E+07         0.00000E+00
    0.22343E+07        -0.60401E+08         0.00000E+00
    0.00000E+00         0.00000E+00        -0.36146E+08
 
   -0.36050E+08         0.27881E+07         0.00000E+00
    0.27881E+07        -0.60299E+08         0.00000E+00
    0.00000E+00         0.00000E+00        -0.36179E+08
 
   -0.32783E+08        -0.13381E+06         0.00000E+00
   -0.13381E+06        -0.60008E+08         0.00000E+00
    0.00000E+00         0.00000E+00        -0.35010E+08
 
   -0.33191E+08        -0.34736E+06         0.00000E+00
   -0.34736E+06        -0.60038E+08         0.00000E+00
    0.00000E+00         0.00000E+00        -0.35096E+08
 
   -0.33515E+08        -0.48778E+06         0.00000E+00
   -0.48778E+06        -0.60091E+08         0.00000E+00
    0.00000E+00         0.00000E+00        -0.35168E+08
 
   -0.33771E+08        -0.55546E+06         0.00000E+00
   -0.55546E+06        -0.60160E+08         0.00000E+00
    0.00000E+00         0.00000E+00        -0.35228E+08
 
   -0.33974E+08        -0.55173E+06         0.00000E+00
   -0.55173E+06        -0.60237E+08         0.00000E+00
    0.00000E+00         0.00000E+00        -0.35278E+08
 
   -0.34137E+08        -0.47857E+06         0.00000E+00
   -0.47857E+06        -0.60317E+08         0.00000E+00
    0.00000E+00         0.00000E+00        -0.35321E+08
 
   -0.34271E+08        -0.33835E+06         0.00000E+00
   -0.33835E+06        -0.60395E+08         0.00000E+00
    0.00000E+00         0.00000E+00        -0.35357E+08
 
   -0.34389E+08        -0.13362E+06         0.00000E+00
   -0.13362E+06        -0.60465E+08         0.00000E+00
    0.00000E+00         0.00000E+00        -0.35388E+08
 
   -0.34499E+08         0.13308E+06         0.00000E+00
    0.13308E+06        -0.60524E+08         0.00000E+00
    0.00000E+00         0.00000E+00        -0.35416E+08
 
   -0.34611E+08         0.45925E+06         0.00000E+00
    0.45925E+06        -0.60567E+08         0.00000E+00
    0.00000E+00         0.00000E+00        -0.35442E+08
 
   -0.34732E+08         0.84251E+06         0.00000E+00
    0.84251E+06        -0.60591E+08         0.00000E+00
    0.00000E+00         0.00000E+00        -0.35466E+08
 
   -0.34871E+08         0.12805E+07         0.00000E+00
    0.12805E+07        -0.60593E+08         0.00000E+00
    0.00000E+00         0.00000E+00        -0.35489E+08
 
   -0.35034E+08         0.17710E+07         0.00000E+00
    0.17710E+07        -0.60569E+08         0.00000E+00
    0.00000E+00         0.00000E+00        -0.35514E+08
 
   -0.35227E+08         0.23114E+07         0.00000E+00
    0.23114E+07        -0.60515E+08         0.00000E+00
    0.00000E+00         0.00000E+00        -0.35539E+08
 
   -0.35457E+08         0.28993E+07         0.00000E+00
    0.28993E+07        -0.60430E+08         0.00000E+00
    0.00000E+00         0.00000E+00        -0.35567E+08
 
   -0.33049E+08        -0.15091E+06         0.00000E+00
   -0.15091E+06        -0.60008E+08         0.00000E+00
    0.00000E+00         0.00000E+00        -0.34501E+08
 
   -0.33380E+08        -0.39222E+06         0.00000E+00
   -0.39222E+06        -0.60040E+08         0.00000E+00
    0.00000E+00         0.00000E+00        -0.34572E+08
 
   -0.33627E+08        -0.55231E+06         0.00000E+00
   -0.55231E+06        -0.60097E+08         0.00000E+00
    0.00000E+00         0.00000E+00        -0.34629E+08
 
   -0.33807E+08        -0.63236E+06         0.00000E+00
   -0.63236E+06        -0.60170E+08         0.00000E+00
    0.00000E+00         0.00000E+00        -0.34676E+08
 
   -0.33937E+08        -0.63453E+06         0.00000E+00
   -0.63453E+06        -0.60253E+08         0.00000E+00
    0.00000E+00         0.00000E+00        -0.34714E+08
 
   -0.34028E+08        -0.56161E+06         0.00000E+00
   -0.56161E+06        -0.60338E+08         0.00000E+00
    0.00000E+00         0.00000E+00        -0.34745E+08
 
   -0.34095E+08        -0.41669E+06         0.00000E+00
   -0.41669E+06        -0.60422E+08         0.00000E+00
    0.00000E+00         0.00000E+00        -0.34771E+08
 
   -0.34147E+08        -0.20291E+06         0.00000E+00
   -0.20291E+06        -0.60499E+08         0.00000E+00
    0.00000E+00         0.00000E+00        -0.34792E+08
 
   -0.34195E+08         0.76729E+05         0.00000E+00
    0.76729E+05        -0.60566E+08         0.00000E+00
    0.00000E+00         0.00000E+00        -0.34810E+08
 
   -0.34246E+08         0.41946E+06         0.00000E+00
    0.41946E+06        -0.60619E+08         0.00000E+00
    0.00000E+00         0.00000E+00        -0.34827E+08
 
   -0.34310E+08         0.82273E+06         0.00000E+00
    0.82273E+06        -0.60655E+08         0.00000E+00
    0.00000E+00         0.00000E+00        -0.34843E+08
 
   -0.34394E+08         0.12841E+07         0.00000E+00
    0.12841E+07        -0.60669E+08         0.00000E+00
    0.00000E+00         0.00000E+00        -0.34860E+08
 
   -0.34504E+08         0.18012E+07         0.00000E+00
    0.18012E+07        -0.60660E+08         0.00000E+00
    0.00000E+00         0.00000E+00        -0.34877E+08
 
   -0.34647E+08         0.23715E+07         0.00000E+00
    0.23715E+07        -0.60623E+08         0.00000E+00
    0.00000E+00         0.00000E+00        -0.34897E+08
 
   -0.34829E+08         0.29920E+07         0.00000E+00
    0.29920E+07        -0.60556E+08         0.00000E+00
    0.00000E+00         0.00000E+00        -0.34919E+08
 
   -0.33348E+08        -0.16913E+06         0.00000E+00
   -0.16913E+06        -0.60009E+08         0.00000E+00
    0.00000E+00         0.00000E+00        -0.33971E+08
 
   -0.33593E+08        -0.43983E+06         0.00000E+00
   -0.43983E+06        -0.60043E+08         0.00000E+00
    0.00000E+00         0.00000E+00        -0.34025E+08
 
   -0.33755E+08        -0.62057E+06         0.00000E+00
   -0.62057E+06        -0.60102E+08         0.00000E+00
    0.00000E+00         0.00000E+00        -0.34068E+08
 
   -0.33853E+08        -0.71358E+06         0.00000E+00
   -0.71358E+06        -0.60179E+08         0.00000E+00
    0.00000E+00         0.00000E+00        -0.34100E+08
 
   -0.33903E+08        -0.72207E+06         0.00000E+00
   -0.72207E+06        -0.60265E+08         0.00000E+00
    0.00000E+00         0.00000E+00        -0.34124E+08
 
   -0.33918E+08        -0.64986E+06         0.00000E+00
   -0.64986E+06        -0.60355E+08         0.00000E+00
    0.00000E+00         0.00000E+00        -0.34142E+08
 
   -0.33912E+08        -0.50094E+06         0.00000E+00
   -0.50094E+06        -0.60444E+08         0.00000E+00
    0.00000E+00         0.00000E+00        -0.34156E+08
 
   -0.33895E+08        -0.27915E+06         0.00000E+00
   -0.27915E+06        -0.60527E+08         0.00000E+00
    0.00000E+00         0.00000E+00        -0.34166E+08
 
   -0.33877E+08         0.12048E+05         0.00000E+00
    0.12048E+05        -0.60600E+08         0.00000E+00
    0.00000E+00         0.00000E+00        -0.34174E+08
 
   -0.33865E+08         0.36963E+06         0.00000E+00
    0.36963E+06        -0.60662E+08         0.00000E+00
    0.00000E+00         0.00000E+00        -0.34181E+08
 
   -0.33868E+08         0.79096E+06         0.00000E+00
    0.79096E+06        -0.60708E+08         0.00000E+00
    0.00000E+00         0.00000E+00        -0.34189E+08
 
   -0.33893E+08         0.12737E+07         0.00000E+00
    0.12737E+07        -0.60736E+08         0.00000E+00
    0.00000E+00         0.00000E+00        -0.34197E+08
 
   -0.33947E+08         0.18154E+07         0.00000E+00
    0.18154E+07        -0.60742E+08         0.00000E+00
    0.00000E+00         0.00000E+00        -0.34208E+08
 
   -0.34037E+08         0.24136E+07         0.00000E+00
    0.24136E+07        -0.60722E+08         0.00000E+00
    0.00000E+00         0.00000E+00        -0.34221E+08
 
   -0.34168E+08         0.30652E+07         0.00000E+00
    0.30652E+07        -0.60674E+08         0.00000E+00
    0.00000E+00         0.00000E+00        -0.34237E+08
 
   -0.33681E+08        -0.18835E+06         0.00000E+00
   -0.18835E+06        -0.60009E+08         0.00000E+00
    0.00000E+00         0.00000E+00        -0.33423E+08
 
   -0.33831E+08        -0.48971E+06         0.00000E+00
   -0.48971E+06        -0.60045E+08         0.00000E+00
    0.00000E+00         0.00000E+00        -0.33459E+08
 
   -0.33900E+08        -0.69170E+06         0.00000E+00
   -0.69170E+06        -0.60106E+08         0.00000E+00
    0.00000E+00         0.00000E+00        -0.33484E+08
 
   -0.33908E+08        -0.79783E+06         0.00000E+00
   -0.79783E+06        -0.60185E+08         0.00000E+00
    0.00000E+00         0.00000E+00        -0.33500E+08
 
   -0.33872E+08        -0.81272E+06         0.00000E+00
   -0.81272E+06        -0.60274E+08         0.00000E+00
    0.00000E+00         0.00000E+00        -0.33509E+08
 
   -0.33806E+08        -0.74150E+06         0.00000E+00
   -0.74150E+06        -0.60366E+08         0.00000E+00
    0.00000E+00         0.00000E+00        -0.33513E+08
 
   -0.33724E+08        -0.58923E+06         0.00000E+00
   -0.58923E+06        -0.60457E+08         0.00000E+00
    0.00000E+00         0.00000E+00        -0.33513E+08
 
   -0.33634E+08        -0.36057E+06         0.00000E+00
   -0.36057E+06        -0.60543E+08         0.00000E+00
    0.00000E+00         0.00000E+00        -0.33511E+08
 
   -0.33546E+08        -0.59503E+05         0.00000E+00
   -0.59503E+05        -0.60622E+08         0.00000E+00
    0.00000E+00         0.00000E+00        -0.33509E+08
 
   -0.33468E+08         0.31077E+06         0.00000E+00
    0.31077E+06        -0.60690E+08         0.00000E+00
    0.00000E+00         0.00000E+00        -0.33506E+08
 
   -0.33407E+08         0.74770E+06         0.00000E+00
    0.74770E+06        -0.60746E+08         0.00000E+00
    0.00000E+00         0.00000E+00        -0.33504E+08
 
   -0.33370E+08         0.12492E+07         0.00000E+00
    0.12492E+07        -0.60787E+08         0.00000E+00
    0.00000E+00         0.00000E+00        -0.33503E+08
 
   -0.33364E+08         0.18131E+07         0.00000E+00
    0.18131E+07        -0.60808E+08         0.00000E+00
    0.00000E+00         0.00000E+00        -0.33506E+08
 
   -0.33397E+08         0.24370E+07         0.00000E+00
    0.24370E+07        -0.60807E+08         0.00000E+00
    0.00000E+00         0.00000E+00        -0.33512E+08
 
   -0.33476E+08         0.31179E+07         0.00000E+00
    0.31179E+07        -0.60779E+08         0.00000E+00
    0.00000E+00         0.00000E+00        -0.33521E+08
 
   -0.34052E+08        -0.20837E+06         0.00000E+00
   -0.20837E+06        -0.60009E+08         0.00000E+00
    0.00000E+00         0.00000E+00        -0.32860E+08
 
   -0.34095E+08        -0.54121E+06         0.00000E+00
   -0.54121E+06        -0.60046E+08         0.00000E+00
    0.00000E+00         0.00000E+00        -0.32875E+08
 
   -0.34062E+08        -0.76445E+06         0.00000E+00
   -0.76445E+06        -0.60109E+08         0.00000E+00
    0.00000E+00         0.00000E+00        -0.32881E+08
 
   -0.33972E+08        -0.88334E+06         0.00000E+00
   -0.88334E+06        -0.60188E+08         0.00000E+00
    0.00000E+00         0.00000E+00        -0.32879E+08
 
   -0.33845E+08        -0.90426E+06         0.00000E+00
   -0.90426E+06        -0.60276E+08         0.00000E+00
    0.00000E+00         0.00000E+00        -0.32871E+08
 
   -0.33694E+08        -0.83398E+06         0.00000E+00
   -0.83398E+06        -0.60368E+08         0.00000E+00
    0.00000E+00         0.00000E+00        -0.32860E+08
 
   -0.33530E+08        -0.67894E+06         0.00000E+00
   -0.67894E+06        -0.60458E+08         0.00000E+00
    0.00000E+00         0.00000E+00        -0.32846E+08
 
   -0.33365E+08        -0.44474E+06         0.00000E+00
   -0.44474E+06        -0.60545E+08         0.00000E+00
    0.00000E+00         0.00000E+00        -0.32831E+08
 
   -0.33205E+08        -0.13586E+06         0.00000E+00
   -0.13586E+06        -0.60626E+08         0.00000E+00
    0.00000E+00         0.00000E+00        -0.32815E+08
 
   -0.33058E+08         0.24440E+06         0.00000E+00
    0.24440E+06        -0.60700E+08         0.00000E+00
    0.00000E+00         0.00000E+00        -0.32801E+08
 
   -0.32930E+08         0.69378E+06         0.00000E+00
    0.69378E+06        -0.60764E+08         0.00000E+00
    0.00000E+00         0.00000E+00        -0.32789E+08
 
   -0.32828E+08         0.12107E+07         0.00000E+00
    0.12107E+07        -0.60816E+08         0.00000E+00
    0.00000E+00         0.00000E+00        -0.32779E+08
 
   -0.32759E+08         0.17936E+07         0.00000E+00
    0.17936E+07        -0.60853E+08         0.00000E+00
    0.00000E+00         0.00000E+00        -0.32773E+08
 
   -0.32732E+08         0.24406E+07         0.00000E+00
    0.24406E+07        -0.60871E+08         0.00000E+00
    0.00000E+00         0.00000E+00        -0.32771E+08
 
   -0.32753E+08         0.31489E+07         0.00000E+00
    0.31489E+07        -0.60865E+08         0.00000E+00
    0.00000E+00         0.00000E+00        -0.32774E+08
 
   -0.34460E+08        -0.22893E+06         0.00000E+00
   -0.22893E+06        -0.60009E+08         0.00000E+00
    0.00000E+00         0.00000E+00        -0.32284E+08
 
   -0.34386E+08        -0.59340E+06         0.00000E+00
   -0.59340E+06        -0.60046E+08         0.00000E+00
    0.00000E+00         0.00000E+00        -0.32277E+08
 
   -0.34240E+08        -0.83716E+06         0.00000E+00
   -0.83716E+06        -0.60109E+08         0.00000E+00
    0.00000E+00         0.00000E+00        -0.32261E+08
 
   -0.34046E+08        -0.96768E+06         0.00000E+00
   -0.96768E+06        -0.60186E+08         0.00000E+00
    0.00000E+00         0.00000E+00        -0.32239E+08
 
   -0.33821E+08        -0.99364E+06         0.00000E+00
   -0.99364E+06        -0.60271E+08         0.00000E+00
    0.00000E+00         0.00000E+00        -0.32213E+08
 
   -0.33580E+08        -0.92391E+06         0.00000E+00
   -0.92391E+06        -0.60358E+08         0.00000E+00
    0.00000E+00         0.00000E+00        -0.32184E+08
 
   -0.33334E+08        -0.76658E+06         0.00000E+00
   -0.76658E+06        -0.60444E+08         0.00000E+00
    0.00000E+00         0.00000E+00        -0.32154E+08
 
   -0.33091E+08        -0.52838E+06         0.00000E+00
   -0.52838E+06        -0.60528E+08         0.00000E+00
    0.00000E+00         0.00000E+00        -0.32125E+08
 
   -0.32858E+08        -0.21427E+06         0.00000E+00
   -0.21427E+06        -0.60608E+08         0.00000E+00
    0.00000E+00         0.00000E+00        -0.32096E+08
 
   -0.32639E+08         0.17252E+06         0.00000E+00
    0.17252E+06        -0.60684E+08         0.00000E+00
    0.00000E+00         0.00000E+00        -0.32070E+08
 
   -0.32442E+08         0.63030E+06         0.00000E+00
    0.63030E+06        -0.60754E+08         0.00000E+00
    0.00000E+00         0.00000E+00        -0.32047E+08
 
   -0.32272E+08         0.11584E+07         0.00000E+00
    0.11584E+07        -0.60818E+08         0.00000E+00
    0.00000E+00         0.00000E+00        -0.32027E+08
 
   -0.32135E+08         0.17563E+07         0.00000E+00
    0.17563E+07        -0.60871E+08         0.00000E+00
    0.00000E+00         0.00000E+00        -0.32011E+08
 
   -0.32042E+08         0.24231E+07         0.00000E+00
    0.24231E+07        -0.60909E+08         0.00000E+00
    0.00000E+00         0.00000E+00        -0.32001E+08
 
   -0.32002E+08         0.31564E+07         0.00000E+00
    0.31564E+07        -0.60926E+08         0.00000E+00
    0.00000E+00         0.00000E+00        -0.31997E+08
 
   -0.34906E+08        -0.24970E+06         0.00000E+00
   -0.24970E+06        -0.60009E+08         0.00000E+00
    0.00000E+00         0.00000E+00        -0.31698E+08
 
   -0.34701E+08        -0.64509E+06         0.00000E+00
   -0.64509E+06        -0.60046E+08         0.00000E+00
    0.00000E+00         0.00000E+00        -0.31665E+08
 
   -0.34433E+08        -0.90762E+06         0.00000E+00
   -0.90762E+06        -0.60106E+08         0.00000E+00
    0.00000E+00         0.00000E+00        -0.31626E+08
 
   -0.34126E+08        -0.10476E+07         0.00000E+00
   -0.10476E+07        -0.60178E+08         0.00000E+00
    0.00000E+00         0.00000E+00        -0.31581E+08
 
   -0.33798E+08        -0.10769E+07         0.00000E+00
   -0.10769E+07        -0.60256E+08         0.00000E+00
    0.00000E+00         0.00000E+00        -0.31535E+08
 
   -0.33464E+08        -0.10068E+07         0.00000E+00
   -0.10068E+07        -0.60333E+08         0.00000E+00
    0.00000E+00         0.00000E+00        -0.31487E+08
 
   -0.33134E+08        -0.84761E+06         0.00000E+00
   -0.84761E+06        -0.60410E+08         0.00000E+00
    0.00000E+00         0.00000E+00        -0.31441E+08
 
   -0.32813E+08        -0.60726E+06         0.00000E+00
   -0.60726E+06        -0.60485E+08         0.00000E+00
    0.00000E+00         0.00000E+00        -0.31395E+08
 
   -0.32506E+08        -0.29116E+06         0.00000E+00
   -0.29116E+06        -0.60560E+08         0.00000E+00
    0.00000E+00         0.00000E+00        -0.31353E+08
 
   -0.32216E+08         0.97765E+05         0.00000E+00
    0.97765E+05        -0.60634E+08         0.00000E+00
    0.00000E+00         0.00000E+00        -0.31313E+08
 
   -0.31947E+08         0.55876E+06         0.00000E+00
    0.55876E+06        -0.60709E+08         0.00000E+00
    0.00000E+00         0.00000E+00        -0.31278E+08
 
   -0.31704E+08         0.10925E+07         0.00000E+00
    0.10925E+07        -0.60783E+08         0.00000E+00
    0.00000E+00         0.00000E+00        -0.31247E+08
 
   -0.31496E+08         0.17003E+07         0.00000E+00
    0.17003E+07        -0.60853E+08         0.00000E+00
    0.00000E+00         0.00000E+00        -0.31222E+08
 
   -0.31332E+08         0.23826E+07         0.00000E+00
    0.23826E+07        -0.60912E+08         0.00000E+00
    0.00000E+00         0.00000E+00        -0.31202E+08
 
   -0.31224E+08         0.31382E+07         0.00000E+00
    0.31382E+07        -0.60955E+08         0.00000E+00
    0.00000E+00         0.00000E+00        -0.31190E+08
 
   -0.35389E+08        -0.27025E+06         0.00000E+00
   -0.27025E+06        -0.60009E+08         0.00000E+00
    0.00000E+00         0.00000E+00        -0.31104E+08
 
   -0.35040E+08        -0.69474E+06         0.00000E+00
   -0.69474E+06        -0.60044E+08         0.00000E+00
    0.00000E+00         0.00000E+00        -0.31043E+08
 
   -0.34638E+08        -0.97291E+06         0.00000E+00
   -0.97291E+06        -0.60099E+08         0.00000E+00
    0.00000E+00         0.00000E+00        -0.30977E+08
 
   -0.34210E+08        -0.11190E+07         0.00000E+00
   -0.11190E+07        -0.60162E+08         0.00000E+00
    0.00000E+00         0.00000E+00        -0.30908E+08
 
   -0.33776E+08        -0.11487E+07         0.00000E+00
   -0.11487E+07        -0.60227E+08         0.00000E+00
    0.00000E+00         0.00000E+00        -0.30839E+08
 
   -0.33348E+08        -0.10770E+07         0.00000E+00
   -0.10770E+07        -0.60289E+08         0.00000E+00
    0.00000E+00         0.00000E+00        -0.30771E+08
 
   -0.32933E+08        -0.91629E+06         0.00000E+00
   -0.91629E+06        -0.60350E+08         0.00000E+00
    0.00000E+00         0.00000E+00        -0.30706E+08
 
   -0.32535E+08        -0.67609E+06         0.00000E+00
   -0.67609E+06        -0.60410E+08         0.00000E+00
    0.00000E+00         0.00000E+00        -0.30644E+08
 
   -0.32154E+08        -0.36209E+06         0.00000E+00
   -0.36209E+06        -0.60474E+08         0.00000E+00
    0.00000E+00         0.00000E+00        -0.30587E+08
 
   -0.31792E+08         0.23381E+05         0.00000E+00
    0.23381E+05        -0.60543E+08         0.00000E+00
    0.00000E+00         0.00000E+00        -0.30533E+08
 
   -0.31451E+08         0.48096E+06         0.00000E+00
    0.48096E+06        -0.60620E+08         0.00000E+00
    0.00000E+00         0.00000E+00        -0.30485E+08
 
   -0.31133E+08         0.10134E+07         0.00000E+00
    0.10134E+07        -0.60703E+08         0.00000E+00
    0.00000E+00         0.00000E+00        -0.30442E+08
 
   -0.30848E+08         0.16243E+07         0.00000E+00
    0.16243E+07        -0.60789E+08         0.00000E+00
    0.00000E+00         0.00000E+00        -0.30405E+08
 
   -0.30606E+08         0.23168E+07         0.00000E+00
    0.23168E+07        -0.60873E+08         0.00000E+00
    0.00000E+00         0.00000E+00        -0.30376E+08
 
   -0.30421E+08         0.30914E+07         0.00000E+00
    0.30914E+07        -0.60944E+08         0.00000E+00
    0.00000E+00         0.00000E+00        -0.30354E+08
 
   -0.35909E+08        -0.29011E+06         0.00000E+00
   -0.29011E+06        -0.60009E+08         0.00000E+00
    0.00000E+00         0.00000E+00        -0.30506E+08
 
   -0.35399E+08        -0.74035E+06         0.00000E+00
   -0.74035E+06        -0.60040E+08         0.00000E+00
    0.00000E+00         0.00000E+00        -0.30413E+08
 
   -0.34851E+08        -0.10292E+07         0.00000E+00
   -0.10292E+07        -0.60087E+08         0.00000E+00
    0.00000E+00         0.00000E+00        -0.30317E+08
 
   -0.34296E+08        -0.11763E+07         0.00000E+00
   -0.11763E+07        -0.60136E+08         0.00000E+00
    0.00000E+00         0.00000E+00        -0.30221E+08
 
   -0.33751E+08        -0.12025E+07         0.00000E+00
   -0.12025E+07        -0.60181E+08         0.00000E+00
    0.00000E+00         0.00000E+00        -0.30127E+08
 
   -0.33229E+08        -0.11271E+07         0.00000E+00
   -0.11271E+07        -0.60220E+08         0.00000E+00
    0.00000E+00         0.00000E+00        -0.30038E+08
 
   -0.32732E+08        -0.96556E+06         0.00000E+00
   -0.96556E+06        -0.60257E+08         0.00000E+00
    0.00000E+00         0.00000E+00        -0.29953E+08
 
   -0.32260E+08        -0.72847E+06         0.00000E+00
   -0.72847E+06        -0.60295E+08         0.00000E+00
    0.00000E+00         0.00000E+00        -0.29873E+08
 
   -0.31809E+08        -0.42172E+06         0.00000E+00
   -0.42172E+06        -0.60342E+08         0.00000E+00
    0.00000E+00         0.00000E+00        -0.29799E+08
 
   -0.31376E+08        -0.46699E+05         0.00000E+00
   -0.46699E+05        -0.60401E+08         0.00000E+00
    0.00000E+00         0.00000E+00        -0.29731E+08
 
   -0.30961E+08         0.39910E+06         0.00000E+00
    0.39910E+06        -0.60475E+08         0.00000E+00
    0.00000E+00         0.00000E+00        -0.29669E+08
 
   -0.30566E+08         0.92117E+06         0.00000E+00
    0.92117E+06        -0.60566E+08         0.00000E+00
    0.00000E+00         0.00000E+00        -0.29613E+08
 
   -0.30197E+08         0.15266E+07         0.00000E+00
    0.15266E+07        -0.60670E+08         0.00000E+00
    0.00000E+00         0.00000E+00        -0.29564E+08
 
   -0.29868E+08         0.22222E+07         0.00000E+00
    0.22222E+07        -0.60781E+08         0.00000E+00
    0.00000E+00         0.00000E+00        -0.29523E+08
 
   -0.29596E+08         0.30115E+07         0.00000E+00
    0.30115E+07        -0.60886E+08         0.00000E+00
    0.00000E+00         0.00000E+00        -0.29491E+08
 
   -0.36462E+08        -0.30865E+06         0.00000E+00
   -0.30865E+06        -0.60008E+08         0.00000E+00
    0.00000E+00         0.00000E+00        -0.29905E+08
 
   -0.35772E+08        -0.77928E+06         0.00000E+00
   -0.77928E+06        -0.60035E+08         0.00000E+00
    0.00000E+00         0.00000E+00        -0.29776E+08
 
   -0.35066E+08        -0.10713E+07         0.00000E+00
   -0.10713E+07        -0.60068E+08         0.00000E+00
    0.00000E+00         0.00000E+00        -0.29646E+08
 
   -0.34376E+08        -0.12120E+07         0.00000E+00
   -0.12120E+07        -0.60096E+08         0.00000E+00
    0.00000E+00         0.00000E+00        -0.29520E+08
 
   -0.33721E+08        -0.12296E+07         0.00000E+00
   -0.12296E+07        -0.60111E+08         0.00000E+00
    0.00000E+00         0.00000E+00        -0.29400E+08
 
   -0.33107E+08        -0.11485E+07         0.00000E+00
   -0.11485E+07        -0.60118E+08         0.00000E+00
    0.00000E+00         0.00000E+00        -0.29287E+08
 
   -0.32533E+08        -0.98708E+06         0.00000E+00
   -0.98708E+06        -0.60121E+08         0.00000E+00
    0.00000E+00         0.00000E+00        -0.29181E+08
 
   -0.31992E+08        -0.75701E+06         0.00000E+00
   -0.75701E+06        -0.60130E+08         0.00000E+00
    0.00000E+00         0.00000E+00        -0.29083E+08
 
   -0.31476E+08        -0.46391E+06         0.00000E+00
   -0.46391E+06        -0.60152E+08         0.00000E+00
    0.00000E+00         0.00000E+00        -0.28992E+08
 
   -0.30977E+08        -0.10790E+06         0.00000E+00
   -0.10790E+06        -0.60195E+08         0.00000E+00
    0.00000E+00         0.00000E+00        -0.28908E+08
 
   -0.30489E+08         0.31580E+06         0.00000E+00
    0.31580E+06        -0.60264E+08         0.00000E+00
    0.00000E+00         0.00000E+00        -0.28831E+08
 
   -0.30013E+08         0.81613E+06         0.00000E+00
    0.81613E+06        -0.60361E+08         0.00000E+00
    0.00000E+00         0.00000E+00        -0.28761E+08
 
   -0.29553E+08         0.14049E+07         0.00000E+00
    0.14049E+07        -0.60484E+08         0.00000E+00
    0.00000E+00         0.00000E+00        -0.28699E+08
 
   -0.29125E+08         0.20941E+07         0.00000E+00
    0.20941E+07        -0.60625E+08         0.00000E+00
    0.00000E+00         0.00000E+00        -0.28645E+08
 
   -0.28751E+08         0.28925E+07         0.00000E+00
    0.28925E+07        -0.60770E+08         0.00000E+00
    0.00000E+00         0.00000E+00        -0.28601E+08
 
   -0.37043E+08        -0.32515E+06         0.00000E+00
   -0.32515E+06        -0.60007E+08         0.00000E+00
    0.00000E+00         0.00000E+00        -0.29304E+08
 
   -0.36151E+08        -0.80778E+06         0.00000E+00
   -0.80778E+06        -0.60026E+08         0.00000E+00
    0.00000E+00         0.00000E+00        -0.29133E+08
 
   -0.35272E+08        -0.10919E+07         0.00000E+00
   -0.10919E+07        -0.60040E+08         0.00000E+00
    0.00000E+00         0.00000E+00        -0.28966E+08
 
   -0.34443E+08        -0.12164E+07         0.00000E+00
   -0.12164E+07        -0.60035E+08         0.00000E+00
    0.00000E+00         0.00000E+00        -0.28807E+08
 
   -0.33681E+08        -0.12193E+07         0.00000E+00
   -0.12193E+07        -0.60010E+08         0.00000E+00
    0.00000E+00         0.00000E+00        -0.28658E+08
 
   -0.32983E+08        -0.11308E+07         0.00000E+00
   -0.11308E+07        -0.59972E+08         0.00000E+00
    0.00000E+00         0.00000E+00        -0.28520E+08
 
   -0.32340E+08        -0.97163E+06         0.00000E+00
   -0.97163E+06        -0.59932E+08         0.00000E+00
    0.00000E+00         0.00000E+00        -0.28393E+08
 
   -0.31739E+08        -0.75381E+06         0.00000E+00
   -0.75381E+06        -0.59902E+08         0.00000E+00
    0.00000E+00         0.00000E+00        -0.28275E+08
 
   -0.31164E+08        -0.48210E+06         0.00000E+00
   -0.48210E+06        -0.59893E+08         0.00000E+00
    0.00000E+00         0.00000E+00        -0.28167E+08
 
   -0.30603E+08        -0.15512E+06         0.00000E+00
   -0.15512E+06        -0.59914E+08         0.00000E+00
    0.00000E+00         0.00000E+00        -0.28068E+08
 
   -0.30046E+08         0.23424E+06         0.00000E+00
    0.23424E+06        -0.59972E+08         0.00000E+00
    0.00000E+00         0.00000E+00        -0.27975E+08
 
   -0.29486E+08         0.69874E+06         0.00000E+00
    0.69874E+06        -0.60073E+08         0.00000E+00
    0.00000E+00         0.00000E+00        -0.27890E+08
 
   -0.28928E+08         0.12561E+07         0.00000E+00
    0.12561E+07        -0.60217E+08         0.00000E+00
    0.00000E+00         0.00000E+00        -0.27812E+08
 
   -0.28386E+08         0.19262E+07         0.00000E+00
    0.19262E+07        -0.60395E+08         0.00000E+00
    0.00000E+00         0.00000E+00        -0.27743E+08
 
   -0.27890E+08         0.27260E+07         0.00000E+00
    0.27260E+07        -0.60588E+08         0.00000E+00
    0.00000E+00         0.00000E+00        -0.27684E+08
 
   -0.37646E+08        -0.33857E+06         0.00000E+00
   -0.33857E+06        -0.60005E+08         0.00000E+00
    0.00000E+00         0.00000E+00        -0.28705E+08
 
   -0.36523E+08        -0.82008E+06         0.00000E+00
   -0.82008E+06        -0.60013E+08         0.00000E+00
    0.00000E+00         0.00000E+00        -0.28485E+08
 
   -0.35458E+08        -0.10800E+07         0.00000E+00
   -0.10800E+07        -0.59996E+08         0.00000E+00
    0.00000E+00         0.00000E+00        -0.28276E+08
 
   -0.34490E+08        -0.11758E+07         0.00000E+00
   -0.11758E+07        -0.59944E+08         0.00000E+00
    0.00000E+00         0.00000E+00        -0.28080E+08
 
   -0.33627E+08        -0.11582E+07         0.00000E+00
   -0.11582E+07        -0.59863E+08         0.00000E+00
    0.00000E+00         0.00000E+00        -0.27900E+08
 
   -0.32857E+08        -0.10625E+07         0.00000E+00
   -0.10625E+07        -0.59768E+08         0.00000E+00
    0.00000E+00         0.00000E+00        -0.27736E+08
 
   -0.32157E+08        -0.91003E+06         0.00000E+00
   -0.91003E+06        -0.59675E+08         0.00000E+00
    0.00000E+00         0.00000E+00        -0.27588E+08
 
   -0.31506E+08        -0.71140E+06         0.00000E+00
   -0.71140E+06        -0.59599E+08         0.00000E+00
    0.00000E+00         0.00000E+00        -0.27451E+08
 
   -0.30883E+08        -0.46999E+06         0.00000E+00
   -0.46999E+06        -0.59552E+08         0.00000E+00
    0.00000E+00         0.00000E+00        -0.27326E+08
 
   -0.30268E+08        -0.18303E+06         0.00000E+00
   -0.18303E+06        -0.59545E+08         0.00000E+00
    0.00000E+00         0.00000E+00        -0.27210E+08
 
   -0.29646E+08         0.15834E+06         0.00000E+00
    0.15834E+06        -0.59588E+08         0.00000E+00
    0.00000E+00         0.00000E+00        -0.27102E+08
 
   -0.29004E+08         0.57025E+06         0.00000E+00
    0.57025E+06        -0.59690E+08         0.00000E+00
    0.00000E+00         0.00000E+00        -0.27001E+08
 
   -0.28339E+08         0.10771E+07         0.00000E+00
    0.10771E+07        -0.59855E+08         0.00000E+00
    0.00000E+00         0.00000E+00        -0.26906E+08
 
   -0.27665E+08         0.17103E+07         0.00000E+00
    0.17103E+07        -0.60075E+08         0.00000E+00
    0.00000E+00         0.00000E+00        -0.26819E+08
 
   -0.27018E+08         0.25000E+07         0.00000E+00
    0.25000E+07        -0.60329E+08         0.00000E+00
    0.00000E+00         0.00000E+00        -0.26743E+08
 
   -0.38258E+08        -0.34727E+06         0.00000E+00
   -0.34727E+06        -0.60003E+08         0.00000E+00
    0.00000E+00         0.00000E+00        -0.28108E+08
 
   -0.36868E+08        -0.80592E+06         0.00000E+00
   -0.80592E+06        -0.59990E+08         0.00000E+00
    0.00000E+00         0.00000E+00        -0.27831E+08
 
   -0.35605E+08        -0.10182E+07         0.00000E+00
   -0.10182E+07        -0.59925E+08         0.00000E+00
    0.00000E+00         0.00000E+00        -0.27572E+08
 
   -0.34507E+08        -0.10720E+07         0.00000E+00
   -0.10720E+07        -0.59804E+08         0.00000E+00
    0.00000E+00         0.00000E+00        -0.27337E+08
 
   -0.33561E+08        -0.10317E+07         0.00000E+00
   -0.10317E+07        -0.59649E+08         0.00000E+00
    0.00000E+00         0.00000E+00        -0.27125E+08
 
   -0.32733E+08        -0.93336E+06         0.00000E+00
   -0.93336E+06        -0.59485E+08         0.00000E+00
    0.00000E+00         0.00000E+00        -0.26936E+08
 
   -0.31991E+08        -0.79496E+06         0.00000E+00
   -0.79496E+06        -0.59332E+08         0.00000E+00
    0.00000E+00         0.00000E+00        -0.26766E+08
 
   -0.31302E+08        -0.62428E+06         0.00000E+00
   -0.62428E+06        -0.59204E+08         0.00000E+00
    0.00000E+00         0.00000E+00        -0.26612E+08
 
   -0.30642E+08        -0.42275E+06         0.00000E+00
   -0.42275E+06        -0.59116E+08         0.00000E+00
    0.00000E+00         0.00000E+00        -0.26471E+08
 
   -0.29983E+08        -0.18675E+06         0.00000E+00
   -0.18675E+06        -0.59078E+08         0.00000E+00
    0.00000E+00         0.00000E+00        -0.26340E+08
 
   -0.29305E+08         0.93018E+05         0.00000E+00
    0.93018E+05        -0.59102E+08         0.00000E+00
    0.00000E+00         0.00000E+00        -0.26216E+08
 
   -0.28584E+08         0.43385E+06         0.00000E+00
    0.43385E+06        -0.59199E+08         0.00000E+00
    0.00000E+00         0.00000E+00        -0.26097E+08
 
   -0.27808E+08         0.86601E+06         0.00000E+00
    0.86601E+06        -0.59382E+08         0.00000E+00
    0.00000E+00         0.00000E+00        -0.25984E+08
 
   -0.26980E+08         0.14357E+07         0.00000E+00
    0.14357E+07        -0.59650E+08         0.00000E+00
    0.00000E+00         0.00000E+00        -0.25876E+08
 
   -0.26143E+08         0.21970E+07         0.00000E+00
    0.21970E+07        -0.59981E+08         0.00000E+00
    0.00000E+00         0.00000E+00        -0.25777E+08
 
   -0.38861E+08        -0.34744E+06         0.00000E+00
   -0.34744E+06        -0.59997E+08         0.00000E+00
    0.00000E+00         0.00000E+00        -0.27513E+08
 
   -0.37154E+08        -0.74419E+06         0.00000E+00
   -0.74419E+06        -0.59946E+08         0.00000E+00
    0.00000E+00         0.00000E+00        -0.27165E+08
 
   -0.35695E+08        -0.87775E+06         0.00000E+00
   -0.87775E+06        -0.59797E+08         0.00000E+00
    0.00000E+00         0.00000E+00        -0.26850E+08
 
   -0.34492E+08        -0.88275E+06         0.00000E+00
   -0.88275E+06        -0.59578E+08         0.00000E+00
    0.00000E+00         0.00000E+00        -0.26573E+08
 
   -0.33487E+08        -0.82694E+06         0.00000E+00
   -0.82694E+06        -0.59334E+08         0.00000E+00
    0.00000E+00         0.00000E+00        -0.26331E+08
 
   -0.32622E+08        -0.73690E+06         0.00000E+00
   -0.73690E+06        -0.59096E+08         0.00000E+00
    0.00000E+00         0.00000E+00        -0.26118E+08
 
   -0.31851E+08        -0.62361E+06         0.00000E+00
   -0.62361E+06        -0.58881E+08         0.00000E+00
    0.00000E+00         0.00000E+00        -0.25929E+08
 
   -0.31138E+08        -0.49094E+06         0.00000E+00
   -0.49094E+06        -0.58704E+08         0.00000E+00
    0.00000E+00         0.00000E+00        -0.25759E+08
 
   -0.30451E+08        -0.33866E+06         0.00000E+00
   -0.33866E+06        -0.58575E+08         0.00000E+00
    0.00000E+00         0.00000E+00        -0.25603E+08
 
   -0.29760E+08        -0.16313E+06         0.00000E+00
   -0.16313E+06        -0.58505E+08         0.00000E+00
    0.00000E+00         0.00000E+00        -0.25458E+08
 
   -0.29037E+08         0.43601E+05         0.00000E+00
    0.43601E+05        -0.58506E+08         0.00000E+00
    0.00000E+00         0.00000E+00        -0.25319E+08
 
   -0.28250E+08         0.29659E+06         0.00000E+00
    0.29659E+06        -0.58593E+08         0.00000E+00
    0.00000E+00         0.00000E+00        -0.25185E+08
 
   -0.27366E+08         0.62511E+06         0.00000E+00
    0.62511E+06        -0.58784E+08         0.00000E+00
    0.00000E+00         0.00000E+00        -0.25051E+08
 
   -0.26364E+08         0.10910E+07         0.00000E+00
    0.10910E+07        -0.59102E+08         0.00000E+00
    0.00000E+00         0.00000E+00        -0.24917E+08
 
   -0.25279E+08         0.17906E+07         0.00000E+00
    0.17906E+07        -0.59532E+08         0.00000E+00
    0.00000E+00         0.00000E+00        -0.24788E+08
 
   -0.39412E+08        -0.32595E+06         0.00000E+00
   -0.32595E+06        -0.59982E+08         0.00000E+00
    0.00000E+00         0.00000E+00        -0.26914E+08
 
   -0.37334E+08        -0.58444E+06         0.00000E+00
   -0.58444E+06        -0.59834E+08         0.00000E+00
    0.00000E+00         0.00000E+00        -0.26472E+08
 
   -0.35719E+08        -0.61853E+06         0.00000E+00
   -0.61853E+06        -0.59542E+08         0.00000E+00
    0.00000E+00         0.00000E+00        -0.26096E+08
 
   -0.34455E+08        -0.59213E+06         0.00000E+00
   -0.59213E+06        -0.59207E+08         0.00000E+00
    0.00000E+00         0.00000E+00        -0.25781E+08
 
   -0.33419E+08        -0.54098E+06         0.00000E+00
   -0.54098E+06        -0.58875E+08         0.00000E+00
    0.00000E+00         0.00000E+00        -0.25514E+08
 
   -0.32535E+08        -0.47583E+06         0.00000E+00
   -0.47583E+06        -0.58569E+08         0.00000E+00
    0.00000E+00         0.00000E+00        -0.25281E+08
 
   -0.31749E+08        -0.40047E+06         0.00000E+00
   -0.40047E+06        -0.58303E+08         0.00000E+00
    0.00000E+00         0.00000E+00        -0.25077E+08
 
   -0.31022E+08        -0.31575E+06         0.00000E+00
   -0.31575E+06        -0.58084E+08         0.00000E+00
    0.00000E+00         0.00000E+00        -0.24893E+08
 
   -0.30318E+08        -0.22069E+06         0.00000E+00
   -0.22069E+06        -0.57921E+08         0.00000E+00
    0.00000E+00         0.00000E+00        -0.24725E+08
 
   -0.29607E+08        -0.11261E+06         0.00000E+00
   -0.11261E+06        -0.57824E+08         0.00000E+00
    0.00000E+00         0.00000E+00        -0.24568E+08
 
   -0.28854E+08         0.13661E+05         0.00000E+00
    0.13661E+05        -0.57802E+08         0.00000E+00
    0.00000E+00         0.00000E+00        -0.24417E+08
 
   -0.28020E+08         0.16791E+06         0.00000E+00
    0.16791E+06        -0.57873E+08         0.00000E+00
    0.00000E+00         0.00000E+00        -0.24268E+08
 
   -0.27053E+08         0.37018E+06         0.00000E+00
    0.37018E+06        -0.58059E+08         0.00000E+00
    0.00000E+00         0.00000E+00        -0.24115E+08
 
   -0.25872E+08         0.67088E+06         0.00000E+00
    0.67088E+06        -0.58404E+08         0.00000E+00
    0.00000E+00         0.00000E+00        -0.23951E+08
 
   -0.24457E+08         0.12358E+07         0.00000E+00
    0.12358E+07        -0.58965E+08         0.00000E+00
    0.00000E+00         0.00000E+00        -0.23782E+08
 
   -0.39800E+08        -0.19833E+06         0.00000E+00
   -0.19833E+06        -0.59855E+08         0.00000E+00
    0.00000E+00         0.00000E+00        -0.26274E+08
 
   -0.37373E+08        -0.23807E+06         0.00000E+00
   -0.23807E+06        -0.59478E+08         0.00000E+00
    0.00000E+00         0.00000E+00        -0.25714E+08
 
   -0.35708E+08        -0.22729E+06         0.00000E+00
   -0.22729E+06        -0.59041E+08         0.00000E+00
    0.00000E+00         0.00000E+00        -0.25296E+08
 
   -0.34424E+08        -0.21058E+06         0.00000E+00
   -0.21058E+06        -0.58617E+08         0.00000E+00
    0.00000E+00         0.00000E+00        -0.24956E+08
 
   -0.33378E+08        -0.18947E+06         0.00000E+00
   -0.18947E+06        -0.58226E+08         0.00000E+00
    0.00000E+00         0.00000E+00        -0.24671E+08
 
   -0.32486E+08        -0.16544E+06         0.00000E+00
   -0.16544E+06        -0.57877E+08         0.00000E+00
    0.00000E+00         0.00000E+00        -0.24425E+08
 
   -0.31695E+08        -0.13886E+06         0.00000E+00
   -0.13886E+06        -0.57577E+08         0.00000E+00
    0.00000E+00         0.00000E+00        -0.24209E+08
 
   -0.30962E+08        -0.10963E+06         0.00000E+00
   -0.10963E+06        -0.57333E+08         0.00000E+00
    0.00000E+00         0.00000E+00        -0.24015E+08
 
   -0.30251E+08        -0.77260E+05         0.00000E+00
   -0.77260E+05        -0.57149E+08         0.00000E+00
    0.00000E+00         0.00000E+00        -0.23838E+08
 
   -0.29529E+08        -0.40755E+05         0.00000E+00
   -0.40755E+05        -0.57033E+08         0.00000E+00
    0.00000E+00         0.00000E+00        -0.23673E+08
 
   -0.28762E+08         0.16546E+04         0.00000E+00
    0.16546E+04        -0.56996E+08         0.00000E+00
    0.00000E+00         0.00000E+00        -0.23513E+08
 
   -0.27904E+08         0.53223E+05         0.00000E+00
    0.53223E+05        -0.57053E+08         0.00000E+00
    0.00000E+00         0.00000E+00        -0.23354E+08
 
   -0.26892E+08         0.12100E+06         0.00000E+00
    0.12100E+06        -0.57228E+08         0.00000E+00
    0.00000E+00         0.00000E+00        -0.23188E+08
 
   -0.25613E+08         0.22091E+06         0.00000E+00
    0.22091E+06        -0.57571E+08         0.00000E+00
    0.00000E+00         0.00000E+00        -0.23002E+08
 
   -0.23753E+08         0.45696E+06         0.00000E+00
    0.45696E+06        -0.58214E+08         0.00000E+00
    0.00000E+00         0.00000E+00        -0.22759E+08
 
SCALARS stressS double 
LOOKUP_TABLE default
  -43431678.1030645     
  -43778038.5783715     
  -44097658.3562588     
  -44392627.3522947     
  -44664987.3205984     
  -44916722.1976379     
  -45149750.0855924     
  -45365916.8431387     
  -45566991.2436861     
  -45754661.6595348     
  -45930534.2346756     
  -46096132.5180459     
  -46252898.5416182     
  -46402195.3419290     
  -46545310.9373561     
  -43421495.5289993     
  -43766497.2212794     
  -44084752.5811723     
  -44378363.9491478     
  -44649384.0771198     
  -44899806.4414268     
  -45131557.2111578     
  -45346488.8340817     
  -45546375.1945465     
  -45732908.2965565     
  -45907696.4303213     
  -46072263.7909861     
  -46228051.5325830     
  -46376420.2566435     
  -46518653.9510888     
  -43401263.3929638     
  -43743533.1618401     
  -44059046.3745916     
  -44349930.3324617     
  -44618259.8699103     
  -44866047.6105186     
  -45095235.9104174     
  -45307690.4398497     
  -45505195.3454614     
  -45689449.9355044     
  -45862066.8369035     
  -46024571.5861941     
  -46178403.6342688     
  -46324918.7657125     
  -46465392.9547828     
  -43371247.6069912     
  -43709383.3438226     
  -44020749.8399268     
  -44307512.1117898     
  -44571778.3305647     
  -44815590.0042191     
  -45040913.8970106     
  -45249635.6183472     
  -45443554.8048299     
  -45624381.8199052     
  -45793735.9047737     
  -45953144.7312502     
  -46104045.3307283     
  -46247786.4011729     
  -46385632.0233806     
  -43331846.6947141     
  -43664402.2075918     
  -43970176.6165771     
  -44251385.7268946     
  -44510182.5428748     
  -44748647.3751403     
  -44968779.7543763     
  -45172492.0570924     
  -45361604.7400308     
  -45537843.0816352     
  -45702835.3413224     
  -45858112.2696636     
  -46005107.9336481     
  -46145161.8587253     
  -46279522.5300898     
  -43283591.1969828     
  -43609060.3477832     
  -43907741.9027501     
  -44181915.9367793     
  -44433792.0838270     
  -44665499.5904506     
  -44879079.2671186     
  -45076477.2065808     
  -45259540.1287321     
  -45430012.2140159     
  -45589533.3032018     
  -45739638.3702975     
  -45881758.2163000     
  -46017221.3820215     
  -46147257.3346020     
  -43227142.5723232     
  -43543942.4333832     
  -43833959.5531405     
  -44099552.2348849     
  -44342998.8740120     
  -44566488.0099690     
  -44772110.3924459     
  -44961852.8841383     
  -45137594.0101291     
  -45301100.9663846     
  -45454027.9189106     
  -45597915.4616337     
  -45734191.1543483     
  -45864171.1295046     
  -45989062.8337240     
  -43163291.3192446     
  -43469744.1348318     
  -43749438.0190665     
  -44004823.9852419     
  -44238261.6625345     
  -44452009.4382088     
  -44648216.7606236     
  -44828918.3664537     
  -44996030.1781823     
  -45151346.6178507     
  -45296539.1042027     
  -45433155.5450779     
  -45562620.7051905     
  -45686237.4184923     
  -45805188.7186581     
  -43092953.9684377     
  -43387267.7313993     
  -43654874.8352593     
  -43898334.0198583     
  -44120098.9272396     
  -44322508.4747710     
  -44507779.5731137     
  -44678001.8811304     
  -44835134.2622979     
  -44981002.6000270     
  -45117298.6497596     
  -45245579.6585421     
  -45367268.5690065     
  -45483654.7412561     
  -45595895.2661087     
  -43017168.5094128     
  -43297415.9969762     
  -43551049.2905227     
  -43780750.3799900     
  -43989079.9249496     
  -44178468.0553162     
  -44351207.7507795     
  -44509450.4078960     
  -44655203.1568361     
  -44790327.4672892     
  -44916538.5975473     
  -45035405.5006032     
  -45148350.9086507     
  -45256651.4690277     
  -45361437.9911969     
  -42937087.7302115     
  -43201183.8839694     
  -43438812.8477319     
  -43652795.8208708     
  -43845813.5758593     
  -44020397.9417417     
  -44178926.1715729     
  -44323617.7097348     
  -44456532.7925338     
  -44579572.2636883     
  -44694477.9859474     
  -44802833.2944091     
  -44906063.0702251     
  -45005433.2102560     
  -45102049.5161494     
  -42853969.8646711     
  -43099647.4439827     
  -43319076.7998151     
  -43515234.6267174     
  -43690934.8064511     
  -43848820.8811802     
  -43991361.8255200     
  -44120850.5338629     
  -44239404.2940044     
  -44348966.4143529     
  -44451308.1426712     
  -44548030.0792923     
  -44640562.4524619     
  -44730163.8798606     
  -44817918.5697998     
  -42769165.8661178     
  -42993949.3409526     
  -43192796.5578465     
  -43368856.1925520     
  -43525087.8976672     
  -43664256.1018735     
  -43788927.7005295     
  -43901472.9521671     
  -44004068.6422165     
  -44098702.3842259     
  -44187176.8498664     
  -44271112.7799929     
  -44351949.8351508     
  -44430944.6808726     
  -44509166.1424287     
  -42684102.5692160     
  -42885280.2266229     
  -43060951.8559147     
  -43214454.7075564     
  -43348906.2747745     
  -43467199.7377228     
  -43572004.1885408     
  -43665768.8496796     
  -43750730.0646895     
  -43828919.5091570     
  -43902171.9126510     
  -43972130.6360526     
  -44040249.7134420     
  -44107791.4173492     
  -44175818.9960006     
  -42600260.9758298     
  -42774855.1547380     
  -42924522.0069490     
  -43052804.0965752     
  -43162988.0076433     
  -43258101.6528287     
  -43340917.7566705     
  -43413962.6163015     
  -43479528.5166386     
  -43539687.6287659     
  -43596304.9509734     
  -43651047.9007034     
  -43705390.5202971     
  -43760610.8715868     
  -43817780.9939659     
  -42519148.9205621     
  -42663884.0947344     
  -42784455.1199654     
  -42884627.0994214     
  -42967866.0247178     
  -43037337.9423827     
  -43095916.5461295     
  -43146198.1498253     
  -43190521.8049408     
  -43230991.4587233     
  -43269496.6335012     
  -43307728.1710205     
  -43347186.0853658     
  -43389177.4193002     
  -43434803.0949390     
  -42442267.4488297     
  -42553535.4336577     
  -42641629.8288644     
  -42710556.9194699     
  -42763971.6168730     
  -42805178.0722506     
  -42837142.4213987     
  -42862516.3379077     
  -42883668.1621403     
  -42902717.0638792     
  -42921565.1211371     
  -42941922.3323341     
  -42965320.3166644     
  -42993111.6600714     
  -43026453.3817725     
  -42371070.3741825     
  -42444891.0524003     
  -42496807.4705504     
  -42531089.1325865     
  -42551589.1198746     
  -42561745.1244430     
  -42564598.7694385     
  -42562831.2605357     
  -42558810.4304107     
  -42554642.3796890     
  -42552220.2434099     
  -42553262.9500006     
  -42559337.9572504     
  -42571863.6513268     
  -42592089.2028622     
  -42306916.6386502     
  -42338890.9774028     
  -42350571.5770854     
  -42346520.3138775     
  -42330798.5689249     
  -42306966.8613903     
  -42278113.0262284     
  -42246905.4668190     
  -42215663.5149110     
  -42186434.5440520     
  -42161066.9730671     
  -42141269.1064768     
  -42128645.4416616     
  -42124704.4084425     
  -42130834.4108684     
  -42251015.1738352     
  -42236264.4389264     
  -42203249.6342765     
  -42156867.7820333     
  -42101401.4067793     
  -42040514.2308395     
  -41977292.5005500     
  -41914324.8898688     
  -41853807.4860046     
  -41797657.9314580     
  -41747623.1995811     
  -41705367.2887746     
  -41672527.4792849     
  -41650730.7533661     
  -41641565.8067376     
  -42204361.6944264     
  -42137441.8071782     
  -42054808.6110314     
  -41961761.4342447     
  -41862821.7302258     
  -41761722.4851176     
  -41661471.6836712     
  -41564474.3954562     
  -41472689.7443828     
  -41387798.3094864     
  -41311358.7630497     
  -41244936.1740582     
  -41190187.2447869     
  -41148890.5071923     
  -41122914.2324750     
  -42167665.6747993     
  -42042437.1008680     
  -41904709.4543112     
  -41760292.9593721     
  -41613971.8121829     
  -41469488.4905647     
  -41329649.2272242     
  -41196515.8564245     
  -41071641.0674895     
  -40956310.4759621     
  -40851765.2984612     
  -40759386.3676083     
  -40680821.3800261     
  -40618037.7742539     
  -40573287.3089522     
  -42141262.4440527     
  -41950680.9153675     
  -41751693.9771013     
  -41550798.3290319     
  -41353065.7518972     
  -41162136.9245056     
  -40980414.0525850     
  -40809372.3825631     
  -40649912.0204327     
  -40502698.7086510     
  -40368469.6932532     
  -40248290.7654923     
  -40143746.4203541     
  -40057032.4201780     
  -39990922.7675307     
  -42124996.8552453     
  -41860762.8231582     
  -41593454.8161679     
  -41330534.3024828     
  -41077360.2831242     
  -40837250.5312984     
  -40611864.6527294     
  -40401725.5009878     
  -40206737.1429936     
  -40026640.3883203     
  -39861406.9436080     
  -39711588.5679225     
  -39578602.4142638     
  -39464906.3133264     
  -39373984.0589689     
  -42118044.9730877     
  -41769994.6359686     
  -41426094.1884903     
  -41095186.4321039     
  -40782802.3911233     
  -40491472.4431545     
  -40221537.4565783     
  -39972036.5976007     
  -39741432.7667379     
  -39528158.2949405     
  -39331070.7850725     
  -39149894.8061532     
  -38985679.9689721     
  -38841134.7636534     
  -38720717.0868662     
  -42118580.2334609     
  -41673594.2426415     
  -41243181.3990000     
  -40838119.4049674     
  -40463589.6242401     
  -40120325.3773242     
  -39806385.2836973     
  -39518608.8373867     
  -39253521.5572172     
  -39007835.2778044     
  -38778844.0838391     
  -38564972.7680015     
  -38366444.3331032     
  -38186104.4732912     
  -38029696.0939588     
  -42123046.1951660     
  -41562951.5491615     
  -41034037.2349464     
  -40549295.5362536     
  -40111751.4783870     
  -39718188.0787648     
  -39362871.8464048     
  -39039706.7667032     
  -38742862.3823345     
  -38466996.6036881     
  -38207410.0264883     
  -37960377.3706748     
  -37724488.3191181     
  -37501915.8865121     
  -37300279.7378617     
  -42123902.5571884     
  -41421603.8816554     
  -40780521.9737578     
  -40214058.0430100     
  -39717279.1799644     
  -39278611.8633112     
  -38887264.7045128     
  -38533743.6205174     
  -38209736.7376960     
  -37907770.7969984     
  -37620890.0973465     
  -37342563.0572674     
  -37066896.4478716     
  -36794436.7084013     
  -36533265.2620361     
  -42102629.2907948     
  -41213420.0186939     
  -40452084.7415809     
  -39814345.8230029     
  -39269198.1022180     
  -38795183.9295617     
  -38376156.4386413     
  -37999526.7027509     
  -37654857.0023959     
  -37332865.2638454     
  -37024575.8621407     
  -36720385.0590934     
  -36409241.1307931     
  -36075644.8283592     
  -35734527.0460948     
  -41976304.1348090     
  -40855345.3584788     
  -40014970.1338380     
  -39332334.8609401     
  -38758049.2789407     
  -38262840.5458274     
  -37827154.9626414     
  -37436524.5820093     
  -37079279.2121067     
  -36745092.5376811     
  -36423760.7665176     
  -36103736.8629175     
  -35769412.6988557     
  -35395472.0388519     
  -34908825.9157142     
SCALARS 2waySource double 
LOOKUP_TABLE default
 -9.846405763941411E-005
 -1.020896620496299E-004
 -1.055020100697166E-004
 -1.087044985071396E-004
 -1.117031445266181E-004
 -1.145059386751733E-004
 -1.171222938831581E-004
 -1.195625779589915E-004
 -1.218377183801556E-004
 -1.239588693334232E-004
 -1.259371320011672E-004
 -1.277833200490804E-004
 -1.295077631542163E-004
 -1.311201422241645E-004
 -1.326293506913517E-004
 -9.828631254610327E-005
 -1.019101121565418E-004
 -1.053181674729940E-004
 -1.085144551146079E-004
 -1.115054927567496E-004
 -1.142997023138110E-004
 -1.169068678353207E-004
 -1.193376758015744E-004
 -1.216033267744656E-004
 -1.237152084913169E-004
 -1.256846215139644E-004
 -1.275225494808903E-004
 -1.292394668698572E-004
 -1.308451779660080E-004
 -1.323486814410587E-004
 -9.799696738368692E-005
 -1.016160699218697E-004
 -1.050140970053527E-004
 -1.081962769072946E-004
 -1.111702053384353E-004
 -1.139452307411514E-004
 -1.165319316346427E-004
 -1.189416740530301E-004
 -1.211862383370083E-004
 -1.232775056271887E-004
 -1.252271953926339E-004
 -1.270466462290446E-004
 -1.287466329932373E-004
 -1.303372141089333E-004
 -1.318276035810130E-004
 -9.759889532441751E-005
 -1.012094116180016E-004
 -1.045908332101102E-004
 -1.077502907220686E-004
 -1.106970171950381E-004
 -1.134417670036694E-004
 -1.159963228252722E-004
 -1.183730792380232E-004
 -1.205846926571558E-004
 -1.226437883352615E-004
 -1.245627160786068E-004
 -1.263533471853467E-004
 -1.280269059114469E-004
 -1.295938295231517E-004
 -1.310636517020396E-004
 -9.709659495395562E-005
 -1.006931383192764E-004
 -1.040501116386842E-004
 -1.071771672566144E-004
 -1.100857077720262E-004
 -1.127883494276000E-004
 -1.152984683311763E-004
 -1.176298187727749E-004
 -1.197962139226812E-004
 -1.218112601172361E-004
 -1.236881367836275E-004
 -1.254394148472580E-004
 -1.270769072256239E-004
 -1.286115457540998E-004
 -1.300532796146691E-004
 -9.649620012932414E-005
 -1.000713983613499E-004
 -1.033944006591079E-004
 -1.064779596687254E-004
 -1.093361444317137E-004
 -1.119838582703567E-004
 -1.144364331954983E-004
 -1.167092909255852E-004
 -1.188176614876998E-004
 -1.207763511693831E-004
 -1.225995523287433E-004
 -1.243006882815417E-004
 -1.258922871950285E-004
 -1.273858796497892E-004
 -1.287919152902167E-004
 -9.580548416786798E-005
 -9.934950784179185E-005
 -1.026269341953395E-004
 -1.056541453575033E-004
 -1.084483307849026E-004
 -1.110270686748757E-004
 -1.134079766761066E-004
 -1.156084229247223E-004
 -1.176452891497748E-004
 -1.195347782355268E-004
 -1.212922592282445E-004
 -1.229321433784972E-004
 -1.244677854563431E-004
 -1.259114052982027E-004
 -1.272740253551943E-004
 -9.503385467176948E-005
 -9.853396499129831E-005
 -1.017517409259947E-004
 -1.047076662944976E-004
 -1.074224552798484E-004
 -1.099167052877185E-004
 -1.122106111596036E-004
 -1.143237328064454E-004
 -1.162748088513786E-004
 -1.180816093149954E-004
 -1.197608207928869E-004
 -1.213279580298091E-004
 -1.227972963525951E-004
 -1.241818201330170E-004
 -1.254931833357816E-004
 -9.419233431330258E-005
 -9.763245321675865E-005
 -1.007736644213617E-004
 -1.036409622288747E-004
 -1.062589343607039E-004
 -1.086514929594901E-004
 -1.108416585050570E-004
 -1.128513898520642E-004
 -1.147014538855572E-004
 -1.164113284718797E-004
 -1.179991325412331E-004
 -1.194815773829234E-004
 -1.208739336663122E-004
 -1.221900093918566E-004
 -1.234421349623089E-004
 -9.329352187426234E-005
 -9.665382656838582E-005
 -9.969836764319342E-005
 -1.024569900548812E-004
 -1.049584435264637E-004
 -1.072301970611511E-004
 -1.092982976799513E-004
 -1.111872678770087E-004
 -1.129200362697162E-004
 -1.145178957283348E-004
 -1.160004830541457E-004
 -1.173857742154761E-004
 -1.186900894020133E-004
 -1.199281028251694E-004
 -1.211128533197768E-004
 -9.235152677923751E-005
 -9.560807032740907E-005
 -9.853231416815202E-005
 -1.011592215828468E-004
 -1.035219286412083E-004
 -1.056516461025859E-004
 -1.075775968991638E-004
 -1.093269852255431E-004
 -1.109249928011694E-004
 -1.123947971150656E-004
 -1.137576056843651E-004
 -1.150326998502208E-004
 -1.162374816298904E-004
 -1.173875177841397E-004
 -1.184965765910685E-004
 -9.138186934878144E-005
 -9.450622837352867E-005
 -9.728271740783753E-005
 -9.975161084983908E-005
 -1.019505888081449E-004
 -1.039147284764496E-004
 -1.056765228964162E-004
 -1.072659251021992E-004
 -1.087104144754736E-004
 -1.100350804874262E-004
 -1.112627173631714E-004
 -1.124139220407859E-004
 -1.135071874450849E-004
 -1.145589837248068E-004
 -1.155838217396202E-004
 -9.040133812829716E-005
 -9.336028799862076E-005
 -9.595744793909663E-005
 -9.823852084567223E-005
 -1.002458209057552E-004
 -1.020183541695510E-004
 -1.035919193856574E-004
 -1.049992298320398E-004
 -1.062700544922027E-004
 -1.074313738104614E-004
 -1.085075422889658E-004
 -1.095204480897553E-004
 -1.104896590196672E-004
 -1.114325449603918E-004
 -1.123643689177924E-004
 -8.942779507612478E-005
 -9.218301190278656E-005
 -9.456488772151706E-005
 -9.662459792447710E-005
 -9.840911428086935E-005
 -9.996137100219926E-005
 -1.013204460969884E-004
 -1.025217627708823E-004
 -1.035973110702071E-004
 -1.045758844257313E-004
 -1.054833207487144E-004
 -1.063427343586852E-004
 -1.071747237881347E-004
 -1.079975414374896E-004
 -1.088272139196650E-004
 -8.847991933309127E-005
 -9.098770621445774E-005
 -9.311371823454787E-005
 -9.491457986945671E-005
 -9.644188172400301E-005
 -9.774242306644962E-005
 -9.885846882360584E-005
 -9.982803186088854E-005
 -1.006851828633561E-004
 -1.014603805618229E-004
 -1.021808070039081E-004
 -1.028706876178751E-004
 -1.035515743455705E-004
 -1.042425717329593E-004
 -1.049604899376089E-004
 -8.757688101307547E-005
 -8.978791237890908E-005
 -9.161262695095985E-005
 -9.311301993956722E-005
 -9.434520908047634E-005
 -9.535973605023971E-005
 -9.620188943996480E-005
 -9.691206924352347E-005
 -9.752619711047660E-005
 -9.807616037633128E-005
 -9.859026547505106E-005
 -9.909366978988601E-005
 -9.960876006923326E-005
 -1.001554487646320E-004
 -1.007513656043659E-004
 -8.673793823576785E-005
 -8.859700927456730E-005
 -9.006991218222122E-005
 -9.122390312630344E-005
 -9.211949962271309E-005
 -9.281080931239855E-005
 -9.334590252526621E-005
 -9.376726197946876E-005
 -9.411231414256191E-005
 -9.441401965370821E-005
 -9.470148196481107E-005
 -9.500052612849109E-005
 -9.533420131788926E-005
 -9.572316734748673E-005
 -9.618593422394406E-005
 -8.598195369023544E-005
 -8.742770904796234E-005
 -8.849295849478988E-005
 -8.925012031985971E-005
 -8.976397891975911E-005
 -9.009198684283648E-005
 -9.028466172668602E-005
 -9.038613008631411E-005
 -9.043481719625819E-005
 -9.046423777074449E-005
 -9.050381719643652E-005
 -9.057966848169718E-005
 -9.071525894986280E-005
 -9.093191423512311E-005
 -9.124911963710882E-005
 -8.532683133568999E-005
 -8.629142399934727E-005
 -8.688754045441887E-005
 -8.719274772117473E-005
 -8.727600869675040E-005
 -8.719786718709032E-005
 -8.701083420551236E-005
 -8.676005060143934E-005
 -8.648420489918408E-005
 -8.621661398235556E-005
 -8.598634466223109E-005
 -8.581926096142176E-005
 -8.573890760396830E-005
 -8.576716626431953E-005
 -8.592463771433194E-005
 -8.478887874487564E-005
 -8.519746849140771E-005
 -8.525688550280026E-005
 -8.505004674410504E-005
 -8.465012997650041E-005
 -8.412049449246332E-005
 -8.351501607665469E-005
 -8.287893207735550E-005
 -8.225011743942968E-005
 -8.166060437365130E-005
 -8.113813517428063E-005
 -8.070757629097852E-005
 -8.039208170055795E-005
 -8.021394145191354E-005
 -8.019506935849554E-005
 -8.438210409803424E-005
 -8.415203128739455E-005
 -8.360037604404963E-005
 -8.281604355188717E-005
 -8.187671079255165E-005
 -8.084824833962520E-005
 -7.978497845238314E-005
 -7.873085664434576E-005
 -7.772134965115281E-005
 -7.678563631552644E-005
 -7.594877835794502E-005
 -7.523361878971667E-005
 -7.466229000629168E-005
 -7.425729269537424E-005
 -7.404212167604995E-005
 -8.411745418252738E-005
 -8.315679328801823E-005
 -8.191167386780298E-005
 -8.047844930768834E-005
 -7.894000490898453E-005
 -7.736432228020293E-005
 -7.580472045660497E-005
 -7.430173370938038E-005
 -7.288603902754088E-005
 -7.158171404798044E-005
 -7.040926784226349E-005
 -6.938814667387351E-005
 -6.853863049171381E-005
 -6.788316745150503E-005
 -6.744718011849055E-005
 -8.400198127269014E-005
 -8.220693564835056E-005
 -8.017586035773537E-005
 -7.801551049565740E-005
 -7.581533173415251E-005
 -7.364466641949371E-005
 -7.155334212836107E-005
 -6.957506139833373E-005
 -6.773216647969005E-005
 -6.604047345804676E-005
 -6.451342321521335E-005
 -6.316527408087855E-005
 -6.201339011585622E-005
 -6.107980613428753E-005
 -6.039229206618241E-005
 -8.403786621449517E-005
 -8.128799655055078E-005
 -7.836479675787224E-005
 -7.539108232620619E-005
 -7.246498270078208E-005
 -6.965532199194413E-005
 -6.700385931366471E-005
 -6.453198169586037E-005
 -6.224855905513339E-005
 -6.015688701365979E-005
 -5.826006734835691E-005
 -5.656490795951768E-005
 -5.508449120262719E-005
 -5.383994528885953E-005
 -5.286178389890336E-005
 -8.422108236625904E-005
 -8.037033036585261E-005
 -7.642908440103063E-005
 -7.254672668806020E-005
 -6.883245769919938E-005
 -6.534934870472887E-005
 -6.212233964509681E-005
 -5.915193242171789E-005
 -5.642659810232418E-005
 -5.393179241554147E-005
 -5.165624671679152E-005
 -4.959635024113322E-005
 -4.775923738032617E-005
 -4.616423400814668E-005
 -4.484487518658606E-005
 -8.453894379040666E-005
 -7.939815149480338E-005
 -7.428308091938357E-005
 -6.938902288375619E-005
 -6.483519309350112E-005
 -6.066434854946442E-005
 -5.686824672167835E-005
 -5.341425793892770E-005
 -5.026263389895583E-005
 -4.737531839275694E-005
 -4.472163971930668E-005
 -4.228378961338404E-005
 -4.005991182359083E-005
 -3.806687559817643E-005
 -3.633989434815823E-005
 -8.496474899548554E-005
 -7.826399754997569E-005
 -7.177546642041604E-005
 -6.577052833454044E-005
 -6.035833490593418E-005
 -5.552362308726517E-005
 -5.119722184097756E-005
 -4.730099956907769E-005
 -4.376067234866278E-005
 -4.051029447940953E-005
 -3.749472091904429E-005
 -3.467375671223325E-005
 -3.203389356982952E-005
 -2.958410593893115E-005
 -2.736254290614721E-005
 -8.543536383556451E-005
 -7.674268859547161E-005
 -6.862934806856272E-005
 -6.146982444950096E-005
 -5.526143072960964E-005
 -4.984434073548032E-005
 -4.506738935015262E-005
 -4.080058676754565E-005
 -3.693418514662256E-005
 -3.337379593097995E-005
 -3.003659328622582E-005
 -2.685121359319779E-005
 -2.376494549620787E-005
 -2.079703248972800E-005
 -1.795872977495006E-005
 -8.577180339779765E-005
 -7.426351441211121E-005
 -6.435294122150720E-005
 -5.622967122955690E-005
 -4.940451524733085E-005
 -4.355487884481034E-005
 -3.844843796737895E-005
 -3.391150511545181E-005
 -2.980578904772338E-005
 -2.601369354423732E-005
 -2.242753639976917E-005
 -1.894064960220453E-005
 -1.544270048540488E-005
 -1.182543219086434E-005
 -8.273735102129252E-006
 -8.468010148273761E-005
 -6.939453154819178E-005
 -5.848445740811237E-005
 -4.984181588247848E-005
 -4.269432410809173E-005
 -3.661524291328498E-005
 -3.133067231822926E-005
 -2.664464660873401E-005
 -2.240434634030294E-005
 -1.847976292584632E-005
 -1.474865883258537E-005
 -1.108118320760948E-005
 -7.318089862045524E-006
 -3.224749987639069E-006
  1.539400225992169E-006
SCALARS poroP double 
LOOKUP_TABLE default
  0.000000000000000E+000
  0.000000000000000E+000
  0.000000000000000E+000
  0.000000000000000E+000
  0.000000000000000E+000
  0.000000000000000E+000
  0.000000000000000E+000
  0.000000000000000E+000
  0.000000000000000E+000
  0.000000000000000E+000
  0.000000000000000E+000
  0.000000000000000E+000
  0.000000000000000E+000
  0.000000000000000E+000
  0.000000000000000E+000
  0.000000000000000E+000
  0.000000000000000E+000
  0.000000000000000E+000
  0.000000000000000E+000
  0.000000000000000E+000
  0.000000000000000E+000
  0.000000000000000E+000
  0.000000000000000E+000
  0.000000000000000E+000
  0.000000000000000E+000
  0.000000000000000E+000
  0.000000000000000E+000
  0.000000000000000E+000
  0.000000000000000E+000
  0.000000000000000E+000
  0.000000000000000E+000
  0.000000000000000E+000
  0.000000000000000E+000
  0.000000000000000E+000
  0.000000000000000E+000
  0.000000000000000E+000
  0.000000000000000E+000
  0.000000000000000E+000
  0.000000000000000E+000
  0.000000000000000E+000
  0.000000000000000E+000
  0.000000000000000E+000
  0.000000000000000E+000
  0.000000000000000E+000
  0.000000000000000E+000
  0.000000000000000E+000
  0.000000000000000E+000
  0.000000000000000E+000
  0.000000000000000E+000
  0.000000000000000E+000
  0.000000000000000E+000
  0.000000000000000E+000
  0.000000000000000E+000
  0.000000000000000E+000
  0.000000000000000E+000
  0.000000000000000E+000
  0.000000000000000E+000
  0.000000000000000E+000
  0.000000000000000E+000
  0.000000000000000E+000
  0.000000000000000E+000
  0.000000000000000E+000
  0.000000000000000E+000
  0.000000000000000E+000
  0.000000000000000E+000
  0.000000000000000E+000
  0.000000000000000E+000
  0.000000000000000E+000
  0.000000000000000E+000
  0.000000000000000E+000
  0.000000000000000E+000
  0.000000000000000E+000
  0.000000000000000E+000
  0.000000000000000E+000
  0.000000000000000E+000
  0.000000000000000E+000
  0.000000000000000E+000
  0.000000000000000E+000
  0.000000000000000E+000
  0.000000000000000E+000
  0.000000000000000E+000
  0.000000000000000E+000
  0.000000000000000E+000
  0.000000000000000E+000
  0.000000000000000E+000
  0.000000000000000E+000
  0.000000000000000E+000
  0.000000000000000E+000
  0.000000000000000E+000
  0.000000000000000E+000
  0.000000000000000E+000
  0.000000000000000E+000
  0.000000000000000E+000
  0.000000000000000E+000
  0.000000000000000E+000
  0.000000000000000E+000
  0.000000000000000E+000
  0.000000000000000E+000
  0.000000000000000E+000
  0.000000000000000E+000
  0.000000000000000E+000
  0.000000000000000E+000
  0.000000000000000E+000
  0.000000000000000E+000
  0.000000000000000E+000
  0.000000000000000E+000
  0.000000000000000E+000
  0.000000000000000E+000
  0.000000000000000E+000
  0.000000000000000E+000
  0.000000000000000E+000
  0.000000000000000E+000
  0.000000000000000E+000
  0.000000000000000E+000
  0.000000000000000E+000
  0.000000000000000E+000
  0.000000000000000E+000
  0.000000000000000E+000
  0.000000000000000E+000
  0.000000000000000E+000
  0.000000000000000E+000
  0.000000000000000E+000
  0.000000000000000E+000
  0.000000000000000E+000
  0.000000000000000E+000
  0.000000000000000E+000
  0.000000000000000E+000
  0.000000000000000E+000
  0.000000000000000E+000
  0.000000000000000E+000
  0.000000000000000E+000
  0.000000000000000E+000
  0.000000000000000E+000
  0.000000000000000E+000
  0.000000000000000E+000
  0.000000000000000E+000
  0.000000000000000E+000
  0.000000000000000E+000
  0.000000000000000E+000
  0.000000000000000E+000
  0.000000000000000E+000
  0.000000000000000E+000
  0.000000000000000E+000
  0.000000000000000E+000
  0.000000000000000E+000
  0.000000000000000E+000
  0.000000000000000E+000
  0.000000000000000E+000
  0.000000000000000E+000
  0.000000000000000E+000
  0.000000000000000E+000
  0.000000000000000E+000
  0.000000000000000E+000
  0.000000000000000E+000
  0.000000000000000E+000
  0.000000000000000E+000
  0.000000000000000E+000
  0.000000000000000E+000
  0.000000000000000E+000
  0.000000000000000E+000
  0.000000000000000E+000
  0.000000000000000E+000
  0.000000000000000E+000
  0.000000000000000E+000
  0.000000000000000E+000
  0.000000000000000E+000
  0.000000000000000E+000
  0.000000000000000E+000
  0.000000000000000E+000
  0.000000000000000E+000
  0.000000000000000E+000
  0.000000000000000E+000
  0.000000000000000E+000
  0.000000000000000E+000
  0.000000000000000E+000
  0.000000000000000E+000
  0.000000000000000E+000
  0.000000000000000E+000
  0.000000000000000E+000
  0.000000000000000E+000
  0.000000000000000E+000
  0.000000000000000E+000
  0.000000000000000E+000
  0.000000000000000E+000
  0.000000000000000E+000
  0.000000000000000E+000
  0.000000000000000E+000
  0.000000000000000E+000
  0.000000000000000E+000
  0.000000000000000E+000
  0.000000000000000E+000
  0.000000000000000E+000
  0.000000000000000E+000
  0.000000000000000E+000
  0.000000000000000E+000
  0.000000000000000E+000
  0.000000000000000E+000
  0.000000000000000E+000
  0.000000000000000E+000
  0.000000000000000E+000
  0.000000000000000E+000
  0.000000000000000E+000
  0.000000000000000E+000
  0.000000000000000E+000
  0.000000000000000E+000
  0.000000000000000E+000
  0.000000000000000E+000
  0.000000000000000E+000
  0.000000000000000E+000
  0.000000000000000E+000
  0.000000000000000E+000
  0.000000000000000E+000
  0.000000000000000E+000
  0.000000000000000E+000
  0.000000000000000E+000
  0.000000000000000E+000
  0.000000000000000E+000
  0.000000000000000E+000
  0.000000000000000E+000
  0.000000000000000E+000
  0.000000000000000E+000
  0.000000000000000E+000
  0.000000000000000E+000
  0.000000000000000E+000
  0.000000000000000E+000
  0.000000000000000E+000
  0.000000000000000E+000
  0.000000000000000E+000
  0.000000000000000E+000
  0.000000000000000E+000
  0.000000000000000E+000
  0.000000000000000E+000
  0.000000000000000E+000
  0.000000000000000E+000
  0.000000000000000E+000
  0.000000000000000E+000
  0.000000000000000E+000
  0.000000000000000E+000
  0.000000000000000E+000
  0.000000000000000E+000
  0.000000000000000E+000
  0.000000000000000E+000
  0.000000000000000E+000
  0.000000000000000E+000
  0.000000000000000E+000
  0.000000000000000E+000
  0.000000000000000E+000
  0.000000000000000E+000
  0.000000000000000E+000
  0.000000000000000E+000
  0.000000000000000E+000
  0.000000000000000E+000
  0.000000000000000E+000
  0.000000000000000E+000
  0.000000000000000E+000
  0.000000000000000E+000
  0.000000000000000E+000
  0.000000000000000E+000
  0.000000000000000E+000
  0.000000000000000E+000
  0.000000000000000E+000
  0.000000000000000E+000
  0.000000000000000E+000
  0.000000000000000E+000
  0.000000000000000E+000
  0.000000000000000E+000
  0.000000000000000E+000
  0.000000000000000E+000
  0.000000000000000E+000
  0.000000000000000E+000
  0.000000000000000E+000
  0.000000000000000E+000
  0.000000000000000E+000
  0.000000000000000E+000
  0.000000000000000E+000
  0.000000000000000E+000
  0.000000000000000E+000
  0.000000000000000E+000
  0.000000000000000E+000
  0.000000000000000E+000
  0.000000000000000E+000
  0.000000000000000E+000
  0.000000000000000E+000
  0.000000000000000E+000
  0.000000000000000E+000
  0.000000000000000E+000
  0.000000000000000E+000
  0.000000000000000E+000
  0.000000000000000E+000
  0.000000000000000E+000
  0.000000000000000E+000
  0.000000000000000E+000
  0.000000000000000E+000
  0.000000000000000E+000
  0.000000000000000E+000
  0.000000000000000E+000
  0.000000000000000E+000
  0.000000000000000E+000
  0.000000000000000E+000
  0.000000000000000E+000
  0.000000000000000E+000
  0.000000000000000E+000
  0.000000000000000E+000
  0.000000000000000E+000
  0.000000000000000E+000
  0.000000000000000E+000
  0.000000000000000E+000
  0.000000000000000E+000
  0.000000000000000E+000
  0.000000000000000E+000
  0.000000000000000E+000
  0.000000000000000E+000
  0.000000000000000E+000
  0.000000000000000E+000
  0.000000000000000E+000
  0.000000000000000E+000
  0.000000000000000E+000
  0.000000000000000E+000
  0.000000000000000E+000
  0.000000000000000E+000
  0.000000000000000E+000
  0.000000000000000E+000
  0.000000000000000E+000
  0.000000000000000E+000
  0.000000000000000E+000
  0.000000000000000E+000
  0.000000000000000E+000
  0.000000000000000E+000
  0.000000000000000E+000
  0.000000000000000E+000
  0.000000000000000E+000
  0.000000000000000E+000
  0.000000000000000E+000
  0.000000000000000E+000
  0.000000000000000E+000
  0.000000000000000E+000
  0.000000000000000E+000
  0.000000000000000E+000
  0.000000000000000E+000
  0.000000000000000E+000
  0.000000000000000E+000
  0.000000000000000E+000
  0.000000000000000E+000
  0.000000000000000E+000
  0.000000000000000E+000
  0.000000000000000E+000
  0.000000000000000E+000
  0.000000000000000E+000
  0.000000000000000E+000
  0.000000000000000E+000
  0.000000000000000E+000
  0.000000000000000E+000
  0.000000000000000E+000
  0.000000000000000E+000
  0.000000000000000E+000
  0.000000000000000E+000
  0.000000000000000E+000
  0.000000000000000E+000
  0.000000000000000E+000
  0.000000000000000E+000
  0.000000000000000E+000
  0.000000000000000E+000
  0.000000000000000E+000
  0.000000000000000E+000
  0.000000000000000E+000
  0.000000000000000E+000
  0.000000000000000E+000
  0.000000000000000E+000
  0.000000000000000E+000
  0.000000000000000E+000
  0.000000000000000E+000
  0.000000000000000E+000
  0.000000000000000E+000
  0.000000000000000E+000
  0.000000000000000E+000
  0.000000000000000E+000
  0.000000000000000E+000
  0.000000000000000E+000
  0.000000000000000E+000
  0.000000000000000E+000
  0.000000000000000E+000
  0.000000000000000E+000
  0.000000000000000E+000
  0.000000000000000E+000
  0.000000000000000E+000
  0.000000000000000E+000
  0.000000000000000E+000
  0.000000000000000E+000
  0.000000000000000E+000
  0.000000000000000E+000
  0.000000000000000E+000
  0.000000000000000E+000
  0.000000000000000E+000
  0.000000000000000E+000
  0.000000000000000E+000
  0.000000000000000E+000
  0.000000000000000E+000
  0.000000000000000E+000
  0.000000000000000E+000
  0.000000000000000E+000
  0.000000000000000E+000
  0.000000000000000E+000
  0.000000000000000E+000
  0.000000000000000E+000
  0.000000000000000E+000
  0.000000000000000E+000
  0.000000000000000E+000
  0.000000000000000E+000
  0.000000000000000E+000
  0.000000000000000E+000
  0.000000000000000E+000
  0.000000000000000E+000
  0.000000000000000E+000
  0.000000000000000E+000
  0.000000000000000E+000
  0.000000000000000E+000
  0.000000000000000E+000
  0.000000000000000E+000
  0.000000000000000E+000
  0.000000000000000E+000
  0.000000000000000E+000
  0.000000000000000E+000
  0.000000000000000E+000
  0.000000000000000E+000
  0.000000000000000E+000
  0.000000000000000E+000
  0.000000000000000E+000
  0.000000000000000E+000
  0.000000000000000E+000
  0.000000000000000E+000
  0.000000000000000E+000
  0.000000000000000E+000
  0.000000000000000E+000
  0.000000000000000E+000
  0.000000000000000E+000
  0.000000000000000E+000
  0.000000000000000E+000
  0.000000000000000E+000
  0.000000000000000E+000
  0.000000000000000E+000
  0.000000000000000E+000
  0.000000000000000E+000
  0.000000000000000E+000
  0.000000000000000E+000
  0.000000000000000E+000
  0.000000000000000E+000
  0.000000000000000E+000
  0.000000000000000E+000
  0.000000000000000E+000
  0.000000000000000E+000
SCALARS elementIsPlast double 
LOOKUP_TABLE default
  0.000000000000000E+000
  0.000000000000000E+000
  0.000000000000000E+000
  0.000000000000000E+000
  0.000000000000000E+000
  0.000000000000000E+000
  0.000000000000000E+000
  0.000000000000000E+000
  0.000000000000000E+000
  0.000000000000000E+000
  0.000000000000000E+000
  0.000000000000000E+000
  0.000000000000000E+000
  0.000000000000000E+000
  0.000000000000000E+000
  0.000000000000000E+000
  0.000000000000000E+000
  0.000000000000000E+000
  0.000000000000000E+000
  0.000000000000000E+000
  0.000000000000000E+000
  0.000000000000000E+000
  0.000000000000000E+000
  0.000000000000000E+000
  0.000000000000000E+000
  0.000000000000000E+000
  0.000000000000000E+000
  0.000000000000000E+000
  0.000000000000000E+000
  0.000000000000000E+000
  0.000000000000000E+000
  0.000000000000000E+000
  0.000000000000000E+000
  0.000000000000000E+000
  0.000000000000000E+000
  0.000000000000000E+000
  0.000000000000000E+000
  0.000000000000000E+000
  0.000000000000000E+000
  0.000000000000000E+000
  0.000000000000000E+000
  0.000000000000000E+000
  0.000000000000000E+000
  0.000000000000000E+000
  0.000000000000000E+000
  0.000000000000000E+000
  0.000000000000000E+000
  0.000000000000000E+000
  0.000000000000000E+000
  0.000000000000000E+000
  0.000000000000000E+000
  0.000000000000000E+000
  0.000000000000000E+000
  0.000000000000000E+000
  0.000000000000000E+000
  0.000000000000000E+000
  0.000000000000000E+000
  0.000000000000000E+000
  0.000000000000000E+000
  0.000000000000000E+000
  0.000000000000000E+000
  0.000000000000000E+000
  0.000000000000000E+000
  0.000000000000000E+000
  0.000000000000000E+000
  0.000000000000000E+000
  0.000000000000000E+000
  0.000000000000000E+000
  0.000000000000000E+000
  0.000000000000000E+000
  0.000000000000000E+000
  0.000000000000000E+000
  0.000000000000000E+000
  0.000000000000000E+000
  0.000000000000000E+000
  0.000000000000000E+000
  0.000000000000000E+000
  0.000000000000000E+000
  0.000000000000000E+000
  0.000000000000000E+000
  0.000000000000000E+000
  0.000000000000000E+000
  0.000000000000000E+000
  0.000000000000000E+000
  0.000000000000000E+000
  0.000000000000000E+000
  0.000000000000000E+000
  0.000000000000000E+000
  0.000000000000000E+000
  0.000000000000000E+000
  0.000000000000000E+000
  0.000000000000000E+000
  0.000000000000000E+000
  0.000000000000000E+000
  0.000000000000000E+000
  0.000000000000000E+000
  0.000000000000000E+000
  0.000000000000000E+000
  0.000000000000000E+000
  0.000000000000000E+000
  0.000000000000000E+000
  0.000000000000000E+000
  0.000000000000000E+000
  0.000000000000000E+000
  0.000000000000000E+000
  0.000000000000000E+000
  0.000000000000000E+000
  0.000000000000000E+000
  0.000000000000000E+000
  0.000000000000000E+000
  0.000000000000000E+000
  0.000000000000000E+000
  0.000000000000000E+000
  0.000000000000000E+000
  0.000000000000000E+000
  0.000000000000000E+000
  0.000000000000000E+000
  0.000000000000000E+000
  0.000000000000000E+000
  0.000000000000000E+000
  0.000000000000000E+000
  0.000000000000000E+000
  0.000000000000000E+000
  0.000000000000000E+000
  0.000000000000000E+000
  0.000000000000000E+000
  0.000000000000000E+000
  0.000000000000000E+000
  0.000000000000000E+000
  0.000000000000000E+000
  0.000000000000000E+000
  0.000000000000000E+000
  0.000000000000000E+000
  0.000000000000000E+000
  0.000000000000000E+000
  0.000000000000000E+000
  0.000000000000000E+000
  0.000000000000000E+000
  0.000000000000000E+000
  0.000000000000000E+000
  0.000000000000000E+000
  0.000000000000000E+000
  0.000000000000000E+000
  0.000000000000000E+000
  0.000000000000000E+000
  0.000000000000000E+000
  0.000000000000000E+000
  0.000000000000000E+000
  0.000000000000000E+000
  0.000000000000000E+000
  0.000000000000000E+000
  0.000000000000000E+000
  0.000000000000000E+000
  0.000000000000000E+000
  0.000000000000000E+000
  0.000000000000000E+000
  0.000000000000000E+000
  0.000000000000000E+000
  0.000000000000000E+000
  0.000000000000000E+000
  0.000000000000000E+000
  0.000000000000000E+000
  0.000000000000000E+000
  0.000000000000000E+000
  0.000000000000000E+000
  0.000000000000000E+000
  0.000000000000000E+000
  0.000000000000000E+000
  0.000000000000000E+000
  0.000000000000000E+000
  0.000000000000000E+000
  0.000000000000000E+000
  0.000000000000000E+000
  0.000000000000000E+000
  0.000000000000000E+000
  0.000000000000000E+000
  0.000000000000000E+000
  0.000000000000000E+000
  0.000000000000000E+000
  0.000000000000000E+000
  0.000000000000000E+000
  0.000000000000000E+000
  0.000000000000000E+000
  0.000000000000000E+000
  0.000000000000000E+000
  0.000000000000000E+000
  0.000000000000000E+000
  0.000000000000000E+000
  0.000000000000000E+000
  0.000000000000000E+000
  0.000000000000000E+000
  0.000000000000000E+000
  0.000000000000000E+000
  0.000000000000000E+000
  0.000000000000000E+000
  0.000000000000000E+000
  0.000000000000000E+000
  0.000000000000000E+000
  0.000000000000000E+000
  0.000000000000000E+000
  0.000000000000000E+000
  0.000000000000000E+000
  0.000000000000000E+000
  0.000000000000000E+000
  0.000000000000000E+000
  0.000000000000000E+000
  0.000000000000000E+000
  0.000000000000000E+000
  0.000000000000000E+000
  0.000000000000000E+000
  0.000000000000000E+000
  0.000000000000000E+000
  0.000000000000000E+000
  0.000000000000000E+000
  0.000000000000000E+000
  0.000000000000000E+000
  0.000000000000000E+000
  0.000000000000000E+000
  0.000000000000000E+000
  0.000000000000000E+000
  0.000000000000000E+000
  0.000000000000000E+000
  0.000000000000000E+000
  0.000000000000000E+000
  0.000000000000000E+000
  0.000000000000000E+000
  0.000000000000000E+000
  0.000000000000000E+000
  0.000000000000000E+000
  0.000000000000000E+000
  0.000000000000000E+000
  0.000000000000000E+000
  0.000000000000000E+000
  0.000000000000000E+000
  0.000000000000000E+000
  0.000000000000000E+000
  0.000000000000000E+000
  0.000000000000000E+000
  0.000000000000000E+000
  0.000000000000000E+000
  0.000000000000000E+000
  0.000000000000000E+000
  0.000000000000000E+000
  0.000000000000000E+000
  0.000000000000000E+000
  0.000000000000000E+000
  0.000000000000000E+000
  0.000000000000000E+000
  0.000000000000000E+000
  0.000000000000000E+000
  0.000000000000000E+000
  0.000000000000000E+000
  0.000000000000000E+000
  0.000000000000000E+000
  0.000000000000000E+000
  0.000000000000000E+000
  0.000000000000000E+000
  0.000000000000000E+000
  0.000000000000000E+000
  0.000000000000000E+000
  0.000000000000000E+000
  0.000000000000000E+000
  0.000000000000000E+000
  0.000000000000000E+000
  0.000000000000000E+000
  0.000000000000000E+000
  0.000000000000000E+000
  0.000000000000000E+000
  0.000000000000000E+000
  0.000000000000000E+000
  0.000000000000000E+000
  0.000000000000000E+000
  0.000000000000000E+000
  0.000000000000000E+000
  0.000000000000000E+000
  0.000000000000000E+000
  0.000000000000000E+000
  0.000000000000000E+000
  0.000000000000000E+000
  0.000000000000000E+000
  0.000000000000000E+000
  0.000000000000000E+000
  0.000000000000000E+000
  0.000000000000000E+000
  0.000000000000000E+000
  0.000000000000000E+000
  0.000000000000000E+000
  0.000000000000000E+000
  0.000000000000000E+000
  0.000000000000000E+000
  0.000000000000000E+000
  0.000000000000000E+000
  0.000000000000000E+000
  0.000000000000000E+000
  0.000000000000000E+000
  0.000000000000000E+000
  0.000000000000000E+000
  0.000000000000000E+000
  0.000000000000000E+000
  0.000000000000000E+000
  0.000000000000000E+000
  0.000000000000000E+000
  0.000000000000000E+000
  0.000000000000000E+000
  0.000000000000000E+000
  0.000000000000000E+000
  0.000000000000000E+000
  0.000000000000000E+000
  0.000000000000000E+000
  0.000000000000000E+000
  0.000000000000000E+000
  0.000000000000000E+000
  0.000000000000000E+000
  0.000000000000000E+000
  0.000000000000000E+000
  0.000000000000000E+000
  0.000000000000000E+000
  0.000000000000000E+000
  0.000000000000000E+000
  0.000000000000000E+000
  0.000000000000000E+000
  0.000000000000000E+000
  0.000000000000000E+000
  0.000000000000000E+000
  0.000000000000000E+000
  0.000000000000000E+000
  0.000000000000000E+000
  0.000000000000000E+000
  0.000000000000000E+000
  0.000000000000000E+000
  0.000000000000000E+000
  0.000000000000000E+000
  0.000000000000000E+000
  0.000000000000000E+000
  0.000000000000000E+000
  0.000000000000000E+000
  0.000000000000000E+000
  0.000000000000000E+000
  0.000000000000000E+000
  0.000000000000000E+000
  0.000000000000000E+000
  0.000000000000000E+000
  0.000000000000000E+000
  0.000000000000000E+000
  0.000000000000000E+000
  0.000000000000000E+000
  0.000000000000000E+000
  0.000000000000000E+000
  0.000000000000000E+000
  0.000000000000000E+000
  0.000000000000000E+000
  0.000000000000000E+000
  0.000000000000000E+000
  0.000000000000000E+000
  0.000000000000000E+000
  0.000000000000000E+000
  0.000000000000000E+000
  0.000000000000000E+000
  0.000000000000000E+000
  0.000000000000000E+000
  0.000000000000000E+000
  0.000000000000000E+000
  0.000000000000000E+000
  0.000000000000000E+000
  0.000000000000000E+000
  0.000000000000000E+000
  0.000000000000000E+000
  0.000000000000000E+000
  0.000000000000000E+000
  0.000000000000000E+000
  0.000000000000000E+000
  0.000000000000000E+000
  0.000000000000000E+000
  0.000000000000000E+000
  0.000000000000000E+000
  0.000000000000000E+000
  0.000000000000000E+000
  0.000000000000000E+000
  0.000000000000000E+000
  0.000000000000000E+000
  0.000000000000000E+000
  0.000000000000000E+000
  0.000000000000000E+000
  0.000000000000000E+000
  0.000000000000000E+000
  0.000000000000000E+000
  0.000000000000000E+000
  0.000000000000000E+000
  0.000000000000000E+000
  0.000000000000000E+000
  0.000000000000000E+000
  0.000000000000000E+000
  0.000000000000000E+000
  0.000000000000000E+000
  0.000000000000000E+000
  0.000000000000000E+000
  0.000000000000000E+000
  0.000000000000000E+000
  0.000000000000000E+000
  0.000000000000000E+000
  0.000000000000000E+000
  0.000000000000000E+000
  0.000000000000000E+000
  0.000000000000000E+000
  0.000000000000000E+000
  0.000000000000000E+000
  0.000000000000000E+000
  0.000000000000000E+000
  0.000000000000000E+000
  0.000000000000000E+000
  0.000000000000000E+000
  0.000000000000000E+000
  0.000000000000000E+000
  0.000000000000000E+000
  0.000000000000000E+000
  0.000000000000000E+000
  0.000000000000000E+000
  0.000000000000000E+000
  0.000000000000000E+000
  0.000000000000000E+000
  0.000000000000000E+000
  0.000000000000000E+000
  0.000000000000000E+000
  0.000000000000000E+000
  0.000000000000000E+000
  0.000000000000000E+000
  0.000000000000000E+000
  0.000000000000000E+000
  0.000000000000000E+000
  0.000000000000000E+000
  0.000000000000000E+000
  0.000000000000000E+000
  0.000000000000000E+000
  0.000000000000000E+000
  0.000000000000000E+000
  0.000000000000000E+000
  0.000000000000000E+000
  0.000000000000000E+000
  0.000000000000000E+000
  0.000000000000000E+000
  0.000000000000000E+000
  0.000000000000000E+000
  0.000000000000000E+000
  0.000000000000000E+000
  0.000000000000000E+000
  0.000000000000000E+000
  0.000000000000000E+000
  0.000000000000000E+000
  0.000000000000000E+000
  0.000000000000000E+000
SCALARS poroL double 
LOOKUP_TABLE default
  0.155930729917799     
  0.155928006827885     
  0.155925440596093     
  0.155923025963135     
  0.155920757213320     
  0.155918628298272     
  0.155916632956325     
  0.155914764825289     
  0.155913017546564     
  0.155911384858921     
  0.155909860680478     
  0.155908439177585     
  0.155907114819517     
  0.155905882417977     
  0.155904737150560     
  0.155930267785516     
  0.155927555368155     
  0.155925000059925     
  0.155922596483450     
  0.155920338808558     
  0.155918220878304     
  0.155916236330301     
  0.155914378711090     
  0.155912641581598     
  0.155911018612062     
  0.155909503664978     
  0.155908090864862     
  0.155906774653735     
  0.155905549831329     
  0.155904411579175     
  0.155929344027406     
  0.155926653071357     
  0.155924119722788     
  0.155921738365899     
  0.155919502939708     
  0.155917407068644     
  0.155915444187683     
  0.155913607659865     
  0.155911890884378     
  0.155910287393694     
  0.155908790938440     
  0.155907395558877     
  0.155906095641938     
  0.155904885962876     
  0.155903761710629     
  0.155927959663749     
  0.155925301191982     
  0.155922801065653     
  0.155920453305736     
  0.155918251500480     
  0.155916188942720     
  0.155914258760559     
  0.155912454039438     
  0.155910767934002     
  0.155909193768400     
  0.155907725123924     
  0.155906355912974     
  0.155905080438413     
  0.155903893437392     
  0.155902790108722     
  0.155926116243608     
  0.155923501634897     
  0.155921046336573     
  0.155918743875007     
  0.155916587362421     
  0.155914569642885     
  0.155912683430079     
  0.155910921435128     
  0.155909276483170     
  0.155907741617604     
  0.155906310191169     
  0.155904975943070     
  0.155903733061352     
  0.155902576229689     
  0.155901500657574     
  0.155923815867910     
  0.155921256983734     
  0.155918858583117     
  0.155916613557919     
  0.155914514412299     
  0.155912553419097     
  0.155910722765948     
  0.155909014689761     
  0.155907421598633     
  0.155905936180532     
  0.155904551498263     
  0.155903261070259     
  0.155902058936614     
  0.155900939709620     
  0.155899898607793     
  0.155921061221439     
  0.155918570539826     
  0.155916241696496     
  0.155914066798635     
  0.155912037602299     
  0.155910145680560     
  0.155908382578837     
  0.155906739956511     
  0.155905209714397     
  0.155903784107958     
  0.155902455846281     
  0.155901218176775     
  0.155900064955391     
  0.155898990701736     
  0.155897990638091     
  0.155917855614934     
  0.155915446372735     
  0.155913200468244     
  0.155911109062117     
  0.155909163013397     
  0.155907353060376     
  0.155905669985504     
  0.155904104764088     
  0.155902648696978     
  0.155901293527879     
  0.155900031545962     
  0.155898855674404     
  0.155897759545084     
  0.155896737559130     
  0.155895784932295     
  0.155914203038900     
  0.155911889383779     
  0.155909740660586     
  0.155907746908841     
  0.155905897932383     
  0.155904183493328     
  0.155902593486335     
  0.155901118093605     
  0.155899747921724     
  0.155898474121879     
  0.155897288495112     
  0.155896183584083     
  0.155895152752274     
  0.155894190250748     
  0.155893291271535     
  0.155910108231258     
  0.155907905384414     
  0.155905869092026     
  0.155903988084540     
  0.155902250943210     
  0.155900646306950     
  0.155899163054930     
  0.155897790466244     
  0.155896518358846     
  0.155895337210513     
  0.155894238264820     
  0.155893213624786     
  0.155892256336143     
  0.155891360460992     
  0.155890521141093     
  0.155905576761538     
  0.155903501191830     
  0.155901593740137     
  0.155899841626454     
  0.155898232033622     
  0.155896752326162     
  0.155895390239305     
  0.155894134040556     
  0.155892972667374     
  0.155891895845391     
  0.155890894191909     
  0.155889959309052     
  0.155889083869958     
  0.155888261699748     
  0.155887487850929     
  0.155900615134929     
  0.155898684744729     
  0.155896923864075     
  0.155895317988103     
  0.155893852718337     
  0.155892513991940     
  0.155891288274227     
  0.155890162717941     
  0.155889125294639     
  0.155888164904820     
  0.155887271473988     
  0.155886436041428     
  0.155885650847136     
  0.155884909420088     
  0.155884206668201     
  0.155895230920106     
  0.155893465242871     
  0.155891870150066     
  0.155890429185257     
  0.155889126180687     
  0.155887945494817     
  0.155886872204197     
  0.155885892254482     
  0.155884992578183     
  0.155884161188839     
  0.155883387262203     
  0.155882661214620     
  0.155881974786968     
  0.155881321139499     
  0.155880694958985     
  0.155889432905294     
  0.155887853314763     
  0.155886444884010     
  0.155885188966755     
  0.155884067435415     
  0.155883062924564     
  0.155882159016746     
  0.155881340376901     
  0.155880592846036     
  0.155879903508030     
  0.155879260744994     
  0.155878654296189     
  0.155878075333034     
  0.155877516558639     
  0.155876972334877     
  0.155883231287373     
  0.155881861218696     
  0.155880662156675     
  0.155879613015316     
  0.155878693516719     
  0.155877884438369     
  0.155877167786006     
  0.155876526900013     
  0.155875946510169     
  0.155875412758678     
  0.155874913213803     
  0.155874436895943     
  0.155873974334603     
  0.155873517669040     
  0.155873060797942     
  0.155876637898941     
  0.155875503083493     
  0.155874538108826     
  0.155873719185748     
  0.155873023697766     
  0.155872430451347     
  0.155871919827164     
  0.155871473842580     
  0.155871076146361     
  0.155870711974362     
  0.155870368098509     
  0.155870032800592     
  0.155869695897631     
  0.155869348837645     
  0.155868984874430     
  0.155869666477968     
  0.155868795196925     
  0.155868091226738     
  0.155867527791645     
  0.155867079751347     
  0.155866723855758     
  0.155866438863508     
  0.155866205538013     
  0.155866006551757     
  0.155865826340772     
  0.155865650956091     
  0.155865467957369     
  0.155865266386938     
  0.155865036851371     
  0.155864771723566     
  0.155862332984113     
  0.155861756352545     
  0.155861342703538     
  0.155861061957606     
  0.155860886266750     
  0.155860790279152     
  0.155860751209517     
  0.155860748735791     
  0.155860764768655     
  0.155860783156029     
  0.155860789390205     
  0.155860770381833     
  0.155860714354575     
  0.155860610898674     
  0.155860451202296     
  0.155854655965140     
  0.155854408270680     
  0.155854316890563     
  0.155854348063755     
  0.155854471046529     
  0.155854658397474     
  0.155854885975851     
  0.155855132688576     
  0.155855380059253     
  0.155855611712600     
  0.155855812871488     
  0.155855969956223     
  0.155856070360457     
  0.155856102456948     
  0.155856055860043     
  0.155846656977080     
  0.155846776119018     
  0.155847041878027     
  0.155847416325404     
  0.155847865619942     
  0.155848360327441     
  0.155848875305122     
  0.155849389218318     
  0.155849883810596     
  0.155850343068432     
  0.155850752417631     
  0.155851098072695     
  0.155851366639356     
  0.155851545043965     
  0.155851620829146     
  0.155838361064943     
  0.155838889177270     
  0.155839550271393     
  0.155840301577086     
  0.155841105929508     
  0.155841932133077     
  0.155842754649781     
  0.155843552751125     
  0.155844309341173     
  0.155845009663559     
  0.155845640077790     
  0.155846187059163     
  0.155846636551558     
  0.155846973777350     
  0.155847183566828     
  0.155829797321400     
  0.155830781728284     
  0.155831880278745     
  0.155833044373538     
  0.155834233274957     
  0.155835414492480     
  0.155836563102629     
  0.155837660303484     
  0.155838691570119     
  0.155839644724408     
  0.155840508147081     
  0.155841269301876     
  0.155841913729870     
  0.155842424665590     
  0.155842783393188     
  0.155820999568802     
  0.155822494335349     
  0.155824077315190     
  0.155825692591109     
  0.155827295634165     
  0.155828853575269     
  0.155830343778954     
  0.155831751388477     
  0.155833066497801     
  0.155834281384375     
  0.155835388013873     
  0.155836375945263     
  0.155837230795477     
  0.155837933521596     
  0.155838460755410     
  0.155812007279104     
  0.155814075827684     
  0.155816196504743     
  0.155818303826411     
  0.155820349513096     
  0.155822302157788     
  0.155824144211088     
  0.155825867785596     
  0.155827470440791     
  0.155828951444224     
  0.155830308523240     
  0.155831534996280     
  0.155832617447069     
  0.155833534325846     
  0.155834256127825     
  0.155802867007261     
  0.155805586686040     
  0.155808306803297     
  0.155810949060456     
  0.155813462462978     
  0.155815820896926     
  0.155818016621140     
  0.155820053082345     
  0.155821938978695     
  0.155823683738226     
  0.155825293726233     
  0.155826768598357     
  0.155828097573927     
  0.155829256745351     
  0.155830208402125     
  0.155793635088627     
  0.155797105383966     
  0.155800498194846     
  0.155803718245132     
  0.155806716184586     
  0.155809479388827     
  0.155812017738757     
  0.155814351857986     
  0.155816505672711     
  0.155818502170695     
  0.155820360021350     
  0.155822089054223     
  0.155823684839866     
  0.155825122109014     
  0.155826352548738     
  0.155784383489360     
  0.155788741846104     
  0.155792894787330     
  0.155796728318304     
  0.155800209323312     
  0.155803355889207     
  0.155806207634724     
  0.155808808374088     
  0.155811200733387     
  0.155813424024453     
  0.155815512718733     
  0.155817493576487     
  0.155819374982556     
  0.155821136782882     
  0.155822715606185     
  0.155775217652388     
  0.155780668593084     
  0.155785679264349     
  0.155790131996907     
  0.155794055798957     
  0.155797534235349     
  0.155800646917258     
  0.155803464697562     
  0.155806050032124     
  0.155808459264363     
  0.155810744809130     
  0.155812955588376     
  0.155815135028677     
  0.155817275903767     
  0.155819311051954     
  0.155766331367689     
  0.155773211805872     
  0.155779130210358     
  0.155784107351948     
  0.155788375517835     
  0.155792096341910     
  0.155795392061497     
  0.155798358344736     
  0.155801074746376     
  0.155803612132292     
  0.155806039030374     
  0.155808428634138     
  0.155810864851013     
  0.155813464911623     
  0.155816110004990     
  0.155758420300872     
  0.155767060041556     
  0.155773549236350     
  0.155778827915835     
  0.155783273831152     
  0.155787111044956     
  0.155790489367702     
  0.155793519756932     
  0.155796291790486     
  0.155798884772117     
  0.155801377066978     
  0.155803857315066     
  0.155806445246993     
  0.155809334938575     
  0.155813087138464     
