# vtk DataFile Version 3.0
vtk output
ASCII
DATASET UNSTRUCTURED_GRID
POINTS       496 double 
  0.00000000E+00  3.00000000E+02  0.00000000E+00
  0.00000000E+00  2.80000000E+02  0.00000000E+00
  0.00000000E+00  2.60000000E+02  0.00000000E+00
  0.00000000E+00  2.40000000E+02  0.00000000E+00
  0.00000000E+00  2.20000000E+02  0.00000000E+00
  0.00000000E+00  2.00000000E+02  0.00000000E+00
  0.00000000E+00  1.80000000E+02  0.00000000E+00
  0.00000000E+00  1.60000000E+02  0.00000000E+00
  0.00000000E+00  1.40000000E+02  0.00000000E+00
  0.00000000E+00  1.20000000E+02  0.00000000E+00
  0.00000000E+00  1.00000000E+02  0.00000000E+00
  0.00000000E+00  8.00000000E+01  0.00000000E+00
  0.00000000E+00  6.00000000E+01  0.00000000E+00
  0.00000000E+00  4.00000000E+01  0.00000000E+00
  0.00000000E+00  2.00000000E+01  0.00000000E+00
  0.00000000E+00  4.99600361E-14  0.00000000E+00
  2.00000000E+01  3.00000000E+02  0.00000000E+00
  2.00000000E+01  2.80000000E+02  0.00000000E+00
  2.00000000E+01  2.60000000E+02  0.00000000E+00
  2.00000000E+01  2.40000000E+02  0.00000000E+00
  2.00000000E+01  2.20000000E+02  0.00000000E+00
  2.00000000E+01  2.00000000E+02  0.00000000E+00
  2.00000000E+01  1.80000000E+02  0.00000000E+00
  2.00000000E+01  1.60000000E+02  0.00000000E+00
  2.00000000E+01  1.40000000E+02  0.00000000E+00
  2.00000000E+01  1.20000000E+02  0.00000000E+00
  2.00000000E+01  1.00000000E+02  0.00000000E+00
  2.00000000E+01  8.00000000E+01  0.00000000E+00
  2.00000000E+01  6.00000000E+01  0.00000000E+00
  2.00000000E+01  4.00000000E+01  0.00000000E+00
  2.00000000E+01  2.00000000E+01  0.00000000E+00
  2.00000000E+01  4.99600361E-14  0.00000000E+00
  4.00000000E+01  3.00000000E+02  0.00000000E+00
  4.00000000E+01  2.80000000E+02  0.00000000E+00
  4.00000000E+01  2.60000000E+02  0.00000000E+00
  4.00000000E+01  2.40000000E+02  0.00000000E+00
  4.00000000E+01  2.20000000E+02  0.00000000E+00
  4.00000000E+01  2.00000000E+02  0.00000000E+00
  4.00000000E+01  1.80000000E+02  0.00000000E+00
  4.00000000E+01  1.60000000E+02  0.00000000E+00
  4.00000000E+01  1.40000000E+02  0.00000000E+00
  4.00000000E+01  1.20000000E+02  0.00000000E+00
  4.00000000E+01  1.00000000E+02  0.00000000E+00
  4.00000000E+01  8.00000000E+01  0.00000000E+00
  4.00000000E+01  6.00000000E+01  0.00000000E+00
  4.00000000E+01  4.00000000E+01  0.00000000E+00
  4.00000000E+01  2.00000000E+01  0.00000000E+00
  4.00000000E+01  4.99600361E-14  0.00000000E+00
  6.00000000E+01  3.00000000E+02  0.00000000E+00
  6.00000000E+01  2.80000000E+02  0.00000000E+00
  6.00000000E+01  2.60000000E+02  0.00000000E+00
  6.00000000E+01  2.40000000E+02  0.00000000E+00
  6.00000000E+01  2.20000000E+02  0.00000000E+00
  6.00000000E+01  2.00000000E+02  0.00000000E+00
  6.00000000E+01  1.80000000E+02  0.00000000E+00
  6.00000000E+01  1.60000000E+02  0.00000000E+00
  6.00000000E+01  1.40000000E+02  0.00000000E+00
  6.00000000E+01  1.20000000E+02  0.00000000E+00
  6.00000000E+01  1.00000000E+02  0.00000000E+00
  6.00000000E+01  8.00000000E+01  0.00000000E+00
  6.00000000E+01  6.00000000E+01  0.00000000E+00
  6.00000000E+01  4.00000000E+01  0.00000000E+00
  6.00000000E+01  2.00000000E+01  0.00000000E+00
  6.00000000E+01  4.99600361E-14  0.00000000E+00
  8.00000000E+01  3.00000000E+02  0.00000000E+00
  8.00000000E+01  2.80000000E+02  0.00000000E+00
  8.00000000E+01  2.60000000E+02  0.00000000E+00
  8.00000000E+01  2.40000000E+02  0.00000000E+00
  8.00000000E+01  2.20000000E+02  0.00000000E+00
  8.00000000E+01  2.00000000E+02  0.00000000E+00
  8.00000000E+01  1.80000000E+02  0.00000000E+00
  8.00000000E+01  1.60000000E+02  0.00000000E+00
  8.00000000E+01  1.40000000E+02  0.00000000E+00
  8.00000000E+01  1.20000000E+02  0.00000000E+00
  8.00000000E+01  1.00000000E+02  0.00000000E+00
  8.00000000E+01  8.00000000E+01  0.00000000E+00
  8.00000000E+01  6.00000000E+01  0.00000000E+00
  8.00000000E+01  4.00000000E+01  0.00000000E+00
  8.00000000E+01  2.00000000E+01  0.00000000E+00
  8.00000000E+01  4.99600361E-14  0.00000000E+00
  1.00000000E+02  3.00000000E+02  0.00000000E+00
  1.00000000E+02  2.80000000E+02  0.00000000E+00
  1.00000000E+02  2.60000000E+02  0.00000000E+00
  1.00000000E+02  2.40000000E+02  0.00000000E+00
  1.00000000E+02  2.20000000E+02  0.00000000E+00
  1.00000000E+02  2.00000000E+02  0.00000000E+00
  1.00000000E+02  1.80000000E+02  0.00000000E+00
  1.00000000E+02  1.60000000E+02  0.00000000E+00
  1.00000000E+02  1.40000000E+02  0.00000000E+00
  1.00000000E+02  1.20000000E+02  0.00000000E+00
  1.00000000E+02  1.00000000E+02  0.00000000E+00
  1.00000000E+02  8.00000000E+01  0.00000000E+00
  1.00000000E+02  6.00000000E+01  0.00000000E+00
  1.00000000E+02  4.00000000E+01  0.00000000E+00
  1.00000000E+02  2.00000000E+01  0.00000000E+00
  1.00000000E+02  4.99600361E-14  0.00000000E+00
  1.20000000E+02  3.00000000E+02  0.00000000E+00
  1.20000000E+02  2.80000000E+02  0.00000000E+00
  1.20000000E+02  2.60000000E+02  0.00000000E+00
  1.20000000E+02  2.40000000E+02  0.00000000E+00
  1.20000000E+02  2.20000000E+02  0.00000000E+00
  1.20000000E+02  2.00000000E+02  0.00000000E+00
  1.20000000E+02  1.80000000E+02  0.00000000E+00
  1.20000000E+02  1.60000000E+02  0.00000000E+00
  1.20000000E+02  1.40000000E+02  0.00000000E+00
  1.20000000E+02  1.20000000E+02  0.00000000E+00
  1.20000000E+02  1.00000000E+02  0.00000000E+00
  1.20000000E+02  8.00000000E+01  0.00000000E+00
  1.20000000E+02  6.00000000E+01  0.00000000E+00
  1.20000000E+02  4.00000000E+01  0.00000000E+00
  1.20000000E+02  2.00000000E+01  0.00000000E+00
  1.20000000E+02  4.99600361E-14  0.00000000E+00
  1.40000000E+02  3.00000000E+02  0.00000000E+00
  1.40000000E+02  2.80000000E+02  0.00000000E+00
  1.40000000E+02  2.60000000E+02  0.00000000E+00
  1.40000000E+02  2.40000000E+02  0.00000000E+00
  1.40000000E+02  2.20000000E+02  0.00000000E+00
  1.40000000E+02  2.00000000E+02  0.00000000E+00
  1.40000000E+02  1.80000000E+02  0.00000000E+00
  1.40000000E+02  1.60000000E+02  0.00000000E+00
  1.40000000E+02  1.40000000E+02  0.00000000E+00
  1.40000000E+02  1.20000000E+02  0.00000000E+00
  1.40000000E+02  1.00000000E+02  0.00000000E+00
  1.40000000E+02  8.00000000E+01  0.00000000E+00
  1.40000000E+02  6.00000000E+01  0.00000000E+00
  1.40000000E+02  4.00000000E+01  0.00000000E+00
  1.40000000E+02  2.00000000E+01  0.00000000E+00
  1.40000000E+02  4.99600361E-14  0.00000000E+00
  1.60000000E+02  3.00000000E+02  0.00000000E+00
  1.60000000E+02  2.80000000E+02  0.00000000E+00
  1.60000000E+02  2.60000000E+02  0.00000000E+00
  1.60000000E+02  2.40000000E+02  0.00000000E+00
  1.60000000E+02  2.20000000E+02  0.00000000E+00
  1.60000000E+02  2.00000000E+02  0.00000000E+00
  1.60000000E+02  1.80000000E+02  0.00000000E+00
  1.60000000E+02  1.60000000E+02  0.00000000E+00
  1.60000000E+02  1.40000000E+02  0.00000000E+00
  1.60000000E+02  1.20000000E+02  0.00000000E+00
  1.60000000E+02  1.00000000E+02  0.00000000E+00
  1.60000000E+02  8.00000000E+01  0.00000000E+00
  1.60000000E+02  6.00000000E+01  0.00000000E+00
  1.60000000E+02  4.00000000E+01  0.00000000E+00
  1.60000000E+02  2.00000000E+01  0.00000000E+00
  1.60000000E+02  4.99600361E-14  0.00000000E+00
  1.80000000E+02  3.00000000E+02  0.00000000E+00
  1.80000000E+02  2.80000000E+02  0.00000000E+00
  1.80000000E+02  2.60000000E+02  0.00000000E+00
  1.80000000E+02  2.40000000E+02  0.00000000E+00
  1.80000000E+02  2.20000000E+02  0.00000000E+00
  1.80000000E+02  2.00000000E+02  0.00000000E+00
  1.80000000E+02  1.80000000E+02  0.00000000E+00
  1.80000000E+02  1.60000000E+02  0.00000000E+00
  1.80000000E+02  1.40000000E+02  0.00000000E+00
  1.80000000E+02  1.20000000E+02  0.00000000E+00
  1.80000000E+02  1.00000000E+02  0.00000000E+00
  1.80000000E+02  8.00000000E+01  0.00000000E+00
  1.80000000E+02  6.00000000E+01  0.00000000E+00
  1.80000000E+02  4.00000000E+01  0.00000000E+00
  1.80000000E+02  2.00000000E+01  0.00000000E+00
  1.80000000E+02  4.99600361E-14  0.00000000E+00
  2.00000000E+02  3.00000000E+02  0.00000000E+00
  2.00000000E+02  2.80000000E+02  0.00000000E+00
  2.00000000E+02  2.60000000E+02  0.00000000E+00
  2.00000000E+02  2.40000000E+02  0.00000000E+00
  2.00000000E+02  2.20000000E+02  0.00000000E+00
  2.00000000E+02  2.00000000E+02  0.00000000E+00
  2.00000000E+02  1.80000000E+02  0.00000000E+00
  2.00000000E+02  1.60000000E+02  0.00000000E+00
  2.00000000E+02  1.40000000E+02  0.00000000E+00
  2.00000000E+02  1.20000000E+02  0.00000000E+00
  2.00000000E+02  1.00000000E+02  0.00000000E+00
  2.00000000E+02  8.00000000E+01  0.00000000E+00
  2.00000000E+02  6.00000000E+01  0.00000000E+00
  2.00000000E+02  4.00000000E+01  0.00000000E+00
  2.00000000E+02  2.00000000E+01  0.00000000E+00
  2.00000000E+02  4.99600361E-14  0.00000000E+00
  2.20000000E+02  3.00000000E+02  0.00000000E+00
  2.20000000E+02  2.80000000E+02  0.00000000E+00
  2.20000000E+02  2.60000000E+02  0.00000000E+00
  2.20000000E+02  2.40000000E+02  0.00000000E+00
  2.20000000E+02  2.20000000E+02  0.00000000E+00
  2.20000000E+02  2.00000000E+02  0.00000000E+00
  2.20000000E+02  1.80000000E+02  0.00000000E+00
  2.20000000E+02  1.60000000E+02  0.00000000E+00
  2.20000000E+02  1.40000000E+02  0.00000000E+00
  2.20000000E+02  1.20000000E+02  0.00000000E+00
  2.20000000E+02  1.00000000E+02  0.00000000E+00
  2.20000000E+02  8.00000000E+01  0.00000000E+00
  2.20000000E+02  6.00000000E+01  0.00000000E+00
  2.20000000E+02  4.00000000E+01  0.00000000E+00
  2.20000000E+02  2.00000000E+01  0.00000000E+00
  2.20000000E+02  4.99600361E-14  0.00000000E+00
  2.40000000E+02  3.00000000E+02  0.00000000E+00
  2.40000000E+02  2.80000000E+02  0.00000000E+00
  2.40000000E+02  2.60000000E+02  0.00000000E+00
  2.40000000E+02  2.40000000E+02  0.00000000E+00
  2.40000000E+02  2.20000000E+02  0.00000000E+00
  2.40000000E+02  2.00000000E+02  0.00000000E+00
  2.40000000E+02  1.80000000E+02  0.00000000E+00
  2.40000000E+02  1.60000000E+02  0.00000000E+00
  2.40000000E+02  1.40000000E+02  0.00000000E+00
  2.40000000E+02  1.20000000E+02  0.00000000E+00
  2.40000000E+02  1.00000000E+02  0.00000000E+00
  2.40000000E+02  8.00000000E+01  0.00000000E+00
  2.40000000E+02  6.00000000E+01  0.00000000E+00
  2.40000000E+02  4.00000000E+01  0.00000000E+00
  2.40000000E+02  2.00000000E+01  0.00000000E+00
  2.40000000E+02  4.99600361E-14  0.00000000E+00
  2.60000000E+02  3.00000000E+02  0.00000000E+00
  2.60000000E+02  2.80000000E+02  0.00000000E+00
  2.60000000E+02  2.60000000E+02  0.00000000E+00
  2.60000000E+02  2.40000000E+02  0.00000000E+00
  2.60000000E+02  2.20000000E+02  0.00000000E+00
  2.60000000E+02  2.00000000E+02  0.00000000E+00
  2.60000000E+02  1.80000000E+02  0.00000000E+00
  2.60000000E+02  1.60000000E+02  0.00000000E+00
  2.60000000E+02  1.40000000E+02  0.00000000E+00
  2.60000000E+02  1.20000000E+02  0.00000000E+00
  2.60000000E+02  1.00000000E+02  0.00000000E+00
  2.60000000E+02  8.00000000E+01  0.00000000E+00
  2.60000000E+02  6.00000000E+01  0.00000000E+00
  2.60000000E+02  4.00000000E+01  0.00000000E+00
  2.60000000E+02  2.00000000E+01  0.00000000E+00
  2.60000000E+02  4.99600361E-14  0.00000000E+00
  2.80000000E+02  3.00000000E+02  0.00000000E+00
  2.80000000E+02  2.80000000E+02  0.00000000E+00
  2.80000000E+02  2.60000000E+02  0.00000000E+00
  2.80000000E+02  2.40000000E+02  0.00000000E+00
  2.80000000E+02  2.20000000E+02  0.00000000E+00
  2.80000000E+02  2.00000000E+02  0.00000000E+00
  2.80000000E+02  1.80000000E+02  0.00000000E+00
  2.80000000E+02  1.60000000E+02  0.00000000E+00
  2.80000000E+02  1.40000000E+02  0.00000000E+00
  2.80000000E+02  1.20000000E+02  0.00000000E+00
  2.80000000E+02  1.00000000E+02  0.00000000E+00
  2.80000000E+02  8.00000000E+01  0.00000000E+00
  2.80000000E+02  6.00000000E+01  0.00000000E+00
  2.80000000E+02  4.00000000E+01  0.00000000E+00
  2.80000000E+02  2.00000000E+01  0.00000000E+00
  2.80000000E+02  4.99600361E-14  0.00000000E+00
  3.00000000E+02  3.00000000E+02  0.00000000E+00
  3.00000000E+02  2.80000000E+02  0.00000000E+00
  3.00000000E+02  2.60000000E+02  0.00000000E+00
  3.00000000E+02  2.40000000E+02  0.00000000E+00
  3.00000000E+02  2.20000000E+02  0.00000000E+00
  3.00000000E+02  2.00000000E+02  0.00000000E+00
  3.00000000E+02  1.80000000E+02  0.00000000E+00
  3.00000000E+02  1.60000000E+02  0.00000000E+00
  3.00000000E+02  1.40000000E+02  0.00000000E+00
  3.00000000E+02  1.20000000E+02  0.00000000E+00
  3.00000000E+02  1.00000000E+02  0.00000000E+00
  3.00000000E+02  8.00000000E+01  0.00000000E+00
  3.00000000E+02  6.00000000E+01  0.00000000E+00
  3.00000000E+02  4.00000000E+01  0.00000000E+00
  3.00000000E+02  2.00000000E+01  0.00000000E+00
  3.00000000E+02  4.99600361E-14  0.00000000E+00
  3.20000000E+02  3.00000000E+02  0.00000000E+00
  3.20000000E+02  2.80000000E+02  0.00000000E+00
  3.20000000E+02  2.60000000E+02  0.00000000E+00
  3.20000000E+02  2.40000000E+02  0.00000000E+00
  3.20000000E+02  2.20000000E+02  0.00000000E+00
  3.20000000E+02  2.00000000E+02  0.00000000E+00
  3.20000000E+02  1.80000000E+02  0.00000000E+00
  3.20000000E+02  1.60000000E+02  0.00000000E+00
  3.20000000E+02  1.40000000E+02  0.00000000E+00
  3.20000000E+02  1.20000000E+02  0.00000000E+00
  3.20000000E+02  1.00000000E+02  0.00000000E+00
  3.20000000E+02  8.00000000E+01  0.00000000E+00
  3.20000000E+02  6.00000000E+01  0.00000000E+00
  3.20000000E+02  4.00000000E+01  0.00000000E+00
  3.20000000E+02  2.00000000E+01  0.00000000E+00
  3.20000000E+02  4.99600361E-14  0.00000000E+00
  3.40000000E+02  3.00000000E+02  0.00000000E+00
  3.40000000E+02  2.80000000E+02  0.00000000E+00
  3.40000000E+02  2.60000000E+02  0.00000000E+00
  3.40000000E+02  2.40000000E+02  0.00000000E+00
  3.40000000E+02  2.20000000E+02  0.00000000E+00
  3.40000000E+02  2.00000000E+02  0.00000000E+00
  3.40000000E+02  1.80000000E+02  0.00000000E+00
  3.40000000E+02  1.60000000E+02  0.00000000E+00
  3.40000000E+02  1.40000000E+02  0.00000000E+00
  3.40000000E+02  1.20000000E+02  0.00000000E+00
  3.40000000E+02  1.00000000E+02  0.00000000E+00
  3.40000000E+02  8.00000000E+01  0.00000000E+00
  3.40000000E+02  6.00000000E+01  0.00000000E+00
  3.40000000E+02  4.00000000E+01  0.00000000E+00
  3.40000000E+02  2.00000000E+01  0.00000000E+00
  3.40000000E+02  4.99600361E-14  0.00000000E+00
  3.60000000E+02  3.00000000E+02  0.00000000E+00
  3.60000000E+02  2.80000000E+02  0.00000000E+00
  3.60000000E+02  2.60000000E+02  0.00000000E+00
  3.60000000E+02  2.40000000E+02  0.00000000E+00
  3.60000000E+02  2.20000000E+02  0.00000000E+00
  3.60000000E+02  2.00000000E+02  0.00000000E+00
  3.60000000E+02  1.80000000E+02  0.00000000E+00
  3.60000000E+02  1.60000000E+02  0.00000000E+00
  3.60000000E+02  1.40000000E+02  0.00000000E+00
  3.60000000E+02  1.20000000E+02  0.00000000E+00
  3.60000000E+02  1.00000000E+02  0.00000000E+00
  3.60000000E+02  8.00000000E+01  0.00000000E+00
  3.60000000E+02  6.00000000E+01  0.00000000E+00
  3.60000000E+02  4.00000000E+01  0.00000000E+00
  3.60000000E+02  2.00000000E+01  0.00000000E+00
  3.60000000E+02  4.99600361E-14  0.00000000E+00
  3.80000000E+02  3.00000000E+02  0.00000000E+00
  3.80000000E+02  2.80000000E+02  0.00000000E+00
  3.80000000E+02  2.60000000E+02  0.00000000E+00
  3.80000000E+02  2.40000000E+02  0.00000000E+00
  3.80000000E+02  2.20000000E+02  0.00000000E+00
  3.80000000E+02  2.00000000E+02  0.00000000E+00
  3.80000000E+02  1.80000000E+02  0.00000000E+00
  3.80000000E+02  1.60000000E+02  0.00000000E+00
  3.80000000E+02  1.40000000E+02  0.00000000E+00
  3.80000000E+02  1.20000000E+02  0.00000000E+00
  3.80000000E+02  1.00000000E+02  0.00000000E+00
  3.80000000E+02  8.00000000E+01  0.00000000E+00
  3.80000000E+02  6.00000000E+01  0.00000000E+00
  3.80000000E+02  4.00000000E+01  0.00000000E+00
  3.80000000E+02  2.00000000E+01  0.00000000E+00
  3.80000000E+02  4.99600361E-14  0.00000000E+00
  4.00000000E+02  3.00000000E+02  0.00000000E+00
  4.00000000E+02  2.80000000E+02  0.00000000E+00
  4.00000000E+02  2.60000000E+02  0.00000000E+00
  4.00000000E+02  2.40000000E+02  0.00000000E+00
  4.00000000E+02  2.20000000E+02  0.00000000E+00
  4.00000000E+02  2.00000000E+02  0.00000000E+00
  4.00000000E+02  1.80000000E+02  0.00000000E+00
  4.00000000E+02  1.60000000E+02  0.00000000E+00
  4.00000000E+02  1.40000000E+02  0.00000000E+00
  4.00000000E+02  1.20000000E+02  0.00000000E+00
  4.00000000E+02  1.00000000E+02  0.00000000E+00
  4.00000000E+02  8.00000000E+01  0.00000000E+00
  4.00000000E+02  6.00000000E+01  0.00000000E+00
  4.00000000E+02  4.00000000E+01  0.00000000E+00
  4.00000000E+02  2.00000000E+01  0.00000000E+00
  4.00000000E+02  4.99600361E-14  0.00000000E+00
  4.20000000E+02  3.00000000E+02  0.00000000E+00
  4.20000000E+02  2.80000000E+02  0.00000000E+00
  4.20000000E+02  2.60000000E+02  0.00000000E+00
  4.20000000E+02  2.40000000E+02  0.00000000E+00
  4.20000000E+02  2.20000000E+02  0.00000000E+00
  4.20000000E+02  2.00000000E+02  0.00000000E+00
  4.20000000E+02  1.80000000E+02  0.00000000E+00
  4.20000000E+02  1.60000000E+02  0.00000000E+00
  4.20000000E+02  1.40000000E+02  0.00000000E+00
  4.20000000E+02  1.20000000E+02  0.00000000E+00
  4.20000000E+02  1.00000000E+02  0.00000000E+00
  4.20000000E+02  8.00000000E+01  0.00000000E+00
  4.20000000E+02  6.00000000E+01  0.00000000E+00
  4.20000000E+02  4.00000000E+01  0.00000000E+00
  4.20000000E+02  2.00000000E+01  0.00000000E+00
  4.20000000E+02  4.99600361E-14  0.00000000E+00
  4.40000000E+02  3.00000000E+02  0.00000000E+00
  4.40000000E+02  2.80000000E+02  0.00000000E+00
  4.40000000E+02  2.60000000E+02  0.00000000E+00
  4.40000000E+02  2.40000000E+02  0.00000000E+00
  4.40000000E+02  2.20000000E+02  0.00000000E+00
  4.40000000E+02  2.00000000E+02  0.00000000E+00
  4.40000000E+02  1.80000000E+02  0.00000000E+00
  4.40000000E+02  1.60000000E+02  0.00000000E+00
  4.40000000E+02  1.40000000E+02  0.00000000E+00
  4.40000000E+02  1.20000000E+02  0.00000000E+00
  4.40000000E+02  1.00000000E+02  0.00000000E+00
  4.40000000E+02  8.00000000E+01  0.00000000E+00
  4.40000000E+02  6.00000000E+01  0.00000000E+00
  4.40000000E+02  4.00000000E+01  0.00000000E+00
  4.40000000E+02  2.00000000E+01  0.00000000E+00
  4.40000000E+02  4.99600361E-14  0.00000000E+00
  4.60000000E+02  3.00000000E+02  0.00000000E+00
  4.60000000E+02  2.80000000E+02  0.00000000E+00
  4.60000000E+02  2.60000000E+02  0.00000000E+00
  4.60000000E+02  2.40000000E+02  0.00000000E+00
  4.60000000E+02  2.20000000E+02  0.00000000E+00
  4.60000000E+02  2.00000000E+02  0.00000000E+00
  4.60000000E+02  1.80000000E+02  0.00000000E+00
  4.60000000E+02  1.60000000E+02  0.00000000E+00
  4.60000000E+02  1.40000000E+02  0.00000000E+00
  4.60000000E+02  1.20000000E+02  0.00000000E+00
  4.60000000E+02  1.00000000E+02  0.00000000E+00
  4.60000000E+02  8.00000000E+01  0.00000000E+00
  4.60000000E+02  6.00000000E+01  0.00000000E+00
  4.60000000E+02  4.00000000E+01  0.00000000E+00
  4.60000000E+02  2.00000000E+01  0.00000000E+00
  4.60000000E+02  4.99600361E-14  0.00000000E+00
  4.80000000E+02  3.00000000E+02  0.00000000E+00
  4.80000000E+02  2.80000000E+02  0.00000000E+00
  4.80000000E+02  2.60000000E+02  0.00000000E+00
  4.80000000E+02  2.40000000E+02  0.00000000E+00
  4.80000000E+02  2.20000000E+02  0.00000000E+00
  4.80000000E+02  2.00000000E+02  0.00000000E+00
  4.80000000E+02  1.80000000E+02  0.00000000E+00
  4.80000000E+02  1.60000000E+02  0.00000000E+00
  4.80000000E+02  1.40000000E+02  0.00000000E+00
  4.80000000E+02  1.20000000E+02  0.00000000E+00
  4.80000000E+02  1.00000000E+02  0.00000000E+00
  4.80000000E+02  8.00000000E+01  0.00000000E+00
  4.80000000E+02  6.00000000E+01  0.00000000E+00
  4.80000000E+02  4.00000000E+01  0.00000000E+00
  4.80000000E+02  2.00000000E+01  0.00000000E+00
  4.80000000E+02  4.99600361E-14  0.00000000E+00
  5.00000000E+02  3.00000000E+02  0.00000000E+00
  5.00000000E+02  2.80000000E+02  0.00000000E+00
  5.00000000E+02  2.60000000E+02  0.00000000E+00
  5.00000000E+02  2.40000000E+02  0.00000000E+00
  5.00000000E+02  2.20000000E+02  0.00000000E+00
  5.00000000E+02  2.00000000E+02  0.00000000E+00
  5.00000000E+02  1.80000000E+02  0.00000000E+00
  5.00000000E+02  1.60000000E+02  0.00000000E+00
  5.00000000E+02  1.40000000E+02  0.00000000E+00
  5.00000000E+02  1.20000000E+02  0.00000000E+00
  5.00000000E+02  1.00000000E+02  0.00000000E+00
  5.00000000E+02  8.00000000E+01  0.00000000E+00
  5.00000000E+02  6.00000000E+01  0.00000000E+00
  5.00000000E+02  4.00000000E+01  0.00000000E+00
  5.00000000E+02  2.00000000E+01  0.00000000E+00
  5.00000000E+02  4.99600361E-14  0.00000000E+00
  5.20000000E+02  3.00000000E+02  0.00000000E+00
  5.20000000E+02  2.80000000E+02  0.00000000E+00
  5.20000000E+02  2.60000000E+02  0.00000000E+00
  5.20000000E+02  2.40000000E+02  0.00000000E+00
  5.20000000E+02  2.20000000E+02  0.00000000E+00
  5.20000000E+02  2.00000000E+02  0.00000000E+00
  5.20000000E+02  1.80000000E+02  0.00000000E+00
  5.20000000E+02  1.60000000E+02  0.00000000E+00
  5.20000000E+02  1.40000000E+02  0.00000000E+00
  5.20000000E+02  1.20000000E+02  0.00000000E+00
  5.20000000E+02  1.00000000E+02  0.00000000E+00
  5.20000000E+02  8.00000000E+01  0.00000000E+00
  5.20000000E+02  6.00000000E+01  0.00000000E+00
  5.20000000E+02  4.00000000E+01  0.00000000E+00
  5.20000000E+02  2.00000000E+01  0.00000000E+00
  5.20000000E+02  4.99600361E-14  0.00000000E+00
  5.40000000E+02  3.00000000E+02  0.00000000E+00
  5.40000000E+02  2.80000000E+02  0.00000000E+00
  5.40000000E+02  2.60000000E+02  0.00000000E+00
  5.40000000E+02  2.40000000E+02  0.00000000E+00
  5.40000000E+02  2.20000000E+02  0.00000000E+00
  5.40000000E+02  2.00000000E+02  0.00000000E+00
  5.40000000E+02  1.80000000E+02  0.00000000E+00
  5.40000000E+02  1.60000000E+02  0.00000000E+00
  5.40000000E+02  1.40000000E+02  0.00000000E+00
  5.40000000E+02  1.20000000E+02  0.00000000E+00
  5.40000000E+02  1.00000000E+02  0.00000000E+00
  5.40000000E+02  8.00000000E+01  0.00000000E+00
  5.40000000E+02  6.00000000E+01  0.00000000E+00
  5.40000000E+02  4.00000000E+01  0.00000000E+00
  5.40000000E+02  2.00000000E+01  0.00000000E+00
  5.40000000E+02  4.99600361E-14  0.00000000E+00
  5.60000000E+02  3.00000000E+02  0.00000000E+00
  5.60000000E+02  2.80000000E+02  0.00000000E+00
  5.60000000E+02  2.60000000E+02  0.00000000E+00
  5.60000000E+02  2.40000000E+02  0.00000000E+00
  5.60000000E+02  2.20000000E+02  0.00000000E+00
  5.60000000E+02  2.00000000E+02  0.00000000E+00
  5.60000000E+02  1.80000000E+02  0.00000000E+00
  5.60000000E+02  1.60000000E+02  0.00000000E+00
  5.60000000E+02  1.40000000E+02  0.00000000E+00
  5.60000000E+02  1.20000000E+02  0.00000000E+00
  5.60000000E+02  1.00000000E+02  0.00000000E+00
  5.60000000E+02  8.00000000E+01  0.00000000E+00
  5.60000000E+02  6.00000000E+01  0.00000000E+00
  5.60000000E+02  4.00000000E+01  0.00000000E+00
  5.60000000E+02  2.00000000E+01  0.00000000E+00
  5.60000000E+02  4.99600361E-14  0.00000000E+00
  5.80000000E+02  3.00000000E+02  0.00000000E+00
  5.80000000E+02  2.80000000E+02  0.00000000E+00
  5.80000000E+02  2.60000000E+02  0.00000000E+00
  5.80000000E+02  2.40000000E+02  0.00000000E+00
  5.80000000E+02  2.20000000E+02  0.00000000E+00
  5.80000000E+02  2.00000000E+02  0.00000000E+00
  5.80000000E+02  1.80000000E+02  0.00000000E+00
  5.80000000E+02  1.60000000E+02  0.00000000E+00
  5.80000000E+02  1.40000000E+02  0.00000000E+00
  5.80000000E+02  1.20000000E+02  0.00000000E+00
  5.80000000E+02  1.00000000E+02  0.00000000E+00
  5.80000000E+02  8.00000000E+01  0.00000000E+00
  5.80000000E+02  6.00000000E+01  0.00000000E+00
  5.80000000E+02  4.00000000E+01  0.00000000E+00
  5.80000000E+02  2.00000000E+01  0.00000000E+00
  5.80000000E+02  4.99600361E-14  0.00000000E+00
  6.00000000E+02  3.00000000E+02  0.00000000E+00
  6.00000000E+02  2.80000000E+02  0.00000000E+00
  6.00000000E+02  2.60000000E+02  0.00000000E+00
  6.00000000E+02  2.40000000E+02  0.00000000E+00
  6.00000000E+02  2.20000000E+02  0.00000000E+00
  6.00000000E+02  2.00000000E+02  0.00000000E+00
  6.00000000E+02  1.80000000E+02  0.00000000E+00
  6.00000000E+02  1.60000000E+02  0.00000000E+00
  6.00000000E+02  1.40000000E+02  0.00000000E+00
  6.00000000E+02  1.20000000E+02  0.00000000E+00
  6.00000000E+02  1.00000000E+02  0.00000000E+00
  6.00000000E+02  8.00000000E+01  0.00000000E+00
  6.00000000E+02  6.00000000E+01  0.00000000E+00
  6.00000000E+02  4.00000000E+01  0.00000000E+00
  6.00000000E+02  2.00000000E+01  0.00000000E+00
  6.00000000E+02  4.99600361E-14  0.00000000E+00
CELLS       450      2250
         4           0           1          17          16
         4           1           2          18          17
         4           2           3          19          18
         4           3           4          20          19
         4           4           5          21          20
         4           5           6          22          21
         4           6           7          23          22
         4           7           8          24          23
         4           8           9          25          24
         4           9          10          26          25
         4          10          11          27          26
         4          11          12          28          27
         4          12          13          29          28
         4          13          14          30          29
         4          14          15          31          30
         4          16          17          33          32
         4          17          18          34          33
         4          18          19          35          34
         4          19          20          36          35
         4          20          21          37          36
         4          21          22          38          37
         4          22          23          39          38
         4          23          24          40          39
         4          24          25          41          40
         4          25          26          42          41
         4          26          27          43          42
         4          27          28          44          43
         4          28          29          45          44
         4          29          30          46          45
         4          30          31          47          46
         4          32          33          49          48
         4          33          34          50          49
         4          34          35          51          50
         4          35          36          52          51
         4          36          37          53          52
         4          37          38          54          53
         4          38          39          55          54
         4          39          40          56          55
         4          40          41          57          56
         4          41          42          58          57
         4          42          43          59          58
         4          43          44          60          59
         4          44          45          61          60
         4          45          46          62          61
         4          46          47          63          62
         4          48          49          65          64
         4          49          50          66          65
         4          50          51          67          66
         4          51          52          68          67
         4          52          53          69          68
         4          53          54          70          69
         4          54          55          71          70
         4          55          56          72          71
         4          56          57          73          72
         4          57          58          74          73
         4          58          59          75          74
         4          59          60          76          75
         4          60          61          77          76
         4          61          62          78          77
         4          62          63          79          78
         4          64          65          81          80
         4          65          66          82          81
         4          66          67          83          82
         4          67          68          84          83
         4          68          69          85          84
         4          69          70          86          85
         4          70          71          87          86
         4          71          72          88          87
         4          72          73          89          88
         4          73          74          90          89
         4          74          75          91          90
         4          75          76          92          91
         4          76          77          93          92
         4          77          78          94          93
         4          78          79          95          94
         4          80          81          97          96
         4          81          82          98          97
         4          82          83          99          98
         4          83          84         100          99
         4          84          85         101         100
         4          85          86         102         101
         4          86          87         103         102
         4          87          88         104         103
         4          88          89         105         104
         4          89          90         106         105
         4          90          91         107         106
         4          91          92         108         107
         4          92          93         109         108
         4          93          94         110         109
         4          94          95         111         110
         4          96          97         113         112
         4          97          98         114         113
         4          98          99         115         114
         4          99         100         116         115
         4         100         101         117         116
         4         101         102         118         117
         4         102         103         119         118
         4         103         104         120         119
         4         104         105         121         120
         4         105         106         122         121
         4         106         107         123         122
         4         107         108         124         123
         4         108         109         125         124
         4         109         110         126         125
         4         110         111         127         126
         4         112         113         129         128
         4         113         114         130         129
         4         114         115         131         130
         4         115         116         132         131
         4         116         117         133         132
         4         117         118         134         133
         4         118         119         135         134
         4         119         120         136         135
         4         120         121         137         136
         4         121         122         138         137
         4         122         123         139         138
         4         123         124         140         139
         4         124         125         141         140
         4         125         126         142         141
         4         126         127         143         142
         4         128         129         145         144
         4         129         130         146         145
         4         130         131         147         146
         4         131         132         148         147
         4         132         133         149         148
         4         133         134         150         149
         4         134         135         151         150
         4         135         136         152         151
         4         136         137         153         152
         4         137         138         154         153
         4         138         139         155         154
         4         139         140         156         155
         4         140         141         157         156
         4         141         142         158         157
         4         142         143         159         158
         4         144         145         161         160
         4         145         146         162         161
         4         146         147         163         162
         4         147         148         164         163
         4         148         149         165         164
         4         149         150         166         165
         4         150         151         167         166
         4         151         152         168         167
         4         152         153         169         168
         4         153         154         170         169
         4         154         155         171         170
         4         155         156         172         171
         4         156         157         173         172
         4         157         158         174         173
         4         158         159         175         174
         4         160         161         177         176
         4         161         162         178         177
         4         162         163         179         178
         4         163         164         180         179
         4         164         165         181         180
         4         165         166         182         181
         4         166         167         183         182
         4         167         168         184         183
         4         168         169         185         184
         4         169         170         186         185
         4         170         171         187         186
         4         171         172         188         187
         4         172         173         189         188
         4         173         174         190         189
         4         174         175         191         190
         4         176         177         193         192
         4         177         178         194         193
         4         178         179         195         194
         4         179         180         196         195
         4         180         181         197         196
         4         181         182         198         197
         4         182         183         199         198
         4         183         184         200         199
         4         184         185         201         200
         4         185         186         202         201
         4         186         187         203         202
         4         187         188         204         203
         4         188         189         205         204
         4         189         190         206         205
         4         190         191         207         206
         4         192         193         209         208
         4         193         194         210         209
         4         194         195         211         210
         4         195         196         212         211
         4         196         197         213         212
         4         197         198         214         213
         4         198         199         215         214
         4         199         200         216         215
         4         200         201         217         216
         4         201         202         218         217
         4         202         203         219         218
         4         203         204         220         219
         4         204         205         221         220
         4         205         206         222         221
         4         206         207         223         222
         4         208         209         225         224
         4         209         210         226         225
         4         210         211         227         226
         4         211         212         228         227
         4         212         213         229         228
         4         213         214         230         229
         4         214         215         231         230
         4         215         216         232         231
         4         216         217         233         232
         4         217         218         234         233
         4         218         219         235         234
         4         219         220         236         235
         4         220         221         237         236
         4         221         222         238         237
         4         222         223         239         238
         4         224         225         241         240
         4         225         226         242         241
         4         226         227         243         242
         4         227         228         244         243
         4         228         229         245         244
         4         229         230         246         245
         4         230         231         247         246
         4         231         232         248         247
         4         232         233         249         248
         4         233         234         250         249
         4         234         235         251         250
         4         235         236         252         251
         4         236         237         253         252
         4         237         238         254         253
         4         238         239         255         254
         4         240         241         257         256
         4         241         242         258         257
         4         242         243         259         258
         4         243         244         260         259
         4         244         245         261         260
         4         245         246         262         261
         4         246         247         263         262
         4         247         248         264         263
         4         248         249         265         264
         4         249         250         266         265
         4         250         251         267         266
         4         251         252         268         267
         4         252         253         269         268
         4         253         254         270         269
         4         254         255         271         270
         4         256         257         273         272
         4         257         258         274         273
         4         258         259         275         274
         4         259         260         276         275
         4         260         261         277         276
         4         261         262         278         277
         4         262         263         279         278
         4         263         264         280         279
         4         264         265         281         280
         4         265         266         282         281
         4         266         267         283         282
         4         267         268         284         283
         4         268         269         285         284
         4         269         270         286         285
         4         270         271         287         286
         4         272         273         289         288
         4         273         274         290         289
         4         274         275         291         290
         4         275         276         292         291
         4         276         277         293         292
         4         277         278         294         293
         4         278         279         295         294
         4         279         280         296         295
         4         280         281         297         296
         4         281         282         298         297
         4         282         283         299         298
         4         283         284         300         299
         4         284         285         301         300
         4         285         286         302         301
         4         286         287         303         302
         4         288         289         305         304
         4         289         290         306         305
         4         290         291         307         306
         4         291         292         308         307
         4         292         293         309         308
         4         293         294         310         309
         4         294         295         311         310
         4         295         296         312         311
         4         296         297         313         312
         4         297         298         314         313
         4         298         299         315         314
         4         299         300         316         315
         4         300         301         317         316
         4         301         302         318         317
         4         302         303         319         318
         4         304         305         321         320
         4         305         306         322         321
         4         306         307         323         322
         4         307         308         324         323
         4         308         309         325         324
         4         309         310         326         325
         4         310         311         327         326
         4         311         312         328         327
         4         312         313         329         328
         4         313         314         330         329
         4         314         315         331         330
         4         315         316         332         331
         4         316         317         333         332
         4         317         318         334         333
         4         318         319         335         334
         4         320         321         337         336
         4         321         322         338         337
         4         322         323         339         338
         4         323         324         340         339
         4         324         325         341         340
         4         325         326         342         341
         4         326         327         343         342
         4         327         328         344         343
         4         328         329         345         344
         4         329         330         346         345
         4         330         331         347         346
         4         331         332         348         347
         4         332         333         349         348
         4         333         334         350         349
         4         334         335         351         350
         4         336         337         353         352
         4         337         338         354         353
         4         338         339         355         354
         4         339         340         356         355
         4         340         341         357         356
         4         341         342         358         357
         4         342         343         359         358
         4         343         344         360         359
         4         344         345         361         360
         4         345         346         362         361
         4         346         347         363         362
         4         347         348         364         363
         4         348         349         365         364
         4         349         350         366         365
         4         350         351         367         366
         4         352         353         369         368
         4         353         354         370         369
         4         354         355         371         370
         4         355         356         372         371
         4         356         357         373         372
         4         357         358         374         373
         4         358         359         375         374
         4         359         360         376         375
         4         360         361         377         376
         4         361         362         378         377
         4         362         363         379         378
         4         363         364         380         379
         4         364         365         381         380
         4         365         366         382         381
         4         366         367         383         382
         4         368         369         385         384
         4         369         370         386         385
         4         370         371         387         386
         4         371         372         388         387
         4         372         373         389         388
         4         373         374         390         389
         4         374         375         391         390
         4         375         376         392         391
         4         376         377         393         392
         4         377         378         394         393
         4         378         379         395         394
         4         379         380         396         395
         4         380         381         397         396
         4         381         382         398         397
         4         382         383         399         398
         4         384         385         401         400
         4         385         386         402         401
         4         386         387         403         402
         4         387         388         404         403
         4         388         389         405         404
         4         389         390         406         405
         4         390         391         407         406
         4         391         392         408         407
         4         392         393         409         408
         4         393         394         410         409
         4         394         395         411         410
         4         395         396         412         411
         4         396         397         413         412
         4         397         398         414         413
         4         398         399         415         414
         4         400         401         417         416
         4         401         402         418         417
         4         402         403         419         418
         4         403         404         420         419
         4         404         405         421         420
         4         405         406         422         421
         4         406         407         423         422
         4         407         408         424         423
         4         408         409         425         424
         4         409         410         426         425
         4         410         411         427         426
         4         411         412         428         427
         4         412         413         429         428
         4         413         414         430         429
         4         414         415         431         430
         4         416         417         433         432
         4         417         418         434         433
         4         418         419         435         434
         4         419         420         436         435
         4         420         421         437         436
         4         421         422         438         437
         4         422         423         439         438
         4         423         424         440         439
         4         424         425         441         440
         4         425         426         442         441
         4         426         427         443         442
         4         427         428         444         443
         4         428         429         445         444
         4         429         430         446         445
         4         430         431         447         446
         4         432         433         449         448
         4         433         434         450         449
         4         434         435         451         450
         4         435         436         452         451
         4         436         437         453         452
         4         437         438         454         453
         4         438         439         455         454
         4         439         440         456         455
         4         440         441         457         456
         4         441         442         458         457
         4         442         443         459         458
         4         443         444         460         459
         4         444         445         461         460
         4         445         446         462         461
         4         446         447         463         462
         4         448         449         465         464
         4         449         450         466         465
         4         450         451         467         466
         4         451         452         468         467
         4         452         453         469         468
         4         453         454         470         469
         4         454         455         471         470
         4         455         456         472         471
         4         456         457         473         472
         4         457         458         474         473
         4         458         459         475         474
         4         459         460         476         475
         4         460         461         477         476
         4         461         462         478         477
         4         462         463         479         478
         4         464         465         481         480
         4         465         466         482         481
         4         466         467         483         482
         4         467         468         484         483
         4         468         469         485         484
         4         469         470         486         485
         4         470         471         487         486
         4         471         472         488         487
         4         472         473         489         488
         4         473         474         490         489
         4         474         475         491         490
         4         475         476         492         491
         4         476         477         493         492
         4         477         478         494         493
         4         478         479         495         494
CELL_TYPES        450
9
9
9
9
9
9
9
9
9
9
9
9
9
9
9
9
9
9
9
9
9
9
9
9
9
9
9
9
9
9
9
9
9
9
9
9
9
9
9
9
9
9
9
9
9
9
9
9
9
9
9
9
9
9
9
9
9
9
9
9
9
9
9
9
9
9
9
9
9
9
9
9
9
9
9
9
9
9
9
9
9
9
9
9
9
9
9
9
9
9
9
9
9
9
9
9
9
9
9
9
9
9
9
9
9
9
9
9
9
9
9
9
9
9
9
9
9
9
9
9
9
9
9
9
9
9
9
9
9
9
9
9
9
9
9
9
9
9
9
9
9
9
9
9
9
9
9
9
9
9
9
9
9
9
9
9
9
9
9
9
9
9
9
9
9
9
9
9
9
9
9
9
9
9
9
9
9
9
9
9
9
9
9
9
9
9
9
9
9
9
9
9
9
9
9
9
9
9
9
9
9
9
9
9
9
9
9
9
9
9
9
9
9
9
9
9
9
9
9
9
9
9
9
9
9
9
9
9
9
9
9
9
9
9
9
9
9
9
9
9
9
9
9
9
9
9
9
9
9
9
9
9
9
9
9
9
9
9
9
9
9
9
9
9
9
9
9
9
9
9
9
9
9
9
9
9
9
9
9
9
9
9
9
9
9
9
9
9
9
9
9
9
9
9
9
9
9
9
9
9
9
9
9
9
9
9
9
9
9
9
9
9
9
9
9
9
9
9
9
9
9
9
9
9
9
9
9
9
9
9
9
9
9
9
9
9
9
9
9
9
9
9
9
9
9
9
9
9
9
9
9
9
9
9
9
9
9
9
9
9
9
9
9
9
9
9
9
9
9
9
9
9
9
9
9
9
9
9
9
9
9
9
9
9
9
9
9
9
9
9
9
9
9
9
9
9
9
9
9
9
9
9
9
9
9
9
9
9
9
9
9
9
9
9
9
9
9
9
9
9
9
9
9
9
9
9
9
9
9
9
9
9
9
9
9
9
9
9
9
9
9
9
9
9
9
9
9
9
9
9
POINT_DATA       496
SCALARS p double 
LOOKUP_TABLE default
   37429396.8144229     
   37425331.6542463     
   37414212.6832096     
   37397457.1694288     
   37376391.6670974     
   37352252.5519243     
   37326188.9334139     
   37299267.3848851     
   37272477.9899344     
   37246741.2598501     
   37222915.5298488     
   37201804.4926757     
   37184164.5760230     
   37170711.9154843     
   37162128.7175920     
   37159068.8481510     
   37391009.4536478     
   37386946.2667150     
   37375834.9852246     
   37359094.2836063     
   37338051.0394298     
   37313941.1098565     
   37287912.4557063     
   37261030.0561172     
   37234282.1147514     
   37208587.1144004     
   37184801.3302129     
   37163726.4623650     
   37146117.0967502     
   37132687.7473203     
   37124119.2762983     
   37121064.5289304     
   37275929.1714292     
   37271872.2958218     
   37260785.1114527     
   37244090.3330814     
   37223115.6570581     
   37199095.2580210     
   37173173.5454575     
   37146410.6293838     
   37119789.0028997     
   37094221.0055668     
   37070556.6849665     
   37049591.7241485     
   37032075.1499644     
   37018716.5816705     
   37010192.8210424     
   37007153.6249785     
   37084402.5753548     
   37080357.5149916     
   37069313.8959766     
   37052700.5743828     
   37031846.1094731     
   37007981.4514966     
   36982244.7428328     
   36955687.6923353     
   36929283.0421496     
   36903932.7030106     
   36880476.1874923     
   36859699.0206189     
   36842340.8536772     
   36829103.0502849     
   36820655.5542858     
   36817642.8874861     
   36816844.6681193     
   36812818.8401572     
   36801843.2731486     
   36785354.1863805     
   36764680.3032835     
   36741047.1872107     
   36715583.4848334     
   36689328.5521111     
   36663240.9986608     
   36638207.7438995     
   36615053.2319077     
   36594548.5012694     
   36577419.8512610     
   36564356.8871519     
   36556019.7657935     
   36553045.4990501     
   36473844.7138292     
   36469848.1512998     
   36458971.9749293     
   36442659.7778607     
   36422238.7283006     
   36398925.9906072     
   36373836.7882626     
   36347993.6036350     
   36322336.0723833     
   36297731.1891123     
   36274983.4946395     
   36254844.9636421     
   36238024.3546851     
   36225195.8233574     
   36217006.6345456     
   36214083.8431314     
   36056174.2163251     
   36052220.2080244     
   36041483.2721545     
   36025412.8621838     
   36005331.5926175     
   35982444.1575460     
   35957847.5640984     
   35932542.2009521     
   35907443.3279206     
   35883392.6331098     
   35861169.5581809     
   35841502.1394425     
   35825077.1531056     
   35812549.3879900     
   35804549.8998192     
   35801693.1299340     
   35564796.7820863     
   35560902.4316120     
   35550354.5316171     
   35534605.0697697     
   35514967.5956567     
   35492629.0180948     
   35468662.3272174     
   35444039.7926652     
   35419646.2591133     
   35396292.2232528     
   35374726.4308558     
   35355647.7781425     
   35339716.3386928     
   35327563.3668924     
   35319800.1534863     
   35317025.6309722     
   35000879.5853425     
   34997066.2709553     
   34986768.3054802     
   34971434.8131721     
   34952364.0512920     
   34930718.4308626     
   34907540.0061042     
   34883766.0218363     
   34860244.1835427     
   34837747.3810591     
   34816987.6521243     
   34798629.2155644     
   34783300.4360978     
   34771604.6053888     
   34764129.4398884     
   34761455.2089512     
   34365806.1055493     
   34362099.8221690     
   34352124.6214486     
   34337319.0705821     
   34318958.0230454     
   34298171.1649339     
   34275961.5038710     
   34253223.4355987     
   34230760.1062613     
   34209299.8593864     
   34189511.6131037     
   34172019.0540736     
   34157413.5604570     
   34146265.7793005     
   34139135.7877605     
   34136581.7677351     
   33661189.7689308     
   33657621.3330234     
   33648054.1028616     
   33633905.9132449     
   33616418.0914469     
   33596677.7826020     
   33575639.6158390     
   33554146.4013038     
   33532948.6413382     
   33512722.7167224     
   33494087.6674381     
   33477620.5251503     
   33463870.1721117     
   33453369.7014015     
   33446647.2413967     
   33444235.1899169     
   32888888.0978900     
   32885493.1951872     
   32876431.5188925     
   32863087.3718869     
   32846656.3412609     
   32828171.6012158     
   32808528.8712011     
   32788509.7853233     
   32768803.5362099     
   32750026.7435477     
   32732741.5592486     
   32717472.0550648     
   32704718.9450924     
   32694972.6787685     
   32688724.9063693     
   32686478.2776533     
   32051016.9561757     
   32047836.0110411     
   32039389.3477957     
   32027012.2181960     
   32011840.1346692     
   31994839.2876534     
   31976834.8379010     
   31958536.9185269     
   31940564.3081568     
   31923465.8368899     
   31907739.6534291     
   31893850.5109452     
   31882245.2216954     
   31873366.3910851     
   31867664.4795210     
   31865608.1668580     
   31149964.4751945     
   31147042.3189359     
   31139330.9319556     
   31128098.2309076     
   31114403.2267208     
   31099130.6251118     
   31083022.4115644     
   31066706.3496243     
   31050721.4751505     
   31035540.7883991     
   31021591.4197657     
   31009272.5685422     
   30998971.4880760     
   30991077.7218440     
   30985995.6946308     
   30984155.6465786     
   30188404.2591712     
   30185789.5726025     
   30178942.8136668     
   30169043.5232011     
   30157055.7822425     
   30143766.9896266     
   30129822.6015090     
   30115756.8743570     
   30102019.8452500     
   30089000.9291418     
   30077049.5970504     
   30066493.6154113     
   30057655.2767939     
   30050865.9447291     
   30046479.0853632     
   30044881.7856825     
   29169307.4954738     
   29167051.9984248     
   29161205.8663258     
   29152836.5297384     
   29142792.8693002     
   29131748.0829618     
   29120237.3293069     
   29108690.3247799     
   29097459.3198006     
   29086843.0613351     
   29077107.4474180     
   29068503.5852915     
   29061283.8831184     
   29055716.6478432     
   29052099.4474911     
   29050771.2495064     
   28095953.6431128     
   28094111.0001091     
   28089404.8782466     
   28082764.2882262     
   28074901.0328087     
   28066356.4882062     
   28057541.7668304     
   28048771.6076217     
   28040292.6655840     
   28032307.1039389     
   28024992.5058225     
   28018519.1129132     
   28013065.2746948     
   28008831.7710545     
   28006055.3751575     
   28005021.6821278     
   26971939.4396031     
   26970563.8460870     
   26967136.3068438     
   26962418.7015729     
   26956962.5911935     
   26951159.6417131     
   26945283.7581757     
   26939525.4917351     
   26934019.7189654     
   26928867.8860970     
   26924156.2368570     
   26919971.4060998     
   26916414.5819670     
   26913615.1396553     
   26911744.2541422     
   26911028.5383894     
   25801186.0578327     
   25800330.4639806     
   25798314.0007550     
   25795700.5310038     
   25792857.3447315     
   25790008.8438641     
   25787279.8873397     
   25784729.6577155     
   25782377.4995429     
   25780222.5412983     
   25778259.0345656     
   25776489.2584213     
   25774935.5842399     
   25773652.9050928     
   25772742.1226645     
   25772364.7775704     
   24587944.3667668     
   24587658.2839249     
   24587172.7880896     
   24586820.9438764     
   24586761.4272430     
   24587034.9497557     
   24587607.7600182     
   24588403.5306846     
   24589325.7299564     
   24590272.9890140     
   24591150.0471236     
   24591876.6786620     
   24592396.6607229     
   24592688.3566369     
   24592777.8619790     
   24592754.8821013     
   23336798.4143903     
   23337125.2277206     
   23338269.9520590     
   23340300.5136104     
   23343143.0552291     
   23346640.3673569     
   23350594.0440144     
   23354792.4083485     
   23359027.2806670     
   23363103.0466402     
   23366841.3898383     
   23370084.7066492     
   23372700.7686706     
   23374590.6542618     
   23375701.2599068     
   23376042.7441283     
   22052667.4800111     
   22053641.1504792     
   22056484.7624214     
   22060965.6246623     
   22066754.8957763     
   22073486.9051545     
   22080797.7255699     
   22088346.3531550     
   22095823.0839156     
   22102949.8080522     
   22109476.4504147     
   22115177.1424997     
   22119849.1598168     
   22123317.1623679     
   22125444.6039133     
   22126153.0716502     
   20740807.3776268     
   20742448.3369757     
   20747016.4027386     
   20753942.2341093     
   20762622.6202621     
   20772478.7830593     
   20782987.8349930     
   20793693.2152461     
   20804201.0956824     
   20814169.0861112     
   20823292.2330069     
   20831290.1803907     
   20837898.7809929     
   20842869.2476531     
   20845977.6042048     
   20847046.0981921     
   19406812.2151785     
   19409122.0963996     
   19415380.8229859     
   19424646.7997353     
   19436028.8073814     
   19448739.6273351     
   19462114.4934944     
   19475604.9635011     
   19488758.9469647     
   19501195.0000254     
   19512576.1080320     
   19522586.3836924     
   19530913.6757565     
   19537241.6559170     
   19541255.6053551     
   19542665.5106790     
   18056618.6975609     
   18059573.2050563     
   18067407.2216190     
   18078773.7143569     
   18092490.4585603     
   18107581.3128081     
   18123271.4299092     
   18138956.2064213     
   18154160.0580747     
   18168494.2822211     
   18181618.0583050     
   18193204.1999398     
   18202911.3074981     
   18210365.9218839     
   18215161.1703905     
   18216879.5713941     
   16696516.6828704     
   16700055.1588712     
   16709234.8881904     
   16722277.3384324     
   16737726.5126577     
   16754460.8042901     
   16771647.0275811     
   16788673.4159848     
   16805083.2638302     
   16820516.6959050     
   16834660.7165227     
   16847205.5374595     
   16857805.7653501     
   16866048.7475063     
   16871439.0987973     
   16873415.2412891     
   15333172.9845076     
   15337181.4190347     
   15347310.5108458     
   15361343.5634052     
   15377608.0153273     
   15394918.3951712     
   15412459.5908606     
   15429673.0942931     
   15446166.5203312     
   15461644.1355270     
   15475851.3710889     
   15488526.2158913     
   15499351.8257437     
   15507907.0759468     
   15513624.5412604     
   15515784.2619184     
   13973682.7536618     
   13977962.2570372     
   13988382.6410287     
   14002337.9210439     
   14018076.6280151     
   14034487.2233592     
   14050871.4974823     
   14066787.4011423     
   14081946.1121413     
   14096142.3711666     
   14109202.4104338     
   14120938.1768404     
   14131097.9598648     
   14139303.7856785     
   14144962.1998789     
   14147197.8967985     
   12625684.2191098     
   12629877.5534152     
   12639476.5480414     
   12651696.5487476     
   12665007.3532743     
   12678561.7149954     
   12691878.0132770     
   12704677.3540481     
   12716793.9171825     
   12728120.2262841     
   12738568.5105342     
   12748036.6767534     
   12756368.5246776     
   12763292.6127201     
   12768313.5743941     
   12770455.4540299     
   11297621.4081644     
   11301029.6497861     
   11307753.3850703     
   11315692.0814057     
   11323986.2603850     
   11332218.1052182     
   11340172.3373650     
   11347737.3404803     
   11354856.4317294     
   11361500.0688495     
   11367647.0324700     
   11373267.9737743     
   11378305.2492744     
   11382638.6221857     
   11386007.7730374     
   11387798.6950715     
   10000000.0000000     
   10000000.0000000     
   10000000.0000000     
   10000000.0000000     
   10000000.0000000     
   10000000.0000000     
   10000000.0000000     
   10000000.0000000     
   10000000.0000000     
   10000000.0000000     
   10000000.0000000     
   10000000.0000000     
   10000000.0000000     
  10000000.00000000     
   10000000.0000000     
   10000000.0000000     
VECTORS u double 
    0.00000E+00        -0.27634E-01         0.00000E+00
    0.00000E+00        -0.25681E-01         0.00000E+00
    0.00000E+00        -0.23747E-01         0.00000E+00
    0.00000E+00        -0.21828E-01         0.00000E+00
    0.00000E+00        -0.19924E-01         0.00000E+00
    0.00000E+00        -0.18032E-01         0.00000E+00
    0.00000E+00        -0.16153E-01         0.00000E+00
    0.00000E+00        -0.14286E-01         0.00000E+00
    0.00000E+00        -0.12432E-01         0.00000E+00
    0.00000E+00        -0.10592E-01         0.00000E+00
    0.00000E+00        -0.87687E-02         0.00000E+00
    0.00000E+00        -0.69638E-02         0.00000E+00
    0.00000E+00        -0.51806E-02         0.00000E+00
    0.00000E+00        -0.34227E-02         0.00000E+00
    0.00000E+00        -0.16943E-02         0.00000E+00
    0.00000E+00         0.00000E+00         0.00000E+00
    0.90428E-03        -0.27676E-01         0.00000E+00
    0.82270E-03        -0.25721E-01         0.00000E+00
    0.74733E-03        -0.23785E-01         0.00000E+00
    0.67748E-03        -0.21864E-01         0.00000E+00
    0.61245E-03        -0.19957E-01         0.00000E+00
    0.55146E-03        -0.18063E-01         0.00000E+00
    0.49377E-03        -0.16181E-01         0.00000E+00
    0.43861E-03        -0.14311E-01         0.00000E+00
    0.38520E-03        -0.12454E-01         0.00000E+00
    0.33281E-03        -0.10612E-01         0.00000E+00
    0.28069E-03        -0.87852E-02         0.00000E+00
    0.22814E-03        -0.69772E-02         0.00000E+00
    0.17445E-03        -0.51908E-02         0.00000E+00
    0.11895E-03        -0.34296E-02         0.00000E+00
    0.61012E-04        -0.16978E-02         0.00000E+00
    0.00000E+00         0.00000E+00         0.00000E+00
    0.18029E-02        -0.27804E-01         0.00000E+00
    0.16400E-02        -0.25842E-01         0.00000E+00
    0.14896E-02        -0.23898E-01         0.00000E+00
    0.13503E-02        -0.21970E-01         0.00000E+00
    0.12206E-02        -0.20056E-01         0.00000E+00
    0.10990E-02        -0.18154E-01         0.00000E+00
    0.98404E-03        -0.16264E-01         0.00000E+00
    0.87411E-03        -0.14387E-01         0.00000E+00
    0.76772E-03        -0.12521E-01         0.00000E+00
    0.66334E-03        -0.10670E-01         0.00000E+00
    0.55950E-03        -0.88347E-02         0.00000E+00
    0.45478E-03        -0.70174E-02         0.00000E+00
    0.34778E-03        -0.52215E-02         0.00000E+00
    0.23717E-03        -0.34504E-02         0.00000E+00
    0.12166E-03        -0.17083E-02         0.00000E+00
    0.00000E+00         0.00000E+00         0.00000E+00
    0.26901E-02        -0.28015E-01         0.00000E+00
    0.24466E-02        -0.26042E-01         0.00000E+00
    0.22218E-02        -0.24087E-01         0.00000E+00
    0.20137E-02        -0.22147E-01         0.00000E+00
    0.18201E-02        -0.20221E-01         0.00000E+00
    0.16387E-02        -0.18306E-01         0.00000E+00
    0.14673E-02        -0.16403E-01         0.00000E+00
    0.13034E-02        -0.14512E-01         0.00000E+00
    0.11448E-02        -0.12633E-01         0.00000E+00
    0.98929E-03        -0.10767E-01         0.00000E+00
    0.83453E-03        -0.89170E-02         0.00000E+00
    0.67843E-03        -0.70843E-02         0.00000E+00
    0.51889E-03        -0.52724E-02         0.00000E+00
    0.35391E-03        -0.34849E-02         0.00000E+00
    0.18157E-03        -0.17259E-02         0.00000E+00
    0.00000E+00         0.00000E+00         0.00000E+00
    0.35603E-02        -0.28311E-01         0.00000E+00
    0.32369E-02        -0.26322E-01         0.00000E+00
    0.29388E-02        -0.24351E-01         0.00000E+00
    0.26630E-02        -0.22394E-01         0.00000E+00
    0.24067E-02        -0.20451E-01         0.00000E+00
    0.21667E-02        -0.18519E-01         0.00000E+00
    0.19400E-02        -0.16598E-01         0.00000E+00
    0.17235E-02        -0.14688E-01         0.00000E+00
    0.15139E-02        -0.12789E-01         0.00000E+00
    0.13084E-02        -0.10903E-01         0.00000E+00
    0.11039E-02        -0.90318E-02         0.00000E+00
    0.89760E-03        -0.71776E-02         0.00000E+00
    0.68667E-03        -0.53435E-02         0.00000E+00
    0.46846E-03        -0.35330E-02         0.00000E+00
    0.24039E-03        -0.17503E-02         0.00000E+00
    0.00000E+00         0.00000E+00         0.00000E+00
    0.44076E-02        -0.28689E-01         0.00000E+00
    0.40056E-02        -0.26680E-01         0.00000E+00
    0.36355E-02        -0.24688E-01         0.00000E+00
    0.32935E-02        -0.22710E-01         0.00000E+00
    0.29760E-02        -0.20745E-01         0.00000E+00
    0.26791E-02        -0.18791E-01         0.00000E+00
    0.23988E-02        -0.16846E-01         0.00000E+00
    0.21311E-02        -0.14912E-01         0.00000E+00
    0.18723E-02        -0.12988E-01         0.00000E+00
    0.16184E-02        -0.11077E-01         0.00000E+00
    0.13658E-02        -0.91788E-02         0.00000E+00
    0.11108E-02        -0.72970E-02         0.00000E+00
    0.85005E-03        -0.54345E-02         0.00000E+00
    0.58009E-03        -0.35946E-02         0.00000E+00
    0.29776E-03        -0.17816E-02         0.00000E+00
    0.00000E+00         0.00000E+00         0.00000E+00
    0.52262E-02        -0.29148E-01         0.00000E+00
    0.47472E-02        -0.27115E-01         0.00000E+00
    0.43068E-02        -0.25098E-01         0.00000E+00
    0.39005E-02        -0.23095E-01         0.00000E+00
    0.35238E-02        -0.21103E-01         0.00000E+00
    0.31719E-02        -0.19121E-01         0.00000E+00
    0.28400E-02        -0.17148E-01         0.00000E+00
    0.25234E-02        -0.15185E-01         0.00000E+00
    0.22173E-02        -0.13231E-01         0.00000E+00
    0.19171E-02        -0.11288E-01         0.00000E+00
    0.16184E-02        -0.93574E-02         0.00000E+00
    0.13167E-02        -0.74421E-02         0.00000E+00
    0.10080E-02        -0.55450E-02         0.00000E+00
    0.68810E-03        -0.36694E-02         0.00000E+00
    0.35334E-03        -0.18196E-02         0.00000E+00
    0.00000E+00         0.00000E+00         0.00000E+00
    0.60103E-02        -0.29688E-01         0.00000E+00
    0.54561E-02        -0.27626E-01         0.00000E+00
    0.49475E-02        -0.25579E-01         0.00000E+00
    0.44792E-02        -0.23546E-01         0.00000E+00
    0.40457E-02        -0.21523E-01         0.00000E+00
    0.36413E-02        -0.19509E-01         0.00000E+00
    0.32603E-02        -0.17503E-01         0.00000E+00
    0.28972E-02        -0.15505E-01         0.00000E+00
    0.25464E-02        -0.13515E-01         0.00000E+00
    0.22023E-02        -0.11535E-01         0.00000E+00
    0.18598E-02        -0.95669E-02         0.00000E+00
    0.15138E-02        -0.76124E-02         0.00000E+00
    0.11593E-02        -0.56746E-02         0.00000E+00
    0.79182E-03        -0.37572E-02         0.00000E+00
    0.40679E-03        -0.18642E-02         0.00000E+00
    0.00000E+00         0.00000E+00         0.00000E+00
    0.67538E-02        -0.30305E-01         0.00000E+00
    0.61267E-02        -0.28210E-01         0.00000E+00
    0.55525E-02        -0.26130E-01         0.00000E+00
    0.50249E-02        -0.24062E-01         0.00000E+00
    0.45373E-02        -0.22003E-01         0.00000E+00
    0.40834E-02        -0.19953E-01         0.00000E+00
    0.36563E-02        -0.17908E-01         0.00000E+00
    0.32496E-02        -0.15871E-01         0.00000E+00
    0.28569E-02        -0.13841E-01         0.00000E+00
    0.24718E-02        -0.11819E-01         0.00000E+00
    0.20884E-02        -0.98066E-02         0.00000E+00
    0.17007E-02        -0.78070E-02         0.00000E+00
    0.13032E-02        -0.58228E-02         0.00000E+00
    0.89057E-03        -0.38576E-02         0.00000E+00
    0.45778E-03        -0.19151E-02         0.00000E+00
    0.00000E+00         0.00000E+00         0.00000E+00
    0.74506E-02        -0.30998E-01         0.00000E+00
    0.67534E-02        -0.28866E-01         0.00000E+00
    0.61165E-02        -0.26749E-01         0.00000E+00
    0.55327E-02        -0.24642E-01         0.00000E+00
    0.49945E-02        -0.22543E-01         0.00000E+00
    0.44943E-02        -0.20451E-01         0.00000E+00
    0.40245E-02        -0.18364E-01         0.00000E+00
    0.35776E-02        -0.16282E-01         0.00000E+00
    0.31463E-02        -0.14206E-01         0.00000E+00
    0.27235E-02        -0.12136E-01         0.00000E+00
    0.23023E-02        -0.10075E-01         0.00000E+00
    0.18760E-02        -0.80253E-02         0.00000E+00
    0.14385E-02        -0.59891E-02         0.00000E+00
    0.98372E-03        -0.39701E-02         0.00000E+00
    0.50600E-03        -0.19722E-02         0.00000E+00
    0.00000E+00         0.00000E+00         0.00000E+00
    0.80946E-02        -0.31764E-01         0.00000E+00
    0.73304E-02        -0.29591E-01         0.00000E+00
    0.66343E-02        -0.27432E-01         0.00000E+00
    0.59980E-02        -0.25282E-01         0.00000E+00
    0.54129E-02        -0.23139E-01         0.00000E+00
    0.48703E-02        -0.21001E-01         0.00000E+00
    0.43615E-02        -0.18866E-01         0.00000E+00
    0.38783E-02        -0.16736E-01         0.00000E+00
    0.34122E-02        -0.14609E-01         0.00000E+00
    0.29553E-02        -0.12487E-01         0.00000E+00
    0.24999E-02        -0.10372E-01         0.00000E+00
    0.20386E-02        -0.82663E-02         0.00000E+00
    0.15644E-02        -0.61726E-02         0.00000E+00
    0.10707E-02        -0.40943E-02         0.00000E+00
    0.55116E-03        -0.20353E-02         0.00000E+00
    0.00000E+00         0.00000E+00         0.00000E+00
    0.86794E-02        -0.32599E-01         0.00000E+00
    0.78519E-02        -0.30382E-01         0.00000E+00
    0.71006E-02        -0.28177E-01         0.00000E+00
    0.64159E-02        -0.25980E-01         0.00000E+00
    0.57881E-02        -0.23789E-01         0.00000E+00
    0.52074E-02        -0.21601E-01         0.00000E+00
    0.46641E-02        -0.19414E-01         0.00000E+00
    0.41488E-02        -0.17230E-01         0.00000E+00
    0.36521E-02        -0.15048E-01         0.00000E+00
    0.31652E-02        -0.12869E-01         0.00000E+00
    0.26796E-02        -0.10695E-01         0.00000E+00
    0.21870E-02        -0.85289E-02         0.00000E+00
    0.16799E-02        -0.63725E-02         0.00000E+00
    0.11508E-02        -0.42296E-02         0.00000E+00
    0.59297E-03        -0.21040E-02         0.00000E+00
    0.00000E+00         0.00000E+00         0.00000E+00
    0.91987E-02        -0.33500E-01         0.00000E+00
    0.83121E-02        -0.31236E-01         0.00000E+00
    0.75101E-02        -0.28981E-01         0.00000E+00
    0.67817E-02        -0.26734E-01         0.00000E+00
    0.61161E-02        -0.24490E-01         0.00000E+00
    0.55021E-02        -0.22247E-01         0.00000E+00
    0.49290E-02        -0.20005E-01         0.00000E+00
    0.43862E-02        -0.17763E-01         0.00000E+00
    0.38636E-02        -0.15521E-01         0.00000E+00
    0.33512E-02        -0.13281E-01         0.00000E+00
    0.28397E-02        -0.11044E-01         0.00000E+00
    0.23201E-02        -0.88117E-02         0.00000E+00
    0.17841E-02        -0.65878E-02         0.00000E+00
    0.12236E-02        -0.43753E-02         0.00000E+00
    0.63118E-03        -0.21779E-02         0.00000E+00
    0.00000E+00         0.00000E+00         0.00000E+00
    0.96459E-02        -0.34463E-01         0.00000E+00
    0.87050E-02        -0.32147E-01         0.00000E+00
    0.78574E-02        -0.29840E-01         0.00000E+00
    0.70906E-02        -0.27538E-01         0.00000E+00
    0.63925E-02        -0.25238E-01         0.00000E+00
    0.57506E-02        -0.22938E-01         0.00000E+00
    0.51529E-02        -0.20636E-01         0.00000E+00
    0.45879E-02        -0.18332E-01         0.00000E+00
    0.40443E-02        -0.16026E-01         0.00000E+00
    0.35114E-02        -0.13720E-01         0.00000E+00
    0.29787E-02        -0.11415E-01         0.00000E+00
    0.24367E-02        -0.91133E-02         0.00000E+00
    0.18761E-02        -0.68174E-02         0.00000E+00
    0.12884E-02        -0.45306E-02         0.00000E+00
    0.66551E-03        -0.22568E-02         0.00000E+00
    0.00000E+00         0.00000E+00         0.00000E+00
    0.10014E-01        -0.35482E-01         0.00000E+00
    0.90247E-02        -0.33112E-01         0.00000E+00
    0.81372E-02        -0.30749E-01         0.00000E+00
    0.73380E-02        -0.28389E-01         0.00000E+00
    0.66132E-02        -0.26030E-01         0.00000E+00
    0.59492E-02        -0.23668E-01         0.00000E+00
    0.53328E-02        -0.21302E-01         0.00000E+00
    0.47512E-02        -0.18933E-01         0.00000E+00
    0.41921E-02        -0.16560E-01         0.00000E+00
    0.36438E-02        -0.14184E-01         0.00000E+00
    0.30951E-02        -0.11808E-01         0.00000E+00
    0.25356E-02        -0.94319E-02         0.00000E+00
    0.19553E-02        -0.70599E-02         0.00000E+00
    0.13448E-02        -0.46947E-02         0.00000E+00
    0.69574E-03        -0.23401E-02         0.00000E+00
    0.00000E+00         0.00000E+00         0.00000E+00
    0.10298E-01        -0.36552E-01         0.00000E+00
    0.92653E-02        -0.34125E-01         0.00000E+00
    0.83443E-02        -0.31703E-01         0.00000E+00
    0.75191E-02        -0.29283E-01         0.00000E+00
    0.67741E-02        -0.26860E-01         0.00000E+00
    0.60945E-02        -0.24433E-01         0.00000E+00
    0.54655E-02        -0.22001E-01         0.00000E+00
    0.48734E-02        -0.19563E-01         0.00000E+00
    0.43046E-02        -0.17119E-01         0.00000E+00
    0.37467E-02        -0.14670E-01         0.00000E+00
    0.31874E-02        -0.12218E-01         0.00000E+00
    0.26156E-02        -0.97654E-02         0.00000E+00
    0.20206E-02        -0.73138E-02         0.00000E+00
    0.13923E-02        -0.48666E-02         0.00000E+00
    0.72160E-03        -0.24273E-02         0.00000E+00
    0.00000E+00         0.00000E+00         0.00000E+00
    0.10488E-01        -0.37666E-01         0.00000E+00
    0.94207E-02        -0.35179E-01         0.00000E+00
    0.84734E-02        -0.32696E-01         0.00000E+00
    0.76294E-02        -0.30212E-01         0.00000E+00
    0.68714E-02        -0.27724E-01         0.00000E+00
    0.61830E-02        -0.25229E-01         0.00000E+00
    0.55482E-02        -0.22727E-01         0.00000E+00
    0.49519E-02        -0.20217E-01         0.00000E+00
    0.43798E-02        -0.17699E-01         0.00000E+00
    0.38181E-02        -0.15175E-01         0.00000E+00
    0.32541E-02        -0.12645E-01         0.00000E+00
    0.26756E-02        -0.10112E-01         0.00000E+00
    0.20712E-02        -0.75773E-02         0.00000E+00
    0.14303E-02        -0.50450E-02         0.00000E+00
    0.74287E-03        -0.25179E-02         0.00000E+00
    0.00000E+00         0.00000E+00         0.00000E+00
    0.10581E-01        -0.38818E-01         0.00000E+00
    0.94850E-02        -0.36269E-01         0.00000E+00
    0.85195E-02        -0.33722E-01         0.00000E+00
    0.76645E-02        -0.31171E-01         0.00000E+00
    0.69012E-02        -0.28614E-01         0.00000E+00
    0.62114E-02        -0.26049E-01         0.00000E+00
    0.55779E-02        -0.23475E-01         0.00000E+00
    0.49843E-02        -0.20890E-01         0.00000E+00
    0.44153E-02        -0.18296E-01         0.00000E+00
    0.38563E-02        -0.15694E-01         0.00000E+00
    0.32936E-02        -0.13084E-01         0.00000E+00
    0.27143E-02        -0.10468E-01         0.00000E+00
    0.21063E-02        -0.78486E-02         0.00000E+00
    0.14581E-02        -0.52286E-02         0.00000E+00
    0.75926E-03        -0.26112E-02         0.00000E+00
    0.00000E+00         0.00000E+00         0.00000E+00
    0.10567E-01        -0.39998E-01         0.00000E+00
    0.94524E-02        -0.37385E-01         0.00000E+00
    0.84775E-02        -0.34772E-01         0.00000E+00
    0.76202E-02        -0.32153E-01         0.00000E+00
    0.68598E-02        -0.29525E-01         0.00000E+00
    0.61766E-02        -0.26887E-01         0.00000E+00
    0.55519E-02        -0.24238E-01         0.00000E+00
    0.49682E-02        -0.21577E-01         0.00000E+00
    0.44091E-02        -0.18905E-01         0.00000E+00
    0.38593E-02        -0.16223E-01         0.00000E+00
    0.33043E-02        -0.13531E-01         0.00000E+00
    0.27304E-02        -0.10831E-01         0.00000E+00
    0.21248E-02        -0.81252E-02         0.00000E+00
    0.14753E-02        -0.54161E-02         0.00000E+00
    0.77046E-03        -0.27065E-02         0.00000E+00
    0.00000E+00         0.00000E+00         0.00000E+00
    0.10440E-01        -0.41198E-01         0.00000E+00
    0.93173E-02        -0.38519E-01         0.00000E+00
    0.83426E-02        -0.35838E-01         0.00000E+00
    0.74925E-02        -0.33148E-01         0.00000E+00
    0.67440E-02        -0.30448E-01         0.00000E+00
    0.60757E-02        -0.27735E-01         0.00000E+00
    0.54676E-02        -0.25010E-01         0.00000E+00
    0.49011E-02        -0.22271E-01         0.00000E+00
    0.43590E-02        -0.19520E-01         0.00000E+00
    0.38251E-02        -0.16756E-01         0.00000E+00
    0.32844E-02        -0.13982E-01         0.00000E+00
    0.27224E-02        -0.11198E-01         0.00000E+00
    0.21255E-02        -0.84048E-02         0.00000E+00
    0.14808E-02        -0.56057E-02         0.00000E+00
    0.77608E-03        -0.28030E-02         0.00000E+00
    0.00000E+00         0.00000E+00         0.00000E+00
    0.10195E-01        -0.42406E-01         0.00000E+00
    0.90741E-02        -0.39661E-01         0.00000E+00
    0.81106E-02        -0.36909E-01         0.00000E+00
    0.72777E-02        -0.34147E-01         0.00000E+00
    0.65506E-02        -0.31372E-01         0.00000E+00
    0.59060E-02        -0.28584E-01         0.00000E+00
    0.53225E-02        -0.25781E-01         0.00000E+00
    0.47807E-02        -0.22964E-01         0.00000E+00
    0.42626E-02        -0.20133E-01         0.00000E+00
    0.37515E-02        -0.17289E-01         0.00000E+00
    0.32318E-02        -0.14433E-01         0.00000E+00
    0.26884E-02        -0.11564E-01         0.00000E+00
    0.21071E-02        -0.86844E-02         0.00000E+00
    0.14739E-02        -0.57956E-02         0.00000E+00
    0.77564E-03        -0.28998E-02         0.00000E+00
    0.00000E+00         0.00000E+00         0.00000E+00
    0.98241E-02        -0.43612E-01         0.00000E+00
    0.87178E-02        -0.40798E-01         0.00000E+00
    0.77772E-02        -0.37976E-01         0.00000E+00
    0.69727E-02        -0.35140E-01         0.00000E+00
    0.62769E-02        -0.32289E-01         0.00000E+00
    0.56650E-02        -0.29424E-01         0.00000E+00
    0.51143E-02        -0.26543E-01         0.00000E+00
    0.46047E-02        -0.23648E-01         0.00000E+00
    0.41176E-02        -0.20738E-01         0.00000E+00
    0.36361E-02        -0.17814E-01         0.00000E+00
    0.31442E-02        -0.14877E-01         0.00000E+00
    0.26263E-02        -0.11925E-01         0.00000E+00
    0.20676E-02        -0.89608E-02         0.00000E+00
    0.14531E-02        -0.59837E-02         0.00000E+00
    0.76847E-03        -0.29959E-02         0.00000E+00
    0.00000E+00         0.00000E+00         0.00000E+00
    0.93213E-02        -0.44801E-01         0.00000E+00
    0.82437E-02        -0.41919E-01         0.00000E+00
    0.73390E-02        -0.39024E-01         0.00000E+00
    0.65747E-02        -0.36113E-01         0.00000E+00
    0.59207E-02        -0.33186E-01         0.00000E+00
    0.53506E-02        -0.30244E-01         0.00000E+00
    0.48408E-02        -0.27285E-01         0.00000E+00
    0.43705E-02        -0.24313E-01         0.00000E+00
    0.39213E-02        -0.21326E-01         0.00000E+00
    0.34760E-02        -0.18324E-01         0.00000E+00
    0.30186E-02        -0.15309E-01         0.00000E+00
    0.25334E-02        -0.12277E-01         0.00000E+00
    0.20047E-02        -0.92305E-02         0.00000E+00
    0.14167E-02        -0.61679E-02         0.00000E+00
    0.75369E-03        -0.30903E-02         0.00000E+00
    0.00000E+00         0.00000E+00         0.00000E+00
    0.86810E-02        -0.45959E-01         0.00000E+00
    0.76475E-02        -0.43007E-01         0.00000E+00
    0.67933E-02        -0.40039E-01         0.00000E+00
    0.60817E-02        -0.37053E-01         0.00000E+00
    0.54803E-02        -0.34049E-01         0.00000E+00
    0.49611E-02        -0.31030E-01         0.00000E+00
    0.44998E-02        -0.27995E-01         0.00000E+00
    0.40757E-02        -0.24947E-01         0.00000E+00
    0.36706E-02        -0.21886E-01         0.00000E+00
    0.32677E-02        -0.18811E-01         0.00000E+00
    0.28515E-02        -0.15721E-01         0.00000E+00
    0.24060E-02        -0.12614E-01         0.00000E+00
    0.19154E-02        -0.94896E-02         0.00000E+00
    0.13626E-02        -0.63456E-02         0.00000E+00
    0.73007E-03        -0.31819E-02         0.00000E+00
    0.00000E+00         0.00000E+00         0.00000E+00
    0.78977E-02        -0.47069E-01         0.00000E+00
    0.69262E-02        -0.44047E-01         0.00000E+00
    0.61381E-02        -0.41005E-01         0.00000E+00
    0.54926E-02        -0.37943E-01         0.00000E+00
    0.49547E-02        -0.34863E-01         0.00000E+00
    0.44950E-02        -0.31768E-01         0.00000E+00
    0.40892E-02        -0.28660E-01         0.00000E+00
    0.37173E-02        -0.25540E-01         0.00000E+00
    0.33619E-02        -0.22408E-01         0.00000E+00
    0.30072E-02        -0.19264E-01         0.00000E+00
    0.26383E-02        -0.16106E-01         0.00000E+00
    0.22399E-02        -0.12930E-01         0.00000E+00
    0.17956E-02        -0.97337E-02         0.00000E+00
    0.12875E-02        -0.65142E-02         0.00000E+00
    0.69592E-03        -0.32695E-02         0.00000E+00
    0.00000E+00         0.00000E+00         0.00000E+00
    0.69668E-02        -0.48110E-01         0.00000E+00
    0.60772E-02        -0.45018E-01         0.00000E+00
    0.53728E-02        -0.41903E-01         0.00000E+00
    0.48075E-02        -0.38765E-01         0.00000E+00
    0.43436E-02        -0.35610E-01         0.00000E+00
    0.39512E-02        -0.32442E-01         0.00000E+00
    0.36070E-02        -0.29263E-01         0.00000E+00
    0.32922E-02        -0.26076E-01         0.00000E+00
    0.29911E-02        -0.22880E-01         0.00000E+00
    0.26894E-02        -0.19674E-01         0.00000E+00
    0.23736E-02        -0.16455E-01         0.00000E+00
    0.20291E-02        -0.13218E-01         0.00000E+00
    0.16399E-02        -0.99580E-02         0.00000E+00
    0.11872E-02        -0.66708E-02         0.00000E+00
    0.64890E-03        -0.33518E-02         0.00000E+00
    0.00000E+00         0.00000E+00         0.00000E+00
    0.58841E-02        -0.49060E-01         0.00000E+00
    0.50998E-02        -0.45899E-01         0.00000E+00
    0.44984E-02        -0.42710E-01         0.00000E+00
    0.40275E-02        -0.39498E-01         0.00000E+00
    0.36472E-02        -0.36270E-01         0.00000E+00
    0.33287E-02        -0.33033E-01         0.00000E+00
    0.30506E-02        -0.29790E-01         0.00000E+00
    0.27966E-02        -0.26543E-01         0.00000E+00
    0.25532E-02        -0.23291E-01         0.00000E+00
    0.23084E-02        -0.20031E-01         0.00000E+00
    0.20504E-02        -0.16759E-01         0.00000E+00
    0.17664E-02        -0.13471E-01         0.00000E+00
    0.14413E-02        -0.10157E-01         0.00000E+00
    0.10560E-02        -0.68120E-02         0.00000E+00
    0.58563E-03        -0.34276E-02         0.00000E+00
    0.00000E+00         0.00000E+00         0.00000E+00
    0.46463E-02        -0.49894E-01         0.00000E+00
    0.39954E-02        -0.46664E-01         0.00000E+00
    0.35182E-02        -0.43401E-01         0.00000E+00
    0.31550E-02        -0.40116E-01         0.00000E+00
    0.28662E-02        -0.36821E-01         0.00000E+00
    0.26259E-02        -0.33522E-01         0.00000E+00
    0.24167E-02        -0.30223E-01         0.00000E+00
    0.22257E-02        -0.26925E-01         0.00000E+00
    0.20423E-02        -0.23626E-01         0.00000E+00
    0.18571E-02        -0.20323E-01         0.00000E+00
    0.16608E-02        -0.17010E-01         0.00000E+00
    0.14430E-02        -0.13680E-01         0.00000E+00
    0.11906E-02        -0.10325E-01         0.00000E+00
    0.88557E-03        -0.69342E-02         0.00000E+00
    0.50115E-03        -0.34952E-02         0.00000E+00
    0.00000E+00         0.00000E+00         0.00000E+00
    0.32513E-02        -0.50576E-01         0.00000E+00
    0.27688E-02        -0.47277E-01         0.00000E+00
    0.24380E-02        -0.43943E-01         0.00000E+00
    0.21931E-02        -0.40592E-01         0.00000E+00
    0.20001E-02        -0.37239E-01         0.00000E+00
    0.18401E-02        -0.33890E-01         0.00000E+00
    0.17010E-02        -0.30548E-01         0.00000E+00
    0.15739E-02        -0.27211E-01         0.00000E+00
    0.14516E-02        -0.23876E-01         0.00000E+00
    0.13277E-02        -0.20541E-01         0.00000E+00
    0.11958E-02        -0.17198E-01         0.00000E+00
    0.10484E-02        -0.13839E-01         0.00000E+00
    0.87607E-03        -0.10455E-01         0.00000E+00
    0.66438E-03        -0.70324E-02         0.00000E+00
    0.38762E-03        -0.35528E-02         0.00000E+00
    0.00000E+00         0.00000E+00         0.00000E+00
    0.16986E-02        -0.51060E-01         0.00000E+00
    0.14315E-02        -0.47694E-01         0.00000E+00
    0.12650E-02        -0.44296E-01         0.00000E+00
    0.11427E-02        -0.40895E-01         0.00000E+00
    0.10466E-02        -0.37502E-01         0.00000E+00
    0.96704E-03        -0.34119E-01         0.00000E+00
    0.89784E-03        -0.30749E-01         0.00000E+00
    0.83454E-03        -0.27387E-01         0.00000E+00
    0.77354E-03        -0.24031E-01         0.00000E+00
    0.71161E-03        -0.20676E-01         0.00000E+00
    0.64546E-03        -0.17314E-01         0.00000E+00
    0.57127E-03        -0.13939E-01         0.00000E+00
    0.48398E-03        -0.10538E-01         0.00000E+00
    0.37556E-03        -0.70984E-02         0.00000E+00
    0.23092E-03        -0.35972E-02         0.00000E+00
    0.00000E+00         0.00000E+00         0.00000E+00
    0.00000E+00        -0.51266E-01         0.00000E+00
    0.00000E+00        -0.47848E-01         0.00000E+00
    0.00000E+00        -0.44420E-01         0.00000E+00
    0.00000E+00        -0.40999E-01         0.00000E+00
    0.00000E+00        -0.37591E-01         0.00000E+00
    0.00000E+00        -0.34198E-01         0.00000E+00
    0.00000E+00        -0.30817E-01         0.00000E+00
    0.00000E+00        -0.27447E-01         0.00000E+00
    0.00000E+00        -0.24083E-01         0.00000E+00
    0.00000E+00        -0.20721E-01         0.00000E+00
    0.00000E+00        -0.17354E-01         0.00000E+00
    0.00000E+00        -0.13973E-01         0.00000E+00
    0.00000E+00        -0.10567E-01         0.00000E+00
    0.00000E+00        -0.71221E-02         0.00000E+00
    0.00000E+00        -0.36158E-02         0.00000E+00
    0.00000E+00         0.00000E+00         0.00000E+00
CELL_DATA        450
VECTORS vDarcy double 
    0.27394E-09        -0.29004E-10         0.00000E+00
    0.27389E-09        -0.79318E-10         0.00000E+00
    0.27380E-09        -0.11951E-09         0.00000E+00
    0.27366E-09        -0.15023E-09         0.00000E+00
    0.27346E-09        -0.17213E-09         0.00000E+00
    0.27322E-09        -0.18584E-09         0.00000E+00
    0.27295E-09        -0.19193E-09         0.00000E+00
    0.27265E-09        -0.19098E-09         0.00000E+00
    0.27235E-09        -0.18346E-09         0.00000E+00
    0.27205E-09        -0.16983E-09         0.00000E+00
    0.27177E-09        -0.15047E-09         0.00000E+00
    0.27152E-09        -0.12573E-09         0.00000E+00
    0.27132E-09        -0.95879E-10         0.00000E+00
    0.27118E-09        -0.61173E-10         0.00000E+00
    0.27110E-09        -0.21808E-10         0.00000E+00
    0.82123E-09        -0.28974E-10         0.00000E+00
    0.82108E-09        -0.79204E-10         0.00000E+00
    0.82080E-09        -0.11929E-09         0.00000E+00
    0.82035E-09        -0.14991E-09         0.00000E+00
    0.81975E-09        -0.17171E-09         0.00000E+00
    0.81902E-09        -0.18533E-09         0.00000E+00
    0.81818E-09        -0.19137E-09         0.00000E+00
    0.81728E-09        -0.19038E-09         0.00000E+00
    0.81635E-09        -0.18286E-09         0.00000E+00
    0.81544E-09        -0.16925E-09         0.00000E+00
    0.81459E-09        -0.14995E-09         0.00000E+00
    0.81385E-09        -0.12529E-09         0.00000E+00
    0.81324E-09        -0.95543E-10         0.00000E+00
    0.81281E-09        -0.60961E-10         0.00000E+00
    0.81258E-09        -0.21734E-10         0.00000E+00
    0.13667E-08        -0.28909E-10         0.00000E+00
    0.13665E-08        -0.78962E-10         0.00000E+00
    0.13660E-08        -0.11884E-09         0.00000E+00
    0.13652E-08        -0.14923E-09         0.00000E+00
    0.13641E-08        -0.17083E-09         0.00000E+00
    0.13629E-08        -0.18428E-09         0.00000E+00
    0.13614E-08        -0.19020E-09         0.00000E+00
    0.13599E-08        -0.18915E-09         0.00000E+00
    0.13583E-08        -0.18163E-09         0.00000E+00
    0.13567E-08        -0.16807E-09         0.00000E+00
    0.13553E-08        -0.14889E-09         0.00000E+00
    0.13540E-08        -0.12439E-09         0.00000E+00
    0.13530E-08        -0.94859E-10         0.00000E+00
    0.13523E-08        -0.60529E-10         0.00000E+00
    0.13519E-08        -0.21584E-10         0.00000E+00
    0.19092E-08        -0.28797E-10         0.00000E+00
    0.19088E-08        -0.78561E-10         0.00000E+00
    0.19081E-08        -0.11810E-09         0.00000E+00
    0.19069E-08        -0.14815E-09         0.00000E+00
    0.19054E-08        -0.16944E-09         0.00000E+00
    0.19035E-08        -0.18265E-09         0.00000E+00
    0.19014E-08        -0.18839E-09         0.00000E+00
    0.18991E-08        -0.18724E-09         0.00000E+00
    0.18968E-08        -0.17971E-09         0.00000E+00
    0.18945E-08        -0.16625E-09         0.00000E+00
    0.18924E-08        -0.14724E-09         0.00000E+00
    0.18906E-08        -0.12300E-09         0.00000E+00
    0.18891E-08        -0.93803E-10         0.00000E+00
    0.18880E-08        -0.59862E-10         0.00000E+00
    0.18875E-08        -0.21352E-10         0.00000E+00
    0.24475E-08        -0.28623E-10         0.00000E+00
    0.24469E-08        -0.77962E-10         0.00000E+00
    0.24458E-08        -0.11702E-09         0.00000E+00
    0.24442E-08        -0.14660E-09         0.00000E+00
    0.24420E-08        -0.16747E-09         0.00000E+00
    0.24395E-08        -0.18033E-09         0.00000E+00
    0.24366E-08        -0.18584E-09         0.00000E+00
    0.24335E-08        -0.18457E-09         0.00000E+00
    0.24304E-08        -0.17705E-09         0.00000E+00
    0.24273E-08        -0.16372E-09         0.00000E+00
    0.24245E-08        -0.14496E-09         0.00000E+00
    0.24220E-08        -0.12108E-09         0.00000E+00
    0.24200E-08        -0.92341E-10         0.00000E+00
    0.24186E-08        -0.58939E-10         0.00000E+00
    0.24179E-08        -0.21031E-10         0.00000E+00
    0.29802E-08        -0.28366E-10         0.00000E+00
    0.29794E-08        -0.77107E-10         0.00000E+00
    0.29779E-08        -0.11552E-09         0.00000E+00
    0.29757E-08        -0.14448E-09         0.00000E+00
    0.29728E-08        -0.16480E-09         0.00000E+00
    0.29695E-08        -0.17723E-09         0.00000E+00
    0.29657E-08        -0.18244E-09         0.00000E+00
    0.29617E-08        -0.18104E-09         0.00000E+00
    0.29576E-08        -0.17354E-09         0.00000E+00
    0.29537E-08        -0.16039E-09         0.00000E+00
    0.29501E-08        -0.14197E-09         0.00000E+00
    0.29469E-08        -0.11857E-09         0.00000E+00
    0.29444E-08        -0.90429E-10         0.00000E+00
    0.29425E-08        -0.57733E-10         0.00000E+00
    0.29416E-08        -0.20611E-10         0.00000E+00
    0.35059E-08        -0.28000E-10         0.00000E+00
    0.35048E-08        -0.75932E-10         0.00000E+00
    0.35028E-08        -0.11351E-09         0.00000E+00
    0.35000E-08        -0.14168E-09         0.00000E+00
    0.34963E-08        -0.16132E-09         0.00000E+00
    0.34920E-08        -0.17322E-09         0.00000E+00
    0.34872E-08        -0.17808E-09         0.00000E+00
    0.34821E-08        -0.17652E-09         0.00000E+00
    0.34770E-08        -0.16907E-09         0.00000E+00
    0.34721E-08        -0.15617E-09         0.00000E+00
    0.34676E-08        -0.13818E-09         0.00000E+00
    0.34636E-08        -0.11539E-09         0.00000E+00
    0.34605E-08        -0.88017E-10         0.00000E+00
    0.34582E-08        -0.56212E-10         0.00000E+00
    0.34570E-08        -0.20082E-10         0.00000E+00
    0.40231E-08        -0.27496E-10         0.00000E+00
    0.40218E-08        -0.74362E-10         0.00000E+00
    0.40192E-08        -0.11088E-09         0.00000E+00
    0.40156E-08        -0.13807E-09         0.00000E+00
    0.40109E-08        -0.15688E-09         0.00000E+00
    0.40055E-08        -0.16815E-09         0.00000E+00
    0.39996E-08        -0.17261E-09         0.00000E+00
    0.39933E-08        -0.17089E-09         0.00000E+00
    0.39870E-08        -0.16352E-09         0.00000E+00
    0.39810E-08        -0.15095E-09         0.00000E+00
    0.39755E-08        -0.13351E-09         0.00000E+00
    0.39707E-08        -0.11148E-09         0.00000E+00
    0.39668E-08        -0.85046E-10         0.00000E+00
    0.39641E-08        -0.54340E-10         0.00000E+00
    0.39626E-08        -0.19430E-10         0.00000E+00
    0.45304E-08        -0.26824E-10         0.00000E+00
    0.45287E-08        -0.72314E-10         0.00000E+00
    0.45255E-08        -0.10750E-09         0.00000E+00
    0.45209E-08        -0.13351E-09         0.00000E+00
    0.45152E-08        -0.15134E-09         0.00000E+00
    0.45085E-08        -0.16188E-09         0.00000E+00
    0.45012E-08        -0.16588E-09         0.00000E+00
    0.44936E-08        -0.16400E-09         0.00000E+00
    0.44860E-08        -0.15676E-09         0.00000E+00
    0.44788E-08        -0.14460E-09         0.00000E+00
    0.44721E-08        -0.12785E-09         0.00000E+00
    0.44664E-08        -0.10674E-09         0.00000E+00
    0.44617E-08        -0.81458E-10         0.00000E+00
    0.44585E-08        -0.52080E-10         0.00000E+00
    0.44567E-08        -0.18643E-10         0.00000E+00
    0.50261E-08        -0.25948E-10         0.00000E+00
    0.50239E-08        -0.69703E-10         0.00000E+00
    0.50199E-08        -0.10327E-09         0.00000E+00
    0.50143E-08        -0.12785E-09         0.00000E+00
    0.50073E-08        -0.14453E-09         0.00000E+00
    0.49992E-08        -0.15423E-09         0.00000E+00
    0.49905E-08        -0.15774E-09         0.00000E+00
    0.49814E-08        -0.15570E-09         0.00000E+00
    0.49724E-08        -0.14865E-09         0.00000E+00
    0.49638E-08        -0.13701E-09         0.00000E+00
    0.49559E-08        -0.12109E-09         0.00000E+00
    0.49491E-08        -0.10111E-09         0.00000E+00
    0.49436E-08        -0.77191E-10         0.00000E+00
    0.49398E-08        -0.49393E-10         0.00000E+00
    0.49378E-08        -0.17707E-10         0.00000E+00
    0.55084E-08        -0.24835E-10         0.00000E+00
    0.55057E-08        -0.66439E-10         0.00000E+00
    0.55009E-08        -0.98047E-10         0.00000E+00
    0.54940E-08        -0.12096E-09         0.00000E+00
    0.54856E-08        -0.13631E-09         0.00000E+00
    0.54760E-08        -0.14507E-09         0.00000E+00
    0.54657E-08        -0.14803E-09         0.00000E+00
    0.54549E-08        -0.14586E-09         0.00000E+00
    0.54443E-08        -0.13907E-09         0.00000E+00
    0.54343E-08        -0.12808E-09         0.00000E+00
    0.54251E-08        -0.11316E-09         0.00000E+00
    0.54172E-08        -0.94500E-10         0.00000E+00
    0.54108E-08        -0.72190E-10         0.00000E+00
    0.54064E-08        -0.46245E-10         0.00000E+00
    0.54040E-08        -0.16610E-10         0.00000E+00
    0.59754E-08        -0.23451E-10         0.00000E+00
    0.59722E-08        -0.62437E-10         0.00000E+00
    0.59664E-08        -0.91723E-10         0.00000E+00
    0.59583E-08        -0.11269E-09         0.00000E+00
    0.59483E-08        -0.12654E-09         0.00000E+00
    0.59370E-08        -0.13424E-09         0.00000E+00
    0.59249E-08        -0.13663E-09         0.00000E+00
    0.59125E-08        -0.13435E-09         0.00000E+00
    0.59002E-08        -0.12791E-09         0.00000E+00
    0.58886E-08        -0.11770E-09         0.00000E+00
    0.58780E-08        -0.10396E-09         0.00000E+00
    0.58689E-08        -0.86846E-10         0.00000E+00
    0.58616E-08        -0.66404E-10         0.00000E+00
    0.58565E-08        -0.42603E-10         0.00000E+00
    0.58538E-08        -0.15341E-10         0.00000E+00
    0.64252E-08        -0.21763E-10         0.00000E+00
    0.64215E-08        -0.57616E-10         0.00000E+00
    0.64146E-08        -0.84185E-10         0.00000E+00
    0.64051E-08        -0.10293E-09         0.00000E+00
    0.63935E-08        -0.11507E-09         0.00000E+00
    0.63804E-08        -0.12163E-09         0.00000E+00
    0.63665E-08        -0.12341E-09         0.00000E+00
    0.63522E-08        -0.12107E-09         0.00000E+00
    0.63382E-08        -0.11508E-09         0.00000E+00
    0.63249E-08        -0.10580E-09         0.00000E+00
    0.63129E-08        -0.93435E-10         0.00000E+00
    0.63025E-08        -0.78098E-10         0.00000E+00
    0.62943E-08        -0.59795E-10         0.00000E+00
    0.62885E-08        -0.38445E-10         0.00000E+00
    0.62854E-08        -0.13890E-10         0.00000E+00
    0.68559E-08        -0.19742E-10         0.00000E+00
    0.68515E-08        -0.51906E-10         0.00000E+00
    0.68435E-08        -0.75343E-10         0.00000E+00
    0.68325E-08        -0.91566E-10         0.00000E+00
    0.68192E-08        -0.10183E-09         0.00000E+00
    0.68042E-08        -0.10714E-09         0.00000E+00
    0.67884E-08        -0.10831E-09         0.00000E+00
    0.67723E-08        -0.10596E-09         0.00000E+00
    0.67564E-08        -0.10053E-09         0.00000E+00
    0.67415E-08        -0.92333E-10         0.00000E+00
    0.67280E-08        -0.81546E-10         0.00000E+00
    0.67165E-08        -0.68229E-10         0.00000E+00
    0.67072E-08        -0.52342E-10         0.00000E+00
    0.67007E-08        -0.33754E-10         0.00000E+00
    0.66973E-08        -0.12253E-10         0.00000E+00
    0.72652E-08        -0.17363E-10         0.00000E+00
    0.72601E-08        -0.45251E-10         0.00000E+00
    0.72509E-08        -0.65127E-10         0.00000E+00
    0.72384E-08        -0.78540E-10         0.00000E+00
    0.72233E-08        -0.86745E-10         0.00000E+00
    0.72066E-08        -0.90742E-10         0.00000E+00
    0.71888E-08        -0.91302E-10         0.00000E+00
    0.71708E-08        -0.89003E-10         0.00000E+00
    0.71532E-08        -0.84251E-10         0.00000E+00
    0.71367E-08        -0.77305E-10         0.00000E+00
    0.71218E-08        -0.68297E-10         0.00000E+00
    0.71090E-08        -0.57240E-10         0.00000E+00
    0.70988E-08        -0.44045E-10         0.00000E+00
    0.70916E-08        -0.28530E-10         0.00000E+00
    0.70879E-08        -0.10428E-10         0.00000E+00
    0.76509E-08        -0.14609E-10         0.00000E+00
    0.76452E-08        -0.37615E-10         0.00000E+00
    0.76348E-08        -0.53504E-10         0.00000E+00
    0.76208E-08        -0.63829E-10         0.00000E+00
    0.76040E-08        -0.69825E-10         0.00000E+00
    0.75854E-08        -0.72448E-10         0.00000E+00
    0.75658E-08        -0.72418E-10         0.00000E+00
    0.75460E-08        -0.70253E-10         0.00000E+00
    0.75268E-08        -0.66303E-10         0.00000E+00
    0.75087E-08        -0.60772E-10         0.00000E+00
    0.74925E-08        -0.53739E-10         0.00000E+00
    0.74785E-08        -0.45172E-10         0.00000E+00
    0.74674E-08        -0.34932E-10         0.00000E+00
    0.74596E-08        -0.22788E-10         0.00000E+00
    0.74555E-08        -0.84182E-11         0.00000E+00
    0.80109E-08        -0.11471E-10         0.00000E+00
    0.80045E-08        -0.28990E-10         0.00000E+00
    0.79930E-08        -0.40482E-10         0.00000E+00
    0.79775E-08        -0.47471E-10         0.00000E+00
    0.79590E-08        -0.51135E-10         0.00000E+00
    0.79387E-08        -0.52358E-10         0.00000E+00
    0.79175E-08        -0.51780E-10         0.00000E+00
    0.78961E-08        -0.49842E-10         0.00000E+00
    0.78754E-08        -0.46822E-10         0.00000E+00
    0.78560E-08        -0.42861E-10         0.00000E+00
    0.78385E-08        -0.37986E-10         0.00000E+00
    0.78236E-08        -0.32114E-10         0.00000E+00
    0.78117E-08        -0.25065E-10         0.00000E+00
    0.78033E-08        -0.16563E-10         0.00000E+00
    0.77989E-08        -0.62347E-11         0.00000E+00
    0.83427E-08        -0.79514E-11         0.00000E+00
    0.83357E-08        -0.19401E-10         0.00000E+00
    0.83231E-08        -0.26126E-10         0.00000E+00
    0.83063E-08        -0.29576E-10         0.00000E+00
    0.82864E-08        -0.30831E-10         0.00000E+00
    0.82647E-08        -0.30665E-10         0.00000E+00
    0.82420E-08        -0.29609E-10         0.00000E+00
    0.82193E-08        -0.28003E-10         0.00000E+00
    0.81974E-08        -0.26039E-10         0.00000E+00
    0.81769E-08        -0.23788E-10         0.00000E+00
    0.81585E-08        -0.21220E-10         0.00000E+00
    0.81428E-08        -0.18212E-10         0.00000E+00
    0.81302E-08        -0.14547E-10         0.00000E+00
    0.81214E-08        -0.99128E-11         0.00000E+00
    0.81167E-08        -0.38952E-11         0.00000E+00
    0.86441E-08        -0.40681E-11         0.00000E+00
    0.86366E-08        -0.89151E-11         0.00000E+00
    0.86231E-08        -0.10566E-10         0.00000E+00
    0.86051E-08        -0.10343E-10         0.00000E+00
    0.85841E-08        -0.91752E-11         0.00000E+00
    0.85612E-08        -0.76829E-11         0.00000E+00
    0.85376E-08        -0.62516E-11         0.00000E+00
    0.85140E-08        -0.50953E-11         0.00000E+00
    0.84913E-08        -0.43034E-11         0.00000E+00
    0.84702E-08        -0.38713E-11         0.00000E+00
    0.84512E-08        -0.37171E-11         0.00000E+00
    0.84349E-08        -0.36834E-11         0.00000E+00
    0.84219E-08        -0.35312E-11         0.00000E+00
    0.84128E-08        -0.29265E-11         0.00000E+00
    0.84079E-08        -0.14265E-11         0.00000E+00
    0.89128E-08         0.14511E-12         0.00000E+00
    0.89048E-08         0.23487E-11         0.00000E+00
    0.88906E-08         0.59808E-11         0.00000E+00
    0.88718E-08         0.99153E-11         0.00000E+00
    0.88500E-08         0.13435E-10         0.00000E+00
    0.88266E-08         0.16127E-10         0.00000E+00
    0.88025E-08         0.17793E-10         0.00000E+00
    0.87786E-08         0.18374E-10         0.00000E+00
    0.87558E-08         0.17897E-10         0.00000E+00
    0.87345E-08         0.16444E-10         0.00000E+00
    0.87154E-08         0.14145E-10         0.00000E+00
    0.86990E-08         0.11174E-10         0.00000E+00
    0.86859E-08         0.77730E-11         0.00000E+00
    0.86766E-08         0.42760E-11         0.00000E+00
    0.86717E-08         0.11348E-11         0.00000E+00
    0.91463E-08         0.46325E-11         0.00000E+00
    0.91380E-08         0.14207E-10         0.00000E+00
    0.91233E-08         0.23195E-10         0.00000E+00
    0.91042E-08         0.30749E-10         0.00000E+00
    0.90824E-08         0.36440E-10         0.00000E+00
    0.90590E-08         0.40129E-10         0.00000E+00
    0.90352E-08         0.41848E-10         0.00000E+00
    0.90119E-08         0.41723E-10         0.00000E+00
    0.89896E-08         0.39909E-10         0.00000E+00
    0.89689E-08         0.36570E-10         0.00000E+00
    0.89503E-08         0.31864E-10         0.00000E+00
    0.89343E-08         0.25965E-10         0.00000E+00
    0.89215E-08         0.19089E-10         0.00000E+00
    0.89123E-08         0.11536E-10         0.00000E+00
    0.89074E-08         0.37407E-11         0.00000E+00
    0.93423E-08         0.93123E-11         0.00000E+00
    0.93339E-08         0.26398E-10         0.00000E+00
    0.93193E-08         0.40628E-10         0.00000E+00
    0.93004E-08         0.51538E-10         0.00000E+00
    0.92792E-08         0.59085E-10         0.00000E+00
    0.92569E-08         0.63474E-10         0.00000E+00
    0.92345E-08         0.65022E-10         0.00000E+00
    0.92126E-08         0.64063E-10         0.00000E+00
    0.91919E-08         0.60894E-10         0.00000E+00
    0.91727E-08         0.55748E-10         0.00000E+00
    0.91554E-08         0.48799E-10         0.00000E+00
    0.91404E-08         0.40185E-10         0.00000E+00
    0.91283E-08         0.30061E-10         0.00000E+00
    0.91195E-08         0.18652E-10         0.00000E+00
    0.91148E-08         0.63303E-11         0.00000E+00
    0.94984E-08         0.14069E-10         0.00000E+00
    0.94902E-08         0.38555E-10         0.00000E+00
    0.94762E-08         0.57663E-10         0.00000E+00
    0.94585E-08         0.71449E-10         0.00000E+00
    0.94390E-08         0.80371E-10         0.00000E+00
    0.94189E-08         0.85063E-10         0.00000E+00
    0.93990E-08         0.86177E-10         0.00000E+00
    0.93799E-08         0.84277E-10         0.00000E+00
    0.93619E-08         0.79799E-10         0.00000E+00
    0.93453E-08         0.73034E-10         0.00000E+00
    0.93303E-08         0.64145E-10         0.00000E+00
    0.93171E-08         0.53202E-10         0.00000E+00
    0.93063E-08         0.40246E-10         0.00000E+00
    0.92984E-08         0.25371E-10         0.00000E+00
    0.92940E-08         0.88285E-11         0.00000E+00
    0.96122E-08         0.18743E-10         0.00000E+00
    0.96047E-08         0.50178E-10         0.00000E+00
    0.95920E-08         0.73466E-10         0.00000E+00
    0.95765E-08         0.89372E-10         0.00000E+00
    0.95601E-08         0.99001E-10         0.00000E+00
    0.95437E-08         0.10350E-09         0.00000E+00
    0.95280E-08         0.10390E-09         0.00000E+00
    0.95132E-08         0.10099E-09         0.00000E+00
    0.94994E-08         0.95341E-10         0.00000E+00
    0.94867E-08         0.87275E-10         0.00000E+00
    0.94751E-08         0.76918E-10         0.00000E+00
    0.94648E-08         0.64233E-10         0.00000E+00
    0.94561E-08         0.49090E-10         0.00000E+00
    0.94494E-08         0.31377E-10         0.00000E+00
    0.94457E-08         0.11143E-10         0.00000E+00
    0.96813E-08         0.23114E-10         0.00000E+00
    0.96749E-08         0.60569E-10         0.00000E+00
    0.96647E-08         0.86900E-10         0.00000E+00
    0.96530E-08         0.10384E-09         0.00000E+00
    0.96414E-08         0.11331E-09         0.00000E+00
    0.96307E-08         0.11706E-09         0.00000E+00
    0.96210E-08         0.11648E-09         0.00000E+00
    0.96123E-08         0.11257E-09         0.00000E+00
    0.96044E-08         0.10600E-09         0.00000E+00
    0.95972E-08         0.97106E-10         0.00000E+00
    0.95904E-08         0.85937E-10         0.00000E+00
    0.95841E-08         0.72322E-10         0.00000E+00
    0.95783E-08         0.55907E-10         0.00000E+00
    0.95736E-08         0.36277E-10         0.00000E+00
    0.95707E-08         0.13159E-10         0.00000E+00
    0.97031E-08         0.26861E-10         0.00000E+00
    0.96987E-08         0.68728E-10         0.00000E+00
    0.96924E-08         0.96379E-10         0.00000E+00
    0.96866E-08         0.11290E-09         0.00000E+00
    0.96822E-08         0.12120E-09         0.00000E+00
    0.96793E-08         0.12364E-09         0.00000E+00
    0.96779E-08         0.12191E-09         0.00000E+00
    0.96773E-08         0.11715E-09         0.00000E+00
    0.96772E-08         0.11007E-09         0.00000E+00
    0.96772E-08         0.10095E-09         0.00000E+00
    0.96769E-08         0.89806E-10         0.00000E+00
    0.96759E-08         0.76299E-10         0.00000E+00
    0.96743E-08         0.59822E-10         0.00000E+00
    0.96723E-08         0.39558E-10         0.00000E+00
    0.96707E-08         0.14729E-10         0.00000E+00
    0.96747E-08         0.29493E-10         0.00000E+00
    0.96735E-08         0.73133E-10         0.00000E+00
    0.96735E-08         0.99614E-10         0.00000E+00
    0.96763E-08         0.11391E-09         0.00000E+00
    0.96820E-08         0.12003E-09         0.00000E+00
    0.96899E-08         0.12077E-09         0.00000E+00
    0.96992E-08         0.11794E-09         0.00000E+00
    0.97090E-08         0.11269E-09         0.00000E+00
    0.97188E-08         0.10565E-09         0.00000E+00
    0.97278E-08         0.97085E-10         0.00000E+00
    0.97356E-08         0.86917E-10         0.00000E+00
    0.97417E-08         0.74724E-10         0.00000E+00
    0.97457E-08         0.59684E-10         0.00000E+00
    0.97474E-08         0.40510E-10         0.00000E+00
    0.97477E-08         0.15653E-10         0.00000E+00
    0.95926E-08         0.30146E-10         0.00000E+00
    0.95968E-08         0.71235E-10         0.00000E+00
    0.96068E-08         0.93149E-10         0.00000E+00
    0.96224E-08         0.10339E-09         0.00000E+00
    0.96419E-08         0.10665E-09         0.00000E+00
    0.96636E-08         0.10572E-09         0.00000E+00
    0.96862E-08         0.10222E-09         0.00000E+00
    0.97086E-08         0.97096E-10         0.00000E+00
    0.97301E-08         0.90861E-10         0.00000E+00
    0.97501E-08         0.83694E-10         0.00000E+00
    0.97679E-08         0.75493E-10         0.00000E+00
    0.97828E-08         0.65839E-10         0.00000E+00
    0.97943E-08         0.53872E-10         0.00000E+00
    0.98015E-08         0.38027E-10         0.00000E+00
    0.98045E-08         0.15588E-10         0.00000E+00
    0.94516E-08         0.27042E-10         0.00000E+00
    0.94658E-08         0.58073E-10         0.00000E+00
    0.94924E-08         0.71729E-10         0.00000E+00
    0.95263E-08         0.76882E-10         0.00000E+00
    0.95639E-08         0.77533E-10         0.00000E+00
    0.96026E-08         0.75704E-10         0.00000E+00
    0.96409E-08         0.72483E-10         0.00000E+00
    0.96778E-08         0.68469E-10         0.00000E+00
    0.97128E-08         0.63967E-10         0.00000E+00
    0.97452E-08         0.59076E-10         0.00000E+00
    0.97747E-08         0.53717E-10         0.00000E+00
    0.98005E-08         0.47596E-10         0.00000E+00
    0.98219E-08         0.40080E-10         0.00000E+00
    0.98375E-08         0.29873E-10         0.00000E+00
    0.98451E-08         0.14003E-10         0.00000E+00
    0.92430E-08         0.12123E-10         0.00000E+00
    0.92805E-08         0.23919E-10         0.00000E+00
    0.93338E-08         0.28245E-10         0.00000E+00
    0.93925E-08         0.29512E-10         0.00000E+00
    0.94521E-08         0.29293E-10         0.00000E+00
    0.95104E-08         0.28307E-10         0.00000E+00
    0.95662E-08         0.26924E-10         0.00000E+00
    0.96190E-08         0.25338E-10         0.00000E+00
    0.96685E-08         0.23647E-10         0.00000E+00
    0.97145E-08         0.21880E-10         0.00000E+00
    0.97568E-08         0.20009E-10         0.00000E+00
    0.97952E-08         0.17932E-10         0.00000E+00
    0.98290E-08         0.15427E-10         0.00000E+00
    0.98570E-08         0.11995E-10         0.00000E+00
    0.98761E-08         0.63765E-11         0.00000E+00
POINT_DATA        496
VECTORS vDarcyNodal double 
    0.27395E-09        -0.29011E-10         0.00000E+00
    0.27393E-09        -0.54178E-10         0.00000E+00
    0.27386E-09        -0.99454E-10         0.00000E+00
    0.27374E-09        -0.13494E-09         0.00000E+00
    0.27357E-09        -0.16127E-09         0.00000E+00
    0.27335E-09        -0.17910E-09         0.00000E+00
    0.27309E-09        -0.18902E-09         0.00000E+00
    0.27280E-09        -0.19160E-09         0.00000E+00
    0.27250E-09        -0.18737E-09         0.00000E+00
    0.27219E-09        -0.17679E-09         0.00000E+00
    0.27190E-09        -0.16029E-09         0.00000E+00
    0.27163E-09        -0.13822E-09         0.00000E+00
    0.27141E-09        -0.11090E-09         0.00000E+00
    0.27124E-09        -0.78594E-10         0.00000E+00
    0.27113E-09        -0.41526E-10         0.00000E+00
    0.27109E-09        -0.21826E-10         0.00000E+00
    0.54760E-09        -0.28997E-10         0.00000E+00
    0.54756E-09        -0.54144E-10         0.00000E+00
    0.54742E-09        -0.99374E-10         0.00000E+00
    0.54718E-09        -0.13480E-09         0.00000E+00
    0.54683E-09        -0.16109E-09         0.00000E+00
    0.54639E-09        -0.17887E-09         0.00000E+00
    0.54586E-09        -0.18875E-09         0.00000E+00
    0.54527E-09        -0.19131E-09         0.00000E+00
    0.54466E-09        -0.18707E-09         0.00000E+00
    0.54404E-09        -0.17650E-09         0.00000E+00
    0.54345E-09        -0.16001E-09         0.00000E+00
    0.54291E-09        -0.13798E-09         0.00000E+00
    0.54246E-09        -0.11071E-09         0.00000E+00
    0.54211E-09        -0.78458E-10         0.00000E+00
    0.54189E-09        -0.41455E-10         0.00000E+00
    0.54181E-09        -0.21790E-10         0.00000E+00
    0.10940E-08        -0.28951E-10         0.00000E+00
    0.10939E-08        -0.54034E-10         0.00000E+00
    0.10936E-08        -0.99123E-10         0.00000E+00
    0.10931E-08        -0.13439E-09         0.00000E+00
    0.10924E-08        -0.16052E-09         0.00000E+00
    0.10915E-08        -0.17817E-09         0.00000E+00
    0.10904E-08        -0.18794E-09         0.00000E+00
    0.10892E-08        -0.19043E-09         0.00000E+00
    0.10880E-08        -0.18616E-09         0.00000E+00
    0.10867E-08        -0.17561E-09         0.00000E+00
    0.10855E-08        -0.15919E-09         0.00000E+00
    0.10844E-08        -0.13725E-09         0.00000E+00
    0.10835E-08        -0.11012E-09         0.00000E+00
    0.10828E-08        -0.78046E-10         0.00000E+00
    0.10823E-08        -0.41240E-10         0.00000E+00
    0.10821E-08        -0.21678E-10         0.00000E+00
    0.16380E-08        -0.28866E-10         0.00000E+00
    0.16379E-08        -0.53836E-10         0.00000E+00
    0.16374E-08        -0.98675E-10         0.00000E+00
    0.16366E-08        -0.13367E-09         0.00000E+00
    0.16355E-08        -0.15954E-09         0.00000E+00
    0.16340E-08        -0.17695E-09         0.00000E+00
    0.16323E-08        -0.18654E-09         0.00000E+00
    0.16305E-08        -0.18892E-09         0.00000E+00
    0.16285E-08        -0.18461E-09         0.00000E+00
    0.16266E-08        -0.17409E-09         0.00000E+00
    0.16247E-08        -0.15777E-09         0.00000E+00
    0.16230E-08        -0.13602E-09         0.00000E+00
    0.16216E-08        -0.10912E-09         0.00000E+00
    0.16205E-08        -0.77342E-10         0.00000E+00
    0.16198E-08        -0.40872E-10         0.00000E+00
    0.16195E-08        -0.21489E-10         0.00000E+00
    0.21785E-08        -0.28728E-10         0.00000E+00
    0.21782E-08        -0.53523E-10         0.00000E+00
    0.21775E-08        -0.97986E-10         0.00000E+00
    0.21764E-08        -0.13258E-09         0.00000E+00
    0.21747E-08        -0.15806E-09         0.00000E+00
    0.21727E-08        -0.17514E-09         0.00000E+00
    0.21703E-08        -0.18449E-09         0.00000E+00
    0.21677E-08        -0.18671E-09         0.00000E+00
    0.21649E-08        -0.18234E-09         0.00000E+00
    0.21622E-08        -0.17188E-09         0.00000E+00
    0.21596E-08        -0.15572E-09         0.00000E+00
    0.21573E-08        -0.13422E-09         0.00000E+00
    0.21553E-08        -0.10768E-09         0.00000E+00
    0.21538E-08        -0.76323E-10         0.00000E+00
    0.21528E-08        -0.40341E-10         0.00000E+00
    0.21525E-08        -0.21215E-10         0.00000E+00
    0.27139E-08        -0.28518E-10         0.00000E+00
    0.27136E-08        -0.53062E-10         0.00000E+00
    0.27127E-08        -0.96997E-10         0.00000E+00
    0.27110E-08        -0.13104E-09         0.00000E+00
    0.27088E-08        -0.15601E-09         0.00000E+00
    0.27061E-08        -0.17266E-09         0.00000E+00
    0.27029E-08        -0.18168E-09         0.00000E+00
    0.26994E-08        -0.18370E-09         0.00000E+00
    0.26958E-08        -0.17928E-09         0.00000E+00
    0.26922E-08        -0.16889E-09         0.00000E+00
    0.26888E-08        -0.15296E-09         0.00000E+00
    0.26858E-08        -0.13182E-09         0.00000E+00
    0.26832E-08        -0.10574E-09         0.00000E+00
    0.26812E-08        -0.74957E-10         0.00000E+00
    0.26800E-08        -0.39629E-10         0.00000E+00
    0.26795E-08        -0.20847E-10         0.00000E+00
    0.32432E-08        -0.28213E-10         0.00000E+00
    0.32427E-08        -0.52411E-10         0.00000E+00
    0.32414E-08        -0.95633E-10         0.00000E+00
    0.32393E-08        -0.12896E-09         0.00000E+00
    0.32364E-08        -0.15328E-09         0.00000E+00
    0.32328E-08        -0.16938E-09         0.00000E+00
    0.32287E-08        -0.17800E-09         0.00000E+00
    0.32242E-08        -0.17978E-09         0.00000E+00
    0.32196E-08        -0.17530E-09         0.00000E+00
    0.32150E-08        -0.16504E-09         0.00000E+00
    0.32108E-08        -0.14940E-09         0.00000E+00
    0.32069E-08        -0.12872E-09         0.00000E+00
    0.32037E-08        -0.10325E-09         0.00000E+00
    0.32012E-08        -0.73205E-10         0.00000E+00
    0.31996E-08        -0.38716E-10         0.00000E+00
    0.31990E-08        -0.20375E-10         0.00000E+00
    0.37647E-08        -0.27786E-10         0.00000E+00
    0.37642E-08        -0.51521E-10         0.00000E+00
    0.37624E-08        -0.93809E-10         0.00000E+00
    0.37596E-08        -0.12623E-09         0.00000E+00
    0.37559E-08        -0.14973E-09         0.00000E+00
    0.37513E-08        -0.16516E-09         0.00000E+00
    0.37462E-08        -0.17330E-09         0.00000E+00
    0.37406E-08        -0.17482E-09         0.00000E+00
    0.37349E-08        -0.17029E-09         0.00000E+00
    0.37292E-08        -0.16020E-09         0.00000E+00
    0.37239E-08        -0.14495E-09         0.00000E+00
    0.37191E-08        -0.12486E-09         0.00000E+00
    0.37152E-08        -0.10015E-09         0.00000E+00
    0.37121E-08        -0.71023E-10         0.00000E+00
    0.37102E-08        -0.37578E-10         0.00000E+00
    0.37095E-08        -0.19788E-10         0.00000E+00
    0.42771E-08        -0.27206E-10         0.00000E+00
    0.42764E-08        -0.50337E-10         0.00000E+00
    0.42741E-08        -0.91428E-10         0.00000E+00
    0.42706E-08        -0.12272E-09         0.00000E+00
    0.42659E-08        -0.14523E-09         0.00000E+00
    0.42602E-08        -0.15987E-09         0.00000E+00
    0.42538E-08        -0.16746E-09         0.00000E+00
    0.42470E-08        -0.16868E-09         0.00000E+00
    0.42400E-08        -0.16412E-09         0.00000E+00
    0.42331E-08        -0.15426E-09         0.00000E+00
    0.42267E-08        -0.13950E-09         0.00000E+00
    0.42209E-08        -0.12013E-09         0.00000E+00
    0.42161E-08        -0.96370E-10         0.00000E+00
    0.42124E-08        -0.68363E-10         0.00000E+00
    0.42101E-08        -0.36192E-10         0.00000E+00
    0.42093E-08        -0.19072E-10         0.00000E+00
    0.47787E-08        -0.26441E-10         0.00000E+00
    0.47777E-08        -0.48801E-10         0.00000E+00
    0.47749E-08        -0.88388E-10         0.00000E+00
    0.47705E-08        -0.11829E-09         0.00000E+00
    0.47647E-08        -0.13962E-09         0.00000E+00
    0.47578E-08        -0.15334E-09         0.00000E+00
    0.47500E-08        -0.16030E-09         0.00000E+00
    0.47417E-08        -0.16120E-09         0.00000E+00
    0.47333E-08        -0.15664E-09         0.00000E+00
    0.47251E-08        -0.14709E-09         0.00000E+00
    0.47174E-08        -0.13294E-09         0.00000E+00
    0.47106E-08        -0.11446E-09         0.00000E+00
    0.47049E-08        -0.91832E-10         0.00000E+00
    0.47005E-08        -0.65174E-10         0.00000E+00
    0.46978E-08        -0.34531E-10         0.00000E+00
    0.46968E-08        -0.18214E-10         0.00000E+00
    0.52678E-08        -0.25455E-10         0.00000E+00
    0.52666E-08        -0.46850E-10         0.00000E+00
    0.52631E-08        -0.84582E-10         0.00000E+00
    0.52577E-08        -0.11283E-09         0.00000E+00
    0.52506E-08        -0.13277E-09         0.00000E+00
    0.52423E-08        -0.14542E-09         0.00000E+00
    0.52330E-08        -0.15167E-09         0.00000E+00
    0.52232E-08        -0.15224E-09         0.00000E+00
    0.52132E-08        -0.14771E-09         0.00000E+00
    0.52035E-08        -0.13857E-09         0.00000E+00
    0.51945E-08        -0.12517E-09         0.00000E+00
    0.51865E-08        -0.10775E-09         0.00000E+00
    0.51798E-08        -0.86470E-10         0.00000E+00
    0.51747E-08        -0.61410E-10         0.00000E+00
    0.51715E-08        -0.32569E-10         0.00000E+00
    0.51703E-08        -0.17200E-10         0.00000E+00
    0.57426E-08        -0.24215E-10         0.00000E+00
    0.57411E-08        -0.44424E-10         0.00000E+00
    0.57369E-08        -0.79904E-10         0.00000E+00
    0.57304E-08        -0.10618E-09         0.00000E+00
    0.57219E-08        -0.12451E-09         0.00000E+00
    0.57120E-08        -0.13596E-09         0.00000E+00
    0.57011E-08        -0.14143E-09         0.00000E+00
    0.56895E-08        -0.14165E-09         0.00000E+00
    0.56779E-08        -0.13722E-09         0.00000E+00
    0.56666E-08        -0.12858E-09         0.00000E+00
    0.56562E-08        -0.11607E-09         0.00000E+00
    0.56469E-08        -0.99914E-10         0.00000E+00
    0.56391E-08        -0.80220E-10         0.00000E+00
    0.56333E-08        -0.57025E-10         0.00000E+00
    0.56296E-08        -0.30285E-10         0.00000E+00
    0.56283E-08        -0.16020E-10         0.00000E+00
    0.62012E-08        -0.22687E-10         0.00000E+00
    0.61994E-08        -0.41464E-10         0.00000E+00
    0.61943E-08        -0.74256E-10         0.00000E+00
    0.61866E-08        -0.98235E-10         0.00000E+00
    0.61767E-08        -0.11472E-09         0.00000E+00
    0.61651E-08        -0.12482E-09         0.00000E+00
    0.61524E-08        -0.12944E-09         0.00000E+00
    0.61390E-08        -0.12932E-09         0.00000E+00
    0.61256E-08        -0.12504E-09         0.00000E+00
    0.61127E-08        -0.11703E-09         0.00000E+00
    0.61007E-08        -0.10559E-09         0.00000E+00
    0.60901E-08        -0.90894E-10         0.00000E+00
    0.60813E-08        -0.73030E-10         0.00000E+00
    0.60746E-08        -0.51982E-10         0.00000E+00
    0.60704E-08        -0.27659E-10         0.00000E+00
    0.60689E-08        -0.14662E-10         0.00000E+00
    0.66416E-08        -0.20839E-10         0.00000E+00
    0.66394E-08        -0.37915E-10         0.00000E+00
    0.66335E-08        -0.67546E-10         0.00000E+00
    0.66245E-08        -0.88879E-10         0.00000E+00
    0.66130E-08        -0.10328E-09         0.00000E+00
    0.65996E-08        -0.11188E-09         0.00000E+00
    0.65850E-08        -0.11560E-09         0.00000E+00
    0.65698E-08        -0.11516E-09         0.00000E+00
    0.65546E-08        -0.11111E-09         0.00000E+00
    0.65400E-08        -0.10385E-09         0.00000E+00
    0.65264E-08        -0.93647E-10         0.00000E+00
    0.65145E-08        -0.80639E-10         0.00000E+00
    0.65045E-08        -0.64863E-10         0.00000E+00
    0.64970E-08        -0.46257E-10         0.00000E+00
    0.64922E-08        -0.24676E-10         0.00000E+00
    0.64906E-08        -0.13119E-10         0.00000E+00
    0.70617E-08        -0.18644E-10         0.00000E+00
    0.70592E-08        -0.33733E-10         0.00000E+00
    0.70524E-08        -0.59703E-10         0.00000E+00
    0.70420E-08        -0.78030E-10         0.00000E+00
    0.70289E-08        -0.90112E-10         0.00000E+00
    0.70137E-08        -0.97086E-10         0.00000E+00
    0.69972E-08        -0.99854E-10         0.00000E+00
    0.69801E-08        -0.99113E-10         0.00000E+00
    0.69630E-08        -0.95380E-10         0.00000E+00
    0.69467E-08        -0.89013E-10         0.00000E+00
    0.69316E-08        -0.80233E-10         0.00000E+00
    0.69182E-08        -0.69135E-10         0.00000E+00
    0.69072E-08        -0.55707E-10         0.00000E+00
    0.68988E-08        -0.39839E-10         0.00000E+00
    0.68935E-08        -0.21331E-10         0.00000E+00
    0.68917E-08        -0.11387E-10         0.00000E+00
    0.74594E-08        -0.16081E-10         0.00000E+00
    0.74566E-08        -0.28881E-10         0.00000E+00
    0.74488E-08        -0.50675E-10         0.00000E+00
    0.74370E-08        -0.65637E-10         0.00000E+00
    0.74222E-08        -0.75173E-10         0.00000E+00
    0.74052E-08        -0.80402E-10         0.00000E+00
    0.73868E-08        -0.82191E-10         0.00000E+00
    0.73678E-08        -0.81193E-10         0.00000E+00
    0.73490E-08        -0.77875E-10         0.00000E+00
    0.73310E-08        -0.72544E-10         0.00000E+00
    0.73144E-08        -0.65370E-10         0.00000E+00
    0.72998E-08        -0.56402E-10         0.00000E+00
    0.72877E-08        -0.45578E-10         0.00000E+00
    0.72785E-08        -0.32737E-10         0.00000E+00
    0.72727E-08        -0.17627E-10         0.00000E+00
    0.72707E-08        -0.94682E-11         0.00000E+00
    0.78324E-08        -0.13136E-10         0.00000E+00
    0.78292E-08        -0.23343E-10         0.00000E+00
    0.78205E-08        -0.40444E-10         0.00000E+00
    0.78073E-08        -0.51696E-10         0.00000E+00
    0.77909E-08        -0.58482E-10         0.00000E+00
    0.77721E-08        -0.61873E-10         0.00000E+00
    0.77520E-08        -0.62676E-10         0.00000E+00
    0.77313E-08        -0.61479E-10         0.00000E+00
    0.77108E-08        -0.58682E-10         0.00000E+00
    0.76913E-08        -0.54532E-10         0.00000E+00
    0.76734E-08        -0.49142E-10         0.00000E+00
    0.76576E-08        -0.42510E-10         0.00000E+00
    0.76445E-08        -0.34527E-10         0.00000E+00
    0.76346E-08        -0.24984E-10         0.00000E+00
    0.76283E-08        -0.13579E-10         0.00000E+00
    0.76261E-08        -0.73682E-11         0.00000E+00
    0.81785E-08        -0.98052E-11         0.00000E+00
    0.81750E-08        -0.17118E-10         0.00000E+00
    0.81653E-08        -0.29029E-10         0.00000E+00
    0.81509E-08        -0.36258E-10         0.00000E+00
    0.81329E-08        -0.40126E-10         0.00000E+00
    0.81126E-08        -0.41622E-10         0.00000E+00
    0.80908E-08        -0.41462E-10         0.00000E+00
    0.80686E-08        -0.40143E-10         0.00000E+00
    0.80468E-08        -0.37982E-10         0.00000E+00
    0.80260E-08        -0.35152E-10         0.00000E+00
    0.80069E-08        -0.31705E-10         0.00000E+00
    0.79901E-08        -0.27590E-10         0.00000E+00
    0.79762E-08        -0.22652E-10         0.00000E+00
    0.79657E-08        -0.16644E-10         0.00000E+00
    0.79590E-08        -0.92180E-11         0.00000E+00
    0.79566E-08        -0.51013E-11         0.00000E+00
    0.84954E-08        -0.60978E-11         0.00000E+00
    0.84915E-08        -0.10235E-10         0.00000E+00
    0.84809E-08        -0.16499E-10         0.00000E+00
    0.84653E-08        -0.19445E-10         0.00000E+00
    0.84461E-08        -0.20282E-10         0.00000E+00
    0.84244E-08        -0.19875E-10         0.00000E+00
    0.84014E-08        -0.18812E-10         0.00000E+00
    0.83781E-08        -0.17469E-10         0.00000E+00
    0.83552E-08        -0.16061E-10         0.00000E+00
    0.83335E-08        -0.14676E-10         0.00000E+00
    0.83136E-08        -0.13303E-10         0.00000E+00
    0.82961E-08        -0.11843E-10         0.00000E+00
    0.82816E-08        -0.10107E-10         0.00000E+00
    0.82706E-08        -0.78164E-11         0.00000E+00
    0.82636E-08        -0.45902E-11         0.00000E+00
    0.82611E-08        -0.26893E-11         0.00000E+00
    0.87806E-08        -0.20386E-11         0.00000E+00
    0.87764E-08        -0.27491E-11         0.00000E+00
    0.87651E-08        -0.29834E-11         0.00000E+00
    0.87486E-08        -0.14657E-11         0.00000E+00
    0.87283E-08         0.76251E-12         0.00000E+00
    0.87058E-08         0.30155E-11         0.00000E+00
    0.86820E-08         0.48763E-11         0.00000E+00
    0.86580E-08         0.61212E-11         0.00000E+00
    0.86346E-08         0.66611E-11         0.00000E+00
    0.86125E-08         0.65003E-11         0.00000E+00
    0.85922E-08         0.57142E-11         0.00000E+00
    0.85744E-08         0.44419E-11         0.00000E+00
    0.85596E-08         0.28921E-11         0.00000E+00
    0.85483E-08         0.13583E-11         0.00000E+00
    0.85411E-08         0.23704E-12         0.00000E+00
    0.85385E-08        -0.16376E-12         0.00000E+00
    0.90318E-08         0.23285E-11         0.00000E+00
    0.90273E-08         0.52423E-11         0.00000E+00
    0.90155E-08         0.11312E-10         0.00000E+00
    0.89984E-08         0.17361E-10         0.00000E+00
    0.89776E-08         0.22586E-10         0.00000E+00
    0.89547E-08         0.26545E-10         0.00000E+00
    0.89308E-08         0.29043E-10         0.00000E+00
    0.89069E-08         0.30045E-10         0.00000E+00
    0.88836E-08         0.29608E-10         0.00000E+00
    0.88617E-08         0.27840E-10         0.00000E+00
    0.88417E-08         0.24874E-10         0.00000E+00
    0.88240E-08         0.20876E-10         0.00000E+00
    0.88093E-08         0.16054E-10         0.00000E+00
    0.87980E-08         0.10690E-10         0.00000E+00
    0.87908E-08         0.51736E-11         0.00000E+00
    0.87882E-08         0.24333E-11         0.00000E+00
    0.92466E-08         0.69362E-11         0.00000E+00
    0.92420E-08         0.13597E-10         0.00000E+00
    0.92299E-08         0.26090E-10         0.00000E+00
    0.92127E-08         0.36582E-10         0.00000E+00
    0.91920E-08         0.44602E-10         0.00000E+00
    0.91695E-08         0.50023E-10         0.00000E+00
    0.91464E-08         0.52933E-10         0.00000E+00
    0.91233E-08         0.53525E-10         0.00000E+00
    0.91011E-08         0.52022E-10         0.00000E+00
    0.90803E-08         0.48639E-10         0.00000E+00
    0.90612E-08         0.43559E-10         0.00000E+00
    0.90444E-08         0.36953E-10         0.00000E+00
    0.90303E-08         0.28999E-10         0.00000E+00
    0.90194E-08         0.19934E-10         0.00000E+00
    0.90123E-08         0.10103E-10         0.00000E+00
    0.90098E-08         0.50480E-11         0.00000E+00
    0.94227E-08         0.11688E-10         0.00000E+00
    0.94181E-08         0.22113E-10         0.00000E+00
    0.94061E-08         0.40935E-10         0.00000E+00
    0.93893E-08         0.55582E-10         0.00000E+00
    0.93696E-08         0.66020E-10         0.00000E+00
    0.93486E-08         0.72535E-10         0.00000E+00
    0.93272E-08         0.75561E-10         0.00000E+00
    0.93063E-08         0.75559E-10         0.00000E+00
    0.92862E-08         0.72934E-10         0.00000E+00
    0.92675E-08         0.68003E-10         0.00000E+00
    0.92504E-08         0.60987E-10         0.00000E+00
    0.92352E-08         0.52031E-10         0.00000E+00
    0.92223E-08         0.41247E-10         0.00000E+00
    0.92123E-08         0.28779E-10         0.00000E+00
    0.92056E-08         0.14879E-10         0.00000E+00
    0.92032E-08         0.76126E-11         0.00000E+00
    0.95576E-08         0.16450E-10         0.00000E+00
    0.95531E-08         0.30511E-10         0.00000E+00
    0.95418E-08         0.55282E-10         0.00000E+00
    0.95263E-08         0.73528E-10         0.00000E+00
    0.95087E-08         0.85798E-10         0.00000E+00
    0.94904E-08         0.92898E-10         0.00000E+00
    0.94722E-08         0.95677E-10         0.00000E+00
    0.94548E-08         0.94894E-10         0.00000E+00
    0.94383E-08         0.91141E-10         0.00000E+00
    0.94230E-08         0.84829E-10         0.00000E+00
    0.94090E-08         0.76191E-10         0.00000E+00
    0.93964E-08         0.65315E-10         0.00000E+00
    0.93855E-08         0.52200E-10         0.00000E+00
    0.93769E-08         0.36837E-10         0.00000E+00
    0.93710E-08         0.19320E-10         0.00000E+00
    0.93687E-08         0.10044E-10         0.00000E+00
    0.96490E-08         0.21037E-10         0.00000E+00
    0.96448E-08         0.38410E-10         0.00000E+00
    0.96348E-08         0.68361E-10         0.00000E+00
    0.96218E-08         0.89309E-10         0.00000E+00
    0.96077E-08         0.10257E-09         0.00000E+00
    0.95938E-08         0.10961E-09         0.00000E+00
    0.95806E-08         0.11172E-09         0.00000E+00
    0.95684E-08         0.11000E-09         0.00000E+00
    0.95571E-08         0.10519E-09         0.00000E+00
    0.95467E-08         0.97786E-10         0.00000E+00
    0.95371E-08         0.88002E-10         0.00000E+00
    0.95284E-08         0.75836E-10         0.00000E+00
    0.95205E-08         0.61123E-10         0.00000E+00
    0.95139E-08         0.43630E-10         0.00000E+00
    0.95091E-08         0.23200E-10         0.00000E+00
    0.95072E-08         0.12241E-10         0.00000E+00
    0.96941E-08         0.25190E-10         0.00000E+00
    0.96906E-08         0.45272E-10         0.00000E+00
    0.96830E-08         0.79107E-10         0.00000E+00
    0.96741E-08         0.10143E-09         0.00000E+00
    0.96655E-08         0.11458E-09         0.00000E+00
    0.96581E-08         0.12077E-09         0.00000E+00
    0.96519E-08         0.12182E-09         0.00000E+00
    0.96469E-08         0.11906E-09         0.00000E+00
    0.96427E-08         0.11339E-09         0.00000E+00
    0.96390E-08         0.10532E-09         0.00000E+00
    0.96354E-08         0.95041E-10         0.00000E+00
    0.96318E-08         0.82424E-10         0.00000E+00
    0.96281E-08         0.67106E-10         0.00000E+00
    0.96245E-08         0.48553E-10         0.00000E+00
    0.96214E-08         0.26235E-10         0.00000E+00
    0.96199E-08         0.14076E-10         0.00000E+00
    0.96903E-08         0.28531E-10         0.00000E+00
    0.96880E-08         0.50316E-10         0.00000E+00
    0.96842E-08         0.86000E-10         0.00000E+00
    0.96817E-08         0.10784E-09         0.00000E+00
    0.96812E-08         0.11952E-09         0.00000E+00
    0.96829E-08         0.12407E-09         0.00000E+00
    0.96863E-08         0.12373E-09         0.00000E+00
    0.96907E-08         0.12001E-09         0.00000E+00
    0.96956E-08         0.11383E-09         0.00000E+00
    0.97004E-08         0.10570E-09         0.00000E+00
    0.97046E-08         0.95720E-10         0.00000E+00
    0.97079E-08         0.83682E-10         0.00000E+00
    0.97097E-08         0.69015E-10         0.00000E+00
    0.97102E-08         0.50826E-10         0.00000E+00
    0.97095E-08         0.28052E-10         0.00000E+00
    0.97087E-08         0.15383E-10         0.00000E+00
    0.96340E-08         0.30455E-10         0.00000E+00
    0.96338E-08         0.52310E-10         0.00000E+00
    0.96365E-08         0.86747E-10         0.00000E+00
    0.96437E-08         0.10568E-09         0.00000E+00
    0.96549E-08         0.11443E-09         0.00000E+00
    0.96689E-08         0.11673E-09         0.00000E+00
    0.96846E-08         0.11498E-09         0.00000E+00
    0.97008E-08         0.11062E-09         0.00000E+00
    0.97168E-08         0.10451E-09         0.00000E+00
    0.97320E-08         0.97039E-10         0.00000E+00
    0.97458E-08         0.88283E-10         0.00000E+00
    0.97576E-08         0.77960E-10         0.00000E+00
    0.97669E-08         0.65394E-10         0.00000E+00
    0.97731E-08         0.49368E-10         0.00000E+00
    0.97759E-08         0.28110E-10         0.00000E+00
    0.97761E-08         0.15923E-10         0.00000E+00
    0.95205E-08         0.29837E-10         0.00000E+00
    0.95242E-08         0.49072E-10         0.00000E+00
    0.95384E-08         0.77638E-10         0.00000E+00
    0.95607E-08         0.90854E-10         0.00000E+00
    0.95880E-08         0.95610E-10         0.00000E+00
    0.96178E-08         0.95636E-10         0.00000E+00
    0.96484E-08         0.92955E-10         0.00000E+00
    0.96786E-08         0.88690E-10         0.00000E+00
    0.97078E-08         0.83451E-10         0.00000E+00
    0.97351E-08         0.77516E-10         0.00000E+00
    0.97602E-08         0.70904E-10         0.00000E+00
    0.97824E-08         0.63372E-10         0.00000E+00
    0.98010E-08         0.54317E-10         0.00000E+00
    0.98152E-08         0.42531E-10         0.00000E+00
    0.98238E-08         0.25505E-10         0.00000E+00
    0.98256E-08         0.15254E-10         0.00000E+00
    0.93398E-08         0.24247E-10         0.00000E+00
    0.93554E-08         0.36044E-10         0.00000E+00
    0.93908E-08         0.52167E-10         0.00000E+00
    0.94353E-08         0.57760E-10         0.00000E+00
    0.94835E-08         0.58808E-10         0.00000E+00
    0.95324E-08         0.57603E-10         0.00000E+00
    0.95805E-08         0.55233E-10         0.00000E+00
    0.96266E-08         0.52264E-10         0.00000E+00
    0.96702E-08         0.48987E-10         0.00000E+00
    0.97110E-08         0.45529E-10         0.00000E+00
    0.97487E-08         0.41891E-10         0.00000E+00
    0.97828E-08         0.37942E-10         0.00000E+00
    0.98129E-08         0.33360E-10         0.00000E+00
    0.98381E-08         0.27423E-10         0.00000E+00
    0.98565E-08         0.18372E-10         0.00000E+00
    0.98644E-08         0.12753E-10         0.00000E+00
    0.92309E-08         0.00000E+00         0.00000E+00
    0.92559E-08         0.00000E+00         0.00000E+00
    0.93050E-08        -0.24851E-22         0.00000E+00
    0.93625E-08         0.24510E-26         0.00000E+00
    0.94224E-08         0.28996E-22         0.00000E+00
    0.94817E-08         0.00000E+00         0.00000E+00
    0.95390E-08         0.00000E+00         0.00000E+00
    0.95934E-08        -0.24861E-22         0.00000E+00
    0.96446E-08        -0.24861E-22         0.00000E+00
    0.96924E-08         0.24863E-22         0.00000E+00
    0.97366E-08         0.33151E-22         0.00000E+00
    0.97770E-08        -0.33154E-22         0.00000E+00
    0.98134E-08        -0.41430E-23         0.00000E+00
    0.98447E-08         0.33156E-22         0.00000E+00
    0.98693E-08         0.82893E-23         0.00000E+00
    0.98824E-08         0.00000E+00         0.00000E+00
CELL_DATA        450
TENSORS stressef double 
    0.48751E+07        -0.26580E+04         0.00000E+00
   -0.26580E+04        -0.22595E+08         0.00000E+00
    0.00000E+00         0.00000E+00        -0.35439E+07
 
    0.39144E+07        -0.66442E+04         0.00000E+00
   -0.66442E+04        -0.22612E+08         0.00000E+00
    0.00000E+00         0.00000E+00        -0.37395E+07
 
    0.30221E+07        -0.86859E+04         0.00000E+00
   -0.86859E+04        -0.22641E+08         0.00000E+00
    0.00000E+00         0.00000E+00        -0.39238E+07
 
    0.21911E+07        -0.86338E+04         0.00000E+00
   -0.86338E+04        -0.22678E+08         0.00000E+00
    0.00000E+00         0.00000E+00        -0.40973E+07
 
    0.14137E+07        -0.63825E+04         0.00000E+00
   -0.63825E+04        -0.22716E+08         0.00000E+00
    0.00000E+00         0.00000E+00        -0.42604E+07
 
    0.68209E+06        -0.18645E+04         0.00000E+00
   -0.18645E+04        -0.22749E+08         0.00000E+00
    0.00000E+00         0.00000E+00        -0.44134E+07
 
   -0.11538E+05         0.49552E+04         0.00000E+00
    0.49552E+04        -0.22773E+08         0.00000E+00
    0.00000E+00         0.00000E+00        -0.45569E+07
 
   -0.67515E+06         0.14085E+05         0.00000E+00
    0.14085E+05        -0.22781E+08         0.00000E+00
    0.00000E+00         0.00000E+00        -0.46912E+07
 
   -0.13166E+07         0.25511E+05         0.00000E+00
    0.25511E+05        -0.22768E+08         0.00000E+00
    0.00000E+00         0.00000E+00        -0.48169E+07
 
   -0.19435E+07         0.39206E+05         0.00000E+00
    0.39206E+05        -0.22728E+08         0.00000E+00
    0.00000E+00         0.00000E+00        -0.49343E+07
 
   -0.25635E+07         0.55127E+05         0.00000E+00
    0.55127E+05        -0.22657E+08         0.00000E+00
    0.00000E+00         0.00000E+00        -0.50440E+07
 
   -0.31837E+07         0.73228E+05         0.00000E+00
    0.73228E+05        -0.22548E+08         0.00000E+00
    0.00000E+00         0.00000E+00        -0.51463E+07
 
   -0.38114E+07         0.93461E+05         0.00000E+00
    0.93461E+05        -0.22397E+08         0.00000E+00
    0.00000E+00         0.00000E+00        -0.52417E+07
 
   -0.44531E+07         0.11578E+06         0.00000E+00
    0.11578E+06        -0.22199E+08         0.00000E+00
    0.00000E+00         0.00000E+00        -0.53305E+07
 
   -0.51156E+07         0.14014E+06         0.00000E+00
    0.14014E+06        -0.21949E+08         0.00000E+00
    0.00000E+00         0.00000E+00        -0.54130E+07
 
    0.47885E+07        -0.80499E+04         0.00000E+00
   -0.80499E+04        -0.22672E+08         0.00000E+00
    0.00000E+00         0.00000E+00        -0.35766E+07
 
    0.38315E+07        -0.20140E+05         0.00000E+00
   -0.20140E+05        -0.22689E+08         0.00000E+00
    0.00000E+00         0.00000E+00        -0.37715E+07
 
    0.29434E+07        -0.26374E+05         0.00000E+00
   -0.26374E+05        -0.22719E+08         0.00000E+00
    0.00000E+00         0.00000E+00        -0.39551E+07
 
    0.21167E+07        -0.26307E+05         0.00000E+00
   -0.26307E+05        -0.22756E+08         0.00000E+00
    0.00000E+00         0.00000E+00        -0.41279E+07
 
    0.13438E+07        -0.19624E+05         0.00000E+00
   -0.19624E+05        -0.22795E+08         0.00000E+00
    0.00000E+00         0.00000E+00        -0.42902E+07
 
    0.61686E+06        -0.61272E+04         0.00000E+00
   -0.61272E+04        -0.22829E+08         0.00000E+00
    0.00000E+00         0.00000E+00        -0.44425E+07
 
   -0.72074E+05         0.14286E+05         0.00000E+00
    0.14286E+05        -0.22854E+08         0.00000E+00
    0.00000E+00         0.00000E+00        -0.45852E+07
 
   -0.73098E+06         0.41637E+05         0.00000E+00
    0.41637E+05        -0.22863E+08         0.00000E+00
    0.00000E+00         0.00000E+00        -0.47188E+07
 
   -0.13678E+07         0.75884E+05         0.00000E+00
    0.75884E+05        -0.22851E+08         0.00000E+00
    0.00000E+00         0.00000E+00        -0.48438E+07
 
   -0.19901E+07         0.11694E+06         0.00000E+00
    0.11694E+06        -0.22813E+08         0.00000E+00
    0.00000E+00         0.00000E+00        -0.49606E+07
 
   -0.26056E+07         0.16467E+06         0.00000E+00
    0.16467E+06        -0.22743E+08         0.00000E+00
    0.00000E+00         0.00000E+00        -0.50696E+07
 
   -0.32215E+07         0.21894E+06         0.00000E+00
    0.21894E+06        -0.22635E+08         0.00000E+00
    0.00000E+00         0.00000E+00        -0.51714E+07
 
   -0.38449E+07         0.27961E+06         0.00000E+00
    0.27961E+06        -0.22486E+08         0.00000E+00
    0.00000E+00         0.00000E+00        -0.52661E+07
 
   -0.44824E+07         0.34652E+06         0.00000E+00
    0.34652E+06        -0.22290E+08         0.00000E+00
    0.00000E+00         0.00000E+00        -0.53544E+07
 
   -0.51408E+07         0.41957E+06         0.00000E+00
    0.41957E+06        -0.22041E+08         0.00000E+00
    0.00000E+00         0.00000E+00        -0.54364E+07
 
    0.46153E+07        -0.13669E+05         0.00000E+00
   -0.13669E+05        -0.22825E+08         0.00000E+00
    0.00000E+00         0.00000E+00        -0.36420E+07
 
    0.36658E+07        -0.34259E+05         0.00000E+00
   -0.34259E+05        -0.22843E+08         0.00000E+00
    0.00000E+00         0.00000E+00        -0.38354E+07
 
    0.27858E+07        -0.45011E+05         0.00000E+00
   -0.45011E+05        -0.22874E+08         0.00000E+00
    0.00000E+00         0.00000E+00        -0.40176E+07
 
    0.19678E+07        -0.45192E+05         0.00000E+00
   -0.45192E+05        -0.22912E+08         0.00000E+00
    0.00000E+00         0.00000E+00        -0.41889E+07
 
    0.12041E+07        -0.34291E+05         0.00000E+00
   -0.34291E+05        -0.22953E+08         0.00000E+00
    0.00000E+00         0.00000E+00        -0.43497E+07
 
    0.48647E+06        -0.11986E+05         0.00000E+00
   -0.11986E+05        -0.22989E+08         0.00000E+00
    0.00000E+00         0.00000E+00        -0.45005E+07
 
   -0.19305E+06         0.21882E+05         0.00000E+00
    0.21882E+05        -0.23016E+08         0.00000E+00
    0.00000E+00         0.00000E+00        -0.46418E+07
 
   -0.84255E+06         0.67340E+05         0.00000E+00
    0.67340E+05        -0.23027E+08         0.00000E+00
    0.00000E+00         0.00000E+00        -0.47740E+07
 
   -0.14700E+07         0.12431E+06         0.00000E+00
    0.12431E+06        -0.23018E+08         0.00000E+00
    0.00000E+00         0.00000E+00        -0.48975E+07
 
   -0.20832E+07         0.19263E+06         0.00000E+00
    0.19263E+06        -0.22982E+08         0.00000E+00
    0.00000E+00         0.00000E+00        -0.50130E+07
 
   -0.26897E+07         0.27210E+06         0.00000E+00
    0.27210E+06        -0.22914E+08         0.00000E+00
    0.00000E+00         0.00000E+00        -0.51208E+07
 
   -0.32968E+07         0.36245E+06         0.00000E+00
    0.36245E+06        -0.22810E+08         0.00000E+00
    0.00000E+00         0.00000E+00        -0.52213E+07
 
   -0.39117E+07         0.46344E+06         0.00000E+00
    0.46344E+06        -0.22663E+08         0.00000E+00
    0.00000E+00         0.00000E+00        -0.53150E+07
 
   -0.45410E+07         0.57482E+06         0.00000E+00
    0.57482E+06        -0.22470E+08         0.00000E+00
    0.00000E+00         0.00000E+00        -0.54022E+07
 
   -0.51912E+07         0.69640E+06         0.00000E+00
    0.69640E+06        -0.22225E+08         0.00000E+00
    0.00000E+00         0.00000E+00        -0.54832E+07
 
    0.43551E+07        -0.19664E+05         0.00000E+00
   -0.19664E+05        -0.23055E+08         0.00000E+00
    0.00000E+00         0.00000E+00        -0.37399E+07
 
    0.34169E+07        -0.49413E+05         0.00000E+00
   -0.49413E+05        -0.23073E+08         0.00000E+00
    0.00000E+00         0.00000E+00        -0.39313E+07
 
    0.25494E+07        -0.65221E+05         0.00000E+00
   -0.65221E+05        -0.23106E+08         0.00000E+00
    0.00000E+00         0.00000E+00        -0.41113E+07
 
    0.17447E+07        -0.66088E+05         0.00000E+00
   -0.66088E+05        -0.23146E+08         0.00000E+00
    0.00000E+00         0.00000E+00        -0.42804E+07
 
    0.99463E+06        -0.51321E+05         0.00000E+00
   -0.51321E+05        -0.23189E+08         0.00000E+00
    0.00000E+00         0.00000E+00        -0.44389E+07
 
    0.29108E+06        -0.20491E+05         0.00000E+00
   -0.20491E+05        -0.23228E+08         0.00000E+00
    0.00000E+00         0.00000E+00        -0.45875E+07
 
   -0.37425E+06         0.26603E+05         0.00000E+00
    0.26603E+05        -0.23258E+08         0.00000E+00
    0.00000E+00         0.00000E+00        -0.47265E+07
 
   -0.10096E+07         0.89981E+05         0.00000E+00
    0.89981E+05        -0.23273E+08         0.00000E+00
    0.00000E+00         0.00000E+00        -0.48565E+07
 
   -0.16230E+07         0.16951E+06         0.00000E+00
    0.16951E+06        -0.23267E+08         0.00000E+00
    0.00000E+00         0.00000E+00        -0.49780E+07
 
   -0.22225E+07         0.26496E+06         0.00000E+00
    0.26496E+06        -0.23235E+08         0.00000E+00
    0.00000E+00         0.00000E+00        -0.50914E+07
 
   -0.28155E+07         0.37600E+06         0.00000E+00
    0.37600E+06        -0.23171E+08         0.00000E+00
    0.00000E+00         0.00000E+00        -0.51973E+07
 
   -0.34095E+07         0.50228E+06         0.00000E+00
    0.50228E+06        -0.23070E+08         0.00000E+00
    0.00000E+00         0.00000E+00        -0.52960E+07
 
   -0.40116E+07         0.64343E+06         0.00000E+00
    0.64343E+06        -0.22928E+08         0.00000E+00
    0.00000E+00         0.00000E+00        -0.53880E+07
 
   -0.46284E+07         0.79908E+06         0.00000E+00
    0.79908E+06        -0.22740E+08         0.00000E+00
    0.00000E+00         0.00000E+00        -0.54736E+07
 
   -0.52665E+07         0.96894E+06         0.00000E+00
    0.96894E+06        -0.22500E+08         0.00000E+00
    0.00000E+00         0.00000E+00        -0.55532E+07
 
    0.40075E+07        -0.26186E+05         0.00000E+00
   -0.26186E+05        -0.23360E+08         0.00000E+00
    0.00000E+00         0.00000E+00        -0.38706E+07
 
    0.30848E+07        -0.66005E+05         0.00000E+00
   -0.66005E+05        -0.23380E+08         0.00000E+00
    0.00000E+00         0.00000E+00        -0.40590E+07
 
    0.22341E+07        -0.87619E+05         0.00000E+00
   -0.87619E+05        -0.23414E+08         0.00000E+00
    0.00000E+00         0.00000E+00        -0.42361E+07
 
    0.14472E+07        -0.89779E+05         0.00000E+00
   -0.89779E+05        -0.23458E+08         0.00000E+00
    0.00000E+00         0.00000E+00        -0.44021E+07
 
    0.71561E+06        -0.71632E+05         0.00000E+00
   -0.71632E+05        -0.23504E+08         0.00000E+00
    0.00000E+00         0.00000E+00        -0.45576E+07
 
    0.30940E+05        -0.32668E+05         0.00000E+00
   -0.32668E+05        -0.23546E+08         0.00000E+00
    0.00000E+00         0.00000E+00        -0.47031E+07
 
   -0.61538E+06         0.27337E+05         0.00000E+00
    0.27337E+05        -0.23580E+08         0.00000E+00
    0.00000E+00         0.00000E+00        -0.48391E+07
 
   -0.12318E+07         0.10837E+06         0.00000E+00
    0.10837E+06        -0.23599E+08         0.00000E+00
    0.00000E+00         0.00000E+00        -0.49662E+07
 
   -0.18265E+07         0.21024E+06         0.00000E+00
    0.21024E+06        -0.23598E+08         0.00000E+00
    0.00000E+00         0.00000E+00        -0.50849E+07
 
   -0.24075E+07         0.33261E+06         0.00000E+00
    0.33261E+06        -0.23570E+08         0.00000E+00
    0.00000E+00         0.00000E+00        -0.51956E+07
 
   -0.29826E+07         0.47503E+06         0.00000E+00
    0.47503E+06        -0.23512E+08         0.00000E+00
    0.00000E+00         0.00000E+00        -0.52989E+07
 
   -0.35591E+07         0.63702E+06         0.00000E+00
    0.63702E+06        -0.23417E+08         0.00000E+00
    0.00000E+00         0.00000E+00        -0.53952E+07
 
   -0.41442E+07         0.81807E+06         0.00000E+00
    0.81807E+06        -0.23280E+08         0.00000E+00
    0.00000E+00         0.00000E+00        -0.54849E+07
 
   -0.47445E+07         0.10177E+07         0.00000E+00
    0.10177E+07        -0.23098E+08         0.00000E+00
    0.00000E+00         0.00000E+00        -0.55684E+07
 
   -0.53664E+07         0.12355E+07         0.00000E+00
    0.12355E+07        -0.22864E+08         0.00000E+00
    0.00000E+00         0.00000E+00        -0.56461E+07
 
    0.35723E+07        -0.33379E+05         0.00000E+00
   -0.33379E+05        -0.23741E+08         0.00000E+00
    0.00000E+00         0.00000E+00        -0.40337E+07
 
    0.26692E+07        -0.84434E+05         0.00000E+00
   -0.84434E+05        -0.23762E+08         0.00000E+00
    0.00000E+00         0.00000E+00        -0.42186E+07
 
    0.18398E+07        -0.11280E+06         0.00000E+00
   -0.11280E+06        -0.23799E+08         0.00000E+00
    0.00000E+00         0.00000E+00        -0.43918E+07
 
    0.10754E+07        -0.11702E+06         0.00000E+00
   -0.11702E+06        -0.23845E+08         0.00000E+00
    0.00000E+00         0.00000E+00        -0.45540E+07
 
    0.36725E+06        -0.96113E+05         0.00000E+00
   -0.96113E+05        -0.23895E+08         0.00000E+00
    0.00000E+00         0.00000E+00        -0.47056E+07
 
   -0.29362E+06        -0.49508E+05         0.00000E+00
   -0.49508E+05        -0.23942E+08         0.00000E+00
    0.00000E+00         0.00000E+00        -0.48472E+07
 
   -0.91600E+06         0.23009E+05         0.00000E+00
    0.23009E+05        -0.23981E+08         0.00000E+00
    0.00000E+00         0.00000E+00        -0.49794E+07
 
   -0.15086E+07         0.12137E+06         0.00000E+00
    0.12137E+06        -0.24006E+08         0.00000E+00
    0.00000E+00         0.00000E+00        -0.51028E+07
 
   -0.20798E+07         0.24529E+06         0.00000E+00
    0.24529E+06        -0.24010E+08         0.00000E+00
    0.00000E+00         0.00000E+00        -0.52179E+07
 
   -0.26378E+07         0.39430E+06         0.00000E+00
    0.39430E+06        -0.23988E+08         0.00000E+00
    0.00000E+00         0.00000E+00        -0.53252E+07
 
   -0.31904E+07         0.56784E+06         0.00000E+00
    0.56784E+06        -0.23936E+08         0.00000E+00
    0.00000E+00         0.00000E+00        -0.54252E+07
 
   -0.37451E+07         0.76527E+06         0.00000E+00
    0.76527E+06        -0.23847E+08         0.00000E+00
    0.00000E+00         0.00000E+00        -0.55185E+07
 
   -0.43090E+07         0.98592E+06         0.00000E+00
    0.98592E+06        -0.23718E+08         0.00000E+00
    0.00000E+00         0.00000E+00        -0.56054E+07
 
   -0.48888E+07         0.12292E+07         0.00000E+00
    0.12292E+07        -0.23543E+08         0.00000E+00
    0.00000E+00         0.00000E+00        -0.56863E+07
 
   -0.54907E+07         0.14944E+07         0.00000E+00
    0.14944E+07        -0.23317E+08         0.00000E+00
    0.00000E+00         0.00000E+00        -0.57616E+07
 
    0.30487E+07        -0.41384E+05         0.00000E+00
   -0.41384E+05        -0.24196E+08         0.00000E+00
    0.00000E+00         0.00000E+00        -0.42294E+07
 
    0.21698E+07        -0.10508E+06         0.00000E+00
   -0.10508E+06        -0.24218E+08         0.00000E+00
    0.00000E+00         0.00000E+00        -0.44097E+07
 
    0.13665E+07        -0.14135E+06         0.00000E+00
   -0.14135E+06        -0.24258E+08         0.00000E+00
    0.00000E+00         0.00000E+00        -0.45783E+07
 
    0.62964E+06        -0.14855E+06         0.00000E+00
   -0.14855E+06        -0.24308E+08         0.00000E+00
    0.00000E+00         0.00000E+00        -0.47357E+07
 
   -0.50138E+05        -0.12561E+06         0.00000E+00
   -0.12561E+06        -0.24363E+08         0.00000E+00
    0.00000E+00         0.00000E+00        -0.48826E+07
 
   -0.68214E+06        -0.71954E+05         0.00000E+00
   -0.71954E+05        -0.24415E+08         0.00000E+00
    0.00000E+00         0.00000E+00        -0.50195E+07
 
   -0.12756E+07         0.12594E+05         0.00000E+00
    0.12594E+05        -0.24460E+08         0.00000E+00
    0.00000E+00         0.00000E+00        -0.51471E+07
 
   -0.18394E+07         0.12788E+06         0.00000E+00
    0.12788E+06        -0.24490E+08         0.00000E+00
    0.00000E+00         0.00000E+00        -0.52659E+07
 
   -0.23822E+07         0.27350E+06         0.00000E+00
    0.27350E+06        -0.24501E+08         0.00000E+00
    0.00000E+00         0.00000E+00        -0.53766E+07
 
   -0.29125E+07         0.44884E+06         0.00000E+00
    0.44884E+06        -0.24486E+08         0.00000E+00
    0.00000E+00         0.00000E+00        -0.54798E+07
 
   -0.34382E+07         0.65318E+06         0.00000E+00
    0.65318E+06        -0.24441E+08         0.00000E+00
    0.00000E+00         0.00000E+00        -0.55759E+07
 
   -0.39668E+07         0.88569E+06         0.00000E+00
    0.88569E+06        -0.24361E+08         0.00000E+00
    0.00000E+00         0.00000E+00        -0.56655E+07
 
   -0.45054E+07         0.11455E+07         0.00000E+00
    0.11455E+07        -0.24240E+08         0.00000E+00
    0.00000E+00         0.00000E+00        -0.57490E+07
 
   -0.50606E+07         0.14319E+07         0.00000E+00
    0.14319E+07        -0.24073E+08         0.00000E+00
    0.00000E+00         0.00000E+00        -0.58268E+07
 
   -0.56387E+07         0.17442E+07         0.00000E+00
    0.17442E+07        -0.23858E+08         0.00000E+00
    0.00000E+00         0.00000E+00        -0.58993E+07
 
    0.24362E+07        -0.50339E+05         0.00000E+00
   -0.50339E+05        -0.24724E+08         0.00000E+00
    0.00000E+00         0.00000E+00        -0.44575E+07
 
    0.15862E+07        -0.12831E+06         0.00000E+00
   -0.12831E+06        -0.24748E+08         0.00000E+00
    0.00000E+00         0.00000E+00        -0.46324E+07
 
    0.81415E+06        -0.17380E+06         0.00000E+00
   -0.17380E+06        -0.24791E+08         0.00000E+00
    0.00000E+00         0.00000E+00        -0.47954E+07
 
    0.10999E+06        -0.18504E+06         0.00000E+00
   -0.18504E+06        -0.24846E+08         0.00000E+00
    0.00000E+00         0.00000E+00        -0.49471E+07
 
   -0.53614E+06        -0.16092E+06         0.00000E+00
   -0.16092E+06        -0.24905E+08         0.00000E+00
    0.00000E+00         0.00000E+00        -0.50883E+07
 
   -0.11341E+07        -0.10089E+06         0.00000E+00
   -0.10089E+06        -0.24964E+08         0.00000E+00
    0.00000E+00         0.00000E+00        -0.52195E+07
 
   -0.16934E+07        -0.48574E+04         0.00000E+00
   -0.48574E+04        -0.25015E+08         0.00000E+00
    0.00000E+00         0.00000E+00        -0.53416E+07
 
   -0.22234E+07         0.12689E+06         0.00000E+00
    0.12689E+06        -0.25052E+08         0.00000E+00
    0.00000E+00         0.00000E+00        -0.54551E+07
 
   -0.27330E+07         0.29379E+06         0.00000E+00
    0.29379E+06        -0.25070E+08         0.00000E+00
    0.00000E+00         0.00000E+00        -0.55606E+07
 
   -0.32309E+07         0.49507E+06         0.00000E+00
    0.49507E+06        -0.25063E+08         0.00000E+00
    0.00000E+00         0.00000E+00        -0.56589E+07
 
   -0.37251E+07         0.72981E+06         0.00000E+00
    0.72981E+06        -0.25027E+08         0.00000E+00
    0.00000E+00         0.00000E+00        -0.57504E+07
 
   -0.42233E+07         0.99700E+06         0.00000E+00
    0.99700E+06        -0.24955E+08         0.00000E+00
    0.00000E+00         0.00000E+00        -0.58357E+07
 
   -0.47325E+07         0.12956E+07         0.00000E+00
    0.12956E+07        -0.24843E+08         0.00000E+00
    0.00000E+00         0.00000E+00        -0.59152E+07
 
   -0.52593E+07         0.16246E+07         0.00000E+00
    0.16246E+07        -0.24687E+08         0.00000E+00
    0.00000E+00         0.00000E+00        -0.59893E+07
 
   -0.58099E+07         0.19832E+07         0.00000E+00
    0.19832E+07        -0.24482E+08         0.00000E+00
    0.00000E+00         0.00000E+00        -0.60585E+07
 
    0.17341E+07        -0.60371E+05         0.00000E+00
   -0.60371E+05        -0.25324E+08         0.00000E+00
    0.00000E+00         0.00000E+00        -0.47180E+07
 
    0.91833E+06        -0.15447E+06         0.00000E+00
   -0.15447E+06        -0.25350E+08         0.00000E+00
    0.00000E+00         0.00000E+00        -0.48864E+07
 
    0.18279E+06        -0.21066E+06         0.00000E+00
   -0.21066E+06        -0.25396E+08         0.00000E+00
    0.00000E+00         0.00000E+00        -0.50427E+07
 
   -0.48320E+06        -0.22711E+06         0.00000E+00
   -0.22711E+06        -0.25456E+08         0.00000E+00
    0.00000E+00         0.00000E+00        -0.51878E+07
 
   -0.10902E+07        -0.20275E+06         0.00000E+00
   -0.20275E+06        -0.25521E+08         0.00000E+00
    0.00000E+00         0.00000E+00        -0.53222E+07
 
   -0.16487E+07        -0.13710E+06         0.00000E+00
   -0.13710E+06        -0.25586E+08         0.00000E+00
    0.00000E+00         0.00000E+00        -0.54469E+07
 
   -0.21686E+07        -0.30207E+05         0.00000E+00
   -0.30207E+05        -0.25644E+08         0.00000E+00
    0.00000E+00         0.00000E+00        -0.55625E+07
 
   -0.26597E+07         0.11747E+06         0.00000E+00
    0.11747E+06        -0.25689E+08         0.00000E+00
    0.00000E+00         0.00000E+00        -0.56697E+07
 
   -0.31312E+07         0.30518E+06         0.00000E+00
    0.30518E+06        -0.25715E+08         0.00000E+00
    0.00000E+00         0.00000E+00        -0.57693E+07
 
   -0.35920E+07         0.53195E+06         0.00000E+00
    0.53195E+06        -0.25717E+08         0.00000E+00
    0.00000E+00         0.00000E+00        -0.58618E+07
 
   -0.40502E+07         0.79664E+06         0.00000E+00
    0.79664E+06        -0.25690E+08         0.00000E+00
    0.00000E+00         0.00000E+00        -0.59480E+07
 
   -0.45136E+07         0.10980E+07         0.00000E+00
    0.10980E+07        -0.25628E+08         0.00000E+00
    0.00000E+00         0.00000E+00        -0.60283E+07
 
   -0.49893E+07         0.14348E+07         0.00000E+00
    0.14348E+07        -0.25527E+08         0.00000E+00
    0.00000E+00         0.00000E+00        -0.61032E+07
 
   -0.54840E+07         0.18059E+07         0.00000E+00
    0.18059E+07        -0.25382E+08         0.00000E+00
    0.00000E+00         0.00000E+00        -0.61732E+07
 
   -0.60035E+07         0.22100E+07         0.00000E+00
    0.22100E+07        -0.25189E+08         0.00000E+00
    0.00000E+00         0.00000E+00        -0.62386E+07
 
    0.94172E+06        -0.71599E+05         0.00000E+00
   -0.71599E+05        -0.25994E+08         0.00000E+00
    0.00000E+00         0.00000E+00        -0.50105E+07
 
    0.16579E+06        -0.18385E+06         0.00000E+00
   -0.18385E+06        -0.26023E+08         0.00000E+00
    0.00000E+00         0.00000E+00        -0.51713E+07
 
   -0.52743E+06        -0.25237E+06         0.00000E+00
   -0.25237E+06        -0.26073E+08         0.00000E+00
    0.00000E+00         0.00000E+00        -0.53200E+07
 
   -0.11495E+07        -0.27532E+06         0.00000E+00
   -0.27532E+06        -0.26137E+08         0.00000E+00
    0.00000E+00         0.00000E+00        -0.54572E+07
 
   -0.17117E+07        -0.25172E+06         0.00000E+00
   -0.25172E+06        -0.26208E+08         0.00000E+00
    0.00000E+00         0.00000E+00        -0.55840E+07
 
   -0.22250E+07        -0.18127E+06         0.00000E+00
   -0.18127E+06        -0.26280E+08         0.00000E+00
    0.00000E+00         0.00000E+00        -0.57010E+07
 
   -0.27002E+07        -0.64200E+05         0.00000E+00
   -0.64200E+05        -0.26345E+08         0.00000E+00
    0.00000E+00         0.00000E+00        -0.58091E+07
 
   -0.31472E+07         0.98819E+05         0.00000E+00
    0.98819E+05        -0.26398E+08         0.00000E+00
    0.00000E+00         0.00000E+00        -0.59091E+07
 
   -0.35756E+07         0.30680E+06         0.00000E+00
    0.30680E+06        -0.26433E+08         0.00000E+00
    0.00000E+00         0.00000E+00        -0.60018E+07
 
   -0.39944E+07         0.55852E+06         0.00000E+00
    0.55852E+06        -0.26445E+08         0.00000E+00
    0.00000E+00         0.00000E+00        -0.60879E+07
 
   -0.44122E+07         0.85261E+06         0.00000E+00
    0.85261E+06        -0.26427E+08         0.00000E+00
    0.00000E+00         0.00000E+00        -0.61679E+07
 
   -0.48366E+07         0.11876E+07         0.00000E+00
    0.11876E+07        -0.26376E+08         0.00000E+00
    0.00000E+00         0.00000E+00        -0.62426E+07
 
   -0.52749E+07         0.15620E+07         0.00000E+00
    0.15620E+07        -0.26287E+08         0.00000E+00
    0.00000E+00         0.00000E+00        -0.63123E+07
 
   -0.57337E+07         0.19743E+07         0.00000E+00
    0.19743E+07        -0.26155E+08         0.00000E+00
    0.00000E+00         0.00000E+00        -0.63777E+07
 
   -0.62187E+07         0.24231E+07         0.00000E+00
    0.24231E+07        -0.25976E+08         0.00000E+00
    0.00000E+00         0.00000E+00        -0.64389E+07
 
    0.58512E+05        -0.84127E+05         0.00000E+00
   -0.84127E+05        -0.26733E+08         0.00000E+00
    0.00000E+00         0.00000E+00        -0.53349E+07
 
   -0.67150E+06        -0.21674E+06         0.00000E+00
   -0.21674E+06        -0.26764E+08         0.00000E+00
    0.00000E+00         0.00000E+00        -0.54870E+07
 
   -0.13162E+07        -0.29930E+06         0.00000E+00
   -0.29930E+06        -0.26818E+08         0.00000E+00
    0.00000E+00         0.00000E+00        -0.56268E+07
 
   -0.18882E+07        -0.33011E+06         0.00000E+00
   -0.33011E+06        -0.26887E+08         0.00000E+00
    0.00000E+00         0.00000E+00        -0.57551E+07
 
   -0.23997E+07        -0.30835E+06         0.00000E+00
   -0.30835E+06        -0.26965E+08         0.00000E+00
    0.00000E+00         0.00000E+00        -0.58729E+07
 
   -0.28622E+07        -0.23396E+06         0.00000E+00
   -0.23396E+06        -0.27043E+08         0.00000E+00
    0.00000E+00         0.00000E+00        -0.59811E+07
 
   -0.32870E+07        -0.10743E+06         0.00000E+00
   -0.10743E+06        -0.27117E+08         0.00000E+00
    0.00000E+00         0.00000E+00        -0.60807E+07
 
   -0.36846E+07         0.70277E+05         0.00000E+00
    0.70277E+05        -0.27178E+08         0.00000E+00
    0.00000E+00         0.00000E+00        -0.61726E+07
 
   -0.40648E+07         0.29791E+06         0.00000E+00
    0.29791E+06        -0.27222E+08         0.00000E+00
    0.00000E+00         0.00000E+00        -0.62574E+07
 
   -0.44371E+07         0.57397E+06         0.00000E+00
    0.57397E+06        -0.27244E+08         0.00000E+00
    0.00000E+00         0.00000E+00        -0.63361E+07
 
   -0.48098E+07         0.89684E+06         0.00000E+00
    0.89684E+06        -0.27237E+08         0.00000E+00
    0.00000E+00         0.00000E+00        -0.64093E+07
 
   -0.51911E+07         0.12648E+07         0.00000E+00
    0.12648E+07        -0.27197E+08         0.00000E+00
    0.00000E+00         0.00000E+00        -0.64777E+07
 
   -0.55880E+07         0.16760E+07         0.00000E+00
    0.16760E+07        -0.27120E+08         0.00000E+00
    0.00000E+00         0.00000E+00        -0.65416E+07
 
   -0.60073E+07         0.21288E+07         0.00000E+00
    0.21288E+07        -0.27002E+08         0.00000E+00
    0.00000E+00         0.00000E+00        -0.66018E+07
 
   -0.64545E+07         0.26214E+07         0.00000E+00
    0.26214E+07        -0.26837E+08         0.00000E+00
    0.00000E+00         0.00000E+00        -0.66584E+07
 
   -0.91612E+06        -0.98040E+05         0.00000E+00
   -0.98040E+05        -0.27539E+08         0.00000E+00
    0.00000E+00         0.00000E+00        -0.56910E+07
 
   -0.15935E+07        -0.25332E+06         0.00000E+00
   -0.25332E+06        -0.27572E+08         0.00000E+00
    0.00000E+00         0.00000E+00        -0.58330E+07
 
   -0.21832E+07        -0.35174E+06         0.00000E+00
   -0.35174E+06        -0.27629E+08         0.00000E+00
    0.00000E+00         0.00000E+00        -0.59625E+07
 
   -0.26987E+07        -0.39179E+06         0.00000E+00
   -0.39179E+06        -0.27704E+08         0.00000E+00
    0.00000E+00         0.00000E+00        -0.60806E+07
 
   -0.31531E+07        -0.37297E+06         0.00000E+00
   -0.37297E+06        -0.27788E+08         0.00000E+00
    0.00000E+00         0.00000E+00        -0.61882E+07
 
   -0.35588E+07        -0.29552E+06         0.00000E+00
   -0.29552E+06        -0.27874E+08         0.00000E+00
    0.00000E+00         0.00000E+00        -0.62865E+07
 
   -0.39276E+07        -0.16031E+06         0.00000E+00
   -0.16031E+06        -0.27955E+08         0.00000E+00
    0.00000E+00         0.00000E+00        -0.63765E+07
 
   -0.42704E+07         0.31378E+05         0.00000E+00
    0.31378E+05        -0.28025E+08         0.00000E+00
    0.00000E+00         0.00000E+00        -0.64591E+07
 
   -0.45975E+07         0.27796E+06         0.00000E+00
    0.27796E+06        -0.28079E+08         0.00000E+00
    0.00000E+00         0.00000E+00        -0.65352E+07
 
   -0.49183E+07         0.57765E+06         0.00000E+00
    0.57765E+06        -0.28110E+08         0.00000E+00
    0.00000E+00         0.00000E+00        -0.66056E+07
 
   -0.52416E+07         0.92853E+06         0.00000E+00
    0.92853E+06        -0.28114E+08         0.00000E+00
    0.00000E+00         0.00000E+00        -0.66712E+07
 
   -0.55755E+07         0.13286E+07         0.00000E+00
    0.13286E+07        -0.28087E+08         0.00000E+00
    0.00000E+00         0.00000E+00        -0.67324E+07
 
   -0.59273E+07         0.17758E+07         0.00000E+00
    0.17758E+07        -0.28023E+08         0.00000E+00
    0.00000E+00         0.00000E+00        -0.67900E+07
 
   -0.63035E+07         0.22682E+07         0.00000E+00
    0.22682E+07        -0.27919E+08         0.00000E+00
    0.00000E+00         0.00000E+00        -0.68444E+07
 
   -0.67098E+07         0.28036E+07         0.00000E+00
    0.28036E+07        -0.27770E+08         0.00000E+00
    0.00000E+00         0.00000E+00        -0.68960E+07
 
   -0.19826E+07        -0.11340E+06         0.00000E+00
   -0.11340E+06        -0.28409E+08         0.00000E+00
    0.00000E+00         0.00000E+00        -0.60783E+07
 
   -0.26001E+07        -0.29374E+06         0.00000E+00
   -0.29374E+06        -0.28444E+08         0.00000E+00
    0.00000E+00         0.00000E+00        -0.62088E+07
 
   -0.31276E+07        -0.40983E+06         0.00000E+00
   -0.40983E+06        -0.28506E+08         0.00000E+00
    0.00000E+00         0.00000E+00        -0.63266E+07
 
   -0.35797E+07        -0.46052E+06         0.00000E+00
   -0.46052E+06        -0.28585E+08         0.00000E+00
    0.00000E+00         0.00000E+00        -0.64330E+07
 
   -0.39706E+07        -0.44572E+06         0.00000E+00
   -0.44572E+06        -0.28675E+08         0.00000E+00
    0.00000E+00         0.00000E+00        -0.65292E+07
 
   -0.43134E+07        -0.36611E+06         0.00000E+00
   -0.36611E+06        -0.28768E+08         0.00000E+00
    0.00000E+00         0.00000E+00        -0.66163E+07
 
   -0.46205E+07        -0.22302E+06         0.00000E+00
   -0.22302E+06        -0.28857E+08         0.00000E+00
    0.00000E+00         0.00000E+00        -0.66955E+07
 
   -0.49032E+07        -0.18119E+05         0.00000E+00
   -0.18119E+05        -0.28935E+08         0.00000E+00
    0.00000E+00         0.00000E+00        -0.67677E+07
 
   -0.51720E+07         0.24662E+06         0.00000E+00
    0.24662E+06        -0.28998E+08         0.00000E+00
    0.00000E+00         0.00000E+00        -0.68340E+07
 
   -0.54367E+07         0.56909E+06         0.00000E+00
    0.56909E+06        -0.29040E+08         0.00000E+00
    0.00000E+00         0.00000E+00        -0.68952E+07
 
   -0.57061E+07         0.94708E+06         0.00000E+00
    0.94708E+06        -0.29055E+08         0.00000E+00
    0.00000E+00         0.00000E+00        -0.69523E+07
 
   -0.59885E+07         0.13783E+07         0.00000E+00
    0.13783E+07        -0.29040E+08         0.00000E+00
    0.00000E+00         0.00000E+00        -0.70057E+07
 
   -0.62912E+07         0.18606E+07         0.00000E+00
    0.18606E+07        -0.28990E+08         0.00000E+00
    0.00000E+00         0.00000E+00        -0.70563E+07
 
   -0.66209E+07         0.23914E+07         0.00000E+00
    0.23914E+07        -0.28901E+08         0.00000E+00
    0.00000E+00         0.00000E+00        -0.71045E+07
 
   -0.69832E+07         0.29685E+07         0.00000E+00
    0.29685E+07        -0.28770E+08         0.00000E+00
    0.00000E+00         0.00000E+00        -0.71506E+07
 
   -0.31411E+07        -0.13025E+06         0.00000E+00
   -0.13025E+06        -0.29340E+08         0.00000E+00
    0.00000E+00         0.00000E+00        -0.64963E+07
 
   -0.36908E+07        -0.33805E+06         0.00000E+00
   -0.33805E+06        -0.29378E+08         0.00000E+00
    0.00000E+00         0.00000E+00        -0.66137E+07
 
   -0.41484E+07        -0.47360E+06         0.00000E+00
   -0.47360E+06        -0.29443E+08         0.00000E+00
    0.00000E+00         0.00000E+00        -0.67183E+07
 
   -0.45300E+07        -0.53626E+06         0.00000E+00
   -0.53626E+06        -0.29528E+08         0.00000E+00
    0.00000E+00         0.00000E+00        -0.68116E+07
 
   -0.48506E+07        -0.52649E+06         0.00000E+00
   -0.52649E+06        -0.29624E+08         0.00000E+00
    0.00000E+00         0.00000E+00        -0.68949E+07
 
   -0.51242E+07        -0.44560E+06         0.00000E+00
   -0.44560E+06        -0.29723E+08         0.00000E+00
    0.00000E+00         0.00000E+00        -0.69694E+07
 
   -0.53638E+07        -0.29542E+06         0.00000E+00
   -0.29542E+06        -0.29818E+08         0.00000E+00
    0.00000E+00         0.00000E+00        -0.70364E+07
 
   -0.55810E+07        -0.78163E+05         0.00000E+00
   -0.78163E+05        -0.29905E+08         0.00000E+00
    0.00000E+00         0.00000E+00        -0.70971E+07
 
   -0.57866E+07         0.20381E+06         0.00000E+00
    0.20381E+06        -0.29976E+08         0.00000E+00
    0.00000E+00         0.00000E+00        -0.71526E+07
 
   -0.59904E+07         0.54805E+06         0.00000E+00
    0.54805E+06        -0.30028E+08         0.00000E+00
    0.00000E+00         0.00000E+00        -0.72036E+07
 
   -0.62016E+07         0.95206E+06         0.00000E+00
    0.95206E+06        -0.30055E+08         0.00000E+00
    0.00000E+00         0.00000E+00        -0.72513E+07
 
   -0.64284E+07         0.14134E+07         0.00000E+00
    0.14134E+07        -0.30053E+08         0.00000E+00
    0.00000E+00         0.00000E+00        -0.72962E+07
 
   -0.66783E+07         0.19294E+07         0.00000E+00
    0.19294E+07        -0.30017E+08         0.00000E+00
    0.00000E+00         0.00000E+00        -0.73391E+07
 
   -0.69581E+07         0.24975E+07         0.00000E+00
    0.24975E+07        -0.29944E+08         0.00000E+00
    0.00000E+00         0.00000E+00        -0.73805E+07
 
   -0.72735E+07         0.31150E+07         0.00000E+00
    0.31150E+07        -0.29831E+08         0.00000E+00
    0.00000E+00         0.00000E+00        -0.74208E+07
 
   -0.43917E+07        -0.14857E+06         0.00000E+00
   -0.14857E+06        -0.30331E+08         0.00000E+00
    0.00000E+00         0.00000E+00        -0.69446E+07
 
   -0.48648E+07        -0.38617E+06         0.00000E+00
   -0.38617E+06        -0.30370E+08         0.00000E+00
    0.00000E+00         0.00000E+00        -0.70471E+07
 
   -0.52444E+07        -0.54285E+06         0.00000E+00
   -0.54285E+06        -0.30439E+08         0.00000E+00
    0.00000E+00         0.00000E+00        -0.71367E+07
 
   -0.55477E+07        -0.61868E+06         0.00000E+00
   -0.61868E+06        -0.30528E+08         0.00000E+00
    0.00000E+00         0.00000E+00        -0.72152E+07
 
   -0.57911E+07        -0.61488E+06         0.00000E+00
   -0.61488E+06        -0.30629E+08         0.00000E+00
    0.00000E+00         0.00000E+00        -0.72840E+07
 
   -0.59892E+07        -0.53350E+06         0.00000E+00
   -0.53350E+06        -0.30733E+08         0.00000E+00
    0.00000E+00         0.00000E+00        -0.73445E+07
 
   -0.61555E+07        -0.37706E+06         0.00000E+00
   -0.37706E+06        -0.30835E+08         0.00000E+00
    0.00000E+00         0.00000E+00        -0.73981E+07
 
   -0.63019E+07        -0.14835E+06         0.00000E+00
   -0.14835E+06        -0.30928E+08         0.00000E+00
    0.00000E+00         0.00000E+00        -0.74461E+07
 
   -0.64394E+07         0.14979E+06         0.00000E+00
    0.14979E+06        -0.31008E+08         0.00000E+00
    0.00000E+00         0.00000E+00        -0.74895E+07
 
   -0.65779E+07         0.51456E+06         0.00000E+00
    0.51456E+06        -0.31069E+08         0.00000E+00
    0.00000E+00         0.00000E+00        -0.75294E+07
 
   -0.67266E+07         0.94325E+06         0.00000E+00
    0.94325E+06        -0.31107E+08         0.00000E+00
    0.00000E+00         0.00000E+00        -0.75667E+07
 
   -0.68937E+07         0.14332E+07         0.00000E+00
    0.14332E+07        -0.31118E+08         0.00000E+00
    0.00000E+00         0.00000E+00        -0.76023E+07
 
   -0.70870E+07         0.19816E+07         0.00000E+00
    0.19816E+07        -0.31097E+08         0.00000E+00
    0.00000E+00         0.00000E+00        -0.76368E+07
 
   -0.73134E+07         0.25856E+07         0.00000E+00
    0.25856E+07        -0.31041E+08         0.00000E+00
    0.00000E+00         0.00000E+00        -0.76709E+07
 
   -0.75789E+07         0.32421E+07         0.00000E+00
    0.32421E+07        -0.30946E+08         0.00000E+00
    0.00000E+00         0.00000E+00        -0.77050E+07
 
   -0.57338E+07        -0.16832E+06         0.00000E+00
   -0.16832E+06        -0.31378E+08         0.00000E+00
    0.00000E+00         0.00000E+00        -0.74223E+07
 
   -0.61209E+07        -0.43791E+06         0.00000E+00
   -0.43791E+06        -0.31419E+08         0.00000E+00
    0.00000E+00         0.00000E+00        -0.75079E+07
 
   -0.64136E+07        -0.61720E+06         0.00000E+00
   -0.61720E+06        -0.31490E+08         0.00000E+00
    0.00000E+00         0.00000E+00        -0.75808E+07
 
   -0.66308E+07        -0.70718E+06         0.00000E+00
   -0.70718E+06        -0.31583E+08         0.00000E+00
    0.00000E+00         0.00000E+00        -0.76427E+07
 
   -0.67898E+07        -0.71009E+06         0.00000E+00
   -0.71009E+06        -0.31687E+08         0.00000E+00
    0.00000E+00         0.00000E+00        -0.76954E+07
 
   -0.69060E+07        -0.62889E+06         0.00000E+00
   -0.62889E+06        -0.31796E+08         0.00000E+00
    0.00000E+00         0.00000E+00        -0.77403E+07
 
   -0.69933E+07        -0.46699E+06         0.00000E+00
   -0.46699E+06        -0.31902E+08         0.00000E+00
    0.00000E+00         0.00000E+00        -0.77791E+07
 
   -0.70639E+07        -0.22784E+06         0.00000E+00
   -0.22784E+06        -0.32001E+08         0.00000E+00
    0.00000E+00         0.00000E+00        -0.78130E+07
 
   -0.71287E+07         0.85193E+05         0.00000E+00
    0.85193E+05        -0.32087E+08         0.00000E+00
    0.00000E+00         0.00000E+00        -0.78432E+07
 
   -0.71975E+07         0.46900E+06         0.00000E+00
    0.46900E+06        -0.32157E+08         0.00000E+00
    0.00000E+00         0.00000E+00        -0.78708E+07
 
   -0.72795E+07         0.92066E+06         0.00000E+00
    0.92066E+06        -0.32205E+08         0.00000E+00
    0.00000E+00         0.00000E+00        -0.78969E+07
 
   -0.73829E+07         0.14374E+07         0.00000E+00
    0.14374E+07        -0.32229E+08         0.00000E+00
    0.00000E+00         0.00000E+00        -0.79223E+07
 
   -0.75158E+07         0.20164E+07         0.00000E+00
    0.20164E+07        -0.32223E+08         0.00000E+00
    0.00000E+00         0.00000E+00        -0.79478E+07
 
   -0.76853E+07         0.26547E+07         0.00000E+00
    0.26547E+07        -0.32185E+08         0.00000E+00
    0.00000E+00         0.00000E+00        -0.79740E+07
 
   -0.78978E+07         0.33488E+07         0.00000E+00
    0.33488E+07        -0.32109E+08         0.00000E+00
    0.00000E+00         0.00000E+00        -0.80014E+07
 
   -0.71665E+07        -0.18940E+06         0.00000E+00
   -0.18940E+06        -0.32477E+08         0.00000E+00
    0.00000E+00         0.00000E+00        -0.79287E+07
 
   -0.74572E+07        -0.49290E+06         0.00000E+00
   -0.49290E+06        -0.32519E+08         0.00000E+00
    0.00000E+00         0.00000E+00        -0.79953E+07
 
   -0.76536E+07        -0.69593E+06         0.00000E+00
   -0.69593E+06        -0.32593E+08         0.00000E+00
    0.00000E+00         0.00000E+00        -0.80493E+07
 
   -0.77763E+07        -0.80074E+06         0.00000E+00
   -0.80074E+06        -0.32687E+08         0.00000E+00
    0.00000E+00         0.00000E+00        -0.80927E+07
 
   -0.78437E+07        -0.81081E+06         0.00000E+00
   -0.81081E+06        -0.32794E+08         0.00000E+00
    0.00000E+00         0.00000E+00        -0.81275E+07
 
   -0.78718E+07        -0.73034E+06         0.00000E+00
   -0.73034E+06        -0.32904E+08         0.00000E+00
    0.00000E+00         0.00000E+00        -0.81552E+07
 
   -0.78748E+07        -0.56373E+06         0.00000E+00
   -0.56373E+06        -0.33013E+08         0.00000E+00
    0.00000E+00         0.00000E+00        -0.81776E+07
 
   -0.78648E+07        -0.31527E+06         0.00000E+00
   -0.31527E+06        -0.33116E+08         0.00000E+00
    0.00000E+00         0.00000E+00        -0.81961E+07
 
   -0.78525E+07         0.11141E+05         0.00000E+00
    0.11141E+05        -0.33207E+08         0.00000E+00
    0.00000E+00         0.00000E+00        -0.82119E+07
 
   -0.78476E+07         0.41209E+06         0.00000E+00
    0.41209E+06        -0.33284E+08         0.00000E+00
    0.00000E+00         0.00000E+00        -0.82262E+07
 
   -0.78588E+07         0.88459E+06         0.00000E+00
    0.88459E+06        -0.33342E+08         0.00000E+00
    0.00000E+00         0.00000E+00        -0.82401E+07
 
   -0.78947E+07         0.14259E+07         0.00000E+00
    0.14259E+07        -0.33378E+08         0.00000E+00
    0.00000E+00         0.00000E+00        -0.82545E+07
 
   -0.79633E+07         0.20334E+07         0.00000E+00
    0.20334E+07        -0.33388E+08         0.00000E+00
    0.00000E+00         0.00000E+00        -0.82702E+07
 
   -0.80721E+07         0.27039E+07         0.00000E+00
    0.27039E+07        -0.33367E+08         0.00000E+00
    0.00000E+00         0.00000E+00        -0.82879E+07
 
   -0.82283E+07         0.34340E+07         0.00000E+00
    0.34340E+07        -0.33313E+08         0.00000E+00
    0.00000E+00         0.00000E+00        -0.83082E+07
 
   -0.86884E+07        -0.21165E+06         0.00000E+00
   -0.21165E+06        -0.33624E+08         0.00000E+00
    0.00000E+00         0.00000E+00        -0.84626E+07
 
   -0.88714E+07        -0.55057E+06         0.00000E+00
   -0.55057E+06        -0.33667E+08         0.00000E+00
    0.00000E+00         0.00000E+00        -0.85078E+07
 
   -0.89615E+07        -0.77803E+06         0.00000E+00
   -0.77803E+06        -0.33742E+08         0.00000E+00
    0.00000E+00         0.00000E+00        -0.85407E+07
 
   -0.89810E+07        -0.89787E+06         0.00000E+00
   -0.89787E+06        -0.33837E+08         0.00000E+00
    0.00000E+00         0.00000E+00        -0.85636E+07
 
   -0.89495E+07        -0.91520E+06         0.00000E+00
   -0.91520E+06        -0.33943E+08         0.00000E+00
    0.00000E+00         0.00000E+00        -0.85785E+07
 
   -0.88836E+07        -0.83571E+06         0.00000E+00
   -0.83571E+06        -0.34053E+08         0.00000E+00
    0.00000E+00         0.00000E+00        -0.85874E+07
 
   -0.87972E+07        -0.66510E+06         0.00000E+00
   -0.66510E+06        -0.34162E+08         0.00000E+00
    0.00000E+00         0.00000E+00        -0.85919E+07
 
   -0.87024E+07        -0.40860E+06         0.00000E+00
   -0.40860E+06        -0.34265E+08         0.00000E+00
    0.00000E+00         0.00000E+00        -0.85935E+07
 
   -0.86093E+07        -0.70680E+05         0.00000E+00
   -0.70680E+05        -0.34359E+08         0.00000E+00
    0.00000E+00         0.00000E+00        -0.85937E+07
 
   -0.85269E+07         0.34503E+06         0.00000E+00
    0.34503E+06        -0.34441E+08         0.00000E+00
    0.00000E+00         0.00000E+00        -0.85936E+07
 
   -0.84637E+07         0.83564E+06         0.00000E+00
    0.83564E+06        -0.34508E+08         0.00000E+00
    0.00000E+00         0.00000E+00        -0.85943E+07
 
   -0.84281E+07         0.13987E+07         0.00000E+00
    0.13987E+07        -0.34556E+08         0.00000E+00
    0.00000E+00         0.00000E+00        -0.85967E+07
 
   -0.84282E+07         0.20318E+07         0.00000E+00
    0.20318E+07        -0.34581E+08         0.00000E+00
    0.00000E+00         0.00000E+00        -0.86019E+07
 
   -0.84723E+07         0.27323E+07         0.00000E+00
    0.27323E+07        -0.34580E+08         0.00000E+00
    0.00000E+00         0.00000E+00        -0.86104E+07
 
   -0.85685E+07         0.34964E+07         0.00000E+00
    0.34964E+07        -0.34547E+08         0.00000E+00
    0.00000E+00         0.00000E+00        -0.86231E+07
 
   -0.10297E+08        -0.23483E+06         0.00000E+00
   -0.23483E+06        -0.34816E+08         0.00000E+00
    0.00000E+00         0.00000E+00        -0.90227E+07
 
   -0.10360E+08        -0.61012E+06         0.00000E+00
   -0.61012E+06        -0.34860E+08         0.00000E+00
    0.00000E+00         0.00000E+00        -0.90439E+07
 
   -0.10333E+08        -0.86205E+06         0.00000E+00
   -0.86205E+06        -0.34934E+08         0.00000E+00
    0.00000E+00         0.00000E+00        -0.90533E+07
 
   -0.10241E+08        -0.99650E+06         0.00000E+00
   -0.99650E+06        -0.35027E+08         0.00000E+00
    0.00000E+00         0.00000E+00        -0.90535E+07
 
   -0.10103E+08        -0.10206E+07         0.00000E+00
   -0.10206E+07        -0.35130E+08         0.00000E+00
    0.00000E+00         0.00000E+00        -0.90466E+07
 
   -0.99375E+07        -0.94209E+06         0.00000E+00
   -0.94209E+06        -0.35236E+08         0.00000E+00
    0.00000E+00         0.00000E+00        -0.90348E+07
 
   -0.97577E+07        -0.76811E+06         0.00000E+00
   -0.76811E+06        -0.35341E+08         0.00000E+00
    0.00000E+00         0.00000E+00        -0.90198E+07
 
   -0.95746E+07        -0.50503E+06         0.00000E+00
   -0.50503E+06        -0.35442E+08         0.00000E+00
    0.00000E+00         0.00000E+00        -0.90032E+07
 
   -0.93976E+07        -0.15791E+06         0.00000E+00
   -0.15791E+06        -0.35535E+08         0.00000E+00
    0.00000E+00         0.00000E+00        -0.89865E+07
 
   -0.92346E+07         0.26953E+06         0.00000E+00
    0.26953E+06        -0.35620E+08         0.00000E+00
    0.00000E+00         0.00000E+00        -0.89708E+07
 
   -0.90936E+07         0.77472E+06         0.00000E+00
    0.77472E+06        -0.35693E+08         0.00000E+00
    0.00000E+00         0.00000E+00        -0.89573E+07
 
   -0.89825E+07         0.13558E+07         0.00000E+00
    0.13558E+07        -0.35752E+08         0.00000E+00
    0.00000E+00         0.00000E+00        -0.89469E+07
 
   -0.89099E+07         0.20111E+07         0.00000E+00
    0.20111E+07        -0.35793E+08         0.00000E+00
    0.00000E+00         0.00000E+00        -0.89406E+07
 
   -0.88847E+07         0.27385E+07         0.00000E+00
    0.27385E+07        -0.35812E+08         0.00000E+00
    0.00000E+00         0.00000E+00        -0.89393E+07
 
   -0.89163E+07         0.35345E+07         0.00000E+00
    0.35345E+07        -0.35802E+08         0.00000E+00
    0.00000E+00         0.00000E+00        -0.89437E+07
 
   -0.11989E+08        -0.25864E+06         0.00000E+00
   -0.25864E+06        -0.36049E+08         0.00000E+00
    0.00000E+00         0.00000E+00        -0.96076E+07
 
   -0.11919E+08        -0.67048E+06         0.00000E+00
   -0.67048E+06        -0.36091E+08         0.00000E+00
    0.00000E+00         0.00000E+00        -0.96019E+07
 
   -0.11763E+08        -0.94605E+06         0.00000E+00
   -0.94605E+06        -0.36162E+08         0.00000E+00
    0.00000E+00         0.00000E+00        -0.95852E+07
 
   -0.11550E+08        -0.10938E+07         0.00000E+00
   -0.10938E+07        -0.36251E+08         0.00000E+00
    0.00000E+00         0.00000E+00        -0.95601E+07
 
   -0.11300E+08        -0.11236E+07         0.00000E+00
   -0.11236E+07        -0.36347E+08         0.00000E+00
    0.00000E+00         0.00000E+00        -0.95293E+07
 
   -0.11030E+08        -0.10456E+07         0.00000E+00
   -0.10456E+07        -0.36445E+08         0.00000E+00
    0.00000E+00         0.00000E+00        -0.94950E+07
 
   -0.10753E+08        -0.86874E+06         0.00000E+00
   -0.86874E+06        -0.36542E+08         0.00000E+00
    0.00000E+00         0.00000E+00        -0.94590E+07
 
   -0.10479E+08        -0.60080E+06         0.00000E+00
   -0.60080E+06        -0.36635E+08         0.00000E+00
    0.00000E+00         0.00000E+00        -0.94229E+07
 
   -0.10216E+08        -0.24737E+06         0.00000E+00
   -0.24737E+06        -0.36724E+08         0.00000E+00
    0.00000E+00         0.00000E+00        -0.93881E+07
 
   -0.99706E+07         0.18791E+06         0.00000E+00
    0.18791E+06        -0.36808E+08         0.00000E+00
    0.00000E+00         0.00000E+00        -0.93557E+07
 
   -0.97488E+07         0.70312E+06         0.00000E+00
    0.70312E+06        -0.36886E+08         0.00000E+00
    0.00000E+00         0.00000E+00        -0.93269E+07
 
   -0.95584E+07         0.12975E+07         0.00000E+00
    0.12975E+07        -0.36955E+08         0.00000E+00
    0.00000E+00         0.00000E+00        -0.93028E+07
 
   -0.94082E+07         0.19705E+07         0.00000E+00
    0.19705E+07        -0.37013E+08         0.00000E+00
    0.00000E+00         0.00000E+00        -0.92842E+07
 
   -0.93083E+07         0.27210E+07         0.00000E+00
    0.27210E+07        -0.37053E+08         0.00000E+00
    0.00000E+00         0.00000E+00        -0.92722E+07
 
   -0.92698E+07         0.35464E+07         0.00000E+00
    0.35464E+07        -0.37069E+08         0.00000E+00
    0.00000E+00         0.00000E+00        -0.92677E+07
 
   -0.13761E+08        -0.28268E+06         0.00000E+00
   -0.28268E+06        -0.37316E+08         0.00000E+00
    0.00000E+00         0.00000E+00        -0.10215E+08
 
   -0.13542E+08        -0.73026E+06         0.00000E+00
   -0.73026E+06        -0.37356E+08         0.00000E+00
    0.00000E+00         0.00000E+00        -0.10180E+08
 
   -0.13246E+08        -0.10275E+07         0.00000E+00
   -0.10275E+07        -0.37423E+08         0.00000E+00
    0.00000E+00         0.00000E+00        -0.10134E+08
 
   -0.12902E+08        -0.11861E+07         0.00000E+00
   -0.11861E+07        -0.37503E+08         0.00000E+00
    0.00000E+00         0.00000E+00        -0.10081E+08
 
   -0.12533E+08        -0.12196E+07         0.00000E+00
   -0.12196E+07        -0.37588E+08         0.00000E+00
    0.00000E+00         0.00000E+00        -0.10024E+08
 
   -0.12155E+08        -0.11410E+07         0.00000E+00
   -0.11410E+07        -0.37672E+08         0.00000E+00
    0.00000E+00         0.00000E+00        -0.99655E+07
 
   -0.11780E+08        -0.96179E+06         0.00000E+00
   -0.96179E+06        -0.37754E+08         0.00000E+00
    0.00000E+00         0.00000E+00        -0.99069E+07
 
   -0.11415E+08        -0.69108E+06         0.00000E+00
   -0.69108E+06        -0.37835E+08         0.00000E+00
    0.00000E+00         0.00000E+00        -0.98499E+07
 
   -0.11065E+08        -0.33501E+06         0.00000E+00
   -0.33501E+06        -0.37914E+08         0.00000E+00
    0.00000E+00         0.00000E+00        -0.97959E+07
 
   -0.10736E+08         0.10314E+06         0.00000E+00
    0.10314E+06        -0.37994E+08         0.00000E+00
    0.00000E+00         0.00000E+00        -0.97458E+07
 
   -0.10431E+08         0.62251E+06         0.00000E+00
    0.62251E+06        -0.38074E+08         0.00000E+00
    0.00000E+00         0.00000E+00        -0.97008E+07
 
   -0.10157E+08         0.12239E+07         0.00000E+00
    0.12239E+07        -0.38152E+08         0.00000E+00
    0.00000E+00         0.00000E+00        -0.96619E+07
 
   -0.99240E+07         0.19088E+07         0.00000E+00
    0.19088E+07        -0.38226E+08         0.00000E+00
    0.00000E+00         0.00000E+00        -0.96300E+07
 
   -0.97427E+07         0.26778E+07         0.00000E+00
    0.26778E+07        -0.38289E+08         0.00000E+00
    0.00000E+00         0.00000E+00        -0.96064E+07
 
   -0.96270E+07         0.35295E+07         0.00000E+00
    0.35295E+07        -0.38333E+08         0.00000E+00
    0.00000E+00         0.00000E+00        -0.95921E+07
 
   -0.15606E+08        -0.30646E+06         0.00000E+00
   -0.30646E+06        -0.38613E+08         0.00000E+00
    0.00000E+00         0.00000E+00        -0.10844E+08
 
   -0.15222E+08        -0.78767E+06         0.00000E+00
   -0.78767E+06        -0.38651E+08         0.00000E+00
    0.00000E+00         0.00000E+00        -0.10775E+08
 
   -0.14773E+08        -0.11029E+07         0.00000E+00
   -0.11029E+07        -0.38710E+08         0.00000E+00
    0.00000E+00         0.00000E+00        -0.10697E+08
 
   -0.14290E+08        -0.12686E+07         0.00000E+00
   -0.12686E+07        -0.38777E+08         0.00000E+00
    0.00000E+00         0.00000E+00        -0.10613E+08
 
   -0.13797E+08        -0.13026E+07         0.00000E+00
   -0.13026E+07        -0.38843E+08         0.00000E+00
    0.00000E+00         0.00000E+00        -0.10528E+08
 
   -0.13310E+08        -0.12218E+07         0.00000E+00
   -0.12218E+07        -0.38907E+08         0.00000E+00
    0.00000E+00         0.00000E+00        -0.10443E+08
 
   -0.12836E+08        -0.10407E+07         0.00000E+00
   -0.10407E+07        -0.38968E+08         0.00000E+00
    0.00000E+00         0.00000E+00        -0.10361E+08
 
   -0.12380E+08        -0.76982E+06         0.00000E+00
   -0.76982E+06        -0.39028E+08         0.00000E+00
    0.00000E+00         0.00000E+00        -0.10282E+08
 
   -0.11945E+08        -0.41574E+06         0.00000E+00
   -0.41574E+06        -0.39092E+08         0.00000E+00
    0.00000E+00         0.00000E+00        -0.10207E+08
 
   -0.11532E+08         0.18940E+05         0.00000E+00
    0.18940E+05        -0.39162E+08         0.00000E+00
    0.00000E+00         0.00000E+00        -0.10139E+08
 
   -0.11142E+08         0.53494E+06         0.00000E+00
    0.53494E+06        -0.39241E+08         0.00000E+00
    0.00000E+00         0.00000E+00        -0.10077E+08
 
   -0.10782E+08         0.11354E+07         0.00000E+00
    0.11354E+07        -0.39328E+08         0.00000E+00
    0.00000E+00         0.00000E+00        -0.10022E+08
 
   -0.10459E+08         0.18246E+07         0.00000E+00
    0.18246E+07        -0.39419E+08         0.00000E+00
    0.00000E+00         0.00000E+00        -0.99758E+07
 
   -0.10189E+08         0.26059E+07         0.00000E+00
    0.26059E+07        -0.39508E+08         0.00000E+00
    0.00000E+00         0.00000E+00        -0.99394E+07
 
   -0.99862E+07         0.34801E+07         0.00000E+00
    0.34801E+07        -0.39584E+08         0.00000E+00
    0.00000E+00         0.00000E+00        -0.99141E+07
 
   -0.17518E+08        -0.32940E+06         0.00000E+00
   -0.32940E+06        -0.39935E+08         0.00000E+00
    0.00000E+00         0.00000E+00        -0.11491E+08
 
   -0.16950E+08        -0.84040E+06         0.00000E+00
   -0.84040E+06        -0.39968E+08         0.00000E+00
    0.00000E+00         0.00000E+00        -0.11384E+08
 
   -0.16334E+08        -0.11681E+07         0.00000E+00
   -0.11681E+07        -0.40015E+08         0.00000E+00
    0.00000E+00         0.00000E+00        -0.11270E+08
 
   -0.15704E+08        -0.13349E+07         0.00000E+00
   -0.13349E+07        -0.40063E+08         0.00000E+00
    0.00000E+00         0.00000E+00        -0.11153E+08
 
   -0.15083E+08        -0.13648E+07         0.00000E+00
   -0.13648E+07        -0.40104E+08         0.00000E+00
    0.00000E+00         0.00000E+00        -0.11038E+08
 
   -0.14486E+08        -0.12798E+07         0.00000E+00
   -0.12798E+07        -0.40138E+08         0.00000E+00
    0.00000E+00         0.00000E+00        -0.10925E+08
 
   -0.13917E+08        -0.10974E+07         0.00000E+00
   -0.10974E+07        -0.40169E+08         0.00000E+00
    0.00000E+00         0.00000E+00        -0.10817E+08
 
   -0.13375E+08        -0.82971E+06         0.00000E+00
   -0.82971E+06        -0.40201E+08         0.00000E+00
    0.00000E+00         0.00000E+00        -0.10715E+08
 
   -0.12858E+08        -0.48348E+06         0.00000E+00
   -0.48348E+06        -0.40243E+08         0.00000E+00
    0.00000E+00         0.00000E+00        -0.10620E+08
 
   -0.12362E+08        -0.60220E+05         0.00000E+00
   -0.60220E+05        -0.40299E+08         0.00000E+00
    0.00000E+00         0.00000E+00        -0.10532E+08
 
   -0.11888E+08         0.44292E+06         0.00000E+00
    0.44292E+06        -0.40373E+08         0.00000E+00
    0.00000E+00         0.00000E+00        -0.10452E+08
 
   -0.11437E+08         0.10322E+07         0.00000E+00
    0.10322E+07        -0.40467E+08         0.00000E+00
    0.00000E+00         0.00000E+00        -0.10381E+08
 
   -0.11018E+08         0.17159E+07         0.00000E+00
    0.17159E+07        -0.40576E+08         0.00000E+00
    0.00000E+00         0.00000E+00        -0.10319E+08
 
   -0.10648E+08         0.25015E+07         0.00000E+00
    0.25015E+07        -0.40694E+08         0.00000E+00
    0.00000E+00         0.00000E+00        -0.10268E+08
 
   -0.10346E+08         0.33934E+07         0.00000E+00
    0.33934E+07        -0.40808E+08         0.00000E+00
    0.00000E+00         0.00000E+00        -0.10231E+08
 
   -0.19488E+08        -0.35082E+06         0.00000E+00
   -0.35082E+06        -0.41276E+08         0.00000E+00
    0.00000E+00         0.00000E+00        -0.12153E+08
 
   -0.18714E+08        -0.88543E+06         0.00000E+00
   -0.88543E+06        -0.41302E+08         0.00000E+00
    0.00000E+00         0.00000E+00        -0.12003E+08
 
   -0.17916E+08        -0.12169E+07         0.00000E+00
   -0.12169E+07        -0.41333E+08         0.00000E+00
    0.00000E+00         0.00000E+00        -0.11850E+08
 
   -0.17131E+08        -0.13766E+07         0.00000E+00
   -0.13766E+07        -0.41353E+08         0.00000E+00
    0.00000E+00         0.00000E+00        -0.11697E+08
 
   -0.16383E+08        -0.13966E+07         0.00000E+00
   -0.13966E+07        -0.41359E+08         0.00000E+00
    0.00000E+00         0.00000E+00        -0.11548E+08
 
   -0.15680E+08        -0.13049E+07         0.00000E+00
   -0.13049E+07        -0.41352E+08         0.00000E+00
    0.00000E+00         0.00000E+00        -0.11406E+08
 
   -0.15021E+08        -0.11224E+07         0.00000E+00
   -0.11224E+07        -0.41342E+08         0.00000E+00
    0.00000E+00         0.00000E+00        -0.11273E+08
 
   -0.14399E+08        -0.86236E+06         0.00000E+00
   -0.86236E+06        -0.41338E+08         0.00000E+00
    0.00000E+00         0.00000E+00        -0.11147E+08
 
   -0.13806E+08        -0.53125E+06         0.00000E+00
   -0.53125E+06        -0.41349E+08         0.00000E+00
    0.00000E+00         0.00000E+00        -0.11031E+08
 
   -0.13233E+08        -0.12914E+06         0.00000E+00
   -0.12914E+06        -0.41385E+08         0.00000E+00
    0.00000E+00         0.00000E+00        -0.10923E+08
 
   -0.12674E+08         0.34941E+06         0.00000E+00
    0.34941E+06        -0.41451E+08         0.00000E+00
    0.00000E+00         0.00000E+00        -0.10825E+08
 
   -0.12130E+08         0.91462E+06         0.00000E+00
    0.91462E+06        -0.41550E+08         0.00000E+00
    0.00000E+00         0.00000E+00        -0.10736E+08
 
   -0.11608E+08         0.15799E+07         0.00000E+00
    0.15799E+07        -0.41680E+08         0.00000E+00
    0.00000E+00         0.00000E+00        -0.10657E+08
 
   -0.11124E+08         0.23592E+07         0.00000E+00
    0.23592E+07        -0.41832E+08         0.00000E+00
    0.00000E+00         0.00000E+00        -0.10591E+08
 
   -0.10706E+08         0.32623E+07         0.00000E+00
    0.32623E+07        -0.41990E+08         0.00000E+00
    0.00000E+00         0.00000E+00        -0.10539E+08
 
   -0.21504E+08        -0.36984E+06         0.00000E+00
   -0.36984E+06        -0.42630E+08         0.00000E+00
    0.00000E+00         0.00000E+00        -0.12827E+08
 
   -0.20498E+08        -0.91847E+06         0.00000E+00
   -0.91847E+06        -0.42646E+08         0.00000E+00
    0.00000E+00         0.00000E+00        -0.12629E+08
 
   -0.19502E+08        -0.12411E+07         0.00000E+00
   -0.12411E+07        -0.42652E+08         0.00000E+00
    0.00000E+00         0.00000E+00        -0.12431E+08
 
   -0.18558E+08        -0.13824E+07         0.00000E+00
   -0.13824E+07        -0.42634E+08         0.00000E+00
    0.00000E+00         0.00000E+00        -0.12238E+08
 
   -0.17685E+08        -0.13856E+07         0.00000E+00
   -0.13856E+07        -0.42591E+08         0.00000E+00
    0.00000E+00         0.00000E+00        -0.12055E+08
 
   -0.16885E+08        -0.12853E+07         0.00000E+00
   -0.12853E+07        -0.42532E+08         0.00000E+00
    0.00000E+00         0.00000E+00        -0.11883E+08
 
   -0.16147E+08        -0.11052E+07         0.00000E+00
   -0.11052E+07        -0.42471E+08         0.00000E+00
    0.00000E+00         0.00000E+00        -0.11723E+08
 
   -0.15455E+08        -0.85877E+06         0.00000E+00
   -0.85877E+06        -0.42421E+08         0.00000E+00
    0.00000E+00         0.00000E+00        -0.11575E+08
 
   -0.14795E+08        -0.55158E+06         0.00000E+00
   -0.55158E+06        -0.42394E+08         0.00000E+00
    0.00000E+00         0.00000E+00        -0.11438E+08
 
   -0.14151E+08        -0.18203E+06         0.00000E+00
   -0.18203E+06        -0.42403E+08         0.00000E+00
    0.00000E+00         0.00000E+00        -0.11311E+08
 
   -0.13512E+08         0.25800E+06         0.00000E+00
    0.25800E+06        -0.42456E+08         0.00000E+00
    0.00000E+00         0.00000E+00        -0.11194E+08
 
   -0.12873E+08         0.78307E+06         0.00000E+00
    0.78307E+06        -0.42558E+08         0.00000E+00
    0.00000E+00         0.00000E+00        -0.11086E+08
 
   -0.12237E+08         0.14134E+07         0.00000E+00
    0.14134E+07        -0.42710E+08         0.00000E+00
    0.00000E+00         0.00000E+00        -0.10989E+08
 
   -0.11623E+08         0.21717E+07         0.00000E+00
    0.21717E+07        -0.42903E+08         0.00000E+00
    0.00000E+00         0.00000E+00        -0.10905E+08
 
   -0.11065E+08         0.30773E+07         0.00000E+00
    0.30773E+07        -0.43115E+08         0.00000E+00
    0.00000E+00         0.00000E+00        -0.10836E+08
 
   -0.23551E+08        -0.38531E+06         0.00000E+00
   -0.38531E+06        -0.43989E+08         0.00000E+00
    0.00000E+00         0.00000E+00        -0.13508E+08
 
   -0.22282E+08        -0.93293E+06         0.00000E+00
   -0.93293E+06        -0.43991E+08         0.00000E+00
    0.00000E+00         0.00000E+00        -0.13255E+08
 
   -0.21072E+08        -0.12282E+07         0.00000E+00
   -0.12282E+07        -0.43962E+08         0.00000E+00
    0.00000E+00         0.00000E+00        -0.13007E+08
 
   -0.19969E+08        -0.13369E+07         0.00000E+00
   -0.13369E+07        -0.43888E+08         0.00000E+00
    0.00000E+00         0.00000E+00        -0.12771E+08
 
   -0.18982E+08        -0.13167E+07         0.00000E+00
   -0.13167E+07        -0.43780E+08         0.00000E+00
    0.00000E+00         0.00000E+00        -0.12552E+08
 
   -0.18098E+08        -0.12081E+07         0.00000E+00
   -0.12081E+07        -0.43655E+08         0.00000E+00
    0.00000E+00         0.00000E+00        -0.12351E+08
 
   -0.17294E+08        -0.10353E+07         0.00000E+00
   -0.10353E+07        -0.43532E+08         0.00000E+00
    0.00000E+00         0.00000E+00        -0.12165E+08
 
   -0.16546E+08        -0.81043E+06         0.00000E+00
   -0.81043E+06        -0.43428E+08         0.00000E+00
    0.00000E+00         0.00000E+00        -0.11995E+08
 
   -0.15830E+08        -0.53733E+06         0.00000E+00
   -0.53733E+06        -0.43359E+08         0.00000E+00
    0.00000E+00         0.00000E+00        -0.11838E+08
 
   -0.15125E+08        -0.21285E+06         0.00000E+00
   -0.21285E+06        -0.43335E+08         0.00000E+00
    0.00000E+00         0.00000E+00        -0.11692E+08
 
   -0.14412E+08         0.17313E+06         0.00000E+00
    0.17313E+06        -0.43370E+08         0.00000E+00
    0.00000E+00         0.00000E+00        -0.11557E+08
 
   -0.13679E+08         0.63899E+06         0.00000E+00
    0.63899E+06        -0.43473E+08         0.00000E+00
    0.00000E+00         0.00000E+00        -0.11430E+08
 
   -0.12922E+08         0.12126E+07         0.00000E+00
    0.12126E+07        -0.43648E+08         0.00000E+00
    0.00000E+00         0.00000E+00        -0.11314E+08
 
   -0.12157E+08         0.19295E+07         0.00000E+00
    0.19295E+07        -0.43888E+08         0.00000E+00
    0.00000E+00         0.00000E+00        -0.11209E+08
 
   -0.11428E+08         0.28245E+07         0.00000E+00
    0.28245E+07        -0.44169E+08         0.00000E+00
    0.00000E+00         0.00000E+00        -0.11119E+08
 
   -0.25609E+08        -0.39533E+06         0.00000E+00
   -0.39533E+06        -0.45348E+08         0.00000E+00
    0.00000E+00         0.00000E+00        -0.14191E+08
 
   -0.24035E+08        -0.91712E+06         0.00000E+00
   -0.91712E+06        -0.45326E+08         0.00000E+00
    0.00000E+00         0.00000E+00        -0.13872E+08
 
   -0.22599E+08        -0.11583E+07         0.00000E+00
   -0.11583E+07        -0.45240E+08         0.00000E+00
    0.00000E+00         0.00000E+00        -0.13568E+08
 
   -0.21348E+08        -0.12192E+07         0.00000E+00
   -0.12192E+07        -0.45088E+08         0.00000E+00
    0.00000E+00         0.00000E+00        -0.13287E+08
 
   -0.20266E+08        -0.11732E+07         0.00000E+00
   -0.11732E+07        -0.44896E+08         0.00000E+00
    0.00000E+00         0.00000E+00        -0.13032E+08
 
   -0.19318E+08        -0.10615E+07         0.00000E+00
   -0.10615E+07        -0.44692E+08         0.00000E+00
    0.00000E+00         0.00000E+00        -0.12802E+08
 
   -0.18467E+08        -0.90448E+06         0.00000E+00
   -0.90448E+06        -0.44501E+08         0.00000E+00
    0.00000E+00         0.00000E+00        -0.12594E+08
 
   -0.17677E+08        -0.71112E+06         0.00000E+00
   -0.71112E+06        -0.44340E+08         0.00000E+00
    0.00000E+00         0.00000E+00        -0.12403E+08
 
   -0.16919E+08        -0.48303E+06         0.00000E+00
   -0.48303E+06        -0.44224E+08         0.00000E+00
    0.00000E+00         0.00000E+00        -0.12229E+08
 
   -0.16165E+08        -0.21606E+06         0.00000E+00
   -0.21606E+06        -0.44166E+08         0.00000E+00
    0.00000E+00         0.00000E+00        -0.12066E+08
 
   -0.15389E+08         0.10037E+06         0.00000E+00
    0.10037E+06        -0.44178E+08         0.00000E+00
    0.00000E+00         0.00000E+00        -0.11914E+08
 
   -0.14567E+08         0.48598E+06         0.00000E+00
    0.48598E+06        -0.44276E+08         0.00000E+00
    0.00000E+00         0.00000E+00        -0.11769E+08
 
   -0.13684E+08         0.97523E+06         0.00000E+00
    0.97523E+06        -0.44472E+08         0.00000E+00
    0.00000E+00         0.00000E+00        -0.11631E+08
 
   -0.12745E+08         0.16207E+07         0.00000E+00
    0.16207E+07        -0.44767E+08         0.00000E+00
    0.00000E+00         0.00000E+00        -0.11502E+08
 
   -0.11799E+08         0.24842E+07         0.00000E+00
    0.24842E+07        -0.45136E+08         0.00000E+00
    0.00000E+00         0.00000E+00        -0.11387E+08
 
   -0.27649E+08        -0.39557E+06         0.00000E+00
   -0.39557E+06        -0.46695E+08         0.00000E+00
    0.00000E+00         0.00000E+00        -0.14869E+08
 
   -0.25714E+08        -0.84702E+06         0.00000E+00
   -0.84702E+06        -0.46629E+08         0.00000E+00
    0.00000E+00         0.00000E+00        -0.14469E+08
 
   -0.24056E+08        -0.99874E+06         0.00000E+00
   -0.99874E+06        -0.46448E+08         0.00000E+00
    0.00000E+00         0.00000E+00        -0.14101E+08
 
   -0.22685E+08        -0.10042E+07         0.00000E+00
   -0.10042E+07        -0.46186E+08         0.00000E+00
    0.00000E+00         0.00000E+00        -0.13774E+08
 
   -0.21539E+08        -0.94050E+06         0.00000E+00
   -0.94050E+06        -0.45894E+08         0.00000E+00
    0.00000E+00         0.00000E+00        -0.13487E+08
 
   -0.20551E+08        -0.83813E+06         0.00000E+00
   -0.83813E+06        -0.45608E+08         0.00000E+00
    0.00000E+00         0.00000E+00        -0.13232E+08
 
   -0.19670E+08        -0.70954E+06         0.00000E+00
   -0.70954E+06        -0.45349E+08         0.00000E+00
    0.00000E+00         0.00000E+00        -0.13004E+08
 
   -0.18855E+08        -0.55916E+06         0.00000E+00
   -0.55916E+06        -0.45134E+08         0.00000E+00
    0.00000E+00         0.00000E+00        -0.12798E+08
 
   -0.18069E+08        -0.38675E+06         0.00000E+00
   -0.38675E+06        -0.44974E+08         0.00000E+00
    0.00000E+00         0.00000E+00        -0.12609E+08
 
   -0.17280E+08        -0.18813E+06         0.00000E+00
   -0.18813E+06        -0.44881E+08         0.00000E+00
    0.00000E+00         0.00000E+00        -0.12432E+08
 
   -0.16456E+08         0.45742E+05         0.00000E+00
    0.45742E+05        -0.44869E+08         0.00000E+00
    0.00000E+00         0.00000E+00        -0.12265E+08
 
   -0.15560E+08         0.33202E+06         0.00000E+00
    0.33202E+06        -0.44956E+08         0.00000E+00
    0.00000E+00         0.00000E+00        -0.12103E+08
 
   -0.14555E+08         0.70405E+06         0.00000E+00
    0.70405E+06        -0.45163E+08         0.00000E+00
    0.00000E+00         0.00000E+00        -0.11944E+08
 
   -0.13418E+08         0.12322E+07         0.00000E+00
    0.12322E+07        -0.45515E+08         0.00000E+00
    0.00000E+00         0.00000E+00        -0.11787E+08
 
   -0.12191E+08         0.20261E+07         0.00000E+00
    0.20261E+07        -0.45996E+08         0.00000E+00
    0.00000E+00         0.00000E+00        -0.11637E+08
 
   -0.29615E+08        -0.37109E+06         0.00000E+00
   -0.37109E+06        -0.48016E+08         0.00000E+00
    0.00000E+00         0.00000E+00        -0.15526E+08
 
   -0.27258E+08        -0.66525E+06         0.00000E+00
   -0.66525E+06        -0.47842E+08         0.00000E+00
    0.00000E+00         0.00000E+00        -0.15020E+08
 
   -0.25424E+08        -0.70387E+06         0.00000E+00
   -0.70387E+06        -0.47500E+08         0.00000E+00
    0.00000E+00         0.00000E+00        -0.14585E+08
 
   -0.23989E+08        -0.67363E+06         0.00000E+00
   -0.67363E+06        -0.47108E+08         0.00000E+00
    0.00000E+00         0.00000E+00        -0.14219E+08
 
   -0.22811E+08        -0.61531E+06         0.00000E+00
   -0.61531E+06        -0.46720E+08         0.00000E+00
    0.00000E+00         0.00000E+00        -0.13906E+08
 
   -0.21805E+08        -0.54120E+06         0.00000E+00
   -0.54120E+06        -0.46362E+08         0.00000E+00
    0.00000E+00         0.00000E+00        -0.13633E+08
 
   -0.20912E+08        -0.45563E+06         0.00000E+00
   -0.45563E+06        -0.46048E+08         0.00000E+00
    0.00000E+00         0.00000E+00        -0.13392E+08
 
   -0.20085E+08        -0.35956E+06         0.00000E+00
   -0.35956E+06        -0.45789E+08         0.00000E+00
    0.00000E+00         0.00000E+00        -0.13175E+08
 
   -0.19285E+08        -0.25191E+06         0.00000E+00
   -0.25191E+06        -0.45594E+08         0.00000E+00
    0.00000E+00         0.00000E+00        -0.12976E+08
 
   -0.18476E+08        -0.12960E+06         0.00000E+00
   -0.12960E+06        -0.45474E+08         0.00000E+00
    0.00000E+00         0.00000E+00        -0.12790E+08
 
   -0.17621E+08         0.13266E+05         0.00000E+00
    0.13266E+05        -0.45440E+08         0.00000E+00
    0.00000E+00         0.00000E+00        -0.12612E+08
 
   -0.16675E+08         0.18782E+06         0.00000E+00
    0.18782E+06        -0.45511E+08         0.00000E+00
    0.00000E+00         0.00000E+00        -0.12437E+08
 
   -0.15578E+08         0.41690E+06         0.00000E+00
    0.41690E+06        -0.45715E+08         0.00000E+00
    0.00000E+00         0.00000E+00        -0.12259E+08
 
   -0.14240E+08         0.75786E+06         0.00000E+00
    0.75786E+06        -0.46099E+08         0.00000E+00
    0.00000E+00         0.00000E+00        -0.12068E+08
 
   -0.12637E+08         0.13993E+07         0.00000E+00
    0.13993E+07        -0.46730E+08         0.00000E+00
    0.00000E+00         0.00000E+00        -0.11873E+08
 
   -0.31371E+08        -0.22576E+06         0.00000E+00
   -0.22576E+06        -0.49185E+08         0.00000E+00
    0.00000E+00         0.00000E+00        -0.16111E+08
 
   -0.28620E+08        -0.27100E+06         0.00000E+00
   -0.27100E+06        -0.48754E+08         0.00000E+00
    0.00000E+00         0.00000E+00        -0.15475E+08
 
   -0.26735E+08        -0.25866E+06         0.00000E+00
   -0.25866E+06        -0.48253E+08         0.00000E+00
    0.00000E+00         0.00000E+00        -0.14998E+08
 
   -0.25282E+08        -0.23958E+06         0.00000E+00
   -0.23958E+06        -0.47766E+08         0.00000E+00
    0.00000E+00         0.00000E+00        -0.14610E+08
 
   -0.24100E+08        -0.21551E+06         0.00000E+00
   -0.21551E+06        -0.47317E+08         0.00000E+00
    0.00000E+00         0.00000E+00        -0.14283E+08
 
   -0.23093E+08        -0.18816E+06         0.00000E+00
   -0.18816E+06        -0.46916E+08         0.00000E+00
    0.00000E+00         0.00000E+00        -0.14002E+08
 
   -0.22200E+08        -0.15796E+06         0.00000E+00
   -0.15796E+06        -0.46572E+08         0.00000E+00
    0.00000E+00         0.00000E+00        -0.13754E+08
 
   -0.21372E+08        -0.12482E+06         0.00000E+00
   -0.12482E+06        -0.46289E+08         0.00000E+00
    0.00000E+00         0.00000E+00        -0.13532E+08
 
   -0.20569E+08        -0.88149E+05         0.00000E+00
   -0.88149E+05        -0.46076E+08         0.00000E+00
    0.00000E+00         0.00000E+00        -0.13329E+08
 
   -0.19755E+08        -0.46835E+05         0.00000E+00
   -0.46835E+05        -0.45941E+08         0.00000E+00
    0.00000E+00         0.00000E+00        -0.13139E+08
 
   -0.18888E+08         0.11449E+04         0.00000E+00
    0.11449E+04        -0.45895E+08         0.00000E+00
    0.00000E+00         0.00000E+00        -0.12957E+08
 
   -0.17919E+08         0.59500E+05         0.00000E+00
    0.59500E+05        -0.45955E+08         0.00000E+00
    0.00000E+00         0.00000E+00        -0.12775E+08
 
   -0.16775E+08         0.13626E+06         0.00000E+00
    0.13626E+06        -0.46149E+08         0.00000E+00
    0.00000E+00         0.00000E+00        -0.12585E+08
 
   -0.15329E+08         0.24954E+06         0.00000E+00
    0.24954E+06        -0.46534E+08         0.00000E+00
    0.00000E+00         0.00000E+00        -0.12373E+08
 
   -0.13222E+08         0.51762E+06         0.00000E+00
    0.51762E+06        -0.47260E+08         0.00000E+00
    0.00000E+00         0.00000E+00        -0.12096E+08
 
TENSORS stresstot double 
   -0.32533E+08        -0.26580E+04         0.00000E+00
   -0.26580E+04        -0.60003E+08         0.00000E+00
    0.00000E+00         0.00000E+00        -0.40952E+08
 
   -0.33486E+08        -0.66442E+04         0.00000E+00
   -0.66442E+04        -0.60012E+08         0.00000E+00
    0.00000E+00         0.00000E+00        -0.41140E+08
 
   -0.34365E+08        -0.86859E+04         0.00000E+00
   -0.86859E+04        -0.60028E+08         0.00000E+00
    0.00000E+00         0.00000E+00        -0.41310E+08
 
   -0.35177E+08        -0.86338E+04         0.00000E+00
   -0.86338E+04        -0.60046E+08         0.00000E+00
    0.00000E+00         0.00000E+00        -0.41465E+08
 
   -0.35931E+08        -0.63825E+04         0.00000E+00
   -0.63825E+04        -0.60061E+08         0.00000E+00
    0.00000E+00         0.00000E+00        -0.41606E+08
 
   -0.36638E+08        -0.18645E+04         0.00000E+00
   -0.18645E+04        -0.60069E+08         0.00000E+00
    0.00000E+00         0.00000E+00        -0.41733E+08
 
   -0.37305E+08         0.49552E+04         0.00000E+00
    0.49552E+04        -0.60066E+08         0.00000E+00
    0.00000E+00         0.00000E+00        -0.41850E+08
 
   -0.37942E+08         0.14085E+05         0.00000E+00
    0.14085E+05        -0.60048E+08         0.00000E+00
    0.00000E+00         0.00000E+00        -0.41958E+08
 
   -0.38557E+08         0.25511E+05         0.00000E+00
    0.25511E+05        -0.60008E+08         0.00000E+00
    0.00000E+00         0.00000E+00        -0.42057E+08
 
   -0.39159E+08         0.39206E+05         0.00000E+00
    0.39206E+05        -0.59944E+08         0.00000E+00
    0.00000E+00         0.00000E+00        -0.42150E+08
 
   -0.39757E+08         0.55127E+05         0.00000E+00
    0.55127E+05        -0.59850E+08         0.00000E+00
    0.00000E+00         0.00000E+00        -0.42237E+08
 
   -0.40358E+08         0.73228E+05         0.00000E+00
    0.73228E+05        -0.59722E+08         0.00000E+00
    0.00000E+00         0.00000E+00        -0.42320E+08
 
   -0.40970E+08         0.93461E+05         0.00000E+00
    0.93461E+05        -0.59556E+08         0.00000E+00
    0.00000E+00         0.00000E+00        -0.42400E+08
 
   -0.41601E+08         0.11578E+06         0.00000E+00
    0.11578E+06        -0.59347E+08         0.00000E+00
    0.00000E+00         0.00000E+00        -0.42478E+08
 
   -0.42257E+08         0.14014E+06         0.00000E+00
    0.14014E+06        -0.59091E+08         0.00000E+00
    0.00000E+00         0.00000E+00        -0.42555E+08
 
   -0.32543E+08        -0.80499E+04         0.00000E+00
   -0.80499E+04        -0.60003E+08         0.00000E+00
    0.00000E+00         0.00000E+00        -0.40908E+08
 
   -0.33492E+08        -0.20140E+05         0.00000E+00
   -0.20140E+05        -0.60013E+08         0.00000E+00
    0.00000E+00         0.00000E+00        -0.41095E+08
 
   -0.34367E+08        -0.26374E+05         0.00000E+00
   -0.26374E+05        -0.60029E+08         0.00000E+00
    0.00000E+00         0.00000E+00        -0.41265E+08
 
   -0.35174E+08        -0.26307E+05         0.00000E+00
   -0.26307E+05        -0.60047E+08         0.00000E+00
    0.00000E+00         0.00000E+00        -0.41419E+08
 
   -0.35925E+08        -0.19624E+05         0.00000E+00
   -0.19624E+05        -0.60063E+08         0.00000E+00
    0.00000E+00         0.00000E+00        -0.41559E+08
 
   -0.36627E+08        -0.61272E+04         0.00000E+00
   -0.61272E+04        -0.60073E+08         0.00000E+00
    0.00000E+00         0.00000E+00        -0.41686E+08
 
   -0.37289E+08         0.14286E+05         0.00000E+00
    0.14286E+05        -0.60071E+08         0.00000E+00
    0.00000E+00         0.00000E+00        -0.41802E+08
 
   -0.37921E+08         0.41637E+05         0.00000E+00
    0.41637E+05        -0.60054E+08         0.00000E+00
    0.00000E+00         0.00000E+00        -0.41909E+08
 
   -0.38532E+08         0.75884E+05         0.00000E+00
    0.75884E+05        -0.60015E+08         0.00000E+00
    0.00000E+00         0.00000E+00        -0.42008E+08
 
   -0.39130E+08         0.11694E+06         0.00000E+00
    0.11694E+06        -0.59952E+08         0.00000E+00
    0.00000E+00         0.00000E+00        -0.42100E+08
 
   -0.39723E+08         0.16467E+06         0.00000E+00
    0.16467E+06        -0.59860E+08         0.00000E+00
    0.00000E+00         0.00000E+00        -0.42187E+08
 
   -0.40319E+08         0.21894E+06         0.00000E+00
    0.21894E+06        -0.59733E+08         0.00000E+00
    0.00000E+00         0.00000E+00        -0.42269E+08
 
   -0.40927E+08         0.27961E+06         0.00000E+00
    0.27961E+06        -0.59568E+08         0.00000E+00
    0.00000E+00         0.00000E+00        -0.42349E+08
 
   -0.41554E+08         0.34652E+06         0.00000E+00
    0.34652E+06        -0.59361E+08         0.00000E+00
    0.00000E+00         0.00000E+00        -0.42426E+08
 
   -0.42206E+08         0.41957E+06         0.00000E+00
    0.41957E+06        -0.59107E+08         0.00000E+00
    0.00000E+00         0.00000E+00        -0.42502E+08
 
   -0.32563E+08        -0.13669E+05         0.00000E+00
   -0.13669E+05        -0.60003E+08         0.00000E+00
    0.00000E+00         0.00000E+00        -0.40820E+08
 
   -0.33505E+08        -0.34259E+05         0.00000E+00
   -0.34259E+05        -0.60014E+08         0.00000E+00
    0.00000E+00         0.00000E+00        -0.41006E+08
 
   -0.34371E+08        -0.45011E+05         0.00000E+00
   -0.45011E+05        -0.60031E+08         0.00000E+00
    0.00000E+00         0.00000E+00        -0.41174E+08
 
   -0.35170E+08        -0.45192E+05         0.00000E+00
   -0.45192E+05        -0.60050E+08         0.00000E+00
    0.00000E+00         0.00000E+00        -0.41327E+08
 
   -0.35911E+08        -0.34291E+05         0.00000E+00
   -0.34291E+05        -0.60068E+08         0.00000E+00
    0.00000E+00         0.00000E+00        -0.41465E+08
 
   -0.36604E+08        -0.11986E+05         0.00000E+00
   -0.11986E+05        -0.60080E+08         0.00000E+00
    0.00000E+00         0.00000E+00        -0.41591E+08
 
   -0.37257E+08         0.21882E+05         0.00000E+00
    0.21882E+05        -0.60080E+08         0.00000E+00
    0.00000E+00         0.00000E+00        -0.41706E+08
 
   -0.37880E+08         0.67340E+05         0.00000E+00
    0.67340E+05        -0.60065E+08         0.00000E+00
    0.00000E+00         0.00000E+00        -0.41812E+08
 
   -0.38482E+08         0.12431E+06         0.00000E+00
    0.12431E+06        -0.60030E+08         0.00000E+00
    0.00000E+00         0.00000E+00        -0.41909E+08
 
   -0.39070E+08         0.19263E+06         0.00000E+00
    0.19263E+06        -0.59969E+08         0.00000E+00
    0.00000E+00         0.00000E+00        -0.42000E+08
 
   -0.39655E+08         0.27210E+06         0.00000E+00
    0.27210E+06        -0.59879E+08         0.00000E+00
    0.00000E+00         0.00000E+00        -0.42086E+08
 
   -0.40243E+08         0.36245E+06         0.00000E+00
    0.36245E+06        -0.59756E+08         0.00000E+00
    0.00000E+00         0.00000E+00        -0.42167E+08
 
   -0.40842E+08         0.46344E+06         0.00000E+00
    0.46344E+06        -0.59594E+08         0.00000E+00
    0.00000E+00         0.00000E+00        -0.42246E+08
 
   -0.41461E+08         0.57482E+06         0.00000E+00
    0.57482E+06        -0.59390E+08         0.00000E+00
    0.00000E+00         0.00000E+00        -0.42322E+08
 
   -0.42105E+08         0.69640E+06         0.00000E+00
    0.69640E+06        -0.59139E+08         0.00000E+00
    0.00000E+00         0.00000E+00        -0.42397E+08
 
   -0.32594E+08        -0.19664E+05         0.00000E+00
   -0.19664E+05        -0.60003E+08         0.00000E+00
    0.00000E+00         0.00000E+00        -0.40689E+08
 
   -0.33524E+08        -0.49413E+05         0.00000E+00
   -0.49413E+05        -0.60015E+08         0.00000E+00
    0.00000E+00         0.00000E+00        -0.40872E+08
 
   -0.34378E+08        -0.65221E+05         0.00000E+00
   -0.65221E+05        -0.60033E+08         0.00000E+00
    0.00000E+00         0.00000E+00        -0.41039E+08
 
   -0.35164E+08        -0.66088E+05         0.00000E+00
   -0.66088E+05        -0.60055E+08         0.00000E+00
    0.00000E+00         0.00000E+00        -0.41189E+08
 
   -0.35892E+08        -0.51321E+05         0.00000E+00
   -0.51321E+05        -0.60076E+08         0.00000E+00
    0.00000E+00         0.00000E+00        -0.41325E+08
 
   -0.36571E+08        -0.20491E+05         0.00000E+00
   -0.20491E+05        -0.60090E+08         0.00000E+00
    0.00000E+00         0.00000E+00        -0.41449E+08
 
   -0.37210E+08         0.26603E+05         0.00000E+00
    0.26603E+05        -0.60094E+08         0.00000E+00
    0.00000E+00         0.00000E+00        -0.41562E+08
 
   -0.37819E+08         0.89981E+05         0.00000E+00
    0.89981E+05        -0.60082E+08         0.00000E+00
    0.00000E+00         0.00000E+00        -0.41666E+08
 
   -0.38407E+08         0.16951E+06         0.00000E+00
    0.16951E+06        -0.60051E+08         0.00000E+00
    0.00000E+00         0.00000E+00        -0.41762E+08
 
   -0.38982E+08         0.26496E+06         0.00000E+00
    0.26496E+06        -0.59994E+08         0.00000E+00
    0.00000E+00         0.00000E+00        -0.41851E+08
 
   -0.39553E+08         0.37600E+06         0.00000E+00
    0.37600E+06        -0.59908E+08         0.00000E+00
    0.00000E+00         0.00000E+00        -0.41935E+08
 
   -0.40128E+08         0.50228E+06         0.00000E+00
    0.50228E+06        -0.59789E+08         0.00000E+00
    0.00000E+00         0.00000E+00        -0.42014E+08
 
   -0.40715E+08         0.64343E+06         0.00000E+00
    0.64343E+06        -0.59631E+08         0.00000E+00
    0.00000E+00         0.00000E+00        -0.42091E+08
 
   -0.41321E+08         0.79908E+06         0.00000E+00
    0.79908E+06        -0.59432E+08         0.00000E+00
    0.00000E+00         0.00000E+00        -0.42166E+08
 
   -0.41953E+08         0.96894E+06         0.00000E+00
    0.96894E+06        -0.59186E+08         0.00000E+00
    0.00000E+00         0.00000E+00        -0.42240E+08
 
   -0.32636E+08        -0.26186E+05         0.00000E+00
   -0.26186E+05        -0.60004E+08         0.00000E+00
    0.00000E+00         0.00000E+00        -0.40514E+08
 
   -0.33551E+08        -0.66005E+05         0.00000E+00
   -0.66005E+05        -0.60016E+08         0.00000E+00
    0.00000E+00         0.00000E+00        -0.40695E+08
 
   -0.34388E+08        -0.87619E+05         0.00000E+00
   -0.87619E+05        -0.60037E+08         0.00000E+00
    0.00000E+00         0.00000E+00        -0.40858E+08
 
   -0.35157E+08        -0.89779E+05         0.00000E+00
   -0.89779E+05        -0.60061E+08         0.00000E+00
    0.00000E+00         0.00000E+00        -0.41006E+08
 
   -0.35866E+08        -0.71632E+05         0.00000E+00
   -0.71632E+05        -0.60085E+08         0.00000E+00
    0.00000E+00         0.00000E+00        -0.41139E+08
 
   -0.36526E+08        -0.32668E+05         0.00000E+00
   -0.32668E+05        -0.60104E+08         0.00000E+00
    0.00000E+00         0.00000E+00        -0.41260E+08
 
   -0.37147E+08         0.27337E+05         0.00000E+00
    0.27337E+05        -0.60112E+08         0.00000E+00
    0.00000E+00         0.00000E+00        -0.41371E+08
 
   -0.37737E+08         0.10837E+06         0.00000E+00
    0.10837E+06        -0.60105E+08         0.00000E+00
    0.00000E+00         0.00000E+00        -0.41472E+08
 
   -0.38307E+08         0.21024E+06         0.00000E+00
    0.21024E+06        -0.60078E+08         0.00000E+00
    0.00000E+00         0.00000E+00        -0.41565E+08
 
   -0.38864E+08         0.33261E+06         0.00000E+00
    0.33261E+06        -0.60027E+08         0.00000E+00
    0.00000E+00         0.00000E+00        -0.41652E+08
 
   -0.39417E+08         0.47503E+06         0.00000E+00
    0.47503E+06        -0.59947E+08         0.00000E+00
    0.00000E+00         0.00000E+00        -0.41734E+08
 
   -0.39975E+08         0.63702E+06         0.00000E+00
    0.63702E+06        -0.59833E+08         0.00000E+00
    0.00000E+00         0.00000E+00        -0.41811E+08
 
   -0.40545E+08         0.81807E+06         0.00000E+00
    0.81807E+06        -0.59681E+08         0.00000E+00
    0.00000E+00         0.00000E+00        -0.41886E+08
 
   -0.41135E+08         0.10177E+07         0.00000E+00
    0.10177E+07        -0.59488E+08         0.00000E+00
    0.00000E+00         0.00000E+00        -0.41959E+08
 
   -0.41751E+08         0.12355E+07         0.00000E+00
    0.12355E+07        -0.59249E+08         0.00000E+00
    0.00000E+00         0.00000E+00        -0.42031E+08
 
   -0.32691E+08        -0.33379E+05         0.00000E+00
   -0.33379E+05        -0.60004E+08         0.00000E+00
    0.00000E+00         0.00000E+00        -0.40297E+08
 
   -0.33586E+08        -0.84434E+05         0.00000E+00
   -0.84434E+05        -0.60018E+08         0.00000E+00
    0.00000E+00         0.00000E+00        -0.40474E+08
 
   -0.34402E+08        -0.11280E+06         0.00000E+00
   -0.11280E+06        -0.60041E+08         0.00000E+00
    0.00000E+00         0.00000E+00        -0.40634E+08
 
   -0.35148E+08        -0.11702E+06         0.00000E+00
   -0.11702E+06        -0.60069E+08         0.00000E+00
    0.00000E+00         0.00000E+00        -0.40778E+08
 
   -0.35835E+08        -0.96113E+05         0.00000E+00
   -0.96113E+05        -0.60097E+08         0.00000E+00
    0.00000E+00         0.00000E+00        -0.40908E+08
 
   -0.36472E+08        -0.49508E+05         0.00000E+00
   -0.49508E+05        -0.60121E+08         0.00000E+00
    0.00000E+00         0.00000E+00        -0.41025E+08
 
   -0.37069E+08         0.23009E+05         0.00000E+00
    0.23009E+05        -0.60134E+08         0.00000E+00
    0.00000E+00         0.00000E+00        -0.41132E+08
 
   -0.37636E+08         0.12137E+06         0.00000E+00
    0.12137E+06        -0.60133E+08         0.00000E+00
    0.00000E+00         0.00000E+00        -0.41230E+08
 
   -0.38182E+08         0.24529E+06         0.00000E+00
    0.24529E+06        -0.60112E+08         0.00000E+00
    0.00000E+00         0.00000E+00        -0.41321E+08
 
   -0.38717E+08         0.39430E+06         0.00000E+00
    0.39430E+06        -0.60068E+08         0.00000E+00
    0.00000E+00         0.00000E+00        -0.41405E+08
 
   -0.39249E+08         0.56784E+06         0.00000E+00
    0.56784E+06        -0.59994E+08         0.00000E+00
    0.00000E+00         0.00000E+00        -0.41483E+08
 
   -0.39785E+08         0.76527E+06         0.00000E+00
    0.76527E+06        -0.59887E+08         0.00000E+00
    0.00000E+00         0.00000E+00        -0.41558E+08
 
   -0.40334E+08         0.98592E+06         0.00000E+00
    0.98592E+06        -0.59743E+08         0.00000E+00
    0.00000E+00         0.00000E+00        -0.41631E+08
 
   -0.40904E+08         0.12292E+07         0.00000E+00
    0.12292E+07        -0.59558E+08         0.00000E+00
    0.00000E+00         0.00000E+00        -0.41701E+08
 
   -0.41500E+08         0.14944E+07         0.00000E+00
    0.14944E+07        -0.59327E+08         0.00000E+00
    0.00000E+00         0.00000E+00        -0.41771E+08
 
   -0.32760E+08        -0.41384E+05         0.00000E+00
   -0.41384E+05        -0.60004E+08         0.00000E+00
    0.00000E+00         0.00000E+00        -0.40038E+08
 
   -0.33631E+08        -0.10508E+06         0.00000E+00
   -0.10508E+06        -0.60020E+08         0.00000E+00
    0.00000E+00         0.00000E+00        -0.40211E+08
 
   -0.34421E+08        -0.14135E+06         0.00000E+00
   -0.14135E+06        -0.60046E+08         0.00000E+00
    0.00000E+00         0.00000E+00        -0.40366E+08
 
   -0.35140E+08        -0.14855E+06         0.00000E+00
   -0.14855E+06        -0.60078E+08         0.00000E+00
    0.00000E+00         0.00000E+00        -0.40506E+08
 
   -0.35799E+08        -0.12561E+06         0.00000E+00
   -0.12561E+06        -0.60112E+08         0.00000E+00
    0.00000E+00         0.00000E+00        -0.40631E+08
 
   -0.36408E+08        -0.71954E+05         0.00000E+00
   -0.71954E+05        -0.60141E+08         0.00000E+00
    0.00000E+00         0.00000E+00        -0.40745E+08
 
   -0.36976E+08         0.12594E+05         0.00000E+00
    0.12594E+05        -0.60161E+08         0.00000E+00
    0.00000E+00         0.00000E+00        -0.40848E+08
 
   -0.37515E+08         0.12788E+06         0.00000E+00
    0.12788E+06        -0.60166E+08         0.00000E+00
    0.00000E+00         0.00000E+00        -0.40942E+08
 
   -0.38034E+08         0.27350E+06         0.00000E+00
    0.27350E+06        -0.60153E+08         0.00000E+00
    0.00000E+00         0.00000E+00        -0.41028E+08
 
   -0.38541E+08         0.44884E+06         0.00000E+00
    0.44884E+06        -0.60115E+08         0.00000E+00
    0.00000E+00         0.00000E+00        -0.41109E+08
 
   -0.39046E+08         0.65318E+06         0.00000E+00
    0.65318E+06        -0.60050E+08         0.00000E+00
    0.00000E+00         0.00000E+00        -0.41184E+08
 
   -0.39557E+08         0.88569E+06         0.00000E+00
    0.88569E+06        -0.59951E+08         0.00000E+00
    0.00000E+00         0.00000E+00        -0.41256E+08
 
   -0.40082E+08         0.11455E+07         0.00000E+00
    0.11455E+07        -0.59816E+08         0.00000E+00
    0.00000E+00         0.00000E+00        -0.41325E+08
 
   -0.40627E+08         0.14319E+07         0.00000E+00
    0.14319E+07        -0.59639E+08         0.00000E+00
    0.00000E+00         0.00000E+00        -0.41393E+08
 
   -0.41199E+08         0.17442E+07         0.00000E+00
    0.17442E+07        -0.59418E+08         0.00000E+00
    0.00000E+00         0.00000E+00        -0.41460E+08
 
   -0.32845E+08        -0.50339E+05         0.00000E+00
   -0.50339E+05        -0.60005E+08         0.00000E+00
    0.00000E+00         0.00000E+00        -0.39738E+08
 
   -0.33688E+08        -0.12831E+06         0.00000E+00
   -0.12831E+06        -0.60022E+08         0.00000E+00
    0.00000E+00         0.00000E+00        -0.39906E+08
 
   -0.34447E+08        -0.17380E+06         0.00000E+00
   -0.17380E+06        -0.60052E+08         0.00000E+00
    0.00000E+00         0.00000E+00        -0.40056E+08
 
   -0.35133E+08        -0.18504E+06         0.00000E+00
   -0.18504E+06        -0.60089E+08         0.00000E+00
    0.00000E+00         0.00000E+00        -0.40190E+08
 
   -0.35759E+08        -0.16092E+06         0.00000E+00
   -0.16092E+06        -0.60128E+08         0.00000E+00
    0.00000E+00         0.00000E+00        -0.40311E+08
 
   -0.36334E+08        -0.10089E+06         0.00000E+00
   -0.10089E+06        -0.60164E+08         0.00000E+00
    0.00000E+00         0.00000E+00        -0.40419E+08
 
   -0.36869E+08        -0.48574E+04         0.00000E+00
   -0.48574E+04        -0.60191E+08         0.00000E+00
    0.00000E+00         0.00000E+00        -0.40518E+08
 
   -0.37375E+08         0.12689E+06         0.00000E+00
    0.12689E+06        -0.60204E+08         0.00000E+00
    0.00000E+00         0.00000E+00        -0.40607E+08
 
   -0.37862E+08         0.29379E+06         0.00000E+00
    0.29379E+06        -0.60199E+08         0.00000E+00
    0.00000E+00         0.00000E+00        -0.40689E+08
 
   -0.38337E+08         0.49507E+06         0.00000E+00
    0.49507E+06        -0.60170E+08         0.00000E+00
    0.00000E+00         0.00000E+00        -0.40765E+08
 
   -0.38812E+08         0.72981E+06         0.00000E+00
    0.72981E+06        -0.60113E+08         0.00000E+00
    0.00000E+00         0.00000E+00        -0.40837E+08
 
   -0.39293E+08         0.99700E+06         0.00000E+00
    0.99700E+06        -0.60024E+08         0.00000E+00
    0.00000E+00         0.00000E+00        -0.40905E+08
 
   -0.39788E+08         0.12956E+07         0.00000E+00
    0.12956E+07        -0.59899E+08         0.00000E+00
    0.00000E+00         0.00000E+00        -0.40971E+08
 
   -0.40305E+08         0.16246E+07         0.00000E+00
    0.16246E+07        -0.59733E+08         0.00000E+00
    0.00000E+00         0.00000E+00        -0.41035E+08
 
   -0.40850E+08         0.19832E+07         0.00000E+00
    0.19832E+07        -0.59523E+08         0.00000E+00
    0.00000E+00         0.00000E+00        -0.41099E+08
 
   -0.32947E+08        -0.60371E+05         0.00000E+00
   -0.60371E+05        -0.60005E+08         0.00000E+00
    0.00000E+00         0.00000E+00        -0.39399E+08
 
   -0.33756E+08        -0.15447E+06         0.00000E+00
   -0.15447E+06        -0.60025E+08         0.00000E+00
    0.00000E+00         0.00000E+00        -0.39561E+08
 
   -0.34479E+08        -0.21066E+06         0.00000E+00
   -0.21066E+06        -0.60058E+08         0.00000E+00
    0.00000E+00         0.00000E+00        -0.39705E+08
 
   -0.35128E+08        -0.22711E+06         0.00000E+00
   -0.22711E+06        -0.60101E+08         0.00000E+00
    0.00000E+00         0.00000E+00        -0.39833E+08
 
   -0.35715E+08        -0.20275E+06         0.00000E+00
   -0.20275E+06        -0.60146E+08         0.00000E+00
    0.00000E+00         0.00000E+00        -0.39947E+08
 
   -0.36252E+08        -0.13710E+06         0.00000E+00
   -0.13710E+06        -0.60189E+08         0.00000E+00
    0.00000E+00         0.00000E+00        -0.40050E+08
 
   -0.36749E+08        -0.30207E+05         0.00000E+00
   -0.30207E+05        -0.60224E+08         0.00000E+00
    0.00000E+00         0.00000E+00        -0.40143E+08
 
   -0.37217E+08         0.11747E+06         0.00000E+00
    0.11747E+06        -0.60246E+08         0.00000E+00
    0.00000E+00         0.00000E+00        -0.40227E+08
 
   -0.37666E+08         0.30518E+06         0.00000E+00
    0.30518E+06        -0.60250E+08         0.00000E+00
    0.00000E+00         0.00000E+00        -0.40304E+08
 
   -0.38105E+08         0.53195E+06         0.00000E+00
    0.53195E+06        -0.60231E+08         0.00000E+00
    0.00000E+00         0.00000E+00        -0.40375E+08
 
   -0.38544E+08         0.79664E+06         0.00000E+00
    0.79664E+06        -0.60184E+08         0.00000E+00
    0.00000E+00         0.00000E+00        -0.40442E+08
 
   -0.38991E+08         0.10980E+07         0.00000E+00
    0.10980E+07        -0.60106E+08         0.00000E+00
    0.00000E+00         0.00000E+00        -0.40506E+08
 
   -0.39454E+08         0.14348E+07         0.00000E+00
    0.14348E+07        -0.59991E+08         0.00000E+00
    0.00000E+00         0.00000E+00        -0.40568E+08
 
   -0.39939E+08         0.18059E+07         0.00000E+00
    0.18059E+07        -0.59837E+08         0.00000E+00
    0.00000E+00         0.00000E+00        -0.40628E+08
 
   -0.40454E+08         0.22100E+07         0.00000E+00
    0.22100E+07        -0.59640E+08         0.00000E+00
    0.00000E+00         0.00000E+00        -0.40689E+08
 
   -0.33070E+08        -0.71599E+05         0.00000E+00
   -0.71599E+05        -0.60006E+08         0.00000E+00
    0.00000E+00         0.00000E+00        -0.39022E+08
 
   -0.33839E+08        -0.18385E+06         0.00000E+00
   -0.18385E+06        -0.60027E+08         0.00000E+00
    0.00000E+00         0.00000E+00        -0.39176E+08
 
   -0.34520E+08        -0.25237E+06         0.00000E+00
   -0.25237E+06        -0.60065E+08         0.00000E+00
    0.00000E+00         0.00000E+00        -0.39313E+08
 
   -0.35126E+08        -0.27532E+06         0.00000E+00
   -0.27532E+06        -0.60113E+08         0.00000E+00
    0.00000E+00         0.00000E+00        -0.39434E+08
 
   -0.35669E+08        -0.25172E+06         0.00000E+00
   -0.25172E+06        -0.60166E+08         0.00000E+00
    0.00000E+00         0.00000E+00        -0.39542E+08
 
   -0.36162E+08        -0.18127E+06         0.00000E+00
   -0.18127E+06        -0.60216E+08         0.00000E+00
    0.00000E+00         0.00000E+00        -0.39638E+08
 
   -0.36615E+08        -0.64200E+05         0.00000E+00
   -0.64200E+05        -0.60260E+08         0.00000E+00
    0.00000E+00         0.00000E+00        -0.39724E+08
 
   -0.37040E+08         0.98819E+05         0.00000E+00
    0.98819E+05        -0.60291E+08         0.00000E+00
    0.00000E+00         0.00000E+00        -0.39802E+08
 
   -0.37447E+08         0.30680E+06         0.00000E+00
    0.30680E+06        -0.60305E+08         0.00000E+00
    0.00000E+00         0.00000E+00        -0.39873E+08
 
   -0.37846E+08         0.55852E+06         0.00000E+00
    0.55852E+06        -0.60296E+08         0.00000E+00
    0.00000E+00         0.00000E+00        -0.39939E+08
 
   -0.38245E+08         0.85261E+06         0.00000E+00
    0.85261E+06        -0.60261E+08         0.00000E+00
    0.00000E+00         0.00000E+00        -0.40001E+08
 
   -0.38654E+08         0.11876E+07         0.00000E+00
    0.11876E+07        -0.60194E+08         0.00000E+00
    0.00000E+00         0.00000E+00        -0.40060E+08
 
   -0.39080E+08         0.15620E+07         0.00000E+00
    0.15620E+07        -0.60092E+08         0.00000E+00
    0.00000E+00         0.00000E+00        -0.40118E+08
 
   -0.39530E+08         0.19743E+07         0.00000E+00
    0.19743E+07        -0.59951E+08         0.00000E+00
    0.00000E+00         0.00000E+00        -0.40174E+08
 
   -0.40010E+08         0.24231E+07         0.00000E+00
    0.24231E+07        -0.59767E+08         0.00000E+00
    0.00000E+00         0.00000E+00        -0.40231E+08
 
   -0.33215E+08        -0.84127E+05         0.00000E+00
   -0.84127E+05        -0.60006E+08         0.00000E+00
    0.00000E+00         0.00000E+00        -0.38608E+08
 
   -0.33938E+08        -0.21674E+06         0.00000E+00
   -0.21674E+06        -0.60031E+08         0.00000E+00
    0.00000E+00         0.00000E+00        -0.38754E+08
 
   -0.34572E+08        -0.29930E+06         0.00000E+00
   -0.29930E+06        -0.60073E+08         0.00000E+00
    0.00000E+00         0.00000E+00        -0.38882E+08
 
   -0.35128E+08        -0.33011E+06         0.00000E+00
   -0.33011E+06        -0.60127E+08         0.00000E+00
    0.00000E+00         0.00000E+00        -0.38995E+08
 
   -0.35622E+08        -0.30835E+06         0.00000E+00
   -0.30835E+06        -0.60187E+08         0.00000E+00
    0.00000E+00         0.00000E+00        -0.39095E+08
 
   -0.36064E+08        -0.23396E+06         0.00000E+00
   -0.23396E+06        -0.60246E+08         0.00000E+00
    0.00000E+00         0.00000E+00        -0.39183E+08
 
   -0.36469E+08        -0.10743E+06         0.00000E+00
   -0.10743E+06        -0.60298E+08         0.00000E+00
    0.00000E+00         0.00000E+00        -0.39262E+08
 
   -0.36846E+08         0.70277E+05         0.00000E+00
    0.70277E+05        -0.60339E+08         0.00000E+00
    0.00000E+00         0.00000E+00        -0.39334E+08
 
   -0.37206E+08         0.29791E+06         0.00000E+00
    0.29791E+06        -0.60364E+08         0.00000E+00
    0.00000E+00         0.00000E+00        -0.39399E+08
 
   -0.37559E+08         0.57397E+06         0.00000E+00
    0.57397E+06        -0.60366E+08         0.00000E+00
    0.00000E+00         0.00000E+00        -0.39459E+08
 
   -0.37915E+08         0.89684E+06         0.00000E+00
    0.89684E+06        -0.60342E+08         0.00000E+00
    0.00000E+00         0.00000E+00        -0.39515E+08
 
   -0.38282E+08         0.12648E+07         0.00000E+00
    0.12648E+07        -0.60288E+08         0.00000E+00
    0.00000E+00         0.00000E+00        -0.39569E+08
 
   -0.38667E+08         0.16760E+07         0.00000E+00
    0.16760E+07        -0.60199E+08         0.00000E+00
    0.00000E+00         0.00000E+00        -0.39621E+08
 
   -0.39078E+08         0.21288E+07         0.00000E+00
    0.21288E+07        -0.60072E+08         0.00000E+00
    0.00000E+00         0.00000E+00        -0.39673E+08
 
   -0.39521E+08         0.26214E+07         0.00000E+00
    0.26214E+07        -0.59904E+08         0.00000E+00
    0.00000E+00         0.00000E+00        -0.39725E+08
 
   -0.33384E+08        -0.98040E+05         0.00000E+00
   -0.98040E+05        -0.60007E+08         0.00000E+00
    0.00000E+00         0.00000E+00        -0.38159E+08
 
   -0.34056E+08        -0.25332E+06         0.00000E+00
   -0.25332E+06        -0.60034E+08         0.00000E+00
    0.00000E+00         0.00000E+00        -0.38295E+08
 
   -0.34635E+08        -0.35174E+06         0.00000E+00
   -0.35174E+06        -0.60081E+08         0.00000E+00
    0.00000E+00         0.00000E+00        -0.38414E+08
 
   -0.35136E+08        -0.39179E+06         0.00000E+00
   -0.39179E+06        -0.60141E+08         0.00000E+00
    0.00000E+00         0.00000E+00        -0.38518E+08
 
   -0.35573E+08        -0.37297E+06         0.00000E+00
   -0.37297E+06        -0.60208E+08         0.00000E+00
    0.00000E+00         0.00000E+00        -0.38609E+08
 
   -0.35961E+08        -0.29552E+06         0.00000E+00
   -0.29552E+06        -0.60276E+08         0.00000E+00
    0.00000E+00         0.00000E+00        -0.38689E+08
 
   -0.36311E+08        -0.16031E+06         0.00000E+00
   -0.16031E+06        -0.60338E+08         0.00000E+00
    0.00000E+00         0.00000E+00        -0.38760E+08
 
   -0.36635E+08         0.31378E+05         0.00000E+00
    0.31378E+05        -0.60389E+08         0.00000E+00
    0.00000E+00         0.00000E+00        -0.38823E+08
 
   -0.36943E+08         0.27796E+06         0.00000E+00
    0.27796E+06        -0.60424E+08         0.00000E+00
    0.00000E+00         0.00000E+00        -0.38881E+08
 
   -0.37247E+08         0.57765E+06         0.00000E+00
    0.57765E+06        -0.60438E+08         0.00000E+00
    0.00000E+00         0.00000E+00        -0.38934E+08
 
   -0.37555E+08         0.92853E+06         0.00000E+00
    0.92853E+06        -0.60427E+08         0.00000E+00
    0.00000E+00         0.00000E+00        -0.38984E+08
 
   -0.37875E+08         0.13286E+07         0.00000E+00
    0.13286E+07        -0.60386E+08         0.00000E+00
    0.00000E+00         0.00000E+00        -0.39032E+08
 
   -0.38216E+08         0.17758E+07         0.00000E+00
    0.17758E+07        -0.60312E+08         0.00000E+00
    0.00000E+00         0.00000E+00        -0.39079E+08
 
   -0.38585E+08         0.22682E+07         0.00000E+00
    0.22682E+07        -0.60200E+08         0.00000E+00
    0.00000E+00         0.00000E+00        -0.39126E+08
 
   -0.38987E+08         0.28036E+07         0.00000E+00
    0.28036E+07        -0.60047E+08         0.00000E+00
    0.00000E+00         0.00000E+00        -0.39173E+08
 
   -0.33582E+08        -0.11340E+06         0.00000E+00
   -0.11340E+06        -0.60008E+08         0.00000E+00
    0.00000E+00         0.00000E+00        -0.37677E+08
 
   -0.34194E+08        -0.29374E+06         0.00000E+00
   -0.29374E+06        -0.60037E+08         0.00000E+00
    0.00000E+00         0.00000E+00        -0.37802E+08
 
   -0.34711E+08        -0.40983E+06         0.00000E+00
   -0.40983E+06        -0.60089E+08         0.00000E+00
    0.00000E+00         0.00000E+00        -0.37910E+08
 
   -0.35150E+08        -0.46052E+06         0.00000E+00
   -0.46052E+06        -0.60156E+08         0.00000E+00
    0.00000E+00         0.00000E+00        -0.38003E+08
 
   -0.35526E+08        -0.44572E+06         0.00000E+00
   -0.44572E+06        -0.60231E+08         0.00000E+00
    0.00000E+00         0.00000E+00        -0.38084E+08
 
   -0.35852E+08        -0.36611E+06         0.00000E+00
   -0.36611E+06        -0.60307E+08         0.00000E+00
    0.00000E+00         0.00000E+00        -0.38155E+08
 
   -0.36142E+08        -0.22302E+06         0.00000E+00
   -0.22302E+06        -0.60378E+08         0.00000E+00
    0.00000E+00         0.00000E+00        -0.38217E+08
 
   -0.36407E+08        -0.18119E+05         0.00000E+00
   -0.18119E+05        -0.60439E+08         0.00000E+00
    0.00000E+00         0.00000E+00        -0.38272E+08
 
   -0.36660E+08         0.24662E+06         0.00000E+00
    0.24662E+06        -0.60486E+08         0.00000E+00
    0.00000E+00         0.00000E+00        -0.38322E+08
 
   -0.36909E+08         0.56909E+06         0.00000E+00
    0.56909E+06        -0.60512E+08         0.00000E+00
    0.00000E+00         0.00000E+00        -0.38367E+08
 
   -0.37164E+08         0.94708E+06         0.00000E+00
    0.94708E+06        -0.60513E+08         0.00000E+00
    0.00000E+00         0.00000E+00        -0.38410E+08
 
   -0.37435E+08         0.13783E+07         0.00000E+00
    0.13783E+07        -0.60486E+08         0.00000E+00
    0.00000E+00         0.00000E+00        -0.38452E+08
 
   -0.37728E+08         0.18606E+07         0.00000E+00
    0.18606E+07        -0.60427E+08         0.00000E+00
    0.00000E+00         0.00000E+00        -0.38493E+08
 
   -0.38050E+08         0.23914E+07         0.00000E+00
    0.23914E+07        -0.60331E+08         0.00000E+00
    0.00000E+00         0.00000E+00        -0.38534E+08
 
   -0.38409E+08         0.29685E+07         0.00000E+00
    0.29685E+07        -0.60196E+08         0.00000E+00
    0.00000E+00         0.00000E+00        -0.38576E+08
 
   -0.33809E+08        -0.13025E+06         0.00000E+00
   -0.13025E+06        -0.60008E+08         0.00000E+00
    0.00000E+00         0.00000E+00        -0.37164E+08
 
   -0.34354E+08        -0.33805E+06         0.00000E+00
   -0.33805E+06        -0.60040E+08         0.00000E+00
    0.00000E+00         0.00000E+00        -0.37276E+08
 
   -0.34802E+08        -0.47360E+06         0.00000E+00
   -0.47360E+06        -0.60097E+08         0.00000E+00
    0.00000E+00         0.00000E+00        -0.37372E+08
 
   -0.35172E+08        -0.53626E+06         0.00000E+00
   -0.53626E+06        -0.60170E+08         0.00000E+00
    0.00000E+00         0.00000E+00        -0.37454E+08
 
   -0.35479E+08        -0.52649E+06         0.00000E+00
   -0.52649E+06        -0.60252E+08         0.00000E+00
    0.00000E+00         0.00000E+00        -0.37523E+08
 
   -0.35738E+08        -0.44560E+06         0.00000E+00
   -0.44560E+06        -0.60337E+08         0.00000E+00
    0.00000E+00         0.00000E+00        -0.37583E+08
 
   -0.35963E+08        -0.29542E+06         0.00000E+00
   -0.29542E+06        -0.60417E+08         0.00000E+00
    0.00000E+00         0.00000E+00        -0.37635E+08
 
   -0.36165E+08        -0.78163E+05         0.00000E+00
   -0.78163E+05        -0.60489E+08         0.00000E+00
    0.00000E+00         0.00000E+00        -0.37681E+08
 
   -0.36356E+08         0.20381E+06         0.00000E+00
    0.20381E+06        -0.60546E+08         0.00000E+00
    0.00000E+00         0.00000E+00        -0.37722E+08
 
   -0.36546E+08         0.54805E+06         0.00000E+00
    0.54805E+06        -0.60584E+08         0.00000E+00
    0.00000E+00         0.00000E+00        -0.37759E+08
 
   -0.36745E+08         0.95206E+06         0.00000E+00
    0.95206E+06        -0.60598E+08         0.00000E+00
    0.00000E+00         0.00000E+00        -0.37795E+08
 
   -0.36962E+08         0.14134E+07         0.00000E+00
    0.14134E+07        -0.60586E+08         0.00000E+00
    0.00000E+00         0.00000E+00        -0.37829E+08
 
   -0.37203E+08         0.19294E+07         0.00000E+00
    0.19294E+07        -0.60542E+08         0.00000E+00
    0.00000E+00         0.00000E+00        -0.37864E+08
 
   -0.37477E+08         0.24975E+07         0.00000E+00
    0.24975E+07        -0.60463E+08         0.00000E+00
    0.00000E+00         0.00000E+00        -0.37899E+08
 
   -0.37789E+08         0.31150E+07         0.00000E+00
    0.31150E+07        -0.60346E+08         0.00000E+00
    0.00000E+00         0.00000E+00        -0.37936E+08
 
   -0.34069E+08        -0.14857E+06         0.00000E+00
   -0.14857E+06        -0.60009E+08         0.00000E+00
    0.00000E+00         0.00000E+00        -0.36622E+08
 
   -0.34538E+08        -0.38617E+06         0.00000E+00
   -0.38617E+06        -0.60044E+08         0.00000E+00
    0.00000E+00         0.00000E+00        -0.36720E+08
 
   -0.34910E+08        -0.54285E+06         0.00000E+00
   -0.54285E+06        -0.60105E+08         0.00000E+00
    0.00000E+00         0.00000E+00        -0.36802E+08
 
   -0.35203E+08        -0.61868E+06         0.00000E+00
   -0.61868E+06        -0.60184E+08         0.00000E+00
    0.00000E+00         0.00000E+00        -0.36871E+08
 
   -0.35435E+08        -0.61488E+06         0.00000E+00
   -0.61488E+06        -0.60273E+08         0.00000E+00
    0.00000E+00         0.00000E+00        -0.36928E+08
 
   -0.35621E+08        -0.53350E+06         0.00000E+00
   -0.53350E+06        -0.60365E+08         0.00000E+00
    0.00000E+00         0.00000E+00        -0.36976E+08
 
   -0.35774E+08        -0.37706E+06         0.00000E+00
   -0.37706E+06        -0.60454E+08         0.00000E+00
    0.00000E+00         0.00000E+00        -0.37017E+08
 
   -0.35908E+08        -0.14835E+06         0.00000E+00
   -0.14835E+06        -0.60534E+08         0.00000E+00
    0.00000E+00         0.00000E+00        -0.37052E+08
 
   -0.36033E+08         0.14979E+06         0.00000E+00
    0.14979E+06        -0.60602E+08         0.00000E+00
    0.00000E+00         0.00000E+00        -0.37083E+08
 
   -0.36160E+08         0.51456E+06         0.00000E+00
    0.51456E+06        -0.60651E+08         0.00000E+00
    0.00000E+00         0.00000E+00        -0.37112E+08
 
   -0.36299E+08         0.94325E+06         0.00000E+00
    0.94325E+06        -0.60679E+08         0.00000E+00
    0.00000E+00         0.00000E+00        -0.37139E+08
 
   -0.36457E+08         0.14332E+07         0.00000E+00
    0.14332E+07        -0.60681E+08         0.00000E+00
    0.00000E+00         0.00000E+00        -0.37166E+08
 
   -0.36643E+08         0.19816E+07         0.00000E+00
    0.19816E+07        -0.60653E+08         0.00000E+00
    0.00000E+00         0.00000E+00        -0.37193E+08
 
   -0.36865E+08         0.25856E+07         0.00000E+00
    0.25856E+07        -0.60592E+08         0.00000E+00
    0.00000E+00         0.00000E+00        -0.37222E+08
 
   -0.37127E+08         0.32421E+07         0.00000E+00
    0.32421E+07        -0.60495E+08         0.00000E+00
    0.00000E+00         0.00000E+00        -0.37254E+08
 
   -0.34365E+08        -0.16832E+06         0.00000E+00
   -0.16832E+06        -0.60009E+08         0.00000E+00
    0.00000E+00         0.00000E+00        -0.36054E+08
 
   -0.34749E+08        -0.43791E+06         0.00000E+00
   -0.43791E+06        -0.60047E+08         0.00000E+00
    0.00000E+00         0.00000E+00        -0.36136E+08
 
   -0.35035E+08        -0.61720E+06         0.00000E+00
   -0.61720E+06        -0.60112E+08         0.00000E+00
    0.00000E+00         0.00000E+00        -0.36202E+08
 
   -0.35244E+08        -0.70718E+06         0.00000E+00
   -0.70718E+06        -0.60196E+08         0.00000E+00
    0.00000E+00         0.00000E+00        -0.36256E+08
 
   -0.35394E+08        -0.71009E+06         0.00000E+00
   -0.71009E+06        -0.60291E+08         0.00000E+00
    0.00000E+00         0.00000E+00        -0.36299E+08
 
   -0.35500E+08        -0.62889E+06         0.00000E+00
   -0.62889E+06        -0.60390E+08         0.00000E+00
    0.00000E+00         0.00000E+00        -0.36334E+08
 
   -0.35577E+08        -0.46699E+06         0.00000E+00
   -0.46699E+06        -0.60486E+08         0.00000E+00
    0.00000E+00         0.00000E+00        -0.36363E+08
 
   -0.35638E+08        -0.22784E+06         0.00000E+00
   -0.22784E+06        -0.60575E+08         0.00000E+00
    0.00000E+00         0.00000E+00        -0.36387E+08
 
   -0.35693E+08         0.85193E+05         0.00000E+00
    0.85193E+05        -0.60651E+08         0.00000E+00
    0.00000E+00         0.00000E+00        -0.36407E+08
 
   -0.35753E+08         0.46900E+06         0.00000E+00
    0.46900E+06        -0.60712E+08         0.00000E+00
    0.00000E+00         0.00000E+00        -0.36426E+08
 
   -0.35827E+08         0.92066E+06         0.00000E+00
    0.92066E+06        -0.60752E+08         0.00000E+00
    0.00000E+00         0.00000E+00        -0.36444E+08
 
   -0.35923E+08         0.14374E+07         0.00000E+00
    0.14374E+07        -0.60769E+08         0.00000E+00
    0.00000E+00         0.00000E+00        -0.36463E+08
 
   -0.36051E+08         0.20164E+07         0.00000E+00
    0.20164E+07        -0.60758E+08         0.00000E+00
    0.00000E+00         0.00000E+00        -0.36483E+08
 
   -0.36216E+08         0.26547E+07         0.00000E+00
    0.26547E+07        -0.60715E+08         0.00000E+00
    0.00000E+00         0.00000E+00        -0.36505E+08
 
   -0.36426E+08         0.33488E+07         0.00000E+00
    0.33488E+07        -0.60638E+08         0.00000E+00
    0.00000E+00         0.00000E+00        -0.36530E+08
 
   -0.34700E+08        -0.18940E+06         0.00000E+00
   -0.18940E+06        -0.60010E+08         0.00000E+00
    0.00000E+00         0.00000E+00        -0.35462E+08
 
   -0.34988E+08        -0.49290E+06         0.00000E+00
   -0.49290E+06        -0.60049E+08         0.00000E+00
    0.00000E+00         0.00000E+00        -0.35526E+08
 
   -0.35179E+08        -0.69593E+06         0.00000E+00
   -0.69593E+06        -0.60118E+08         0.00000E+00
    0.00000E+00         0.00000E+00        -0.35575E+08
 
   -0.35296E+08        -0.80074E+06         0.00000E+00
   -0.80074E+06        -0.60207E+08         0.00000E+00
    0.00000E+00         0.00000E+00        -0.35612E+08
 
   -0.35356E+08        -0.81081E+06         0.00000E+00
   -0.81081E+06        -0.60306E+08         0.00000E+00
    0.00000E+00         0.00000E+00        -0.35640E+08
 
   -0.35377E+08        -0.73034E+06         0.00000E+00
   -0.73034E+06        -0.60409E+08         0.00000E+00
    0.00000E+00         0.00000E+00        -0.35660E+08
 
   -0.35373E+08        -0.56373E+06         0.00000E+00
   -0.56373E+06        -0.60511E+08         0.00000E+00
    0.00000E+00         0.00000E+00        -0.35675E+08
 
   -0.35355E+08        -0.31527E+06         0.00000E+00
   -0.31527E+06        -0.60606E+08         0.00000E+00
    0.00000E+00         0.00000E+00        -0.35687E+08
 
   -0.35336E+08         0.11141E+05         0.00000E+00
    0.11141E+05        -0.60691E+08         0.00000E+00
    0.00000E+00         0.00000E+00        -0.35696E+08
 
   -0.35325E+08         0.41209E+06         0.00000E+00
    0.41209E+06        -0.60761E+08         0.00000E+00
    0.00000E+00         0.00000E+00        -0.35704E+08
 
   -0.35331E+08         0.88459E+06         0.00000E+00
    0.88459E+06        -0.60814E+08         0.00000E+00
    0.00000E+00         0.00000E+00        -0.35712E+08
 
   -0.35362E+08         0.14259E+07         0.00000E+00
    0.14259E+07        -0.60845E+08         0.00000E+00
    0.00000E+00         0.00000E+00        -0.35721E+08
 
   -0.35426E+08         0.20334E+07         0.00000E+00
    0.20334E+07        -0.60851E+08         0.00000E+00
    0.00000E+00         0.00000E+00        -0.35733E+08
 
   -0.35532E+08         0.27039E+07         0.00000E+00
    0.27039E+07        -0.60827E+08         0.00000E+00
    0.00000E+00         0.00000E+00        -0.35748E+08
 
   -0.35687E+08         0.34340E+07         0.00000E+00
    0.34340E+07        -0.60771E+08         0.00000E+00
    0.00000E+00         0.00000E+00        -0.35767E+08
 
   -0.35074E+08        -0.21165E+06         0.00000E+00
   -0.21165E+06        -0.60010E+08         0.00000E+00
    0.00000E+00         0.00000E+00        -0.34849E+08
 
   -0.35255E+08        -0.55057E+06         0.00000E+00
   -0.55057E+06        -0.60052E+08         0.00000E+00
    0.00000E+00         0.00000E+00        -0.34892E+08
 
   -0.35342E+08        -0.77803E+06         0.00000E+00
   -0.77803E+06        -0.60123E+08         0.00000E+00
    0.00000E+00         0.00000E+00        -0.34922E+08
 
   -0.35358E+08        -0.89787E+06         0.00000E+00
   -0.89787E+06        -0.60214E+08         0.00000E+00
    0.00000E+00         0.00000E+00        -0.34941E+08
 
   -0.35322E+08        -0.91520E+06         0.00000E+00
   -0.91520E+06        -0.60316E+08         0.00000E+00
    0.00000E+00         0.00000E+00        -0.34951E+08
 
   -0.35252E+08        -0.83571E+06         0.00000E+00
   -0.83571E+06        -0.60422E+08         0.00000E+00
    0.00000E+00         0.00000E+00        -0.34956E+08
 
   -0.35161E+08        -0.66510E+06         0.00000E+00
   -0.66510E+06        -0.60526E+08         0.00000E+00
    0.00000E+00         0.00000E+00        -0.34956E+08
 
   -0.35063E+08        -0.40860E+06         0.00000E+00
   -0.40860E+06        -0.60625E+08         0.00000E+00
    0.00000E+00         0.00000E+00        -0.34954E+08
 
   -0.34966E+08        -0.70680E+05         0.00000E+00
   -0.70680E+05        -0.60716E+08         0.00000E+00
    0.00000E+00         0.00000E+00        -0.34950E+08
 
   -0.34880E+08         0.34503E+06         0.00000E+00
    0.34503E+06        -0.60794E+08         0.00000E+00
    0.00000E+00         0.00000E+00        -0.34946E+08
 
   -0.34813E+08         0.83564E+06         0.00000E+00
    0.83564E+06        -0.60857E+08         0.00000E+00
    0.00000E+00         0.00000E+00        -0.34944E+08
 
   -0.34775E+08         0.13987E+07         0.00000E+00
    0.13987E+07        -0.60903E+08         0.00000E+00
    0.00000E+00         0.00000E+00        -0.34944E+08
 
   -0.34773E+08         0.20318E+07         0.00000E+00
    0.20318E+07        -0.60926E+08         0.00000E+00
    0.00000E+00         0.00000E+00        -0.34947E+08
 
   -0.34815E+08         0.27323E+07         0.00000E+00
    0.27323E+07        -0.60923E+08         0.00000E+00
    0.00000E+00         0.00000E+00        -0.34953E+08
 
   -0.34910E+08         0.34964E+07         0.00000E+00
    0.34964E+07        -0.60889E+08         0.00000E+00
    0.00000E+00         0.00000E+00        -0.34965E+08
 
   -0.35491E+08        -0.23483E+06         0.00000E+00
   -0.23483E+06        -0.60011E+08         0.00000E+00
    0.00000E+00         0.00000E+00        -0.34217E+08
 
   -0.35553E+08        -0.61012E+06         0.00000E+00
   -0.61012E+06        -0.60053E+08         0.00000E+00
    0.00000E+00         0.00000E+00        -0.34237E+08
 
   -0.35525E+08        -0.86205E+06         0.00000E+00
   -0.86205E+06        -0.60126E+08         0.00000E+00
    0.00000E+00         0.00000E+00        -0.34245E+08
 
   -0.35431E+08        -0.99650E+06         0.00000E+00
   -0.99650E+06        -0.60217E+08         0.00000E+00
    0.00000E+00         0.00000E+00        -0.34244E+08
 
   -0.35292E+08        -0.10206E+07         0.00000E+00
   -0.10206E+07        -0.60319E+08         0.00000E+00
    0.00000E+00         0.00000E+00        -0.34236E+08
 
   -0.35126E+08        -0.94209E+06         0.00000E+00
   -0.94209E+06        -0.60424E+08         0.00000E+00
    0.00000E+00         0.00000E+00        -0.34223E+08
 
   -0.34945E+08        -0.76811E+06         0.00000E+00
   -0.76811E+06        -0.60528E+08         0.00000E+00
    0.00000E+00         0.00000E+00        -0.34207E+08
 
   -0.34761E+08        -0.50503E+06         0.00000E+00
   -0.50503E+06        -0.60628E+08         0.00000E+00
    0.00000E+00         0.00000E+00        -0.34189E+08
 
   -0.34583E+08        -0.15791E+06         0.00000E+00
   -0.15791E+06        -0.60721E+08         0.00000E+00
    0.00000E+00         0.00000E+00        -0.34172E+08
 
   -0.34420E+08         0.26953E+06         0.00000E+00
    0.26953E+06        -0.60805E+08         0.00000E+00
    0.00000E+00         0.00000E+00        -0.34156E+08
 
   -0.34278E+08         0.77472E+06         0.00000E+00
    0.77472E+06        -0.60877E+08         0.00000E+00
    0.00000E+00         0.00000E+00        -0.34142E+08
 
   -0.34166E+08         0.13558E+07         0.00000E+00
    0.13558E+07        -0.60936E+08         0.00000E+00
    0.00000E+00         0.00000E+00        -0.34131E+08
 
   -0.34093E+08         0.20111E+07         0.00000E+00
    0.20111E+07        -0.60977E+08         0.00000E+00
    0.00000E+00         0.00000E+00        -0.34124E+08
 
   -0.34068E+08         0.27385E+07         0.00000E+00
    0.27385E+07        -0.60995E+08         0.00000E+00
    0.00000E+00         0.00000E+00        -0.34122E+08
 
   -0.34099E+08         0.35345E+07         0.00000E+00
    0.35345E+07        -0.60985E+08         0.00000E+00
    0.00000E+00         0.00000E+00        -0.34126E+08
 
   -0.35952E+08        -0.25864E+06         0.00000E+00
   -0.25864E+06        -0.60011E+08         0.00000E+00
    0.00000E+00         0.00000E+00        -0.33570E+08
 
   -0.35881E+08        -0.67048E+06         0.00000E+00
   -0.67048E+06        -0.60054E+08         0.00000E+00
    0.00000E+00         0.00000E+00        -0.33564E+08
 
   -0.35727E+08        -0.94605E+06         0.00000E+00
   -0.94605E+06        -0.60126E+08         0.00000E+00
    0.00000E+00         0.00000E+00        -0.33548E+08
 
   -0.35514E+08        -0.10938E+07         0.00000E+00
   -0.10938E+07        -0.60215E+08         0.00000E+00
    0.00000E+00         0.00000E+00        -0.33524E+08
 
   -0.35266E+08        -0.11236E+07         0.00000E+00
   -0.11236E+07        -0.60313E+08         0.00000E+00
    0.00000E+00         0.00000E+00        -0.33495E+08
 
   -0.34998E+08        -0.10456E+07         0.00000E+00
   -0.10456E+07        -0.60413E+08         0.00000E+00
    0.00000E+00         0.00000E+00        -0.33463E+08
 
   -0.34723E+08        -0.86874E+06         0.00000E+00
   -0.86874E+06        -0.60512E+08         0.00000E+00
    0.00000E+00         0.00000E+00        -0.33429E+08
 
   -0.34452E+08        -0.60080E+06         0.00000E+00
   -0.60080E+06        -0.60608E+08         0.00000E+00
    0.00000E+00         0.00000E+00        -0.33396E+08
 
   -0.34192E+08        -0.24737E+06         0.00000E+00
   -0.24737E+06        -0.60699E+08         0.00000E+00
    0.00000E+00         0.00000E+00        -0.33363E+08
 
   -0.33948E+08         0.18791E+06         0.00000E+00
    0.18791E+06        -0.60786E+08         0.00000E+00
    0.00000E+00         0.00000E+00        -0.33334E+08
 
   -0.33729E+08         0.70312E+06         0.00000E+00
    0.70312E+06        -0.60866E+08         0.00000E+00
    0.00000E+00         0.00000E+00        -0.33307E+08
 
   -0.33540E+08         0.12975E+07         0.00000E+00
    0.12975E+07        -0.60937E+08         0.00000E+00
    0.00000E+00         0.00000E+00        -0.33285E+08
 
   -0.33391E+08         0.19705E+07         0.00000E+00
    0.19705E+07        -0.60996E+08         0.00000E+00
    0.00000E+00         0.00000E+00        -0.33267E+08
 
   -0.33292E+08         0.27210E+07         0.00000E+00
    0.27210E+07        -0.61037E+08         0.00000E+00
    0.00000E+00         0.00000E+00        -0.33256E+08
 
   -0.33254E+08         0.35464E+07         0.00000E+00
    0.35464E+07        -0.61053E+08         0.00000E+00
    0.00000E+00         0.00000E+00        -0.33252E+08
 
   -0.36456E+08        -0.28268E+06         0.00000E+00
   -0.28268E+06        -0.60011E+08         0.00000E+00
    0.00000E+00         0.00000E+00        -0.32910E+08
 
   -0.36238E+08        -0.73026E+06         0.00000E+00
   -0.73026E+06        -0.60053E+08         0.00000E+00
    0.00000E+00         0.00000E+00        -0.32876E+08
 
   -0.35945E+08        -0.10275E+07         0.00000E+00
   -0.10275E+07        -0.60122E+08         0.00000E+00
    0.00000E+00         0.00000E+00        -0.32833E+08
 
   -0.35605E+08        -0.11861E+07         0.00000E+00
   -0.11861E+07        -0.60206E+08         0.00000E+00
    0.00000E+00         0.00000E+00        -0.32784E+08
 
   -0.35241E+08        -0.12196E+07         0.00000E+00
   -0.12196E+07        -0.60295E+08         0.00000E+00
    0.00000E+00         0.00000E+00        -0.32732E+08
 
   -0.34868E+08        -0.11410E+07         0.00000E+00
   -0.11410E+07        -0.60385E+08         0.00000E+00
    0.00000E+00         0.00000E+00        -0.32678E+08
 
   -0.34499E+08        -0.96179E+06         0.00000E+00
   -0.96179E+06        -0.60473E+08         0.00000E+00
    0.00000E+00         0.00000E+00        -0.32626E+08
 
   -0.34140E+08        -0.69108E+06         0.00000E+00
   -0.69108E+06        -0.60559E+08         0.00000E+00
    0.00000E+00         0.00000E+00        -0.32574E+08
 
   -0.33796E+08        -0.33501E+06         0.00000E+00
   -0.33501E+06        -0.60644E+08         0.00000E+00
    0.00000E+00         0.00000E+00        -0.32526E+08
 
   -0.33471E+08         0.10314E+06         0.00000E+00
    0.10314E+06        -0.60729E+08         0.00000E+00
    0.00000E+00         0.00000E+00        -0.32481E+08
 
   -0.33171E+08         0.62251E+06         0.00000E+00
    0.62251E+06        -0.60814E+08         0.00000E+00
    0.00000E+00         0.00000E+00        -0.32441E+08
 
   -0.32902E+08         0.12239E+07         0.00000E+00
    0.12239E+07        -0.60897E+08         0.00000E+00
    0.00000E+00         0.00000E+00        -0.32406E+08
 
   -0.32672E+08         0.19088E+07         0.00000E+00
    0.19088E+07        -0.60974E+08         0.00000E+00
    0.00000E+00         0.00000E+00        -0.32378E+08
 
   -0.32492E+08         0.26778E+07         0.00000E+00
    0.26778E+07        -0.61039E+08         0.00000E+00
    0.00000E+00         0.00000E+00        -0.32356E+08
 
   -0.32378E+08         0.35295E+07         0.00000E+00
    0.35295E+07        -0.61084E+08         0.00000E+00
    0.00000E+00         0.00000E+00        -0.32343E+08
 
   -0.37004E+08        -0.30646E+06         0.00000E+00
   -0.30646E+06        -0.60011E+08         0.00000E+00
    0.00000E+00         0.00000E+00        -0.32241E+08
 
   -0.36622E+08        -0.78767E+06         0.00000E+00
   -0.78767E+06        -0.60051E+08         0.00000E+00
    0.00000E+00         0.00000E+00        -0.32174E+08
 
   -0.36177E+08        -0.11029E+07         0.00000E+00
   -0.11029E+07        -0.60114E+08         0.00000E+00
    0.00000E+00         0.00000E+00        -0.32101E+08
 
   -0.35701E+08        -0.12686E+07         0.00000E+00
   -0.12686E+07        -0.60188E+08         0.00000E+00
    0.00000E+00         0.00000E+00        -0.32024E+08
 
   -0.35216E+08        -0.13026E+07         0.00000E+00
   -0.13026E+07        -0.60262E+08         0.00000E+00
    0.00000E+00         0.00000E+00        -0.31947E+08
 
   -0.34737E+08        -0.12218E+07         0.00000E+00
   -0.12218E+07        -0.60334E+08         0.00000E+00
    0.00000E+00         0.00000E+00        -0.31871E+08
 
   -0.34272E+08        -0.10407E+07         0.00000E+00
   -0.10407E+07        -0.60404E+08         0.00000E+00
    0.00000E+00         0.00000E+00        -0.31797E+08
 
   -0.33826E+08        -0.76982E+06         0.00000E+00
   -0.76982E+06        -0.60474E+08         0.00000E+00
    0.00000E+00         0.00000E+00        -0.31727E+08
 
   -0.33400E+08        -0.41574E+06         0.00000E+00
   -0.41574E+06        -0.60546E+08         0.00000E+00
    0.00000E+00         0.00000E+00        -0.31662E+08
 
   -0.32994E+08         0.18940E+05         0.00000E+00
    0.18940E+05        -0.60625E+08         0.00000E+00
    0.00000E+00         0.00000E+00        -0.31601E+08
 
   -0.32612E+08         0.53494E+06         0.00000E+00
    0.53494E+06        -0.60711E+08         0.00000E+00
    0.00000E+00         0.00000E+00        -0.31546E+08
 
   -0.32258E+08         0.11354E+07         0.00000E+00
    0.11354E+07        -0.60804E+08         0.00000E+00
    0.00000E+00         0.00000E+00        -0.31498E+08
 
   -0.31940E+08         0.18246E+07         0.00000E+00
    0.18246E+07        -0.60900E+08         0.00000E+00
    0.00000E+00         0.00000E+00        -0.31457E+08
 
   -0.31673E+08         0.26059E+07         0.00000E+00
    0.26059E+07        -0.60993E+08         0.00000E+00
    0.00000E+00         0.00000E+00        -0.31424E+08
 
   -0.31472E+08         0.34801E+07         0.00000E+00
    0.34801E+07        -0.61070E+08         0.00000E+00
    0.00000E+00         0.00000E+00        -0.31400E+08
 
   -0.37593E+08        -0.32940E+06         0.00000E+00
   -0.32940E+06        -0.60010E+08         0.00000E+00
    0.00000E+00         0.00000E+00        -0.31566E+08
 
   -0.37029E+08        -0.84040E+06         0.00000E+00
   -0.84040E+06        -0.60047E+08         0.00000E+00
    0.00000E+00         0.00000E+00        -0.31462E+08
 
   -0.36419E+08        -0.11681E+07         0.00000E+00
   -0.11681E+07        -0.60101E+08         0.00000E+00
    0.00000E+00         0.00000E+00        -0.31355E+08
 
   -0.35798E+08        -0.13349E+07         0.00000E+00
   -0.13349E+07        -0.60157E+08         0.00000E+00
    0.00000E+00         0.00000E+00        -0.31248E+08
 
   -0.35188E+08        -0.13648E+07         0.00000E+00
   -0.13648E+07        -0.60209E+08         0.00000E+00
    0.00000E+00         0.00000E+00        -0.31143E+08
 
   -0.34603E+08        -0.12798E+07         0.00000E+00
   -0.12798E+07        -0.60255E+08         0.00000E+00
    0.00000E+00         0.00000E+00        -0.31042E+08
 
   -0.34045E+08        -0.10974E+07         0.00000E+00
   -0.10974E+07        -0.60297E+08         0.00000E+00
    0.00000E+00         0.00000E+00        -0.30946E+08
 
   -0.33515E+08        -0.82971E+06         0.00000E+00
   -0.82971E+06        -0.60342E+08         0.00000E+00
    0.00000E+00         0.00000E+00        -0.30856E+08
 
   -0.33010E+08        -0.48348E+06         0.00000E+00
   -0.48348E+06        -0.60395E+08         0.00000E+00
    0.00000E+00         0.00000E+00        -0.30772E+08
 
   -0.32525E+08        -0.60220E+05         0.00000E+00
   -0.60220E+05        -0.60461E+08         0.00000E+00
    0.00000E+00         0.00000E+00        -0.30695E+08
 
   -0.32060E+08         0.44292E+06         0.00000E+00
    0.44292E+06        -0.60545E+08         0.00000E+00
    0.00000E+00         0.00000E+00        -0.30625E+08
 
   -0.31617E+08         0.10322E+07         0.00000E+00
    0.10322E+07        -0.60647E+08         0.00000E+00
    0.00000E+00         0.00000E+00        -0.30561E+08
 
   -0.31206E+08         0.17159E+07         0.00000E+00
    0.17159E+07        -0.60764E+08         0.00000E+00
    0.00000E+00         0.00000E+00        -0.30506E+08
 
   -0.30839E+08         0.25015E+07         0.00000E+00
    0.25015E+07        -0.60886E+08         0.00000E+00
    0.00000E+00         0.00000E+00        -0.30460E+08
 
   -0.30540E+08         0.33934E+07         0.00000E+00
    0.33934E+07        -0.61002E+08         0.00000E+00
    0.00000E+00         0.00000E+00        -0.30425E+08
 
   -0.38221E+08        -0.35082E+06         0.00000E+00
   -0.35082E+06        -0.60009E+08         0.00000E+00
    0.00000E+00         0.00000E+00        -0.30886E+08
 
   -0.37452E+08        -0.88543E+06         0.00000E+00
   -0.88543E+06        -0.60040E+08         0.00000E+00
    0.00000E+00         0.00000E+00        -0.30741E+08
 
   -0.36662E+08        -0.12169E+07         0.00000E+00
   -0.12169E+07        -0.60079E+08         0.00000E+00
    0.00000E+00         0.00000E+00        -0.30596E+08
 
   -0.35889E+08        -0.13766E+07         0.00000E+00
   -0.13766E+07        -0.60111E+08         0.00000E+00
    0.00000E+00         0.00000E+00        -0.30455E+08
 
   -0.35154E+08        -0.13966E+07         0.00000E+00
   -0.13966E+07        -0.60130E+08         0.00000E+00
    0.00000E+00         0.00000E+00        -0.30319E+08
 
   -0.34465E+08        -0.13049E+07         0.00000E+00
   -0.13049E+07        -0.60138E+08         0.00000E+00
    0.00000E+00         0.00000E+00        -0.30192E+08
 
   -0.33821E+08        -0.11224E+07         0.00000E+00
   -0.11224E+07        -0.60142E+08         0.00000E+00
    0.00000E+00         0.00000E+00        -0.30073E+08
 
   -0.33214E+08        -0.86236E+06         0.00000E+00
   -0.86236E+06        -0.60153E+08         0.00000E+00
    0.00000E+00         0.00000E+00        -0.29962E+08
 
   -0.32634E+08        -0.53125E+06         0.00000E+00
   -0.53125E+06        -0.60178E+08         0.00000E+00
    0.00000E+00         0.00000E+00        -0.29859E+08
 
   -0.32074E+08        -0.12914E+06         0.00000E+00
   -0.12914E+06        -0.60226E+08         0.00000E+00
    0.00000E+00         0.00000E+00        -0.29764E+08
 
   -0.31527E+08         0.34941E+06         0.00000E+00
    0.34941E+06        -0.60303E+08         0.00000E+00
    0.00000E+00         0.00000E+00        -0.29677E+08
 
   -0.30993E+08         0.91462E+06         0.00000E+00
    0.91462E+06        -0.60412E+08         0.00000E+00
    0.00000E+00         0.00000E+00        -0.29598E+08
 
   -0.30478E+08         0.15799E+07         0.00000E+00
    0.15799E+07        -0.60550E+08         0.00000E+00
    0.00000E+00         0.00000E+00        -0.29528E+08
 
   -0.30000E+08         0.23592E+07         0.00000E+00
    0.23592E+07        -0.60708E+08         0.00000E+00
    0.00000E+00         0.00000E+00        -0.29467E+08
 
   -0.29584E+08         0.32623E+07         0.00000E+00
    0.32623E+07        -0.60869E+08         0.00000E+00
    0.00000E+00         0.00000E+00        -0.29418E+08
 
   -0.38882E+08        -0.36984E+06         0.00000E+00
   -0.36984E+06        -0.60008E+08         0.00000E+00
    0.00000E+00         0.00000E+00        -0.30205E+08
 
   -0.37883E+08        -0.91847E+06         0.00000E+00
   -0.91847E+06        -0.60030E+08         0.00000E+00
    0.00000E+00         0.00000E+00        -0.30013E+08
 
   -0.36896E+08        -0.12411E+07         0.00000E+00
   -0.12411E+07        -0.60047E+08         0.00000E+00
    0.00000E+00         0.00000E+00        -0.29825E+08
 
   -0.35966E+08        -0.13824E+07         0.00000E+00
   -0.13824E+07        -0.60042E+08         0.00000E+00
    0.00000E+00         0.00000E+00        -0.29646E+08
 
   -0.35109E+08        -0.13856E+07         0.00000E+00
   -0.13856E+07        -0.60014E+08         0.00000E+00
    0.00000E+00         0.00000E+00        -0.29478E+08
 
   -0.34324E+08        -0.12853E+07         0.00000E+00
   -0.12853E+07        -0.59971E+08         0.00000E+00
    0.00000E+00         0.00000E+00        -0.29323E+08
 
   -0.33602E+08        -0.11052E+07         0.00000E+00
   -0.11052E+07        -0.59926E+08         0.00000E+00
    0.00000E+00         0.00000E+00        -0.29179E+08
 
   -0.32927E+08        -0.85877E+06         0.00000E+00
   -0.85877E+06        -0.59892E+08         0.00000E+00
    0.00000E+00         0.00000E+00        -0.29047E+08
 
   -0.32282E+08        -0.55158E+06         0.00000E+00
   -0.55158E+06        -0.59881E+08         0.00000E+00
    0.00000E+00         0.00000E+00        -0.28925E+08
 
   -0.31652E+08        -0.18203E+06         0.00000E+00
   -0.18203E+06        -0.59904E+08         0.00000E+00
    0.00000E+00         0.00000E+00        -0.28812E+08
 
   -0.31026E+08         0.25800E+06         0.00000E+00
    0.25800E+06        -0.59970E+08         0.00000E+00
    0.00000E+00         0.00000E+00        -0.28708E+08
 
   -0.30398E+08         0.78307E+06         0.00000E+00
    0.78307E+06        -0.60083E+08         0.00000E+00
    0.00000E+00         0.00000E+00        -0.28611E+08
 
   -0.29771E+08         0.14134E+07         0.00000E+00
    0.14134E+07        -0.60244E+08         0.00000E+00
    0.00000E+00         0.00000E+00        -0.28524E+08
 
   -0.29164E+08         0.21717E+07         0.00000E+00
    0.21717E+07        -0.60443E+08         0.00000E+00
    0.00000E+00         0.00000E+00        -0.28446E+08
 
   -0.28610E+08         0.30773E+07         0.00000E+00
    0.30773E+07        -0.60659E+08         0.00000E+00
    0.00000E+00         0.00000E+00        -0.28380E+08
 
   -0.39568E+08        -0.38531E+06         0.00000E+00
   -0.38531E+06        -0.60006E+08         0.00000E+00
    0.00000E+00         0.00000E+00        -0.29525E+08
 
   -0.38305E+08        -0.93293E+06         0.00000E+00
   -0.93293E+06        -0.60015E+08         0.00000E+00
    0.00000E+00         0.00000E+00        -0.29278E+08
 
   -0.37107E+08        -0.12282E+07         0.00000E+00
   -0.12282E+07        -0.59997E+08         0.00000E+00
    0.00000E+00         0.00000E+00        -0.29042E+08
 
   -0.36019E+08        -0.13369E+07         0.00000E+00
   -0.13369E+07        -0.59938E+08         0.00000E+00
    0.00000E+00         0.00000E+00        -0.28821E+08
 
   -0.35048E+08        -0.13167E+07         0.00000E+00
   -0.13167E+07        -0.59846E+08         0.00000E+00
    0.00000E+00         0.00000E+00        -0.28619E+08
 
   -0.34182E+08        -0.12081E+07         0.00000E+00
   -0.12081E+07        -0.59738E+08         0.00000E+00
    0.00000E+00         0.00000E+00        -0.28434E+08
 
   -0.33395E+08        -0.10353E+07         0.00000E+00
   -0.10353E+07        -0.59633E+08         0.00000E+00
    0.00000E+00         0.00000E+00        -0.28266E+08
 
   -0.32664E+08        -0.81043E+06         0.00000E+00
   -0.81043E+06        -0.59546E+08         0.00000E+00
    0.00000E+00         0.00000E+00        -0.28112E+08
 
   -0.31963E+08        -0.53733E+06         0.00000E+00
   -0.53733E+06        -0.59492E+08         0.00000E+00
    0.00000E+00         0.00000E+00        -0.27971E+08
 
   -0.31273E+08        -0.21285E+06         0.00000E+00
   -0.21285E+06        -0.59484E+08         0.00000E+00
    0.00000E+00         0.00000E+00        -0.27840E+08
 
   -0.30574E+08         0.17313E+06         0.00000E+00
    0.17313E+06        -0.59532E+08         0.00000E+00
    0.00000E+00         0.00000E+00        -0.27718E+08
 
   -0.29852E+08         0.63899E+06         0.00000E+00
    0.63899E+06        -0.59646E+08         0.00000E+00
    0.00000E+00         0.00000E+00        -0.27604E+08
 
   -0.29105E+08         0.12126E+07         0.00000E+00
    0.12126E+07        -0.59831E+08         0.00000E+00
    0.00000E+00         0.00000E+00        -0.27497E+08
 
   -0.28347E+08         0.19295E+07         0.00000E+00
    0.19295E+07        -0.60078E+08         0.00000E+00
    0.00000E+00         0.00000E+00        -0.27399E+08
 
   -0.27621E+08         0.28245E+07         0.00000E+00
    0.28245E+07        -0.60363E+08         0.00000E+00
    0.00000E+00         0.00000E+00        -0.27313E+08
 
   -0.40265E+08        -0.39533E+06         0.00000E+00
   -0.39533E+06        -0.60003E+08         0.00000E+00
    0.00000E+00         0.00000E+00        -0.28847E+08
 
   -0.38697E+08        -0.91712E+06         0.00000E+00
   -0.91712E+06        -0.59989E+08         0.00000E+00
    0.00000E+00         0.00000E+00        -0.28535E+08
 
   -0.37274E+08        -0.11583E+07         0.00000E+00
   -0.11583E+07        -0.59915E+08         0.00000E+00
    0.00000E+00         0.00000E+00        -0.28243E+08
 
   -0.36038E+08        -0.12192E+07         0.00000E+00
   -0.12192E+07        -0.59778E+08         0.00000E+00
    0.00000E+00         0.00000E+00        -0.27977E+08
 
   -0.34973E+08        -0.11732E+07         0.00000E+00
   -0.11732E+07        -0.59602E+08         0.00000E+00
    0.00000E+00         0.00000E+00        -0.27739E+08
 
   -0.34042E+08        -0.10615E+07         0.00000E+00
   -0.10615E+07        -0.59415E+08         0.00000E+00
    0.00000E+00         0.00000E+00        -0.27525E+08
 
   -0.33207E+08        -0.90448E+06         0.00000E+00
   -0.90448E+06        -0.59241E+08         0.00000E+00
    0.00000E+00         0.00000E+00        -0.27334E+08
 
   -0.32433E+08        -0.71112E+06         0.00000E+00
   -0.71112E+06        -0.59096E+08         0.00000E+00
    0.00000E+00         0.00000E+00        -0.27160E+08
 
   -0.31691E+08        -0.48303E+06         0.00000E+00
   -0.48303E+06        -0.58995E+08         0.00000E+00
    0.00000E+00         0.00000E+00        -0.27000E+08
 
   -0.30951E+08        -0.21606E+06         0.00000E+00
   -0.21606E+06        -0.58951E+08         0.00000E+00
    0.00000E+00         0.00000E+00        -0.26852E+08
 
   -0.30188E+08         0.10037E+06         0.00000E+00
    0.10037E+06        -0.58977E+08         0.00000E+00
    0.00000E+00         0.00000E+00        -0.26712E+08
 
   -0.29377E+08         0.48598E+06         0.00000E+00
    0.48598E+06        -0.59086E+08         0.00000E+00
    0.00000E+00         0.00000E+00        -0.26579E+08
 
   -0.28503E+08         0.97523E+06         0.00000E+00
    0.97523E+06        -0.59291E+08         0.00000E+00
    0.00000E+00         0.00000E+00        -0.26451E+08
 
   -0.27571E+08         0.16207E+07         0.00000E+00
    0.16207E+07        -0.59593E+08         0.00000E+00
    0.00000E+00         0.00000E+00        -0.26329E+08
 
   -0.26629E+08         0.24842E+07         0.00000E+00
    0.24842E+07        -0.59966E+08         0.00000E+00
    0.00000E+00         0.00000E+00        -0.26217E+08
 
   -0.40951E+08        -0.39557E+06         0.00000E+00
   -0.39557E+06        -0.59997E+08         0.00000E+00
    0.00000E+00         0.00000E+00        -0.28171E+08
 
   -0.39023E+08        -0.84702E+06         0.00000E+00
   -0.84702E+06        -0.59938E+08         0.00000E+00
    0.00000E+00         0.00000E+00        -0.27778E+08
 
   -0.37376E+08        -0.99874E+06         0.00000E+00
   -0.99874E+06        -0.59769E+08         0.00000E+00
    0.00000E+00         0.00000E+00        -0.27421E+08
 
   -0.36020E+08        -0.10042E+07         0.00000E+00
   -0.10042E+07        -0.59520E+08         0.00000E+00
    0.00000E+00         0.00000E+00        -0.27109E+08
 
   -0.34888E+08        -0.94050E+06         0.00000E+00
   -0.94050E+06        -0.59243E+08         0.00000E+00
    0.00000E+00         0.00000E+00        -0.26836E+08
 
   -0.33915E+08        -0.83813E+06         0.00000E+00
   -0.83813E+06        -0.58972E+08         0.00000E+00
    0.00000E+00         0.00000E+00        -0.26596E+08
 
   -0.33049E+08        -0.70954E+06         0.00000E+00
   -0.70954E+06        -0.58728E+08         0.00000E+00
    0.00000E+00         0.00000E+00        -0.26382E+08
 
   -0.32247E+08        -0.55916E+06         0.00000E+00
   -0.55916E+06        -0.58526E+08         0.00000E+00
    0.00000E+00         0.00000E+00        -0.26190E+08
 
   -0.31475E+08        -0.38675E+06         0.00000E+00
   -0.38675E+06        -0.58379E+08         0.00000E+00
    0.00000E+00         0.00000E+00        -0.26014E+08
 
   -0.30699E+08        -0.18813E+06         0.00000E+00
   -0.18813E+06        -0.58299E+08         0.00000E+00
    0.00000E+00         0.00000E+00        -0.25850E+08
 
   -0.29885E+08         0.45742E+05         0.00000E+00
    0.45742E+05        -0.58298E+08         0.00000E+00
    0.00000E+00         0.00000E+00        -0.25694E+08
 
   -0.28999E+08         0.33202E+06         0.00000E+00
    0.33202E+06        -0.58395E+08         0.00000E+00
    0.00000E+00         0.00000E+00        -0.25542E+08
 
   -0.28003E+08         0.70405E+06         0.00000E+00
    0.70405E+06        -0.58610E+08         0.00000E+00
    0.00000E+00         0.00000E+00        -0.25391E+08
 
   -0.26872E+08         0.12322E+07         0.00000E+00
    0.12322E+07        -0.58969E+08         0.00000E+00
    0.00000E+00         0.00000E+00        -0.25241E+08
 
   -0.25649E+08         0.20261E+07         0.00000E+00
    0.20261E+07        -0.59454E+08         0.00000E+00
    0.00000E+00         0.00000E+00        -0.25095E+08
 
   -0.41578E+08        -0.37109E+06         0.00000E+00
   -0.37109E+06        -0.59979E+08         0.00000E+00
    0.00000E+00         0.00000E+00        -0.27490E+08
 
   -0.39227E+08        -0.66525E+06         0.00000E+00
   -0.66525E+06        -0.59811E+08         0.00000E+00
    0.00000E+00         0.00000E+00        -0.26989E+08
 
   -0.37403E+08        -0.70387E+06         0.00000E+00
   -0.70387E+06        -0.59479E+08         0.00000E+00
    0.00000E+00         0.00000E+00        -0.26564E+08
 
   -0.35978E+08        -0.67363E+06         0.00000E+00
   -0.67363E+06        -0.59097E+08         0.00000E+00
    0.00000E+00         0.00000E+00        -0.26208E+08
 
   -0.34811E+08        -0.61531E+06         0.00000E+00
   -0.61531E+06        -0.58720E+08         0.00000E+00
    0.00000E+00         0.00000E+00        -0.25906E+08
 
   -0.33816E+08        -0.54120E+06         0.00000E+00
   -0.54120E+06        -0.58372E+08         0.00000E+00
    0.00000E+00         0.00000E+00        -0.25644E+08
 
   -0.32933E+08        -0.45563E+06         0.00000E+00
   -0.45563E+06        -0.58069E+08         0.00000E+00
    0.00000E+00         0.00000E+00        -0.25413E+08
 
   -0.32116E+08        -0.35956E+06         0.00000E+00
   -0.35956E+06        -0.57820E+08         0.00000E+00
    0.00000E+00         0.00000E+00        -0.25206E+08
 
   -0.31325E+08        -0.25191E+06         0.00000E+00
   -0.25191E+06        -0.57635E+08         0.00000E+00
    0.00000E+00         0.00000E+00        -0.25016E+08
 
   -0.30525E+08        -0.12960E+06         0.00000E+00
   -0.12960E+06        -0.57523E+08         0.00000E+00
    0.00000E+00         0.00000E+00        -0.24839E+08
 
   -0.29678E+08         0.13266E+05         0.00000E+00
    0.13266E+05        -0.57497E+08         0.00000E+00
    0.00000E+00         0.00000E+00        -0.24669E+08
 
   -0.28739E+08         0.18782E+06         0.00000E+00
    0.18782E+06        -0.57575E+08         0.00000E+00
    0.00000E+00         0.00000E+00        -0.24501E+08
 
   -0.27648E+08         0.41690E+06         0.00000E+00
    0.41690E+06        -0.57785E+08         0.00000E+00
    0.00000E+00         0.00000E+00        -0.24329E+08
 
   -0.26315E+08         0.75786E+06         0.00000E+00
    0.75786E+06        -0.58174E+08         0.00000E+00
    0.00000E+00         0.00000E+00        -0.24143E+08
 
   -0.24715E+08         0.13993E+07         0.00000E+00
    0.13993E+07        -0.58808E+08         0.00000E+00
    0.00000E+00         0.00000E+00        -0.23952E+08
 
   -0.42020E+08        -0.22576E+06         0.00000E+00
   -0.22576E+06        -0.59835E+08         0.00000E+00
    0.00000E+00         0.00000E+00        -0.26761E+08
 
   -0.39272E+08        -0.27100E+06         0.00000E+00
   -0.27100E+06        -0.59406E+08         0.00000E+00
    0.00000E+00         0.00000E+00        -0.26127E+08
 
   -0.37391E+08        -0.25866E+06         0.00000E+00
   -0.25866E+06        -0.58909E+08         0.00000E+00
    0.00000E+00         0.00000E+00        -0.25653E+08
 
   -0.35942E+08        -0.23958E+06         0.00000E+00
   -0.23958E+06        -0.58426E+08         0.00000E+00
    0.00000E+00         0.00000E+00        -0.25270E+08
 
   -0.34764E+08        -0.21551E+06         0.00000E+00
   -0.21551E+06        -0.57981E+08         0.00000E+00
    0.00000E+00         0.00000E+00        -0.24947E+08
 
   -0.33761E+08        -0.18816E+06         0.00000E+00
   -0.18816E+06        -0.57584E+08         0.00000E+00
    0.00000E+00         0.00000E+00        -0.24670E+08
 
   -0.32872E+08        -0.15796E+06         0.00000E+00
   -0.15796E+06        -0.57244E+08         0.00000E+00
    0.00000E+00         0.00000E+00        -0.24426E+08
 
   -0.32047E+08        -0.12482E+06         0.00000E+00
   -0.12482E+06        -0.56965E+08         0.00000E+00
    0.00000E+00         0.00000E+00        -0.24208E+08
 
   -0.31248E+08        -0.88149E+05         0.00000E+00
   -0.88149E+05        -0.56755E+08         0.00000E+00
    0.00000E+00         0.00000E+00        -0.24008E+08
 
   -0.30437E+08        -0.46835E+05         0.00000E+00
   -0.46835E+05        -0.56623E+08         0.00000E+00
    0.00000E+00         0.00000E+00        -0.23821E+08
 
   -0.29573E+08         0.11449E+04         0.00000E+00
    0.11449E+04        -0.56580E+08         0.00000E+00
    0.00000E+00         0.00000E+00        -0.23642E+08
 
   -0.28607E+08         0.59500E+05         0.00000E+00
    0.59500E+05        -0.56643E+08         0.00000E+00
    0.00000E+00         0.00000E+00        -0.23463E+08
 
   -0.27465E+08         0.13626E+06         0.00000E+00
    0.13626E+06        -0.56840E+08         0.00000E+00
    0.00000E+00         0.00000E+00        -0.23275E+08
 
   -0.26021E+08         0.24954E+06         0.00000E+00
    0.24954E+06        -0.57226E+08         0.00000E+00
    0.00000E+00         0.00000E+00        -0.23065E+08
 
   -0.23916E+08         0.51762E+06         0.00000E+00
    0.51762E+06        -0.57954E+08         0.00000E+00
    0.00000E+00         0.00000E+00        -0.22790E+08
 
SCALARS stressS double 
LOOKUP_TABLE default
  -44496065.8196090     
  -44879579.0716372     
  -45234332.7543175     
  -45562426.1907721     
  -45865940.3099856     
  -46146920.7400381     
  -46407363.6175208     
  -46649203.9342673     
  -46874306.2497605     
  -47084457.6097213     
  -47281362.5281282     
  -47466639.9103776     
  -47641821.8180779     
  -47808353.9991419     
  -47967598.1280289     
  -44484681.2277692     
  -44866824.8493328     
  -45220169.4903017     
  -45546834.7530527     
  -45848919.3138654     
  -46128484.1313000     
  -46387538.3697720     
  -46628027.8558162     
  -46851825.8914162     
  -47060726.2611268     
  -47256438.2872066     
  -47440583.8087595     
  -47614695.9855222     
  -47780219.8524559     
  -47938514.5751950     
  -44462060.7456357     
  -44841444.8446822     
  -45191953.1334326     
  -45515745.7495781     
  -45814956.8340483     
  -46091677.9718180     
  -46347944.3469588     
  -46585723.4215994     
  -46806905.9546536     
  -47013299.1888968     
  -47206622.0539530     
  -47388502.2571820     
  -47560475.1628833     
  -47723984.3905546     
  -47880384.0924455     
  -44428501.6831604     
  -44803695.6512281     
  -45149903.5687522     
  -45469346.3176500     
  -45764211.1585441     
  -46036635.5261296     
  -46288693.5398865     
  -46522385.0267396     
  -46739626.8573766     
  -46942246.4111144     
  -47131977.0053564     
  -47310455.1541142     
  -47479219.5543248     
  -47639711.7365257     
  -47793278.3547952     
  -44384449.6992716     
  -44753961.3717056     
  -45094349.4126575     
  -45407915.5839433     
  -45696917.8208241     
  -45963554.5126849     
  -46209951.5052230     
  -46438151.6009990     
  -46650106.3386655     
  -46847669.8447151     
  -47032594.5754540     
  -47206528.8006750     
  -47371015.7228195     
  -47527494.1738295     
  -47677300.8828827     
  -44330498.2277993     
  -44692752.4709794     
  -45025726.3684113     
  -45331822.5934763     
  -45613387.1637091     
  -45872694.3513480     
  -46111934.3306847     
  -46333203.3109144     
  -46538495.9040641     
  -46729699.4909188     
  -46908590.3746538     
  -47076831.5522418     
  -47235971.9865011     
  -47387447.3242410     
  -47532582.0742042     
  -44267387.3612993     
  -44620703.9060758     
  -44944574.7126359     
  -45241523.2541122     
  -45514000.8286412     
  -45764372.2648361     
  -45994904.3938303     
  -46207756.9982827     
  -46404975.9453049     
  -46588488.2220683     
  -46760098.6221646     
  -46921487.8787580     
  -47074212.1065031     
  -47219703.4952672     
  -47359272.2899222     
  -44196001.8809806     
  -44538572.2339481     
  -44851535.6331201     
  -45137556.0423996     
  -45399206.9460156     
  -45638958.0423086     
  -45859164.7555990     
  -46062060.2265884     
  -46249749.4307756     
  -46424205.0817778     
  -46587265.0068085     
  -46740630.7376758     
  -46885867.1426416     
  -47024403.0292662     
  -47157532.7698499     
  -44117368.0308020     
  -44447231.3144056     
  -44747346.0626880     
  -45020536.1499148     
  -45269513.7462641     
  -45496867.2296788     
  -45705051.9995533     
  -45896383.7903344     
  -46073034.0586701     
  -46237027.0153981     
  -46390237.9017822     
  -46534392.1734313     
  -46671065.3565616     
  -46801683.4763268     
  -46927524.1180822     
  -44032648.5385388     
  -44347666.1383009     
  -44632831.5744959     
  -44891147.6794467     
  -45125481.2537869     
  -45338552.4687855     
  -45532927.3028243     
  -45711012.5356629     
  -45875052.7755667     
  -46027128.9728238     
  -46169157.8929465     
  -46302892.0933998     
  -46429920.0718773     
  -46551666.4279591     
  -46669392.0931413     
  -43943135.2886165     
  -44240964.2201313     
  -44508896.8196462     
  -44750133.4248412     
  -44967710.6638154     
  -45164492.6642239     
  -45343165.5044201     
  -45506234.3456061     
  -45656022.5929025     
  -45794672.3765639     
  -45924145.6457583     
  -46046225.2414846     
  -46162515.4670242     
  -46274441.8982641     
  -46383250.4579884     
  -43850238.9555286     
  -44128303.9005565     
  -44376512.8958933     
  -44598281.6823616     
  -44796830.9305035     
  -44975179.6080239     
  -45136141.9187461     
  -45282327.1607543     
  -45416141.6867615     
  -45539792.0321766     
  -45655288.2429413     
  -45764446.5085090     
  -45868890.3915337     
  -45970050.2359569     
  -46069160.7082987     
  -43755474.8204429     
  -44010938.8087162     
  -44236700.9313062     
  -44436409.4362299     
  -44613482.0033199     
  -44771101.6304684     
  -44912216.6224520     
  -45039543.9362438     
  -45155574.8475848     
  -45262581.6850470     
  -45362624.2863368     
  -45457554.8986686     
  -45549020.4766099     
  -45638461.7108060     
  -45727108.6173972     
  -43660443.9284185     
  -43890177.6357490     
  -44090511.0385855     
  -44265341.1207253     
  -44418294.0214140     
  -44552723.7565017     
  -44671715.9131818     
  -44778095.4779628     
  -44874437.4621686     
  -44963078.6095783     
  -45046128.2892596     
  -45125476.7335590     
  -45202799.0776321     
  -45279554.1630348     
  -45356977.7334366     
  -43566808.7140976     
  -43767358.2640602     
  -43938995.6238575     
  -44085881.9578312     
  -44211861.5839997     
  -44320463.7092729     
  -44414910.5869417     
  -44498131.1531209     
  -44572778.3693602     
  -44641247.8714153     
  -44705695.2134163     
  -44768049.0464853     
  -44830017.9673741     
  -44893089.4612798     
  -44958520.2645811     
  -43476262.2461977     
  -43643815.1653125     
  -43783175.7793229     
  -43898784.5545693     
  -43994711.9132226     
  -44074662.8811027     
  -44141990.5882840     
  -44199717.5311929     
  -44250562.1463495     
  -44296967.2549992     
  -44341126.4593395     
  -44385004.6358716     
  -44430349.2305183     
  -44478690.0178689     
  -44531326.2225406     
  -43390490.3289210     
  -43520838.7848092     
  -43623999.0801212     
  -43704706.9356338     
  -43767265.2417817     
  -43815551.0368692     
  -43853035.4301110     
  -43882815.0814571     
  -43907651.6755555     
  -43930014.3336998     
  -43952119.2468299     
  -43975960.9567338     
  -44003330.5397436     
  -44035817.3011075     
  -44074792.2991971     
  -43311125.8506978     
  -43399625.2866204     
  -43462286.4109210     
  -43504159.3470720     
  -43529784.9784761     
  -43543202.9549327     
  -43547979.5302804     
  -43547253.1414764     
  -43543792.2477189     
  -43540057.8311228     
  -43538262.1865608     
  -43540416.0017059     
  -43548356.9845921     
  -43563755.2133979     
  -43588092.7607065     
  -43239694.9494748     
  -43281214.3698791     
  -43298664.2297370     
  -43297435.7670376     
  -43282313.9631610     
  -43257484.3574204     
  -43226571.2506015     
  -43192703.5043115     
  -43158599.0311882     
  -43126656.3554701     
  -43099041.0363961     
  -43077755.6556498     
  -43064683.9663101     
  -43061602.4351182     
  -43070155.6867646     
  -43177554.6480640     
  -43166411.5377585     
  -43133476.5046107     
  -43084523.7234066     
  -43024591.1803809     
  -42957983.2464551     
  -42888323.9670051     
  -42818653.2183572     
  -42751550.5643715     
  -42689268.8824208     
  -42633860.2776109     
  -42587278.8453763     
  -42551447.5047171     
  -42528279.4604685     
  -42519649.1725469     
  -43125821.3107353     
  -43055688.5188005     
  -42966666.6406173     
  -42864982.1250963     
  -42755940.3530438     
  -42643921.1224400     
  -42532457.0737456     
  -42424377.6938677     
  -42321992.1149374     
  -42227283.1106675     
  -42142088.3873003     
  -42068249.3680771     
  -42007710.8776110     
  -41962558.2407117     
  -41934983.6453332     
  -43085287.9291781     
  -42949050.1094497     
  -42797612.5417428     
  -42637770.3518664     
  -42475117.5804442     
  -42314036.7498094     
  -42157824.8258763     
  -42008916.2401767     
  -41869154.3586948     
  -41740070.0316240     
  -41623137.6402522     
  -41519986.9416760     
  -41432550.3071406     
  -41363125.4949547     
  -41314338.2315545     
  -43056324.4748780     
  -42845844.5074916     
  -42624884.5699952     
  -42401001.1721444     
  -42180099.6329506     
  -41966434.1427693     
  -41762832.3905312     
  -41571054.1465456     
  -41392194.7394312     
  -41227075.3154208     
  -41076592.9885889     
  -40942015.2864763     
  -40825198.5716628     
  -40728695.7158706     
  -40655721.3493174     
  -43038745.9082875     
  -42744470.5526017     
  -42445870.2854313     
  -42151572.8096360     
  -41867789.0312947     
  -41598389.2625170     
  -41345343.7168080     
  -41109319.0346631     
  -40890269.9459850     
  -40687959.3059615     
  -40502407.9785362     
  -40334293.4252791     
  -40185275.8456736     
  -40058199.5381161     
  -39957078.8292190     
  -43031609.6666881     
  -42641881.0670570     
  -42256158.7151624     
  -41884609.0263585     
  -41533612.7409000     
  -41206124.5184211     
  -40902599.2761291     
  -40622004.3651432     
  -40362646.1958302     
  -40122791.9180370     
  -39901188.6339351     
  -39697566.4560289     
  -39513160.3472962     
  -39351091.1818351     
  -39216471.0242472     
  -43032836.1930015     
  -42532654.4352702     
  -42048467.9287015     
  -41592605.7553454     
  -41171021.1455021     
  -40784602.0325212     
  -40431190.3512408     
  -40107238.5818435     
  -39808839.5376144     
  -39532295.3488984     
  -39274567.6399610     
  -39033901.0925068     
  -38810582.5085521     
  -38607878.7956159     
  -38432350.8069544     
  -43038381.8255625     
  -42407021.7920939     
  -41810692.8214059     
  -41264199.8304698     
  -40771010.5462240     
  -40327495.3266196     
  -39927164.9124656     
  -39563119.5201714     
  -39228761.9358009     
  -38918049.8036235     
  -38625670.1303543     
  -38347415.2312484     
  -38081706.2305531     
  -37831034.4390610     
  -37604080.0532344     
  -43039674.5301498     
  -42246288.1042195     
  -41522250.1645351     
  -40882783.4429446     
  -40322269.0300379     
  -39827547.3913423     
  -39386358.8372388     
  -38987925.5541428     
  -38622817.8063562     
  -38282560.9975372     
  -37959268.8384081     
  -37645535.4737819     
  -37334677.3012015     
  -37027325.8182367     
  -36732670.7168412     
  -43015653.9197260     
  -42009388.6809472     
  -41148445.3822472     
  -40427884.3927493     
  -39812393.9606627     
  -39277550.1989629     
  -38804986.3749023     
  -38380392.6187455     
  -37991911.6319796     
  -37629003.4883023     
  -37281477.6910153     
  -36938428.5356545     
  -36587300.6982235     
  -36210476.1933224     
  -35824917.6179237     
  -42871989.8412406     
  -41601881.8337886     
  -40650946.4629894     
  -39879305.4616574     
  -39230711.6127408     
  -38671835.4942420     
  -38180422.7898589     
  -37740015.9741368     
  -37337347.0414090     
  -36960680.6482888     
  -36598422.6921880     
  -36237451.4998267     
  -35860025.5783662     
  -35437360.6601305     
  -34886352.1429576     
SCALARS 2waySource double 
LOOKUP_TABLE default
 -1.114820732254960E-004
 -1.149866992194459E-004
 -1.183742273120252E-004
 -1.216256454015210E-004
 -1.247281103279561E-004
 -1.276736922432463E-004
 -1.304583028131325E-004
 -1.330807817228378E-004
 -1.355421185226521E-004
 -1.378447891659132E-004
 -1.399921886935540E-004
 -1.419881434302969E-004
 -1.438364877952828E-004
 -1.455406923998181E-004
 -1.471035315032227E-004
 -1.113067158894763E-004
 -1.148229318236319E-004
 -1.182164816235631E-004
 -1.214694913314624E-004
 -1.245701015362651E-004
 -1.275112319577867E-004
 -1.302895275833543E-004
 -1.329044610737410E-004
 -1.353575687060334E-004
 -1.376517994191278E-004
 -1.397909586057977E-004
 -1.417792301788419E-004
 -1.436207621450296E-004
 -1.453193024585749E-004
 -1.468778732938340E-004
 -1.110081509312036E-004
 -1.145466489147791E-004
 -1.179508601279426E-004
 -1.212053330659449E-004
 -1.243002945249847E-004
 -1.272304592237903E-004
 -1.299940158846083E-004
 -1.325917650667150E-004
 -1.350263865441938E-004
 -1.373018162678489E-004
 -1.394227149796738E-004
 -1.413940123855791E-004
 -1.432205124576115E-004
 -1.449065469422199E-004
 -1.464556654993131E-004
 -1.105891138440875E-004
 -1.141587910287649E-004
 -1.175768094198891E-004
 -1.208313798992667E-004
 -1.239158791418905E-004
 -1.268277283899194E-004
 -1.295674408446104E-004
 -1.321378138721068E-004
 -1.345432446283649E-004
 -1.367891498729497E-004
 -1.388814726926414E-004
 -1.408262606256708E-004
 -1.426293012896539E-004
 -1.442958030877110E-004
 -1.458301099035403E-004
 -1.100542055366247E-004
 -1.136612718523614E-004
 -1.170940057591391E-004
 -1.203454540904265E-004
 -1.234131490575074E-004
 -1.262980792152968E-004
 -1.290038185652787E-004
 -1.315357912121775E-004
 -1.339006512741520E-004
 -1.361057597899175E-004
 -1.381587422096155E-004
 -1.400671117325759E-004
 -1.418379452989163E-004
 -1.434776004745477E-004
 -1.449914628030646E-004
 -1.094099157552455E-004
 -1.130570350571681E-004
 -1.165024386787752E-004
 -1.197450957102981E-004
 -1.227876232879572E-004
 -1.256353713601181E-004
 -1.282956526233890E-004
 -1.307770965739900E-004
 -1.330891087355762E-004
 -1.352414180089232E-004
 -1.372436967844292E-004
 -1.391052400098261E-004
 -1.408346908589591E-004
 -1.424398020349785E-004
 -1.439272230819146E-004
 -1.086646398308112E-004
 -1.123501148535425E-004
 -1.158025067356061E-004
 -1.190276864238431E-004
 -1.220341921123440E-004
 -1.248324476461182E-004
 -1.274341108395631E-004
 -1.298515324805481E-004
 -1.320973086981809E-004
 -1.341839110468482E-004
 -1.361233801561151E-004
 -1.379270701795994E-004
 -1.396054326089764E-004
 -1.411678293514123E-004
 -1.426223663274393E-004
 -1.078286842387220E-004
 -1.115456949397903E-004
 -1.149951194373237E-004
 -1.181905857562354E-004
 -1.211472805851586E-004
 -1.238813190576668E-004
 -1.264092271470901E-004
 -1.287475195685585E-004
 -1.309123577285992E-004
 -1.329192736608935E-004
 -1.347829471144159E-004
 -1.365170241138940E-004
 -1.381339664835630E-004
 -1.396449230867297E-004
 -1.410596149256729E-004
 -1.069142552899236E-004
 -1.106501591998362E-004
 -1.140817979471099E-004
 -1.172312718864080E-004
 -1.201210213129471E-004
 -1.227733629399573E-004
 -1.252101199346325E-004
 -1.274523308457227E-004
 -1.295200240717570E-004
 -1.314320455416090E-004
 -1.332059281340133E-004
 -1.348577921957209E-004
 -1.364022674683540E-004
 -1.378524279047619E-004
 -1.392197323025930E-004
 -1.059354240300260E-004
 -1.096711261335305E-004
 -1.130647656975310E-004
 -1.161474774862670E-004
 -1.189494266369980E-004
 -1.214995243839339E-004
 -1.238252168860161E-004
 -1.259523353063384E-004
 -1.279049961644346E-004
 -1.297055414760225E-004
 -1.313745085166341E-004
 -1.329306194270340E-004
 -1.343907815253537E-004
 -1.357700902475118E-004
 -1.370818281736862E-004
 -1.049080591527070E-004
 -1.086174576072226E-004
 -1.119470185398775E-004
 -1.149373095576347E-004
 -1.176265488157821E-004
 -1.200505093490172E-004
 -1.222424750996844E-004
 -1.242332401048805E-004
 -1.260511425427979E-004
 -1.277221250503830E-004
 -1.292698122660599E-004
 -1.307155962902881E-004
 -1.320787209920974E-004
 -1.333763570112207E-004
 -1.346236609899775E-004
 -1.038497185097019E-004
 -1.074992311217285E-004
 -1.107323624990714E-004
 -1.135993405644305E-004
 -1.161466151686220E-004
 -1.184169566126536E-004
 -1.204495841176931E-004
 -1.222803197467454E-004
 -1.239417625368598E-004
 -1.254634761108978E-004
 -1.268721814172763E-004
 -1.281919450744867E-004
 -1.294443534912335E-004
 -1.306486637190622E-004
 -1.318219239299475E-004
 -1.027794887480085E-004
 -1.063276634495774E-004
 -1.094254055525733E-004
 -1.121326563093477E-004
 -1.145041232998512E-004
 -1.165895740420303E-004
 -1.184341383746047E-004
 -1.200786202683616E-004
 -1.215598173562987E-004
 -1.229108430762339E-004
 -1.241614429571224E-004
 -1.253382941404116E-004
 -1.264652762575080E-004
 -1.275637024950988E-004
 -1.286525020471378E-004
 -1.017177619158263E-004
 -1.051149722223491E-004
 -1.080314879875367E-004
 -1.105368437494503E-004
 -1.126938792283983E-004
 -1.145592227550793E-004
 -1.161837643744949E-004
 -1.176131261449632E-004
 -1.188881319928141E-004
 -1.200452730063682E-004
 -1.211171580868237E-004
 -1.221329357420080E-004
 -1.231186711357096E-004
 -1.240976633431047E-004
 -1.250906908731010E-004
 -1.006859378110356E-004
 -1.038741608291709E-004
 -1.065565335511870E-004
 -1.088118988748626E-004
 -1.107109580683693E-004
 -1.123169301276305E-004
 -1.136861864332741E-004
 -1.148688776803569E-004
 -1.159095599595785E-004
 -1.168478153709801E-004
 -1.177188527596156E-004
 -1.185540679545449E-004
 -1.193815407510604E-004
 -1.202264473460482E-004
 -1.211113713028240E-004
 -9.970604172343010E-005
 -1.026187106637400E-004
 -1.050068002519845E-004
 -1.069580301406935E-004
 -1.085505620948598E-004
 -1.098538087453718E-004
 -1.109292127996890E-004
 -1.118310269175996E-004
 -1.126071055260920E-004
 -1.132997001600524E-004
 -1.139462346955618E-004
 -1.145800285251378E-004
 -1.152309340334237E-004
 -1.159258579335815E-004
 -1.166891424332013E-004
 -9.880024939327124E-005
 -1.013621628731788E-004
 -1.033885042288527E-004
 -1.049753254006631E-004
 -1.062077433327048E-004
 -1.071608524164117E-004
 -1.079006210274377E-004
 -1.084848207812800E-004
 -1.089640022598854E-004
 -1.093824980052236E-004
 -1.097794111548212E-004
 -1.101895387604720E-004
 -1.106441800361857E-004
 -1.111717869026320E-004
 -1.117984237152900E-004
 -9.799031473932830E-005
 -1.001175682468097E-004
 -1.017072805569302E-004
 -1.028632374854212E-004
 -1.036769451836928E-004
 -1.042285709793231E-004
 -1.045879172394330E-004
 -1.048155016075206E-004
 -1.049637532112932E-004
 -1.050782803711562E-004
 -1.051991346603238E-004
 -1.053619898098741E-004
 -1.055991636112379E-004
 -1.059404260778005E-004
 -1.064135508516795E-004
 -9.729690115901808E-005
 -9.889677643985949E-005
 -9.996742740257965E-005
 -1.006198213915374E-004
 -1.009512968154698E-004
 -1.010464111617049E-004
 -1.009779382783892E-004
 -1.008081184362396E-004
 -1.005901485077706E-004
 -1.003698132238746E-004
 -1.001871220088009E-004
 -1.000778230496732E-004
 -1.000746959294899E-004
 -1.002085541004256E-004
 -1.005089068008416E-004
 -9.673882316253783E-005
 -9.770951963048957E-005
 -9.817084744268404E-005
 -9.824061737216852E-005
 -9.802156011035442E-005
 -9.760188930643617E-005
 -9.705625946802347E-005
 -9.644724970409800E-005
 -9.582729306675561E-005
 -9.524084020175252E-005
 -9.472651711965072E-005
 -9.431908219231775E-005
 -9.405105827283249E-005
 -9.395397178417082E-005
 -9.405915045490585E-005
 -9.633220938057402E-005
 -9.656221127566595E-005
 -9.631553928523661E-005
 -9.571700659522677E-005
 -9.487457482824672E-005
 -9.387933252071073E-005
 -9.280636717705969E-005
 -9.171665392716437E-005
 -9.065970465136730E-005
 -8.967654406053543E-005
 -8.880260269579173E-005
 -8.807024900060354E-005
 -8.751083084191445E-005
 -8.715619033970246E-005
 -8.703963167670101E-005
 -9.608959482612326E-005
 -9.545630768180054E-005
 -9.439337457343422E-005
 -9.303374768128227E-005
 -9.149096469503510E-005
 -8.985809171142809E-005
 -8.820856416577372E-005
 -8.659889830382788E-005
 -8.507258543804581E-005
 -8.366432059652958E-005
 -8.240391078963150E-005
 -8.131951983655721E-005
 -8.044016265654949E-005
 -7.979751853681786E-005
 -7.942711414931619E-005
 -9.601892798628993E-005
 -9.438592299006824E-005
 -9.238666715095088E-005
 -9.016519488670358E-005
 -8.784175100933454E-005
 -8.551007286098698E-005
 -8.323862069642380E-005
 -8.107507913387706E-005
 -7.905243167854428E-005
 -7.719505423658225E-005
 -7.552393956155063E-005
 -7.406073908569665E-005
 -7.283070357387950E-005
 -7.186475554015347E-005
 -7.120097421692639E-005
 -9.612240506512958E-005
 -9.333404126114916E-005
 -9.026256967513851E-005
 -8.706934006479169E-005
 -8.388339358600702E-005
 -8.079649710631990E-005
 -7.786631747532223E-005
 -7.512485799154796E-005
 -7.258820980117531E-005
 -7.026513795044433E-005
 -6.816374007871304E-005
 -6.629629702243473E-005
 -6.468251350096461E-005
 -6.335180963609200E-005
 -6.234511927257058E-005
 -9.639487086559166E-005
 -9.226581618016993E-005
 -8.796333464604228E-005
 -8.367822501865905E-005
 -7.955077671265761E-005
 -7.566413093026184E-005
 -7.205433870577688E-005
 -6.872718123174983E-005
 -6.567334670119078E-005
 -6.287944933080261E-005
 -6.033572215923243E-005
 -5.804139213872881E-005
 -5.600849548577608E-005
 -5.426373531633448E-005
 -5.285106449875565E-005
 -9.682086966954345E-005
 -9.111530280169451E-005
 -8.538814573754087E-005
 -7.988252708460039E-005
 -7.474833287614471E-005
 -7.004220024947117E-005
 -6.575858979144752E-005
 -6.186212375546512E-005
 -5.830854055912915E-005
 -5.505537647646394E-005
 -5.206885921671192E-005
 -4.933053436773583E-005
 -4.684102101212124E-005
 -4.462340774636228E-005
 -4.272289595095713E-005
 -9.736817656397323E-005
 -8.975451691843630E-005
 -8.235742360256220E-005
 -7.550842021733141E-005
 -6.934239329756705E-005
 -6.384366446073801E-005
 -5.893142917880151E-005
 -5.451413005967030E-005
 -5.050487605718719E-005
 -4.682680241388350E-005
 -4.341598391818753E-005
 -4.022638665420992E-005
 -3.724396112487306E-005
 -3.448157094789975E-005
 -3.198706220175106E-005
 -9.796064986693302E-005
 -8.791340971892391E-005
 -7.854020214697371E-005
 -7.029329079643995E-005
 -6.316914224605707E-005
 -5.697493420967793E-005
 -5.152913122685472E-005
 -4.667632253614483E-005
 -4.228586859259289E-005
 -3.824583255720799E-005
 -3.445826792631522E-005
 -3.083898560546593E-005
 -2.732610968024087E-005
 -2.394412836175581E-005
 -2.070760739762075E-005
 -9.838195059983537E-005
 -8.490383096223058E-005
 -7.334584132948190E-005
 -6.393180881946871E-005
 -5.606599139922900E-005
 -4.935665085720490E-005
 -4.352267950992573E-005
 -3.835476776356384E-005
 -3.368693285722593E-005
 -2.937850693144995E-005
 -2.530094217507404E-005
 -2.132693399155510E-005
 -1.732464556119739E-005
 -1.316446392132275E-005
 -9.069086841362486E-006
 -9.706499825017991E-005
 -7.899476219575167E-005
 -6.622068006509151E-005
 -5.617834720680754E-005
 -4.792725290932750E-005
 -4.094815276531894E-005
 -3.490850815986808E-005
 -2.957114307604504E-005
 -2.475173797925152E-005
 -2.029396226162331E-005
 -1.605110562374292E-005
 -1.186736002084809E-005
 -7.551430615211801E-006
 -2.821016988283646E-006
  2.734151432403747E-006
SCALARS poroP double 
LOOKUP_TABLE default
  3.812625265577417E-007
  4.642132227784086E-007
  3.576802389862683E-007
  5.837215377217937E-007
  7.262479816294548E-007
  8.097873883753918E-007
  6.659619603521209E-007
  1.002700890643659E-006
  1.188157076802168E-006
  1.279994538377089E-006
  1.092716044732936E-006
  1.566417829650816E-006
  1.801983779610235E-006
  1.917420291060468E-006
  1.678244688886395E-006
  2.319105322579079E-006
  2.611916111049269E-006
  2.780931635672432E-006
  2.480629759745150E-006
  3.320261968845371E-006
  3.670657991078640E-006
  3.957421680936599E-006
  3.590043429830391E-006
  4.627404648421079E-006
  4.975133849478253E-006
  5.510929637655389E-006
  5.126381387417802E-006
  0.000000000000000E+000
  0.000000000000000E+000
  0.000000000000000E+000
  0.000000000000000E+000
  0.000000000000000E+000
  0.000000000000000E+000
  0.000000000000000E+000
  0.000000000000000E+000
  0.000000000000000E+000
  0.000000000000000E+000
  0.000000000000000E+000
  0.000000000000000E+000
  0.000000000000000E+000
  0.000000000000000E+000
  0.000000000000000E+000
  0.000000000000000E+000
  0.000000000000000E+000
  0.000000000000000E+000
  0.000000000000000E+000
  0.000000000000000E+000
  0.000000000000000E+000
  0.000000000000000E+000
  0.000000000000000E+000
  0.000000000000000E+000
  0.000000000000000E+000
  0.000000000000000E+000
  5.043953088544103E-008
  0.000000000000000E+000
  7.803873639574575E-008
  1.578793373738755E-007
  2.359231502621378E-007
  1.555085853654121E-007
  3.122982960402620E-007
  4.221263074553911E-007
  4.900857948792546E-007
  3.804919485569650E-007
  6.273017813865523E-007
  7.721250641063891E-007
  8.319501209151955E-007
  6.881363031537837E-007
  1.057909369125047E-006
  1.245510016143218E-006
  1.302917960454953E-006
  1.116543455355035E-006
  1.652137756189509E-006
  1.894579696440173E-006
  1.962089065462990E-006
  1.720170952217103E-006
  2.484589844376709E-006
  2.799980426835245E-006
  2.904972025170194E-006
  2.587403747668005E-006
  3.682208122941052E-006
  4.088173174679842E-006
  4.303244279162079E-006
  3.884352794114156E-006
  5.444580000019730E-006
  5.869499549403989E-006
  6.381395038372541E-006
  5.917055535058653E-006
  0.000000000000000E+000
  0.000000000000000E+000
  0.000000000000000E+000
  0.000000000000000E+000
  0.000000000000000E+000
  0.000000000000000E+000
  0.000000000000000E+000
  0.000000000000000E+000
  0.000000000000000E+000
  0.000000000000000E+000
  0.000000000000000E+000
  0.000000000000000E+000
  0.000000000000000E+000
  0.000000000000000E+000
  0.000000000000000E+000
  0.000000000000000E+000
  0.000000000000000E+000
  0.000000000000000E+000
  0.000000000000000E+000
  0.000000000000000E+000
  0.000000000000000E+000
  0.000000000000000E+000
  0.000000000000000E+000
  0.000000000000000E+000
  0.000000000000000E+000
  0.000000000000000E+000
  5.757290731843795E-008
  0.000000000000000E+000
  8.634271314781867E-008
  1.686186950150240E-007
  2.397730384293252E-007
  1.579440275336172E-007
  3.179531237091717E-007
  4.261102450159866E-007
  4.819052507827354E-007
  3.752756986910300E-007
  6.239584323058663E-007
  7.632192707506688E-007
  8.039819089905196E-007
  6.674117155258321E-007
  1.044159430913683E-006
  1.223561825943274E-006
  1.250984846196653E-006
  1.075331678470492E-006
  1.637705695721062E-006
  1.872684325574938E-006
  1.894590349505460E-006
  1.663855289313616E-006
  2.506568883671776E-006
  2.826614572330829E-006
  2.863214033312541E-006
  2.546563033399051E-006
  3.858126603241165E-006
  4.312418613917358E-006
  4.422842961969049E-006
  3.969510207493202E-006
  6.144492627119382E-006
  6.690554333273513E-006
  7.095845302053521E-006
  6.539675916732030E-006
  0.000000000000000E+000
  0.000000000000000E+000
  0.000000000000000E+000
  0.000000000000000E+000
  0.000000000000000E+000
  0.000000000000000E+000
  0.000000000000000E+000
  0.000000000000000E+000
  0.000000000000000E+000
  0.000000000000000E+000
  0.000000000000000E+000
  0.000000000000000E+000
  0.000000000000000E+000
  0.000000000000000E+000
  0.000000000000000E+000
  0.000000000000000E+000
  0.000000000000000E+000
  0.000000000000000E+000
  0.000000000000000E+000
  0.000000000000000E+000
  0.000000000000000E+000
  0.000000000000000E+000
  0.000000000000000E+000
  0.000000000000000E+000
  0.000000000000000E+000
  0.000000000000000E+000
  5.003803352449974E-008
  0.000000000000000E+000
  7.057306707123438E-008
  1.513736259912149E-007
  2.172224477187042E-007
  1.375392343921142E-007
  2.891876714035136E-007
  3.912977484789181E-007
  4.389944145906700E-007
  3.390661277629029E-007
  5.734920942377639E-007
  7.013174461013148E-007
  7.286414739285821E-007
  6.044213703910116E-007
  9.634073905583818E-007
  1.126468981308128E-006
  1.130916904836808E-006
  9.732117313993626E-007
  1.525455076788219E-006
  1.741622028766103E-006
  1.724093396750978E-006
  1.515180019557889E-006
  2.380448716102848E-006
  2.685709771882657E-006
  2.655937850084368E-006
  2.359710231003009E-006
  3.802772701146506E-006
  4.279661177938414E-006
  4.276399687547837E-006
  3.806441661618758E-006
  6.583378344706018E-006
  7.313966673944459E-006
  7.595603686744130E-006
  6.868766572117749E-006
  0.000000000000000E+000
  0.000000000000000E+000
  0.000000000000000E+000
  0.000000000000000E+000
  0.000000000000000E+000
  0.000000000000000E+000
  0.000000000000000E+000
  0.000000000000000E+000
  0.000000000000000E+000
  0.000000000000000E+000
  0.000000000000000E+000
  0.000000000000000E+000
  0.000000000000000E+000
  0.000000000000000E+000
  0.000000000000000E+000
  0.000000000000000E+000
  0.000000000000000E+000
  0.000000000000000E+000
  0.000000000000000E+000
  0.000000000000000E+000
  0.000000000000000E+000
  0.000000000000000E+000
  0.000000000000000E+000
  0.000000000000000E+000
  0.000000000000000E+000
  0.000000000000000E+000
  2.070229225325561E-008
  0.000000000000000E+000
  2.421729357356888E-008
  1.003343027081885E-007
  1.624542747788237E-007
  8.800534040315286E-008
  2.211248531459289E-007
  3.141362869343474E-007
  3.555987943088894E-007
  2.650265605515104E-007
  4.740803113781707E-007
  5.869869669254326E-007
  6.065051166364908E-007
  4.973022702641418E-007
  8.185213788879955E-007
  9.607280676203989E-007
  9.518729106647167E-007
  8.154501910627468E-007
  1.322505960377240E-006
  1.512240410032365E-006
  1.465987177312828E-006
  1.285611120482793E-006
  2.116004211318403E-006
  2.392445071666982E-006
  2.303847762286837E-006
  2.042128087842031E-006
  3.505071490397151E-006
  3.971067504604111E-006
  3.847519833978330E-006
  3.403061308233355E-006
  6.667247123417464E-006
  7.605540312825424E-006
  7.594284032070061E-006
  6.688518902558704E-006
  0.000000000000000E+000
  0.000000000000000E+000
  0.000000000000000E+000
  0.000000000000000E+000
  0.000000000000000E+000
  0.000000000000000E+000
  0.000000000000000E+000
  0.000000000000000E+000
  0.000000000000000E+000
  0.000000000000000E+000
  0.000000000000000E+000
  0.000000000000000E+000
  0.000000000000000E+000
  0.000000000000000E+000
  0.000000000000000E+000
  0.000000000000000E+000
  0.000000000000000E+000
  0.000000000000000E+000
  0.000000000000000E+000
  0.000000000000000E+000
  0.000000000000000E+000
  0.000000000000000E+000
  0.000000000000000E+000
  0.000000000000000E+000
  0.000000000000000E+000
  0.000000000000000E+000
  0.000000000000000E+000
  0.000000000000000E+000
  0.000000000000000E+000
  1.305548248607059E-008
  7.344631609003669E-008
  1.041634803463392E-008
  1.071402803549938E-007
  1.891784253665382E-007
  2.247788400074390E-007
  1.453267151635542E-007
  3.234451544166746E-007
  4.210272757893417E-007
  4.351777706633465E-007
  3.412101397098913E-007
  6.157518771188166E-007
  7.360190295798499E-007
  7.228956714532951E-007
  6.080518701140875E-007
  1.042219418960874E-006
  1.202153223958059E-006
  1.145708541558595E-006
  9.948606827033131E-007
  1.731557725037782E-006
  1.970619718439001E-006
  1.844854691518958E-006
  1.623608967962094E-006
  2.994140655776806E-006
  3.418989963339758E-006
  3.196486810488576E-006
  2.805430706444425E-006
  6.158963660590496E-006
  7.325905962744102E-006
  6.947034294732422E-006
  5.863292495709136E-006
  0.000000000000000E+000
  0.000000000000000E+000
  0.000000000000000E+000
  0.000000000000000E+000
  0.000000000000000E+000
  0.000000000000000E+000
  0.000000000000000E+000
  0.000000000000000E+000
  0.000000000000000E+000
  0.000000000000000E+000
  0.000000000000000E+000
  0.000000000000000E+000
  0.000000000000000E+000
  0.000000000000000E+000
  0.000000000000000E+000
  0.000000000000000E+000
  0.000000000000000E+000
  0.000000000000000E+000
  0.000000000000000E+000
  0.000000000000000E+000
  0.000000000000000E+000
  0.000000000000000E+000
  0.000000000000000E+000
  0.000000000000000E+000
  0.000000000000000E+000
  0.000000000000000E+000
  0.000000000000000E+000
  0.000000000000000E+000
  0.000000000000000E+000
  0.000000000000000E+000
  0.000000000000000E+000
  0.000000000000000E+000
  0.000000000000000E+000
  2.094395022111207E-008
  6.196659457359456E-008
  3.637995680574254E-009
  1.228251961957312E-007
  2.054303109226064E-007
  2.171956593762992E-007
  1.376374610254868E-007
  3.629975436030545E-007
  4.622627345162816E-007
  4.476636532983506E-007
  3.527948914585775E-007
  7.092710822652077E-007
  8.422251777432000E-007
  7.945352190174656E-007
  6.692724753114798E-007
  1.269830569360965E-006
  1.469655186082466E-006
  1.350127758953847E-006
  1.166597268545354E-006
  2.323220245409191E-006
  2.691725912009687E-006
  2.401069701641621E-006
  2.077586222464963E-006
  5.111775603059904E-006
  6.372995184631093E-006
  5.607015101297222E-006
  4.544722972590350E-006
  0.000000000000000E+000
  0.000000000000000E+000
  0.000000000000000E+000
  7.676421297992088E-010
  0.000000000000000E+000
  0.000000000000000E+000
  0.000000000000000E+000
  0.000000000000000E+000
  0.000000000000000E+000
  0.000000000000000E+000
  0.000000000000000E+000
  0.000000000000000E+000
  0.000000000000000E+000
  0.000000000000000E+000
  0.000000000000000E+000
  0.000000000000000E+000
  0.000000000000000E+000
  0.000000000000000E+000
  0.000000000000000E+000
  0.000000000000000E+000
  0.000000000000000E+000
  0.000000000000000E+000
  0.000000000000000E+000
  0.000000000000000E+000
  0.000000000000000E+000
  0.000000000000000E+000
  0.000000000000000E+000
  0.000000000000000E+000
  0.000000000000000E+000
  0.000000000000000E+000
  0.000000000000000E+000
  0.000000000000000E+000
  0.000000000000000E+000
  0.000000000000000E+000
  0.000000000000000E+000
  0.000000000000000E+000
  0.000000000000000E+000
  0.000000000000000E+000
  0.000000000000000E+000
  0.000000000000000E+000
  7.421314578685733E-008
  1.544802092455804E-007
  1.473755710319001E-007
  7.035614305375564E-008
  3.583183496143955E-007
  4.702673855203649E-007
  4.436513868841139E-007
  3.374966697243672E-007
  8.019573882455721E-007
  9.678717879137981E-007
  8.891059627888356E-007
  7.356746620907552E-007
  1.586766321111882E-006
  1.882207304279747E-006
  1.639366951472170E-006
  1.383419798128818E-006
  3.640720955470144E-006
  4.727007277453536E-006
  3.566938150639974E-006
  2.811855642902026E-006
  0.000000000000000E+000
   1.00000000000000     
  0.500000000000000     
SCALARS elementIsPlast double 
LOOKUP_TABLE default
  0.000000000000000E+000
  0.000000000000000E+000
  0.000000000000000E+000
  0.000000000000000E+000
  0.000000000000000E+000
  0.000000000000000E+000
  0.000000000000000E+000
  0.000000000000000E+000
  0.000000000000000E+000
  0.000000000000000E+000
  0.000000000000000E+000
  0.000000000000000E+000
  0.000000000000000E+000
  0.000000000000000E+000
  0.000000000000000E+000
  0.000000000000000E+000
  0.000000000000000E+000
  0.000000000000000E+000
  0.000000000000000E+000
  0.000000000000000E+000
  0.000000000000000E+000
  0.000000000000000E+000
  0.000000000000000E+000
  0.000000000000000E+000
  0.000000000000000E+000
  0.000000000000000E+000
  0.000000000000000E+000
  0.000000000000000E+000
  0.000000000000000E+000
  0.000000000000000E+000
  0.000000000000000E+000
  0.000000000000000E+000
  0.000000000000000E+000
  0.000000000000000E+000
  0.000000000000000E+000
  0.000000000000000E+000
  0.000000000000000E+000
  0.000000000000000E+000
  0.000000000000000E+000
  0.000000000000000E+000
  0.000000000000000E+000
  0.000000000000000E+000
  0.000000000000000E+000
  0.000000000000000E+000
  0.000000000000000E+000
  0.000000000000000E+000
  0.000000000000000E+000
  0.000000000000000E+000
  0.000000000000000E+000
  0.000000000000000E+000
  0.000000000000000E+000
  0.000000000000000E+000
  0.000000000000000E+000
  0.000000000000000E+000
  0.000000000000000E+000
  0.000000000000000E+000
  0.000000000000000E+000
  0.000000000000000E+000
  0.000000000000000E+000
  0.000000000000000E+000
  0.000000000000000E+000
  0.000000000000000E+000
  0.000000000000000E+000
  0.000000000000000E+000
  0.000000000000000E+000
  0.000000000000000E+000
  0.000000000000000E+000
  0.000000000000000E+000
  0.000000000000000E+000
  0.000000000000000E+000
  0.000000000000000E+000
  0.000000000000000E+000
  0.000000000000000E+000
  0.000000000000000E+000
  0.000000000000000E+000
  0.000000000000000E+000
  0.000000000000000E+000
  0.000000000000000E+000
  0.000000000000000E+000
  0.000000000000000E+000
  0.000000000000000E+000
  0.000000000000000E+000
  0.000000000000000E+000
  0.000000000000000E+000
  0.000000000000000E+000
  0.000000000000000E+000
  0.000000000000000E+000
  0.000000000000000E+000
  0.000000000000000E+000
  0.000000000000000E+000
  0.000000000000000E+000
  0.000000000000000E+000
  0.000000000000000E+000
  0.000000000000000E+000
  0.000000000000000E+000
  0.000000000000000E+000
  0.000000000000000E+000
  0.000000000000000E+000
  0.000000000000000E+000
  0.000000000000000E+000
  0.000000000000000E+000
  0.000000000000000E+000
  0.000000000000000E+000
  0.000000000000000E+000
  0.000000000000000E+000
  0.000000000000000E+000
  0.000000000000000E+000
  0.000000000000000E+000
  0.000000000000000E+000
  0.000000000000000E+000
  0.000000000000000E+000
  0.000000000000000E+000
  0.000000000000000E+000
  0.000000000000000E+000
  0.000000000000000E+000
  0.000000000000000E+000
  0.000000000000000E+000
  0.000000000000000E+000
  0.000000000000000E+000
  0.000000000000000E+000
  0.000000000000000E+000
  0.000000000000000E+000
  0.000000000000000E+000
  0.000000000000000E+000
  0.000000000000000E+000
  0.000000000000000E+000
  0.000000000000000E+000
  0.000000000000000E+000
  0.000000000000000E+000
  0.000000000000000E+000
  0.000000000000000E+000
  0.000000000000000E+000
  0.000000000000000E+000
  0.000000000000000E+000
  0.000000000000000E+000
  0.000000000000000E+000
  0.000000000000000E+000
  0.000000000000000E+000
  0.000000000000000E+000
  0.000000000000000E+000
  0.000000000000000E+000
  0.000000000000000E+000
  0.000000000000000E+000
  0.000000000000000E+000
  0.000000000000000E+000
  0.000000000000000E+000
  0.000000000000000E+000
  0.000000000000000E+000
  0.000000000000000E+000
  0.000000000000000E+000
  0.000000000000000E+000
  0.000000000000000E+000
  0.000000000000000E+000
  0.000000000000000E+000
  0.000000000000000E+000
  0.000000000000000E+000
  0.000000000000000E+000
  0.000000000000000E+000
  0.000000000000000E+000
  0.000000000000000E+000
  0.000000000000000E+000
  0.000000000000000E+000
  0.000000000000000E+000
  0.000000000000000E+000
  0.000000000000000E+000
  0.000000000000000E+000
  0.000000000000000E+000
  0.000000000000000E+000
  0.000000000000000E+000
  0.000000000000000E+000
  0.000000000000000E+000
  0.000000000000000E+000
  0.000000000000000E+000
  0.000000000000000E+000
  0.000000000000000E+000
  0.000000000000000E+000
  0.000000000000000E+000
  0.000000000000000E+000
  0.000000000000000E+000
  0.000000000000000E+000
  0.000000000000000E+000
  0.000000000000000E+000
  0.000000000000000E+000
  0.000000000000000E+000
  0.000000000000000E+000
  0.000000000000000E+000
  0.000000000000000E+000
  0.000000000000000E+000
  0.000000000000000E+000
  0.000000000000000E+000
  0.000000000000000E+000
  0.000000000000000E+000
  0.000000000000000E+000
  0.000000000000000E+000
  0.000000000000000E+000
  0.000000000000000E+000
  0.000000000000000E+000
  0.000000000000000E+000
  0.000000000000000E+000
  0.000000000000000E+000
  0.000000000000000E+000
  0.000000000000000E+000
  0.000000000000000E+000
  0.000000000000000E+000
  0.000000000000000E+000
  0.000000000000000E+000
  0.000000000000000E+000
  0.000000000000000E+000
  0.000000000000000E+000
  0.000000000000000E+000
  0.000000000000000E+000
  0.000000000000000E+000
  0.000000000000000E+000
  0.000000000000000E+000
  0.000000000000000E+000
  0.000000000000000E+000
  0.000000000000000E+000
  0.000000000000000E+000
  0.000000000000000E+000
  0.000000000000000E+000
  0.000000000000000E+000
  0.000000000000000E+000
  0.000000000000000E+000
  0.000000000000000E+000
  0.000000000000000E+000
  0.000000000000000E+000
  0.000000000000000E+000
  0.000000000000000E+000
  0.000000000000000E+000
  0.000000000000000E+000
  0.000000000000000E+000
  0.000000000000000E+000
  0.000000000000000E+000
  0.000000000000000E+000
  0.000000000000000E+000
  0.000000000000000E+000
  0.000000000000000E+000
  0.000000000000000E+000
  0.000000000000000E+000
  0.000000000000000E+000
  0.000000000000000E+000
  0.000000000000000E+000
  0.000000000000000E+000
  0.000000000000000E+000
  0.000000000000000E+000
  0.000000000000000E+000
  0.000000000000000E+000
  0.000000000000000E+000
  0.000000000000000E+000
  0.000000000000000E+000
  0.000000000000000E+000
  0.000000000000000E+000
  0.000000000000000E+000
  0.000000000000000E+000
  0.000000000000000E+000
  0.000000000000000E+000
  0.000000000000000E+000
  0.000000000000000E+000
  0.000000000000000E+000
  0.000000000000000E+000
  0.000000000000000E+000
  0.000000000000000E+000
  0.000000000000000E+000
  0.000000000000000E+000
  0.000000000000000E+000
  0.000000000000000E+000
  0.000000000000000E+000
  0.000000000000000E+000
  0.000000000000000E+000
  0.000000000000000E+000
  0.000000000000000E+000
  0.000000000000000E+000
  0.000000000000000E+000
  0.000000000000000E+000
  0.000000000000000E+000
  0.000000000000000E+000
  0.000000000000000E+000
  0.000000000000000E+000
  0.000000000000000E+000
  0.000000000000000E+000
  0.000000000000000E+000
  0.000000000000000E+000
  0.000000000000000E+000
  0.000000000000000E+000
  0.000000000000000E+000
  0.000000000000000E+000
  0.000000000000000E+000
  0.000000000000000E+000
  0.000000000000000E+000
  0.000000000000000E+000
  0.000000000000000E+000
  0.000000000000000E+000
  0.000000000000000E+000
  0.000000000000000E+000
  0.000000000000000E+000
  0.000000000000000E+000
  0.000000000000000E+000
  0.000000000000000E+000
  0.000000000000000E+000
  0.000000000000000E+000
  0.000000000000000E+000
  0.000000000000000E+000
  0.000000000000000E+000
  0.000000000000000E+000
  0.000000000000000E+000
  0.000000000000000E+000
  0.000000000000000E+000
  0.000000000000000E+000
  0.000000000000000E+000
  0.000000000000000E+000
  0.000000000000000E+000
  0.000000000000000E+000
  0.000000000000000E+000
  0.000000000000000E+000
  0.000000000000000E+000
  0.000000000000000E+000
  0.000000000000000E+000
  0.000000000000000E+000
  0.000000000000000E+000
  0.000000000000000E+000
  0.000000000000000E+000
  0.000000000000000E+000
  0.000000000000000E+000
  0.000000000000000E+000
  0.000000000000000E+000
  0.000000000000000E+000
  0.000000000000000E+000
  0.000000000000000E+000
  0.000000000000000E+000
  0.000000000000000E+000
  0.000000000000000E+000
  0.000000000000000E+000
  0.000000000000000E+000
  0.000000000000000E+000
  0.000000000000000E+000
  0.000000000000000E+000
  0.000000000000000E+000
  0.000000000000000E+000
  0.000000000000000E+000
  0.000000000000000E+000
  0.000000000000000E+000
  0.000000000000000E+000
  0.000000000000000E+000
  0.000000000000000E+000
  0.000000000000000E+000
  0.000000000000000E+000
  0.000000000000000E+000
  0.000000000000000E+000
  0.000000000000000E+000
  0.000000000000000E+000
  0.000000000000000E+000
  0.000000000000000E+000
  0.000000000000000E+000
  0.000000000000000E+000
  0.000000000000000E+000
  0.000000000000000E+000
  0.000000000000000E+000
  0.000000000000000E+000
  0.000000000000000E+000
  0.000000000000000E+000
  0.000000000000000E+000
  0.000000000000000E+000
  0.000000000000000E+000
  0.000000000000000E+000
  0.000000000000000E+000
  0.000000000000000E+000
  0.000000000000000E+000
  0.000000000000000E+000
  0.000000000000000E+000
  0.000000000000000E+000
  0.000000000000000E+000
  0.000000000000000E+000
  0.000000000000000E+000
  0.000000000000000E+000
  0.000000000000000E+000
  0.000000000000000E+000
  0.000000000000000E+000
  0.000000000000000E+000
  0.000000000000000E+000
  0.000000000000000E+000
  0.000000000000000E+000
  0.000000000000000E+000
  0.000000000000000E+000
  0.000000000000000E+000
  0.000000000000000E+000
  0.000000000000000E+000
  0.000000000000000E+000
  0.000000000000000E+000
  0.000000000000000E+000
  0.000000000000000E+000
  0.000000000000000E+000
  0.000000000000000E+000
  0.000000000000000E+000
  0.000000000000000E+000
  0.000000000000000E+000
  0.000000000000000E+000
  0.000000000000000E+000
  0.000000000000000E+000
  0.000000000000000E+000
  0.000000000000000E+000
  0.000000000000000E+000
  0.000000000000000E+000
  0.000000000000000E+000
  0.000000000000000E+000
  0.000000000000000E+000
  0.000000000000000E+000
  0.000000000000000E+000
  0.000000000000000E+000
  0.000000000000000E+000
  0.000000000000000E+000
  0.000000000000000E+000
  0.000000000000000E+000
  0.000000000000000E+000
  0.000000000000000E+000
  0.000000000000000E+000
  0.000000000000000E+000
  0.000000000000000E+000
  0.000000000000000E+000
  0.000000000000000E+000
  0.000000000000000E+000
  0.000000000000000E+000
  0.000000000000000E+000
  0.000000000000000E+000
  0.000000000000000E+000
  0.000000000000000E+000
  0.000000000000000E+000
  0.000000000000000E+000
  0.000000000000000E+000
  0.000000000000000E+000
  0.000000000000000E+000
  0.000000000000000E+000
  0.000000000000000E+000
  0.000000000000000E+000
  0.000000000000000E+000
  0.000000000000000E+000
  0.000000000000000E+000
  0.000000000000000E+000
  0.000000000000000E+000
  0.000000000000000E+000
  0.000000000000000E+000
  0.000000000000000E+000
  0.000000000000000E+000
  0.000000000000000E+000
  0.000000000000000E+000
  0.000000000000000E+000
  0.000000000000000E+000
  0.000000000000000E+000
  0.000000000000000E+000
  0.000000000000000E+000
  0.000000000000000E+000
SCALARS poroL double 
LOOKUP_TABLE default
  0.155945477732520     
  0.155942469248659     
  0.155939633207893     
  0.155936964018070     
  0.155934455529093     
  0.155932101177098     
  0.155929894123769     
  0.155927827388093     
  0.155925893968231     
  0.155924086951530     
  0.155922399610967     
  0.155920825486512     
  0.155919358450122     
  0.155917992753193     
  0.155916723055498     
  0.155944975062070     
  0.155941977190888     
  0.155939152166831     
  0.155936494254425     
  0.155933997165017     
  0.155931654203546     
  0.155929458410015     
  0.155927402693038     
  0.155925479953215     
  0.155923683194405     
  0.155922005621256     
  0.155920440721535     
  0.155918982331988     
  0.155917624686570     
  0.155916362446059     
  0.155943969843414     
  0.155940993364307     
  0.155938190533425     
  0.155935555326299     
  0.155933081175269     
  0.155930761121366     
  0.155928587960043     
  0.155926554378231     
  0.155924653080644     
  0.155922876903510     
  0.155921218914233     
  0.155919672495615     
  0.155918231413431     
  0.155916889866240     
  0.155915642516381     
  0.155942462340127     
  0.155939518367153     
  0.155936749226259     
  0.155934148453659     
  0.155931709058495     
  0.155929423682234     
  0.155927284750601     
  0.155925284615727     
  0.155923415686650     
  0.155921670546580     
  0.155920042055615     
  0.155918523437712     
  0.155917108350817     
  0.155915790939060     
  0.155914565865937     
  0.155940452995339     
  0.155937553147601     
  0.155934829676080     
  0.155932275520500     
  0.155929883117166     
  0.155927644568077     
  0.155925551800785     
  0.155923596716967     
  0.155921771328172     
  0.155920067877463     
  0.155918478945942     
  0.155916997543208     
  0.155915617180818     
  0.155914331927722     
  0.155913136446560     
  0.155937942489189     
  0.155935099064851     
  0.155932433889257     
  0.155929939139590     
  0.155927606522720     
  0.155925427455952     
  0.155923393236220     
  0.155921495196079     
  0.155919724845397     
  0.155918073997906     
  0.155916534882033     
  0.155915100235388     
  0.155913763382256     
  0.155912518293171     
  0.155911359625405     
  0.155934931815755     
  0.155932157970806     
  0.155929564532472     
  0.155927142738661     
  0.155924883402018     
  0.155922777103861     
  0.155920814373672     
  0.155918985853053     
  0.155917282443581     
  0.155915695438379     
  0.155914216637342     
  0.155912838445951     
  0.155911553957347     
  0.155910357016975     
  0.155909242268566     
  0.155931422379896     
  0.155928732312700     
  0.155926225038822     
  0.155923890668001     
  0.155921718944830     
  0.155919699456948     
  0.155917821825241     
  0.155916075875675     
  0.155914451792931     
  0.155912940256462     
  0.155911532559710     
  0.155910220713111     
  0.155908997531109     
  0.155907856702786     
  0.155906792844911     
  0.155927416114732     
  0.155924825257235     
  0.155922419735692     
  0.155920188329535     
  0.155918119532087     
  0.155916201773437     
  0.155914423621095     
  0.155912773958819     
  0.155911242144799     
  0.155909818150854     
  0.155908492684476     
  0.155907257295332     
  0.155906104467221     
  0.155905027695590     
  0.155904021549485     
  0.155922915620914     
  0.155920440837166     
  0.155918153995020     
  0.155916042327655     
  0.155914092884706     
  0.155912292769600     
  0.155910629349510     
  0.155909090439311     
  0.155907664461964     
  0.155906340588395     
  0.155905108860169     
  0.155903960297958     
  0.155902886997934     
  0.155901882216919     
  0.155900940445412     
  0.155917924329309     
  0.155915584121672     
  0.155913434406977     
  0.155911460642343     
  0.155909648233002     
  0.155907982783104     
  0.155906450312800     
  0.155905037444196     
  0.155903731560127     
  0.155902520940732     
  0.155901394883123     
  0.155900343809099     
  0.155899359364672     
  0.155898434513336     
  0.155897563622660     
  0.155912446689304     
  0.155910261412444     
  0.155908268978602     
  0.155906452825647     
  0.155904796507005     
  0.155903283954165     
  0.155901899697573     
  0.155900629049818     
  0.155899458257073     
  0.155898374626278     
  0.155897366636167     
  0.155896424039805     
  0.155895537964751     
  0.155894701014446     
  0.155893907371148     
  0.155906488385538     
  0.155904480468029     
  0.155902667359622     
  0.155901030223203     
  0.155899550548579     
  0.155898210424308     
  0.155896992757746     
  0.155895881448666     
  0.155894861525035     
  0.155893919251843     
  0.155893042225014     
  0.155892219461913     
  0.155891441497916     
  0.155890700495084     
  0.155889990364458     
  0.155900056586370     
  0.155898250759796     
  0.155896641098741     
  0.155895206223616     
  0.155893925347189     
  0.155892778553080     
  0.155891747008816     
  0.155890813120447     
  0.155889960640749     
  0.155889174746723     
  0.155888442103930     
  0.155887750934643     
  0.155887091104079     
  0.155886454234220     
  0.155885833848613     
  0.155893160227826     
  0.155891583763836     
  0.155890203935072     
  0.155888996540141     
  0.155887938302669     
  0.155887007154166     
  0.155886182432273     
  0.155885445003369     
  0.155884777326304     
  0.155884163479902     
  0.155883589179599     
  0.155883041808028     
  0.155882510480544     
  0.155881986160154     
  0.155881461827903     
  0.155885810336831     
  0.155884493294388     
  0.155883372131625     
  0.155882419531734     
  0.155881609520808     
  0.155880917754121     
  0.155880321689760     
  0.155879800661140     
  0.155879335872241     
  0.155878910348266     
  0.155878508878489     
  0.155878117987139     
  0.155877725962797     
  0.155877322967635     
  0.155876901236277     
  0.155878020397333     
  0.155876995886331     
  0.155876164861258     
  0.155875496574752     
  0.155874962151513     
  0.155874534879822     
  0.155874190347892     
  0.155873906440689     
  0.155873663232062     
  0.155873442819996     
  0.155873229158220     
  0.155873007935671     
  0.155872766547324     
  0.155872494187184     
  0.155872182078179     
  0.155869806762317     
  0.155869111237445     
  0.155868604661339     
  0.155868252503423     
  0.155868022785592     
  0.155867886385214     
  0.155867817116680     
  0.155867791615004     
  0.155867789074337     
  0.155867790912258     
  0.155867780436903     
  0.155867742590046     
  0.155867663827447     
  0.155867532179938     
  0.155867337516635     
  0.155861189114182     
  0.155860862727033     
  0.155860717983355     
  0.155860716148421     
  0.155860821935986     
  0.155861003834637     
  0.155861234107372     
  0.155861488504617     
  0.155861745774298     
  0.155861987075366     
  0.155862195405525     
  0.155862355145307     
  0.155862451803157     
  0.155862472022127     
  0.155862403878649     
  0.155852190976347     
  0.155852278038655     
  0.155852535881114     
  0.155852921021243     
  0.155853394644381     
  0.155853922969491     
  0.155854477118990     
  0.155855032569377     
  0.155855568320748     
  0.155856065946044     
  0.155856508676369     
  0.155856880660448     
  0.155857166512349     
  0.155857351231329     
  0.155857420538573     
  0.155842840282749     
  0.155843389936572     
  0.155844094912097     
  0.155844906222286     
  0.155845781276560     
  0.155846684297216     
  0.155847585965839     
  0.155848462458367     
  0.155849294105307     
  0.155850063919716     
  0.155850756204116     
  0.155851355412126     
  0.155851845411990     
  0.155852209270611     
  0.155852429629035     
  0.155833170024285     
  0.155834237288875     
  0.155835438382417     
  0.155836717699937     
  0.155838028601697     
  0.155839333854326     
  0.155840604857357     
  0.155841819997668     
  0.155842962549306     
  0.155844018475867     
  0.155844974395087     
  0.155845815899033     
  0.155846526409851     
  0.155847086743535     
  0.155847475516253     
  0.155823219023321     
  0.155824866518518     
  0.155826618169192     
  0.155828410068794     
  0.155830191290974     
  0.155831924200323     
  0.155833582828741     
  0.155835150080068     
  0.155836614509944     
  0.155837967175318     
  0.155839198794136     
  0.155840297361298     
  0.155841246402065     
  0.155842024156249     
  0.155842603960425     
  0.155813032966502     
  0.155815333848338     
  0.155817697552725     
  0.155820049324118     
  0.155822334007848     
  0.155824515672718     
  0.155826574177358     
  0.155828500392378     
  0.155830291400968     
  0.155831946242740     
  0.155833462216992     
  0.155834831618973     
  0.155836039094574     
  0.155837060050387     
  0.155837860858733     
  0.155802666009765     
  0.155805709127318     
  0.155808755881350     
  0.155811716984459     
  0.155814534246394     
  0.155817177812502     
  0.155819638751876     
  0.155821920875930     
  0.155824033979840     
  0.155825988696309     
  0.155827792180724     
  0.155829443963435     
  0.155830931712217     
  0.155832228173483     
  0.155833290405740     
  0.155792183810526     
  0.155796083008146     
  0.155799896720358     
  0.155803516408478     
  0.155806885825280     
  0.155809990534015     
  0.155812841714853     
  0.155815462773014     
  0.155817880870125     
  0.155820122099084     
  0.155822207640925     
  0.155824148624951     
  0.155825939968039     
  0.155827552892848     
  0.155828932422914     
  0.155781670138677     
  0.155786582210884     
  0.155791262698751     
  0.155795581859242     
  0.155799502015533     
  0.155803043760385     
  0.155806252176796     
  0.155809177105860     
  0.155811867021915     
  0.155814366617449     
  0.155816715072409     
  0.155818942794718     
  0.155821059299471     
  0.155823041653551     
  0.155824817785936     
  0.155771247132044     
  0.155777404897274     
  0.155783063255771     
  0.155788088432076     
  0.155792513570768     
  0.155796433863238     
  0.155799939959456     
  0.155803112504938     
  0.155806022560387     
  0.155808734210631     
  0.155811307058502     
  0.155813796729698     
  0.155816252603227     
  0.155818666478653     
  0.155820962012034     
  0.155761137686830     
  0.155768924196947     
  0.155775616994297     
  0.155781240085909     
  0.155786058072291     
  0.155790255056490     
  0.155793970229895     
  0.155797312489555     
  0.155800372354069     
  0.155803230426702     
  0.155805964633518     
  0.155808658200542     
  0.155811406542723     
  0.155814342976556     
  0.155817332509663     
  0.155752135945563     
  0.155761925491730     
  0.155769268576182     
  0.155775235493260     
  0.155780256457528     
  0.155784586631665     
  0.155788396574074     
  0.155791812557453     
  0.155794936477567     
  0.155797858508670     
  0.155800667738918     
  0.155803464936969     
  0.155806386233765     
  0.155809652314913     
  0.155813900765185     
