# vtk DataFile Version 3.0
vtk output
ASCII
DATASET UNSTRUCTURED_GRID
POINTS       496 double 
  0.00000000E+00  3.00000000E+02  0.00000000E+00
  0.00000000E+00  2.80000000E+02  0.00000000E+00
  0.00000000E+00  2.60000000E+02  0.00000000E+00
  0.00000000E+00  2.40000000E+02  0.00000000E+00
  0.00000000E+00  2.20000000E+02  0.00000000E+00
  0.00000000E+00  2.00000000E+02  0.00000000E+00
  0.00000000E+00  1.80000000E+02  0.00000000E+00
  0.00000000E+00  1.60000000E+02  0.00000000E+00
  0.00000000E+00  1.40000000E+02  0.00000000E+00
  0.00000000E+00  1.20000000E+02  0.00000000E+00
  0.00000000E+00  1.00000000E+02  0.00000000E+00
  0.00000000E+00  8.00000000E+01  0.00000000E+00
  0.00000000E+00  6.00000000E+01  0.00000000E+00
  0.00000000E+00  4.00000000E+01  0.00000000E+00
  0.00000000E+00  2.00000000E+01  0.00000000E+00
  0.00000000E+00  4.99600361E-14  0.00000000E+00
  2.00000000E+01  3.00000000E+02  0.00000000E+00
  2.00000000E+01  2.80000000E+02  0.00000000E+00
  2.00000000E+01  2.60000000E+02  0.00000000E+00
  2.00000000E+01  2.40000000E+02  0.00000000E+00
  2.00000000E+01  2.20000000E+02  0.00000000E+00
  2.00000000E+01  2.00000000E+02  0.00000000E+00
  2.00000000E+01  1.80000000E+02  0.00000000E+00
  2.00000000E+01  1.60000000E+02  0.00000000E+00
  2.00000000E+01  1.40000000E+02  0.00000000E+00
  2.00000000E+01  1.20000000E+02  0.00000000E+00
  2.00000000E+01  1.00000000E+02  0.00000000E+00
  2.00000000E+01  8.00000000E+01  0.00000000E+00
  2.00000000E+01  6.00000000E+01  0.00000000E+00
  2.00000000E+01  4.00000000E+01  0.00000000E+00
  2.00000000E+01  2.00000000E+01  0.00000000E+00
  2.00000000E+01  4.99600361E-14  0.00000000E+00
  4.00000000E+01  3.00000000E+02  0.00000000E+00
  4.00000000E+01  2.80000000E+02  0.00000000E+00
  4.00000000E+01  2.60000000E+02  0.00000000E+00
  4.00000000E+01  2.40000000E+02  0.00000000E+00
  4.00000000E+01  2.20000000E+02  0.00000000E+00
  4.00000000E+01  2.00000000E+02  0.00000000E+00
  4.00000000E+01  1.80000000E+02  0.00000000E+00
  4.00000000E+01  1.60000000E+02  0.00000000E+00
  4.00000000E+01  1.40000000E+02  0.00000000E+00
  4.00000000E+01  1.20000000E+02  0.00000000E+00
  4.00000000E+01  1.00000000E+02  0.00000000E+00
  4.00000000E+01  8.00000000E+01  0.00000000E+00
  4.00000000E+01  6.00000000E+01  0.00000000E+00
  4.00000000E+01  4.00000000E+01  0.00000000E+00
  4.00000000E+01  2.00000000E+01  0.00000000E+00
  4.00000000E+01  4.99600361E-14  0.00000000E+00
  6.00000000E+01  3.00000000E+02  0.00000000E+00
  6.00000000E+01  2.80000000E+02  0.00000000E+00
  6.00000000E+01  2.60000000E+02  0.00000000E+00
  6.00000000E+01  2.40000000E+02  0.00000000E+00
  6.00000000E+01  2.20000000E+02  0.00000000E+00
  6.00000000E+01  2.00000000E+02  0.00000000E+00
  6.00000000E+01  1.80000000E+02  0.00000000E+00
  6.00000000E+01  1.60000000E+02  0.00000000E+00
  6.00000000E+01  1.40000000E+02  0.00000000E+00
  6.00000000E+01  1.20000000E+02  0.00000000E+00
  6.00000000E+01  1.00000000E+02  0.00000000E+00
  6.00000000E+01  8.00000000E+01  0.00000000E+00
  6.00000000E+01  6.00000000E+01  0.00000000E+00
  6.00000000E+01  4.00000000E+01  0.00000000E+00
  6.00000000E+01  2.00000000E+01  0.00000000E+00
  6.00000000E+01  4.99600361E-14  0.00000000E+00
  8.00000000E+01  3.00000000E+02  0.00000000E+00
  8.00000000E+01  2.80000000E+02  0.00000000E+00
  8.00000000E+01  2.60000000E+02  0.00000000E+00
  8.00000000E+01  2.40000000E+02  0.00000000E+00
  8.00000000E+01  2.20000000E+02  0.00000000E+00
  8.00000000E+01  2.00000000E+02  0.00000000E+00
  8.00000000E+01  1.80000000E+02  0.00000000E+00
  8.00000000E+01  1.60000000E+02  0.00000000E+00
  8.00000000E+01  1.40000000E+02  0.00000000E+00
  8.00000000E+01  1.20000000E+02  0.00000000E+00
  8.00000000E+01  1.00000000E+02  0.00000000E+00
  8.00000000E+01  8.00000000E+01  0.00000000E+00
  8.00000000E+01  6.00000000E+01  0.00000000E+00
  8.00000000E+01  4.00000000E+01  0.00000000E+00
  8.00000000E+01  2.00000000E+01  0.00000000E+00
  8.00000000E+01  4.99600361E-14  0.00000000E+00
  1.00000000E+02  3.00000000E+02  0.00000000E+00
  1.00000000E+02  2.80000000E+02  0.00000000E+00
  1.00000000E+02  2.60000000E+02  0.00000000E+00
  1.00000000E+02  2.40000000E+02  0.00000000E+00
  1.00000000E+02  2.20000000E+02  0.00000000E+00
  1.00000000E+02  2.00000000E+02  0.00000000E+00
  1.00000000E+02  1.80000000E+02  0.00000000E+00
  1.00000000E+02  1.60000000E+02  0.00000000E+00
  1.00000000E+02  1.40000000E+02  0.00000000E+00
  1.00000000E+02  1.20000000E+02  0.00000000E+00
  1.00000000E+02  1.00000000E+02  0.00000000E+00
  1.00000000E+02  8.00000000E+01  0.00000000E+00
  1.00000000E+02  6.00000000E+01  0.00000000E+00
  1.00000000E+02  4.00000000E+01  0.00000000E+00
  1.00000000E+02  2.00000000E+01  0.00000000E+00
  1.00000000E+02  4.99600361E-14  0.00000000E+00
  1.20000000E+02  3.00000000E+02  0.00000000E+00
  1.20000000E+02  2.80000000E+02  0.00000000E+00
  1.20000000E+02  2.60000000E+02  0.00000000E+00
  1.20000000E+02  2.40000000E+02  0.00000000E+00
  1.20000000E+02  2.20000000E+02  0.00000000E+00
  1.20000000E+02  2.00000000E+02  0.00000000E+00
  1.20000000E+02  1.80000000E+02  0.00000000E+00
  1.20000000E+02  1.60000000E+02  0.00000000E+00
  1.20000000E+02  1.40000000E+02  0.00000000E+00
  1.20000000E+02  1.20000000E+02  0.00000000E+00
  1.20000000E+02  1.00000000E+02  0.00000000E+00
  1.20000000E+02  8.00000000E+01  0.00000000E+00
  1.20000000E+02  6.00000000E+01  0.00000000E+00
  1.20000000E+02  4.00000000E+01  0.00000000E+00
  1.20000000E+02  2.00000000E+01  0.00000000E+00
  1.20000000E+02  4.99600361E-14  0.00000000E+00
  1.40000000E+02  3.00000000E+02  0.00000000E+00
  1.40000000E+02  2.80000000E+02  0.00000000E+00
  1.40000000E+02  2.60000000E+02  0.00000000E+00
  1.40000000E+02  2.40000000E+02  0.00000000E+00
  1.40000000E+02  2.20000000E+02  0.00000000E+00
  1.40000000E+02  2.00000000E+02  0.00000000E+00
  1.40000000E+02  1.80000000E+02  0.00000000E+00
  1.40000000E+02  1.60000000E+02  0.00000000E+00
  1.40000000E+02  1.40000000E+02  0.00000000E+00
  1.40000000E+02  1.20000000E+02  0.00000000E+00
  1.40000000E+02  1.00000000E+02  0.00000000E+00
  1.40000000E+02  8.00000000E+01  0.00000000E+00
  1.40000000E+02  6.00000000E+01  0.00000000E+00
  1.40000000E+02  4.00000000E+01  0.00000000E+00
  1.40000000E+02  2.00000000E+01  0.00000000E+00
  1.40000000E+02  4.99600361E-14  0.00000000E+00
  1.60000000E+02  3.00000000E+02  0.00000000E+00
  1.60000000E+02  2.80000000E+02  0.00000000E+00
  1.60000000E+02  2.60000000E+02  0.00000000E+00
  1.60000000E+02  2.40000000E+02  0.00000000E+00
  1.60000000E+02  2.20000000E+02  0.00000000E+00
  1.60000000E+02  2.00000000E+02  0.00000000E+00
  1.60000000E+02  1.80000000E+02  0.00000000E+00
  1.60000000E+02  1.60000000E+02  0.00000000E+00
  1.60000000E+02  1.40000000E+02  0.00000000E+00
  1.60000000E+02  1.20000000E+02  0.00000000E+00
  1.60000000E+02  1.00000000E+02  0.00000000E+00
  1.60000000E+02  8.00000000E+01  0.00000000E+00
  1.60000000E+02  6.00000000E+01  0.00000000E+00
  1.60000000E+02  4.00000000E+01  0.00000000E+00
  1.60000000E+02  2.00000000E+01  0.00000000E+00
  1.60000000E+02  4.99600361E-14  0.00000000E+00
  1.80000000E+02  3.00000000E+02  0.00000000E+00
  1.80000000E+02  2.80000000E+02  0.00000000E+00
  1.80000000E+02  2.60000000E+02  0.00000000E+00
  1.80000000E+02  2.40000000E+02  0.00000000E+00
  1.80000000E+02  2.20000000E+02  0.00000000E+00
  1.80000000E+02  2.00000000E+02  0.00000000E+00
  1.80000000E+02  1.80000000E+02  0.00000000E+00
  1.80000000E+02  1.60000000E+02  0.00000000E+00
  1.80000000E+02  1.40000000E+02  0.00000000E+00
  1.80000000E+02  1.20000000E+02  0.00000000E+00
  1.80000000E+02  1.00000000E+02  0.00000000E+00
  1.80000000E+02  8.00000000E+01  0.00000000E+00
  1.80000000E+02  6.00000000E+01  0.00000000E+00
  1.80000000E+02  4.00000000E+01  0.00000000E+00
  1.80000000E+02  2.00000000E+01  0.00000000E+00
  1.80000000E+02  4.99600361E-14  0.00000000E+00
  2.00000000E+02  3.00000000E+02  0.00000000E+00
  2.00000000E+02  2.80000000E+02  0.00000000E+00
  2.00000000E+02  2.60000000E+02  0.00000000E+00
  2.00000000E+02  2.40000000E+02  0.00000000E+00
  2.00000000E+02  2.20000000E+02  0.00000000E+00
  2.00000000E+02  2.00000000E+02  0.00000000E+00
  2.00000000E+02  1.80000000E+02  0.00000000E+00
  2.00000000E+02  1.60000000E+02  0.00000000E+00
  2.00000000E+02  1.40000000E+02  0.00000000E+00
  2.00000000E+02  1.20000000E+02  0.00000000E+00
  2.00000000E+02  1.00000000E+02  0.00000000E+00
  2.00000000E+02  8.00000000E+01  0.00000000E+00
  2.00000000E+02  6.00000000E+01  0.00000000E+00
  2.00000000E+02  4.00000000E+01  0.00000000E+00
  2.00000000E+02  2.00000000E+01  0.00000000E+00
  2.00000000E+02  4.99600361E-14  0.00000000E+00
  2.20000000E+02  3.00000000E+02  0.00000000E+00
  2.20000000E+02  2.80000000E+02  0.00000000E+00
  2.20000000E+02  2.60000000E+02  0.00000000E+00
  2.20000000E+02  2.40000000E+02  0.00000000E+00
  2.20000000E+02  2.20000000E+02  0.00000000E+00
  2.20000000E+02  2.00000000E+02  0.00000000E+00
  2.20000000E+02  1.80000000E+02  0.00000000E+00
  2.20000000E+02  1.60000000E+02  0.00000000E+00
  2.20000000E+02  1.40000000E+02  0.00000000E+00
  2.20000000E+02  1.20000000E+02  0.00000000E+00
  2.20000000E+02  1.00000000E+02  0.00000000E+00
  2.20000000E+02  8.00000000E+01  0.00000000E+00
  2.20000000E+02  6.00000000E+01  0.00000000E+00
  2.20000000E+02  4.00000000E+01  0.00000000E+00
  2.20000000E+02  2.00000000E+01  0.00000000E+00
  2.20000000E+02  4.99600361E-14  0.00000000E+00
  2.40000000E+02  3.00000000E+02  0.00000000E+00
  2.40000000E+02  2.80000000E+02  0.00000000E+00
  2.40000000E+02  2.60000000E+02  0.00000000E+00
  2.40000000E+02  2.40000000E+02  0.00000000E+00
  2.40000000E+02  2.20000000E+02  0.00000000E+00
  2.40000000E+02  2.00000000E+02  0.00000000E+00
  2.40000000E+02  1.80000000E+02  0.00000000E+00
  2.40000000E+02  1.60000000E+02  0.00000000E+00
  2.40000000E+02  1.40000000E+02  0.00000000E+00
  2.40000000E+02  1.20000000E+02  0.00000000E+00
  2.40000000E+02  1.00000000E+02  0.00000000E+00
  2.40000000E+02  8.00000000E+01  0.00000000E+00
  2.40000000E+02  6.00000000E+01  0.00000000E+00
  2.40000000E+02  4.00000000E+01  0.00000000E+00
  2.40000000E+02  2.00000000E+01  0.00000000E+00
  2.40000000E+02  4.99600361E-14  0.00000000E+00
  2.60000000E+02  3.00000000E+02  0.00000000E+00
  2.60000000E+02  2.80000000E+02  0.00000000E+00
  2.60000000E+02  2.60000000E+02  0.00000000E+00
  2.60000000E+02  2.40000000E+02  0.00000000E+00
  2.60000000E+02  2.20000000E+02  0.00000000E+00
  2.60000000E+02  2.00000000E+02  0.00000000E+00
  2.60000000E+02  1.80000000E+02  0.00000000E+00
  2.60000000E+02  1.60000000E+02  0.00000000E+00
  2.60000000E+02  1.40000000E+02  0.00000000E+00
  2.60000000E+02  1.20000000E+02  0.00000000E+00
  2.60000000E+02  1.00000000E+02  0.00000000E+00
  2.60000000E+02  8.00000000E+01  0.00000000E+00
  2.60000000E+02  6.00000000E+01  0.00000000E+00
  2.60000000E+02  4.00000000E+01  0.00000000E+00
  2.60000000E+02  2.00000000E+01  0.00000000E+00
  2.60000000E+02  4.99600361E-14  0.00000000E+00
  2.80000000E+02  3.00000000E+02  0.00000000E+00
  2.80000000E+02  2.80000000E+02  0.00000000E+00
  2.80000000E+02  2.60000000E+02  0.00000000E+00
  2.80000000E+02  2.40000000E+02  0.00000000E+00
  2.80000000E+02  2.20000000E+02  0.00000000E+00
  2.80000000E+02  2.00000000E+02  0.00000000E+00
  2.80000000E+02  1.80000000E+02  0.00000000E+00
  2.80000000E+02  1.60000000E+02  0.00000000E+00
  2.80000000E+02  1.40000000E+02  0.00000000E+00
  2.80000000E+02  1.20000000E+02  0.00000000E+00
  2.80000000E+02  1.00000000E+02  0.00000000E+00
  2.80000000E+02  8.00000000E+01  0.00000000E+00
  2.80000000E+02  6.00000000E+01  0.00000000E+00
  2.80000000E+02  4.00000000E+01  0.00000000E+00
  2.80000000E+02  2.00000000E+01  0.00000000E+00
  2.80000000E+02  4.99600361E-14  0.00000000E+00
  3.00000000E+02  3.00000000E+02  0.00000000E+00
  3.00000000E+02  2.80000000E+02  0.00000000E+00
  3.00000000E+02  2.60000000E+02  0.00000000E+00
  3.00000000E+02  2.40000000E+02  0.00000000E+00
  3.00000000E+02  2.20000000E+02  0.00000000E+00
  3.00000000E+02  2.00000000E+02  0.00000000E+00
  3.00000000E+02  1.80000000E+02  0.00000000E+00
  3.00000000E+02  1.60000000E+02  0.00000000E+00
  3.00000000E+02  1.40000000E+02  0.00000000E+00
  3.00000000E+02  1.20000000E+02  0.00000000E+00
  3.00000000E+02  1.00000000E+02  0.00000000E+00
  3.00000000E+02  8.00000000E+01  0.00000000E+00
  3.00000000E+02  6.00000000E+01  0.00000000E+00
  3.00000000E+02  4.00000000E+01  0.00000000E+00
  3.00000000E+02  2.00000000E+01  0.00000000E+00
  3.00000000E+02  4.99600361E-14  0.00000000E+00
  3.20000000E+02  3.00000000E+02  0.00000000E+00
  3.20000000E+02  2.80000000E+02  0.00000000E+00
  3.20000000E+02  2.60000000E+02  0.00000000E+00
  3.20000000E+02  2.40000000E+02  0.00000000E+00
  3.20000000E+02  2.20000000E+02  0.00000000E+00
  3.20000000E+02  2.00000000E+02  0.00000000E+00
  3.20000000E+02  1.80000000E+02  0.00000000E+00
  3.20000000E+02  1.60000000E+02  0.00000000E+00
  3.20000000E+02  1.40000000E+02  0.00000000E+00
  3.20000000E+02  1.20000000E+02  0.00000000E+00
  3.20000000E+02  1.00000000E+02  0.00000000E+00
  3.20000000E+02  8.00000000E+01  0.00000000E+00
  3.20000000E+02  6.00000000E+01  0.00000000E+00
  3.20000000E+02  4.00000000E+01  0.00000000E+00
  3.20000000E+02  2.00000000E+01  0.00000000E+00
  3.20000000E+02  4.99600361E-14  0.00000000E+00
  3.40000000E+02  3.00000000E+02  0.00000000E+00
  3.40000000E+02  2.80000000E+02  0.00000000E+00
  3.40000000E+02  2.60000000E+02  0.00000000E+00
  3.40000000E+02  2.40000000E+02  0.00000000E+00
  3.40000000E+02  2.20000000E+02  0.00000000E+00
  3.40000000E+02  2.00000000E+02  0.00000000E+00
  3.40000000E+02  1.80000000E+02  0.00000000E+00
  3.40000000E+02  1.60000000E+02  0.00000000E+00
  3.40000000E+02  1.40000000E+02  0.00000000E+00
  3.40000000E+02  1.20000000E+02  0.00000000E+00
  3.40000000E+02  1.00000000E+02  0.00000000E+00
  3.40000000E+02  8.00000000E+01  0.00000000E+00
  3.40000000E+02  6.00000000E+01  0.00000000E+00
  3.40000000E+02  4.00000000E+01  0.00000000E+00
  3.40000000E+02  2.00000000E+01  0.00000000E+00
  3.40000000E+02  4.99600361E-14  0.00000000E+00
  3.60000000E+02  3.00000000E+02  0.00000000E+00
  3.60000000E+02  2.80000000E+02  0.00000000E+00
  3.60000000E+02  2.60000000E+02  0.00000000E+00
  3.60000000E+02  2.40000000E+02  0.00000000E+00
  3.60000000E+02  2.20000000E+02  0.00000000E+00
  3.60000000E+02  2.00000000E+02  0.00000000E+00
  3.60000000E+02  1.80000000E+02  0.00000000E+00
  3.60000000E+02  1.60000000E+02  0.00000000E+00
  3.60000000E+02  1.40000000E+02  0.00000000E+00
  3.60000000E+02  1.20000000E+02  0.00000000E+00
  3.60000000E+02  1.00000000E+02  0.00000000E+00
  3.60000000E+02  8.00000000E+01  0.00000000E+00
  3.60000000E+02  6.00000000E+01  0.00000000E+00
  3.60000000E+02  4.00000000E+01  0.00000000E+00
  3.60000000E+02  2.00000000E+01  0.00000000E+00
  3.60000000E+02  4.99600361E-14  0.00000000E+00
  3.80000000E+02  3.00000000E+02  0.00000000E+00
  3.80000000E+02  2.80000000E+02  0.00000000E+00
  3.80000000E+02  2.60000000E+02  0.00000000E+00
  3.80000000E+02  2.40000000E+02  0.00000000E+00
  3.80000000E+02  2.20000000E+02  0.00000000E+00
  3.80000000E+02  2.00000000E+02  0.00000000E+00
  3.80000000E+02  1.80000000E+02  0.00000000E+00
  3.80000000E+02  1.60000000E+02  0.00000000E+00
  3.80000000E+02  1.40000000E+02  0.00000000E+00
  3.80000000E+02  1.20000000E+02  0.00000000E+00
  3.80000000E+02  1.00000000E+02  0.00000000E+00
  3.80000000E+02  8.00000000E+01  0.00000000E+00
  3.80000000E+02  6.00000000E+01  0.00000000E+00
  3.80000000E+02  4.00000000E+01  0.00000000E+00
  3.80000000E+02  2.00000000E+01  0.00000000E+00
  3.80000000E+02  4.99600361E-14  0.00000000E+00
  4.00000000E+02  3.00000000E+02  0.00000000E+00
  4.00000000E+02  2.80000000E+02  0.00000000E+00
  4.00000000E+02  2.60000000E+02  0.00000000E+00
  4.00000000E+02  2.40000000E+02  0.00000000E+00
  4.00000000E+02  2.20000000E+02  0.00000000E+00
  4.00000000E+02  2.00000000E+02  0.00000000E+00
  4.00000000E+02  1.80000000E+02  0.00000000E+00
  4.00000000E+02  1.60000000E+02  0.00000000E+00
  4.00000000E+02  1.40000000E+02  0.00000000E+00
  4.00000000E+02  1.20000000E+02  0.00000000E+00
  4.00000000E+02  1.00000000E+02  0.00000000E+00
  4.00000000E+02  8.00000000E+01  0.00000000E+00
  4.00000000E+02  6.00000000E+01  0.00000000E+00
  4.00000000E+02  4.00000000E+01  0.00000000E+00
  4.00000000E+02  2.00000000E+01  0.00000000E+00
  4.00000000E+02  4.99600361E-14  0.00000000E+00
  4.20000000E+02  3.00000000E+02  0.00000000E+00
  4.20000000E+02  2.80000000E+02  0.00000000E+00
  4.20000000E+02  2.60000000E+02  0.00000000E+00
  4.20000000E+02  2.40000000E+02  0.00000000E+00
  4.20000000E+02  2.20000000E+02  0.00000000E+00
  4.20000000E+02  2.00000000E+02  0.00000000E+00
  4.20000000E+02  1.80000000E+02  0.00000000E+00
  4.20000000E+02  1.60000000E+02  0.00000000E+00
  4.20000000E+02  1.40000000E+02  0.00000000E+00
  4.20000000E+02  1.20000000E+02  0.00000000E+00
  4.20000000E+02  1.00000000E+02  0.00000000E+00
  4.20000000E+02  8.00000000E+01  0.00000000E+00
  4.20000000E+02  6.00000000E+01  0.00000000E+00
  4.20000000E+02  4.00000000E+01  0.00000000E+00
  4.20000000E+02  2.00000000E+01  0.00000000E+00
  4.20000000E+02  4.99600361E-14  0.00000000E+00
  4.40000000E+02  3.00000000E+02  0.00000000E+00
  4.40000000E+02  2.80000000E+02  0.00000000E+00
  4.40000000E+02  2.60000000E+02  0.00000000E+00
  4.40000000E+02  2.40000000E+02  0.00000000E+00
  4.40000000E+02  2.20000000E+02  0.00000000E+00
  4.40000000E+02  2.00000000E+02  0.00000000E+00
  4.40000000E+02  1.80000000E+02  0.00000000E+00
  4.40000000E+02  1.60000000E+02  0.00000000E+00
  4.40000000E+02  1.40000000E+02  0.00000000E+00
  4.40000000E+02  1.20000000E+02  0.00000000E+00
  4.40000000E+02  1.00000000E+02  0.00000000E+00
  4.40000000E+02  8.00000000E+01  0.00000000E+00
  4.40000000E+02  6.00000000E+01  0.00000000E+00
  4.40000000E+02  4.00000000E+01  0.00000000E+00
  4.40000000E+02  2.00000000E+01  0.00000000E+00
  4.40000000E+02  4.99600361E-14  0.00000000E+00
  4.60000000E+02  3.00000000E+02  0.00000000E+00
  4.60000000E+02  2.80000000E+02  0.00000000E+00
  4.60000000E+02  2.60000000E+02  0.00000000E+00
  4.60000000E+02  2.40000000E+02  0.00000000E+00
  4.60000000E+02  2.20000000E+02  0.00000000E+00
  4.60000000E+02  2.00000000E+02  0.00000000E+00
  4.60000000E+02  1.80000000E+02  0.00000000E+00
  4.60000000E+02  1.60000000E+02  0.00000000E+00
  4.60000000E+02  1.40000000E+02  0.00000000E+00
  4.60000000E+02  1.20000000E+02  0.00000000E+00
  4.60000000E+02  1.00000000E+02  0.00000000E+00
  4.60000000E+02  8.00000000E+01  0.00000000E+00
  4.60000000E+02  6.00000000E+01  0.00000000E+00
  4.60000000E+02  4.00000000E+01  0.00000000E+00
  4.60000000E+02  2.00000000E+01  0.00000000E+00
  4.60000000E+02  4.99600361E-14  0.00000000E+00
  4.80000000E+02  3.00000000E+02  0.00000000E+00
  4.80000000E+02  2.80000000E+02  0.00000000E+00
  4.80000000E+02  2.60000000E+02  0.00000000E+00
  4.80000000E+02  2.40000000E+02  0.00000000E+00
  4.80000000E+02  2.20000000E+02  0.00000000E+00
  4.80000000E+02  2.00000000E+02  0.00000000E+00
  4.80000000E+02  1.80000000E+02  0.00000000E+00
  4.80000000E+02  1.60000000E+02  0.00000000E+00
  4.80000000E+02  1.40000000E+02  0.00000000E+00
  4.80000000E+02  1.20000000E+02  0.00000000E+00
  4.80000000E+02  1.00000000E+02  0.00000000E+00
  4.80000000E+02  8.00000000E+01  0.00000000E+00
  4.80000000E+02  6.00000000E+01  0.00000000E+00
  4.80000000E+02  4.00000000E+01  0.00000000E+00
  4.80000000E+02  2.00000000E+01  0.00000000E+00
  4.80000000E+02  4.99600361E-14  0.00000000E+00
  5.00000000E+02  3.00000000E+02  0.00000000E+00
  5.00000000E+02  2.80000000E+02  0.00000000E+00
  5.00000000E+02  2.60000000E+02  0.00000000E+00
  5.00000000E+02  2.40000000E+02  0.00000000E+00
  5.00000000E+02  2.20000000E+02  0.00000000E+00
  5.00000000E+02  2.00000000E+02  0.00000000E+00
  5.00000000E+02  1.80000000E+02  0.00000000E+00
  5.00000000E+02  1.60000000E+02  0.00000000E+00
  5.00000000E+02  1.40000000E+02  0.00000000E+00
  5.00000000E+02  1.20000000E+02  0.00000000E+00
  5.00000000E+02  1.00000000E+02  0.00000000E+00
  5.00000000E+02  8.00000000E+01  0.00000000E+00
  5.00000000E+02  6.00000000E+01  0.00000000E+00
  5.00000000E+02  4.00000000E+01  0.00000000E+00
  5.00000000E+02  2.00000000E+01  0.00000000E+00
  5.00000000E+02  4.99600361E-14  0.00000000E+00
  5.20000000E+02  3.00000000E+02  0.00000000E+00
  5.20000000E+02  2.80000000E+02  0.00000000E+00
  5.20000000E+02  2.60000000E+02  0.00000000E+00
  5.20000000E+02  2.40000000E+02  0.00000000E+00
  5.20000000E+02  2.20000000E+02  0.00000000E+00
  5.20000000E+02  2.00000000E+02  0.00000000E+00
  5.20000000E+02  1.80000000E+02  0.00000000E+00
  5.20000000E+02  1.60000000E+02  0.00000000E+00
  5.20000000E+02  1.40000000E+02  0.00000000E+00
  5.20000000E+02  1.20000000E+02  0.00000000E+00
  5.20000000E+02  1.00000000E+02  0.00000000E+00
  5.20000000E+02  8.00000000E+01  0.00000000E+00
  5.20000000E+02  6.00000000E+01  0.00000000E+00
  5.20000000E+02  4.00000000E+01  0.00000000E+00
  5.20000000E+02  2.00000000E+01  0.00000000E+00
  5.20000000E+02  4.99600361E-14  0.00000000E+00
  5.40000000E+02  3.00000000E+02  0.00000000E+00
  5.40000000E+02  2.80000000E+02  0.00000000E+00
  5.40000000E+02  2.60000000E+02  0.00000000E+00
  5.40000000E+02  2.40000000E+02  0.00000000E+00
  5.40000000E+02  2.20000000E+02  0.00000000E+00
  5.40000000E+02  2.00000000E+02  0.00000000E+00
  5.40000000E+02  1.80000000E+02  0.00000000E+00
  5.40000000E+02  1.60000000E+02  0.00000000E+00
  5.40000000E+02  1.40000000E+02  0.00000000E+00
  5.40000000E+02  1.20000000E+02  0.00000000E+00
  5.40000000E+02  1.00000000E+02  0.00000000E+00
  5.40000000E+02  8.00000000E+01  0.00000000E+00
  5.40000000E+02  6.00000000E+01  0.00000000E+00
  5.40000000E+02  4.00000000E+01  0.00000000E+00
  5.40000000E+02  2.00000000E+01  0.00000000E+00
  5.40000000E+02  4.99600361E-14  0.00000000E+00
  5.60000000E+02  3.00000000E+02  0.00000000E+00
  5.60000000E+02  2.80000000E+02  0.00000000E+00
  5.60000000E+02  2.60000000E+02  0.00000000E+00
  5.60000000E+02  2.40000000E+02  0.00000000E+00
  5.60000000E+02  2.20000000E+02  0.00000000E+00
  5.60000000E+02  2.00000000E+02  0.00000000E+00
  5.60000000E+02  1.80000000E+02  0.00000000E+00
  5.60000000E+02  1.60000000E+02  0.00000000E+00
  5.60000000E+02  1.40000000E+02  0.00000000E+00
  5.60000000E+02  1.20000000E+02  0.00000000E+00
  5.60000000E+02  1.00000000E+02  0.00000000E+00
  5.60000000E+02  8.00000000E+01  0.00000000E+00
  5.60000000E+02  6.00000000E+01  0.00000000E+00
  5.60000000E+02  4.00000000E+01  0.00000000E+00
  5.60000000E+02  2.00000000E+01  0.00000000E+00
  5.60000000E+02  4.99600361E-14  0.00000000E+00
  5.80000000E+02  3.00000000E+02  0.00000000E+00
  5.80000000E+02  2.80000000E+02  0.00000000E+00
  5.80000000E+02  2.60000000E+02  0.00000000E+00
  5.80000000E+02  2.40000000E+02  0.00000000E+00
  5.80000000E+02  2.20000000E+02  0.00000000E+00
  5.80000000E+02  2.00000000E+02  0.00000000E+00
  5.80000000E+02  1.80000000E+02  0.00000000E+00
  5.80000000E+02  1.60000000E+02  0.00000000E+00
  5.80000000E+02  1.40000000E+02  0.00000000E+00
  5.80000000E+02  1.20000000E+02  0.00000000E+00
  5.80000000E+02  1.00000000E+02  0.00000000E+00
  5.80000000E+02  8.00000000E+01  0.00000000E+00
  5.80000000E+02  6.00000000E+01  0.00000000E+00
  5.80000000E+02  4.00000000E+01  0.00000000E+00
  5.80000000E+02  2.00000000E+01  0.00000000E+00
  5.80000000E+02  4.99600361E-14  0.00000000E+00
  6.00000000E+02  3.00000000E+02  0.00000000E+00
  6.00000000E+02  2.80000000E+02  0.00000000E+00
  6.00000000E+02  2.60000000E+02  0.00000000E+00
  6.00000000E+02  2.40000000E+02  0.00000000E+00
  6.00000000E+02  2.20000000E+02  0.00000000E+00
  6.00000000E+02  2.00000000E+02  0.00000000E+00
  6.00000000E+02  1.80000000E+02  0.00000000E+00
  6.00000000E+02  1.60000000E+02  0.00000000E+00
  6.00000000E+02  1.40000000E+02  0.00000000E+00
  6.00000000E+02  1.20000000E+02  0.00000000E+00
  6.00000000E+02  1.00000000E+02  0.00000000E+00
  6.00000000E+02  8.00000000E+01  0.00000000E+00
  6.00000000E+02  6.00000000E+01  0.00000000E+00
  6.00000000E+02  4.00000000E+01  0.00000000E+00
  6.00000000E+02  2.00000000E+01  0.00000000E+00
  6.00000000E+02  4.99600361E-14  0.00000000E+00
CELLS       450      2250
         4           0           1          17          16
         4           1           2          18          17
         4           2           3          19          18
         4           3           4          20          19
         4           4           5          21          20
         4           5           6          22          21
         4           6           7          23          22
         4           7           8          24          23
         4           8           9          25          24
         4           9          10          26          25
         4          10          11          27          26
         4          11          12          28          27
         4          12          13          29          28
         4          13          14          30          29
         4          14          15          31          30
         4          16          17          33          32
         4          17          18          34          33
         4          18          19          35          34
         4          19          20          36          35
         4          20          21          37          36
         4          21          22          38          37
         4          22          23          39          38
         4          23          24          40          39
         4          24          25          41          40
         4          25          26          42          41
         4          26          27          43          42
         4          27          28          44          43
         4          28          29          45          44
         4          29          30          46          45
         4          30          31          47          46
         4          32          33          49          48
         4          33          34          50          49
         4          34          35          51          50
         4          35          36          52          51
         4          36          37          53          52
         4          37          38          54          53
         4          38          39          55          54
         4          39          40          56          55
         4          40          41          57          56
         4          41          42          58          57
         4          42          43          59          58
         4          43          44          60          59
         4          44          45          61          60
         4          45          46          62          61
         4          46          47          63          62
         4          48          49          65          64
         4          49          50          66          65
         4          50          51          67          66
         4          51          52          68          67
         4          52          53          69          68
         4          53          54          70          69
         4          54          55          71          70
         4          55          56          72          71
         4          56          57          73          72
         4          57          58          74          73
         4          58          59          75          74
         4          59          60          76          75
         4          60          61          77          76
         4          61          62          78          77
         4          62          63          79          78
         4          64          65          81          80
         4          65          66          82          81
         4          66          67          83          82
         4          67          68          84          83
         4          68          69          85          84
         4          69          70          86          85
         4          70          71          87          86
         4          71          72          88          87
         4          72          73          89          88
         4          73          74          90          89
         4          74          75          91          90
         4          75          76          92          91
         4          76          77          93          92
         4          77          78          94          93
         4          78          79          95          94
         4          80          81          97          96
         4          81          82          98          97
         4          82          83          99          98
         4          83          84         100          99
         4          84          85         101         100
         4          85          86         102         101
         4          86          87         103         102
         4          87          88         104         103
         4          88          89         105         104
         4          89          90         106         105
         4          90          91         107         106
         4          91          92         108         107
         4          92          93         109         108
         4          93          94         110         109
         4          94          95         111         110
         4          96          97         113         112
         4          97          98         114         113
         4          98          99         115         114
         4          99         100         116         115
         4         100         101         117         116
         4         101         102         118         117
         4         102         103         119         118
         4         103         104         120         119
         4         104         105         121         120
         4         105         106         122         121
         4         106         107         123         122
         4         107         108         124         123
         4         108         109         125         124
         4         109         110         126         125
         4         110         111         127         126
         4         112         113         129         128
         4         113         114         130         129
         4         114         115         131         130
         4         115         116         132         131
         4         116         117         133         132
         4         117         118         134         133
         4         118         119         135         134
         4         119         120         136         135
         4         120         121         137         136
         4         121         122         138         137
         4         122         123         139         138
         4         123         124         140         139
         4         124         125         141         140
         4         125         126         142         141
         4         126         127         143         142
         4         128         129         145         144
         4         129         130         146         145
         4         130         131         147         146
         4         131         132         148         147
         4         132         133         149         148
         4         133         134         150         149
         4         134         135         151         150
         4         135         136         152         151
         4         136         137         153         152
         4         137         138         154         153
         4         138         139         155         154
         4         139         140         156         155
         4         140         141         157         156
         4         141         142         158         157
         4         142         143         159         158
         4         144         145         161         160
         4         145         146         162         161
         4         146         147         163         162
         4         147         148         164         163
         4         148         149         165         164
         4         149         150         166         165
         4         150         151         167         166
         4         151         152         168         167
         4         152         153         169         168
         4         153         154         170         169
         4         154         155         171         170
         4         155         156         172         171
         4         156         157         173         172
         4         157         158         174         173
         4         158         159         175         174
         4         160         161         177         176
         4         161         162         178         177
         4         162         163         179         178
         4         163         164         180         179
         4         164         165         181         180
         4         165         166         182         181
         4         166         167         183         182
         4         167         168         184         183
         4         168         169         185         184
         4         169         170         186         185
         4         170         171         187         186
         4         171         172         188         187
         4         172         173         189         188
         4         173         174         190         189
         4         174         175         191         190
         4         176         177         193         192
         4         177         178         194         193
         4         178         179         195         194
         4         179         180         196         195
         4         180         181         197         196
         4         181         182         198         197
         4         182         183         199         198
         4         183         184         200         199
         4         184         185         201         200
         4         185         186         202         201
         4         186         187         203         202
         4         187         188         204         203
         4         188         189         205         204
         4         189         190         206         205
         4         190         191         207         206
         4         192         193         209         208
         4         193         194         210         209
         4         194         195         211         210
         4         195         196         212         211
         4         196         197         213         212
         4         197         198         214         213
         4         198         199         215         214
         4         199         200         216         215
         4         200         201         217         216
         4         201         202         218         217
         4         202         203         219         218
         4         203         204         220         219
         4         204         205         221         220
         4         205         206         222         221
         4         206         207         223         222
         4         208         209         225         224
         4         209         210         226         225
         4         210         211         227         226
         4         211         212         228         227
         4         212         213         229         228
         4         213         214         230         229
         4         214         215         231         230
         4         215         216         232         231
         4         216         217         233         232
         4         217         218         234         233
         4         218         219         235         234
         4         219         220         236         235
         4         220         221         237         236
         4         221         222         238         237
         4         222         223         239         238
         4         224         225         241         240
         4         225         226         242         241
         4         226         227         243         242
         4         227         228         244         243
         4         228         229         245         244
         4         229         230         246         245
         4         230         231         247         246
         4         231         232         248         247
         4         232         233         249         248
         4         233         234         250         249
         4         234         235         251         250
         4         235         236         252         251
         4         236         237         253         252
         4         237         238         254         253
         4         238         239         255         254
         4         240         241         257         256
         4         241         242         258         257
         4         242         243         259         258
         4         243         244         260         259
         4         244         245         261         260
         4         245         246         262         261
         4         246         247         263         262
         4         247         248         264         263
         4         248         249         265         264
         4         249         250         266         265
         4         250         251         267         266
         4         251         252         268         267
         4         252         253         269         268
         4         253         254         270         269
         4         254         255         271         270
         4         256         257         273         272
         4         257         258         274         273
         4         258         259         275         274
         4         259         260         276         275
         4         260         261         277         276
         4         261         262         278         277
         4         262         263         279         278
         4         263         264         280         279
         4         264         265         281         280
         4         265         266         282         281
         4         266         267         283         282
         4         267         268         284         283
         4         268         269         285         284
         4         269         270         286         285
         4         270         271         287         286
         4         272         273         289         288
         4         273         274         290         289
         4         274         275         291         290
         4         275         276         292         291
         4         276         277         293         292
         4         277         278         294         293
         4         278         279         295         294
         4         279         280         296         295
         4         280         281         297         296
         4         281         282         298         297
         4         282         283         299         298
         4         283         284         300         299
         4         284         285         301         300
         4         285         286         302         301
         4         286         287         303         302
         4         288         289         305         304
         4         289         290         306         305
         4         290         291         307         306
         4         291         292         308         307
         4         292         293         309         308
         4         293         294         310         309
         4         294         295         311         310
         4         295         296         312         311
         4         296         297         313         312
         4         297         298         314         313
         4         298         299         315         314
         4         299         300         316         315
         4         300         301         317         316
         4         301         302         318         317
         4         302         303         319         318
         4         304         305         321         320
         4         305         306         322         321
         4         306         307         323         322
         4         307         308         324         323
         4         308         309         325         324
         4         309         310         326         325
         4         310         311         327         326
         4         311         312         328         327
         4         312         313         329         328
         4         313         314         330         329
         4         314         315         331         330
         4         315         316         332         331
         4         316         317         333         332
         4         317         318         334         333
         4         318         319         335         334
         4         320         321         337         336
         4         321         322         338         337
         4         322         323         339         338
         4         323         324         340         339
         4         324         325         341         340
         4         325         326         342         341
         4         326         327         343         342
         4         327         328         344         343
         4         328         329         345         344
         4         329         330         346         345
         4         330         331         347         346
         4         331         332         348         347
         4         332         333         349         348
         4         333         334         350         349
         4         334         335         351         350
         4         336         337         353         352
         4         337         338         354         353
         4         338         339         355         354
         4         339         340         356         355
         4         340         341         357         356
         4         341         342         358         357
         4         342         343         359         358
         4         343         344         360         359
         4         344         345         361         360
         4         345         346         362         361
         4         346         347         363         362
         4         347         348         364         363
         4         348         349         365         364
         4         349         350         366         365
         4         350         351         367         366
         4         352         353         369         368
         4         353         354         370         369
         4         354         355         371         370
         4         355         356         372         371
         4         356         357         373         372
         4         357         358         374         373
         4         358         359         375         374
         4         359         360         376         375
         4         360         361         377         376
         4         361         362         378         377
         4         362         363         379         378
         4         363         364         380         379
         4         364         365         381         380
         4         365         366         382         381
         4         366         367         383         382
         4         368         369         385         384
         4         369         370         386         385
         4         370         371         387         386
         4         371         372         388         387
         4         372         373         389         388
         4         373         374         390         389
         4         374         375         391         390
         4         375         376         392         391
         4         376         377         393         392
         4         377         378         394         393
         4         378         379         395         394
         4         379         380         396         395
         4         380         381         397         396
         4         381         382         398         397
         4         382         383         399         398
         4         384         385         401         400
         4         385         386         402         401
         4         386         387         403         402
         4         387         388         404         403
         4         388         389         405         404
         4         389         390         406         405
         4         390         391         407         406
         4         391         392         408         407
         4         392         393         409         408
         4         393         394         410         409
         4         394         395         411         410
         4         395         396         412         411
         4         396         397         413         412
         4         397         398         414         413
         4         398         399         415         414
         4         400         401         417         416
         4         401         402         418         417
         4         402         403         419         418
         4         403         404         420         419
         4         404         405         421         420
         4         405         406         422         421
         4         406         407         423         422
         4         407         408         424         423
         4         408         409         425         424
         4         409         410         426         425
         4         410         411         427         426
         4         411         412         428         427
         4         412         413         429         428
         4         413         414         430         429
         4         414         415         431         430
         4         416         417         433         432
         4         417         418         434         433
         4         418         419         435         434
         4         419         420         436         435
         4         420         421         437         436
         4         421         422         438         437
         4         422         423         439         438
         4         423         424         440         439
         4         424         425         441         440
         4         425         426         442         441
         4         426         427         443         442
         4         427         428         444         443
         4         428         429         445         444
         4         429         430         446         445
         4         430         431         447         446
         4         432         433         449         448
         4         433         434         450         449
         4         434         435         451         450
         4         435         436         452         451
         4         436         437         453         452
         4         437         438         454         453
         4         438         439         455         454
         4         439         440         456         455
         4         440         441         457         456
         4         441         442         458         457
         4         442         443         459         458
         4         443         444         460         459
         4         444         445         461         460
         4         445         446         462         461
         4         446         447         463         462
         4         448         449         465         464
         4         449         450         466         465
         4         450         451         467         466
         4         451         452         468         467
         4         452         453         469         468
         4         453         454         470         469
         4         454         455         471         470
         4         455         456         472         471
         4         456         457         473         472
         4         457         458         474         473
         4         458         459         475         474
         4         459         460         476         475
         4         460         461         477         476
         4         461         462         478         477
         4         462         463         479         478
         4         464         465         481         480
         4         465         466         482         481
         4         466         467         483         482
         4         467         468         484         483
         4         468         469         485         484
         4         469         470         486         485
         4         470         471         487         486
         4         471         472         488         487
         4         472         473         489         488
         4         473         474         490         489
         4         474         475         491         490
         4         475         476         492         491
         4         476         477         493         492
         4         477         478         494         493
         4         478         479         495         494
CELL_TYPES        450
9
9
9
9
9
9
9
9
9
9
9
9
9
9
9
9
9
9
9
9
9
9
9
9
9
9
9
9
9
9
9
9
9
9
9
9
9
9
9
9
9
9
9
9
9
9
9
9
9
9
9
9
9
9
9
9
9
9
9
9
9
9
9
9
9
9
9
9
9
9
9
9
9
9
9
9
9
9
9
9
9
9
9
9
9
9
9
9
9
9
9
9
9
9
9
9
9
9
9
9
9
9
9
9
9
9
9
9
9
9
9
9
9
9
9
9
9
9
9
9
9
9
9
9
9
9
9
9
9
9
9
9
9
9
9
9
9
9
9
9
9
9
9
9
9
9
9
9
9
9
9
9
9
9
9
9
9
9
9
9
9
9
9
9
9
9
9
9
9
9
9
9
9
9
9
9
9
9
9
9
9
9
9
9
9
9
9
9
9
9
9
9
9
9
9
9
9
9
9
9
9
9
9
9
9
9
9
9
9
9
9
9
9
9
9
9
9
9
9
9
9
9
9
9
9
9
9
9
9
9
9
9
9
9
9
9
9
9
9
9
9
9
9
9
9
9
9
9
9
9
9
9
9
9
9
9
9
9
9
9
9
9
9
9
9
9
9
9
9
9
9
9
9
9
9
9
9
9
9
9
9
9
9
9
9
9
9
9
9
9
9
9
9
9
9
9
9
9
9
9
9
9
9
9
9
9
9
9
9
9
9
9
9
9
9
9
9
9
9
9
9
9
9
9
9
9
9
9
9
9
9
9
9
9
9
9
9
9
9
9
9
9
9
9
9
9
9
9
9
9
9
9
9
9
9
9
9
9
9
9
9
9
9
9
9
9
9
9
9
9
9
9
9
9
9
9
9
9
9
9
9
9
9
9
9
9
9
9
9
9
9
9
9
9
9
9
9
9
9
9
9
9
9
9
9
9
9
9
9
9
9
9
9
9
9
9
9
9
9
9
9
9
9
9
9
9
9
9
9
9
9
9
9
9
9
9
9
9
9
9
9
9
9
9
9
9
9
9
9
9
POINT_DATA       496
SCALARS p double 
LOOKUP_TABLE default
   10276207.4465975     
   10276163.9043276     
   10276045.2874425     
   10275867.1990175     
   10275644.0224835     
   10275388.9944647     
   10275114.2887564     
   10274831.1082576     
   10274549.7819137     
   10274279.8640162     
   10274030.2335183     
   10273809.1913579     
   10273624.5541301     
   10273483.7428051     
   10273393.8655609     
   10273361.7941789     
   10275815.0414397     
   10275771.5844162     
   10275653.2139082     
   10275475.5156921     
   10275252.8514829     
   10274998.4328841     
   10274724.4064051     
   10274441.9463375     
   10274161.3525400     
   10273892.1504672     
   10273643.1911003     
   10273422.7487713     
   10273238.6152187     
   10273098.1885736     
   10273008.5563388     
   10272976.5718096     
   10274638.9234934     
   10274595.7235441     
   10274478.0957473     
   10274301.5734090     
   10274080.4525615     
   10273827.8692663     
   10273555.8877540     
   10273275.5961400     
   10272997.2067315     
   10272730.1582421     
   10272483.2175654     
   10272264.5790946     
   10272081.9599286     
   10271942.6896569     
   10271853.7937823     
   10271822.0702161     
   10272682.3862207     
   10272639.6191752     
   10272523.2411388     
   10272348.6960493     
   10272130.1686835     
   10271880.6675966     
   10271612.1184930     
   10271335.4646856     
   10271060.7716012     
   10270797.3326289     
   10270553.7739486     
   10270338.1563299     
   10270158.0722423     
   10270020.7369662     
   10269933.0727554     
   10269901.7854618     
   10269950.9216841     
   10269908.7700232     
   10269794.1665722     
   10269622.4260967     
   10269407.5738587     
   10269162.4365436     
   10268898.7430097     
   10268627.2314018     
   10268357.7595288     
   10268099.4157699     
   10267860.6281466     
   10267649.2695582     
   10267472.7575305     
   10267338.1471714     
   10267252.2163676     
   10267221.5426077     
   10266452.2250539     
   10266410.8805269     
   10266298.6011782     
   10266130.5286745     
   10265920.4767237     
   10265681.0324335     
   10265423.6666290     
   10265158.8495457     
   10264896.1687293     
   10264644.4463914     
   10264411.8538692     
   10264206.0212142     
   10264034.1402839     
   10263903.0600410     
   10263819.3730827     
   10263789.4927460     
   10262196.2010616     
   10262155.8672447     
   10262046.4928850     
   10261882.9972321     
   10261678.9255141     
   10261446.5632784     
   10261197.0585169     
   10260940.5478594     
   10260686.2836113     
   10260442.7588902     
   10260217.8285512     
   10260018.8239818     
   10259852.6601930     
   10259725.9339371     
   10259645.0118683     
   10259616.1080402     
   10257194.9725505     
   10257155.8673064     
   10257050.0164998     
   10256892.0609209     
   10256695.2143865     
   10256471.3937289     
   10256231.3550096     
   10255984.8321131     
   10255740.6744731     
   10255506.9812281     
   10255291.2295883     
   10255100.3955978     
   10254941.0658097     
   10254819.5386608     
   10254741.9145618     
   10254714.1739388     
   10251462.8913325     
   10251425.2491166     
   10251323.5838564     
   10251172.1937185     
   10250983.8910452     
   10250770.1507779     
   10250541.2630611     
   10250306.4860861     
   10250074.1959454     
   10249852.0309078     
   10249647.0280526     
   10249465.7506242     
   10249314.4047751     
   10249198.9445804     
   10249125.1643587     
   10249098.7774625     
   10245016.5516276     
   10244980.6255589     
   10244883.8562183     
   10244740.1253894     
   10244561.7656281     
   10244359.7300114     
   10244143.7634279     
   10243922.5714178     
   10243703.9834316     
   10243495.1081142     
   10243302.4788209     
   10243132.1879965     
   10242990.0093254     
   10242881.5066925     
   10242812.1290354     
   10242787.2901669     
   10237874.8064431     
   10237840.8700361     
   10237749.7591884     
   10237614.8544076     
   10237447.9208093     
   10237259.3021669     
   10237058.1131305     
   10236852.4256449     
   10236649.4466344     
   10236455.6848952     
   10236277.1058024     
   10236119.2728790     
   10235987.4754906     
   10235886.8419503     
   10235822.4372017     
   10235799.3440645     
   10230058.7873486     
   10230027.1357653     
   10229942.5004531     
   10229817.6630163     
   10229663.7230934     
   10229490.3197317     
   10229305.8466597     
   10229117.6576057     
   10228932.2590747     
   10228755.4890299     
   10228592.6806856     
   10228448.8110604     
   10228328.6340763     
   10228236.7978547     
   10228177.9455260     
   10228156.7984350     
   10221591.9282237     
   10221562.8788685     
   10221485.5907861     
   10221372.1346688     
   10221232.8353023     
   10221076.5232919     
   10220910.7753099     
   10220742.1392619     
   10220576.3423158     
   10220418.4809852     
   10220273.1933312     
   10220144.8137901     
   10220037.5111600     
   10219955.4099286     
   10219902.6944965     
   10219883.6950728     
   10212499.9937016     
   10212473.8859373     
   10212404.8688604     
   10212304.1741832     
   10212181.2302987     
   10212043.9473270     
   10211898.9839493     
   10211751.9928360     
   10211607.8433952     
   10211470.8220936     
   10211344.8116197     
   10211233.4506012     
   10211140.2754531     
   10211068.8452977     
   10211022.8498740     
   10211006.1991107     
   10202811.1132166     
   10202788.3069273     
   10202728.5305686     
   10202642.0310591     
   10202537.2060491     
   10202420.9251357     
   10202298.8244466     
   10202175.5720084     
   10202055.1037379     
   10201940.8317929     
   10201835.8282226     
   10201742.9872881     
   10201665.1694718     
   10201605.3291766     
   10201566.6265644     
   10201552.5221302     
   10192555.8217898     
   10192536.6944604     
   10192487.1637540     
   10192416.3265541     
   10192331.4022099     
   10192238.0925769     
   10192140.9048888     
   10192043.4357407     
   10191948.6175745     
   10191858.9314610     
   10191776.5914068     
   10191703.7058098     
   10191642.4210447     
   10191595.0506314     
   10191564.1912031     
   10191552.8238347     
   10181767.1089828     
   10181752.0508971     
   10181713.7894954     
   10181660.0852963     
   10181596.8185076     
   10181528.3902903     
   10181458.0735997     
   10181388.3130845     
   10181320.9776132     
   10181257.5720498     
   10181199.4166193     
   10181147.8025043     
   10181104.1312763     
   10181070.0435738     
   10181047.5393290     
   10181039.0881455     
   10170480.4778265     
   10170469.8849079     
   10170443.9114128     
   10170408.7724307     
   10170368.8352712     
   10170327.0640127     
   10170285.3967992     
   10170245.0570748     
   10170206.8053998     
   10170171.1423833     
   10170138.4752474     
   10170109.2606395     
   10170084.1347261     
   10170064.0385774     
   10170050.3426591     
   10170044.9692216     
   10158734.0160494     
   10158728.2797663     
   10158715.5748558     
   10158700.3375321     
   10158685.2365093     
   10158671.6624426     
   10158660.1284482     
   10158650.5854465     
   10158642.6634373     
   10158635.8546555     
   10158629.6566581     
   10158623.6930590     
   10158617.8273002     
   10158612.2808450     
   10158607.7617154     
   10158605.6026410     
   10146568.4826501     
   10146567.9762638     
   10146569.4383496     
   10146575.2667422     
   10146586.2358205     
   10146602.0317342     
   10146621.6702910     
   10146643.8053777     
   10146666.9457073     
   10146689.6033780     
   10146710.3994588     
   10146728.1505896     
   10146741.9572795     
   10146751.3095709     
   10146756.2189596     
   10146757.3768886     
   10134027.4139197     
   10134032.4741186     
   10134048.8603171     
   10134076.6447132     
   10134114.5049910     
   10134160.3048521     
   10134211.5191367     
   10134265.5186284     
   10134319.7427161     
   10134371.7938691     
   10134419.4880400     
   10134460.8921282     
   10134494.3751613     
   10134518.6941392     
   10134533.1277351     
   10134537.6604271     
   10121157.2546577     
   10121168.1571987     
   10121200.0049001     
   10121250.2277677     
   10121315.2040001     
   10121390.8822996     
   10121473.1966447     
   10121558.3021239     
   10121642.6766031     
   10121723.1365228     
   10121796.8111230     
   10121861.1131873     
   10121913.7387854     
   10121952.7231991     
   10121976.5727667     
   10121984.4800342     
   10108007.5229786     
   10108024.4501448     
   10108071.9716754     
   10108144.5288047     
   10108236.0085998     
   10108340.3973312     
   10108452.1537136     
   10108566.3569497     
   10108678.7012492     
   10108785.4038854     
   10108883.0807335     
   10108968.6316410     
   10109039.1718932     
   10109092.0438246     
   10109124.9387305     
   10109136.1467424     
   10094631.0216505     
   10094654.0176920     
   10094716.9551167     
   10094810.9119690     
   10094927.1262457     
   10095057.6523572     
   10095195.6361314     
   10095335.3155845     
   10095471.8619387     
   10095601.1496156     
   10095719.5135996     
   10095823.5333161     
   10095909.8774208     
   10095975.2498840     
   10096016.4843709     
   10096030.8264076     
   10081084.1170978     
   10081113.0243647     
   10081190.4404033     
   10081303.6888674     
   10081441.2801921     
   10081593.5016109     
   10081752.4892667     
   10081911.9927875     
   10082067.0094253     
   10082213.3926982     
   10082347.4838383     
   10082465.7874249     
   10082564.7125465     
   10082640.4216897     
   10082688.8603590     
   10082706.0519988     
   10067427.1229504     
   10067461.4837367     
   10067551.4410380     
   10067680.1931325     
   10067833.6196851     
   10068000.6350722     
   10068172.8663637     
   10068344.0602732     
   10068509.4650698     
   10068665.2780956     
   10068808.1679207     
   10068934.8553516     
   10069041.7430735     
   10069124.6236439     
   10069178.5684269     
   10069198.1725560     
   10053724.8577490     
   10053763.7481676     
   10053862.7748612     
   10054000.7737373     
   10054161.4716518     
   10054333.1870014     
   10054507.7886631     
   10054679.6210780     
   10054844.6382621     
   10054999.7368646     
   10055142.2224843     
   10055269.3404635     
   10055377.8159939     
   10055463.3748546     
   10055520.3550161     
   10055541.7247065     
   10040047.5209633     
   10040089.2334842     
   10040191.3342317     
   10040328.5579393     
   10040483.7710401     
   10040646.0525884     
   10040808.4932403     
   10040966.6614505     
   10041117.6055668     
   10041259.1829016     
   10041389.5598206     
   10041506.7702206     
   10041608.2334764     
   10041690.1316346     
   10041746.5152354     
   10041768.6897522     
   10026472.2493676     
   10026513.5370594     
   10026608.1501675     
   10026728.6046496     
   10026859.8989243     
   10026993.7716694     
   10027125.5158098     
   10027252.3746838     
   10027372.6726725     
   10027485.2917662     
   10027589.3045296     
   10027683.6492125     
   10027766.7425704     
   10027835.8722874     
   10027886.0750392     
   10027907.4767386     
   10013086.2245488     
   10013120.3591925     
   10013187.1719268     
   10013265.6983421     
   10013347.6074336     
   10013428.8991698     
   10013507.5187478     
   10013582.3903655     
   10013652.9523761     
   10013718.8967379     
   10013779.9943530     
   10013835.9414980     
   10013886.1675413     
   10013929.4967188     
   10013963.3758285     
   10013981.5708931     
   10000000.0000000     
   10000000.0000000     
   10000000.0000000     
   10000000.0000000     
   10000000.0000000     
   10000000.0000000     
   10000000.0000000     
   10000000.0000000     
   10000000.0000000     
   10000000.0000000     
   10000000.0000000     
   10000000.0000000     
   10000000.0000000     
  10000000.00000000     
   10000000.0000000     
   10000000.0000000     
VECTORS u double 
    0.00000E+00        -0.57390E-01         0.00000E+00
    0.00000E+00        -0.53563E-01         0.00000E+00
    0.00000E+00        -0.49736E-01         0.00000E+00
    0.00000E+00        -0.45909E-01         0.00000E+00
    0.00000E+00        -0.42082E-01         0.00000E+00
    0.00000E+00        -0.38256E-01         0.00000E+00
    0.00000E+00        -0.34430E-01         0.00000E+00
    0.00000E+00        -0.30603E-01         0.00000E+00
    0.00000E+00        -0.26777E-01         0.00000E+00
    0.00000E+00        -0.22951E-01         0.00000E+00
    0.00000E+00        -0.19125E-01         0.00000E+00
    0.00000E+00        -0.15300E-01         0.00000E+00
    0.00000E+00        -0.11474E-01         0.00000E+00
    0.00000E+00        -0.76493E-02         0.00000E+00
    0.00000E+00        -0.38245E-02         0.00000E+00
    0.00000E+00         0.00000E+00         0.00000E+00
    0.91271E-05        -0.57390E-01         0.00000E+00
    0.83011E-05        -0.53563E-01         0.00000E+00
    0.75389E-05        -0.49736E-01         0.00000E+00
    0.68334E-05        -0.45909E-01         0.00000E+00
    0.61769E-05        -0.42083E-01         0.00000E+00
    0.55617E-05        -0.38256E-01         0.00000E+00
    0.49800E-05        -0.34430E-01         0.00000E+00
    0.44238E-05        -0.30604E-01         0.00000E+00
    0.38855E-05        -0.26777E-01         0.00000E+00
    0.33575E-05        -0.22951E-01         0.00000E+00
    0.28321E-05        -0.19126E-01         0.00000E+00
    0.23022E-05        -0.15300E-01         0.00000E+00
    0.17608E-05        -0.11475E-01         0.00000E+00
    0.12010E-05        -0.76494E-02         0.00000E+00
    0.61618E-06        -0.38245E-02         0.00000E+00
    0.00000E+00         0.00000E+00         0.00000E+00
    0.18196E-04        -0.57391E-01         0.00000E+00
    0.16547E-04        -0.53564E-01         0.00000E+00
    0.15026E-04        -0.49737E-01         0.00000E+00
    0.13619E-04        -0.45910E-01         0.00000E+00
    0.12310E-04        -0.42084E-01         0.00000E+00
    0.11084E-04        -0.38257E-01         0.00000E+00
    0.99242E-05        -0.34431E-01         0.00000E+00
    0.88160E-05        -0.30604E-01         0.00000E+00
    0.77436E-05        -0.26778E-01         0.00000E+00
    0.66915E-05        -0.22952E-01         0.00000E+00
    0.56448E-05        -0.19126E-01         0.00000E+00
    0.45891E-05        -0.15300E-01         0.00000E+00
    0.35101E-05        -0.11475E-01         0.00000E+00
    0.23943E-05        -0.76496E-02         0.00000E+00
    0.12286E-05        -0.38246E-02         0.00000E+00
    0.00000E+00         0.00000E+00         0.00000E+00
    0.27148E-04        -0.57394E-01         0.00000E+00
    0.24682E-04        -0.53566E-01         0.00000E+00
    0.22410E-04        -0.49739E-01         0.00000E+00
    0.20309E-04        -0.45912E-01         0.00000E+00
    0.18355E-04        -0.42085E-01         0.00000E+00
    0.16525E-04        -0.38259E-01         0.00000E+00
    0.14797E-04        -0.34432E-01         0.00000E+00
    0.13145E-04        -0.30606E-01         0.00000E+00
    0.11547E-04        -0.26779E-01         0.00000E+00
    0.99788E-05        -0.22953E-01         0.00000E+00
    0.84189E-05        -0.19127E-01         0.00000E+00
    0.68452E-05        -0.15301E-01         0.00000E+00
    0.52365E-05        -0.11475E-01         0.00000E+00
    0.35725E-05        -0.76500E-02         0.00000E+00
    0.18334E-05        -0.38248E-02         0.00000E+00
    0.00000E+00         0.00000E+00         0.00000E+00
    0.35924E-04        -0.57397E-01         0.00000E+00
    0.32652E-04        -0.53569E-01         0.00000E+00
    0.29639E-04        -0.49742E-01         0.00000E+00
    0.26854E-04        -0.45915E-01         0.00000E+00
    0.24268E-04        -0.42088E-01         0.00000E+00
    0.21848E-04        -0.38261E-01         0.00000E+00
    0.19562E-04        -0.34434E-01         0.00000E+00
    0.17379E-04        -0.30607E-01         0.00000E+00
    0.15267E-04        -0.26781E-01         0.00000E+00
    0.13196E-04        -0.22954E-01         0.00000E+00
    0.11135E-04        -0.19128E-01         0.00000E+00
    0.90555E-05        -0.15302E-01         0.00000E+00
    0.69288E-05        -0.11476E-01         0.00000E+00
    0.47280E-05        -0.76505E-02         0.00000E+00
    0.24268E-05        -0.38251E-02         0.00000E+00
    0.00000E+00         0.00000E+00         0.00000E+00
    0.44466E-04        -0.57400E-01         0.00000E+00
    0.40400E-04        -0.53573E-01         0.00000E+00
    0.36660E-04        -0.49745E-01         0.00000E+00
    0.33208E-04        -0.45918E-01         0.00000E+00
    0.30005E-04        -0.42091E-01         0.00000E+00
    0.27011E-04        -0.38264E-01         0.00000E+00
    0.24185E-04        -0.34437E-01         0.00000E+00
    0.21487E-04        -0.30610E-01         0.00000E+00
    0.18879E-04        -0.26783E-01         0.00000E+00
    0.16321E-04        -0.22956E-01         0.00000E+00
    0.13775E-04        -0.19130E-01         0.00000E+00
    0.11205E-04        -0.15303E-01         0.00000E+00
    0.85758E-05        -0.11477E-01         0.00000E+00
    0.58535E-05        -0.76511E-02         0.00000E+00
    0.30054E-05        -0.38254E-02         0.00000E+00
    0.00000E+00         0.00000E+00         0.00000E+00
    0.52715E-04        -0.57405E-01         0.00000E+00
    0.47871E-04        -0.53577E-01         0.00000E+00
    0.43423E-04        -0.49749E-01         0.00000E+00
    0.39322E-04        -0.45922E-01         0.00000E+00
    0.35523E-04        -0.42094E-01         0.00000E+00
    0.31975E-04        -0.38267E-01         0.00000E+00
    0.28629E-04        -0.34440E-01         0.00000E+00
    0.25439E-04        -0.30612E-01         0.00000E+00
    0.22354E-04        -0.26785E-01         0.00000E+00
    0.19329E-04        -0.22958E-01         0.00000E+00
    0.16319E-04        -0.19131E-01         0.00000E+00
    0.13279E-04        -0.15305E-01         0.00000E+00
    0.10167E-04        -0.11478E-01         0.00000E+00
    0.69418E-05        -0.76518E-02         0.00000E+00
    0.35654E-05        -0.38258E-02         0.00000E+00
    0.00000E+00         0.00000E+00         0.00000E+00
    0.60609E-04        -0.57411E-01         0.00000E+00
    0.55009E-04        -0.53582E-01         0.00000E+00
    0.49874E-04        -0.49754E-01         0.00000E+00
    0.45149E-04        -0.45926E-01         0.00000E+00
    0.40777E-04        -0.42099E-01         0.00000E+00
    0.36700E-04        -0.38271E-01         0.00000E+00
    0.32861E-04        -0.34443E-01         0.00000E+00
    0.29202E-04        -0.30616E-01         0.00000E+00
    0.25667E-04        -0.26788E-01         0.00000E+00
    0.22201E-04        -0.22961E-01         0.00000E+00
    0.18750E-04        -0.19134E-01         0.00000E+00
    0.15263E-04        -0.15306E-01         0.00000E+00
    0.11691E-04        -0.11479E-01         0.00000E+00
    0.79860E-05        -0.76527E-02         0.00000E+00
    0.41035E-05        -0.38262E-02         0.00000E+00
    0.00000E+00         0.00000E+00         0.00000E+00
    0.68090E-04        -0.57417E-01         0.00000E+00
    0.61757E-04        -0.53588E-01         0.00000E+00
    0.55961E-04        -0.49760E-01         0.00000E+00
    0.50639E-04        -0.45932E-01         0.00000E+00
    0.45724E-04        -0.42103E-01         0.00000E+00
    0.41148E-04        -0.38275E-01         0.00000E+00
    0.36845E-04        -0.34447E-01         0.00000E+00
    0.32748E-04        -0.30619E-01         0.00000E+00
    0.28791E-04        -0.26791E-01         0.00000E+00
    0.24912E-04        -0.22964E-01         0.00000E+00
    0.21049E-04        -0.19136E-01         0.00000E+00
    0.17143E-04        -0.15308E-01         0.00000E+00
    0.13138E-04        -0.11481E-01         0.00000E+00
    0.89794E-05        -0.76537E-02         0.00000E+00
    0.46164E-05        -0.38267E-02         0.00000E+00
    0.00000E+00         0.00000E+00         0.00000E+00
    0.75095E-04        -0.57424E-01         0.00000E+00
    0.68058E-04        -0.53595E-01         0.00000E+00
    0.61633E-04        -0.49766E-01         0.00000E+00
    0.55746E-04        -0.45937E-01         0.00000E+00
    0.50321E-04        -0.42109E-01         0.00000E+00
    0.45281E-04        -0.38280E-01         0.00000E+00
    0.40547E-04        -0.34452E-01         0.00000E+00
    0.36046E-04        -0.30623E-01         0.00000E+00
    0.31701E-04        -0.26795E-01         0.00000E+00
    0.27442E-04        -0.22967E-01         0.00000E+00
    0.23199E-04        -0.19139E-01         0.00000E+00
    0.18906E-04        -0.15311E-01         0.00000E+00
    0.14498E-04        -0.11483E-01         0.00000E+00
    0.99155E-05        -0.76549E-02         0.00000E+00
    0.51010E-05        -0.38273E-02         0.00000E+00
    0.00000E+00         0.00000E+00         0.00000E+00
    0.81563E-04        -0.57432E-01         0.00000E+00
    0.73854E-04        -0.53602E-01         0.00000E+00
    0.66835E-04        -0.49773E-01         0.00000E+00
    0.60422E-04        -0.45944E-01         0.00000E+00
    0.54525E-04        -0.42115E-01         0.00000E+00
    0.49058E-04        -0.38286E-01         0.00000E+00
    0.43934E-04        -0.34457E-01         0.00000E+00
    0.39067E-04        -0.30628E-01         0.00000E+00
    0.34373E-04        -0.26799E-01         0.00000E+00
    0.29771E-04        -0.22970E-01         0.00000E+00
    0.25184E-04        -0.19142E-01         0.00000E+00
    0.20538E-04        -0.15313E-01         0.00000E+00
    0.15762E-04        -0.11484E-01         0.00000E+00
    0.10788E-04        -0.76561E-02         0.00000E+00
    0.55543E-05        -0.38279E-02         0.00000E+00
    0.00000E+00         0.00000E+00         0.00000E+00
    0.87431E-04        -0.57440E-01         0.00000E+00
    0.79088E-04        -0.53610E-01         0.00000E+00
    0.71516E-04        -0.49781E-01         0.00000E+00
    0.64617E-04        -0.45951E-01         0.00000E+00
    0.58293E-04        -0.42121E-01         0.00000E+00
    0.52444E-04        -0.38292E-01         0.00000E+00
    0.46972E-04        -0.34462E-01         0.00000E+00
    0.41782E-04        -0.30633E-01         0.00000E+00
    0.36781E-04        -0.26804E-01         0.00000E+00
    0.31878E-04        -0.22974E-01         0.00000E+00
    0.26987E-04        -0.19145E-01         0.00000E+00
    0.22028E-04        -0.15316E-01         0.00000E+00
    0.16920E-04        -0.11486E-01         0.00000E+00
    0.11592E-04        -0.76575E-02         0.00000E+00
    0.59735E-05        -0.38286E-02         0.00000E+00
    0.00000E+00         0.00000E+00         0.00000E+00
    0.92636E-04        -0.57449E-01         0.00000E+00
    0.83702E-04        -0.53619E-01         0.00000E+00
    0.75622E-04        -0.49789E-01         0.00000E+00
    0.68286E-04        -0.45959E-01         0.00000E+00
    0.61582E-04        -0.42129E-01         0.00000E+00
    0.55400E-04        -0.38298E-01         0.00000E+00
    0.49629E-04        -0.34468E-01         0.00000E+00
    0.44164E-04        -0.30638E-01         0.00000E+00
    0.38901E-04        -0.26808E-01         0.00000E+00
    0.33743E-04        -0.22978E-01         0.00000E+00
    0.28593E-04        -0.19148E-01         0.00000E+00
    0.23362E-04        -0.15319E-01         0.00000E+00
    0.17965E-04        -0.11489E-01         0.00000E+00
    0.12321E-04        -0.76589E-02         0.00000E+00
    0.63560E-05        -0.38294E-02         0.00000E+00
    0.00000E+00         0.00000E+00         0.00000E+00
    0.97112E-04        -0.57459E-01         0.00000E+00
    0.87637E-04        -0.53628E-01         0.00000E+00
    0.79101E-04        -0.49797E-01         0.00000E+00
    0.71381E-04        -0.45967E-01         0.00000E+00
    0.64352E-04        -0.42136E-01         0.00000E+00
    0.57889E-04        -0.38305E-01         0.00000E+00
    0.51873E-04        -0.34475E-01         0.00000E+00
    0.46185E-04        -0.30644E-01         0.00000E+00
    0.40712E-04        -0.26813E-01         0.00000E+00
    0.35347E-04        -0.22983E-01         0.00000E+00
    0.29985E-04        -0.19152E-01         0.00000E+00
    0.24529E-04        -0.15322E-01         0.00000E+00
    0.18886E-04        -0.11491E-01         0.00000E+00
    0.12970E-04        -0.76605E-02         0.00000E+00
    0.66995E-05        -0.38302E-02         0.00000E+00
    0.00000E+00         0.00000E+00         0.00000E+00
    0.10079E-03        -0.57469E-01         0.00000E+00
    0.90833E-04        -0.53638E-01         0.00000E+00
    0.81900E-04        -0.49806E-01         0.00000E+00
    0.73855E-04        -0.45975E-01         0.00000E+00
    0.66560E-04        -0.42144E-01         0.00000E+00
    0.59876E-04        -0.38313E-01         0.00000E+00
    0.53672E-04        -0.34482E-01         0.00000E+00
    0.47818E-04        -0.30650E-01         0.00000E+00
    0.42190E-04        -0.26819E-01         0.00000E+00
    0.36672E-04        -0.22987E-01         0.00000E+00
    0.31149E-04        -0.19156E-01         0.00000E+00
    0.25518E-04        -0.15325E-01         0.00000E+00
    0.19677E-04        -0.11493E-01         0.00000E+00
    0.13534E-04        -0.76622E-02         0.00000E+00
    0.70014E-05        -0.38310E-02         0.00000E+00
    0.00000E+00         0.00000E+00         0.00000E+00
    0.10362E-03        -0.57480E-01         0.00000E+00
    0.93233E-04        -0.53648E-01         0.00000E+00
    0.83966E-04        -0.49816E-01         0.00000E+00
    0.75662E-04        -0.45984E-01         0.00000E+00
    0.68166E-04        -0.42152E-01         0.00000E+00
    0.61327E-04        -0.38320E-01         0.00000E+00
    0.54997E-04        -0.34489E-01         0.00000E+00
    0.49038E-04        -0.30657E-01         0.00000E+00
    0.43314E-04        -0.26824E-01         0.00000E+00
    0.37699E-04        -0.22992E-01         0.00000E+00
    0.32071E-04        -0.19160E-01         0.00000E+00
    0.26317E-04        -0.15328E-01         0.00000E+00
    0.20329E-04        -0.11496E-01         0.00000E+00
    0.14008E-04        -0.76639E-02         0.00000E+00
    0.72596E-05        -0.38319E-02         0.00000E+00
    0.00000E+00         0.00000E+00         0.00000E+00
    0.10551E-03        -0.57491E-01         0.00000E+00
    0.94776E-04        -0.53658E-01         0.00000E+00
    0.85249E-04        -0.49826E-01         0.00000E+00
    0.76758E-04        -0.45994E-01         0.00000E+00
    0.69132E-04        -0.42161E-01         0.00000E+00
    0.62206E-04        -0.38328E-01         0.00000E+00
    0.55819E-04        -0.34496E-01         0.00000E+00
    0.49819E-04        -0.30663E-01         0.00000E+00
    0.44061E-04        -0.26830E-01         0.00000E+00
    0.38410E-04        -0.22997E-01         0.00000E+00
    0.32735E-04        -0.19165E-01         0.00000E+00
    0.26915E-04        -0.15332E-01         0.00000E+00
    0.20834E-04        -0.11499E-01         0.00000E+00
    0.14386E-04        -0.76657E-02         0.00000E+00
    0.74715E-05        -0.38328E-02         0.00000E+00
    0.00000E+00         0.00000E+00         0.00000E+00
    0.10642E-03        -0.57503E-01         0.00000E+00
    0.95405E-04        -0.53669E-01         0.00000E+00
    0.85697E-04        -0.49836E-01         0.00000E+00
    0.77098E-04        -0.46003E-01         0.00000E+00
    0.69420E-04        -0.42170E-01         0.00000E+00
    0.62481E-04        -0.38337E-01         0.00000E+00
    0.56108E-04        -0.34503E-01         0.00000E+00
    0.50136E-04        -0.30670E-01         0.00000E+00
    0.44411E-04        -0.26836E-01         0.00000E+00
    0.38787E-04        -0.23003E-01         0.00000E+00
    0.33126E-04        -0.19169E-01         0.00000E+00
    0.27299E-04        -0.15335E-01         0.00000E+00
    0.21183E-04        -0.11501E-01         0.00000E+00
    0.14663E-04        -0.76675E-02         0.00000E+00
    0.76346E-05        -0.38337E-02         0.00000E+00
    0.00000E+00         0.00000E+00         0.00000E+00
    0.10626E-03        -0.57514E-01         0.00000E+00
    0.95061E-04        -0.53681E-01         0.00000E+00
    0.85260E-04        -0.49847E-01         0.00000E+00
    0.76641E-04        -0.46013E-01         0.00000E+00
    0.68994E-04        -0.42179E-01         0.00000E+00
    0.62123E-04        -0.38345E-01         0.00000E+00
    0.55839E-04        -0.34511E-01         0.00000E+00
    0.49967E-04        -0.30677E-01         0.00000E+00
    0.44343E-04        -0.26842E-01         0.00000E+00
    0.38812E-04        -0.23008E-01         0.00000E+00
    0.33229E-04        -0.19173E-01         0.00000E+00
    0.27457E-04        -0.15339E-01         0.00000E+00
    0.21365E-04        -0.11504E-01         0.00000E+00
    0.14833E-04        -0.76694E-02         0.00000E+00
    0.77459E-05        -0.38347E-02         0.00000E+00
    0.00000E+00         0.00000E+00         0.00000E+00
    0.10497E-03        -0.57526E-01         0.00000E+00
    0.93689E-04        -0.53692E-01         0.00000E+00
    0.83893E-04        -0.49858E-01         0.00000E+00
    0.75347E-04        -0.46023E-01         0.00000E+00
    0.67821E-04        -0.42188E-01         0.00000E+00
    0.61100E-04        -0.38354E-01         0.00000E+00
    0.54984E-04        -0.34519E-01         0.00000E+00
    0.49286E-04        -0.30684E-01         0.00000E+00
    0.43833E-04        -0.26849E-01         0.00000E+00
    0.38463E-04        -0.23013E-01         0.00000E+00
    0.33025E-04        -0.19178E-01         0.00000E+00
    0.27372E-04        -0.15343E-01         0.00000E+00
    0.21370E-04        -0.11507E-01         0.00000E+00
    0.14887E-04        -0.76713E-02         0.00000E+00
    0.78014E-05        -0.38357E-02         0.00000E+00
    0.00000E+00         0.00000E+00         0.00000E+00
    0.10249E-03        -0.57539E-01         0.00000E+00
    0.91233E-04        -0.53704E-01         0.00000E+00
    0.81550E-04        -0.49868E-01         0.00000E+00
    0.73179E-04        -0.46033E-01         0.00000E+00
    0.65869E-04        -0.42198E-01         0.00000E+00
    0.59388E-04        -0.38362E-01         0.00000E+00
    0.53520E-04        -0.34527E-01         0.00000E+00
    0.48071E-04        -0.30691E-01         0.00000E+00
    0.42861E-04        -0.26855E-01         0.00000E+00
    0.37721E-04        -0.23019E-01         0.00000E+00
    0.32493E-04        -0.19183E-01         0.00000E+00
    0.27029E-04        -0.15346E-01         0.00000E+00
    0.21183E-04        -0.11510E-01         0.00000E+00
    0.14816E-04        -0.76732E-02         0.00000E+00
    0.77965E-05        -0.38366E-02         0.00000E+00
    0.00000E+00         0.00000E+00         0.00000E+00
    0.98755E-04        -0.57551E-01         0.00000E+00
    0.87643E-04        -0.53715E-01         0.00000E+00
    0.78192E-04        -0.49879E-01         0.00000E+00
    0.70106E-04        -0.46043E-01         0.00000E+00
    0.63112E-04        -0.42207E-01         0.00000E+00
    0.56960E-04        -0.38371E-01         0.00000E+00
    0.51423E-04        -0.34534E-01         0.00000E+00
    0.46298E-04        -0.30698E-01         0.00000E+00
    0.41400E-04        -0.26861E-01         0.00000E+00
    0.36558E-04        -0.23024E-01         0.00000E+00
    0.31611E-04        -0.19187E-01         0.00000E+00
    0.26404E-04        -0.15350E-01         0.00000E+00
    0.20785E-04        -0.11513E-01         0.00000E+00
    0.14607E-04        -0.76751E-02         0.00000E+00
    0.77243E-05        -0.38376E-02         0.00000E+00
    0.00000E+00         0.00000E+00         0.00000E+00
    0.93696E-04        -0.57563E-01         0.00000E+00
    0.82871E-04        -0.53726E-01         0.00000E+00
    0.73782E-04        -0.49890E-01         0.00000E+00
    0.66101E-04        -0.46053E-01         0.00000E+00
    0.59528E-04        -0.42216E-01         0.00000E+00
    0.53796E-04        -0.38379E-01         0.00000E+00
    0.48671E-04        -0.34542E-01         0.00000E+00
    0.43943E-04        -0.30704E-01         0.00000E+00
    0.39425E-04        -0.26867E-01         0.00000E+00
    0.34948E-04        -0.23029E-01         0.00000E+00
    0.30348E-04        -0.19191E-01         0.00000E+00
    0.25469E-04        -0.15353E-01         0.00000E+00
    0.20153E-04        -0.11515E-01         0.00000E+00
    0.14242E-04        -0.76770E-02         0.00000E+00
    0.75761E-05        -0.38386E-02         0.00000E+00
    0.00000E+00         0.00000E+00         0.00000E+00
    0.87258E-04        -0.57574E-01         0.00000E+00
    0.76877E-04        -0.53737E-01         0.00000E+00
    0.68293E-04        -0.49900E-01         0.00000E+00
    0.61143E-04        -0.46062E-01         0.00000E+00
    0.55099E-04        -0.42225E-01         0.00000E+00
    0.49879E-04        -0.38387E-01         0.00000E+00
    0.45242E-04        -0.34549E-01         0.00000E+00
    0.40978E-04        -0.30711E-01         0.00000E+00
    0.36905E-04        -0.26872E-01         0.00000E+00
    0.32854E-04        -0.23034E-01         0.00000E+00
    0.28669E-04        -0.19195E-01         0.00000E+00
    0.24190E-04        -0.15357E-01         0.00000E+00
    0.19256E-04        -0.11518E-01         0.00000E+00
    0.13698E-04        -0.76788E-02         0.00000E+00
    0.73393E-05        -0.38395E-02         0.00000E+00
    0.00000E+00         0.00000E+00         0.00000E+00
    0.79386E-04        -0.57585E-01         0.00000E+00
    0.69625E-04        -0.53748E-01         0.00000E+00
    0.61706E-04        -0.49910E-01         0.00000E+00
    0.55220E-04        -0.46071E-01         0.00000E+00
    0.49814E-04        -0.42233E-01         0.00000E+00
    0.45193E-04        -0.38394E-01         0.00000E+00
    0.41115E-04        -0.34555E-01         0.00000E+00
    0.37376E-04        -0.30717E-01         0.00000E+00
    0.33802E-04        -0.26878E-01         0.00000E+00
    0.30237E-04        -0.23039E-01         0.00000E+00
    0.26527E-04        -0.19199E-01         0.00000E+00
    0.22521E-04        -0.15360E-01         0.00000E+00
    0.18054E-04        -0.11520E-01         0.00000E+00
    0.12945E-04        -0.76805E-02         0.00000E+00
    0.69971E-05        -0.38404E-02         0.00000E+00
    0.00000E+00         0.00000E+00         0.00000E+00
    0.70032E-04        -0.57596E-01         0.00000E+00
    0.61092E-04        -0.53757E-01         0.00000E+00
    0.54013E-04        -0.49919E-01         0.00000E+00
    0.48333E-04        -0.46080E-01         0.00000E+00
    0.43671E-04        -0.42240E-01         0.00000E+00
    0.39727E-04        -0.38401E-01         0.00000E+00
    0.36268E-04        -0.34562E-01         0.00000E+00
    0.33103E-04        -0.30722E-01         0.00000E+00
    0.30076E-04        -0.26882E-01         0.00000E+00
    0.27043E-04        -0.23043E-01         0.00000E+00
    0.23867E-04        -0.19203E-01         0.00000E+00
    0.20404E-04        -0.15363E-01         0.00000E+00
    0.16491E-04        -0.11523E-01         0.00000E+00
    0.11939E-04        -0.76820E-02         0.00000E+00
    0.65254E-05        -0.38412E-02         0.00000E+00
    0.00000E+00         0.00000E+00         0.00000E+00
    0.59152E-04        -0.57605E-01         0.00000E+00
    0.51270E-04        -0.53766E-01         0.00000E+00
    0.45225E-04        -0.49927E-01         0.00000E+00
    0.40492E-04        -0.46087E-01         0.00000E+00
    0.36671E-04        -0.42247E-01         0.00000E+00
    0.33470E-04        -0.38407E-01         0.00000E+00
    0.30675E-04        -0.34567E-01         0.00000E+00
    0.28122E-04        -0.30727E-01         0.00000E+00
    0.25675E-04        -0.26887E-01         0.00000E+00
    0.23214E-04        -0.23046E-01         0.00000E+00
    0.20620E-04        -0.19206E-01         0.00000E+00
    0.17765E-04        -0.15365E-01         0.00000E+00
    0.14496E-04        -0.11525E-01         0.00000E+00
    0.10621E-04        -0.76834E-02         0.00000E+00
    0.58904E-05        -0.38419E-02         0.00000E+00
    0.00000E+00         0.00000E+00         0.00000E+00
    0.46714E-04        -0.57614E-01         0.00000E+00
    0.40169E-04        -0.53774E-01         0.00000E+00
    0.35372E-04        -0.49934E-01         0.00000E+00
    0.31723E-04        -0.46093E-01         0.00000E+00
    0.28820E-04        -0.42252E-01         0.00000E+00
    0.26405E-04        -0.38412E-01         0.00000E+00
    0.24303E-04        -0.34571E-01         0.00000E+00
    0.22383E-04        -0.30731E-01         0.00000E+00
    0.20540E-04        -0.26890E-01         0.00000E+00
    0.18678E-04        -0.23049E-01         0.00000E+00
    0.16705E-04        -0.19208E-01         0.00000E+00
    0.14514E-04        -0.15367E-01         0.00000E+00
    0.11977E-04        -0.11526E-01         0.00000E+00
    0.89085E-05        -0.76847E-02         0.00000E+00
    0.50419E-05        -0.38426E-02         0.00000E+00
    0.00000E+00         0.00000E+00         0.00000E+00
    0.32692E-04        -0.57621E-01         0.00000E+00
    0.27840E-04        -0.53780E-01         0.00000E+00
    0.24514E-04        -0.49939E-01         0.00000E+00
    0.22053E-04        -0.46098E-01         0.00000E+00
    0.20113E-04        -0.42257E-01         0.00000E+00
    0.18506E-04        -0.38416E-01         0.00000E+00
    0.17108E-04        -0.34574E-01         0.00000E+00
    0.15830E-04        -0.30733E-01         0.00000E+00
    0.14601E-04        -0.26892E-01         0.00000E+00
    0.13355E-04        -0.23051E-01         0.00000E+00
    0.12029E-04        -0.19210E-01         0.00000E+00
    0.10547E-04        -0.15369E-01         0.00000E+00
    0.88138E-05        -0.11528E-01         0.00000E+00
    0.66848E-05        -0.76857E-02         0.00000E+00
    0.39006E-05        -0.38432E-02         0.00000E+00
    0.00000E+00         0.00000E+00         0.00000E+00
    0.17082E-04        -0.57626E-01         0.00000E+00
    0.14394E-04        -0.53784E-01         0.00000E+00
    0.12721E-04        -0.49943E-01         0.00000E+00
    0.11491E-04        -0.46101E-01         0.00000E+00
    0.10526E-04        -0.42259E-01         0.00000E+00
    0.97263E-05        -0.38418E-01         0.00000E+00
    0.90309E-05        -0.34576E-01         0.00000E+00
    0.83946E-05        -0.30735E-01         0.00000E+00
    0.77814E-05        -0.26894E-01         0.00000E+00
    0.71588E-05        -0.23053E-01         0.00000E+00
    0.64937E-05        -0.19211E-01         0.00000E+00
    0.57477E-05        -0.15370E-01         0.00000E+00
    0.48699E-05        -0.11528E-01         0.00000E+00
    0.37794E-05        -0.76863E-02         0.00000E+00
    0.23243E-05        -0.38436E-02         0.00000E+00
    0.00000E+00         0.00000E+00         0.00000E+00
    0.00000E+00        -0.57628E-01         0.00000E+00
    0.00000E+00        -0.53786E-01         0.00000E+00
    0.00000E+00        -0.49944E-01         0.00000E+00
    0.00000E+00        -0.46102E-01         0.00000E+00
    0.00000E+00        -0.42260E-01         0.00000E+00
    0.00000E+00        -0.38419E-01         0.00000E+00
    0.00000E+00        -0.34577E-01         0.00000E+00
    0.00000E+00        -0.30736E-01         0.00000E+00
    0.00000E+00        -0.26894E-01         0.00000E+00
    0.00000E+00        -0.23053E-01         0.00000E+00
    0.00000E+00        -0.19212E-01         0.00000E+00
    0.00000E+00        -0.15370E-01         0.00000E+00
    0.00000E+00        -0.11529E-01         0.00000E+00
    0.00000E+00        -0.76866E-02         0.00000E+00
    0.00000E+00        -0.38438E-02         0.00000E+00
    0.00000E+00         0.00000E+00         0.00000E+00
CELL_DATA        450
VECTORS vDarcy double 
    0.22350E-09        -0.24779E-10         0.00000E+00
    0.22341E-09        -0.67498E-10         0.00000E+00
    0.22323E-09        -0.10133E-09         0.00000E+00
    0.22297E-09        -0.12698E-09         0.00000E+00
    0.22265E-09        -0.14510E-09         0.00000E+00
    0.22228E-09        -0.15629E-09         0.00000E+00
    0.22188E-09        -0.16110E-09         0.00000E+00
    0.22147E-09        -0.16004E-09         0.00000E+00
    0.22106E-09        -0.15355E-09         0.00000E+00
    0.22066E-09        -0.14201E-09         0.00000E+00
    0.22030E-09        -0.12574E-09         0.00000E+00
    0.21998E-09        -0.10503E-09         0.00000E+00
    0.21973E-09        -0.80100E-10         0.00000E+00
    0.21955E-09        -0.51127E-10         0.00000E+00
    0.21946E-09        -0.18244E-10         0.00000E+00
    0.66988E-09        -0.24681E-10         0.00000E+00
    0.66959E-09        -0.67216E-10         0.00000E+00
    0.66905E-09        -0.10089E-09         0.00000E+00
    0.66827E-09        -0.12640E-09         0.00000E+00
    0.66731E-09        -0.14440E-09         0.00000E+00
    0.66620E-09        -0.15551E-09         0.00000E+00
    0.66500E-09        -0.16028E-09         0.00000E+00
    0.66376E-09        -0.15921E-09         0.00000E+00
    0.66252E-09        -0.15273E-09         0.00000E+00
    0.66133E-09        -0.14124E-09         0.00000E+00
    0.66024E-09        -0.12506E-09         0.00000E+00
    0.65929E-09        -0.10446E-09         0.00000E+00
    0.65853E-09        -0.79662E-10         0.00000E+00
    0.65799E-09        -0.50847E-10         0.00000E+00
    0.65771E-09        -0.18145E-10         0.00000E+00
    0.11144E-08        -0.24485E-10         0.00000E+00
    0.11139E-08        -0.66648E-10         0.00000E+00
    0.11130E-08        -0.99989E-10         0.00000E+00
    0.11117E-08        -0.12522E-09         0.00000E+00
    0.11101E-08        -0.14300E-09         0.00000E+00
    0.11082E-08        -0.15395E-09         0.00000E+00
    0.11062E-08        -0.15863E-09         0.00000E+00
    0.11041E-08        -0.15753E-09         0.00000E+00
    0.11020E-08        -0.15109E-09         0.00000E+00
    0.11000E-08        -0.13970E-09         0.00000E+00
    0.10982E-08        -0.12368E-09         0.00000E+00
    0.10966E-08        -0.10330E-09         0.00000E+00
    0.10953E-08        -0.78781E-10         0.00000E+00
    0.10944E-08        -0.50287E-10         0.00000E+00
    0.10940E-08        -0.17946E-10         0.00000E+00
    0.15557E-08        -0.24186E-10         0.00000E+00
    0.15551E-08        -0.65787E-10         0.00000E+00
    0.15538E-08        -0.98627E-10         0.00000E+00
    0.15519E-08        -0.12343E-09         0.00000E+00
    0.15496E-08        -0.14088E-09         0.00000E+00
    0.15470E-08        -0.15159E-09         0.00000E+00
    0.15442E-08        -0.15613E-09         0.00000E+00
    0.15412E-08        -0.15499E-09         0.00000E+00
    0.15383E-08        -0.14861E-09         0.00000E+00
    0.15354E-08        -0.13738E-09         0.00000E+00
    0.15329E-08        -0.12161E-09         0.00000E+00
    0.15306E-08        -0.10156E-09         0.00000E+00
    0.15289E-08        -0.77454E-10         0.00000E+00
    0.15276E-08        -0.49442E-10         0.00000E+00
    0.15269E-08        -0.17647E-10         0.00000E+00
    0.19927E-08        -0.23781E-10         0.00000E+00
    0.19918E-08        -0.64620E-10         0.00000E+00
    0.19901E-08        -0.96784E-10         0.00000E+00
    0.19877E-08        -0.12102E-09         0.00000E+00
    0.19847E-08        -0.13802E-09         0.00000E+00
    0.19813E-08        -0.14841E-09         0.00000E+00
    0.19776E-08        -0.15275E-09         0.00000E+00
    0.19738E-08        -0.15156E-09         0.00000E+00
    0.19699E-08        -0.14527E-09         0.00000E+00
    0.19663E-08        -0.13426E-09         0.00000E+00
    0.19629E-08        -0.11882E-09         0.00000E+00
    0.19600E-08        -0.99227E-10         0.00000E+00
    0.19577E-08        -0.75672E-10         0.00000E+00
    0.19561E-08        -0.48309E-10         0.00000E+00
    0.19552E-08        -0.17247E-10         0.00000E+00
    0.24241E-08        -0.23263E-10         0.00000E+00
    0.24230E-08        -0.63130E-10         0.00000E+00
    0.24208E-08        -0.94435E-10         0.00000E+00
    0.24178E-08        -0.11795E-09         0.00000E+00
    0.24141E-08        -0.13438E-09         0.00000E+00
    0.24098E-08        -0.14436E-09         0.00000E+00
    0.24052E-08        -0.14848E-09         0.00000E+00
    0.24005E-08        -0.14723E-09         0.00000E+00
    0.23957E-08        -0.14105E-09         0.00000E+00
    0.23912E-08        -0.13031E-09         0.00000E+00
    0.23871E-08        -0.11530E-09         0.00000E+00
    0.23835E-08        -0.96280E-10         0.00000E+00
    0.23806E-08        -0.73427E-10         0.00000E+00
    0.23786E-08        -0.46883E-10         0.00000E+00
    0.23775E-08        -0.16743E-10         0.00000E+00
    0.28485E-08        -0.22625E-10         0.00000E+00
    0.28471E-08        -0.61299E-10         0.00000E+00
    0.28446E-08        -0.91554E-10         0.00000E+00
    0.28409E-08        -0.11419E-09         0.00000E+00
    0.28364E-08        -0.12993E-09         0.00000E+00
    0.28313E-08        -0.13943E-09         0.00000E+00
    0.28258E-08        -0.14327E-09         0.00000E+00
    0.28200E-08        -0.14196E-09         0.00000E+00
    0.28144E-08        -0.13592E-09         0.00000E+00
    0.28089E-08        -0.12551E-09         0.00000E+00
    0.28040E-08        -0.11103E-09         0.00000E+00
    0.27997E-08        -0.92705E-10         0.00000E+00
    0.27963E-08        -0.70706E-10         0.00000E+00
    0.27939E-08        -0.45156E-10         0.00000E+00
    0.27926E-08        -0.16133E-10         0.00000E+00
    0.32647E-08        -0.21859E-10         0.00000E+00
    0.32631E-08        -0.59104E-10         0.00000E+00
    0.32601E-08        -0.88106E-10         0.00000E+00
    0.32558E-08        -0.10970E-09         0.00000E+00
    0.32505E-08        -0.12462E-09         0.00000E+00
    0.32444E-08        -0.13356E-09         0.00000E+00
    0.32379E-08        -0.13708E-09         0.00000E+00
    0.32312E-08        -0.13570E-09         0.00000E+00
    0.32245E-08        -0.12983E-09         0.00000E+00
    0.32182E-08        -0.11984E-09         0.00000E+00
    0.32124E-08        -0.10598E-09         0.00000E+00
    0.32074E-08        -0.88485E-10         0.00000E+00
    0.32034E-08        -0.67497E-10         0.00000E+00
    0.32005E-08        -0.43122E-10         0.00000E+00
    0.31991E-08        -0.15416E-10         0.00000E+00
    0.36715E-08        -0.20953E-10         0.00000E+00
    0.36696E-08        -0.56517E-10         0.00000E+00
    0.36661E-08        -0.84055E-10         0.00000E+00
    0.36611E-08        -0.10443E-09         0.00000E+00
    0.36549E-08        -0.11842E-09         0.00000E+00
    0.36479E-08        -0.12670E-09         0.00000E+00
    0.36403E-08        -0.12987E-09         0.00000E+00
    0.36325E-08        -0.12842E-09         0.00000E+00
    0.36249E-08        -0.12277E-09         0.00000E+00
    0.36175E-08        -0.11325E-09         0.00000E+00
    0.36109E-08        -0.10013E-09         0.00000E+00
    0.36052E-08        -0.83600E-10         0.00000E+00
    0.36006E-08        -0.63788E-10         0.00000E+00
    0.35973E-08        -0.40773E-10         0.00000E+00
    0.35956E-08        -0.14590E-10         0.00000E+00
    0.40676E-08        -0.19898E-10         0.00000E+00
    0.40654E-08        -0.53511E-10         0.00000E+00
    0.40613E-08        -0.79359E-10         0.00000E+00
    0.40555E-08        -0.98344E-10         0.00000E+00
    0.40484E-08        -0.11126E-09         0.00000E+00
    0.40404E-08        -0.11881E-09         0.00000E+00
    0.40318E-08        -0.12158E-09         0.00000E+00
    0.40229E-08        -0.12007E-09         0.00000E+00
    0.40141E-08        -0.11468E-09         0.00000E+00
    0.40058E-08        -0.10573E-09         0.00000E+00
    0.39983E-08        -0.93454E-10         0.00000E+00
    0.39918E-08        -0.78032E-10         0.00000E+00
    0.39866E-08        -0.59565E-10         0.00000E+00
    0.39829E-08        -0.38103E-10         0.00000E+00
    0.39810E-08        -0.13652E-10         0.00000E+00
    0.44516E-08        -0.18680E-10         0.00000E+00
    0.44491E-08        -0.50055E-10         0.00000E+00
    0.44444E-08        -0.73978E-10         0.00000E+00
    0.44378E-08        -0.91389E-10         0.00000E+00
    0.44298E-08        -0.10311E-09         0.00000E+00
    0.44207E-08        -0.10984E-09         0.00000E+00
    0.44109E-08        -0.11218E-09         0.00000E+00
    0.44009E-08        -0.11062E-09         0.00000E+00
    0.43911E-08        -0.10553E-09         0.00000E+00
    0.43817E-08        -0.97232E-10         0.00000E+00
    0.43733E-08        -0.85929E-10         0.00000E+00
    0.43660E-08        -0.71766E-10         0.00000E+00
    0.43602E-08        -0.54818E-10         0.00000E+00
    0.43561E-08        -0.35105E-10         0.00000E+00
    0.43539E-08        -0.12600E-10         0.00000E+00
    0.48222E-08        -0.17288E-10         0.00000E+00
    0.48194E-08        -0.46118E-10         0.00000E+00
    0.48140E-08        -0.67869E-10         0.00000E+00
    0.48066E-08        -0.83518E-10         0.00000E+00
    0.47976E-08        -0.93907E-10         0.00000E+00
    0.47874E-08        -0.99748E-10         0.00000E+00
    0.47765E-08        -0.10163E-09         0.00000E+00
    0.47653E-08        -0.10002E-09         0.00000E+00
    0.47544E-08        -0.95307E-10         0.00000E+00
    0.47440E-08        -0.87750E-10         0.00000E+00
    0.47346E-08        -0.77540E-10         0.00000E+00
    0.47265E-08        -0.64789E-10         0.00000E+00
    0.47201E-08        -0.49540E-10         0.00000E+00
    0.47155E-08        -0.31776E-10         0.00000E+00
    0.47132E-08        -0.11434E-10         0.00000E+00
    0.51782E-08        -0.15709E-10         0.00000E+00
    0.51750E-08        -0.41670E-10         0.00000E+00
    0.51690E-08        -0.60993E-10         0.00000E+00
    0.51607E-08        -0.74690E-10         0.00000E+00
    0.51506E-08        -0.83620E-10         0.00000E+00
    0.51393E-08        -0.88495E-10         0.00000E+00
    0.51272E-08        -0.89895E-10         0.00000E+00
    0.51148E-08        -0.88277E-10         0.00000E+00
    0.51027E-08        -0.83986E-10         0.00000E+00
    0.50913E-08        -0.77269E-10         0.00000E+00
    0.50810E-08        -0.68281E-10         0.00000E+00
    0.50721E-08        -0.57099E-10         0.00000E+00
    0.50650E-08        -0.43728E-10         0.00000E+00
    0.50601E-08        -0.28114E-10         0.00000E+00
    0.50575E-08        -0.10154E-10         0.00000E+00
    0.55181E-08        -0.13931E-10         0.00000E+00
    0.55145E-08        -0.36682E-10         0.00000E+00
    0.55078E-08        -0.53315E-10         0.00000E+00
    0.54986E-08        -0.64871E-10         0.00000E+00
    0.54875E-08        -0.72218E-10         0.00000E+00
    0.54750E-08        -0.76063E-10         0.00000E+00
    0.54617E-08        -0.76969E-10         0.00000E+00
    0.54482E-08        -0.75366E-10         0.00000E+00
    0.54350E-08        -0.71571E-10         0.00000E+00
    0.54225E-08        -0.65796E-10         0.00000E+00
    0.54113E-08        -0.58159E-10         0.00000E+00
    0.54016E-08        -0.48701E-10         0.00000E+00
    0.53940E-08        -0.37387E-10         0.00000E+00
    0.53886E-08        -0.24123E-10         0.00000E+00
    0.53858E-08        -0.87595E-11         0.00000E+00
    0.58406E-08        -0.11943E-10         0.00000E+00
    0.58367E-08        -0.31132E-10         0.00000E+00
    0.58293E-08        -0.44811E-10         0.00000E+00
    0.58191E-08        -0.54043E-10         0.00000E+00
    0.58069E-08        -0.59694E-10         0.00000E+00
    0.57933E-08        -0.62456E-10         0.00000E+00
    0.57789E-08        -0.62864E-10         0.00000E+00
    0.57642E-08        -0.61316E-10         0.00000E+00
    0.57499E-08        -0.58090E-10         0.00000E+00
    0.57364E-08        -0.53358E-10         0.00000E+00
    0.57243E-08        -0.47201E-10         0.00000E+00
    0.57139E-08        -0.39618E-10         0.00000E+00
    0.57056E-08        -0.30535E-10         0.00000E+00
    0.56999E-08        -0.19812E-10         0.00000E+00
    0.56968E-08        -0.72547E-11         0.00000E+00
    0.61444E-08        -0.97364E-11         0.00000E+00
    0.61400E-08        -0.25004E-10         0.00000E+00
    0.61319E-08        -0.35471E-10         0.00000E+00
    0.61208E-08        -0.42207E-10         0.00000E+00
    0.61076E-08        -0.46065E-10         0.00000E+00
    0.60928E-08        -0.47707E-10         0.00000E+00
    0.60773E-08        -0.47629E-10         0.00000E+00
    0.60616E-08        -0.46183E-10         0.00000E+00
    0.60463E-08        -0.43602E-10         0.00000E+00
    0.60319E-08        -0.40015E-10         0.00000E+00
    0.60190E-08        -0.35459E-10         0.00000E+00
    0.60079E-08        -0.29893E-10         0.00000E+00
    0.59991E-08        -0.23200E-10         0.00000E+00
    0.59929E-08        -0.15199E-10         0.00000E+00
    0.59897E-08        -0.56446E-11         0.00000E+00
    0.64279E-08        -0.73057E-11         0.00000E+00
    0.64231E-08        -0.18295E-10         0.00000E+00
    0.64143E-08        -0.25304E-10         0.00000E+00
    0.64024E-08        -0.29394E-10         0.00000E+00
    0.63881E-08        -0.31386E-10         0.00000E+00
    0.63724E-08        -0.31894E-10         0.00000E+00
    0.63558E-08        -0.31358E-10         0.00000E+00
    0.63392E-08        -0.30072E-10         0.00000E+00
    0.63230E-08        -0.28216E-10         0.00000E+00
    0.63078E-08        -0.25867E-10         0.00000E+00
    0.62942E-08        -0.23021E-10         0.00000E+00
    0.62825E-08        -0.19594E-10         0.00000E+00
    0.62733E-08        -0.15432E-10         0.00000E+00
    0.62668E-08        -0.10310E-10         0.00000E+00
    0.62634E-08        -0.39374E-11         0.00000E+00
    0.66897E-08        -0.46507E-11         0.00000E+00
    0.66845E-08        -0.11016E-10         0.00000E+00
    0.66751E-08        -0.14348E-10         0.00000E+00
    0.66623E-08        -0.15675E-10         0.00000E+00
    0.66472E-08        -0.15763E-10         0.00000E+00
    0.66306E-08        -0.15152E-10         0.00000E+00
    0.66132E-08        -0.14207E-10         0.00000E+00
    0.65958E-08        -0.13151E-10         0.00000E+00
    0.65790E-08        -0.12096E-10         0.00000E+00
    0.65632E-08        -0.11069E-10         0.00000E+00
    0.65491E-08        -0.10019E-10         0.00000E+00
    0.65370E-08        -0.88268E-11         0.00000E+00
    0.65273E-08        -0.73033E-11         0.00000E+00
    0.65206E-08        -0.51879E-11         0.00000E+00
    0.65170E-08        -0.21453E-11         0.00000E+00
    0.69283E-08        -0.17780E-11         0.00000E+00
    0.69227E-08        -0.32021E-11         0.00000E+00
    0.69127E-08        -0.26798E-11         0.00000E+00
    0.68993E-08        -0.11768E-11         0.00000E+00
    0.68835E-08         0.63281E-12         0.00000E+00
    0.68662E-08         0.23083E-11         0.00000E+00
    0.68483E-08         0.35864E-11         0.00000E+00
    0.68305E-08         0.43343E-11         0.00000E+00
    0.68132E-08         0.45139E-11         0.00000E+00
    0.67972E-08         0.41577E-11         0.00000E+00
    0.67827E-08         0.33572E-11         0.00000E+00
    0.67704E-08         0.22617E-11         0.00000E+00
    0.67605E-08         0.10839E-11         0.00000E+00
    0.67536E-08         0.11115E-12         0.00000E+00
    0.67500E-08        -0.28514E-12         0.00000E+00
    0.71421E-08         0.12970E-11         0.00000E+00
    0.71362E-08         0.50834E-11         0.00000E+00
    0.71257E-08         0.95733E-11         0.00000E+00
    0.71118E-08         0.13907E-10         0.00000E+00
    0.70956E-08         0.17543E-10         0.00000E+00
    0.70781E-08         0.20180E-10         0.00000E+00
    0.70600E-08         0.21684E-10         0.00000E+00
    0.70421E-08         0.22034E-10         0.00000E+00
    0.70249E-08         0.21278E-10         0.00000E+00
    0.70088E-08         0.19507E-10         0.00000E+00
    0.69944E-08         0.16848E-10         0.00000E+00
    0.69821E-08         0.13469E-10         0.00000E+00
    0.69722E-08         0.95899E-11         0.00000E+00
    0.69652E-08         0.55091E-11         0.00000E+00
    0.69616E-08         0.16208E-11         0.00000E+00
    0.73294E-08         0.45463E-11         0.00000E+00
    0.73234E-08         0.13738E-10         0.00000E+00
    0.73126E-08         0.22217E-10         0.00000E+00
    0.72985E-08         0.29289E-10         0.00000E+00
    0.72822E-08         0.34598E-10         0.00000E+00
    0.72649E-08         0.38030E-10         0.00000E+00
    0.72472E-08         0.39619E-10         0.00000E+00
    0.72297E-08         0.39474E-10         0.00000E+00
    0.72130E-08         0.37741E-10         0.00000E+00
    0.71975E-08         0.34567E-10         0.00000E+00
    0.71836E-08         0.30106E-10         0.00000E+00
    0.71716E-08         0.24525E-10         0.00000E+00
    0.71620E-08         0.18029E-10         0.00000E+00
    0.71552E-08         0.10903E-10         0.00000E+00
    0.71515E-08         0.35430E-11         0.00000E+00
    0.74886E-08         0.79262E-11         0.00000E+00
    0.74824E-08         0.22605E-10         0.00000E+00
    0.74716E-08         0.34969E-10         0.00000E+00
    0.74577E-08         0.44560E-10         0.00000E+00
    0.74420E-08         0.51285E-10         0.00000E+00
    0.74254E-08         0.55273E-10         0.00000E+00
    0.74088E-08         0.56765E-10         0.00000E+00
    0.73925E-08         0.56027E-10         0.00000E+00
    0.73771E-08         0.53306E-10         0.00000E+00
    0.73628E-08         0.48803E-10         0.00000E+00
    0.73499E-08         0.42680E-10         0.00000E+00
    0.73387E-08         0.35079E-10         0.00000E+00
    0.73297E-08         0.26162E-10         0.00000E+00
    0.73231E-08         0.16161E-10         0.00000E+00
    0.73196E-08         0.54442E-11         0.00000E+00
    0.76178E-08         0.11370E-10         0.00000E+00
    0.76117E-08         0.31460E-10         0.00000E+00
    0.76012E-08         0.47425E-10         0.00000E+00
    0.75880E-08         0.59153E-10         0.00000E+00
    0.75735E-08         0.66906E-10         0.00000E+00
    0.75586E-08         0.71128E-10         0.00000E+00
    0.75439E-08         0.72308E-10         0.00000E+00
    0.75298E-08         0.70886E-10         0.00000E+00
    0.75164E-08         0.67212E-10         0.00000E+00
    0.75041E-08         0.61531E-10         0.00000E+00
    0.74930E-08         0.53992E-10         0.00000E+00
    0.74832E-08         0.44682E-10         0.00000E+00
    0.74751E-08         0.33677E-10         0.00000E+00
    0.74692E-08         0.21113E-10         0.00000E+00
    0.74659E-08         0.72769E-11         0.00000E+00
    0.77149E-08         0.14783E-10         0.00000E+00
    0.77091E-08         0.39974E-10         0.00000E+00
    0.76995E-08         0.59014E-10         0.00000E+00
    0.76879E-08         0.72286E-10         0.00000E+00
    0.76756E-08         0.80529E-10         0.00000E+00
    0.76634E-08         0.84580E-10         0.00000E+00
    0.76518E-08         0.85210E-10         0.00000E+00
    0.76409E-08         0.83040E-10         0.00000E+00
    0.76308E-08         0.78514E-10         0.00000E+00
    0.76214E-08         0.71902E-10         0.00000E+00
    0.76129E-08         0.63320E-10         0.00000E+00
    0.76052E-08         0.52766E-10         0.00000E+00
    0.75987E-08         0.40181E-10         0.00000E+00
    0.75937E-08         0.25540E-10         0.00000E+00
    0.75909E-08         0.89811E-11         0.00000E+00
    0.77777E-08         0.18019E-10         0.00000E+00
    0.77726E-08         0.47669E-10         0.00000E+00
    0.77646E-08         0.68924E-10         0.00000E+00
    0.77557E-08         0.82884E-10         0.00000E+00
    0.77469E-08         0.90921E-10         0.00000E+00
    0.77390E-08         0.94334E-10         0.00000E+00
    0.77319E-08         0.94186E-10         0.00000E+00
    0.77256E-08         0.91259E-10         0.00000E+00
    0.77199E-08         0.86068E-10         0.00000E+00
    0.77148E-08         0.78887E-10         0.00000E+00
    0.77099E-08         0.69776E-10         0.00000E+00
    0.77052E-08         0.58617E-10         0.00000E+00
    0.77009E-08         0.45168E-10         0.00000E+00
    0.76973E-08         0.29160E-10         0.00000E+00
    0.76950E-08         0.10480E-10         0.00000E+00
    0.78037E-08         0.20863E-10         0.00000E+00
    0.77999E-08         0.53824E-10         0.00000E+00
    0.77947E-08         0.75973E-10         0.00000E+00
    0.77900E-08         0.89465E-10         0.00000E+00
    0.77865E-08         0.96473E-10         0.00000E+00
    0.77845E-08         0.98781E-10         0.00000E+00
    0.77837E-08         0.97697E-10         0.00000E+00
    0.77836E-08         0.94107E-10         0.00000E+00
    0.77839E-08         0.88550E-10         0.00000E+00
    0.77843E-08         0.81278E-10         0.00000E+00
    0.77843E-08         0.72286E-10         0.00000E+00
    0.77837E-08         0.61337E-10         0.00000E+00
    0.77825E-08         0.47973E-10         0.00000E+00
    0.77808E-08         0.31592E-10         0.00000E+00
    0.77795E-08         0.11670E-10         0.00000E+00
    0.77900E-08         0.22956E-10         0.00000E+00
    0.77883E-08         0.57283E-10         0.00000E+00
    0.77877E-08         0.78386E-10         0.00000E+00
    0.77895E-08         0.89974E-10         0.00000E+00
    0.77937E-08         0.95125E-10         0.00000E+00
    0.77999E-08         0.95992E-10         0.00000E+00
    0.78072E-08         0.93987E-10         0.00000E+00
    0.78151E-08         0.89988E-10         0.00000E+00
    0.78230E-08         0.84496E-10         0.00000E+00
    0.78303E-08         0.77714E-10         0.00000E+00
    0.78366E-08         0.69587E-10         0.00000E+00
    0.78414E-08         0.59792E-10         0.00000E+00
    0.78444E-08         0.47693E-10         0.00000E+00
    0.78457E-08         0.32287E-10         0.00000E+00
    0.78456E-08         0.12402E-10         0.00000E+00
    0.77328E-08         0.23639E-10         0.00000E+00
    0.77350E-08         0.56025E-10         0.00000E+00
    0.77420E-08         0.73389E-10         0.00000E+00
    0.77536E-08         0.81599E-10         0.00000E+00
    0.77685E-08         0.84347E-10         0.00000E+00
    0.77853E-08         0.83786E-10         0.00000E+00
    0.78030E-08         0.81178E-10         0.00000E+00
    0.78206E-08         0.77252E-10         0.00000E+00
    0.78376E-08         0.72397E-10         0.00000E+00
    0.78534E-08         0.66756E-10         0.00000E+00
    0.78674E-08         0.60253E-10         0.00000E+00
    0.78791E-08         0.52563E-10         0.00000E+00
    0.78880E-08         0.43014E-10         0.00000E+00
    0.78934E-08         0.30357E-10         0.00000E+00
    0.78954E-08         0.12411E-10         0.00000E+00
    0.76269E-08         0.21481E-10         0.00000E+00
    0.76368E-08         0.45975E-10         0.00000E+00
    0.76567E-08         0.56671E-10         0.00000E+00
    0.76827E-08         0.60722E-10         0.00000E+00
    0.77118E-08         0.61280E-10         0.00000E+00
    0.77419E-08         0.59913E-10         0.00000E+00
    0.77718E-08         0.57454E-10         0.00000E+00
    0.78008E-08         0.54358E-10         0.00000E+00
    0.78283E-08         0.50856E-10         0.00000E+00
    0.78538E-08         0.47025E-10         0.00000E+00
    0.78770E-08         0.42804E-10         0.00000E+00
    0.78973E-08         0.37971E-10         0.00000E+00
    0.79140E-08         0.32029E-10         0.00000E+00
    0.79260E-08         0.23947E-10         0.00000E+00
    0.79315E-08         0.11278E-10         0.00000E+00
    0.74638E-08         0.97217E-11         0.00000E+00
    0.74926E-08         0.19029E-10         0.00000E+00
    0.75340E-08         0.22365E-10         0.00000E+00
    0.75797E-08         0.23328E-10         0.00000E+00
    0.76261E-08         0.23152E-10         0.00000E+00
    0.76717E-08         0.22391E-10         0.00000E+00
    0.77154E-08         0.21324E-10         0.00000E+00
    0.77568E-08         0.20097E-10         0.00000E+00
    0.77957E-08         0.18781E-10         0.00000E+00
    0.78319E-08         0.17401E-10         0.00000E+00
    0.78652E-08         0.15934E-10         0.00000E+00
    0.78955E-08         0.14305E-10         0.00000E+00
    0.79221E-08         0.12341E-10         0.00000E+00
    0.79441E-08         0.96491E-11         0.00000E+00
    0.79590E-08         0.51821E-11         0.00000E+00
POINT_DATA        496
VECTORS vDarcyNodal double 
    0.22353E-09        -0.24803E-10         0.00000E+00
    0.22348E-09        -0.46185E-10         0.00000E+00
    0.22334E-09        -0.84506E-10         0.00000E+00
    0.22311E-09        -0.11429E-09         0.00000E+00
    0.22282E-09        -0.13620E-09         0.00000E+00
    0.22248E-09        -0.15088E-09         0.00000E+00
    0.22209E-09        -0.15889E-09         0.00000E+00
    0.22168E-09        -0.16078E-09         0.00000E+00
    0.22126E-09        -0.15700E-09         0.00000E+00
    0.22085E-09        -0.14797E-09         0.00000E+00
    0.22047E-09        -0.13405E-09         0.00000E+00
    0.22013E-09        -0.11554E-09         0.00000E+00
    0.21984E-09        -0.92692E-10         0.00000E+00
    0.21962E-09        -0.65703E-10         0.00000E+00
    0.21948E-09        -0.34733E-10         0.00000E+00
    0.21943E-09        -0.18269E-10         0.00000E+00
    0.44674E-09        -0.24754E-10         0.00000E+00
    0.44664E-09        -0.46091E-10         0.00000E+00
    0.44636E-09        -0.84325E-10         0.00000E+00
    0.44591E-09        -0.11403E-09         0.00000E+00
    0.44533E-09        -0.13588E-09         0.00000E+00
    0.44463E-09        -0.15051E-09         0.00000E+00
    0.44385E-09        -0.15850E-09         0.00000E+00
    0.44303E-09        -0.16037E-09         0.00000E+00
    0.44220E-09        -0.15659E-09         0.00000E+00
    0.44138E-09        -0.14758E-09         0.00000E+00
    0.44061E-09        -0.13369E-09         0.00000E+00
    0.43993E-09        -0.11523E-09         0.00000E+00
    0.43935E-09        -0.92439E-10         0.00000E+00
    0.43891E-09        -0.65524E-10         0.00000E+00
    0.43863E-09        -0.34638E-10         0.00000E+00
    0.43853E-09        -0.18219E-10         0.00000E+00
    0.89223E-09        -0.24608E-10         0.00000E+00
    0.89203E-09        -0.45806E-10         0.00000E+00
    0.89146E-09        -0.83778E-10         0.00000E+00
    0.89056E-09        -0.11325E-09         0.00000E+00
    0.88939E-09        -0.13492E-09         0.00000E+00
    0.88798E-09        -0.14940E-09         0.00000E+00
    0.88642E-09        -0.15730E-09         0.00000E+00
    0.88477E-09        -0.15912E-09         0.00000E+00
    0.88309E-09        -0.15535E-09         0.00000E+00
    0.88145E-09        -0.14639E-09         0.00000E+00
    0.87991E-09        -0.13260E-09         0.00000E+00
    0.87853E-09        -0.11428E-09         0.00000E+00
    0.87738E-09        -0.91679E-10         0.00000E+00
    0.87650E-09        -0.64985E-10         0.00000E+00
    0.87594E-09        -0.34354E-10         0.00000E+00
    0.87574E-09        -0.18071E-10         0.00000E+00
    0.13352E-08        -0.24361E-10         0.00000E+00
    0.13349E-08        -0.45327E-10         0.00000E+00
    0.13341E-08        -0.82859E-10         0.00000E+00
    0.13327E-08        -0.11195E-09         0.00000E+00
    0.13309E-08        -0.13330E-09         0.00000E+00
    0.13288E-08        -0.14755E-09         0.00000E+00
    0.13264E-08        -0.15528E-09         0.00000E+00
    0.13239E-08        -0.15703E-09         0.00000E+00
    0.13214E-08        -0.15327E-09         0.00000E+00
    0.13189E-08        -0.14440E-09         0.00000E+00
    0.13166E-08        -0.13078E-09         0.00000E+00
    0.13145E-08        -0.11270E-09         0.00000E+00
    0.13128E-08        -0.90405E-10         0.00000E+00
    0.13114E-08        -0.64083E-10         0.00000E+00
    0.13106E-08        -0.33879E-10         0.00000E+00
    0.13103E-08        -0.17822E-10         0.00000E+00
    0.17744E-08        -0.24011E-10         0.00000E+00
    0.17740E-08        -0.44646E-10         0.00000E+00
    0.17729E-08        -0.81555E-10         0.00000E+00
    0.17710E-08        -0.11011E-09         0.00000E+00
    0.17686E-08        -0.13101E-09         0.00000E+00
    0.17657E-08        -0.14492E-09         0.00000E+00
    0.17626E-08        -0.15243E-09         0.00000E+00
    0.17592E-08        -0.15408E-09         0.00000E+00
    0.17558E-08        -0.15033E-09         0.00000E+00
    0.17524E-08        -0.14159E-09         0.00000E+00
    0.17493E-08        -0.12821E-09         0.00000E+00
    0.17465E-08        -0.11047E-09         0.00000E+00
    0.17442E-08        -0.88612E-10         0.00000E+00
    0.17424E-08        -0.62813E-10         0.00000E+00
    0.17413E-08        -0.33211E-10         0.00000E+00
    0.17409E-08        -0.17473E-10         0.00000E+00
    0.22087E-08        -0.23551E-10         0.00000E+00
    0.22081E-08        -0.43754E-10         0.00000E+00
    0.22066E-08        -0.79848E-10         0.00000E+00
    0.22043E-08        -0.10770E-09         0.00000E+00
    0.22012E-08        -0.12802E-09         0.00000E+00
    0.21976E-08        -0.14150E-09         0.00000E+00
    0.21935E-08        -0.14873E-09         0.00000E+00
    0.21893E-08        -0.15024E-09         0.00000E+00
    0.21849E-08        -0.14651E-09         0.00000E+00
    0.21807E-08        -0.13794E-09         0.00000E+00
    0.21768E-08        -0.12487E-09         0.00000E+00
    0.21733E-08        -0.10758E-09         0.00000E+00
    0.21703E-08        -0.86287E-10         0.00000E+00
    0.21681E-08        -0.61169E-10         0.00000E+00
    0.21666E-08        -0.32345E-10         0.00000E+00
    0.21661E-08        -0.17021E-10         0.00000E+00
    0.26366E-08        -0.22975E-10         0.00000E+00
    0.26360E-08        -0.42639E-10         0.00000E+00
    0.26341E-08        -0.77717E-10         0.00000E+00
    0.26312E-08        -0.10469E-09         0.00000E+00
    0.26275E-08        -0.12430E-09         0.00000E+00
    0.26230E-08        -0.13724E-09         0.00000E+00
    0.26181E-08        -0.14412E-09         0.00000E+00
    0.26129E-08        -0.14548E-09         0.00000E+00
    0.26076E-08        -0.14178E-09         0.00000E+00
    0.26025E-08        -0.13342E-09         0.00000E+00
    0.25977E-08        -0.12074E-09         0.00000E+00
    0.25934E-08        -0.10400E-09         0.00000E+00
    0.25898E-08        -0.83419E-10         0.00000E+00
    0.25871E-08        -0.59141E-10         0.00000E+00
    0.25854E-08        -0.31280E-10         0.00000E+00
    0.25848E-08        -0.16464E-10         0.00000E+00
    0.30570E-08        -0.22275E-10         0.00000E+00
    0.30562E-08        -0.41286E-10         0.00000E+00
    0.30540E-08        -0.75136E-10         0.00000E+00
    0.30506E-08        -0.10105E-09         0.00000E+00
    0.30461E-08        -0.11981E-09         0.00000E+00
    0.30408E-08        -0.13211E-09         0.00000E+00
    0.30349E-08        -0.13858E-09         0.00000E+00
    0.30287E-08        -0.13975E-09         0.00000E+00
    0.30225E-08        -0.13610E-09         0.00000E+00
    0.30164E-08        -0.12801E-09         0.00000E+00
    0.30107E-08        -0.11580E-09         0.00000E+00
    0.30057E-08        -0.99731E-10         0.00000E+00
    0.30014E-08        -0.79992E-10         0.00000E+00
    0.29982E-08        -0.56721E-10         0.00000E+00
    0.29962E-08        -0.30009E-10         0.00000E+00
    0.29955E-08        -0.15802E-10         0.00000E+00
    0.34686E-08        -0.21442E-10         0.00000E+00
    0.34677E-08        -0.39677E-10         0.00000E+00
    0.34651E-08        -0.72074E-10         0.00000E+00
    0.34610E-08        -0.96749E-10         0.00000E+00
    0.34558E-08        -0.11451E-09         0.00000E+00
    0.34496E-08        -0.12607E-09         0.00000E+00
    0.34427E-08        -0.13206E-09         0.00000E+00
    0.34355E-08        -0.13303E-09         0.00000E+00
    0.34282E-08        -0.12943E-09         0.00000E+00
    0.34211E-08        -0.12166E-09         0.00000E+00
    0.34146E-08        -0.11002E-09         0.00000E+00
    0.34087E-08        -0.94736E-10         0.00000E+00
    0.34038E-08        -0.75990E-10         0.00000E+00
    0.34001E-08        -0.53898E-10         0.00000E+00
    0.33978E-08        -0.28529E-10         0.00000E+00
    0.33969E-08        -0.15031E-10         0.00000E+00
    0.38701E-08        -0.20464E-10         0.00000E+00
    0.38690E-08        -0.37794E-10         0.00000E+00
    0.38660E-08        -0.68498E-10         0.00000E+00
    0.38613E-08        -0.91736E-10         0.00000E+00
    0.38552E-08        -0.10834E-09         0.00000E+00
    0.38481E-08        -0.11905E-09         0.00000E+00
    0.38402E-08        -0.12451E-09         0.00000E+00
    0.38319E-08        -0.12526E-09         0.00000E+00
    0.38235E-08        -0.12175E-09         0.00000E+00
    0.38155E-08        -0.11435E-09         0.00000E+00
    0.38079E-08        -0.10336E-09         0.00000E+00
    0.38013E-08        -0.88995E-10         0.00000E+00
    0.37957E-08        -0.71397E-10         0.00000E+00
    0.37915E-08        -0.50663E-10         0.00000E+00
    0.37888E-08        -0.26834E-10         0.00000E+00
    0.37879E-08        -0.14149E-10         0.00000E+00
    0.42602E-08        -0.19331E-10         0.00000E+00
    0.42590E-08        -0.35615E-10         0.00000E+00
    0.42555E-08        -0.64372E-10         0.00000E+00
    0.42501E-08        -0.85968E-10         0.00000E+00
    0.42432E-08        -0.10127E-09         0.00000E+00
    0.42350E-08        -0.11102E-09         0.00000E+00
    0.42260E-08        -0.11588E-09         0.00000E+00
    0.42166E-08        -0.11639E-09         0.00000E+00
    0.42072E-08        -0.11300E-09         0.00000E+00
    0.41980E-08        -0.10605E-09         0.00000E+00
    0.41895E-08        -0.95815E-10         0.00000E+00
    0.41820E-08        -0.82490E-10         0.00000E+00
    0.41757E-08        -0.66199E-10         0.00000E+00
    0.41710E-08        -0.47005E-10         0.00000E+00
    0.41680E-08        -0.24921E-10         0.00000E+00
    0.41670E-08        -0.13154E-10         0.00000E+00
    0.46376E-08        -0.18030E-10         0.00000E+00
    0.46362E-08        -0.33120E-10         0.00000E+00
    0.46323E-08        -0.59661E-10         0.00000E+00
    0.46261E-08        -0.79399E-10         0.00000E+00
    0.46183E-08        -0.93232E-10         0.00000E+00
    0.46091E-08        -0.10193E-09         0.00000E+00
    0.45990E-08        -0.10614E-09         0.00000E+00
    0.45884E-08        -0.10640E-09         0.00000E+00
    0.45778E-08        -0.10315E-09         0.00000E+00
    0.45676E-08        -0.96716E-10         0.00000E+00
    0.45581E-08        -0.87346E-10         0.00000E+00
    0.45497E-08        -0.75204E-10         0.00000E+00
    0.45428E-08        -0.60384E-10         0.00000E+00
    0.45375E-08        -0.42918E-10         0.00000E+00
    0.45341E-08        -0.22785E-10         0.00000E+00
    0.45330E-08        -0.12046E-10         0.00000E+00
    0.50010E-08        -0.16547E-10         0.00000E+00
    0.49994E-08        -0.30286E-10         0.00000E+00
    0.49949E-08        -0.54326E-10         0.00000E+00
    0.49881E-08        -0.71988E-10         0.00000E+00
    0.49792E-08        -0.84194E-10         0.00000E+00
    0.49690E-08        -0.91727E-10         0.00000E+00
    0.49577E-08        -0.95237E-10         0.00000E+00
    0.49460E-08        -0.95251E-10         0.00000E+00
    0.49342E-08        -0.92182E-10         0.00000E+00
    0.49229E-08        -0.86341E-10         0.00000E+00
    0.49124E-08        -0.77944E-10         0.00000E+00
    0.49032E-08        -0.67125E-10         0.00000E+00
    0.48955E-08        -0.53945E-10         0.00000E+00
    0.48896E-08        -0.38397E-10         0.00000E+00
    0.48860E-08        -0.20425E-10         0.00000E+00
    0.48847E-08        -0.10823E-10         0.00000E+00
    0.53490E-08        -0.14872E-10         0.00000E+00
    0.53472E-08        -0.27093E-10         0.00000E+00
    0.53423E-08        -0.48336E-10         0.00000E+00
    0.53346E-08        -0.63695E-10         0.00000E+00
    0.53248E-08        -0.74116E-10         0.00000E+00
    0.53134E-08        -0.80387E-10         0.00000E+00
    0.53009E-08        -0.83152E-10         0.00000E+00
    0.52880E-08        -0.82920E-10         0.00000E+00
    0.52751E-08        -0.80081E-10         0.00000E+00
    0.52627E-08        -0.74915E-10         0.00000E+00
    0.52512E-08        -0.67606E-10         0.00000E+00
    0.52411E-08        -0.58254E-10         0.00000E+00
    0.52327E-08        -0.46882E-10         0.00000E+00
    0.52263E-08        -0.33444E-10         0.00000E+00
    0.52223E-08        -0.17842E-10         0.00000E+00
    0.52209E-08        -0.94847E-11         0.00000E+00
    0.56804E-08        -0.12991E-10         0.00000E+00
    0.56784E-08        -0.23521E-10         0.00000E+00
    0.56728E-08        -0.41661E-10         0.00000E+00
    0.56643E-08        -0.54492E-10         0.00000E+00
    0.56535E-08        -0.62974E-10         0.00000E+00
    0.56410E-08        -0.67894E-10         0.00000E+00
    0.56273E-08        -0.69880E-10         0.00000E+00
    0.56132E-08        -0.69415E-10         0.00000E+00
    0.55992E-08        -0.66857E-10         0.00000E+00
    0.55857E-08        -0.62452E-10         0.00000E+00
    0.55733E-08        -0.56349E-10         0.00000E+00
    0.55623E-08        -0.48606E-10         0.00000E+00
    0.55532E-08        -0.39207E-10         0.00000E+00
    0.55464E-08        -0.28066E-10         0.00000E+00
    0.55421E-08        -0.15040E-10         0.00000E+00
    0.55406E-08        -0.80342E-11         0.00000E+00
    0.59936E-08        -0.10895E-10         0.00000E+00
    0.59914E-08        -0.19555E-10         0.00000E+00
    0.59853E-08        -0.34282E-10         0.00000E+00
    0.59759E-08        -0.44363E-10         0.00000E+00
    0.59641E-08        -0.50763E-10         0.00000E+00
    0.59504E-08        -0.54256E-10         0.00000E+00
    0.59357E-08        -0.55441E-10         0.00000E+00
    0.59205E-08        -0.54766E-10         0.00000E+00
    0.59053E-08        -0.52549E-10         0.00000E+00
    0.58908E-08        -0.48995E-10         0.00000E+00
    0.58775E-08        -0.44210E-10         0.00000E+00
    0.58658E-08        -0.38213E-10         0.00000E+00
    0.58560E-08        -0.30946E-10         0.00000E+00
    0.58487E-08        -0.22281E-10         0.00000E+00
    0.58441E-08        -0.12027E-10         0.00000E+00
    0.58425E-08        -0.64751E-11         0.00000E+00
    0.62873E-08        -0.85774E-11         0.00000E+00
    0.62849E-08        -0.15186E-10         0.00000E+00
    0.62782E-08        -0.26193E-10         0.00000E+00
    0.62680E-08        -0.33315E-10         0.00000E+00
    0.62552E-08        -0.37508E-10         0.00000E+00
    0.62405E-08        -0.39516E-10         0.00000E+00
    0.62247E-08        -0.39896E-10         0.00000E+00
    0.62084E-08        -0.39047E-10         0.00000E+00
    0.61923E-08        -0.37237E-10         0.00000E+00
    0.61769E-08        -0.34622E-10         0.00000E+00
    0.61628E-08        -0.31264E-10         0.00000E+00
    0.61504E-08        -0.27138E-10         0.00000E+00
    0.61401E-08        -0.22147E-10         0.00000E+00
    0.61323E-08        -0.16118E-10         0.00000E+00
    0.61274E-08        -0.88165E-11         0.00000E+00
    0.61257E-08        -0.48140E-11         0.00000E+00
    0.65601E-08        -0.60340E-11         0.00000E+00
    0.65574E-08        -0.10415E-10         0.00000E+00
    0.65502E-08        -0.17406E-10         0.00000E+00
    0.65392E-08        -0.21383E-10         0.00000E+00
    0.65255E-08        -0.23271E-10         0.00000E+00
    0.65099E-08        -0.23764E-10         0.00000E+00
    0.64931E-08        -0.23357E-10         0.00000E+00
    0.64760E-08        -0.22384E-10         0.00000E+00
    0.64590E-08        -0.21052E-10         0.00000E+00
    0.64429E-08        -0.19461E-10         0.00000E+00
    0.64281E-08        -0.17625E-10         0.00000E+00
    0.64151E-08        -0.15477E-10         0.00000E+00
    0.64044E-08        -0.12880E-10         0.00000E+00
    0.63962E-08        -0.96244E-11         0.00000E+00
    0.63911E-08        -0.54312E-11         0.00000E+00
    0.63893E-08        -0.30608E-11         0.00000E+00
    0.68104E-08        -0.32675E-11         0.00000E+00
    0.68075E-08        -0.52523E-11         0.00000E+00
    0.67997E-08        -0.79583E-11         0.00000E+00
    0.67880E-08        -0.86407E-11         0.00000E+00
    0.67735E-08        -0.81670E-11         0.00000E+00
    0.67572E-08        -0.71511E-11         0.00000E+00
    0.67397E-08        -0.60030E-11         0.00000E+00
    0.67219E-08        -0.49742E-11         0.00000E+00
    0.67044E-08        -0.41955E-11         0.00000E+00
    0.66878E-08        -0.37045E-11         0.00000E+00
    0.66726E-08        -0.34638E-11         0.00000E+00
    0.66592E-08        -0.33691E-11         0.00000E+00
    0.66481E-08        -0.32503E-11         0.00000E+00
    0.66397E-08        -0.28668E-11         0.00000E+00
    0.66344E-08        -0.19020E-11         0.00000E+00
    0.66326E-08        -0.12299E-11         0.00000E+00
    0.70367E-08        -0.28845E-12         0.00000E+00
    0.70336E-08         0.27219E-12         0.00000E+00
    0.70253E-08         0.20764E-11         0.00000E+00
    0.70131E-08         0.47841E-11         0.00000E+00
    0.69980E-08         0.76230E-11         0.00000E+00
    0.69811E-08         0.10092E-10         0.00000E+00
    0.69632E-08         0.11898E-10         0.00000E+00
    0.69451E-08         0.12895E-10         0.00000E+00
    0.69274E-08         0.13044E-10         0.00000E+00
    0.69107E-08         0.12376E-10         0.00000E+00
    0.68953E-08         0.10979E-10         0.00000E+00
    0.68818E-08         0.89880E-11         0.00000E+00
    0.68706E-08         0.65959E-11         0.00000E+00
    0.68621E-08         0.40619E-11         0.00000E+00
    0.68567E-08         0.17280E-11         0.00000E+00
    0.68548E-08         0.65958E-12         0.00000E+00
    0.72374E-08         0.28824E-11         0.00000E+00
    0.72341E-08         0.61082E-11         0.00000E+00
    0.72255E-08         0.12580E-10         0.00000E+00
    0.72128E-08         0.18696E-10         0.00000E+00
    0.71975E-08         0.23827E-10         0.00000E+00
    0.71804E-08         0.27631E-10         0.00000E+00
    0.71625E-08         0.29966E-10         0.00000E+00
    0.71446E-08         0.30823E-10         0.00000E+00
    0.71272E-08         0.30268E-10         0.00000E+00
    0.71107E-08         0.28409E-10         0.00000E+00
    0.70957E-08         0.25376E-10         0.00000E+00
    0.70824E-08         0.21329E-10         0.00000E+00
    0.70713E-08         0.16463E-10         0.00000E+00
    0.70629E-08         0.11037E-10         0.00000E+00
    0.70575E-08         0.54018E-11         0.00000E+00
    0.70556E-08         0.25819E-11         0.00000E+00
    0.74107E-08         0.62103E-11         0.00000E+00
    0.74073E-08         0.12176E-10         0.00000E+00
    0.73985E-08         0.23375E-10         0.00000E+00
    0.73857E-08         0.32810E-10         0.00000E+00
    0.73705E-08         0.40060E-10         0.00000E+00
    0.73538E-08         0.44998E-10         0.00000E+00
    0.73365E-08         0.47683E-10         0.00000E+00
    0.73194E-08         0.48270E-10         0.00000E+00
    0.73028E-08         0.46947E-10         0.00000E+00
    0.72873E-08         0.43899E-10         0.00000E+00
    0.72730E-08         0.39297E-10         0.00000E+00
    0.72605E-08         0.33302E-10         0.00000E+00
    0.72499E-08         0.26091E-10         0.00000E+00
    0.72418E-08         0.17896E-10         0.00000E+00
    0.72365E-08         0.90447E-11         0.00000E+00
    0.72346E-08         0.45041E-11         0.00000E+00
    0.75549E-08         0.96420E-11         0.00000E+00
    0.75515E-08         0.18356E-10         0.00000E+00
    0.75426E-08         0.34200E-10         0.00000E+00
    0.75302E-08         0.46719E-10         0.00000E+00
    0.75156E-08         0.55785E-10         0.00000E+00
    0.75000E-08         0.61560E-10         0.00000E+00
    0.74841E-08         0.64356E-10         0.00000E+00
    0.74686E-08         0.64523E-10         0.00000E+00
    0.74537E-08         0.62387E-10         0.00000E+00
    0.74398E-08         0.58209E-10         0.00000E+00
    0.74271E-08         0.52185E-10         0.00000E+00
    0.74158E-08         0.44456E-10         0.00000E+00
    0.74062E-08         0.35149E-10         0.00000E+00
    0.73986E-08         0.24427E-10         0.00000E+00
    0.73937E-08         0.12561E-10         0.00000E+00
    0.73919E-08         0.63843E-11         0.00000E+00
    0.76680E-08         0.13099E-10         0.00000E+00
    0.76646E-08         0.24475E-10         0.00000E+00
    0.76561E-08         0.44685E-10         0.00000E+00
    0.76445E-08         0.59859E-10         0.00000E+00
    0.76314E-08         0.70274E-10         0.00000E+00
    0.76178E-08         0.76474E-10         0.00000E+00
    0.76043E-08         0.79081E-10         0.00000E+00
    0.75914E-08         0.78672E-10         0.00000E+00
    0.75793E-08         0.75712E-10         0.00000E+00
    0.75680E-08         0.70534E-10         0.00000E+00
    0.75576E-08         0.63337E-10         0.00000E+00
    0.75483E-08         0.54217E-10         0.00000E+00
    0.75402E-08         0.43210E-10         0.00000E+00
    0.75337E-08         0.30363E-10         0.00000E+00
    0.75293E-08         0.15829E-10         0.00000E+00
    0.75276E-08         0.81695E-11         0.00000E+00
    0.77479E-08         0.16466E-10         0.00000E+00
    0.77447E-08         0.30282E-10         0.00000E+00
    0.77370E-08         0.54303E-10         0.00000E+00
    0.77271E-08         0.71441E-10         0.00000E+00
    0.77165E-08         0.82541E-10         0.00000E+00
    0.77061E-08         0.88635E-10         0.00000E+00
    0.76963E-08         0.90709E-10         0.00000E+00
    0.76874E-08         0.89578E-10         0.00000E+00
    0.76791E-08         0.85842E-10         0.00000E+00
    0.76716E-08         0.79882E-10         0.00000E+00
    0.76646E-08         0.71884E-10         0.00000E+00
    0.76582E-08         0.61869E-10         0.00000E+00
    0.76523E-08         0.49738E-10         0.00000E+00
    0.76473E-08         0.35359E-10         0.00000E+00
    0.76437E-08         0.18692E-10         0.00000E+00
    0.76422E-08         0.97927E-11         0.00000E+00
    0.77921E-08         0.19572E-10         0.00000E+00
    0.77893E-08         0.35407E-10         0.00000E+00
    0.77831E-08         0.62290E-10         0.00000E+00
    0.77761E-08         0.80367E-10         0.00000E+00
    0.77695E-08         0.91265E-10         0.00000E+00
    0.77640E-08         0.96620E-10         0.00000E+00
    0.77595E-08         0.97811E-10         0.00000E+00
    0.77560E-08         0.95866E-10         0.00000E+00
    0.77532E-08         0.91486E-10         0.00000E+00
    0.77507E-08         0.85073E-10         0.00000E+00
    0.77483E-08         0.76778E-10         0.00000E+00
    0.77458E-08         0.66524E-10         0.00000E+00
    0.77431E-08         0.54048E-10         0.00000E+00
    0.77403E-08         0.38969E-10         0.00000E+00
    0.77378E-08         0.20947E-10         0.00000E+00
    0.77367E-08         0.11167E-10         0.00000E+00
    0.77979E-08         0.22153E-10         0.00000E+00
    0.77958E-08         0.39280E-10         0.00000E+00
    0.77924E-08         0.67507E-10         0.00000E+00
    0.77900E-08         0.85071E-10         0.00000E+00
    0.77895E-08         0.94674E-10         0.00000E+00
    0.77908E-08         0.98634E-10         0.00000E+00
    0.77936E-08         0.98667E-10         0.00000E+00
    0.77973E-08         0.95938E-10         0.00000E+00
    0.78014E-08         0.91172E-10         0.00000E+00
    0.78055E-08         0.84755E-10         0.00000E+00
    0.78091E-08         0.76786E-10         0.00000E+00
    0.78118E-08         0.67099E-10         0.00000E+00
    0.78133E-08         0.55263E-10         0.00000E+00
    0.78136E-08         0.40596E-10         0.00000E+00
    0.78129E-08         0.22315E-10         0.00000E+00
    0.78122E-08         0.12173E-10         0.00000E+00
    0.77617E-08         0.23760E-10         0.00000E+00
    0.77611E-08         0.40959E-10         0.00000E+00
    0.77623E-08         0.68161E-10         0.00000E+00
    0.77673E-08         0.83288E-10         0.00000E+00
    0.77757E-08         0.90425E-10         0.00000E+00
    0.77865E-08         0.92483E-10         0.00000E+00
    0.77987E-08         0.91312E-10         0.00000E+00
    0.78115E-08         0.88038E-10         0.00000E+00
    0.78242E-08         0.83313E-10         0.00000E+00
    0.78364E-08         0.77455E-10         0.00000E+00
    0.78473E-08         0.70515E-10         0.00000E+00
    0.78566E-08         0.62280E-10         0.00000E+00
    0.78639E-08         0.52223E-10         0.00000E+00
    0.78686E-08         0.39384E-10         0.00000E+00
    0.78705E-08         0.22374E-10         0.00000E+00
    0.78705E-08         0.12631E-10         0.00000E+00
    0.76788E-08         0.23518E-10         0.00000E+00
    0.76809E-08         0.38705E-10         0.00000E+00
    0.76910E-08         0.61253E-10         0.00000E+00
    0.77077E-08         0.71700E-10         0.00000E+00
    0.77286E-08         0.75522E-10         0.00000E+00
    0.77517E-08         0.75650E-10         0.00000E+00
    0.77755E-08         0.73652E-10         0.00000E+00
    0.77993E-08         0.70392E-10         0.00000E+00
    0.78222E-08         0.66337E-10         0.00000E+00
    0.78437E-08         0.61699E-10         0.00000E+00
    0.78634E-08         0.56494E-10         0.00000E+00
    0.78809E-08         0.50536E-10         0.00000E+00
    0.78955E-08         0.43354E-10         0.00000E+00
    0.79065E-08         0.33987E-10         0.00000E+00
    0.79129E-08         0.20394E-10         0.00000E+00
    0.79140E-08         0.12191E-10         0.00000E+00
    0.75395E-08         0.19444E-10         0.00000E+00
    0.75512E-08         0.28750E-10         0.00000E+00
    0.75782E-08         0.41394E-10         0.00000E+00
    0.76125E-08         0.45693E-10         0.00000E+00
    0.76499E-08         0.46481E-10         0.00000E+00
    0.76880E-08         0.45544E-10         0.00000E+00
    0.77256E-08         0.43715E-10         0.00000E+00
    0.77617E-08         0.41421E-10         0.00000E+00
    0.77960E-08         0.38878E-10         0.00000E+00
    0.78280E-08         0.36183E-10         0.00000E+00
    0.78577E-08         0.33335E-10         0.00000E+00
    0.78845E-08         0.30239E-10         0.00000E+00
    0.79082E-08         0.26645E-10         0.00000E+00
    0.79279E-08         0.21990E-10         0.00000E+00
    0.79422E-08         0.14831E-10         0.00000E+00
    0.79483E-08         0.10364E-10         0.00000E+00
    0.74541E-08         0.00000E+00         0.00000E+00
    0.74735E-08         0.00000E+00         0.00000E+00
    0.75116E-08         0.00000E+00         0.00000E+00
    0.75563E-08         0.00000E+00         0.00000E+00
    0.76030E-08         0.33156E-21         0.00000E+00
    0.76493E-08         0.00000E+00         0.00000E+00
    0.76941E-08         0.00000E+00         0.00000E+00
    0.77367E-08         0.00000E+00         0.00000E+00
    0.77769E-08         0.00000E+00         0.00000E+00
    0.78145E-08         0.00000E+00         0.00000E+00
    0.78493E-08         0.33156E-21         0.00000E+00
    0.78812E-08        -0.33156E-21         0.00000E+00
    0.79098E-08        -0.33156E-21         0.00000E+00
    0.79345E-08         0.33156E-21         0.00000E+00
    0.79538E-08         0.66312E-21         0.00000E+00
    0.79641E-08         0.00000E+00         0.00000E+00
CELL_DATA        450
TENSORS stressef double 
   -0.12325E+08        -0.28131E+02         0.00000E+00
   -0.28131E+02        -0.49724E+08         0.00000E+00
    0.00000E+00         0.00000E+00        -0.12410E+08
 
   -0.12335E+08        -0.70020E+02         0.00000E+00
   -0.70020E+02        -0.49724E+08         0.00000E+00
    0.00000E+00         0.00000E+00        -0.12412E+08
 
   -0.12344E+08        -0.91374E+02         0.00000E+00
   -0.91374E+02        -0.49725E+08         0.00000E+00
    0.00000E+00         0.00000E+00        -0.12414E+08
 
   -0.12352E+08        -0.91022E+02         0.00000E+00
   -0.91022E+02        -0.49725E+08         0.00000E+00
    0.00000E+00         0.00000E+00        -0.12415E+08
 
   -0.12360E+08        -0.68139E+02         0.00000E+00
   -0.68139E+02        -0.49725E+08         0.00000E+00
    0.00000E+00         0.00000E+00        -0.12417E+08
 
   -0.12367E+08        -0.22210E+02         0.00000E+00
   -0.22210E+02        -0.49726E+08         0.00000E+00
    0.00000E+00         0.00000E+00        -0.12419E+08
 
   -0.12374E+08         0.47011E+02         0.00000E+00
    0.47011E+02        -0.49726E+08         0.00000E+00
    0.00000E+00         0.00000E+00        -0.12420E+08
 
   -0.12381E+08         0.13954E+03         0.00000E+00
    0.13954E+03        -0.49726E+08         0.00000E+00
    0.00000E+00         0.00000E+00        -0.12421E+08
 
   -0.12387E+08         0.25522E+03         0.00000E+00
    0.25522E+03        -0.49726E+08         0.00000E+00
    0.00000E+00         0.00000E+00        -0.12423E+08
 
   -0.12394E+08         0.39376E+03         0.00000E+00
    0.39376E+03        -0.49726E+08         0.00000E+00
    0.00000E+00         0.00000E+00        -0.12424E+08
 
   -0.12400E+08         0.55476E+03         0.00000E+00
    0.55476E+03        -0.49725E+08         0.00000E+00
    0.00000E+00         0.00000E+00        -0.12425E+08
 
   -0.12406E+08         0.73780E+03         0.00000E+00
    0.73780E+03        -0.49724E+08         0.00000E+00
    0.00000E+00         0.00000E+00        -0.12426E+08
 
   -0.12413E+08         0.94247E+03         0.00000E+00
    0.94247E+03        -0.49722E+08         0.00000E+00
    0.00000E+00         0.00000E+00        -0.12427E+08
 
   -0.12419E+08         0.11684E+04         0.00000E+00
    0.11684E+04        -0.49720E+08         0.00000E+00
    0.00000E+00         0.00000E+00        -0.12428E+08
 
   -0.12426E+08         0.14153E+04         0.00000E+00
    0.14153E+04        -0.49718E+08         0.00000E+00
    0.00000E+00         0.00000E+00        -0.12429E+08
 
   -0.12326E+08        -0.85089E+02         0.00000E+00
   -0.85089E+02        -0.49725E+08         0.00000E+00
    0.00000E+00         0.00000E+00        -0.12410E+08
 
   -0.12335E+08        -0.21200E+03         0.00000E+00
   -0.21200E+03        -0.49725E+08         0.00000E+00
    0.00000E+00         0.00000E+00        -0.12412E+08
 
   -0.12344E+08        -0.27712E+03         0.00000E+00
   -0.27712E+03        -0.49725E+08         0.00000E+00
    0.00000E+00         0.00000E+00        -0.12414E+08
 
   -0.12353E+08        -0.27694E+03         0.00000E+00
   -0.27694E+03        -0.49726E+08         0.00000E+00
    0.00000E+00         0.00000E+00        -0.12416E+08
 
   -0.12361E+08        -0.20901E+03         0.00000E+00
   -0.20901E+03        -0.49726E+08         0.00000E+00
    0.00000E+00         0.00000E+00        -0.12417E+08
 
   -0.12368E+08        -0.71821E+02         0.00000E+00
   -0.71821E+02        -0.49726E+08         0.00000E+00
    0.00000E+00         0.00000E+00        -0.12419E+08
 
   -0.12375E+08         0.13535E+03         0.00000E+00
    0.13535E+03        -0.49727E+08         0.00000E+00
    0.00000E+00         0.00000E+00        -0.12420E+08
 
   -0.12381E+08         0.41253E+03         0.00000E+00
    0.41253E+03        -0.49727E+08         0.00000E+00
    0.00000E+00         0.00000E+00        -0.12422E+08
 
   -0.12388E+08         0.75921E+03         0.00000E+00
    0.75921E+03        -0.49727E+08         0.00000E+00
    0.00000E+00         0.00000E+00        -0.12423E+08
 
   -0.12394E+08         0.11745E+04         0.00000E+00
    0.11745E+04        -0.49726E+08         0.00000E+00
    0.00000E+00         0.00000E+00        -0.12424E+08
 
   -0.12400E+08         0.16572E+04         0.00000E+00
    0.16572E+04        -0.49726E+08         0.00000E+00
    0.00000E+00         0.00000E+00        -0.12425E+08
 
   -0.12407E+08         0.22059E+04         0.00000E+00
    0.22059E+04        -0.49725E+08         0.00000E+00
    0.00000E+00         0.00000E+00        -0.12426E+08
 
   -0.12413E+08         0.28195E+04         0.00000E+00
    0.28195E+04        -0.49723E+08         0.00000E+00
    0.00000E+00         0.00000E+00        -0.12427E+08
 
   -0.12419E+08         0.34968E+04         0.00000E+00
    0.34968E+04        -0.49721E+08         0.00000E+00
    0.00000E+00         0.00000E+00        -0.12428E+08
 
   -0.12426E+08         0.42371E+04         0.00000E+00
    0.42371E+04        -0.49719E+08         0.00000E+00
    0.00000E+00         0.00000E+00        -0.12429E+08
 
   -0.12327E+08        -0.14414E+03         0.00000E+00
   -0.14414E+03        -0.49726E+08         0.00000E+00
    0.00000E+00         0.00000E+00        -0.12411E+08
 
   -0.12337E+08        -0.35980E+03         0.00000E+00
   -0.35980E+03        -0.49727E+08         0.00000E+00
    0.00000E+00         0.00000E+00        -0.12413E+08
 
   -0.12346E+08        -0.47182E+03         0.00000E+00
   -0.47182E+03        -0.49727E+08         0.00000E+00
    0.00000E+00         0.00000E+00        -0.12415E+08
 
   -0.12354E+08        -0.47445E+03         0.00000E+00
   -0.47445E+03        -0.49727E+08         0.00000E+00
    0.00000E+00         0.00000E+00        -0.12416E+08
 
   -0.12362E+08        -0.36365E+03         0.00000E+00
   -0.36365E+03        -0.49728E+08         0.00000E+00
    0.00000E+00         0.00000E+00        -0.12418E+08
 
   -0.12369E+08        -0.13697E+03         0.00000E+00
   -0.13697E+03        -0.49728E+08         0.00000E+00
    0.00000E+00         0.00000E+00        -0.12419E+08
 
   -0.12376E+08         0.20668E+03         0.00000E+00
    0.20668E+03        -0.49728E+08         0.00000E+00
    0.00000E+00         0.00000E+00        -0.12421E+08
 
   -0.12383E+08         0.66728E+03         0.00000E+00
    0.66728E+03        -0.49729E+08         0.00000E+00
    0.00000E+00         0.00000E+00        -0.12422E+08
 
   -0.12389E+08         0.12439E+04         0.00000E+00
    0.12439E+04        -0.49728E+08         0.00000E+00
    0.00000E+00         0.00000E+00        -0.12423E+08
 
   -0.12395E+08         0.19349E+04         0.00000E+00
    0.19349E+04        -0.49728E+08         0.00000E+00
    0.00000E+00         0.00000E+00        -0.12425E+08
 
   -0.12401E+08         0.27382E+04         0.00000E+00
    0.27382E+04        -0.49727E+08         0.00000E+00
    0.00000E+00         0.00000E+00        -0.12426E+08
 
   -0.12407E+08         0.36517E+04         0.00000E+00
    0.36517E+04        -0.49726E+08         0.00000E+00
    0.00000E+00         0.00000E+00        -0.12427E+08
 
   -0.12414E+08         0.46730E+04         0.00000E+00
    0.46730E+04        -0.49725E+08         0.00000E+00
    0.00000E+00         0.00000E+00        -0.12428E+08
 
   -0.12420E+08         0.58003E+04         0.00000E+00
    0.58003E+04        -0.49723E+08         0.00000E+00
    0.00000E+00         0.00000E+00        -0.12429E+08
 
   -0.12426E+08         0.70320E+04         0.00000E+00
    0.70320E+04        -0.49720E+08         0.00000E+00
    0.00000E+00         0.00000E+00        -0.12429E+08
 
   -0.12330E+08        -0.20667E+03         0.00000E+00
   -0.20667E+03        -0.49729E+08         0.00000E+00
    0.00000E+00         0.00000E+00        -0.12412E+08
 
   -0.12340E+08        -0.51728E+03         0.00000E+00
   -0.51728E+03        -0.49729E+08         0.00000E+00
    0.00000E+00         0.00000E+00        -0.12414E+08
 
   -0.12348E+08        -0.68144E+03         0.00000E+00
   -0.68144E+03        -0.49729E+08         0.00000E+00
    0.00000E+00         0.00000E+00        -0.12416E+08
 
   -0.12357E+08        -0.69121E+03         0.00000E+00
   -0.69121E+03        -0.49730E+08         0.00000E+00
    0.00000E+00         0.00000E+00        -0.12417E+08
 
   -0.12364E+08        -0.54112E+03         0.00000E+00
   -0.54112E+03        -0.49730E+08         0.00000E+00
    0.00000E+00         0.00000E+00        -0.12419E+08
 
   -0.12371E+08        -0.22790E+03         0.00000E+00
   -0.22790E+03        -0.49731E+08         0.00000E+00
    0.00000E+00         0.00000E+00        -0.12420E+08
 
   -0.12378E+08         0.24981E+03         0.00000E+00
    0.24981E+03        -0.49731E+08         0.00000E+00
    0.00000E+00         0.00000E+00        -0.12422E+08
 
   -0.12384E+08         0.89177E+03         0.00000E+00
    0.89177E+03        -0.49731E+08         0.00000E+00
    0.00000E+00         0.00000E+00        -0.12423E+08
 
   -0.12390E+08         0.16965E+04         0.00000E+00
    0.16965E+04        -0.49731E+08         0.00000E+00
    0.00000E+00         0.00000E+00        -0.12424E+08
 
   -0.12397E+08         0.26616E+04         0.00000E+00
    0.26616E+04        -0.49731E+08         0.00000E+00
    0.00000E+00         0.00000E+00        -0.12425E+08
 
   -0.12402E+08         0.37840E+04         0.00000E+00
    0.37840E+04        -0.49730E+08         0.00000E+00
    0.00000E+00         0.00000E+00        -0.12426E+08
 
   -0.12408E+08         0.50604E+04         0.00000E+00
    0.50604E+04        -0.49729E+08         0.00000E+00
    0.00000E+00         0.00000E+00        -0.12427E+08
 
   -0.12415E+08         0.64874E+04         0.00000E+00
    0.64874E+04        -0.49728E+08         0.00000E+00
    0.00000E+00         0.00000E+00        -0.12428E+08
 
   -0.12421E+08         0.80622E+04         0.00000E+00
    0.80622E+04        -0.49726E+08         0.00000E+00
    0.00000E+00         0.00000E+00        -0.12429E+08
 
   -0.12427E+08         0.97826E+04         0.00000E+00
    0.97826E+04        -0.49723E+08         0.00000E+00
    0.00000E+00         0.00000E+00        -0.12430E+08
 
   -0.12334E+08        -0.27406E+03         0.00000E+00
   -0.27406E+03        -0.49732E+08         0.00000E+00
    0.00000E+00         0.00000E+00        -0.12413E+08
 
   -0.12343E+08        -0.68827E+03         0.00000E+00
   -0.68827E+03        -0.49732E+08         0.00000E+00
    0.00000E+00         0.00000E+00        -0.12415E+08
 
   -0.12352E+08        -0.91184E+03         0.00000E+00
   -0.91184E+03        -0.49732E+08         0.00000E+00
    0.00000E+00         0.00000E+00        -0.12417E+08
 
   -0.12360E+08        -0.93478E+03         0.00000E+00
   -0.93478E+03        -0.49733E+08         0.00000E+00
    0.00000E+00         0.00000E+00        -0.12418E+08
 
   -0.12367E+08        -0.75035E+03         0.00000E+00
   -0.75035E+03        -0.49733E+08         0.00000E+00
    0.00000E+00         0.00000E+00        -0.12420E+08
 
   -0.12374E+08        -0.35464E+03         0.00000E+00
   -0.35464E+03        -0.49734E+08         0.00000E+00
    0.00000E+00         0.00000E+00        -0.12422E+08
 
   -0.12380E+08         0.25376E+03         0.00000E+00
    0.25376E+03        -0.49734E+08         0.00000E+00
    0.00000E+00         0.00000E+00        -0.12423E+08
 
   -0.12387E+08         0.10743E+04         0.00000E+00
    0.10743E+04        -0.49734E+08         0.00000E+00
    0.00000E+00         0.00000E+00        -0.12424E+08
 
   -0.12393E+08         0.21047E+04         0.00000E+00
    0.21047E+04        -0.49734E+08         0.00000E+00
    0.00000E+00         0.00000E+00        -0.12425E+08
 
   -0.12398E+08         0.33415E+04         0.00000E+00
    0.33415E+04        -0.49734E+08         0.00000E+00
    0.00000E+00         0.00000E+00        -0.12426E+08
 
   -0.12404E+08         0.47807E+04         0.00000E+00
    0.47807E+04        -0.49733E+08         0.00000E+00
    0.00000E+00         0.00000E+00        -0.12428E+08
 
   -0.12410E+08         0.64175E+04         0.00000E+00
    0.64175E+04        -0.49733E+08         0.00000E+00
    0.00000E+00         0.00000E+00        -0.12428E+08
 
   -0.12416E+08         0.82474E+04         0.00000E+00
    0.82474E+04        -0.49731E+08         0.00000E+00
    0.00000E+00         0.00000E+00        -0.12429E+08
 
   -0.12422E+08         0.10266E+05         0.00000E+00
    0.10266E+05        -0.49729E+08         0.00000E+00
    0.00000E+00         0.00000E+00        -0.12430E+08
 
   -0.12428E+08         0.12471E+05         0.00000E+00
    0.12471E+05        -0.49727E+08         0.00000E+00
    0.00000E+00         0.00000E+00        -0.12431E+08
 
   -0.12338E+08        -0.34771E+03         0.00000E+00
   -0.34771E+03        -0.49736E+08         0.00000E+00
    0.00000E+00         0.00000E+00        -0.12415E+08
 
   -0.12347E+08        -0.87656E+03         0.00000E+00
   -0.87656E+03        -0.49736E+08         0.00000E+00
    0.00000E+00         0.00000E+00        -0.12417E+08
 
   -0.12356E+08        -0.11688E+04         0.00000E+00
   -0.11688E+04        -0.49736E+08         0.00000E+00
    0.00000E+00         0.00000E+00        -0.12418E+08
 
   -0.12363E+08        -0.12125E+04         0.00000E+00
   -0.12125E+04        -0.49737E+08         0.00000E+00
    0.00000E+00         0.00000E+00        -0.12420E+08
 
   -0.12370E+08        -0.10000E+04         0.00000E+00
   -0.10000E+04        -0.49737E+08         0.00000E+00
    0.00000E+00         0.00000E+00        -0.12422E+08
 
   -0.12377E+08        -0.52696E+03         0.00000E+00
   -0.52696E+03        -0.49738E+08         0.00000E+00
    0.00000E+00         0.00000E+00        -0.12423E+08
 
   -0.12383E+08         0.20792E+03         0.00000E+00
    0.20792E+03        -0.49738E+08         0.00000E+00
    0.00000E+00         0.00000E+00        -0.12424E+08
 
   -0.12389E+08         0.12034E+04         0.00000E+00
    0.12034E+04        -0.49738E+08         0.00000E+00
    0.00000E+00         0.00000E+00        -0.12426E+08
 
   -0.12395E+08         0.24563E+04         0.00000E+00
    0.24563E+04        -0.49738E+08         0.00000E+00
    0.00000E+00         0.00000E+00        -0.12427E+08
 
   -0.12401E+08         0.39620E+04         0.00000E+00
    0.39620E+04        -0.49738E+08         0.00000E+00
    0.00000E+00         0.00000E+00        -0.12428E+08
 
   -0.12406E+08         0.57149E+04         0.00000E+00
    0.57149E+04        -0.49738E+08         0.00000E+00
    0.00000E+00         0.00000E+00        -0.12429E+08
 
   -0.12412E+08         0.77090E+04         0.00000E+00
    0.77090E+04        -0.49737E+08         0.00000E+00
    0.00000E+00         0.00000E+00        -0.12430E+08
 
   -0.12418E+08         0.99383E+04         0.00000E+00
    0.99383E+04        -0.49736E+08         0.00000E+00
    0.00000E+00         0.00000E+00        -0.12431E+08
 
   -0.12423E+08         0.12397E+05         0.00000E+00
    0.12397E+05        -0.49734E+08         0.00000E+00
    0.00000E+00         0.00000E+00        -0.12431E+08
 
   -0.12429E+08         0.15082E+05         0.00000E+00
    0.15082E+05        -0.49732E+08         0.00000E+00
    0.00000E+00         0.00000E+00        -0.12432E+08
 
   -0.12343E+08        -0.42896E+03         0.00000E+00
   -0.42896E+03        -0.49740E+08         0.00000E+00
    0.00000E+00         0.00000E+00        -0.12417E+08
 
   -0.12352E+08        -0.10859E+04         0.00000E+00
   -0.10859E+04        -0.49741E+08         0.00000E+00
    0.00000E+00         0.00000E+00        -0.12419E+08
 
   -0.12360E+08        -0.14579E+04         0.00000E+00
   -0.14579E+04        -0.49741E+08         0.00000E+00
    0.00000E+00         0.00000E+00        -0.12420E+08
 
   -0.12368E+08        -0.15316E+04         0.00000E+00
   -0.15316E+04        -0.49742E+08         0.00000E+00
    0.00000E+00         0.00000E+00        -0.12422E+08
 
   -0.12375E+08        -0.12985E+04         0.00000E+00
   -0.12985E+04        -0.49742E+08         0.00000E+00
    0.00000E+00         0.00000E+00        -0.12423E+08
 
   -0.12381E+08        -0.75418E+03         0.00000E+00
   -0.75418E+03        -0.49743E+08         0.00000E+00
    0.00000E+00         0.00000E+00        -0.12425E+08
 
   -0.12387E+08         0.10210E+03         0.00000E+00
    0.10210E+03        -0.49743E+08         0.00000E+00
    0.00000E+00         0.00000E+00        -0.12426E+08
 
   -0.12393E+08         0.12682E+04         0.00000E+00
    0.12682E+04        -0.49743E+08         0.00000E+00
    0.00000E+00         0.00000E+00        -0.12427E+08
 
   -0.12398E+08         0.27398E+04         0.00000E+00
    0.27398E+04        -0.49743E+08         0.00000E+00
    0.00000E+00         0.00000E+00        -0.12428E+08
 
   -0.12404E+08         0.45108E+04         0.00000E+00
    0.45108E+04        -0.49743E+08         0.00000E+00
    0.00000E+00         0.00000E+00        -0.12429E+08
 
   -0.12409E+08         0.65739E+04         0.00000E+00
    0.65739E+04        -0.49743E+08         0.00000E+00
    0.00000E+00         0.00000E+00        -0.12430E+08
 
   -0.12414E+08         0.89215E+04         0.00000E+00
    0.89215E+04        -0.49742E+08         0.00000E+00
    0.00000E+00         0.00000E+00        -0.12431E+08
 
   -0.12420E+08         0.11546E+05         0.00000E+00
    0.11546E+05        -0.49741E+08         0.00000E+00
    0.00000E+00         0.00000E+00        -0.12432E+08
 
   -0.12425E+08         0.14440E+05         0.00000E+00
    0.14440E+05        -0.49739E+08         0.00000E+00
    0.00000E+00         0.00000E+00        -0.12433E+08
 
   -0.12431E+08         0.17597E+05         0.00000E+00
    0.17597E+05        -0.49737E+08         0.00000E+00
    0.00000E+00         0.00000E+00        -0.12434E+08
 
   -0.12350E+08        -0.51915E+03         0.00000E+00
   -0.51915E+03        -0.49746E+08         0.00000E+00
    0.00000E+00         0.00000E+00        -0.12419E+08
 
   -0.12358E+08        -0.13198E+04         0.00000E+00
   -0.13198E+04        -0.49746E+08         0.00000E+00
    0.00000E+00         0.00000E+00        -0.12421E+08
 
   -0.12366E+08        -0.17845E+04         0.00000E+00
   -0.17845E+04        -0.49746E+08         0.00000E+00
    0.00000E+00         0.00000E+00        -0.12422E+08
 
   -0.12373E+08        -0.18988E+04         0.00000E+00
   -0.18988E+04        -0.49747E+08         0.00000E+00
    0.00000E+00         0.00000E+00        -0.12424E+08
 
   -0.12380E+08        -0.16536E+04         0.00000E+00
   -0.16536E+04        -0.49748E+08         0.00000E+00
    0.00000E+00         0.00000E+00        -0.12425E+08
 
   -0.12386E+08        -0.10451E+04         0.00000E+00
   -0.10451E+04        -0.49748E+08         0.00000E+00
    0.00000E+00         0.00000E+00        -0.12427E+08
 
   -0.12391E+08        -0.73197E+02         0.00000E+00
   -0.73197E+02        -0.49749E+08         0.00000E+00
    0.00000E+00         0.00000E+00        -0.12428E+08
 
   -0.12397E+08         0.12586E+04         0.00000E+00
    0.12586E+04        -0.49749E+08         0.00000E+00
    0.00000E+00         0.00000E+00        -0.12429E+08
 
   -0.12402E+08         0.29444E+04         0.00000E+00
    0.29444E+04        -0.49749E+08         0.00000E+00
    0.00000E+00         0.00000E+00        -0.12430E+08
 
   -0.12407E+08         0.49764E+04         0.00000E+00
    0.49764E+04        -0.49749E+08         0.00000E+00
    0.00000E+00         0.00000E+00        -0.12431E+08
 
   -0.12412E+08         0.73455E+04         0.00000E+00
    0.73455E+04        -0.49749E+08         0.00000E+00
    0.00000E+00         0.00000E+00        -0.12432E+08
 
   -0.12417E+08         0.10042E+05         0.00000E+00
    0.10042E+05        -0.49748E+08         0.00000E+00
    0.00000E+00         0.00000E+00        -0.12433E+08
 
   -0.12422E+08         0.13056E+05         0.00000E+00
    0.13056E+05        -0.49747E+08         0.00000E+00
    0.00000E+00         0.00000E+00        -0.12434E+08
 
   -0.12427E+08         0.16379E+05         0.00000E+00
    0.16379E+05        -0.49745E+08         0.00000E+00
    0.00000E+00         0.00000E+00        -0.12434E+08
 
   -0.12433E+08         0.20002E+05         0.00000E+00
    0.20002E+05        -0.49743E+08         0.00000E+00
    0.00000E+00         0.00000E+00        -0.12435E+08
 
   -0.12357E+08        -0.61957E+03         0.00000E+00
   -0.61957E+03        -0.49752E+08         0.00000E+00
    0.00000E+00         0.00000E+00        -0.12422E+08
 
   -0.12365E+08        -0.15816E+04         0.00000E+00
   -0.15816E+04        -0.49752E+08         0.00000E+00
    0.00000E+00         0.00000E+00        -0.12423E+08
 
   -0.12372E+08        -0.21537E+04         0.00000E+00
   -0.21537E+04        -0.49753E+08         0.00000E+00
    0.00000E+00         0.00000E+00        -0.12425E+08
 
   -0.12379E+08        -0.23202E+04         0.00000E+00
   -0.23202E+04        -0.49753E+08         0.00000E+00
    0.00000E+00         0.00000E+00        -0.12426E+08
 
   -0.12385E+08        -0.20726E+04         0.00000E+00
   -0.20726E+04        -0.49754E+08         0.00000E+00
    0.00000E+00         0.00000E+00        -0.12428E+08
 
   -0.12391E+08        -0.14076E+04         0.00000E+00
   -0.14076E+04        -0.49754E+08         0.00000E+00
    0.00000E+00         0.00000E+00        -0.12429E+08
 
   -0.12396E+08        -0.32665E+03         0.00000E+00
   -0.32665E+03        -0.49755E+08         0.00000E+00
    0.00000E+00         0.00000E+00        -0.12430E+08
 
   -0.12401E+08         0.11652E+04         0.00000E+00
    0.11652E+04        -0.49755E+08         0.00000E+00
    0.00000E+00         0.00000E+00        -0.12431E+08
 
   -0.12406E+08         0.30602E+04         0.00000E+00
    0.30602E+04        -0.49756E+08         0.00000E+00
    0.00000E+00         0.00000E+00        -0.12432E+08
 
   -0.12410E+08         0.53483E+04         0.00000E+00
    0.53483E+04        -0.49756E+08         0.00000E+00
    0.00000E+00         0.00000E+00        -0.12433E+08
 
   -0.12415E+08         0.80183E+04         0.00000E+00
    0.80183E+04        -0.49755E+08         0.00000E+00
    0.00000E+00         0.00000E+00        -0.12434E+08
 
   -0.12420E+08         0.11058E+05         0.00000E+00
    0.11058E+05        -0.49755E+08         0.00000E+00
    0.00000E+00         0.00000E+00        -0.12435E+08
 
   -0.12424E+08         0.14457E+05         0.00000E+00
    0.14457E+05        -0.49754E+08         0.00000E+00
    0.00000E+00         0.00000E+00        -0.12436E+08
 
   -0.12429E+08         0.18201E+05         0.00000E+00
    0.18201E+05        -0.49752E+08         0.00000E+00
    0.00000E+00         0.00000E+00        -0.12436E+08
 
   -0.12435E+08         0.22282E+05         0.00000E+00
    0.22282E+05        -0.49750E+08         0.00000E+00
    0.00000E+00         0.00000E+00        -0.12437E+08
 
   -0.12365E+08        -0.73140E+03         0.00000E+00
   -0.73140E+03        -0.49759E+08         0.00000E+00
    0.00000E+00         0.00000E+00        -0.12425E+08
 
   -0.12373E+08        -0.18747E+04         0.00000E+00
   -0.18747E+04        -0.49759E+08         0.00000E+00
    0.00000E+00         0.00000E+00        -0.12426E+08
 
   -0.12380E+08        -0.25699E+04         0.00000E+00
   -0.25699E+04        -0.49759E+08         0.00000E+00
    0.00000E+00         0.00000E+00        -0.12428E+08
 
   -0.12386E+08        -0.28016E+04         0.00000E+00
   -0.28016E+04        -0.49760E+08         0.00000E+00
    0.00000E+00         0.00000E+00        -0.12429E+08
 
   -0.12392E+08        -0.25619E+04         0.00000E+00
   -0.25619E+04        -0.49761E+08         0.00000E+00
    0.00000E+00         0.00000E+00        -0.12430E+08
 
   -0.12397E+08        -0.18488E+04         0.00000E+00
   -0.18488E+04        -0.49761E+08         0.00000E+00
    0.00000E+00         0.00000E+00        -0.12432E+08
 
   -0.12401E+08        -0.66583E+03         0.00000E+00
   -0.66583E+03        -0.49762E+08         0.00000E+00
    0.00000E+00         0.00000E+00        -0.12433E+08
 
   -0.12406E+08         0.97990E+03         0.00000E+00
    0.97990E+03        -0.49763E+08         0.00000E+00
    0.00000E+00         0.00000E+00        -0.12434E+08
 
   -0.12410E+08         0.30782E+04         0.00000E+00
    0.30782E+04        -0.49763E+08         0.00000E+00
    0.00000E+00         0.00000E+00        -0.12435E+08
 
   -0.12414E+08         0.56168E+04         0.00000E+00
    0.56168E+04        -0.49763E+08         0.00000E+00
    0.00000E+00         0.00000E+00        -0.12436E+08
 
   -0.12419E+08         0.85821E+04         0.00000E+00
    0.85821E+04        -0.49763E+08         0.00000E+00
    0.00000E+00         0.00000E+00        -0.12436E+08
 
   -0.12423E+08         0.11960E+05         0.00000E+00
    0.11960E+05        -0.49762E+08         0.00000E+00
    0.00000E+00         0.00000E+00        -0.12437E+08
 
   -0.12427E+08         0.15735E+05         0.00000E+00
    0.15735E+05        -0.49761E+08         0.00000E+00
    0.00000E+00         0.00000E+00        -0.12438E+08
 
   -0.12432E+08         0.19894E+05         0.00000E+00
    0.19894E+05        -0.49760E+08         0.00000E+00
    0.00000E+00         0.00000E+00        -0.12438E+08
 
   -0.12437E+08         0.24423E+05         0.00000E+00
    0.24423E+05        -0.49758E+08         0.00000E+00
    0.00000E+00         0.00000E+00        -0.12439E+08
 
   -0.12374E+08        -0.85576E+03         0.00000E+00
   -0.85576E+03        -0.49766E+08         0.00000E+00
    0.00000E+00         0.00000E+00        -0.12428E+08
 
   -0.12381E+08        -0.22016E+04         0.00000E+00
   -0.22016E+04        -0.49766E+08         0.00000E+00
    0.00000E+00         0.00000E+00        -0.12430E+08
 
   -0.12388E+08        -0.30372E+04         0.00000E+00
   -0.30372E+04        -0.49767E+08         0.00000E+00
    0.00000E+00         0.00000E+00        -0.12431E+08
 
   -0.12393E+08        -0.33476E+04         0.00000E+00
   -0.33476E+04        -0.49768E+08         0.00000E+00
    0.00000E+00         0.00000E+00        -0.12432E+08
 
   -0.12399E+08        -0.31265E+04         0.00000E+00
   -0.31265E+04        -0.49768E+08         0.00000E+00
    0.00000E+00         0.00000E+00        -0.12433E+08
 
   -0.12403E+08        -0.23743E+04         0.00000E+00
   -0.23743E+04        -0.49769E+08         0.00000E+00
    0.00000E+00         0.00000E+00        -0.12434E+08
 
   -0.12407E+08        -0.10969E+04         0.00000E+00
   -0.10969E+04        -0.49770E+08         0.00000E+00
    0.00000E+00         0.00000E+00        -0.12435E+08
 
   -0.12411E+08         0.69589E+03         0.00000E+00
    0.69589E+03        -0.49770E+08         0.00000E+00
    0.00000E+00         0.00000E+00        -0.12436E+08
 
   -0.12415E+08         0.29911E+04         0.00000E+00
    0.29911E+04        -0.49771E+08         0.00000E+00
    0.00000E+00         0.00000E+00        -0.12437E+08
 
   -0.12419E+08         0.57737E+04         0.00000E+00
    0.57737E+04        -0.49771E+08         0.00000E+00
    0.00000E+00         0.00000E+00        -0.12438E+08
 
   -0.12423E+08         0.90275E+04         0.00000E+00
    0.90275E+04        -0.49771E+08         0.00000E+00
    0.00000E+00         0.00000E+00        -0.12439E+08
 
   -0.12427E+08         0.12735E+05         0.00000E+00
    0.12735E+05        -0.49771E+08         0.00000E+00
    0.00000E+00         0.00000E+00        -0.12439E+08
 
   -0.12431E+08         0.16880E+05         0.00000E+00
    0.16880E+05        -0.49770E+08         0.00000E+00
    0.00000E+00         0.00000E+00        -0.12440E+08
 
   -0.12435E+08         0.21444E+05         0.00000E+00
    0.21444E+05        -0.49769E+08         0.00000E+00
    0.00000E+00         0.00000E+00        -0.12441E+08
 
   -0.12439E+08         0.26412E+05         0.00000E+00
    0.26412E+05        -0.49767E+08         0.00000E+00
    0.00000E+00         0.00000E+00        -0.12441E+08
 
   -0.12384E+08        -0.99358E+03         0.00000E+00
   -0.99358E+03        -0.49774E+08         0.00000E+00
    0.00000E+00         0.00000E+00        -0.12432E+08
 
   -0.12391E+08        -0.25647E+04         0.00000E+00
   -0.25647E+04        -0.49775E+08         0.00000E+00
    0.00000E+00         0.00000E+00        -0.12433E+08
 
   -0.12396E+08        -0.35584E+04         0.00000E+00
   -0.35584E+04        -0.49775E+08         0.00000E+00
    0.00000E+00         0.00000E+00        -0.12434E+08
 
   -0.12402E+08        -0.39616E+04         0.00000E+00
   -0.39616E+04        -0.49776E+08         0.00000E+00
    0.00000E+00         0.00000E+00        -0.12435E+08
 
   -0.12406E+08        -0.37703E+04         0.00000E+00
   -0.37703E+04        -0.49777E+08         0.00000E+00
    0.00000E+00         0.00000E+00        -0.12437E+08
 
   -0.12410E+08        -0.29881E+04         0.00000E+00
   -0.29881E+04        -0.49778E+08         0.00000E+00
    0.00000E+00         0.00000E+00        -0.12438E+08
 
   -0.12414E+08        -0.16242E+04         0.00000E+00
   -0.16242E+04        -0.49778E+08         0.00000E+00
    0.00000E+00         0.00000E+00        -0.12438E+08
 
   -0.12417E+08         0.30831E+03         0.00000E+00
    0.30831E+03        -0.49779E+08         0.00000E+00
    0.00000E+00         0.00000E+00        -0.12439E+08
 
   -0.12421E+08         0.27932E+04         0.00000E+00
    0.27932E+04        -0.49780E+08         0.00000E+00
    0.00000E+00         0.00000E+00        -0.12440E+08
 
   -0.12424E+08         0.58124E+04         0.00000E+00
    0.58124E+04        -0.49780E+08         0.00000E+00
    0.00000E+00         0.00000E+00        -0.12441E+08
 
   -0.12427E+08         0.93469E+04         0.00000E+00
    0.93469E+04        -0.49780E+08         0.00000E+00
    0.00000E+00         0.00000E+00        -0.12441E+08
 
   -0.12430E+08         0.13377E+05         0.00000E+00
    0.13377E+05        -0.49780E+08         0.00000E+00
    0.00000E+00         0.00000E+00        -0.12442E+08
 
   -0.12434E+08         0.17882E+05         0.00000E+00
    0.17882E+05        -0.49779E+08         0.00000E+00
    0.00000E+00         0.00000E+00        -0.12443E+08
 
   -0.12438E+08         0.22842E+05         0.00000E+00
    0.22842E+05        -0.49778E+08         0.00000E+00
    0.00000E+00         0.00000E+00        -0.12443E+08
 
   -0.12442E+08         0.28238E+05         0.00000E+00
    0.28238E+05        -0.49776E+08         0.00000E+00
    0.00000E+00         0.00000E+00        -0.12444E+08
 
   -0.12395E+08        -0.11456E+04         0.00000E+00
   -0.11456E+04        -0.49783E+08         0.00000E+00
    0.00000E+00         0.00000E+00        -0.12436E+08
 
   -0.12401E+08        -0.29656E+04         0.00000E+00
   -0.29656E+04        -0.49783E+08         0.00000E+00
    0.00000E+00         0.00000E+00        -0.12437E+08
 
   -0.12406E+08        -0.41357E+04         0.00000E+00
   -0.41357E+04        -0.49784E+08         0.00000E+00
    0.00000E+00         0.00000E+00        -0.12438E+08
 
   -0.12410E+08        -0.46455E+04         0.00000E+00
   -0.46455E+04        -0.49785E+08         0.00000E+00
    0.00000E+00         0.00000E+00        -0.12439E+08
 
   -0.12414E+08        -0.44951E+04         0.00000E+00
   -0.44951E+04        -0.49786E+08         0.00000E+00
    0.00000E+00         0.00000E+00        -0.12440E+08
 
   -0.12418E+08        -0.36920E+04         0.00000E+00
   -0.36920E+04        -0.49787E+08         0.00000E+00
    0.00000E+00         0.00000E+00        -0.12441E+08
 
   -0.12421E+08        -0.22497E+04         0.00000E+00
   -0.22497E+04        -0.49787E+08         0.00000E+00
    0.00000E+00         0.00000E+00        -0.12442E+08
 
   -0.12424E+08        -0.18546E+03         0.00000E+00
   -0.18546E+03        -0.49788E+08         0.00000E+00
    0.00000E+00         0.00000E+00        -0.12442E+08
 
   -0.12426E+08         0.24808E+04         0.00000E+00
    0.24808E+04        -0.49789E+08         0.00000E+00
    0.00000E+00         0.00000E+00        -0.12443E+08
 
   -0.12429E+08         0.57280E+04         0.00000E+00
    0.57280E+04        -0.49789E+08         0.00000E+00
    0.00000E+00         0.00000E+00        -0.12444E+08
 
   -0.12432E+08         0.95339E+04         0.00000E+00
    0.95339E+04        -0.49789E+08         0.00000E+00
    0.00000E+00         0.00000E+00        -0.12444E+08
 
   -0.12435E+08         0.13876E+05         0.00000E+00
    0.13876E+05        -0.49789E+08         0.00000E+00
    0.00000E+00         0.00000E+00        -0.12445E+08
 
   -0.12438E+08         0.18731E+05         0.00000E+00
    0.18731E+05        -0.49789E+08         0.00000E+00
    0.00000E+00         0.00000E+00        -0.12445E+08
 
   -0.12441E+08         0.24076E+05         0.00000E+00
    0.24076E+05        -0.49788E+08         0.00000E+00
    0.00000E+00         0.00000E+00        -0.12446E+08
 
   -0.12445E+08         0.29888E+05         0.00000E+00
    0.29888E+05        -0.49786E+08         0.00000E+00
    0.00000E+00         0.00000E+00        -0.12446E+08
 
   -0.12406E+08        -0.13123E+04         0.00000E+00
   -0.13123E+04        -0.49792E+08         0.00000E+00
    0.00000E+00         0.00000E+00        -0.12440E+08
 
   -0.12412E+08        -0.34051E+04         0.00000E+00
   -0.34051E+04        -0.49793E+08         0.00000E+00
    0.00000E+00         0.00000E+00        -0.12441E+08
 
   -0.12416E+08        -0.47693E+04         0.00000E+00
   -0.47693E+04        -0.49793E+08         0.00000E+00
    0.00000E+00         0.00000E+00        -0.12442E+08
 
   -0.12420E+08        -0.53993E+04         0.00000E+00
   -0.53993E+04        -0.49794E+08         0.00000E+00
    0.00000E+00         0.00000E+00        -0.12443E+08
 
   -0.12423E+08        -0.53001E+04         0.00000E+00
   -0.53001E+04        -0.49795E+08         0.00000E+00
    0.00000E+00         0.00000E+00        -0.12444E+08
 
   -0.12426E+08        -0.44849E+04         0.00000E+00
   -0.44849E+04        -0.49796E+08         0.00000E+00
    0.00000E+00         0.00000E+00        -0.12444E+08
 
   -0.12428E+08        -0.29725E+04         0.00000E+00
   -0.29725E+04        -0.49797E+08         0.00000E+00
    0.00000E+00         0.00000E+00        -0.12445E+08
 
   -0.12431E+08        -0.78515E+03         0.00000E+00
   -0.78515E+03        -0.49798E+08         0.00000E+00
    0.00000E+00         0.00000E+00        -0.12446E+08
 
   -0.12433E+08         0.20533E+04         0.00000E+00
    0.20533E+04        -0.49799E+08         0.00000E+00
    0.00000E+00         0.00000E+00        -0.12446E+08
 
   -0.12435E+08         0.55180E+04         0.00000E+00
    0.55180E+04        -0.49799E+08         0.00000E+00
    0.00000E+00         0.00000E+00        -0.12447E+08
 
   -0.12437E+08         0.95843E+04         0.00000E+00
    0.95843E+04        -0.49799E+08         0.00000E+00
    0.00000E+00         0.00000E+00        -0.12447E+08
 
   -0.12439E+08         0.14227E+05         0.00000E+00
    0.14227E+05        -0.49799E+08         0.00000E+00
    0.00000E+00         0.00000E+00        -0.12448E+08
 
   -0.12442E+08         0.19420E+05         0.00000E+00
    0.19420E+05        -0.49799E+08         0.00000E+00
    0.00000E+00         0.00000E+00        -0.12448E+08
 
   -0.12444E+08         0.25138E+05         0.00000E+00
    0.25138E+05        -0.49798E+08         0.00000E+00
    0.00000E+00         0.00000E+00        -0.12449E+08
 
   -0.12447E+08         0.31352E+05         0.00000E+00
    0.31352E+05        -0.49797E+08         0.00000E+00
    0.00000E+00         0.00000E+00        -0.12449E+08
 
   -0.12419E+08        -0.14937E+04         0.00000E+00
   -0.14937E+04        -0.49802E+08         0.00000E+00
    0.00000E+00         0.00000E+00        -0.12444E+08
 
   -0.12423E+08        -0.38827E+04         0.00000E+00
   -0.38827E+04        -0.49803E+08         0.00000E+00
    0.00000E+00         0.00000E+00        -0.12445E+08
 
   -0.12427E+08        -0.54580E+04         0.00000E+00
   -0.54580E+04        -0.49803E+08         0.00000E+00
    0.00000E+00         0.00000E+00        -0.12446E+08
 
   -0.12430E+08        -0.62202E+04         0.00000E+00
   -0.62202E+04        -0.49804E+08         0.00000E+00
    0.00000E+00         0.00000E+00        -0.12447E+08
 
   -0.12433E+08        -0.61815E+04         0.00000E+00
   -0.61815E+04        -0.49805E+08         0.00000E+00
    0.00000E+00         0.00000E+00        -0.12448E+08
 
   -0.12435E+08        -0.53624E+04         0.00000E+00
   -0.53624E+04        -0.49806E+08         0.00000E+00
    0.00000E+00         0.00000E+00        -0.12448E+08
 
   -0.12436E+08        -0.37882E+04         0.00000E+00
   -0.37882E+04        -0.49807E+08         0.00000E+00
    0.00000E+00         0.00000E+00        -0.12449E+08
 
   -0.12438E+08        -0.14870E+04         0.00000E+00
   -0.14870E+04        -0.49808E+08         0.00000E+00
    0.00000E+00         0.00000E+00        -0.12449E+08
 
   -0.12439E+08         0.15127E+04         0.00000E+00
    0.15127E+04        -0.49809E+08         0.00000E+00
    0.00000E+00         0.00000E+00        -0.12450E+08
 
   -0.12441E+08         0.51828E+04         0.00000E+00
    0.51828E+04        -0.49810E+08         0.00000E+00
    0.00000E+00         0.00000E+00        -0.12450E+08
 
   -0.12442E+08         0.94957E+04         0.00000E+00
    0.94957E+04        -0.49810E+08         0.00000E+00
    0.00000E+00         0.00000E+00        -0.12450E+08
 
   -0.12444E+08         0.14424E+05         0.00000E+00
    0.14424E+05        -0.49810E+08         0.00000E+00
    0.00000E+00         0.00000E+00        -0.12451E+08
 
   -0.12446E+08         0.19941E+05         0.00000E+00
    0.19941E+05        -0.49810E+08         0.00000E+00
    0.00000E+00         0.00000E+00        -0.12451E+08
 
   -0.12448E+08         0.26018E+05         0.00000E+00
    0.26018E+05        -0.49809E+08         0.00000E+00
    0.00000E+00         0.00000E+00        -0.12451E+08
 
   -0.12451E+08         0.32622E+05         0.00000E+00
    0.32622E+05        -0.49808E+08         0.00000E+00
    0.00000E+00         0.00000E+00        -0.12452E+08
 
   -0.12432E+08        -0.16896E+04         0.00000E+00
   -0.16896E+04        -0.49813E+08         0.00000E+00
    0.00000E+00         0.00000E+00        -0.12449E+08
 
   -0.12436E+08        -0.43969E+04         0.00000E+00
   -0.43969E+04        -0.49813E+08         0.00000E+00
    0.00000E+00         0.00000E+00        -0.12450E+08
 
   -0.12439E+08        -0.61981E+04         0.00000E+00
   -0.61981E+04        -0.49814E+08         0.00000E+00
    0.00000E+00         0.00000E+00        -0.12451E+08
 
   -0.12441E+08        -0.71026E+04         0.00000E+00
   -0.71026E+04        -0.49815E+08         0.00000E+00
    0.00000E+00         0.00000E+00        -0.12451E+08
 
   -0.12443E+08        -0.71319E+04         0.00000E+00
   -0.71319E+04        -0.49816E+08         0.00000E+00
    0.00000E+00         0.00000E+00        -0.12452E+08
 
   -0.12444E+08        -0.63157E+04         0.00000E+00
   -0.63157E+04        -0.49817E+08         0.00000E+00
    0.00000E+00         0.00000E+00        -0.12452E+08
 
   -0.12445E+08        -0.46877E+04         0.00000E+00
   -0.46877E+04        -0.49818E+08         0.00000E+00
    0.00000E+00         0.00000E+00        -0.12453E+08
 
   -0.12445E+08        -0.22827E+04         0.00000E+00
   -0.22827E+04        -0.49819E+08         0.00000E+00
    0.00000E+00         0.00000E+00        -0.12453E+08
 
   -0.12446E+08         0.86556E+03         0.00000E+00
    0.86556E+03        -0.49820E+08         0.00000E+00
    0.00000E+00         0.00000E+00        -0.12453E+08
 
   -0.12447E+08         0.47257E+04         0.00000E+00
    0.47257E+04        -0.49821E+08         0.00000E+00
    0.00000E+00         0.00000E+00        -0.12453E+08
 
   -0.12448E+08         0.92684E+04         0.00000E+00
    0.92684E+04        -0.49821E+08         0.00000E+00
    0.00000E+00         0.00000E+00        -0.12454E+08
 
   -0.12449E+08         0.14466E+05         0.00000E+00
    0.14466E+05        -0.49821E+08         0.00000E+00
    0.00000E+00         0.00000E+00        -0.12454E+08
 
   -0.12450E+08         0.20289E+05         0.00000E+00
    0.20289E+05        -0.49821E+08         0.00000E+00
    0.00000E+00         0.00000E+00        -0.12454E+08
 
   -0.12452E+08         0.26707E+05         0.00000E+00
    0.26707E+05        -0.49821E+08         0.00000E+00
    0.00000E+00         0.00000E+00        -0.12454E+08
 
   -0.12454E+08         0.33686E+05         0.00000E+00
    0.33686E+05        -0.49820E+08         0.00000E+00
    0.00000E+00         0.00000E+00        -0.12455E+08
 
   -0.12447E+08        -0.18991E+04         0.00000E+00
   -0.18991E+04        -0.49824E+08         0.00000E+00
    0.00000E+00         0.00000E+00        -0.12454E+08
 
   -0.12450E+08        -0.49443E+04         0.00000E+00
   -0.49443E+04        -0.49824E+08         0.00000E+00
    0.00000E+00         0.00000E+00        -0.12455E+08
 
   -0.12451E+08        -0.69832E+04         0.00000E+00
   -0.69832E+04        -0.49825E+08         0.00000E+00
    0.00000E+00         0.00000E+00        -0.12455E+08
 
   -0.12453E+08        -0.80367E+04         0.00000E+00
   -0.80367E+04        -0.49826E+08         0.00000E+00
    0.00000E+00         0.00000E+00        -0.12456E+08
 
   -0.12453E+08        -0.81387E+04         0.00000E+00
   -0.81387E+04        -0.49827E+08         0.00000E+00
    0.00000E+00         0.00000E+00        -0.12456E+08
 
   -0.12454E+08        -0.73305E+04         0.00000E+00
   -0.73305E+04        -0.49828E+08         0.00000E+00
    0.00000E+00         0.00000E+00        -0.12456E+08
 
   -0.12454E+08        -0.56563E+04         0.00000E+00
   -0.56563E+04        -0.49829E+08         0.00000E+00
    0.00000E+00         0.00000E+00        -0.12457E+08
 
   -0.12453E+08        -0.31588E+04         0.00000E+00
   -0.31588E+04        -0.49830E+08         0.00000E+00
    0.00000E+00         0.00000E+00        -0.12457E+08
 
   -0.12453E+08         0.12282E+03         0.00000E+00
    0.12282E+03        -0.49831E+08         0.00000E+00
    0.00000E+00         0.00000E+00        -0.12457E+08
 
   -0.12453E+08         0.41543E+04         0.00000E+00
    0.41543E+04        -0.49832E+08         0.00000E+00
    0.00000E+00         0.00000E+00        -0.12457E+08
 
   -0.12453E+08         0.89054E+04         0.00000E+00
    0.89054E+04        -0.49832E+08         0.00000E+00
    0.00000E+00         0.00000E+00        -0.12457E+08
 
   -0.12454E+08         0.14348E+05         0.00000E+00
    0.14348E+05        -0.49833E+08         0.00000E+00
    0.00000E+00         0.00000E+00        -0.12457E+08
 
   -0.12454E+08         0.20456E+05         0.00000E+00
    0.20456E+05        -0.49833E+08         0.00000E+00
    0.00000E+00         0.00000E+00        -0.12457E+08
 
   -0.12455E+08         0.27197E+05         0.00000E+00
    0.27197E+05        -0.49833E+08         0.00000E+00
    0.00000E+00         0.00000E+00        -0.12458E+08
 
   -0.12457E+08         0.34534E+05         0.00000E+00
    0.34534E+05        -0.49832E+08         0.00000E+00
    0.00000E+00         0.00000E+00        -0.12458E+08
 
   -0.12462E+08        -0.21207E+04         0.00000E+00
   -0.21207E+04        -0.49836E+08         0.00000E+00
    0.00000E+00         0.00000E+00        -0.12459E+08
 
   -0.12464E+08        -0.55195E+04         0.00000E+00
   -0.55195E+04        -0.49836E+08         0.00000E+00
    0.00000E+00         0.00000E+00        -0.12460E+08
 
   -0.12465E+08        -0.78032E+04         0.00000E+00
   -0.78032E+04        -0.49837E+08         0.00000E+00
    0.00000E+00         0.00000E+00        -0.12460E+08
 
   -0.12465E+08        -0.90079E+04         0.00000E+00
   -0.90079E+04        -0.49838E+08         0.00000E+00
    0.00000E+00         0.00000E+00        -0.12460E+08
 
   -0.12464E+08        -0.91834E+04         0.00000E+00
   -0.91834E+04        -0.49839E+08         0.00000E+00
    0.00000E+00         0.00000E+00        -0.12461E+08
 
   -0.12464E+08        -0.83860E+04         0.00000E+00
   -0.83860E+04        -0.49840E+08         0.00000E+00
    0.00000E+00         0.00000E+00        -0.12461E+08
 
   -0.12463E+08        -0.66725E+04         0.00000E+00
   -0.66725E+04        -0.49841E+08         0.00000E+00
    0.00000E+00         0.00000E+00        -0.12461E+08
 
   -0.12462E+08        -0.40951E+04         0.00000E+00
   -0.40951E+04        -0.49842E+08         0.00000E+00
    0.00000E+00         0.00000E+00        -0.12461E+08
 
   -0.12461E+08        -0.69865E+03         0.00000E+00
   -0.69865E+03        -0.49843E+08         0.00000E+00
    0.00000E+00         0.00000E+00        -0.12461E+08
 
   -0.12460E+08         0.34803E+04         0.00000E+00
    0.34803E+04        -0.49844E+08         0.00000E+00
    0.00000E+00         0.00000E+00        -0.12461E+08
 
   -0.12459E+08         0.84125E+04         0.00000E+00
    0.84125E+04        -0.49844E+08         0.00000E+00
    0.00000E+00         0.00000E+00        -0.12461E+08
 
   -0.12459E+08         0.14073E+05         0.00000E+00
    0.14073E+05        -0.49845E+08         0.00000E+00
    0.00000E+00         0.00000E+00        -0.12461E+08
 
   -0.12459E+08         0.20437E+05         0.00000E+00
    0.20437E+05        -0.49845E+08         0.00000E+00
    0.00000E+00         0.00000E+00        -0.12461E+08
 
   -0.12460E+08         0.27477E+05         0.00000E+00
    0.27477E+05        -0.49845E+08         0.00000E+00
    0.00000E+00         0.00000E+00        -0.12461E+08
 
   -0.12460E+08         0.35154E+05         0.00000E+00
    0.35154E+05        -0.49845E+08         0.00000E+00
    0.00000E+00         0.00000E+00        -0.12461E+08
 
   -0.12478E+08        -0.23522E+04         0.00000E+00
   -0.23522E+04        -0.49847E+08         0.00000E+00
    0.00000E+00         0.00000E+00        -0.12465E+08
 
   -0.12479E+08        -0.61149E+04         0.00000E+00
   -0.61149E+04        -0.49848E+08         0.00000E+00
    0.00000E+00         0.00000E+00        -0.12465E+08
 
   -0.12478E+08        -0.86440E+04         0.00000E+00
   -0.86440E+04        -0.49849E+08         0.00000E+00
    0.00000E+00         0.00000E+00        -0.12465E+08
 
   -0.12477E+08        -0.99957E+04         0.00000E+00
   -0.99957E+04        -0.49850E+08         0.00000E+00
    0.00000E+00         0.00000E+00        -0.12465E+08
 
   -0.12476E+08        -0.10240E+05         0.00000E+00
   -0.10240E+05        -0.49851E+08         0.00000E+00
    0.00000E+00         0.00000E+00        -0.12465E+08
 
   -0.12474E+08        -0.94530E+04         0.00000E+00
   -0.94530E+04        -0.49852E+08         0.00000E+00
    0.00000E+00         0.00000E+00        -0.12465E+08
 
   -0.12473E+08        -0.77062E+04         0.00000E+00
   -0.77062E+04        -0.49853E+08         0.00000E+00
    0.00000E+00         0.00000E+00        -0.12465E+08
 
   -0.12471E+08        -0.50634E+04         0.00000E+00
   -0.50634E+04        -0.49854E+08         0.00000E+00
    0.00000E+00         0.00000E+00        -0.12465E+08
 
   -0.12469E+08        -0.15751E+04         0.00000E+00
   -0.15751E+04        -0.49855E+08         0.00000E+00
    0.00000E+00         0.00000E+00        -0.12465E+08
 
   -0.12467E+08         0.27211E+04         0.00000E+00
    0.27211E+04        -0.49855E+08         0.00000E+00
    0.00000E+00         0.00000E+00        -0.12465E+08
 
   -0.12466E+08         0.77991E+04         0.00000E+00
    0.77991E+04        -0.49856E+08         0.00000E+00
    0.00000E+00         0.00000E+00        -0.12464E+08
 
   -0.12465E+08         0.13640E+05         0.00000E+00
    0.13640E+05        -0.49857E+08         0.00000E+00
    0.00000E+00         0.00000E+00        -0.12464E+08
 
   -0.12464E+08         0.20227E+05         0.00000E+00
    0.20227E+05        -0.49857E+08         0.00000E+00
    0.00000E+00         0.00000E+00        -0.12464E+08
 
   -0.12464E+08         0.27536E+05         0.00000E+00
    0.27536E+05        -0.49857E+08         0.00000E+00
    0.00000E+00         0.00000E+00        -0.12464E+08
 
   -0.12464E+08         0.35532E+05         0.00000E+00
    0.35532E+05        -0.49857E+08         0.00000E+00
    0.00000E+00         0.00000E+00        -0.12464E+08
 
   -0.12495E+08        -0.25906E+04         0.00000E+00
   -0.25906E+04        -0.49860E+08         0.00000E+00
    0.00000E+00         0.00000E+00        -0.12471E+08
 
   -0.12494E+08        -0.67199E+04         0.00000E+00
   -0.67199E+04        -0.49860E+08         0.00000E+00
    0.00000E+00         0.00000E+00        -0.12471E+08
 
   -0.12493E+08        -0.94865E+04         0.00000E+00
   -0.94865E+04        -0.49861E+08         0.00000E+00
    0.00000E+00         0.00000E+00        -0.12471E+08
 
   -0.12491E+08        -0.10972E+05         0.00000E+00
   -0.10972E+05        -0.49862E+08         0.00000E+00
    0.00000E+00         0.00000E+00        -0.12470E+08
 
   -0.12488E+08        -0.11274E+05         0.00000E+00
   -0.11274E+05        -0.49863E+08         0.00000E+00
    0.00000E+00         0.00000E+00        -0.12470E+08
 
   -0.12485E+08        -0.10492E+05         0.00000E+00
   -0.10492E+05        -0.49864E+08         0.00000E+00
    0.00000E+00         0.00000E+00        -0.12470E+08
 
   -0.12483E+08        -0.87173E+04         0.00000E+00
   -0.87173E+04        -0.49865E+08         0.00000E+00
    0.00000E+00         0.00000E+00        -0.12469E+08
 
   -0.12480E+08        -0.60261E+04         0.00000E+00
   -0.60261E+04        -0.49866E+08         0.00000E+00
    0.00000E+00         0.00000E+00        -0.12469E+08
 
   -0.12477E+08        -0.24748E+04         0.00000E+00
   -0.24748E+04        -0.49867E+08         0.00000E+00
    0.00000E+00         0.00000E+00        -0.12469E+08
 
   -0.12475E+08         0.18998E+04         0.00000E+00
    0.18998E+04        -0.49867E+08         0.00000E+00
    0.00000E+00         0.00000E+00        -0.12468E+08
 
   -0.12472E+08         0.70782E+04         0.00000E+00
    0.70782E+04        -0.49868E+08         0.00000E+00
    0.00000E+00         0.00000E+00        -0.12468E+08
 
   -0.12470E+08         0.13052E+05         0.00000E+00
    0.13052E+05        -0.49869E+08         0.00000E+00
    0.00000E+00         0.00000E+00        -0.12468E+08
 
   -0.12469E+08         0.19816E+05         0.00000E+00
    0.19816E+05        -0.49869E+08         0.00000E+00
    0.00000E+00         0.00000E+00        -0.12468E+08
 
   -0.12468E+08         0.27358E+05         0.00000E+00
    0.27358E+05        -0.49870E+08         0.00000E+00
    0.00000E+00         0.00000E+00        -0.12468E+08
 
   -0.12468E+08         0.35648E+05         0.00000E+00
    0.35648E+05        -0.49870E+08         0.00000E+00
    0.00000E+00         0.00000E+00        -0.12467E+08
 
   -0.12513E+08        -0.28321E+04         0.00000E+00
   -0.28321E+04        -0.49873E+08         0.00000E+00
    0.00000E+00         0.00000E+00        -0.12477E+08
 
   -0.12511E+08        -0.73207E+04         0.00000E+00
   -0.73207E+04        -0.49873E+08         0.00000E+00
    0.00000E+00         0.00000E+00        -0.12477E+08
 
   -0.12508E+08        -0.10305E+05         0.00000E+00
   -0.10305E+05        -0.49874E+08         0.00000E+00
    0.00000E+00         0.00000E+00        -0.12476E+08
 
   -0.12504E+08        -0.11901E+05         0.00000E+00
   -0.11901E+05        -0.49874E+08         0.00000E+00
    0.00000E+00         0.00000E+00        -0.12476E+08
 
   -0.12500E+08        -0.12239E+05         0.00000E+00
   -0.12239E+05        -0.49875E+08         0.00000E+00
    0.00000E+00         0.00000E+00        -0.12475E+08
 
   -0.12497E+08        -0.11452E+05         0.00000E+00
   -0.11452E+05        -0.49876E+08         0.00000E+00
    0.00000E+00         0.00000E+00        -0.12475E+08
 
   -0.12493E+08        -0.96534E+04         0.00000E+00
   -0.96534E+04        -0.49877E+08         0.00000E+00
    0.00000E+00         0.00000E+00        -0.12474E+08
 
   -0.12489E+08        -0.69344E+04         0.00000E+00
   -0.69344E+04        -0.49878E+08         0.00000E+00
    0.00000E+00         0.00000E+00        -0.12473E+08
 
   -0.12486E+08        -0.33568E+04         0.00000E+00
   -0.33568E+04        -0.49878E+08         0.00000E+00
    0.00000E+00         0.00000E+00        -0.12473E+08
 
   -0.12482E+08         0.10464E+04         0.00000E+00
    0.10464E+04        -0.49879E+08         0.00000E+00
    0.00000E+00         0.00000E+00        -0.12472E+08
 
   -0.12479E+08         0.62665E+04         0.00000E+00
    0.62665E+04        -0.49880E+08         0.00000E+00
    0.00000E+00         0.00000E+00        -0.12472E+08
 
   -0.12476E+08         0.12311E+05         0.00000E+00
    0.12311E+05        -0.49881E+08         0.00000E+00
    0.00000E+00         0.00000E+00        -0.12471E+08
 
   -0.12474E+08         0.19194E+05         0.00000E+00
    0.19194E+05        -0.49882E+08         0.00000E+00
    0.00000E+00         0.00000E+00        -0.12471E+08
 
   -0.12472E+08         0.26921E+05         0.00000E+00
    0.26921E+05        -0.49882E+08         0.00000E+00
    0.00000E+00         0.00000E+00        -0.12471E+08
 
   -0.12471E+08         0.35477E+05         0.00000E+00
    0.35477E+05        -0.49883E+08         0.00000E+00
    0.00000E+00         0.00000E+00        -0.12471E+08
 
   -0.12531E+08        -0.30718E+04         0.00000E+00
   -0.30718E+04        -0.49886E+08         0.00000E+00
    0.00000E+00         0.00000E+00        -0.12483E+08
 
   -0.12527E+08        -0.78994E+04         0.00000E+00
   -0.78994E+04        -0.49886E+08         0.00000E+00
    0.00000E+00         0.00000E+00        -0.12483E+08
 
   -0.12523E+08        -0.11066E+05         0.00000E+00
   -0.11066E+05        -0.49886E+08         0.00000E+00
    0.00000E+00         0.00000E+00        -0.12482E+08
 
   -0.12518E+08        -0.12732E+05         0.00000E+00
   -0.12732E+05        -0.49887E+08         0.00000E+00
    0.00000E+00         0.00000E+00        -0.12481E+08
 
   -0.12513E+08        -0.13075E+05         0.00000E+00
   -0.13075E+05        -0.49888E+08         0.00000E+00
    0.00000E+00         0.00000E+00        -0.12480E+08
 
   -0.12508E+08        -0.12266E+05         0.00000E+00
   -0.12266E+05        -0.49888E+08         0.00000E+00
    0.00000E+00         0.00000E+00        -0.12479E+08
 
   -0.12503E+08        -0.10448E+05         0.00000E+00
   -0.10448E+05        -0.49889E+08         0.00000E+00
    0.00000E+00         0.00000E+00        -0.12478E+08
 
   -0.12499E+08        -0.77276E+04         0.00000E+00
   -0.77276E+04        -0.49890E+08         0.00000E+00
    0.00000E+00         0.00000E+00        -0.12478E+08
 
   -0.12494E+08        -0.41699E+04         0.00000E+00
   -0.41699E+04        -0.49890E+08         0.00000E+00
    0.00000E+00         0.00000E+00        -0.12477E+08
 
   -0.12490E+08         0.19854E+03         0.00000E+00
    0.19854E+03        -0.49891E+08         0.00000E+00
    0.00000E+00         0.00000E+00        -0.12476E+08
 
   -0.12486E+08         0.53848E+04         0.00000E+00
    0.53848E+04        -0.49892E+08         0.00000E+00
    0.00000E+00         0.00000E+00        -0.12476E+08
 
   -0.12483E+08         0.11420E+05         0.00000E+00
    0.11420E+05        -0.49893E+08         0.00000E+00
    0.00000E+00         0.00000E+00        -0.12475E+08
 
   -0.12479E+08         0.18347E+05         0.00000E+00
    0.18347E+05        -0.49894E+08         0.00000E+00
    0.00000E+00         0.00000E+00        -0.12475E+08
 
   -0.12477E+08         0.26199E+05         0.00000E+00
    0.26199E+05        -0.49894E+08         0.00000E+00
    0.00000E+00         0.00000E+00        -0.12474E+08
 
   -0.12475E+08         0.34981E+05         0.00000E+00
    0.34981E+05        -0.49895E+08         0.00000E+00
    0.00000E+00         0.00000E+00        -0.12474E+08
 
   -0.12550E+08        -0.33039E+04         0.00000E+00
   -0.33039E+04        -0.49899E+08         0.00000E+00
    0.00000E+00         0.00000E+00        -0.12490E+08
 
   -0.12545E+08        -0.84328E+04         0.00000E+00
   -0.84328E+04        -0.49899E+08         0.00000E+00
    0.00000E+00         0.00000E+00        -0.12489E+08
 
   -0.12539E+08        -0.11725E+05         0.00000E+00
   -0.11725E+05        -0.49900E+08         0.00000E+00
    0.00000E+00         0.00000E+00        -0.12488E+08
 
   -0.12532E+08        -0.13402E+05         0.00000E+00
   -0.13402E+05        -0.49900E+08         0.00000E+00
    0.00000E+00         0.00000E+00        -0.12486E+08
 
   -0.12526E+08        -0.13705E+05         0.00000E+00
   -0.13705E+05        -0.49900E+08         0.00000E+00
    0.00000E+00         0.00000E+00        -0.12485E+08
 
   -0.12520E+08        -0.12852E+05         0.00000E+00
   -0.12852E+05        -0.49901E+08         0.00000E+00
    0.00000E+00         0.00000E+00        -0.12484E+08
 
   -0.12514E+08        -0.11021E+05         0.00000E+00
   -0.11021E+05        -0.49901E+08         0.00000E+00
    0.00000E+00         0.00000E+00        -0.12483E+08
 
   -0.12509E+08        -0.83318E+04         0.00000E+00
   -0.83318E+04        -0.49901E+08         0.00000E+00
    0.00000E+00         0.00000E+00        -0.12482E+08
 
   -0.12504E+08        -0.48527E+04         0.00000E+00
   -0.48527E+04        -0.49902E+08         0.00000E+00
    0.00000E+00         0.00000E+00        -0.12481E+08
 
   -0.12499E+08        -0.59887E+03         0.00000E+00
   -0.59887E+03        -0.49902E+08         0.00000E+00
    0.00000E+00         0.00000E+00        -0.12480E+08
 
   -0.12494E+08         0.44584E+04         0.00000E+00
    0.44584E+04        -0.49903E+08         0.00000E+00
    0.00000E+00         0.00000E+00        -0.12479E+08
 
   -0.12489E+08         0.10382E+05         0.00000E+00
    0.10382E+05        -0.49904E+08         0.00000E+00
    0.00000E+00         0.00000E+00        -0.12479E+08
 
   -0.12485E+08         0.17254E+05         0.00000E+00
    0.17254E+05        -0.49905E+08         0.00000E+00
    0.00000E+00         0.00000E+00        -0.12478E+08
 
   -0.12481E+08         0.25150E+05         0.00000E+00
    0.25150E+05        -0.49906E+08         0.00000E+00
    0.00000E+00         0.00000E+00        -0.12478E+08
 
   -0.12478E+08         0.34112E+05         0.00000E+00
    0.34112E+05        -0.49908E+08         0.00000E+00
    0.00000E+00         0.00000E+00        -0.12477E+08
 
   -0.12570E+08        -0.35214E+04         0.00000E+00
   -0.35214E+04        -0.49912E+08         0.00000E+00
    0.00000E+00         0.00000E+00        -0.12496E+08
 
   -0.12562E+08        -0.88902E+04         0.00000E+00
   -0.88902E+04        -0.49912E+08         0.00000E+00
    0.00000E+00         0.00000E+00        -0.12495E+08
 
   -0.12554E+08        -0.12221E+05         0.00000E+00
   -0.12221E+05        -0.49913E+08         0.00000E+00
    0.00000E+00         0.00000E+00        -0.12493E+08
 
   -0.12547E+08        -0.13826E+05         0.00000E+00
   -0.13826E+05        -0.49913E+08         0.00000E+00
    0.00000E+00         0.00000E+00        -0.12492E+08
 
   -0.12539E+08        -0.14029E+05         0.00000E+00
   -0.14029E+05        -0.49913E+08         0.00000E+00
    0.00000E+00         0.00000E+00        -0.12490E+08
 
   -0.12532E+08        -0.13108E+05         0.00000E+00
   -0.13108E+05        -0.49913E+08         0.00000E+00
    0.00000E+00         0.00000E+00        -0.12489E+08
 
   -0.12525E+08        -0.11275E+05         0.00000E+00
   -0.11275E+05        -0.49913E+08         0.00000E+00
    0.00000E+00         0.00000E+00        -0.12488E+08
 
   -0.12519E+08        -0.86624E+04         0.00000E+00
   -0.86624E+04        -0.49913E+08         0.00000E+00
    0.00000E+00         0.00000E+00        -0.12486E+08
 
   -0.12513E+08        -0.53349E+04         0.00000E+00
   -0.53349E+04        -0.49913E+08         0.00000E+00
    0.00000E+00         0.00000E+00        -0.12485E+08
 
   -0.12507E+08        -0.12934E+04         0.00000E+00
   -0.12934E+04        -0.49913E+08         0.00000E+00
    0.00000E+00         0.00000E+00        -0.12484E+08
 
   -0.12502E+08         0.35170E+04         0.00000E+00
    0.35170E+04        -0.49914E+08         0.00000E+00
    0.00000E+00         0.00000E+00        -0.12483E+08
 
   -0.12496E+08         0.91988E+04         0.00000E+00
    0.91988E+04        -0.49915E+08         0.00000E+00
    0.00000E+00         0.00000E+00        -0.12482E+08
 
   -0.12491E+08         0.15887E+05         0.00000E+00
    0.15887E+05        -0.49916E+08         0.00000E+00
    0.00000E+00         0.00000E+00        -0.12481E+08
 
   -0.12486E+08         0.23720E+05         0.00000E+00
    0.23720E+05        -0.49918E+08         0.00000E+00
    0.00000E+00         0.00000E+00        -0.12481E+08
 
   -0.12482E+08         0.32799E+05         0.00000E+00
    0.32799E+05        -0.49919E+08         0.00000E+00
    0.00000E+00         0.00000E+00        -0.12480E+08
 
   -0.12590E+08        -0.37155E+04         0.00000E+00
   -0.37155E+04        -0.49926E+08         0.00000E+00
    0.00000E+00         0.00000E+00        -0.12503E+08
 
   -0.12580E+08        -0.92283E+04         0.00000E+00
   -0.92283E+04        -0.49926E+08         0.00000E+00
    0.00000E+00         0.00000E+00        -0.12501E+08
 
   -0.12570E+08        -0.12471E+05         0.00000E+00
   -0.12471E+05        -0.49926E+08         0.00000E+00
    0.00000E+00         0.00000E+00        -0.12499E+08
 
   -0.12561E+08        -0.13891E+05         0.00000E+00
   -0.13891E+05        -0.49926E+08         0.00000E+00
    0.00000E+00         0.00000E+00        -0.12497E+08
 
   -0.12552E+08        -0.13923E+05         0.00000E+00
   -0.13923E+05        -0.49925E+08         0.00000E+00
    0.00000E+00         0.00000E+00        -0.12496E+08
 
   -0.12544E+08        -0.12915E+05         0.00000E+00
   -0.12915E+05        -0.49925E+08         0.00000E+00
    0.00000E+00         0.00000E+00        -0.12494E+08
 
   -0.12537E+08        -0.11105E+05         0.00000E+00
   -0.11105E+05        -0.49924E+08         0.00000E+00
    0.00000E+00         0.00000E+00        -0.12492E+08
 
   -0.12530E+08        -0.86286E+04         0.00000E+00
   -0.86286E+04        -0.49924E+08         0.00000E+00
    0.00000E+00         0.00000E+00        -0.12491E+08
 
   -0.12523E+08        -0.55412E+04         0.00000E+00
   -0.55412E+04        -0.49923E+08         0.00000E+00
    0.00000E+00         0.00000E+00        -0.12489E+08
 
   -0.12517E+08        -0.18266E+04         0.00000E+00
   -0.18266E+04        -0.49924E+08         0.00000E+00
    0.00000E+00         0.00000E+00        -0.12488E+08
 
   -0.12510E+08         0.25969E+04         0.00000E+00
    0.25969E+04        -0.49924E+08         0.00000E+00
    0.00000E+00         0.00000E+00        -0.12487E+08
 
   -0.12504E+08         0.78756E+04         0.00000E+00
    0.78756E+04        -0.49925E+08         0.00000E+00
    0.00000E+00         0.00000E+00        -0.12486E+08
 
   -0.12497E+08         0.14213E+05         0.00000E+00
    0.14213E+05        -0.49927E+08         0.00000E+00
    0.00000E+00         0.00000E+00        -0.12485E+08
 
   -0.12491E+08         0.21838E+05         0.00000E+00
    0.21838E+05        -0.49929E+08         0.00000E+00
    0.00000E+00         0.00000E+00        -0.12484E+08
 
   -0.12486E+08         0.30943E+05         0.00000E+00
    0.30943E+05        -0.49931E+08         0.00000E+00
    0.00000E+00         0.00000E+00        -0.12483E+08
 
   -0.12611E+08        -0.38743E+04         0.00000E+00
   -0.38743E+04        -0.49939E+08         0.00000E+00
    0.00000E+00         0.00000E+00        -0.12510E+08
 
   -0.12598E+08        -0.93801E+04         0.00000E+00
   -0.93801E+04        -0.49939E+08         0.00000E+00
    0.00000E+00         0.00000E+00        -0.12508E+08
 
   -0.12586E+08        -0.12348E+05         0.00000E+00
   -0.12348E+05        -0.49939E+08         0.00000E+00
    0.00000E+00         0.00000E+00        -0.12505E+08
 
   -0.12575E+08        -0.13439E+05         0.00000E+00
   -0.13439E+05        -0.49938E+08         0.00000E+00
    0.00000E+00         0.00000E+00        -0.12503E+08
 
   -0.12565E+08        -0.13235E+05         0.00000E+00
   -0.13235E+05        -0.49937E+08         0.00000E+00
    0.00000E+00         0.00000E+00        -0.12501E+08
 
   -0.12556E+08        -0.12143E+05         0.00000E+00
   -0.12143E+05        -0.49936E+08         0.00000E+00
    0.00000E+00         0.00000E+00        -0.12498E+08
 
   -0.12548E+08        -0.10405E+05         0.00000E+00
   -0.10405E+05        -0.49935E+08         0.00000E+00
    0.00000E+00         0.00000E+00        -0.12497E+08
 
   -0.12541E+08        -0.81447E+04         0.00000E+00
   -0.81447E+04        -0.49934E+08         0.00000E+00
    0.00000E+00         0.00000E+00        -0.12495E+08
 
   -0.12533E+08        -0.53994E+04         0.00000E+00
   -0.53994E+04        -0.49933E+08         0.00000E+00
    0.00000E+00         0.00000E+00        -0.12493E+08
 
   -0.12526E+08        -0.21376E+04         0.00000E+00
   -0.21376E+04        -0.49933E+08         0.00000E+00
    0.00000E+00         0.00000E+00        -0.12492E+08
 
   -0.12519E+08         0.17427E+04         0.00000E+00
    0.17427E+04        -0.49933E+08         0.00000E+00
    0.00000E+00         0.00000E+00        -0.12490E+08
 
   -0.12512E+08         0.64265E+04         0.00000E+00
    0.64265E+04        -0.49934E+08         0.00000E+00
    0.00000E+00         0.00000E+00        -0.12489E+08
 
   -0.12504E+08         0.12194E+05         0.00000E+00
    0.12194E+05        -0.49936E+08         0.00000E+00
    0.00000E+00         0.00000E+00        -0.12488E+08
 
   -0.12497E+08         0.19405E+05         0.00000E+00
    0.19405E+05        -0.49938E+08         0.00000E+00
    0.00000E+00         0.00000E+00        -0.12487E+08
 
   -0.12489E+08         0.28407E+05         0.00000E+00
    0.28407E+05        -0.49941E+08         0.00000E+00
    0.00000E+00         0.00000E+00        -0.12486E+08
 
   -0.12632E+08        -0.39784E+04         0.00000E+00
   -0.39784E+04        -0.49953E+08         0.00000E+00
    0.00000E+00         0.00000E+00        -0.12517E+08
 
   -0.12616E+08        -0.92273E+04         0.00000E+00
   -0.92273E+04        -0.49953E+08         0.00000E+00
    0.00000E+00         0.00000E+00        -0.12514E+08
 
   -0.12601E+08        -0.11651E+05         0.00000E+00
   -0.11651E+05        -0.49952E+08         0.00000E+00
    0.00000E+00         0.00000E+00        -0.12511E+08
 
   -0.12589E+08        -0.12261E+05         0.00000E+00
   -0.12261E+05        -0.49951E+08         0.00000E+00
    0.00000E+00         0.00000E+00        -0.12508E+08
 
   -0.12578E+08        -0.11796E+05         0.00000E+00
   -0.11796E+05        -0.49949E+08         0.00000E+00
    0.00000E+00         0.00000E+00        -0.12505E+08
 
   -0.12569E+08        -0.10671E+05         0.00000E+00
   -0.10671E+05        -0.49947E+08         0.00000E+00
    0.00000E+00         0.00000E+00        -0.12503E+08
 
   -0.12560E+08        -0.90919E+04         0.00000E+00
   -0.90919E+04        -0.49945E+08         0.00000E+00
    0.00000E+00         0.00000E+00        -0.12501E+08
 
   -0.12552E+08        -0.71476E+04         0.00000E+00
   -0.71476E+04        -0.49943E+08         0.00000E+00
    0.00000E+00         0.00000E+00        -0.12499E+08
 
   -0.12544E+08        -0.48546E+04         0.00000E+00
   -0.48546E+04        -0.49942E+08         0.00000E+00
    0.00000E+00         0.00000E+00        -0.12497E+08
 
   -0.12537E+08        -0.21708E+04         0.00000E+00
   -0.21708E+04        -0.49941E+08         0.00000E+00
    0.00000E+00         0.00000E+00        -0.12496E+08
 
   -0.12529E+08         0.10104E+04         0.00000E+00
    0.10104E+04        -0.49941E+08         0.00000E+00
    0.00000E+00         0.00000E+00        -0.12494E+08
 
   -0.12521E+08         0.48876E+04         0.00000E+00
    0.48876E+04        -0.49942E+08         0.00000E+00
    0.00000E+00         0.00000E+00        -0.12493E+08
 
   -0.12512E+08         0.98079E+04         0.00000E+00
    0.98079E+04        -0.49944E+08         0.00000E+00
    0.00000E+00         0.00000E+00        -0.12491E+08
 
   -0.12502E+08         0.16301E+05         0.00000E+00
    0.16301E+05        -0.49947E+08         0.00000E+00
    0.00000E+00         0.00000E+00        -0.12490E+08
 
   -0.12493E+08         0.24989E+05         0.00000E+00
    0.24989E+05        -0.49951E+08         0.00000E+00
    0.00000E+00         0.00000E+00        -0.12489E+08
 
   -0.12652E+08        -0.39839E+04         0.00000E+00
   -0.39839E+04        -0.49967E+08         0.00000E+00
    0.00000E+00         0.00000E+00        -0.12524E+08
 
   -0.12633E+08        -0.85272E+04         0.00000E+00
   -0.85272E+04        -0.49966E+08         0.00000E+00
    0.00000E+00         0.00000E+00        -0.12520E+08
 
   -0.12616E+08        -0.10050E+05         0.00000E+00
   -0.10050E+05        -0.49964E+08         0.00000E+00
    0.00000E+00         0.00000E+00        -0.12516E+08
 
   -0.12602E+08        -0.10101E+05         0.00000E+00
   -0.10101E+05        -0.49962E+08         0.00000E+00
    0.00000E+00         0.00000E+00        -0.12513E+08
 
   -0.12591E+08        -0.94582E+04         0.00000E+00
   -0.94582E+04        -0.49959E+08         0.00000E+00
    0.00000E+00         0.00000E+00        -0.12510E+08
 
   -0.12581E+08        -0.84270E+04         0.00000E+00
   -0.84270E+04        -0.49956E+08         0.00000E+00
    0.00000E+00         0.00000E+00        -0.12507E+08
 
   -0.12572E+08        -0.71330E+04         0.00000E+00
   -0.71330E+04        -0.49953E+08         0.00000E+00
    0.00000E+00         0.00000E+00        -0.12505E+08
 
   -0.12564E+08        -0.56207E+04         0.00000E+00
   -0.56207E+04        -0.49951E+08         0.00000E+00
    0.00000E+00         0.00000E+00        -0.12503E+08
 
   -0.12556E+08        -0.38872E+04         0.00000E+00
   -0.38872E+04        -0.49949E+08         0.00000E+00
    0.00000E+00         0.00000E+00        -0.12501E+08
 
   -0.12548E+08        -0.18905E+04         0.00000E+00
   -0.18905E+04        -0.49948E+08         0.00000E+00
    0.00000E+00         0.00000E+00        -0.12499E+08
 
   -0.12540E+08         0.46070E+03         0.00000E+00
    0.46070E+03        -0.49948E+08         0.00000E+00
    0.00000E+00         0.00000E+00        -0.12498E+08
 
   -0.12531E+08         0.33391E+04         0.00000E+00
    0.33391E+04        -0.49949E+08         0.00000E+00
    0.00000E+00         0.00000E+00        -0.12496E+08
 
   -0.12521E+08         0.70808E+04         0.00000E+00
    0.70808E+04        -0.49951E+08         0.00000E+00
    0.00000E+00         0.00000E+00        -0.12494E+08
 
   -0.12509E+08         0.12394E+05         0.00000E+00
    0.12394E+05        -0.49955E+08         0.00000E+00
    0.00000E+00         0.00000E+00        -0.12493E+08
 
   -0.12497E+08         0.20386E+05         0.00000E+00
    0.20386E+05        -0.49960E+08         0.00000E+00
    0.00000E+00         0.00000E+00        -0.12491E+08
 
   -0.12672E+08        -0.37398E+04         0.00000E+00
   -0.37398E+04        -0.49980E+08         0.00000E+00
    0.00000E+00         0.00000E+00        -0.12530E+08
 
   -0.12648E+08        -0.67004E+04         0.00000E+00
   -0.67004E+04        -0.49978E+08         0.00000E+00
    0.00000E+00         0.00000E+00        -0.12525E+08
 
   -0.12630E+08        -0.70852E+04         0.00000E+00
   -0.70852E+04        -0.49975E+08         0.00000E+00
    0.00000E+00         0.00000E+00        -0.12521E+08
 
   -0.12616E+08        -0.67776E+04         0.00000E+00
   -0.67776E+04        -0.49971E+08         0.00000E+00
    0.00000E+00         0.00000E+00        -0.12517E+08
 
   -0.12604E+08        -0.61886E+04         0.00000E+00
   -0.61886E+04        -0.49967E+08         0.00000E+00
    0.00000E+00         0.00000E+00        -0.12514E+08
 
   -0.12594E+08        -0.54418E+04         0.00000E+00
   -0.54418E+04        -0.49963E+08         0.00000E+00
    0.00000E+00         0.00000E+00        -0.12511E+08
 
   -0.12585E+08        -0.45805E+04         0.00000E+00
   -0.45805E+04        -0.49960E+08         0.00000E+00
    0.00000E+00         0.00000E+00        -0.12509E+08
 
   -0.12576E+08        -0.36143E+04         0.00000E+00
   -0.36143E+04        -0.49958E+08         0.00000E+00
    0.00000E+00         0.00000E+00        -0.12507E+08
 
   -0.12568E+08        -0.25319E+04         0.00000E+00
   -0.25319E+04        -0.49956E+08         0.00000E+00
    0.00000E+00         0.00000E+00        -0.12505E+08
 
   -0.12560E+08        -0.13023E+04         0.00000E+00
   -0.13023E+04        -0.49954E+08         0.00000E+00
    0.00000E+00         0.00000E+00        -0.12503E+08
 
   -0.12552E+08         0.13390E+03         0.00000E+00
    0.13390E+03        -0.49954E+08         0.00000E+00
    0.00000E+00         0.00000E+00        -0.12501E+08
 
   -0.12542E+08         0.18889E+04         0.00000E+00
    0.18889E+04        -0.49955E+08         0.00000E+00
    0.00000E+00         0.00000E+00        -0.12499E+08
 
   -0.12531E+08         0.41929E+04         0.00000E+00
    0.41929E+04        -0.49957E+08         0.00000E+00
    0.00000E+00         0.00000E+00        -0.12498E+08
 
   -0.12517E+08         0.76238E+04         0.00000E+00
    0.76238E+04        -0.49961E+08         0.00000E+00
    0.00000E+00         0.00000E+00        -0.12496E+08
 
   -0.12501E+08         0.14082E+05         0.00000E+00
    0.14082E+05        -0.49967E+08         0.00000E+00
    0.00000E+00         0.00000E+00        -0.12494E+08
 
   -0.12690E+08        -0.22762E+04         0.00000E+00
   -0.22762E+04        -0.49992E+08         0.00000E+00
    0.00000E+00         0.00000E+00        -0.12536E+08
 
   -0.12662E+08        -0.27302E+04         0.00000E+00
   -0.27302E+04        -0.49987E+08         0.00000E+00
    0.00000E+00         0.00000E+00        -0.12530E+08
 
   -0.12643E+08        -0.26040E+04         0.00000E+00
   -0.26040E+04        -0.49982E+08         0.00000E+00
    0.00000E+00         0.00000E+00        -0.12525E+08
 
   -0.12629E+08        -0.24106E+04         0.00000E+00
   -0.24106E+04        -0.49977E+08         0.00000E+00
    0.00000E+00         0.00000E+00        -0.12521E+08
 
   -0.12617E+08        -0.21675E+04         0.00000E+00
   -0.21675E+04        -0.49973E+08         0.00000E+00
    0.00000E+00         0.00000E+00        -0.12518E+08
 
   -0.12607E+08        -0.18919E+04         0.00000E+00
   -0.18919E+04        -0.49969E+08         0.00000E+00
    0.00000E+00         0.00000E+00        -0.12515E+08
 
   -0.12598E+08        -0.15879E+04         0.00000E+00
   -0.15879E+04        -0.49965E+08         0.00000E+00
    0.00000E+00         0.00000E+00        -0.12513E+08
 
   -0.12589E+08        -0.12545E+04         0.00000E+00
   -0.12545E+04        -0.49963E+08         0.00000E+00
    0.00000E+00         0.00000E+00        -0.12510E+08
 
   -0.12581E+08        -0.88587E+03         0.00000E+00
   -0.88587E+03        -0.49961E+08         0.00000E+00
    0.00000E+00         0.00000E+00        -0.12508E+08
 
   -0.12573E+08        -0.47057E+03         0.00000E+00
   -0.47057E+03        -0.49959E+08         0.00000E+00
    0.00000E+00         0.00000E+00        -0.12506E+08
 
   -0.12564E+08         0.11742E+02         0.00000E+00
    0.11742E+02        -0.49959E+08         0.00000E+00
    0.00000E+00         0.00000E+00        -0.12505E+08
 
   -0.12555E+08         0.59843E+03         0.00000E+00
    0.59843E+03        -0.49959E+08         0.00000E+00
    0.00000E+00         0.00000E+00        -0.12503E+08
 
   -0.12543E+08         0.13704E+04         0.00000E+00
    0.13704E+04        -0.49961E+08         0.00000E+00
    0.00000E+00         0.00000E+00        -0.12501E+08
 
   -0.12528E+08         0.25102E+04         0.00000E+00
    0.25102E+04        -0.49965E+08         0.00000E+00
    0.00000E+00         0.00000E+00        -0.12499E+08
 
   -0.12507E+08         0.52098E+04         0.00000E+00
    0.52098E+04        -0.49972E+08         0.00000E+00
    0.00000E+00         0.00000E+00        -0.12496E+08
 
TENSORS stresstot double 
   -0.22601E+08        -0.28131E+02         0.00000E+00
   -0.28131E+02        -0.60000E+08         0.00000E+00
    0.00000E+00         0.00000E+00        -0.22686E+08
 
   -0.22610E+08        -0.70020E+02         0.00000E+00
   -0.70020E+02        -0.60000E+08         0.00000E+00
    0.00000E+00         0.00000E+00        -0.22688E+08
 
   -0.22619E+08        -0.91374E+02         0.00000E+00
   -0.91374E+02        -0.60000E+08         0.00000E+00
    0.00000E+00         0.00000E+00        -0.22689E+08
 
   -0.22628E+08        -0.91022E+02         0.00000E+00
   -0.91022E+02        -0.60000E+08         0.00000E+00
    0.00000E+00         0.00000E+00        -0.22691E+08
 
   -0.22635E+08        -0.68139E+02         0.00000E+00
   -0.68139E+02        -0.60001E+08         0.00000E+00
    0.00000E+00         0.00000E+00        -0.22692E+08
 
   -0.22642E+08        -0.22210E+02         0.00000E+00
   -0.22210E+02        -0.60001E+08         0.00000E+00
    0.00000E+00         0.00000E+00        -0.22694E+08
 
   -0.22649E+08         0.47011E+02         0.00000E+00
    0.47011E+02        -0.60001E+08         0.00000E+00
    0.00000E+00         0.00000E+00        -0.22695E+08
 
   -0.22655E+08         0.13954E+03         0.00000E+00
    0.13954E+03        -0.60001E+08         0.00000E+00
    0.00000E+00         0.00000E+00        -0.22696E+08
 
   -0.22662E+08         0.25522E+03         0.00000E+00
    0.25522E+03        -0.60000E+08         0.00000E+00
    0.00000E+00         0.00000E+00        -0.22697E+08
 
   -0.22668E+08         0.39376E+03         0.00000E+00
    0.39376E+03        -0.59999E+08         0.00000E+00
    0.00000E+00         0.00000E+00        -0.22698E+08
 
   -0.22674E+08         0.55476E+03         0.00000E+00
    0.55476E+03        -0.59999E+08         0.00000E+00
    0.00000E+00         0.00000E+00        -0.22699E+08
 
   -0.22680E+08         0.73780E+03         0.00000E+00
    0.73780E+03        -0.59997E+08         0.00000E+00
    0.00000E+00         0.00000E+00        -0.22700E+08
 
   -0.22686E+08         0.94247E+03         0.00000E+00
    0.94247E+03        -0.59996E+08         0.00000E+00
    0.00000E+00         0.00000E+00        -0.22700E+08
 
   -0.22692E+08         0.11684E+04         0.00000E+00
    0.11684E+04        -0.59993E+08         0.00000E+00
    0.00000E+00         0.00000E+00        -0.22701E+08
 
   -0.22699E+08         0.14153E+04         0.00000E+00
    0.14153E+04        -0.59991E+08         0.00000E+00
    0.00000E+00         0.00000E+00        -0.22702E+08
 
   -0.22601E+08        -0.85089E+02         0.00000E+00
   -0.85089E+02        -0.60000E+08         0.00000E+00
    0.00000E+00         0.00000E+00        -0.22685E+08
 
   -0.22611E+08        -0.21200E+03         0.00000E+00
   -0.21200E+03        -0.60000E+08         0.00000E+00
    0.00000E+00         0.00000E+00        -0.22687E+08
 
   -0.22619E+08        -0.27712E+03         0.00000E+00
   -0.27712E+03        -0.60000E+08         0.00000E+00
    0.00000E+00         0.00000E+00        -0.22689E+08
 
   -0.22627E+08        -0.27694E+03         0.00000E+00
   -0.27694E+03        -0.60000E+08         0.00000E+00
    0.00000E+00         0.00000E+00        -0.22690E+08
 
   -0.22635E+08        -0.20901E+03         0.00000E+00
   -0.20901E+03        -0.60001E+08         0.00000E+00
    0.00000E+00         0.00000E+00        -0.22692E+08
 
   -0.22642E+08        -0.71821E+02         0.00000E+00
   -0.71821E+02        -0.60001E+08         0.00000E+00
    0.00000E+00         0.00000E+00        -0.22693E+08
 
   -0.22649E+08         0.13535E+03         0.00000E+00
    0.13535E+03        -0.60001E+08         0.00000E+00
    0.00000E+00         0.00000E+00        -0.22694E+08
 
   -0.22655E+08         0.41253E+03         0.00000E+00
    0.41253E+03        -0.60001E+08         0.00000E+00
    0.00000E+00         0.00000E+00        -0.22695E+08
 
   -0.22661E+08         0.75921E+03         0.00000E+00
    0.75921E+03        -0.60000E+08         0.00000E+00
    0.00000E+00         0.00000E+00        -0.22696E+08
 
   -0.22667E+08         0.11745E+04         0.00000E+00
    0.11745E+04        -0.60000E+08         0.00000E+00
    0.00000E+00         0.00000E+00        -0.22697E+08
 
   -0.22673E+08         0.16572E+04         0.00000E+00
    0.16572E+04        -0.59999E+08         0.00000E+00
    0.00000E+00         0.00000E+00        -0.22698E+08
 
   -0.22679E+08         0.22059E+04         0.00000E+00
    0.22059E+04        -0.59997E+08         0.00000E+00
    0.00000E+00         0.00000E+00        -0.22699E+08
 
   -0.22685E+08         0.28195E+04         0.00000E+00
    0.28195E+04        -0.59996E+08         0.00000E+00
    0.00000E+00         0.00000E+00        -0.22700E+08
 
   -0.22692E+08         0.34968E+04         0.00000E+00
    0.34968E+04        -0.59994E+08         0.00000E+00
    0.00000E+00         0.00000E+00        -0.22701E+08
 
   -0.22698E+08         0.42371E+04         0.00000E+00
    0.42371E+04        -0.59991E+08         0.00000E+00
    0.00000E+00         0.00000E+00        -0.22701E+08
 
   -0.22601E+08        -0.14414E+03         0.00000E+00
   -0.14414E+03        -0.60000E+08         0.00000E+00
    0.00000E+00         0.00000E+00        -0.22684E+08
 
   -0.22611E+08        -0.35980E+03         0.00000E+00
   -0.35980E+03        -0.60000E+08         0.00000E+00
    0.00000E+00         0.00000E+00        -0.22686E+08
 
   -0.22619E+08        -0.47182E+03         0.00000E+00
   -0.47182E+03        -0.60000E+08         0.00000E+00
    0.00000E+00         0.00000E+00        -0.22688E+08
 
   -0.22627E+08        -0.47445E+03         0.00000E+00
   -0.47445E+03        -0.60001E+08         0.00000E+00
    0.00000E+00         0.00000E+00        -0.22690E+08
 
   -0.22635E+08        -0.36365E+03         0.00000E+00
   -0.36365E+03        -0.60001E+08         0.00000E+00
    0.00000E+00         0.00000E+00        -0.22691E+08
 
   -0.22642E+08        -0.13697E+03         0.00000E+00
   -0.13697E+03        -0.60001E+08         0.00000E+00
    0.00000E+00         0.00000E+00        -0.22692E+08
 
   -0.22648E+08         0.20668E+03         0.00000E+00
    0.20668E+03        -0.60001E+08         0.00000E+00
    0.00000E+00         0.00000E+00        -0.22693E+08
 
   -0.22655E+08         0.66728E+03         0.00000E+00
    0.66728E+03        -0.60001E+08         0.00000E+00
    0.00000E+00         0.00000E+00        -0.22694E+08
 
   -0.22661E+08         0.12439E+04         0.00000E+00
    0.12439E+04        -0.60000E+08         0.00000E+00
    0.00000E+00         0.00000E+00        -0.22695E+08
 
   -0.22667E+08         0.19349E+04         0.00000E+00
    0.19349E+04        -0.60000E+08         0.00000E+00
    0.00000E+00         0.00000E+00        -0.22696E+08
 
   -0.22673E+08         0.27382E+04         0.00000E+00
    0.27382E+04        -0.59999E+08         0.00000E+00
    0.00000E+00         0.00000E+00        -0.22697E+08
 
   -0.22679E+08         0.36517E+04         0.00000E+00
    0.36517E+04        -0.59998E+08         0.00000E+00
    0.00000E+00         0.00000E+00        -0.22698E+08
 
   -0.22685E+08         0.46730E+04         0.00000E+00
    0.46730E+04        -0.59996E+08         0.00000E+00
    0.00000E+00         0.00000E+00        -0.22699E+08
 
   -0.22691E+08         0.58003E+04         0.00000E+00
    0.58003E+04        -0.59994E+08         0.00000E+00
    0.00000E+00         0.00000E+00        -0.22700E+08
 
   -0.22697E+08         0.70320E+04         0.00000E+00
    0.70320E+04        -0.59991E+08         0.00000E+00
    0.00000E+00         0.00000E+00        -0.22700E+08
 
   -0.22601E+08        -0.20667E+03         0.00000E+00
   -0.20667E+03        -0.60000E+08         0.00000E+00
    0.00000E+00         0.00000E+00        -0.22683E+08
 
   -0.22611E+08        -0.51728E+03         0.00000E+00
   -0.51728E+03        -0.60000E+08         0.00000E+00
    0.00000E+00         0.00000E+00        -0.22685E+08
 
   -0.22619E+08        -0.68144E+03         0.00000E+00
   -0.68144E+03        -0.60000E+08         0.00000E+00
    0.00000E+00         0.00000E+00        -0.22687E+08
 
   -0.22627E+08        -0.69121E+03         0.00000E+00
   -0.69121E+03        -0.60001E+08         0.00000E+00
    0.00000E+00         0.00000E+00        -0.22688E+08
 
   -0.22635E+08        -0.54112E+03         0.00000E+00
   -0.54112E+03        -0.60001E+08         0.00000E+00
    0.00000E+00         0.00000E+00        -0.22689E+08
 
   -0.22642E+08        -0.22790E+03         0.00000E+00
   -0.22790E+03        -0.60001E+08         0.00000E+00
    0.00000E+00         0.00000E+00        -0.22691E+08
 
   -0.22648E+08         0.24981E+03         0.00000E+00
    0.24981E+03        -0.60001E+08         0.00000E+00
    0.00000E+00         0.00000E+00        -0.22692E+08
 
   -0.22654E+08         0.89177E+03         0.00000E+00
    0.89177E+03        -0.60001E+08         0.00000E+00
    0.00000E+00         0.00000E+00        -0.22693E+08
 
   -0.22660E+08         0.16965E+04         0.00000E+00
    0.16965E+04        -0.60001E+08         0.00000E+00
    0.00000E+00         0.00000E+00        -0.22694E+08
 
   -0.22666E+08         0.26616E+04         0.00000E+00
    0.26616E+04        -0.60000E+08         0.00000E+00
    0.00000E+00         0.00000E+00        -0.22695E+08
 
   -0.22672E+08         0.37840E+04         0.00000E+00
    0.37840E+04        -0.59999E+08         0.00000E+00
    0.00000E+00         0.00000E+00        -0.22696E+08
 
   -0.22677E+08         0.50604E+04         0.00000E+00
    0.50604E+04        -0.59998E+08         0.00000E+00
    0.00000E+00         0.00000E+00        -0.22696E+08
 
   -0.22683E+08         0.64874E+04         0.00000E+00
    0.64874E+04        -0.59996E+08         0.00000E+00
    0.00000E+00         0.00000E+00        -0.22697E+08
 
   -0.22689E+08         0.80622E+04         0.00000E+00
    0.80622E+04        -0.59994E+08         0.00000E+00
    0.00000E+00         0.00000E+00        -0.22698E+08
 
   -0.22696E+08         0.97826E+04         0.00000E+00
    0.97826E+04        -0.59992E+08         0.00000E+00
    0.00000E+00         0.00000E+00        -0.22699E+08
 
   -0.22602E+08        -0.27406E+03         0.00000E+00
   -0.27406E+03        -0.60000E+08         0.00000E+00
    0.00000E+00         0.00000E+00        -0.22681E+08
 
   -0.22611E+08        -0.68827E+03         0.00000E+00
   -0.68827E+03        -0.60000E+08         0.00000E+00
    0.00000E+00         0.00000E+00        -0.22683E+08
 
   -0.22620E+08        -0.91184E+03         0.00000E+00
   -0.91184E+03        -0.60000E+08         0.00000E+00
    0.00000E+00         0.00000E+00        -0.22685E+08
 
   -0.22627E+08        -0.93478E+03         0.00000E+00
   -0.93478E+03        -0.60001E+08         0.00000E+00
    0.00000E+00         0.00000E+00        -0.22686E+08
 
   -0.22634E+08        -0.75035E+03         0.00000E+00
   -0.75035E+03        -0.60001E+08         0.00000E+00
    0.00000E+00         0.00000E+00        -0.22688E+08
 
   -0.22641E+08        -0.35464E+03         0.00000E+00
   -0.35464E+03        -0.60001E+08         0.00000E+00
    0.00000E+00         0.00000E+00        -0.22689E+08
 
   -0.22647E+08         0.25376E+03         0.00000E+00
    0.25376E+03        -0.60001E+08         0.00000E+00
    0.00000E+00         0.00000E+00        -0.22690E+08
 
   -0.22653E+08         0.10743E+04         0.00000E+00
    0.10743E+04        -0.60001E+08         0.00000E+00
    0.00000E+00         0.00000E+00        -0.22691E+08
 
   -0.22659E+08         0.21047E+04         0.00000E+00
    0.21047E+04        -0.60001E+08         0.00000E+00
    0.00000E+00         0.00000E+00        -0.22692E+08
 
   -0.22665E+08         0.33415E+04         0.00000E+00
    0.33415E+04        -0.60000E+08         0.00000E+00
    0.00000E+00         0.00000E+00        -0.22693E+08
 
   -0.22670E+08         0.47807E+04         0.00000E+00
    0.47807E+04        -0.59999E+08         0.00000E+00
    0.00000E+00         0.00000E+00        -0.22694E+08
 
   -0.22676E+08         0.64175E+04         0.00000E+00
    0.64175E+04        -0.59998E+08         0.00000E+00
    0.00000E+00         0.00000E+00        -0.22694E+08
 
   -0.22682E+08         0.82474E+04         0.00000E+00
    0.82474E+04        -0.59997E+08         0.00000E+00
    0.00000E+00         0.00000E+00        -0.22695E+08
 
   -0.22688E+08         0.10266E+05         0.00000E+00
    0.10266E+05        -0.59995E+08         0.00000E+00
    0.00000E+00         0.00000E+00        -0.22696E+08
 
   -0.22694E+08         0.12471E+05         0.00000E+00
    0.12471E+05        -0.59992E+08         0.00000E+00
    0.00000E+00         0.00000E+00        -0.22697E+08
 
   -0.22602E+08        -0.34771E+03         0.00000E+00
   -0.34771E+03        -0.60000E+08         0.00000E+00
    0.00000E+00         0.00000E+00        -0.22679E+08
 
   -0.22611E+08        -0.87656E+03         0.00000E+00
   -0.87656E+03        -0.60000E+08         0.00000E+00
    0.00000E+00         0.00000E+00        -0.22681E+08
 
   -0.22620E+08        -0.11688E+04         0.00000E+00
   -0.11688E+04        -0.60000E+08         0.00000E+00
    0.00000E+00         0.00000E+00        -0.22682E+08
 
   -0.22627E+08        -0.12125E+04         0.00000E+00
   -0.12125E+04        -0.60001E+08         0.00000E+00
    0.00000E+00         0.00000E+00        -0.22684E+08
 
   -0.22634E+08        -0.10000E+04         0.00000E+00
   -0.10000E+04        -0.60001E+08         0.00000E+00
    0.00000E+00         0.00000E+00        -0.22685E+08
 
   -0.22641E+08        -0.52696E+03         0.00000E+00
   -0.52696E+03        -0.60001E+08         0.00000E+00
    0.00000E+00         0.00000E+00        -0.22686E+08
 
   -0.22647E+08         0.20792E+03         0.00000E+00
    0.20792E+03        -0.60001E+08         0.00000E+00
    0.00000E+00         0.00000E+00        -0.22687E+08
 
   -0.22652E+08         0.12034E+04         0.00000E+00
    0.12034E+04        -0.60001E+08         0.00000E+00
    0.00000E+00         0.00000E+00        -0.22688E+08
 
   -0.22658E+08         0.24563E+04         0.00000E+00
    0.24563E+04        -0.60001E+08         0.00000E+00
    0.00000E+00         0.00000E+00        -0.22689E+08
 
   -0.22663E+08         0.39620E+04         0.00000E+00
    0.39620E+04        -0.60001E+08         0.00000E+00
    0.00000E+00         0.00000E+00        -0.22690E+08
 
   -0.22669E+08         0.57149E+04         0.00000E+00
    0.57149E+04        -0.60000E+08         0.00000E+00
    0.00000E+00         0.00000E+00        -0.22691E+08
 
   -0.22674E+08         0.77090E+04         0.00000E+00
    0.77090E+04        -0.59999E+08         0.00000E+00
    0.00000E+00         0.00000E+00        -0.22692E+08
 
   -0.22679E+08         0.99383E+04         0.00000E+00
    0.99383E+04        -0.59997E+08         0.00000E+00
    0.00000E+00         0.00000E+00        -0.22693E+08
 
   -0.22685E+08         0.12397E+05         0.00000E+00
    0.12397E+05        -0.59996E+08         0.00000E+00
    0.00000E+00         0.00000E+00        -0.22693E+08
 
   -0.22691E+08         0.15082E+05         0.00000E+00
    0.15082E+05        -0.59993E+08         0.00000E+00
    0.00000E+00         0.00000E+00        -0.22694E+08
 
   -0.22603E+08        -0.42896E+03         0.00000E+00
   -0.42896E+03        -0.60000E+08         0.00000E+00
    0.00000E+00         0.00000E+00        -0.22676E+08
 
   -0.22612E+08        -0.10859E+04         0.00000E+00
   -0.10859E+04        -0.60000E+08         0.00000E+00
    0.00000E+00         0.00000E+00        -0.22678E+08
 
   -0.22620E+08        -0.14579E+04         0.00000E+00
   -0.14579E+04        -0.60000E+08         0.00000E+00
    0.00000E+00         0.00000E+00        -0.22680E+08
 
   -0.22627E+08        -0.15316E+04         0.00000E+00
   -0.15316E+04        -0.60001E+08         0.00000E+00
    0.00000E+00         0.00000E+00        -0.22681E+08
 
   -0.22634E+08        -0.12985E+04         0.00000E+00
   -0.12985E+04        -0.60001E+08         0.00000E+00
    0.00000E+00         0.00000E+00        -0.22682E+08
 
   -0.22640E+08        -0.75418E+03         0.00000E+00
   -0.75418E+03        -0.60001E+08         0.00000E+00
    0.00000E+00         0.00000E+00        -0.22684E+08
 
   -0.22646E+08         0.10210E+03         0.00000E+00
    0.10210E+03        -0.60002E+08         0.00000E+00
    0.00000E+00         0.00000E+00        -0.22685E+08
 
   -0.22651E+08         0.12682E+04         0.00000E+00
    0.12682E+04        -0.60002E+08         0.00000E+00
    0.00000E+00         0.00000E+00        -0.22686E+08
 
   -0.22656E+08         0.27398E+04         0.00000E+00
    0.27398E+04        -0.60002E+08         0.00000E+00
    0.00000E+00         0.00000E+00        -0.22686E+08
 
   -0.22661E+08         0.45108E+04         0.00000E+00
    0.45108E+04        -0.60001E+08         0.00000E+00
    0.00000E+00         0.00000E+00        -0.22687E+08
 
   -0.22666E+08         0.65739E+04         0.00000E+00
    0.65739E+04        -0.60001E+08         0.00000E+00
    0.00000E+00         0.00000E+00        -0.22688E+08
 
   -0.22672E+08         0.89215E+04         0.00000E+00
    0.89215E+04        -0.60000E+08         0.00000E+00
    0.00000E+00         0.00000E+00        -0.22689E+08
 
   -0.22677E+08         0.11546E+05         0.00000E+00
    0.11546E+05        -0.59998E+08         0.00000E+00
    0.00000E+00         0.00000E+00        -0.22689E+08
 
   -0.22682E+08         0.14440E+05         0.00000E+00
    0.14440E+05        -0.59996E+08         0.00000E+00
    0.00000E+00         0.00000E+00        -0.22690E+08
 
   -0.22688E+08         0.17597E+05         0.00000E+00
    0.17597E+05        -0.59994E+08         0.00000E+00
    0.00000E+00         0.00000E+00        -0.22691E+08
 
   -0.22604E+08        -0.51915E+03         0.00000E+00
   -0.51915E+03        -0.60000E+08         0.00000E+00
    0.00000E+00         0.00000E+00        -0.22673E+08
 
   -0.22613E+08        -0.13198E+04         0.00000E+00
   -0.13198E+04        -0.60000E+08         0.00000E+00
    0.00000E+00         0.00000E+00        -0.22675E+08
 
   -0.22620E+08        -0.17845E+04         0.00000E+00
   -0.17845E+04        -0.60001E+08         0.00000E+00
    0.00000E+00         0.00000E+00        -0.22677E+08
 
   -0.22627E+08        -0.18988E+04         0.00000E+00
   -0.18988E+04        -0.60001E+08         0.00000E+00
    0.00000E+00         0.00000E+00        -0.22678E+08
 
   -0.22633E+08        -0.16536E+04         0.00000E+00
   -0.16536E+04        -0.60001E+08         0.00000E+00
    0.00000E+00         0.00000E+00        -0.22679E+08
 
   -0.22639E+08        -0.10451E+04         0.00000E+00
   -0.10451E+04        -0.60002E+08         0.00000E+00
    0.00000E+00         0.00000E+00        -0.22680E+08
 
   -0.22645E+08        -0.73197E+02         0.00000E+00
   -0.73197E+02        -0.60002E+08         0.00000E+00
    0.00000E+00         0.00000E+00        -0.22681E+08
 
   -0.22650E+08         0.12586E+04         0.00000E+00
    0.12586E+04        -0.60002E+08         0.00000E+00
    0.00000E+00         0.00000E+00        -0.22682E+08
 
   -0.22655E+08         0.29444E+04         0.00000E+00
    0.29444E+04        -0.60002E+08         0.00000E+00
    0.00000E+00         0.00000E+00        -0.22683E+08
 
   -0.22659E+08         0.49764E+04         0.00000E+00
    0.49764E+04        -0.60002E+08         0.00000E+00
    0.00000E+00         0.00000E+00        -0.22684E+08
 
   -0.22664E+08         0.73455E+04         0.00000E+00
    0.73455E+04        -0.60001E+08         0.00000E+00
    0.00000E+00         0.00000E+00        -0.22684E+08
 
   -0.22669E+08         0.10042E+05         0.00000E+00
    0.10042E+05        -0.60000E+08         0.00000E+00
    0.00000E+00         0.00000E+00        -0.22685E+08
 
   -0.22674E+08         0.13056E+05         0.00000E+00
    0.13056E+05        -0.59999E+08         0.00000E+00
    0.00000E+00         0.00000E+00        -0.22686E+08
 
   -0.22679E+08         0.16379E+05         0.00000E+00
    0.16379E+05        -0.59997E+08         0.00000E+00
    0.00000E+00         0.00000E+00        -0.22686E+08
 
   -0.22685E+08         0.20002E+05         0.00000E+00
    0.20002E+05        -0.59995E+08         0.00000E+00
    0.00000E+00         0.00000E+00        -0.22687E+08
 
   -0.22605E+08        -0.61957E+03         0.00000E+00
   -0.61957E+03        -0.60000E+08         0.00000E+00
    0.00000E+00         0.00000E+00        -0.22670E+08
 
   -0.22613E+08        -0.15816E+04         0.00000E+00
   -0.15816E+04        -0.60000E+08         0.00000E+00
    0.00000E+00         0.00000E+00        -0.22672E+08
 
   -0.22620E+08        -0.21537E+04         0.00000E+00
   -0.21537E+04        -0.60001E+08         0.00000E+00
    0.00000E+00         0.00000E+00        -0.22673E+08
 
   -0.22627E+08        -0.23202E+04         0.00000E+00
   -0.23202E+04        -0.60001E+08         0.00000E+00
    0.00000E+00         0.00000E+00        -0.22674E+08
 
   -0.22633E+08        -0.20726E+04         0.00000E+00
   -0.20726E+04        -0.60001E+08         0.00000E+00
    0.00000E+00         0.00000E+00        -0.22675E+08
 
   -0.22638E+08        -0.14076E+04         0.00000E+00
   -0.14076E+04        -0.60002E+08         0.00000E+00
    0.00000E+00         0.00000E+00        -0.22677E+08
 
   -0.22643E+08        -0.32665E+03         0.00000E+00
   -0.32665E+03        -0.60002E+08         0.00000E+00
    0.00000E+00         0.00000E+00        -0.22677E+08
 
   -0.22648E+08         0.11652E+04         0.00000E+00
    0.11652E+04        -0.60002E+08         0.00000E+00
    0.00000E+00         0.00000E+00        -0.22678E+08
 
   -0.22653E+08         0.30602E+04         0.00000E+00
    0.30602E+04        -0.60002E+08         0.00000E+00
    0.00000E+00         0.00000E+00        -0.22679E+08
 
   -0.22657E+08         0.53483E+04         0.00000E+00
    0.53483E+04        -0.60002E+08         0.00000E+00
    0.00000E+00         0.00000E+00        -0.22680E+08
 
   -0.22661E+08         0.80183E+04         0.00000E+00
    0.80183E+04        -0.60002E+08         0.00000E+00
    0.00000E+00         0.00000E+00        -0.22680E+08
 
   -0.22666E+08         0.11058E+05         0.00000E+00
    0.11058E+05        -0.60001E+08         0.00000E+00
    0.00000E+00         0.00000E+00        -0.22681E+08
 
   -0.22671E+08         0.14457E+05         0.00000E+00
    0.14457E+05        -0.60000E+08         0.00000E+00
    0.00000E+00         0.00000E+00        -0.22682E+08
 
   -0.22675E+08         0.18201E+05         0.00000E+00
    0.18201E+05        -0.59998E+08         0.00000E+00
    0.00000E+00         0.00000E+00        -0.22682E+08
 
   -0.22681E+08         0.22282E+05         0.00000E+00
    0.22282E+05        -0.59996E+08         0.00000E+00
    0.00000E+00         0.00000E+00        -0.22683E+08
 
   -0.22606E+08        -0.73140E+03         0.00000E+00
   -0.73140E+03        -0.60000E+08         0.00000E+00
    0.00000E+00         0.00000E+00        -0.22666E+08
 
   -0.22614E+08        -0.18747E+04         0.00000E+00
   -0.18747E+04        -0.60000E+08         0.00000E+00
    0.00000E+00         0.00000E+00        -0.22668E+08
 
   -0.22621E+08        -0.25699E+04         0.00000E+00
   -0.25699E+04        -0.60001E+08         0.00000E+00
    0.00000E+00         0.00000E+00        -0.22669E+08
 
   -0.22627E+08        -0.28016E+04         0.00000E+00
   -0.28016E+04        -0.60001E+08         0.00000E+00
    0.00000E+00         0.00000E+00        -0.22670E+08
 
   -0.22632E+08        -0.25619E+04         0.00000E+00
   -0.25619E+04        -0.60002E+08         0.00000E+00
    0.00000E+00         0.00000E+00        -0.22671E+08
 
   -0.22637E+08        -0.18488E+04         0.00000E+00
   -0.18488E+04        -0.60002E+08         0.00000E+00
    0.00000E+00         0.00000E+00        -0.22672E+08
 
   -0.22642E+08        -0.66583E+03         0.00000E+00
   -0.66583E+03        -0.60003E+08         0.00000E+00
    0.00000E+00         0.00000E+00        -0.22673E+08
 
   -0.22646E+08         0.97990E+03         0.00000E+00
    0.97990E+03        -0.60003E+08         0.00000E+00
    0.00000E+00         0.00000E+00        -0.22674E+08
 
   -0.22650E+08         0.30782E+04         0.00000E+00
    0.30782E+04        -0.60003E+08         0.00000E+00
    0.00000E+00         0.00000E+00        -0.22675E+08
 
   -0.22654E+08         0.56168E+04         0.00000E+00
    0.56168E+04        -0.60003E+08         0.00000E+00
    0.00000E+00         0.00000E+00        -0.22675E+08
 
   -0.22658E+08         0.85821E+04         0.00000E+00
    0.85821E+04        -0.60003E+08         0.00000E+00
    0.00000E+00         0.00000E+00        -0.22676E+08
 
   -0.22662E+08         0.11960E+05         0.00000E+00
    0.11960E+05        -0.60002E+08         0.00000E+00
    0.00000E+00         0.00000E+00        -0.22677E+08
 
   -0.22667E+08         0.15735E+05         0.00000E+00
    0.15735E+05        -0.60001E+08         0.00000E+00
    0.00000E+00         0.00000E+00        -0.22677E+08
 
   -0.22671E+08         0.19894E+05         0.00000E+00
    0.19894E+05        -0.59999E+08         0.00000E+00
    0.00000E+00         0.00000E+00        -0.22678E+08
 
   -0.22676E+08         0.24423E+05         0.00000E+00
    0.24423E+05        -0.59998E+08         0.00000E+00
    0.00000E+00         0.00000E+00        -0.22678E+08
 
   -0.22608E+08        -0.85576E+03         0.00000E+00
   -0.85576E+03        -0.60000E+08         0.00000E+00
    0.00000E+00         0.00000E+00        -0.22662E+08
 
   -0.22615E+08        -0.22016E+04         0.00000E+00
   -0.22016E+04        -0.60000E+08         0.00000E+00
    0.00000E+00         0.00000E+00        -0.22663E+08
 
   -0.22621E+08        -0.30372E+04         0.00000E+00
   -0.30372E+04        -0.60001E+08         0.00000E+00
    0.00000E+00         0.00000E+00        -0.22665E+08
 
   -0.22627E+08        -0.33476E+04         0.00000E+00
   -0.33476E+04        -0.60001E+08         0.00000E+00
    0.00000E+00         0.00000E+00        -0.22666E+08
 
   -0.22632E+08        -0.31265E+04         0.00000E+00
   -0.31265E+04        -0.60002E+08         0.00000E+00
    0.00000E+00         0.00000E+00        -0.22667E+08
 
   -0.22636E+08        -0.23743E+04         0.00000E+00
   -0.23743E+04        -0.60002E+08         0.00000E+00
    0.00000E+00         0.00000E+00        -0.22668E+08
 
   -0.22640E+08        -0.10969E+04         0.00000E+00
   -0.10969E+04        -0.60003E+08         0.00000E+00
    0.00000E+00         0.00000E+00        -0.22669E+08
 
   -0.22644E+08         0.69589E+03         0.00000E+00
    0.69589E+03        -0.60003E+08         0.00000E+00
    0.00000E+00         0.00000E+00        -0.22669E+08
 
   -0.22648E+08         0.29911E+04         0.00000E+00
    0.29911E+04        -0.60004E+08         0.00000E+00
    0.00000E+00         0.00000E+00        -0.22670E+08
 
   -0.22651E+08         0.57737E+04         0.00000E+00
    0.57737E+04        -0.60004E+08         0.00000E+00
    0.00000E+00         0.00000E+00        -0.22671E+08
 
   -0.22655E+08         0.90275E+04         0.00000E+00
    0.90275E+04        -0.60003E+08         0.00000E+00
    0.00000E+00         0.00000E+00        -0.22671E+08
 
   -0.22659E+08         0.12735E+05         0.00000E+00
    0.12735E+05        -0.60003E+08         0.00000E+00
    0.00000E+00         0.00000E+00        -0.22672E+08
 
   -0.22663E+08         0.16880E+05         0.00000E+00
    0.16880E+05        -0.60002E+08         0.00000E+00
    0.00000E+00         0.00000E+00        -0.22672E+08
 
   -0.22667E+08         0.21444E+05         0.00000E+00
    0.21444E+05        -0.60001E+08         0.00000E+00
    0.00000E+00         0.00000E+00        -0.22673E+08
 
   -0.22671E+08         0.26412E+05         0.00000E+00
    0.26412E+05        -0.59999E+08         0.00000E+00
    0.00000E+00         0.00000E+00        -0.22673E+08
 
   -0.22610E+08        -0.99358E+03         0.00000E+00
   -0.99358E+03        -0.60000E+08         0.00000E+00
    0.00000E+00         0.00000E+00        -0.22657E+08
 
   -0.22616E+08        -0.25647E+04         0.00000E+00
   -0.25647E+04        -0.60000E+08         0.00000E+00
    0.00000E+00         0.00000E+00        -0.22659E+08
 
   -0.22622E+08        -0.35584E+04         0.00000E+00
   -0.35584E+04        -0.60001E+08         0.00000E+00
    0.00000E+00         0.00000E+00        -0.22660E+08
 
   -0.22627E+08        -0.39616E+04         0.00000E+00
   -0.39616E+04        -0.60001E+08         0.00000E+00
    0.00000E+00         0.00000E+00        -0.22661E+08
 
   -0.22631E+08        -0.37703E+04         0.00000E+00
   -0.37703E+04        -0.60002E+08         0.00000E+00
    0.00000E+00         0.00000E+00        -0.22662E+08
 
   -0.22635E+08        -0.29881E+04         0.00000E+00
   -0.29881E+04        -0.60003E+08         0.00000E+00
    0.00000E+00         0.00000E+00        -0.22663E+08
 
   -0.22639E+08        -0.16242E+04         0.00000E+00
   -0.16242E+04        -0.60003E+08         0.00000E+00
    0.00000E+00         0.00000E+00        -0.22663E+08
 
   -0.22642E+08         0.30831E+03         0.00000E+00
    0.30831E+03        -0.60004E+08         0.00000E+00
    0.00000E+00         0.00000E+00        -0.22664E+08
 
   -0.22645E+08         0.27932E+04         0.00000E+00
    0.27932E+04        -0.60004E+08         0.00000E+00
    0.00000E+00         0.00000E+00        -0.22665E+08
 
   -0.22648E+08         0.58124E+04         0.00000E+00
    0.58124E+04        -0.60004E+08         0.00000E+00
    0.00000E+00         0.00000E+00        -0.22665E+08
 
   -0.22651E+08         0.93469E+04         0.00000E+00
    0.93469E+04        -0.60004E+08         0.00000E+00
    0.00000E+00         0.00000E+00        -0.22666E+08
 
   -0.22655E+08         0.13377E+05         0.00000E+00
    0.13377E+05        -0.60004E+08         0.00000E+00
    0.00000E+00         0.00000E+00        -0.22666E+08
 
   -0.22658E+08         0.17882E+05         0.00000E+00
    0.17882E+05        -0.60003E+08         0.00000E+00
    0.00000E+00         0.00000E+00        -0.22667E+08
 
   -0.22662E+08         0.22842E+05         0.00000E+00
    0.22842E+05        -0.60002E+08         0.00000E+00
    0.00000E+00         0.00000E+00        -0.22667E+08
 
   -0.22666E+08         0.28238E+05         0.00000E+00
    0.28238E+05        -0.60000E+08         0.00000E+00
    0.00000E+00         0.00000E+00        -0.22668E+08
 
   -0.22612E+08        -0.11456E+04         0.00000E+00
   -0.11456E+04        -0.60000E+08         0.00000E+00
    0.00000E+00         0.00000E+00        -0.22653E+08
 
   -0.22618E+08        -0.29656E+04         0.00000E+00
   -0.29656E+04        -0.60000E+08         0.00000E+00
    0.00000E+00         0.00000E+00        -0.22654E+08
 
   -0.22623E+08        -0.41357E+04         0.00000E+00
   -0.41357E+04        -0.60001E+08         0.00000E+00
    0.00000E+00         0.00000E+00        -0.22655E+08
 
   -0.22627E+08        -0.46455E+04         0.00000E+00
   -0.46455E+04        -0.60002E+08         0.00000E+00
    0.00000E+00         0.00000E+00        -0.22656E+08
 
   -0.22631E+08        -0.44951E+04         0.00000E+00
   -0.44951E+04        -0.60002E+08         0.00000E+00
    0.00000E+00         0.00000E+00        -0.22657E+08
 
   -0.22634E+08        -0.36920E+04         0.00000E+00
   -0.36920E+04        -0.60003E+08         0.00000E+00
    0.00000E+00         0.00000E+00        -0.22657E+08
 
   -0.22637E+08        -0.22497E+04         0.00000E+00
   -0.22497E+04        -0.60004E+08         0.00000E+00
    0.00000E+00         0.00000E+00        -0.22658E+08
 
   -0.22640E+08        -0.18546E+03         0.00000E+00
   -0.18546E+03        -0.60004E+08         0.00000E+00
    0.00000E+00         0.00000E+00        -0.22659E+08
 
   -0.22642E+08         0.24808E+04         0.00000E+00
    0.24808E+04        -0.60005E+08         0.00000E+00
    0.00000E+00         0.00000E+00        -0.22659E+08
 
   -0.22645E+08         0.57280E+04         0.00000E+00
    0.57280E+04        -0.60005E+08         0.00000E+00
    0.00000E+00         0.00000E+00        -0.22660E+08
 
   -0.22647E+08         0.95339E+04         0.00000E+00
    0.95339E+04        -0.60005E+08         0.00000E+00
    0.00000E+00         0.00000E+00        -0.22660E+08
 
   -0.22650E+08         0.13876E+05         0.00000E+00
    0.13876E+05        -0.60005E+08         0.00000E+00
    0.00000E+00         0.00000E+00        -0.22660E+08
 
   -0.22653E+08         0.18731E+05         0.00000E+00
    0.18731E+05        -0.60004E+08         0.00000E+00
    0.00000E+00         0.00000E+00        -0.22661E+08
 
   -0.22656E+08         0.24076E+05         0.00000E+00
    0.24076E+05        -0.60003E+08         0.00000E+00
    0.00000E+00         0.00000E+00        -0.22661E+08
 
   -0.22660E+08         0.29888E+05         0.00000E+00
    0.29888E+05        -0.60002E+08         0.00000E+00
    0.00000E+00         0.00000E+00        -0.22662E+08
 
   -0.22614E+08        -0.13123E+04         0.00000E+00
   -0.13123E+04        -0.60000E+08         0.00000E+00
    0.00000E+00         0.00000E+00        -0.22647E+08
 
   -0.22619E+08        -0.34051E+04         0.00000E+00
   -0.34051E+04        -0.60000E+08         0.00000E+00
    0.00000E+00         0.00000E+00        -0.22648E+08
 
   -0.22624E+08        -0.47693E+04         0.00000E+00
   -0.47693E+04        -0.60001E+08         0.00000E+00
    0.00000E+00         0.00000E+00        -0.22649E+08
 
   -0.22627E+08        -0.53993E+04         0.00000E+00
   -0.53993E+04        -0.60002E+08         0.00000E+00
    0.00000E+00         0.00000E+00        -0.22650E+08
 
   -0.22631E+08        -0.53001E+04         0.00000E+00
   -0.53001E+04        -0.60003E+08         0.00000E+00
    0.00000E+00         0.00000E+00        -0.22651E+08
 
   -0.22633E+08        -0.44849E+04         0.00000E+00
   -0.44849E+04        -0.60003E+08         0.00000E+00
    0.00000E+00         0.00000E+00        -0.22652E+08
 
   -0.22635E+08        -0.29725E+04         0.00000E+00
   -0.29725E+04        -0.60004E+08         0.00000E+00
    0.00000E+00         0.00000E+00        -0.22652E+08
 
   -0.22637E+08        -0.78515E+03         0.00000E+00
   -0.78515E+03        -0.60005E+08         0.00000E+00
    0.00000E+00         0.00000E+00        -0.22653E+08
 
   -0.22639E+08         0.20533E+04         0.00000E+00
    0.20533E+04        -0.60005E+08         0.00000E+00
    0.00000E+00         0.00000E+00        -0.22653E+08
 
   -0.22641E+08         0.55180E+04         0.00000E+00
    0.55180E+04        -0.60006E+08         0.00000E+00
    0.00000E+00         0.00000E+00        -0.22653E+08
 
   -0.22643E+08         0.95843E+04         0.00000E+00
    0.95843E+04        -0.60006E+08         0.00000E+00
    0.00000E+00         0.00000E+00        -0.22654E+08
 
   -0.22645E+08         0.14227E+05         0.00000E+00
    0.14227E+05        -0.60006E+08         0.00000E+00
    0.00000E+00         0.00000E+00        -0.22654E+08
 
   -0.22648E+08         0.19420E+05         0.00000E+00
    0.19420E+05        -0.60005E+08         0.00000E+00
    0.00000E+00         0.00000E+00        -0.22654E+08
 
   -0.22651E+08         0.25138E+05         0.00000E+00
    0.25138E+05        -0.60005E+08         0.00000E+00
    0.00000E+00         0.00000E+00        -0.22655E+08
 
   -0.22654E+08         0.31352E+05         0.00000E+00
    0.31352E+05        -0.60003E+08         0.00000E+00
    0.00000E+00         0.00000E+00        -0.22655E+08
 
   -0.22616E+08        -0.14937E+04         0.00000E+00
   -0.14937E+04        -0.60000E+08         0.00000E+00
    0.00000E+00         0.00000E+00        -0.22642E+08
 
   -0.22621E+08        -0.38827E+04         0.00000E+00
   -0.38827E+04        -0.60000E+08         0.00000E+00
    0.00000E+00         0.00000E+00        -0.22643E+08
 
   -0.22625E+08        -0.54580E+04         0.00000E+00
   -0.54580E+04        -0.60001E+08         0.00000E+00
    0.00000E+00         0.00000E+00        -0.22644E+08
 
   -0.22628E+08        -0.62202E+04         0.00000E+00
   -0.62202E+04        -0.60002E+08         0.00000E+00
    0.00000E+00         0.00000E+00        -0.22644E+08
 
   -0.22630E+08        -0.61815E+04         0.00000E+00
   -0.61815E+04        -0.60003E+08         0.00000E+00
    0.00000E+00         0.00000E+00        -0.22645E+08
 
   -0.22632E+08        -0.53624E+04         0.00000E+00
   -0.53624E+04        -0.60004E+08         0.00000E+00
    0.00000E+00         0.00000E+00        -0.22645E+08
 
   -0.22633E+08        -0.37882E+04         0.00000E+00
   -0.37882E+04        -0.60005E+08         0.00000E+00
    0.00000E+00         0.00000E+00        -0.22646E+08
 
   -0.22635E+08        -0.14870E+04         0.00000E+00
   -0.14870E+04        -0.60005E+08         0.00000E+00
    0.00000E+00         0.00000E+00        -0.22646E+08
 
   -0.22636E+08         0.15127E+04         0.00000E+00
    0.15127E+04        -0.60006E+08         0.00000E+00
    0.00000E+00         0.00000E+00        -0.22647E+08
 
   -0.22637E+08         0.51828E+04         0.00000E+00
    0.51828E+04        -0.60007E+08         0.00000E+00
    0.00000E+00         0.00000E+00        -0.22647E+08
 
   -0.22639E+08         0.94957E+04         0.00000E+00
    0.94957E+04        -0.60007E+08         0.00000E+00
    0.00000E+00         0.00000E+00        -0.22647E+08
 
   -0.22640E+08         0.14424E+05         0.00000E+00
    0.14424E+05        -0.60007E+08         0.00000E+00
    0.00000E+00         0.00000E+00        -0.22647E+08
 
   -0.22642E+08         0.19941E+05         0.00000E+00
    0.19941E+05        -0.60007E+08         0.00000E+00
    0.00000E+00         0.00000E+00        -0.22648E+08
 
   -0.22644E+08         0.26018E+05         0.00000E+00
    0.26018E+05        -0.60006E+08         0.00000E+00
    0.00000E+00         0.00000E+00        -0.22648E+08
 
   -0.22647E+08         0.32622E+05         0.00000E+00
    0.32622E+05        -0.60005E+08         0.00000E+00
    0.00000E+00         0.00000E+00        -0.22648E+08
 
   -0.22619E+08        -0.16896E+04         0.00000E+00
   -0.16896E+04        -0.60000E+08         0.00000E+00
    0.00000E+00         0.00000E+00        -0.22636E+08
 
   -0.22623E+08        -0.43969E+04         0.00000E+00
   -0.43969E+04        -0.60000E+08         0.00000E+00
    0.00000E+00         0.00000E+00        -0.22637E+08
 
   -0.22626E+08        -0.61981E+04         0.00000E+00
   -0.61981E+04        -0.60001E+08         0.00000E+00
    0.00000E+00         0.00000E+00        -0.22638E+08
 
   -0.22628E+08        -0.71026E+04         0.00000E+00
   -0.71026E+04        -0.60002E+08         0.00000E+00
    0.00000E+00         0.00000E+00        -0.22638E+08
 
   -0.22630E+08        -0.71319E+04         0.00000E+00
   -0.71319E+04        -0.60003E+08         0.00000E+00
    0.00000E+00         0.00000E+00        -0.22639E+08
 
   -0.22631E+08        -0.63157E+04         0.00000E+00
   -0.63157E+04        -0.60004E+08         0.00000E+00
    0.00000E+00         0.00000E+00        -0.22639E+08
 
   -0.22632E+08        -0.46877E+04         0.00000E+00
   -0.46877E+04        -0.60005E+08         0.00000E+00
    0.00000E+00         0.00000E+00        -0.22639E+08
 
   -0.22632E+08        -0.22827E+04         0.00000E+00
   -0.22827E+04        -0.60006E+08         0.00000E+00
    0.00000E+00         0.00000E+00        -0.22640E+08
 
   -0.22633E+08         0.86556E+03         0.00000E+00
    0.86556E+03        -0.60007E+08         0.00000E+00
    0.00000E+00         0.00000E+00        -0.22640E+08
 
   -0.22633E+08         0.47257E+04         0.00000E+00
    0.47257E+04        -0.60007E+08         0.00000E+00
    0.00000E+00         0.00000E+00        -0.22640E+08
 
   -0.22634E+08         0.92684E+04         0.00000E+00
    0.92684E+04        -0.60008E+08         0.00000E+00
    0.00000E+00         0.00000E+00        -0.22640E+08
 
   -0.22635E+08         0.14466E+05         0.00000E+00
    0.14466E+05        -0.60008E+08         0.00000E+00
    0.00000E+00         0.00000E+00        -0.22640E+08
 
   -0.22636E+08         0.20289E+05         0.00000E+00
    0.20289E+05        -0.60008E+08         0.00000E+00
    0.00000E+00         0.00000E+00        -0.22641E+08
 
   -0.22638E+08         0.26707E+05         0.00000E+00
    0.26707E+05        -0.60007E+08         0.00000E+00
    0.00000E+00         0.00000E+00        -0.22641E+08
 
   -0.22640E+08         0.33686E+05         0.00000E+00
    0.33686E+05        -0.60006E+08         0.00000E+00
    0.00000E+00         0.00000E+00        -0.22641E+08
 
   -0.22623E+08        -0.18991E+04         0.00000E+00
   -0.18991E+04        -0.60000E+08         0.00000E+00
    0.00000E+00         0.00000E+00        -0.22630E+08
 
   -0.22626E+08        -0.49443E+04         0.00000E+00
   -0.49443E+04        -0.60000E+08         0.00000E+00
    0.00000E+00         0.00000E+00        -0.22631E+08
 
   -0.22628E+08        -0.69832E+04         0.00000E+00
   -0.69832E+04        -0.60001E+08         0.00000E+00
    0.00000E+00         0.00000E+00        -0.22631E+08
 
   -0.22629E+08        -0.80367E+04         0.00000E+00
   -0.80367E+04        -0.60002E+08         0.00000E+00
    0.00000E+00         0.00000E+00        -0.22632E+08
 
   -0.22629E+08        -0.81387E+04         0.00000E+00
   -0.81387E+04        -0.60003E+08         0.00000E+00
    0.00000E+00         0.00000E+00        -0.22632E+08
 
   -0.22630E+08        -0.73305E+04         0.00000E+00
   -0.73305E+04        -0.60004E+08         0.00000E+00
    0.00000E+00         0.00000E+00        -0.22632E+08
 
   -0.22629E+08        -0.56563E+04         0.00000E+00
   -0.56563E+04        -0.60005E+08         0.00000E+00
    0.00000E+00         0.00000E+00        -0.22632E+08
 
   -0.22629E+08        -0.31588E+04         0.00000E+00
   -0.31588E+04        -0.60006E+08         0.00000E+00
    0.00000E+00         0.00000E+00        -0.22633E+08
 
   -0.22629E+08         0.12282E+03         0.00000E+00
    0.12282E+03        -0.60007E+08         0.00000E+00
    0.00000E+00         0.00000E+00        -0.22633E+08
 
   -0.22629E+08         0.41543E+04         0.00000E+00
    0.41543E+04        -0.60008E+08         0.00000E+00
    0.00000E+00         0.00000E+00        -0.22633E+08
 
   -0.22629E+08         0.89054E+04         0.00000E+00
    0.89054E+04        -0.60008E+08         0.00000E+00
    0.00000E+00         0.00000E+00        -0.22633E+08
 
   -0.22629E+08         0.14348E+05         0.00000E+00
    0.14348E+05        -0.60008E+08         0.00000E+00
    0.00000E+00         0.00000E+00        -0.22633E+08
 
   -0.22630E+08         0.20456E+05         0.00000E+00
    0.20456E+05        -0.60009E+08         0.00000E+00
    0.00000E+00         0.00000E+00        -0.22633E+08
 
   -0.22631E+08         0.27197E+05         0.00000E+00
    0.27197E+05        -0.60008E+08         0.00000E+00
    0.00000E+00         0.00000E+00        -0.22633E+08
 
   -0.22633E+08         0.34534E+05         0.00000E+00
    0.34534E+05        -0.60008E+08         0.00000E+00
    0.00000E+00         0.00000E+00        -0.22633E+08
 
   -0.22627E+08        -0.21207E+04         0.00000E+00
   -0.21207E+04        -0.60000E+08         0.00000E+00
    0.00000E+00         0.00000E+00        -0.22624E+08
 
   -0.22628E+08        -0.55195E+04         0.00000E+00
   -0.55195E+04        -0.60001E+08         0.00000E+00
    0.00000E+00         0.00000E+00        -0.22625E+08
 
   -0.22629E+08        -0.78032E+04         0.00000E+00
   -0.78032E+04        -0.60001E+08         0.00000E+00
    0.00000E+00         0.00000E+00        -0.22625E+08
 
   -0.22629E+08        -0.90079E+04         0.00000E+00
   -0.90079E+04        -0.60002E+08         0.00000E+00
    0.00000E+00         0.00000E+00        -0.22625E+08
 
   -0.22629E+08        -0.91834E+04         0.00000E+00
   -0.91834E+04        -0.60003E+08         0.00000E+00
    0.00000E+00         0.00000E+00        -0.22625E+08
 
   -0.22628E+08        -0.83860E+04         0.00000E+00
   -0.83860E+04        -0.60004E+08         0.00000E+00
    0.00000E+00         0.00000E+00        -0.22625E+08
 
   -0.22627E+08        -0.66725E+04         0.00000E+00
   -0.66725E+04        -0.60005E+08         0.00000E+00
    0.00000E+00         0.00000E+00        -0.22625E+08
 
   -0.22626E+08        -0.40951E+04         0.00000E+00
   -0.40951E+04        -0.60006E+08         0.00000E+00
    0.00000E+00         0.00000E+00        -0.22625E+08
 
   -0.22625E+08        -0.69865E+03         0.00000E+00
   -0.69865E+03        -0.60007E+08         0.00000E+00
    0.00000E+00         0.00000E+00        -0.22625E+08
 
   -0.22625E+08         0.34803E+04         0.00000E+00
    0.34803E+04        -0.60008E+08         0.00000E+00
    0.00000E+00         0.00000E+00        -0.22625E+08
 
   -0.22624E+08         0.84125E+04         0.00000E+00
    0.84125E+04        -0.60009E+08         0.00000E+00
    0.00000E+00         0.00000E+00        -0.22625E+08
 
   -0.22623E+08         0.14073E+05         0.00000E+00
    0.14073E+05        -0.60009E+08         0.00000E+00
    0.00000E+00         0.00000E+00        -0.22625E+08
 
   -0.22623E+08         0.20437E+05         0.00000E+00
    0.20437E+05        -0.60009E+08         0.00000E+00
    0.00000E+00         0.00000E+00        -0.22625E+08
 
   -0.22624E+08         0.27477E+05         0.00000E+00
    0.27477E+05        -0.60009E+08         0.00000E+00
    0.00000E+00         0.00000E+00        -0.22625E+08
 
   -0.22625E+08         0.35154E+05         0.00000E+00
    0.35154E+05        -0.60009E+08         0.00000E+00
    0.00000E+00         0.00000E+00        -0.22625E+08
 
   -0.22631E+08        -0.23522E+04         0.00000E+00
   -0.23522E+04        -0.60000E+08         0.00000E+00
    0.00000E+00         0.00000E+00        -0.22618E+08
 
   -0.22631E+08        -0.61149E+04         0.00000E+00
   -0.61149E+04        -0.60001E+08         0.00000E+00
    0.00000E+00         0.00000E+00        -0.22618E+08
 
   -0.22631E+08        -0.86440E+04         0.00000E+00
   -0.86440E+04        -0.60001E+08         0.00000E+00
    0.00000E+00         0.00000E+00        -0.22618E+08
 
   -0.22630E+08        -0.99957E+04         0.00000E+00
   -0.99957E+04        -0.60002E+08         0.00000E+00
    0.00000E+00         0.00000E+00        -0.22618E+08
 
   -0.22629E+08        -0.10240E+05         0.00000E+00
   -0.10240E+05        -0.60003E+08         0.00000E+00
    0.00000E+00         0.00000E+00        -0.22618E+08
 
   -0.22627E+08        -0.94530E+04         0.00000E+00
   -0.94530E+04        -0.60004E+08         0.00000E+00
    0.00000E+00         0.00000E+00        -0.22618E+08
 
   -0.22625E+08        -0.77062E+04         0.00000E+00
   -0.77062E+04        -0.60005E+08         0.00000E+00
    0.00000E+00         0.00000E+00        -0.22618E+08
 
   -0.22623E+08        -0.50634E+04         0.00000E+00
   -0.50634E+04        -0.60006E+08         0.00000E+00
    0.00000E+00         0.00000E+00        -0.22618E+08
 
   -0.22622E+08        -0.15751E+04         0.00000E+00
   -0.15751E+04        -0.60007E+08         0.00000E+00
    0.00000E+00         0.00000E+00        -0.22617E+08
 
   -0.22620E+08         0.27211E+04         0.00000E+00
    0.27211E+04        -0.60008E+08         0.00000E+00
    0.00000E+00         0.00000E+00        -0.22617E+08
 
   -0.22618E+08         0.77991E+04         0.00000E+00
    0.77991E+04        -0.60009E+08         0.00000E+00
    0.00000E+00         0.00000E+00        -0.22617E+08
 
   -0.22617E+08         0.13640E+05         0.00000E+00
    0.13640E+05        -0.60009E+08         0.00000E+00
    0.00000E+00         0.00000E+00        -0.22617E+08
 
   -0.22617E+08         0.20227E+05         0.00000E+00
    0.20227E+05        -0.60010E+08         0.00000E+00
    0.00000E+00         0.00000E+00        -0.22617E+08
 
   -0.22616E+08         0.27536E+05         0.00000E+00
    0.27536E+05        -0.60010E+08         0.00000E+00
    0.00000E+00         0.00000E+00        -0.22617E+08
 
   -0.22617E+08         0.35532E+05         0.00000E+00
    0.35532E+05        -0.60010E+08         0.00000E+00
    0.00000E+00         0.00000E+00        -0.22617E+08
 
   -0.22635E+08        -0.25906E+04         0.00000E+00
   -0.25906E+04        -0.60000E+08         0.00000E+00
    0.00000E+00         0.00000E+00        -0.22611E+08
 
   -0.22635E+08        -0.67199E+04         0.00000E+00
   -0.67199E+04        -0.60001E+08         0.00000E+00
    0.00000E+00         0.00000E+00        -0.22611E+08
 
   -0.22633E+08        -0.94865E+04         0.00000E+00
   -0.94865E+04        -0.60001E+08         0.00000E+00
    0.00000E+00         0.00000E+00        -0.22611E+08
 
   -0.22631E+08        -0.10972E+05         0.00000E+00
   -0.10972E+05        -0.60002E+08         0.00000E+00
    0.00000E+00         0.00000E+00        -0.22611E+08
 
   -0.22628E+08        -0.11274E+05         0.00000E+00
   -0.11274E+05        -0.60003E+08         0.00000E+00
    0.00000E+00         0.00000E+00        -0.22611E+08
 
   -0.22626E+08        -0.10492E+05         0.00000E+00
   -0.10492E+05        -0.60004E+08         0.00000E+00
    0.00000E+00         0.00000E+00        -0.22610E+08
 
   -0.22623E+08        -0.87173E+04         0.00000E+00
   -0.87173E+04        -0.60005E+08         0.00000E+00
    0.00000E+00         0.00000E+00        -0.22610E+08
 
   -0.22620E+08        -0.60261E+04         0.00000E+00
   -0.60261E+04        -0.60006E+08         0.00000E+00
    0.00000E+00         0.00000E+00        -0.22610E+08
 
   -0.22618E+08        -0.24748E+04         0.00000E+00
   -0.24748E+04        -0.60007E+08         0.00000E+00
    0.00000E+00         0.00000E+00        -0.22609E+08
 
   -0.22615E+08         0.18998E+04         0.00000E+00
    0.18998E+04        -0.60008E+08         0.00000E+00
    0.00000E+00         0.00000E+00        -0.22609E+08
 
   -0.22613E+08         0.70782E+04         0.00000E+00
    0.70782E+04        -0.60009E+08         0.00000E+00
    0.00000E+00         0.00000E+00        -0.22609E+08
 
   -0.22611E+08         0.13052E+05         0.00000E+00
    0.13052E+05        -0.60009E+08         0.00000E+00
    0.00000E+00         0.00000E+00        -0.22608E+08
 
   -0.22610E+08         0.19816E+05         0.00000E+00
    0.19816E+05        -0.60010E+08         0.00000E+00
    0.00000E+00         0.00000E+00        -0.22608E+08
 
   -0.22609E+08         0.27358E+05         0.00000E+00
    0.27358E+05        -0.60010E+08         0.00000E+00
    0.00000E+00         0.00000E+00        -0.22608E+08
 
   -0.22608E+08         0.35648E+05         0.00000E+00
    0.35648E+05        -0.60011E+08         0.00000E+00
    0.00000E+00         0.00000E+00        -0.22608E+08
 
   -0.22640E+08        -0.28321E+04         0.00000E+00
   -0.28321E+04        -0.60000E+08         0.00000E+00
    0.00000E+00         0.00000E+00        -0.22605E+08
 
   -0.22638E+08        -0.73207E+04         0.00000E+00
   -0.73207E+04        -0.60001E+08         0.00000E+00
    0.00000E+00         0.00000E+00        -0.22604E+08
 
   -0.22635E+08        -0.10305E+05         0.00000E+00
   -0.10305E+05        -0.60001E+08         0.00000E+00
    0.00000E+00         0.00000E+00        -0.22604E+08
 
   -0.22632E+08        -0.11901E+05         0.00000E+00
   -0.11901E+05        -0.60002E+08         0.00000E+00
    0.00000E+00         0.00000E+00        -0.22603E+08
 
   -0.22628E+08        -0.12239E+05         0.00000E+00
   -0.12239E+05        -0.60003E+08         0.00000E+00
    0.00000E+00         0.00000E+00        -0.22603E+08
 
   -0.22624E+08        -0.11452E+05         0.00000E+00
   -0.11452E+05        -0.60004E+08         0.00000E+00
    0.00000E+00         0.00000E+00        -0.22602E+08
 
   -0.22621E+08        -0.96534E+04         0.00000E+00
   -0.96534E+04        -0.60005E+08         0.00000E+00
    0.00000E+00         0.00000E+00        -0.22602E+08
 
   -0.22617E+08        -0.69344E+04         0.00000E+00
   -0.69344E+04        -0.60006E+08         0.00000E+00
    0.00000E+00         0.00000E+00        -0.22601E+08
 
   -0.22614E+08        -0.33568E+04         0.00000E+00
   -0.33568E+04        -0.60006E+08         0.00000E+00
    0.00000E+00         0.00000E+00        -0.22601E+08
 
   -0.22610E+08         0.10464E+04         0.00000E+00
    0.10464E+04        -0.60007E+08         0.00000E+00
    0.00000E+00         0.00000E+00        -0.22600E+08
 
   -0.22607E+08         0.62665E+04         0.00000E+00
    0.62665E+04        -0.60008E+08         0.00000E+00
    0.00000E+00         0.00000E+00        -0.22600E+08
 
   -0.22605E+08         0.12311E+05         0.00000E+00
    0.12311E+05        -0.60009E+08         0.00000E+00
    0.00000E+00         0.00000E+00        -0.22600E+08
 
   -0.22602E+08         0.19194E+05         0.00000E+00
    0.19194E+05        -0.60010E+08         0.00000E+00
    0.00000E+00         0.00000E+00        -0.22599E+08
 
   -0.22601E+08         0.26921E+05         0.00000E+00
    0.26921E+05        -0.60010E+08         0.00000E+00
    0.00000E+00         0.00000E+00        -0.22599E+08
 
   -0.22599E+08         0.35477E+05         0.00000E+00
    0.35477E+05        -0.60011E+08         0.00000E+00
    0.00000E+00         0.00000E+00        -0.22599E+08
 
   -0.22646E+08        -0.30718E+04         0.00000E+00
   -0.30718E+04        -0.60000E+08         0.00000E+00
    0.00000E+00         0.00000E+00        -0.22598E+08
 
   -0.22642E+08        -0.78994E+04         0.00000E+00
   -0.78994E+04        -0.60001E+08         0.00000E+00
    0.00000E+00         0.00000E+00        -0.22597E+08
 
   -0.22638E+08        -0.11066E+05         0.00000E+00
   -0.11066E+05        -0.60001E+08         0.00000E+00
    0.00000E+00         0.00000E+00        -0.22597E+08
 
   -0.22633E+08        -0.12732E+05         0.00000E+00
   -0.12732E+05        -0.60002E+08         0.00000E+00
    0.00000E+00         0.00000E+00        -0.22596E+08
 
   -0.22628E+08        -0.13075E+05         0.00000E+00
   -0.13075E+05        -0.60003E+08         0.00000E+00
    0.00000E+00         0.00000E+00        -0.22595E+08
 
   -0.22623E+08        -0.12266E+05         0.00000E+00
   -0.12266E+05        -0.60003E+08         0.00000E+00
    0.00000E+00         0.00000E+00        -0.22594E+08
 
   -0.22618E+08        -0.10448E+05         0.00000E+00
   -0.10448E+05        -0.60004E+08         0.00000E+00
    0.00000E+00         0.00000E+00        -0.22594E+08
 
   -0.22614E+08        -0.77276E+04         0.00000E+00
   -0.77276E+04        -0.60005E+08         0.00000E+00
    0.00000E+00         0.00000E+00        -0.22593E+08
 
   -0.22610E+08        -0.41699E+04         0.00000E+00
   -0.41699E+04        -0.60006E+08         0.00000E+00
    0.00000E+00         0.00000E+00        -0.22592E+08
 
   -0.22606E+08         0.19854E+03         0.00000E+00
    0.19854E+03        -0.60006E+08         0.00000E+00
    0.00000E+00         0.00000E+00        -0.22592E+08
 
   -0.22602E+08         0.53848E+04         0.00000E+00
    0.53848E+04        -0.60007E+08         0.00000E+00
    0.00000E+00         0.00000E+00        -0.22591E+08
 
   -0.22598E+08         0.11420E+05         0.00000E+00
    0.11420E+05        -0.60008E+08         0.00000E+00
    0.00000E+00         0.00000E+00        -0.22591E+08
 
   -0.22595E+08         0.18347E+05         0.00000E+00
    0.18347E+05        -0.60009E+08         0.00000E+00
    0.00000E+00         0.00000E+00        -0.22590E+08
 
   -0.22592E+08         0.26199E+05         0.00000E+00
    0.26199E+05        -0.60010E+08         0.00000E+00
    0.00000E+00         0.00000E+00        -0.22590E+08
 
   -0.22590E+08         0.34981E+05         0.00000E+00
    0.34981E+05        -0.60011E+08         0.00000E+00
    0.00000E+00         0.00000E+00        -0.22590E+08
 
   -0.22652E+08        -0.33039E+04         0.00000E+00
   -0.33039E+04        -0.60000E+08         0.00000E+00
    0.00000E+00         0.00000E+00        -0.22591E+08
 
   -0.22646E+08        -0.84328E+04         0.00000E+00
   -0.84328E+04        -0.60000E+08         0.00000E+00
    0.00000E+00         0.00000E+00        -0.22590E+08
 
   -0.22640E+08        -0.11725E+05         0.00000E+00
   -0.11725E+05        -0.60001E+08         0.00000E+00
    0.00000E+00         0.00000E+00        -0.22589E+08
 
   -0.22634E+08        -0.13402E+05         0.00000E+00
   -0.13402E+05        -0.60002E+08         0.00000E+00
    0.00000E+00         0.00000E+00        -0.22588E+08
 
   -0.22628E+08        -0.13705E+05         0.00000E+00
   -0.13705E+05        -0.60002E+08         0.00000E+00
    0.00000E+00         0.00000E+00        -0.22587E+08
 
   -0.22622E+08        -0.12852E+05         0.00000E+00
   -0.12852E+05        -0.60003E+08         0.00000E+00
    0.00000E+00         0.00000E+00        -0.22586E+08
 
   -0.22616E+08        -0.11021E+05         0.00000E+00
   -0.11021E+05        -0.60003E+08         0.00000E+00
    0.00000E+00         0.00000E+00        -0.22585E+08
 
   -0.22611E+08        -0.83318E+04         0.00000E+00
   -0.83318E+04        -0.60003E+08         0.00000E+00
    0.00000E+00         0.00000E+00        -0.22584E+08
 
   -0.22606E+08        -0.48527E+04         0.00000E+00
   -0.48527E+04        -0.60004E+08         0.00000E+00
    0.00000E+00         0.00000E+00        -0.22583E+08
 
   -0.22601E+08        -0.59887E+03         0.00000E+00
   -0.59887E+03        -0.60005E+08         0.00000E+00
    0.00000E+00         0.00000E+00        -0.22582E+08
 
   -0.22596E+08         0.44584E+04         0.00000E+00
    0.44584E+04        -0.60006E+08         0.00000E+00
    0.00000E+00         0.00000E+00        -0.22582E+08
 
   -0.22592E+08         0.10382E+05         0.00000E+00
    0.10382E+05        -0.60007E+08         0.00000E+00
    0.00000E+00         0.00000E+00        -0.22581E+08
 
   -0.22588E+08         0.17254E+05         0.00000E+00
    0.17254E+05        -0.60008E+08         0.00000E+00
    0.00000E+00         0.00000E+00        -0.22581E+08
 
   -0.22584E+08         0.25150E+05         0.00000E+00
    0.25150E+05        -0.60009E+08         0.00000E+00
    0.00000E+00         0.00000E+00        -0.22580E+08
 
   -0.22581E+08         0.34112E+05         0.00000E+00
    0.34112E+05        -0.60010E+08         0.00000E+00
    0.00000E+00         0.00000E+00        -0.22580E+08
 
   -0.22658E+08        -0.35214E+04         0.00000E+00
   -0.35214E+04        -0.60000E+08         0.00000E+00
    0.00000E+00         0.00000E+00        -0.22584E+08
 
   -0.22650E+08        -0.88902E+04         0.00000E+00
   -0.88902E+04        -0.60000E+08         0.00000E+00
    0.00000E+00         0.00000E+00        -0.22583E+08
 
   -0.22642E+08        -0.12221E+05         0.00000E+00
   -0.12221E+05        -0.60001E+08         0.00000E+00
    0.00000E+00         0.00000E+00        -0.22581E+08
 
   -0.22635E+08        -0.13826E+05         0.00000E+00
   -0.13826E+05        -0.60001E+08         0.00000E+00
    0.00000E+00         0.00000E+00        -0.22580E+08
 
   -0.22627E+08        -0.14029E+05         0.00000E+00
   -0.14029E+05        -0.60001E+08         0.00000E+00
    0.00000E+00         0.00000E+00        -0.22579E+08
 
   -0.22620E+08        -0.13108E+05         0.00000E+00
   -0.13108E+05        -0.60001E+08         0.00000E+00
    0.00000E+00         0.00000E+00        -0.22577E+08
 
   -0.22614E+08        -0.11275E+05         0.00000E+00
   -0.11275E+05        -0.60001E+08         0.00000E+00
    0.00000E+00         0.00000E+00        -0.22576E+08
 
   -0.22608E+08        -0.86624E+04         0.00000E+00
   -0.86624E+04        -0.60002E+08         0.00000E+00
    0.00000E+00         0.00000E+00        -0.22575E+08
 
   -0.22602E+08        -0.53349E+04         0.00000E+00
   -0.53349E+04        -0.60002E+08         0.00000E+00
    0.00000E+00         0.00000E+00        -0.22574E+08
 
   -0.22596E+08        -0.12934E+04         0.00000E+00
   -0.12934E+04        -0.60002E+08         0.00000E+00
    0.00000E+00         0.00000E+00        -0.22573E+08
 
   -0.22591E+08         0.35170E+04         0.00000E+00
    0.35170E+04        -0.60003E+08         0.00000E+00
    0.00000E+00         0.00000E+00        -0.22572E+08
 
   -0.22585E+08         0.91988E+04         0.00000E+00
    0.91988E+04        -0.60004E+08         0.00000E+00
    0.00000E+00         0.00000E+00        -0.22571E+08
 
   -0.22580E+08         0.15887E+05         0.00000E+00
    0.15887E+05        -0.60006E+08         0.00000E+00
    0.00000E+00         0.00000E+00        -0.22571E+08
 
   -0.22575E+08         0.23720E+05         0.00000E+00
    0.23720E+05        -0.60007E+08         0.00000E+00
    0.00000E+00         0.00000E+00        -0.22570E+08
 
   -0.22571E+08         0.32799E+05         0.00000E+00
    0.32799E+05        -0.60009E+08         0.00000E+00
    0.00000E+00         0.00000E+00        -0.22570E+08
 
   -0.22665E+08        -0.37155E+04         0.00000E+00
   -0.37155E+04        -0.60000E+08         0.00000E+00
    0.00000E+00         0.00000E+00        -0.22578E+08
 
   -0.22655E+08        -0.92283E+04         0.00000E+00
   -0.92283E+04        -0.60000E+08         0.00000E+00
    0.00000E+00         0.00000E+00        -0.22576E+08
 
   -0.22645E+08        -0.12471E+05         0.00000E+00
   -0.12471E+05        -0.60000E+08         0.00000E+00
    0.00000E+00         0.00000E+00        -0.22574E+08
 
   -0.22635E+08        -0.13891E+05         0.00000E+00
   -0.13891E+05        -0.60000E+08         0.00000E+00
    0.00000E+00         0.00000E+00        -0.22572E+08
 
   -0.22627E+08        -0.13923E+05         0.00000E+00
   -0.13923E+05        -0.60000E+08         0.00000E+00
    0.00000E+00         0.00000E+00        -0.22570E+08
 
   -0.22619E+08        -0.12915E+05         0.00000E+00
   -0.12915E+05        -0.60000E+08         0.00000E+00
    0.00000E+00         0.00000E+00        -0.22569E+08
 
   -0.22612E+08        -0.11105E+05         0.00000E+00
   -0.11105E+05        -0.59999E+08         0.00000E+00
    0.00000E+00         0.00000E+00        -0.22567E+08
 
   -0.22605E+08        -0.86286E+04         0.00000E+00
   -0.86286E+04        -0.59999E+08         0.00000E+00
    0.00000E+00         0.00000E+00        -0.22566E+08
 
   -0.22598E+08        -0.55412E+04         0.00000E+00
   -0.55412E+04        -0.59999E+08         0.00000E+00
    0.00000E+00         0.00000E+00        -0.22565E+08
 
   -0.22592E+08        -0.18266E+04         0.00000E+00
   -0.18266E+04        -0.59999E+08         0.00000E+00
    0.00000E+00         0.00000E+00        -0.22564E+08
 
   -0.22586E+08         0.25969E+04         0.00000E+00
    0.25969E+04        -0.60000E+08         0.00000E+00
    0.00000E+00         0.00000E+00        -0.22562E+08
 
   -0.22579E+08         0.78756E+04         0.00000E+00
    0.78756E+04        -0.60001E+08         0.00000E+00
    0.00000E+00         0.00000E+00        -0.22562E+08
 
   -0.22573E+08         0.14213E+05         0.00000E+00
    0.14213E+05        -0.60002E+08         0.00000E+00
    0.00000E+00         0.00000E+00        -0.22561E+08
 
   -0.22567E+08         0.21838E+05         0.00000E+00
    0.21838E+05        -0.60004E+08         0.00000E+00
    0.00000E+00         0.00000E+00        -0.22560E+08
 
   -0.22561E+08         0.30943E+05         0.00000E+00
    0.30943E+05        -0.60007E+08         0.00000E+00
    0.00000E+00         0.00000E+00        -0.22559E+08
 
   -0.22672E+08        -0.38743E+04         0.00000E+00
   -0.38743E+04        -0.60000E+08         0.00000E+00
    0.00000E+00         0.00000E+00        -0.22571E+08
 
   -0.22659E+08        -0.93801E+04         0.00000E+00
   -0.93801E+04        -0.60000E+08         0.00000E+00
    0.00000E+00         0.00000E+00        -0.22568E+08
 
   -0.22647E+08        -0.12348E+05         0.00000E+00
   -0.12348E+05        -0.60000E+08         0.00000E+00
    0.00000E+00         0.00000E+00        -0.22566E+08
 
   -0.22636E+08        -0.13439E+05         0.00000E+00
   -0.13439E+05        -0.59999E+08         0.00000E+00
    0.00000E+00         0.00000E+00        -0.22564E+08
 
   -0.22626E+08        -0.13235E+05         0.00000E+00
   -0.13235E+05        -0.59998E+08         0.00000E+00
    0.00000E+00         0.00000E+00        -0.22562E+08
 
   -0.22618E+08        -0.12143E+05         0.00000E+00
   -0.12143E+05        -0.59997E+08         0.00000E+00
    0.00000E+00         0.00000E+00        -0.22560E+08
 
   -0.22610E+08        -0.10405E+05         0.00000E+00
   -0.10405E+05        -0.59996E+08         0.00000E+00
    0.00000E+00         0.00000E+00        -0.22558E+08
 
   -0.22602E+08        -0.81447E+04         0.00000E+00
   -0.81447E+04        -0.59995E+08         0.00000E+00
    0.00000E+00         0.00000E+00        -0.22556E+08
 
   -0.22595E+08        -0.53994E+04         0.00000E+00
   -0.53994E+04        -0.59995E+08         0.00000E+00
    0.00000E+00         0.00000E+00        -0.22555E+08
 
   -0.22588E+08        -0.21376E+04         0.00000E+00
   -0.21376E+04        -0.59995E+08         0.00000E+00
    0.00000E+00         0.00000E+00        -0.22554E+08
 
   -0.22581E+08         0.17427E+04         0.00000E+00
    0.17427E+04        -0.59995E+08         0.00000E+00
    0.00000E+00         0.00000E+00        -0.22553E+08
 
   -0.22574E+08         0.64265E+04         0.00000E+00
    0.64265E+04        -0.59996E+08         0.00000E+00
    0.00000E+00         0.00000E+00        -0.22551E+08
 
   -0.22566E+08         0.12194E+05         0.00000E+00
    0.12194E+05        -0.59998E+08         0.00000E+00
    0.00000E+00         0.00000E+00        -0.22550E+08
 
   -0.22559E+08         0.19405E+05         0.00000E+00
    0.19405E+05        -0.60001E+08         0.00000E+00
    0.00000E+00         0.00000E+00        -0.22549E+08
 
   -0.22552E+08         0.28407E+05         0.00000E+00
    0.28407E+05        -0.60004E+08         0.00000E+00
    0.00000E+00         0.00000E+00        -0.22548E+08
 
   -0.22679E+08        -0.39784E+04         0.00000E+00
   -0.39784E+04        -0.60000E+08         0.00000E+00
    0.00000E+00         0.00000E+00        -0.22564E+08
 
   -0.22663E+08        -0.92273E+04         0.00000E+00
   -0.92273E+04        -0.60000E+08         0.00000E+00
    0.00000E+00         0.00000E+00        -0.22561E+08
 
   -0.22649E+08        -0.11651E+05         0.00000E+00
   -0.11651E+05        -0.59999E+08         0.00000E+00
    0.00000E+00         0.00000E+00        -0.22558E+08
 
   -0.22636E+08        -0.12261E+05         0.00000E+00
   -0.12261E+05        -0.59998E+08         0.00000E+00
    0.00000E+00         0.00000E+00        -0.22555E+08
 
   -0.22625E+08        -0.11796E+05         0.00000E+00
   -0.11796E+05        -0.59996E+08         0.00000E+00
    0.00000E+00         0.00000E+00        -0.22553E+08
 
   -0.22616E+08        -0.10671E+05         0.00000E+00
   -0.10671E+05        -0.59994E+08         0.00000E+00
    0.00000E+00         0.00000E+00        -0.22551E+08
 
   -0.22608E+08        -0.90919E+04         0.00000E+00
   -0.90919E+04        -0.59992E+08         0.00000E+00
    0.00000E+00         0.00000E+00        -0.22549E+08
 
   -0.22600E+08        -0.71476E+04         0.00000E+00
   -0.71476E+04        -0.59991E+08         0.00000E+00
    0.00000E+00         0.00000E+00        -0.22547E+08
 
   -0.22592E+08        -0.48546E+04         0.00000E+00
   -0.48546E+04        -0.59990E+08         0.00000E+00
    0.00000E+00         0.00000E+00        -0.22545E+08
 
   -0.22585E+08        -0.21708E+04         0.00000E+00
   -0.21708E+04        -0.59989E+08         0.00000E+00
    0.00000E+00         0.00000E+00        -0.22544E+08
 
   -0.22577E+08         0.10104E+04         0.00000E+00
    0.10104E+04        -0.59990E+08         0.00000E+00
    0.00000E+00         0.00000E+00        -0.22542E+08
 
   -0.22569E+08         0.48876E+04         0.00000E+00
    0.48876E+04        -0.59991E+08         0.00000E+00
    0.00000E+00         0.00000E+00        -0.22541E+08
 
   -0.22560E+08         0.98079E+04         0.00000E+00
    0.98079E+04        -0.59993E+08         0.00000E+00
    0.00000E+00         0.00000E+00        -0.22540E+08
 
   -0.22551E+08         0.16301E+05         0.00000E+00
    0.16301E+05        -0.59996E+08         0.00000E+00
    0.00000E+00         0.00000E+00        -0.22539E+08
 
   -0.22542E+08         0.24989E+05         0.00000E+00
    0.24989E+05        -0.60000E+08         0.00000E+00
    0.00000E+00         0.00000E+00        -0.22537E+08
 
   -0.22686E+08        -0.39839E+04         0.00000E+00
   -0.39839E+04        -0.60000E+08         0.00000E+00
    0.00000E+00         0.00000E+00        -0.22557E+08
 
   -0.22666E+08        -0.85272E+04         0.00000E+00
   -0.85272E+04        -0.59999E+08         0.00000E+00
    0.00000E+00         0.00000E+00        -0.22553E+08
 
   -0.22650E+08        -0.10050E+05         0.00000E+00
   -0.10050E+05        -0.59998E+08         0.00000E+00
    0.00000E+00         0.00000E+00        -0.22550E+08
 
   -0.22636E+08        -0.10101E+05         0.00000E+00
   -0.10101E+05        -0.59995E+08         0.00000E+00
    0.00000E+00         0.00000E+00        -0.22546E+08
 
   -0.22625E+08        -0.94582E+04         0.00000E+00
   -0.94582E+04        -0.59992E+08         0.00000E+00
    0.00000E+00         0.00000E+00        -0.22544E+08
 
   -0.22615E+08        -0.84270E+04         0.00000E+00
   -0.84270E+04        -0.59990E+08         0.00000E+00
    0.00000E+00         0.00000E+00        -0.22541E+08
 
   -0.22606E+08        -0.71330E+04         0.00000E+00
   -0.71330E+04        -0.59987E+08         0.00000E+00
    0.00000E+00         0.00000E+00        -0.22539E+08
 
   -0.22598E+08        -0.56207E+04         0.00000E+00
   -0.56207E+04        -0.59985E+08         0.00000E+00
    0.00000E+00         0.00000E+00        -0.22537E+08
 
   -0.22590E+08        -0.38872E+04         0.00000E+00
   -0.38872E+04        -0.59984E+08         0.00000E+00
    0.00000E+00         0.00000E+00        -0.22535E+08
 
   -0.22582E+08        -0.18905E+04         0.00000E+00
   -0.18905E+04        -0.59983E+08         0.00000E+00
    0.00000E+00         0.00000E+00        -0.22534E+08
 
   -0.22574E+08         0.46070E+03         0.00000E+00
    0.46070E+03        -0.59983E+08         0.00000E+00
    0.00000E+00         0.00000E+00        -0.22532E+08
 
   -0.22565E+08         0.33391E+04         0.00000E+00
    0.33391E+04        -0.59984E+08         0.00000E+00
    0.00000E+00         0.00000E+00        -0.22531E+08
 
   -0.22555E+08         0.70808E+04         0.00000E+00
    0.70808E+04        -0.59986E+08         0.00000E+00
    0.00000E+00         0.00000E+00        -0.22529E+08
 
   -0.22544E+08         0.12394E+05         0.00000E+00
    0.12394E+05        -0.59990E+08         0.00000E+00
    0.00000E+00         0.00000E+00        -0.22528E+08
 
   -0.22532E+08         0.20386E+05         0.00000E+00
    0.20386E+05        -0.59995E+08         0.00000E+00
    0.00000E+00         0.00000E+00        -0.22526E+08
 
   -0.22692E+08        -0.37398E+04         0.00000E+00
   -0.37398E+04        -0.60000E+08         0.00000E+00
    0.00000E+00         0.00000E+00        -0.22550E+08
 
   -0.22668E+08        -0.67004E+04         0.00000E+00
   -0.67004E+04        -0.59998E+08         0.00000E+00
    0.00000E+00         0.00000E+00        -0.22545E+08
 
   -0.22650E+08        -0.70852E+04         0.00000E+00
   -0.70852E+04        -0.59995E+08         0.00000E+00
    0.00000E+00         0.00000E+00        -0.22541E+08
 
   -0.22636E+08        -0.67776E+04         0.00000E+00
   -0.67776E+04        -0.59991E+08         0.00000E+00
    0.00000E+00         0.00000E+00        -0.22537E+08
 
   -0.22624E+08        -0.61886E+04         0.00000E+00
   -0.61886E+04        -0.59987E+08         0.00000E+00
    0.00000E+00         0.00000E+00        -0.22534E+08
 
   -0.22614E+08        -0.54418E+04         0.00000E+00
   -0.54418E+04        -0.59984E+08         0.00000E+00
    0.00000E+00         0.00000E+00        -0.22532E+08
 
   -0.22605E+08        -0.45805E+04         0.00000E+00
   -0.45805E+04        -0.59981E+08         0.00000E+00
    0.00000E+00         0.00000E+00        -0.22529E+08
 
   -0.22597E+08        -0.36143E+04         0.00000E+00
   -0.36143E+04        -0.59978E+08         0.00000E+00
    0.00000E+00         0.00000E+00        -0.22527E+08
 
   -0.22589E+08        -0.25319E+04         0.00000E+00
   -0.25319E+04        -0.59976E+08         0.00000E+00
    0.00000E+00         0.00000E+00        -0.22525E+08
 
   -0.22581E+08        -0.13023E+04         0.00000E+00
   -0.13023E+04        -0.59975E+08         0.00000E+00
    0.00000E+00         0.00000E+00        -0.22524E+08
 
   -0.22572E+08         0.13390E+03         0.00000E+00
    0.13390E+03        -0.59975E+08         0.00000E+00
    0.00000E+00         0.00000E+00        -0.22522E+08
 
   -0.22563E+08         0.18889E+04         0.00000E+00
    0.18889E+04        -0.59976E+08         0.00000E+00
    0.00000E+00         0.00000E+00        -0.22520E+08
 
   -0.22552E+08         0.41929E+04         0.00000E+00
    0.41929E+04        -0.59978E+08         0.00000E+00
    0.00000E+00         0.00000E+00        -0.22518E+08
 
   -0.22538E+08         0.76238E+04         0.00000E+00
    0.76238E+04        -0.59982E+08         0.00000E+00
    0.00000E+00         0.00000E+00        -0.22517E+08
 
   -0.22522E+08         0.14082E+05         0.00000E+00
    0.14082E+05        -0.59988E+08         0.00000E+00
    0.00000E+00         0.00000E+00        -0.22515E+08
 
   -0.22696E+08        -0.22762E+04         0.00000E+00
   -0.22762E+04        -0.59998E+08         0.00000E+00
    0.00000E+00         0.00000E+00        -0.22543E+08
 
   -0.22669E+08        -0.27302E+04         0.00000E+00
   -0.27302E+04        -0.59994E+08         0.00000E+00
    0.00000E+00         0.00000E+00        -0.22536E+08
 
   -0.22650E+08        -0.26040E+04         0.00000E+00
   -0.26040E+04        -0.59989E+08         0.00000E+00
    0.00000E+00         0.00000E+00        -0.22532E+08
 
   -0.22635E+08        -0.24106E+04         0.00000E+00
   -0.24106E+04        -0.59984E+08         0.00000E+00
    0.00000E+00         0.00000E+00        -0.22528E+08
 
   -0.22623E+08        -0.21675E+04         0.00000E+00
   -0.21675E+04        -0.59980E+08         0.00000E+00
    0.00000E+00         0.00000E+00        -0.22525E+08
 
   -0.22613E+08        -0.18919E+04         0.00000E+00
   -0.18919E+04        -0.59976E+08         0.00000E+00
    0.00000E+00         0.00000E+00        -0.22522E+08
 
   -0.22604E+08        -0.15879E+04         0.00000E+00
   -0.15879E+04        -0.59972E+08         0.00000E+00
    0.00000E+00         0.00000E+00        -0.22519E+08
 
   -0.22596E+08        -0.12545E+04         0.00000E+00
   -0.12545E+04        -0.59969E+08         0.00000E+00
    0.00000E+00         0.00000E+00        -0.22517E+08
 
   -0.22588E+08        -0.88587E+03         0.00000E+00
   -0.88587E+03        -0.59967E+08         0.00000E+00
    0.00000E+00         0.00000E+00        -0.22515E+08
 
   -0.22580E+08        -0.47057E+03         0.00000E+00
   -0.47057E+03        -0.59966E+08         0.00000E+00
    0.00000E+00         0.00000E+00        -0.22513E+08
 
   -0.22571E+08         0.11742E+02         0.00000E+00
    0.11742E+02        -0.59966E+08         0.00000E+00
    0.00000E+00         0.00000E+00        -0.22511E+08
 
   -0.22561E+08         0.59843E+03         0.00000E+00
    0.59843E+03        -0.59966E+08         0.00000E+00
    0.00000E+00         0.00000E+00        -0.22510E+08
 
   -0.22550E+08         0.13704E+04         0.00000E+00
    0.13704E+04        -0.59968E+08         0.00000E+00
    0.00000E+00         0.00000E+00        -0.22508E+08
 
   -0.22535E+08         0.25102E+04         0.00000E+00
    0.25102E+04        -0.59972E+08         0.00000E+00
    0.00000E+00         0.00000E+00        -0.22506E+08
 
   -0.22514E+08         0.52098E+04         0.00000E+00
    0.52098E+04        -0.59979E+08         0.00000E+00
    0.00000E+00         0.00000E+00        -0.22503E+08
 
SCALARS stressS double 
LOOKUP_TABLE default
  -35095529.3983262     
  -35099409.8913914     
  -35102994.8054359     
  -35106306.7514151     
  -35109367.8515432     
  -35112199.6333366     
  -35114822.9392783     
  -35117257.8526132     
  -35119523.6395212     
  -35121638.7077712     
  -35123620.5819116     
  -35125485.8950877     
  -35127250.3976866     
  -35128928.9831550     
  -35130535.7315027     
  -35095414.3217038     
  -35099280.0569711     
  -35102850.1104390     
  -35106147.2284299     
  -35109193.6561115     
  -35112011.0301202     
  -35114620.2872117     
  -35117041.5893353     
  -35119294.2652745     
  -35121396.7688620     
  -35123366.6537408     
  -35125220.5646998     
  -35126974.2457426     
  -35128642.5652210     
  -35130239.5585609     
  -35095185.6824719     
  -35099021.7426359     
  -35102561.9231399     
  -35105829.2435332     
  -35108846.1968445     
  -35111634.6394713     
  -35114215.6979045     
  -35116609.6924618     
  -35118836.0779553     
  -35120913.4011068     
  -35122859.2745106     
  -35124690.3670446     
  -35126422.4107982     
  -35128070.2248181     
  -35129647.7562300     
  -35094846.5072243     
  -35098637.6522601     
  -35102132.6407372     
  -35105354.9081875     
  -35108327.3242221     
  -35111072.0785835     
  -35113610.5852464     
  -35115963.4043927     
  -35118150.1818552     
  -35120189.6055334     
  -35122099.3783189     
  -35123896.2072187     
  -35125595.8086040     
  -35127212.9298309     
  -35128761.3878278     
  -35094401.3315388     
  -35098131.8281483     
  -35101565.8379660     
  -35104727.3623762     
  -35107639.7817721     
  -35110325.7369930     
  -35112807.0304326     
  -35115104.5461567     
  -35117238.1881647     
  -35119226.8358669     
  -35121088.3159364     
  -35122839.3899157     
  -35124495.7572975     
  -35126072.0742329     
  -35127581.9885048     
  -35093856.1927344     
  -35097509.6329537     
  -35100866.2401746     
  -35103950.7405521     
  -35106787.1662988     
  -35109398.7321885     
  -35111807.7337535     
  -35114035.4658923     
  -35116102.1604086     
  -35118026.9409818     
  -35119827.7942089     
  -35121521.5556705     
  -35123123.9104382     
  -35124649.4080286     
  -35126111.4924769     
  -35093218.6167078     
  -35096777.7224011     
  -35100039.6846528     
  -35103030.1238843     
  -35105773.8729473     
  -35108294.8489596     
  -35110615.9492691     
  -35112758.9694838     
  -35114744.5413137     
  -35116592.0879760     
  -35118319.7951139     
  -35119944.5955982     
  -35121482.1671953     
  -35122946.9428753     
  -35124352.1344457     
  -35092497.5957341     
  -35095944.0060246     
  -35099093.0677755     
  -35101971.4767573     
  -35104605.0234594     
  -35107018.4612506     
  -35109235.4015317     
  -35111278.2328730     
  -35113168.0609225     
  -35114924.6658764     
  -35116566.4745513     
  -35118110.5446299     
  -35119572.5594499     
  -35120966.8327518     
  -35122306.3240266     
  -35091703.5532186     
  -35095017.5923383     
  -35098034.2748536     
  -35100781.5649136     
  -35103286.3755452     
  -35105574.4349922     
  -35107670.1833763     
  -35109596.6955714     
  -35111375.6258999     
  -35113027.1702199     
  -35114570.0412401     
  -35116021.4535430     
  -35117397.1158148     
  -35118711.2291500     
  -35119976.4919267     
  -35090848.2904325     
  -35094008.7140288     
  -35096872.0888586     
  -35099467.8520291     
  -35101824.2108343     
  -35103968.0100905     
  -35105924.6336841     
  -35107717.9349752     
  -35109370.1902404     
  -35110902.0691613     
  -35112332.6165955     
  -35113679.2406108     
  -35114957.7030414     
  -35116182.1105956     
  -35117364.9067116     
  -35089944.9092972     
  -35092928.6278868     
  -35095616.0734074     
  -35098038.3708390     
  -35100225.1983443     
  -35102204.6594259     
  -35104003.1939429     
  -35105645.5212622     
  -35107154.6080082     
  -35108551.6523979     
  -35109856.0772464     
  -35111085.5245436     
  -35112255.8460860     
  -35113381.0869387     
  -35114473.4613675     
  -35089007.7043216     
  -35091789.4832900     
  -35094276.4245251     
  -35096501.5641401     
  -35098496.2297699     
  -35100289.9223161     
  -35101910.2423359     
  -35103382.8529117     
  -35104731.4693625     
  -35105977.8651362     
  -35107141.8830216     
  -35108241.4416679     
  -35109292.5293546     
  -35110309.1799271     
  -35111303.4295982     
  -35088052.0159484     
  -35090604.1521235     
  -35092863.7846979     
  -35094866.0899953     
  -35096644.2220386     
  -35098229.2093382     
  -35099649.9039603     
  -35100932.9732581     
  -35102102.9219996     
  -35103182.1306577     
  -35104190.8949000     
  -35105147.4521469     
  -35106067.9834986     
  -35106966.5832279     
  -35107855.1930516     
  -35087094.0369230     
  -35089386.0120584     
  -35091389.0114732     
  -35093140.5840939     
  -35094675.8813388     
  -35096027.5745520     
  -35097225.8355093     
  -35098298.3689332     
  -35099270.4813212     
  -35100165.1668778     
  -35101003.1897684     
  -35101803.1426832     
  -35102581.4648154     
  -35103352.4075209     
  -35104127.9426490     
  -35086150.5630196     
  -35088148.6740616     
  -35089862.8911636     
  -35091333.3702057     
  -35092597.4209224     
  -35093689.4497917     
  -35094640.9822373     
  -35095480.7515726     
  -35096234.8342195     
  -35096926.8048243     
  -35097577.8820807     
  -35098207.0368204     
  -35098831.0380745     
  -35099464.4198125     
  -35100119.3601434     
  -35085238.6797070     
  -35086905.6437004     
  -35088295.7856622     
  -35089452.1065002     
  -35090414.2219454     
  -35091218.3334536     
  -35091897.3040654     
  -35092480.8247273     
  -35092995.6434764     
  -35093465.8204167     
  -35093912.9669973     
  -35094356.4290487     
  -35094813.3788313     
  -35095298.7910609     
  -35095825.2902797     
  -35084375.3772329     
  -35085669.9038548     
  -35086697.1962704     
  -35087503.3503836     
  -35088130.4217181     
  -35088616.4225955     
  -35088995.4660427     
  -35089298.0385472     
  -35089551.3626166     
  -35089779.7956856     
  -35090005.2057510     
  -35090247.2659049     
  -35090523.6184516     
  -35090849.8729694     
  -35091239.4198220     
  -35083577.0881729     
  -35084453.4030024     
  -35085075.2214363     
  -35085492.0160358     
  -35085748.4058591     
  -35085884.1714631     
  -35085934.4857783     
  -35085930.3355724     
  -35085899.0749947     
  -35085865.0321560     
  -35085850.0824953     
  -35085874.1068282     
  -35085955.2648172     
  -35086110.0339136     
  -35086352.9876103     
  -35082859.1432977     
  -35083266.4265675     
  -35083435.8730414     
  -35083420.6847086     
  -35083268.1682922     
  -35083019.7508882     
  -35082711.3266987     
  -35082373.8921607     
  -35082034.3764912     
  -35081716.5482940     
  -35081441.8736478     
  -35081230.2106804     
  -35081100.2449032     
  -35081069.5960615     
  -35081154.5600013     
  -35082235.1424974     
  -35082116.8154532     
  -35081782.1939914     
  -35081288.7042961     
  -35080686.4834081     
  -35080018.3704635     
  -35079320.4212452     
  -35078622.8623695     
  -35077951.3292948     
  -35077328.2056860     
  -35076773.8869820     
  -35076307.8120210     
  -35075949.1335303     
  -35075716.9317612     
  -35075629.9186671     
  -35081716.2344733     
  -35081008.9688877     
  -35080113.0804195     
  -35079090.9754572     
  -35077995.8049558     
  -35076871.4087545     
  -35075753.1036597     
  -35074669.1359313     
  -35073642.5259367     
  -35072693.0259275     
  -35071838.9499550     
  -35071098.6766686     
  -35070491.6581367     
  -35070038.7989129     
  -35069762.1227609     
  -35081310.2854192     
  -35079942.5140510     
  -35078421.6395782     
  -35076816.2564589     
  -35075182.7632638     
  -35073565.2784268     
  -35071996.9318222     
  -35070502.1320815     
  -35069099.3186623     
  -35067803.7822052     
  -35066630.2561782     
  -35065595.0625390     
  -35064717.6072006     
  -35064021.0262727     
  -35063531.8249734     
  -35081020.8789683     
  -35078910.4121960     
  -35076692.7797309     
  -35074444.7113458     
  -35072226.0763626     
  -35070079.9429822     
  -35068034.8921290     
  -35066108.6707494     
  -35064312.2881325     
  -35062653.9719875     
  -35061142.7159908     
  -35059791.2643903     
  -35058618.3315842     
  -35057649.7091942     
  -35056917.9430735     
  -35080845.9925721     
  -35077896.0327756     
  -35074899.4676809     
  -35071944.2522122     
  -35069093.6351562     
  -35066387.0299520     
  -35063844.5338878     
  -35061472.9987226     
  -35059272.0359515     
  -35057239.2889027     
  -35055374.9911041     
  -35053686.0051001     
  -35052189.1326232     
  -35050913.1729317     
  -35049898.8195425     
  -35080775.9661795     
  -35076868.1808452     
  -35072996.5743381     
  -35069264.9596502     
  -35065738.5296029     
  -35062447.6321761     
  -35059397.2147770     
  -35056577.0999739     
  -35053970.3676067     
  -35051559.6562130     
  -35049332.4229574     
  -35047286.0372009     
  -35045433.0648606     
  -35043805.1419000     
  -35042454.0835796     
  -35080789.6913269     
  -35075771.7827038     
  -35070910.1303427     
  -35066330.5593702     
  -35062094.0830748     
  -35058210.3102256     
  -35054657.9269146     
  -35051401.4753544     
  -35048401.7862574     
  -35045621.7493407     
  -35043030.8770093     
  -35040611.6108759     
  -35038366.9946490     
  -35036330.1583549     
  -35034567.5343334     
  -35080846.2936305     
  -35074508.0560657     
  -35068517.7278501     
  -35063026.1036946     
  -35058069.1364706     
  -35053610.9040156     
  -35049586.4581698     
  -35045926.5878866     
  -35042565.0518222     
  -35039441.1519497     
  -35036501.5151258     
  -35033703.9003654     
  -35031032.5678333     
  -35028512.8263593     
  -35026232.4285178     
  -35080859.3093155     
  -35072888.4217481     
  -35065611.7711419     
  -35059184.1113851     
  -35053549.6278544     
  -35048576.2470398     
  -35044140.8311939     
  -35040135.0871638     
  -35036464.2462283     
  -35033043.1246109     
  -35029792.4431315     
  -35026637.7532999     
  -35023511.8842277     
  -35020421.3770716     
  -35017459.0270245     
  -35080616.4679829     
  -35070499.0464972     
  -35061842.7956479     
  -35054598.6083964     
  -35048410.9808265     
  -35043034.1489598     
  -35038283.3585995     
  -35034014.7007735     
  -35030108.9460521     
  -35026460.1113083     
  -35022965.7133487     
  -35019516.0476416     
  -35015984.7759237     
  -35012194.5304242     
  -35008316.3073153     
  -35079166.7966081     
  -35066388.2861158     
  -35056825.2377163     
  -35049066.9838194     
  -35042546.6452613     
  -35036928.5317794     
  -35031988.6352541     
  -35027561.3753033     
  -35023513.3021718     
  -35019726.3926235     
  -35016084.0270332     
  -35012454.1729609     
  -35008658.2232997     
  -35004406.2654591     
  -34998860.9673029     
SCALARS 2waySource double 
LOOKUP_TABLE default
 -8.991998555424186E-005
 -9.301495538162558E-005
 -9.592725628593096E-005
 -9.866217362875322E-005
 -1.012260182529673E-004
 -1.036259118938366E-004
 -1.058695804878954E-004
 -1.079651592204646E-004
 -1.099210124744331E-004
 -1.117455712695936E-004
 -1.134471903185244E-004
 -1.150340264694182E-004
 -1.165139400531970E-004
 -1.178944204874802E-004
 -1.191825373917249E-004
 -8.976009823632883E-005
 -9.285181598112687E-005
 -9.576003110470630E-005
 -9.849017625627150E-005
 -1.010487082460118E-004
 -1.034428907350611E-004
 -1.056805850574441E-004
 -1.077700530349134E-004
 -1.097197749645273E-004
 -1.115382853793725E-004
 -1.132340287095848E-004
 -1.148152366040959E-004
 -1.162898284049325E-004
 -1.176653360866145E-004
 -1.189488548615359E-004
 -8.949927973789270E-005
 -9.258366195906211E-005
 -9.548249127239137E-005
 -9.820157134409949E-005
 -1.007477237771599E-004
 -1.031285636495233E-004
 -1.053522841735604E-004
 -1.074274542587077E-004
 -1.093628320685538E-004
 -1.111671970749090E-004
 -1.128492026319414E-004
 -1.144172507211552E-004
 -1.158793902499704E-004
 -1.172432401137374E-004
 -1.185159381352622E-004
 -8.914038247402633E-005
 -9.221291187144221E-005
 -9.509662286000270E-005
 -9.779792292554401E-005
 -1.003242251414916E-004
 -1.026837122276226E-004
 -1.048851114868490E-004
 -1.069374842193008E-004
 -1.088500325070738E-004
 -1.106319256621756E-004
 -1.122921481452865E-004
 -1.138393703903954E-004
 -1.152818437163683E-004
 -1.166273203600913E-004
 -1.178829996152244E-004
 -8.868772501021086E-005
 -9.174321268121534E-005
 -9.460540528731851E-005
 -9.728156093924813E-005
 -9.977992279388316E-005
 -1.021094675100433E-004
 -1.042796671267863E-004
 -1.063002676708598E-004
 -1.081810870720105E-004
 -1.099318343493946E-004
 -1.115619515371752E-004
 -1.130804794493846E-004
 -1.144959481516901E-004
 -1.158162929095209E-004
 -1.170487964054003E-004
 -8.814710060450268E-005
 -9.117943126901951E-005
 -9.401278823473041E-005
 -9.665554575850847E-005
 -9.911703146502613E-005
 -1.014072553919586E-004
 -1.035366558168701E-004
 -1.055158647611249E-004
 -1.073554953128667E-004
 -1.090659522707223E-004
 -1.106572670961954E-004
 -1.121389577949128E-004
 -1.135199141420198E-004
 -1.148083086350843E-004
 -1.160115336887285E-004
 -8.752578428981441E-005
 -9.052763910586117E-005
 -9.332365730985398E-005
 -9.592361792797316E-005
 -9.833820667987655E-005
 -1.005787222438685E-004
 -1.026568035069304E-004
 -1.045841801641882E-004
 -1.063724482457810E-004
 -1.080328714658526E-004
 -1.095762087352586E-004
 -1.110125677963636E-004
 -1.123512847608117E-004
 -1.136008293812098E-004
 -1.147687361638529E-004
 -8.683253459508655E-005
 -8.979508650833694E-005
 -9.254378526240581E-005
 -9.509013031259315E-005
 -9.744646132523160E-005
 -9.962563885762737E-005
 -1.016407511007035E-004
 -1.035048484116510E-004
 -1.052307065273684E-004
 -1.068306185850662E-004
 -1.083162154432185E-004
 -1.096983133638343E-004
 -1.109867879545838E-004
 -1.121904734164834E-004
 -1.133170866081903E-004
 -8.607758487106477E-005
 -8.899016189073477E-005
 -9.167976465911192E-005
 -9.415995910889931E-005
 -9.644505929743483E-005
 -9.854978037067446E-005
 -1.004889235781576E-004
 -1.022770943633829E-004
 -1.039284536265532E-004
 -1.054565013410535E-004
 -1.068738909131408E-004
 -1.081922721324924E-004
 -1.094221603847861E-004
 -1.105728300555346E-004
 -1.116522307634982E-004
 -8.527261799876239E-005
 -8.812233037833894E-005
 -9.073891699772248E-005
 -9.313838935842789E-005
 -9.533738259714118E-005
 -9.735277933742413E-005
 -9.920137254600232E-005
 -1.008995677356702E-004
 -1.024631237513950E-004
 -1.039069301778772E-004
 -1.052448183194303E-004
 -1.064894019476976E-004
 -1.076519437722190E-004
 -1.087422439711687E-004
 -1.097685481468617E-004
 -8.443071705139213E-005
 -8.720204506277385E-005
 -8.972917224368062E-005
 -9.203096970189913E-005
 -9.412676747589988E-005
 -9.603594856138409E-005
 -9.777758996805006E-005
 -9.937015064784119E-005
 -1.008312046745834E-004
 -1.021772163353798E-004
 -1.034233521829791E-004
 -1.045833239632512E-004
 -1.056692559532969E-004
 -1.066915707735142E-004
 -1.076588891888986E-004
 -8.356628332872537E-005
 -8.624062308546818E-005
 -8.865891168353685E-005
 -9.084333005166982E-005
 -9.281630429408773E-005
 -9.460006959343941E-005
 -9.621629047838073E-005
 -9.768573724847151E-005
 -9.902801618736803E-005
 -1.002613485361362E-004
 -1.014023906928081E-004
 -1.024660863432242E-004
 -1.034655406170636E-004
 -1.044119070846977E-004
 -1.053142804483448E-004
 -8.269491220074391E-005
 -8.525007765554238E-005
 -8.753676574007834E-005
 -8.958095451003449E-005
 -9.140859446654743E-005
 -9.304514180234000E-005
 -9.451515917115794E-005
 -9.584198461191069E-005
 -9.704746574202778E-005
 -9.815175202076496E-005
 -9.917313390348800E-005
 -1.001279149800473E-004
 -1.010303022605554E-004
 -1.018923008031988E-004
 -1.027236017559171E-004
 -8.183321656238662E-005
 -8.424289604984118E-005
 -8.637135685027282E-005
 -8.824889998712860E-005
 -8.990545598586364E-005
 -9.137008540148443E-005
 -9.267056094435021E-005
 -9.383303421593142E-005
 -9.488178398428460E-005
 -9.583903576205482E-005
 -9.672483612091501E-005
 -9.755696106799586E-005
 -9.835083655660381E-005
 -9.911945081211497E-005
 -9.987324227262436E-005
 -8.099858765116543E-005
 -8.323175256694506E-005
 -8.517097538547946E-005
 -8.685144815151835E-005
 -8.830756607195321E-005
 -8.957238939937615E-005
 -9.067720612879097E-005
 -9.165120337376091E-005
 -9.252124444280777E-005
 -9.331173663352656E-005
 -9.404456483511277E-005
 -9.473906015027517E-005
 -9.541197143247969E-005
 -9.607741039682435E-005
 -9.674674695174548E-005
 -8.020888380706062E-005
 -8.222914413798791E-005
 -8.394317334887988E-005
 -8.539167382760719E-005
 -8.661402475113191E-005
 -8.764769155256318E-005
 -8.852776495157588E-005
 -8.928664597835101E-005
 -8.995387384535912E-005
 -9.055607346014434E-005
 -9.111698420075169E-005
 -9.165752385415402E-005
 -9.219584116578570E-005
 -9.274731553434901E-005
 -9.332447118087751E-005
 -7.948203977723990E-005
 -8.124693437852728E-005
 -8.269425517116631E-005
 -8.387090542985316E-005
 -8.482181539657459E-005
 -8.558927117540709E-005
 -8.621241998387028E-005
 -8.672698189814829E-005
 -8.716516277836088E-005
 -8.755572982355531E-005
 -8.792418894138418E-005
 -8.829299455625383E-005
 -8.868172527808911E-005
 -8.910716850625563E-005
 -8.958326990984831E-005
 -7.883559262242856E-005
 -8.029578825602579E-005
 -8.142863539404728E-005
 -8.228804022599340E-005
 -8.292512550063045E-005
 -8.338742587164988E-005
 -8.371834073633386E-005
 -8.395689468659332E-005
 -8.413779147718117E-005
 -8.429169316878063E-005
 -8.444562557040800E-005
 -8.462340547780011E-005
 -8.484599662355731E-005
 -8.513171953540059E-005
 -8.549625880208876E-005
 -7.828612511865406E-005
 -7.938447205220325E-005
 -8.014801575445600E-005
 -8.063865523925517E-005
 -8.091447011872157E-005
 -8.102868829332969E-005
 -8.102905788009662E-005
 -8.095769887745411E-005
 -8.085139385575563E-005
 -8.074219062018241E-005
 -8.065815323958977E-005
 -8.062410520906754E-005
 -8.066223963878528E-005
 -8.079250497757284E-005
 -8.103269928596884E-005
 -7.784863301889100E-005
 -7.851897743963658E-005
 -7.885030238652786E-005
 -7.891381667056057E-005
 -7.877552683985222E-005
 -7.849481718960827E-005
 -7.812370700025159E-005
 -7.770688322701284E-005
 -7.728239692180496E-005
 -7.688278109089182E-005
 -7.653631796270783E-005
 -7.626822765600616E-005
 -7.610162124512488E-005
 -7.605812079786739E-005
 -7.615807715779125E-005
 -7.753582645437230E-005
 -7.770139511539672E-005
 -7.752812460871699E-005
 -7.709842505088791E-005
 -7.648753814403525E-005
 -7.576146758131569E-005
 -7.497610666222711E-005
 -7.417764935036843E-005
 -7.340399635249916E-005
 -7.268669138537948E-005
 -7.205294327064701E-005
 -7.152741733677513E-005
 -7.113362491437033E-005
 -7.089483593173645E-005
 -7.083446611374117E-005
 -7.735737284816139E-005
 -7.692839348813059E-005
 -7.616670426908230E-005
 -7.516881927677288E-005
 -7.402105656601084E-005
 -7.279641189048976E-005
 -7.155364227213261E-005
 -7.033849479409311E-005
 -6.918636695630407E-005
 -6.812552335399637E-005
 -6.718017863850181E-005
 -6.637305798975164E-005
 -6.572729547697153E-005
 -6.526768508165411E-005
 -6.502129475084476E-005
 -7.731906831310589E-005
 -7.618900826098872E-005
 -7.474060537806859E-005
 -7.308916370654816E-005
 -7.133469614550327E-005
 -6.955716639490232E-005
 -6.781596891760382E-005
 -6.615294883966676E-005
 -6.459726219939081E-005
 -6.317050676353235E-005
 -6.189119493101814E-005
 -6.077820111247314E-005
 -5.985319648807632E-005
 -5.914223150122902E-005
 -5.867667468733274E-005
 -7.742185733191582E-005
 -7.546111949220223E-005
 -7.320844483259793E-005
 -7.080579963576950E-005
 -6.837043153017463E-005
 -6.598793780394502E-005
 -6.371367321271668E-005
 -6.157967394079050E-005
 -5.960321584351941E-005
 -5.779451765112519E-005
 -5.616276116225135E-005
 -5.472046625187594E-005
 -5.348636028481340E-005
 -5.248728732328477E-005
 -5.175951188059222E-005
 -7.766046234650479E-005
 -7.470518426837082E-005
 -7.150369485986634E-005
 -6.823817347584529E-005
 -6.504698160790352E-005
 -6.201611903010352E-005
 -5.918733358119721E-005
 -5.657328651267513E-005
 -5.417157813014985E-005
 -5.197504920271975E-005
 -4.997900257739484E-005
 -4.818625661282547E-005
 -4.661070799525982E-005
 -4.527902755562367E-005
 -4.423279475576524E-005
 -7.802077632174291E-005
 -7.385176056378485E-005
 -6.951749098352869E-005
 -6.526424005122970E-005
 -6.125145008981565E-005
 -5.754948760843068E-005
 -5.416801049067274E-005
 -5.108633071655582E-005
 -4.827340342217753E-005
 -4.569820531083712E-005
 -4.333647315669406E-005
 -4.117703672244395E-005
 -3.922551191340650E-005
 -3.750757190179578E-005
 -3.606871206483873E-005
 -7.847401820370691E-005
 -7.277230161725632E-005
 -6.706478897577356E-005
 -6.169850135976993E-005
 -5.683213258029721E-005
 -5.247760181607689E-005
 -4.858060683949536E-005
 -4.507269529715166E-005
 -4.188673032479123E-005
 -3.896271754855441E-005
 -3.625109940625042E-005
 -3.371769871013073E-005
 -3.135669651076024E-005
 -2.918667947490761E-005
 -2.725822475942602E-005
 -7.895153389650956E-005
 -7.120345761009298E-005
 -6.381538058363066E-005
 -5.726880879160425E-005
 -5.160609340357532E-005
 -4.668131992500014E-005
 -4.235138953425242E-005
 -3.849219726261198E-005
 -3.499900737343665E-005
 -3.178196437519260E-005
 -2.876256533234050E-005
 -2.587400717353877E-005
 -2.306933328876936E-005
 -2.037877850902133E-005
 -1.782571783892078E-005
 -7.925488430065071E-005
 -6.848559004711618E-005
 -5.919049527661326E-005
 -5.165942822977257E-005
 -4.538911447572408E-005
 -4.005301701489839E-005
 -3.541885712313971E-005
 -3.131529408043357E-005
 -2.760726862675541E-005
 -2.418059374297464E-005
 -2.093076494616926E-005
 -1.775381407242447E-005
 -1.454172418051500E-005
 -1.118911218171649E-005
 -7.903905738321894E-006
 -7.791191910158930E-005
 -6.296901948313101E-005
 -5.264058807228262E-005
 -4.460812914428257E-005
 -3.804912044777987E-005
 -3.252059575392557E-005
 -2.774472398890634E-005
 -2.352639433941331E-005
 -1.971550449481875E-005
 -1.618523279216106E-005
 -1.281616662686675E-005
 -9.480149395656051E-006
 -6.017361790301695E-006
 -2.187693058517952E-006
  2.361403150663079E-006
SCALARS poroP double 
LOOKUP_TABLE default
  0.000000000000000E+000
  0.000000000000000E+000
  0.000000000000000E+000
  0.000000000000000E+000
  0.000000000000000E+000
  0.000000000000000E+000
  0.000000000000000E+000
  0.000000000000000E+000
  0.000000000000000E+000
  0.000000000000000E+000
  0.000000000000000E+000
  0.000000000000000E+000
  0.000000000000000E+000
  0.000000000000000E+000
  0.000000000000000E+000
  0.000000000000000E+000
  0.000000000000000E+000
  0.000000000000000E+000
  0.000000000000000E+000
  0.000000000000000E+000
  0.000000000000000E+000
  0.000000000000000E+000
  0.000000000000000E+000
  0.000000000000000E+000
  0.000000000000000E+000
  0.000000000000000E+000
  0.000000000000000E+000
  0.000000000000000E+000
  0.000000000000000E+000
  0.000000000000000E+000
  0.000000000000000E+000
  0.000000000000000E+000
  0.000000000000000E+000
  0.000000000000000E+000
  0.000000000000000E+000
  0.000000000000000E+000
  0.000000000000000E+000
  0.000000000000000E+000
  0.000000000000000E+000
  0.000000000000000E+000
  0.000000000000000E+000
  0.000000000000000E+000
  0.000000000000000E+000
  0.000000000000000E+000
  0.000000000000000E+000
  0.000000000000000E+000
  0.000000000000000E+000
  0.000000000000000E+000
  0.000000000000000E+000
  0.000000000000000E+000
  0.000000000000000E+000
  0.000000000000000E+000
  0.000000000000000E+000
  0.000000000000000E+000
  0.000000000000000E+000
  0.000000000000000E+000
  0.000000000000000E+000
  0.000000000000000E+000
  0.000000000000000E+000
  0.000000000000000E+000
  0.000000000000000E+000
  0.000000000000000E+000
  0.000000000000000E+000
  0.000000000000000E+000
  0.000000000000000E+000
  0.000000000000000E+000
  0.000000000000000E+000
  0.000000000000000E+000
  0.000000000000000E+000
  0.000000000000000E+000
  0.000000000000000E+000
  0.000000000000000E+000
  0.000000000000000E+000
  0.000000000000000E+000
  0.000000000000000E+000
  0.000000000000000E+000
  0.000000000000000E+000
  0.000000000000000E+000
  0.000000000000000E+000
  0.000000000000000E+000
  0.000000000000000E+000
  0.000000000000000E+000
  0.000000000000000E+000
  0.000000000000000E+000
  0.000000000000000E+000
  0.000000000000000E+000
  0.000000000000000E+000
  0.000000000000000E+000
  0.000000000000000E+000
  0.000000000000000E+000
  0.000000000000000E+000
  0.000000000000000E+000
  0.000000000000000E+000
  0.000000000000000E+000
  0.000000000000000E+000
  0.000000000000000E+000
  0.000000000000000E+000
  0.000000000000000E+000
  0.000000000000000E+000
  0.000000000000000E+000
  0.000000000000000E+000
  0.000000000000000E+000
  0.000000000000000E+000
  0.000000000000000E+000
  0.000000000000000E+000
  0.000000000000000E+000
  0.000000000000000E+000
  0.000000000000000E+000
  0.000000000000000E+000
  0.000000000000000E+000
  0.000000000000000E+000
  0.000000000000000E+000
  0.000000000000000E+000
  0.000000000000000E+000
  0.000000000000000E+000
  0.000000000000000E+000
  0.000000000000000E+000
  0.000000000000000E+000
  0.000000000000000E+000
  0.000000000000000E+000
  0.000000000000000E+000
  0.000000000000000E+000
  0.000000000000000E+000
  0.000000000000000E+000
  0.000000000000000E+000
  0.000000000000000E+000
  0.000000000000000E+000
  0.000000000000000E+000
  0.000000000000000E+000
  0.000000000000000E+000
  0.000000000000000E+000
  0.000000000000000E+000
  0.000000000000000E+000
  0.000000000000000E+000
  0.000000000000000E+000
  0.000000000000000E+000
  0.000000000000000E+000
  0.000000000000000E+000
  0.000000000000000E+000
  0.000000000000000E+000
  0.000000000000000E+000
  0.000000000000000E+000
  0.000000000000000E+000
  0.000000000000000E+000
  0.000000000000000E+000
  0.000000000000000E+000
  0.000000000000000E+000
  0.000000000000000E+000
  0.000000000000000E+000
  0.000000000000000E+000
  0.000000000000000E+000
  0.000000000000000E+000
  0.000000000000000E+000
  0.000000000000000E+000
  0.000000000000000E+000
  0.000000000000000E+000
  0.000000000000000E+000
  0.000000000000000E+000
  0.000000000000000E+000
  0.000000000000000E+000
  0.000000000000000E+000
  0.000000000000000E+000
  0.000000000000000E+000
  0.000000000000000E+000
  0.000000000000000E+000
  0.000000000000000E+000
  0.000000000000000E+000
  0.000000000000000E+000
  0.000000000000000E+000
  0.000000000000000E+000
  0.000000000000000E+000
  0.000000000000000E+000
  0.000000000000000E+000
  0.000000000000000E+000
  0.000000000000000E+000
  0.000000000000000E+000
  0.000000000000000E+000
  0.000000000000000E+000
  0.000000000000000E+000
  0.000000000000000E+000
  0.000000000000000E+000
  0.000000000000000E+000
  0.000000000000000E+000
  0.000000000000000E+000
  0.000000000000000E+000
  0.000000000000000E+000
  0.000000000000000E+000
  0.000000000000000E+000
  0.000000000000000E+000
  0.000000000000000E+000
  0.000000000000000E+000
  0.000000000000000E+000
  0.000000000000000E+000
  0.000000000000000E+000
  0.000000000000000E+000
  0.000000000000000E+000
  0.000000000000000E+000
  0.000000000000000E+000
  0.000000000000000E+000
  0.000000000000000E+000
  0.000000000000000E+000
  0.000000000000000E+000
  0.000000000000000E+000
  0.000000000000000E+000
  0.000000000000000E+000
  0.000000000000000E+000
  0.000000000000000E+000
  0.000000000000000E+000
  0.000000000000000E+000
  0.000000000000000E+000
  0.000000000000000E+000
  0.000000000000000E+000
  0.000000000000000E+000
  0.000000000000000E+000
  0.000000000000000E+000
  0.000000000000000E+000
  0.000000000000000E+000
  0.000000000000000E+000
  0.000000000000000E+000
  0.000000000000000E+000
  0.000000000000000E+000
  0.000000000000000E+000
  0.000000000000000E+000
  0.000000000000000E+000
  0.000000000000000E+000
  0.000000000000000E+000
  0.000000000000000E+000
  0.000000000000000E+000
  0.000000000000000E+000
  0.000000000000000E+000
  0.000000000000000E+000
  0.000000000000000E+000
  0.000000000000000E+000
  0.000000000000000E+000
  0.000000000000000E+000
  0.000000000000000E+000
  0.000000000000000E+000
  0.000000000000000E+000
  0.000000000000000E+000
  0.000000000000000E+000
  0.000000000000000E+000
  0.000000000000000E+000
  0.000000000000000E+000
  0.000000000000000E+000
  0.000000000000000E+000
  0.000000000000000E+000
  0.000000000000000E+000
  0.000000000000000E+000
  0.000000000000000E+000
  0.000000000000000E+000
  0.000000000000000E+000
  0.000000000000000E+000
  0.000000000000000E+000
  0.000000000000000E+000
  0.000000000000000E+000
  0.000000000000000E+000
  0.000000000000000E+000
  0.000000000000000E+000
  0.000000000000000E+000
  0.000000000000000E+000
  0.000000000000000E+000
  0.000000000000000E+000
  0.000000000000000E+000
  0.000000000000000E+000
  0.000000000000000E+000
  0.000000000000000E+000
  0.000000000000000E+000
  0.000000000000000E+000
  0.000000000000000E+000
  0.000000000000000E+000
  0.000000000000000E+000
  0.000000000000000E+000
  0.000000000000000E+000
  0.000000000000000E+000
  0.000000000000000E+000
  0.000000000000000E+000
  0.000000000000000E+000
  0.000000000000000E+000
  0.000000000000000E+000
  0.000000000000000E+000
  0.000000000000000E+000
  0.000000000000000E+000
  0.000000000000000E+000
  0.000000000000000E+000
  0.000000000000000E+000
  0.000000000000000E+000
  0.000000000000000E+000
  0.000000000000000E+000
  0.000000000000000E+000
  0.000000000000000E+000
  0.000000000000000E+000
  0.000000000000000E+000
  0.000000000000000E+000
  0.000000000000000E+000
  0.000000000000000E+000
  0.000000000000000E+000
  0.000000000000000E+000
  0.000000000000000E+000
  0.000000000000000E+000
  0.000000000000000E+000
  0.000000000000000E+000
  0.000000000000000E+000
  0.000000000000000E+000
  0.000000000000000E+000
  0.000000000000000E+000
  0.000000000000000E+000
  0.000000000000000E+000
  0.000000000000000E+000
  0.000000000000000E+000
  0.000000000000000E+000
  0.000000000000000E+000
  0.000000000000000E+000
  0.000000000000000E+000
  0.000000000000000E+000
  0.000000000000000E+000
  0.000000000000000E+000
  0.000000000000000E+000
  0.000000000000000E+000
  0.000000000000000E+000
  0.000000000000000E+000
  0.000000000000000E+000
  0.000000000000000E+000
  0.000000000000000E+000
  0.000000000000000E+000
  0.000000000000000E+000
  0.000000000000000E+000
  0.000000000000000E+000
  0.000000000000000E+000
  0.000000000000000E+000
  0.000000000000000E+000
  0.000000000000000E+000
  0.000000000000000E+000
  0.000000000000000E+000
  0.000000000000000E+000
  0.000000000000000E+000
  0.000000000000000E+000
  0.000000000000000E+000
  0.000000000000000E+000
  0.000000000000000E+000
  0.000000000000000E+000
  0.000000000000000E+000
  0.000000000000000E+000
  0.000000000000000E+000
  0.000000000000000E+000
  0.000000000000000E+000
  0.000000000000000E+000
  0.000000000000000E+000
  0.000000000000000E+000
  0.000000000000000E+000
  0.000000000000000E+000
  0.000000000000000E+000
  0.000000000000000E+000
  0.000000000000000E+000
  0.000000000000000E+000
  0.000000000000000E+000
  0.000000000000000E+000
  0.000000000000000E+000
  0.000000000000000E+000
  0.000000000000000E+000
  0.000000000000000E+000
  0.000000000000000E+000
  0.000000000000000E+000
  0.000000000000000E+000
  0.000000000000000E+000
  0.000000000000000E+000
  0.000000000000000E+000
  0.000000000000000E+000
  0.000000000000000E+000
  0.000000000000000E+000
  0.000000000000000E+000
  0.000000000000000E+000
  0.000000000000000E+000
  0.000000000000000E+000
  0.000000000000000E+000
  0.000000000000000E+000
  0.000000000000000E+000
  0.000000000000000E+000
  0.000000000000000E+000
  0.000000000000000E+000
  0.000000000000000E+000
  0.000000000000000E+000
  0.000000000000000E+000
  0.000000000000000E+000
  0.000000000000000E+000
  0.000000000000000E+000
  0.000000000000000E+000
  0.000000000000000E+000
  0.000000000000000E+000
  0.000000000000000E+000
  0.000000000000000E+000
  0.000000000000000E+000
  0.000000000000000E+000
  0.000000000000000E+000
  0.000000000000000E+000
  0.000000000000000E+000
  0.000000000000000E+000
  0.000000000000000E+000
  0.000000000000000E+000
  0.000000000000000E+000
  0.000000000000000E+000
  0.000000000000000E+000
  0.000000000000000E+000
  0.000000000000000E+000
  0.000000000000000E+000
  0.000000000000000E+000
  0.000000000000000E+000
  0.000000000000000E+000
  0.000000000000000E+000
  0.000000000000000E+000
  0.000000000000000E+000
  0.000000000000000E+000
  0.000000000000000E+000
  0.000000000000000E+000
  0.000000000000000E+000
  0.000000000000000E+000
  0.000000000000000E+000
  0.000000000000000E+000
  0.000000000000000E+000
  0.000000000000000E+000
  0.000000000000000E+000
  0.000000000000000E+000
  0.000000000000000E+000
  0.000000000000000E+000
  0.000000000000000E+000
  0.000000000000000E+000
  0.000000000000000E+000
  0.000000000000000E+000
  0.000000000000000E+000
  0.000000000000000E+000
  0.000000000000000E+000
  0.000000000000000E+000
  0.000000000000000E+000
  0.000000000000000E+000
  0.000000000000000E+000
  0.000000000000000E+000
  0.000000000000000E+000
  0.000000000000000E+000
  0.000000000000000E+000
  0.000000000000000E+000
  0.000000000000000E+000
  0.000000000000000E+000
  0.000000000000000E+000
  0.000000000000000E+000
  0.000000000000000E+000
  0.000000000000000E+000
  0.000000000000000E+000
  0.000000000000000E+000
  0.000000000000000E+000
  0.000000000000000E+000
  0.000000000000000E+000
SCALARS elementIsPlast double 
LOOKUP_TABLE default
  0.000000000000000E+000
  0.000000000000000E+000
  0.000000000000000E+000
  0.000000000000000E+000
  0.000000000000000E+000
  0.000000000000000E+000
  0.000000000000000E+000
  0.000000000000000E+000
  0.000000000000000E+000
  0.000000000000000E+000
  0.000000000000000E+000
  0.000000000000000E+000
  0.000000000000000E+000
  0.000000000000000E+000
  0.000000000000000E+000
  0.000000000000000E+000
  0.000000000000000E+000
  0.000000000000000E+000
  0.000000000000000E+000
  0.000000000000000E+000
  0.000000000000000E+000
  0.000000000000000E+000
  0.000000000000000E+000
  0.000000000000000E+000
  0.000000000000000E+000
  0.000000000000000E+000
  0.000000000000000E+000
  0.000000000000000E+000
  0.000000000000000E+000
  0.000000000000000E+000
  0.000000000000000E+000
  0.000000000000000E+000
  0.000000000000000E+000
  0.000000000000000E+000
  0.000000000000000E+000
  0.000000000000000E+000
  0.000000000000000E+000
  0.000000000000000E+000
  0.000000000000000E+000
  0.000000000000000E+000
  0.000000000000000E+000
  0.000000000000000E+000
  0.000000000000000E+000
  0.000000000000000E+000
  0.000000000000000E+000
  0.000000000000000E+000
  0.000000000000000E+000
  0.000000000000000E+000
  0.000000000000000E+000
  0.000000000000000E+000
  0.000000000000000E+000
  0.000000000000000E+000
  0.000000000000000E+000
  0.000000000000000E+000
  0.000000000000000E+000
  0.000000000000000E+000
  0.000000000000000E+000
  0.000000000000000E+000
  0.000000000000000E+000
  0.000000000000000E+000
  0.000000000000000E+000
  0.000000000000000E+000
  0.000000000000000E+000
  0.000000000000000E+000
  0.000000000000000E+000
  0.000000000000000E+000
  0.000000000000000E+000
  0.000000000000000E+000
  0.000000000000000E+000
  0.000000000000000E+000
  0.000000000000000E+000
  0.000000000000000E+000
  0.000000000000000E+000
  0.000000000000000E+000
  0.000000000000000E+000
  0.000000000000000E+000
  0.000000000000000E+000
  0.000000000000000E+000
  0.000000000000000E+000
  0.000000000000000E+000
  0.000000000000000E+000
  0.000000000000000E+000
  0.000000000000000E+000
  0.000000000000000E+000
  0.000000000000000E+000
  0.000000000000000E+000
  0.000000000000000E+000
  0.000000000000000E+000
  0.000000000000000E+000
  0.000000000000000E+000
  0.000000000000000E+000
  0.000000000000000E+000
  0.000000000000000E+000
  0.000000000000000E+000
  0.000000000000000E+000
  0.000000000000000E+000
  0.000000000000000E+000
  0.000000000000000E+000
  0.000000000000000E+000
  0.000000000000000E+000
  0.000000000000000E+000
  0.000000000000000E+000
  0.000000000000000E+000
  0.000000000000000E+000
  0.000000000000000E+000
  0.000000000000000E+000
  0.000000000000000E+000
  0.000000000000000E+000
  0.000000000000000E+000
  0.000000000000000E+000
  0.000000000000000E+000
  0.000000000000000E+000
  0.000000000000000E+000
  0.000000000000000E+000
  0.000000000000000E+000
  0.000000000000000E+000
  0.000000000000000E+000
  0.000000000000000E+000
  0.000000000000000E+000
  0.000000000000000E+000
  0.000000000000000E+000
  0.000000000000000E+000
  0.000000000000000E+000
  0.000000000000000E+000
  0.000000000000000E+000
  0.000000000000000E+000
  0.000000000000000E+000
  0.000000000000000E+000
  0.000000000000000E+000
  0.000000000000000E+000
  0.000000000000000E+000
  0.000000000000000E+000
  0.000000000000000E+000
  0.000000000000000E+000
  0.000000000000000E+000
  0.000000000000000E+000
  0.000000000000000E+000
  0.000000000000000E+000
  0.000000000000000E+000
  0.000000000000000E+000
  0.000000000000000E+000
  0.000000000000000E+000
  0.000000000000000E+000
  0.000000000000000E+000
  0.000000000000000E+000
  0.000000000000000E+000
  0.000000000000000E+000
  0.000000000000000E+000
  0.000000000000000E+000
  0.000000000000000E+000
  0.000000000000000E+000
  0.000000000000000E+000
  0.000000000000000E+000
  0.000000000000000E+000
  0.000000000000000E+000
  0.000000000000000E+000
  0.000000000000000E+000
  0.000000000000000E+000
  0.000000000000000E+000
  0.000000000000000E+000
  0.000000000000000E+000
  0.000000000000000E+000
  0.000000000000000E+000
  0.000000000000000E+000
  0.000000000000000E+000
  0.000000000000000E+000
  0.000000000000000E+000
  0.000000000000000E+000
  0.000000000000000E+000
  0.000000000000000E+000
  0.000000000000000E+000
  0.000000000000000E+000
  0.000000000000000E+000
  0.000000000000000E+000
  0.000000000000000E+000
  0.000000000000000E+000
  0.000000000000000E+000
  0.000000000000000E+000
  0.000000000000000E+000
  0.000000000000000E+000
  0.000000000000000E+000
  0.000000000000000E+000
  0.000000000000000E+000
  0.000000000000000E+000
  0.000000000000000E+000
  0.000000000000000E+000
  0.000000000000000E+000
  0.000000000000000E+000
  0.000000000000000E+000
  0.000000000000000E+000
  0.000000000000000E+000
  0.000000000000000E+000
  0.000000000000000E+000
  0.000000000000000E+000
  0.000000000000000E+000
  0.000000000000000E+000
  0.000000000000000E+000
  0.000000000000000E+000
  0.000000000000000E+000
  0.000000000000000E+000
  0.000000000000000E+000
  0.000000000000000E+000
  0.000000000000000E+000
  0.000000000000000E+000
  0.000000000000000E+000
  0.000000000000000E+000
  0.000000000000000E+000
  0.000000000000000E+000
  0.000000000000000E+000
  0.000000000000000E+000
  0.000000000000000E+000
  0.000000000000000E+000
  0.000000000000000E+000
  0.000000000000000E+000
  0.000000000000000E+000
  0.000000000000000E+000
  0.000000000000000E+000
  0.000000000000000E+000
  0.000000000000000E+000
  0.000000000000000E+000
  0.000000000000000E+000
  0.000000000000000E+000
  0.000000000000000E+000
  0.000000000000000E+000
  0.000000000000000E+000
  0.000000000000000E+000
  0.000000000000000E+000
  0.000000000000000E+000
  0.000000000000000E+000
  0.000000000000000E+000
  0.000000000000000E+000
  0.000000000000000E+000
  0.000000000000000E+000
  0.000000000000000E+000
  0.000000000000000E+000
  0.000000000000000E+000
  0.000000000000000E+000
  0.000000000000000E+000
  0.000000000000000E+000
  0.000000000000000E+000
  0.000000000000000E+000
  0.000000000000000E+000
  0.000000000000000E+000
  0.000000000000000E+000
  0.000000000000000E+000
  0.000000000000000E+000
  0.000000000000000E+000
  0.000000000000000E+000
  0.000000000000000E+000
  0.000000000000000E+000
  0.000000000000000E+000
  0.000000000000000E+000
  0.000000000000000E+000
  0.000000000000000E+000
  0.000000000000000E+000
  0.000000000000000E+000
  0.000000000000000E+000
  0.000000000000000E+000
  0.000000000000000E+000
  0.000000000000000E+000
  0.000000000000000E+000
  0.000000000000000E+000
  0.000000000000000E+000
  0.000000000000000E+000
  0.000000000000000E+000
  0.000000000000000E+000
  0.000000000000000E+000
  0.000000000000000E+000
  0.000000000000000E+000
  0.000000000000000E+000
  0.000000000000000E+000
  0.000000000000000E+000
  0.000000000000000E+000
  0.000000000000000E+000
  0.000000000000000E+000
  0.000000000000000E+000
  0.000000000000000E+000
  0.000000000000000E+000
  0.000000000000000E+000
  0.000000000000000E+000
  0.000000000000000E+000
  0.000000000000000E+000
  0.000000000000000E+000
  0.000000000000000E+000
  0.000000000000000E+000
  0.000000000000000E+000
  0.000000000000000E+000
  0.000000000000000E+000
  0.000000000000000E+000
  0.000000000000000E+000
  0.000000000000000E+000
  0.000000000000000E+000
  0.000000000000000E+000
  0.000000000000000E+000
  0.000000000000000E+000
  0.000000000000000E+000
  0.000000000000000E+000
  0.000000000000000E+000
  0.000000000000000E+000
  0.000000000000000E+000
  0.000000000000000E+000
  0.000000000000000E+000
  0.000000000000000E+000
  0.000000000000000E+000
  0.000000000000000E+000
  0.000000000000000E+000
  0.000000000000000E+000
  0.000000000000000E+000
  0.000000000000000E+000
  0.000000000000000E+000
  0.000000000000000E+000
  0.000000000000000E+000
  0.000000000000000E+000
  0.000000000000000E+000
  0.000000000000000E+000
  0.000000000000000E+000
  0.000000000000000E+000
  0.000000000000000E+000
  0.000000000000000E+000
  0.000000000000000E+000
  0.000000000000000E+000
  0.000000000000000E+000
  0.000000000000000E+000
  0.000000000000000E+000
  0.000000000000000E+000
  0.000000000000000E+000
  0.000000000000000E+000
  0.000000000000000E+000
  0.000000000000000E+000
  0.000000000000000E+000
  0.000000000000000E+000
  0.000000000000000E+000
  0.000000000000000E+000
  0.000000000000000E+000
  0.000000000000000E+000
  0.000000000000000E+000
  0.000000000000000E+000
  0.000000000000000E+000
  0.000000000000000E+000
  0.000000000000000E+000
  0.000000000000000E+000
  0.000000000000000E+000
  0.000000000000000E+000
  0.000000000000000E+000
  0.000000000000000E+000
  0.000000000000000E+000
  0.000000000000000E+000
  0.000000000000000E+000
  0.000000000000000E+000
  0.000000000000000E+000
  0.000000000000000E+000
  0.000000000000000E+000
  0.000000000000000E+000
  0.000000000000000E+000
  0.000000000000000E+000
  0.000000000000000E+000
  0.000000000000000E+000
  0.000000000000000E+000
  0.000000000000000E+000
  0.000000000000000E+000
  0.000000000000000E+000
  0.000000000000000E+000
  0.000000000000000E+000
  0.000000000000000E+000
  0.000000000000000E+000
  0.000000000000000E+000
  0.000000000000000E+000
  0.000000000000000E+000
  0.000000000000000E+000
  0.000000000000000E+000
  0.000000000000000E+000
  0.000000000000000E+000
  0.000000000000000E+000
  0.000000000000000E+000
  0.000000000000000E+000
  0.000000000000000E+000
  0.000000000000000E+000
  0.000000000000000E+000
  0.000000000000000E+000
  0.000000000000000E+000
  0.000000000000000E+000
  0.000000000000000E+000
  0.000000000000000E+000
  0.000000000000000E+000
  0.000000000000000E+000
  0.000000000000000E+000
  0.000000000000000E+000
  0.000000000000000E+000
  0.000000000000000E+000
  0.000000000000000E+000
  0.000000000000000E+000
  0.000000000000000E+000
  0.000000000000000E+000
  0.000000000000000E+000
  0.000000000000000E+000
  0.000000000000000E+000
  0.000000000000000E+000
  0.000000000000000E+000
  0.000000000000000E+000
  0.000000000000000E+000
  0.000000000000000E+000
  0.000000000000000E+000
  0.000000000000000E+000
  0.000000000000000E+000
  0.000000000000000E+000
  0.000000000000000E+000
  0.000000000000000E+000
  0.000000000000000E+000
  0.000000000000000E+000
  0.000000000000000E+000
  0.000000000000000E+000
  0.000000000000000E+000
  0.000000000000000E+000
  0.000000000000000E+000
  0.000000000000000E+000
  0.000000000000000E+000
  0.000000000000000E+000
  0.000000000000000E+000
  0.000000000000000E+000
  0.000000000000000E+000
  0.000000000000000E+000
  0.000000000000000E+000
  0.000000000000000E+000
  0.000000000000000E+000
  0.000000000000000E+000
  0.000000000000000E+000
  0.000000000000000E+000
  0.000000000000000E+000
  0.000000000000000E+000
  0.000000000000000E+000
  0.000000000000000E+000
  0.000000000000000E+000
  0.000000000000000E+000
  0.000000000000000E+000
  0.000000000000000E+000
  0.000000000000000E+000
  0.000000000000000E+000
  0.000000000000000E+000
  0.000000000000000E+000
  0.000000000000000E+000
  0.000000000000000E+000
  0.000000000000000E+000
  0.000000000000000E+000
  0.000000000000000E+000
  0.000000000000000E+000
  0.000000000000000E+000
  0.000000000000000E+000
  0.000000000000000E+000
  0.000000000000000E+000
  0.000000000000000E+000
SCALARS poroL double 
LOOKUP_TABLE default
  0.155809080462276     
  0.155809049989278     
  0.155809021273066     
  0.155808994254967     
  0.155808968870952     
  0.155808945053056     
  0.155808922730755     
  0.155808901832267     
  0.155808882285752     
  0.155808864020400     
  0.155808846967379     
  0.155808831060633     
  0.155808816237519     
  0.155808802439271     
  0.155808789611273     
  0.155809075315358     
  0.155809044958442     
  0.155809016361456     
  0.155808989464384     
  0.155808964201888     
  0.155808940504761     
  0.155808918301323     
  0.155808897518739     
  0.155808878084244     
  0.155808859926234     
  0.155808842975234     
  0.155808827164700     
  0.155808812431674     
  0.155808798717245     
  0.155808785966842     
  0.155809065026774     
  0.155809034903287     
  0.155809006545988     
  0.155808979892147     
  0.155808954873790     
  0.155808931419202     
  0.155808909454376     
  0.155808888904364     
  0.155808869694533     
  0.155808851751688     
  0.155808835005056     
  0.155808819387114     
  0.155808804834261     
  0.155808791287296     
  0.155808778691726     
  0.155809049607054     
  0.155809019836900     
  0.155808991842244     
  0.155808965556215     
  0.155808940906827     
  0.155808917818560     
  0.155808896213878     
  0.155808876014634     
  0.155808857143369     
  0.155808839524478     
  0.155808823085221     
  0.155808807756590     
  0.155808793473999     
  0.155808780177796     
  0.155808767813588     
  0.155809029072060     
  0.155808999779049     
  0.155808972273790     
  0.155808946483761     
  0.155808922331524     
  0.155808899736405     
  0.155808878616094     
  0.155808858888124     
  0.155808840471226     
  0.155808823286540     
  0.155808807258671     
  0.155808792316594     
  0.155808778394377     
  0.155808765431730     
  0.155808753374367     
  0.155809003443083     
  0.155808974756365     
  0.155808947872422     
  0.155808922711473     
  0.155808899189101     
  0.155808877218062     
  0.155808856709976     
  0.155808837576896     
  0.155808819732723     
  0.155808803094469     
  0.155808787583367     
  0.155808773125813     
  0.155808759654140     
  0.155808747107205     
  0.155808735430800     
  0.155808972747003     
  0.155808944802604     
  0.155808918678517     
  0.155808894285966     
  0.155808871531933     
  0.155808850321105     
  0.155808830557685     
  0.155808812147039     
  0.155808794997179     
  0.155808779020089     
  0.155808764132879     
  0.155808750258775     
  0.155808737327942     
  0.155808725278130     
  0.155808714055136     
  0.155808937016533     
  0.155808909959024     
  0.155808884741507     
  0.155808861264333     
  0.155808839424146     
  0.155808819115995     
  0.155808800235250     
  0.155808782679341     
  0.155808766349306     
  0.155808751151166     
  0.155808736997126     
  0.155808723806612     
  0.155808711507146     
  0.155808700035060     
  0.155808689336027     
  0.155808896290586     
  0.155808870274895     
  0.155808846120500     
  0.155808823714839     
  0.155808802942376     
  0.155808783686860     
  0.155808765833366     
  0.155808749270105     
  0.155808733890028     
  0.155808719592240     
  0.155808706283232     
  0.155808693877959     
  0.155808682300773     
  0.155808671486208     
  0.155808661379603     
  0.155808850614792     
  0.155808825808182     
  0.155808802885076     
  0.155808781717804     
  0.155808762176683     
  0.155808744132439     
  0.155808727458344     
  0.155808712032091     
  0.155808697737427     
  0.155808684465579     
  0.155808672116498     
  0.155808660599968     
  0.155808649836579     
  0.155808639758601     
  0.155808630310719     
  0.155808800042235     
  0.155808776626450     
  0.155808755116314     
  0.155808735366688     
  0.155808717231678     
  0.155808700567200     
  0.155808685233206     
  0.155808671095584     
  0.155808658027784     
  0.155808645912213     
  0.155808634641464     
  0.155808624119414     
  0.155808614262240     
  0.155808604999375     
  0.155808596274384     
  0.155808744634448     
  0.155808722808024     
  0.155808702908059     
  0.155808684769422     
  0.155808668227851     
  0.155808653122646     
  0.155808639298941     
  0.155808626609590     
  0.155808614916719     
  0.155808604093045     
  0.155808594023013     
  0.155808584603853     
  0.155808575746607     
  0.155808567377169     
  0.155808559437337     
  0.155808684462736     
  0.155808664443492     
  0.155808646368519     
  0.155808630050028     
  0.155808615303169     
  0.155808601948832     
  0.155808589815914     
  0.155808578743125     
  0.155808568580386     
  0.155808559189972     
  0.155808550447480     
  0.155808542242774     
  0.155808534480977     
  0.155808527083590     
  0.155808519989743     
  0.155808619609908     
  0.155808601637585     
  0.155808585622228     
  0.155808571350587     
  0.155808558614968     
  0.155808547216120     
  0.155808536965445     
  0.155808527686608     
  0.155808519216684     
  0.155808511406973     
  0.155808504123690     
  0.155808497248677     
  0.155808490680308     
  0.155808484334655     
  0.155808478146975     
  0.155808550172470     
  0.155808534511537     
  0.155808520812476     
  0.155808508833625     
  0.155808498342197     
  0.155808489117207     
  0.155808480951554     
  0.155808473653313     
  0.155808467046438     
  0.155808460971084     
  0.155808455283816     
  0.155808449857954     
  0.155808444584265     
  0.155808439372151     
  0.155808434151391     
  0.155808476263379     
  0.155808463206007     
  0.155808452104274     
  0.155808442685013     
  0.155808434688107     
  0.155808427869476     
  0.155808422002906     
  0.155808416880856     
  0.155808412314471     
  0.155808408133134     
  0.155808404183939     
  0.155808400331432     
  0.155808396457945     
  0.155808392464732     
  0.155808388274003     
  0.155808398015411     
  0.155808387884656     
  0.155808379688026     
  0.155808373117519     
  0.155808367883502     
  0.155808363717758     
  0.155808360374955     
  0.155808357632690     
  0.155808355290475     
  0.155808353168122     
  0.155808351104100     
  0.155808348954357     
  0.155808346592066     
  0.155808343908601     
  0.155808340815885     
  0.155808315585204     
  0.155808308738536     
  0.155808303784059     
  0.155808300375226     
  0.155808298190721     
  0.155808296937627     
  0.155808296352355     
  0.155808296199556     
  0.155808296269550     
  0.155808296375001     
  0.155808296347607     
  0.155808296035555     
  0.155808295302350     
  0.155808294027477     
  0.155808292109088     
  0.155808229158041     
  0.155808225991467     
  0.155808224648318     
  0.155808224739111     
  0.155808225908641     
  0.155808227839403     
  0.155808230251698     
  0.155808232900829     
  0.155808235572233     
  0.155808238075617     
  0.155808240239241     
  0.155808241905357     
  0.155808242927683     
  0.155808243171513     
  0.155808242516770     
  0.155808138953417     
  0.155808139906706     
  0.155808142579681     
  0.155808146534298     
  0.155808151379123     
  0.155808156773162     
  0.155808162424670     
  0.155808168085698     
  0.155808173543786     
  0.155808178612427     
  0.155808183121889     
  0.155808186911783     
  0.155808189826542     
  0.155808191714660     
  0.155808192432133     
  0.155808045231465     
  0.155808050795425     
  0.155808057929646     
  0.155808066139769     
  0.155808074995531     
  0.155808084135131     
  0.155808093261773     
  0.155808102134031     
  0.155808110552396     
  0.155808118344473     
  0.155808125350970     
  0.155808131414255     
  0.155808136370959     
  0.155808140049850     
  0.155808142275673     
  0.155807948300468     
  0.155807959027938     
  0.155807971115721     
  0.155807984001814     
  0.155807997214306     
  0.155808010375993     
  0.155808023196696     
  0.155808035456747     
  0.155808046985853     
  0.155808057640968     
  0.155808067285792     
  0.155808075773856     
  0.155808082937017     
  0.155808088581103     
  0.155808092490074     
  0.155807848525955     
  0.155807865049511     
  0.155807882640863     
  0.155807900653327     
  0.155807918570921     
  0.155807936011668     
  0.155807952711334     
  0.155807968495294     
  0.155807983246085     
  0.155807996871654     
  0.155808009276722     
  0.155808020338763     
  0.155808029890417     
  0.155808037711308     
  0.155808043531969     
  0.155807746342713     
  0.155807769404436     
  0.155807793123319     
  0.155807816742305     
  0.155807839701961     
  0.155807861636845     
  0.155807882340958     
  0.155807901719586     
  0.155807919740904     
  0.155807936393046     
  0.155807951646834     
  0.155807965422866     
  0.155807977564867     
  0.155807987823701     
  0.155807995859510     
  0.155807642272853     
  0.155807672776281     
  0.155807703345127     
  0.155807733074891     
  0.155807761374843     
  0.155807787940315     
  0.155807812677980     
  0.155807835623322     
  0.155807856872452     
  0.155807876530188     
  0.155807894666544     
  0.155807911274903     
  0.155807926229311     
  0.155807939253666     
  0.155807949914075     
  0.155807536958552     
  0.155807576062148     
  0.155807614335887     
  0.155807650680424     
  0.155807684524194     
  0.155807715717762     
  0.155807744370440     
  0.155807770715160     
  0.155807795023025     
  0.155807817554631     
  0.155807838521304     
  0.155807858033291     
  0.155807876037652     
  0.155807892242863     
  0.155807906093622     
  0.155807431231127     
  0.155807480528589     
  0.155807527524095     
  0.155807570904153     
  0.155807610284493     
  0.155807645869049     
  0.155807678109100     
  0.155807707504182     
  0.155807734540301     
  0.155807759665566     
  0.155807783272755     
  0.155807805666459     
  0.155807826940932     
  0.155807846863599     
  0.155807864706867     
  0.155807326317892     
  0.155807388170323     
  0.155807445018389     
  0.155807495508437     
  0.155807539971121     
  0.155807579363164     
  0.155807614595616     
  0.155807646478780     
  0.155807675726477     
  0.155807702982386     
  0.155807728845214     
  0.155807753873812     
  0.155807778564314     
  0.155807802832858     
  0.155807825908940     
  0.155807224474035     
  0.155807302755831     
  0.155807370035466     
  0.155807426552646     
  0.155807474973565     
  0.155807517152134     
  0.155807554489164     
  0.155807588079975     
  0.155807618834672     
  0.155807647563543     
  0.155807675050070     
  0.155807702131366     
  0.155807729767645     
  0.155807759301343     
  0.155807789371672     
  0.155807133729610     
  0.155807232219974     
  0.155807306061383     
  0.155807366048789     
  0.155807416519088     
  0.155807460042867     
  0.155807498337246     
  0.155807532672772     
  0.155807564074309     
  0.155807593448693     
  0.155807621691976     
  0.155807649818110     
  0.155807679197637     
  0.155807712053482     
  0.155807754809764     
