# vtk DataFile Version 3.0
vtk output
ASCII
DATASET UNSTRUCTURED_GRID
POINTS       496 double 
  0.00000000E+00  3.00000000E+02  0.00000000E+00
  0.00000000E+00  2.80000000E+02  0.00000000E+00
  0.00000000E+00  2.60000000E+02  0.00000000E+00
  0.00000000E+00  2.40000000E+02  0.00000000E+00
  0.00000000E+00  2.20000000E+02  0.00000000E+00
  0.00000000E+00  2.00000000E+02  0.00000000E+00
  0.00000000E+00  1.80000000E+02  0.00000000E+00
  0.00000000E+00  1.60000000E+02  0.00000000E+00
  0.00000000E+00  1.40000000E+02  0.00000000E+00
  0.00000000E+00  1.20000000E+02  0.00000000E+00
  0.00000000E+00  1.00000000E+02  0.00000000E+00
  0.00000000E+00  8.00000000E+01  0.00000000E+00
  0.00000000E+00  6.00000000E+01  0.00000000E+00
  0.00000000E+00  4.00000000E+01  0.00000000E+00
  0.00000000E+00  2.00000000E+01  0.00000000E+00
  0.00000000E+00  4.99600361E-14  0.00000000E+00
  2.00000000E+01  3.00000000E+02  0.00000000E+00
  2.00000000E+01  2.80000000E+02  0.00000000E+00
  2.00000000E+01  2.60000000E+02  0.00000000E+00
  2.00000000E+01  2.40000000E+02  0.00000000E+00
  2.00000000E+01  2.20000000E+02  0.00000000E+00
  2.00000000E+01  2.00000000E+02  0.00000000E+00
  2.00000000E+01  1.80000000E+02  0.00000000E+00
  2.00000000E+01  1.60000000E+02  0.00000000E+00
  2.00000000E+01  1.40000000E+02  0.00000000E+00
  2.00000000E+01  1.20000000E+02  0.00000000E+00
  2.00000000E+01  1.00000000E+02  0.00000000E+00
  2.00000000E+01  8.00000000E+01  0.00000000E+00
  2.00000000E+01  6.00000000E+01  0.00000000E+00
  2.00000000E+01  4.00000000E+01  0.00000000E+00
  2.00000000E+01  2.00000000E+01  0.00000000E+00
  2.00000000E+01  4.99600361E-14  0.00000000E+00
  4.00000000E+01  3.00000000E+02  0.00000000E+00
  4.00000000E+01  2.80000000E+02  0.00000000E+00
  4.00000000E+01  2.60000000E+02  0.00000000E+00
  4.00000000E+01  2.40000000E+02  0.00000000E+00
  4.00000000E+01  2.20000000E+02  0.00000000E+00
  4.00000000E+01  2.00000000E+02  0.00000000E+00
  4.00000000E+01  1.80000000E+02  0.00000000E+00
  4.00000000E+01  1.60000000E+02  0.00000000E+00
  4.00000000E+01  1.40000000E+02  0.00000000E+00
  4.00000000E+01  1.20000000E+02  0.00000000E+00
  4.00000000E+01  1.00000000E+02  0.00000000E+00
  4.00000000E+01  8.00000000E+01  0.00000000E+00
  4.00000000E+01  6.00000000E+01  0.00000000E+00
  4.00000000E+01  4.00000000E+01  0.00000000E+00
  4.00000000E+01  2.00000000E+01  0.00000000E+00
  4.00000000E+01  4.99600361E-14  0.00000000E+00
  6.00000000E+01  3.00000000E+02  0.00000000E+00
  6.00000000E+01  2.80000000E+02  0.00000000E+00
  6.00000000E+01  2.60000000E+02  0.00000000E+00
  6.00000000E+01  2.40000000E+02  0.00000000E+00
  6.00000000E+01  2.20000000E+02  0.00000000E+00
  6.00000000E+01  2.00000000E+02  0.00000000E+00
  6.00000000E+01  1.80000000E+02  0.00000000E+00
  6.00000000E+01  1.60000000E+02  0.00000000E+00
  6.00000000E+01  1.40000000E+02  0.00000000E+00
  6.00000000E+01  1.20000000E+02  0.00000000E+00
  6.00000000E+01  1.00000000E+02  0.00000000E+00
  6.00000000E+01  8.00000000E+01  0.00000000E+00
  6.00000000E+01  6.00000000E+01  0.00000000E+00
  6.00000000E+01  4.00000000E+01  0.00000000E+00
  6.00000000E+01  2.00000000E+01  0.00000000E+00
  6.00000000E+01  4.99600361E-14  0.00000000E+00
  8.00000000E+01  3.00000000E+02  0.00000000E+00
  8.00000000E+01  2.80000000E+02  0.00000000E+00
  8.00000000E+01  2.60000000E+02  0.00000000E+00
  8.00000000E+01  2.40000000E+02  0.00000000E+00
  8.00000000E+01  2.20000000E+02  0.00000000E+00
  8.00000000E+01  2.00000000E+02  0.00000000E+00
  8.00000000E+01  1.80000000E+02  0.00000000E+00
  8.00000000E+01  1.60000000E+02  0.00000000E+00
  8.00000000E+01  1.40000000E+02  0.00000000E+00
  8.00000000E+01  1.20000000E+02  0.00000000E+00
  8.00000000E+01  1.00000000E+02  0.00000000E+00
  8.00000000E+01  8.00000000E+01  0.00000000E+00
  8.00000000E+01  6.00000000E+01  0.00000000E+00
  8.00000000E+01  4.00000000E+01  0.00000000E+00
  8.00000000E+01  2.00000000E+01  0.00000000E+00
  8.00000000E+01  4.99600361E-14  0.00000000E+00
  1.00000000E+02  3.00000000E+02  0.00000000E+00
  1.00000000E+02  2.80000000E+02  0.00000000E+00
  1.00000000E+02  2.60000000E+02  0.00000000E+00
  1.00000000E+02  2.40000000E+02  0.00000000E+00
  1.00000000E+02  2.20000000E+02  0.00000000E+00
  1.00000000E+02  2.00000000E+02  0.00000000E+00
  1.00000000E+02  1.80000000E+02  0.00000000E+00
  1.00000000E+02  1.60000000E+02  0.00000000E+00
  1.00000000E+02  1.40000000E+02  0.00000000E+00
  1.00000000E+02  1.20000000E+02  0.00000000E+00
  1.00000000E+02  1.00000000E+02  0.00000000E+00
  1.00000000E+02  8.00000000E+01  0.00000000E+00
  1.00000000E+02  6.00000000E+01  0.00000000E+00
  1.00000000E+02  4.00000000E+01  0.00000000E+00
  1.00000000E+02  2.00000000E+01  0.00000000E+00
  1.00000000E+02  4.99600361E-14  0.00000000E+00
  1.20000000E+02  3.00000000E+02  0.00000000E+00
  1.20000000E+02  2.80000000E+02  0.00000000E+00
  1.20000000E+02  2.60000000E+02  0.00000000E+00
  1.20000000E+02  2.40000000E+02  0.00000000E+00
  1.20000000E+02  2.20000000E+02  0.00000000E+00
  1.20000000E+02  2.00000000E+02  0.00000000E+00
  1.20000000E+02  1.80000000E+02  0.00000000E+00
  1.20000000E+02  1.60000000E+02  0.00000000E+00
  1.20000000E+02  1.40000000E+02  0.00000000E+00
  1.20000000E+02  1.20000000E+02  0.00000000E+00
  1.20000000E+02  1.00000000E+02  0.00000000E+00
  1.20000000E+02  8.00000000E+01  0.00000000E+00
  1.20000000E+02  6.00000000E+01  0.00000000E+00
  1.20000000E+02  4.00000000E+01  0.00000000E+00
  1.20000000E+02  2.00000000E+01  0.00000000E+00
  1.20000000E+02  4.99600361E-14  0.00000000E+00
  1.40000000E+02  3.00000000E+02  0.00000000E+00
  1.40000000E+02  2.80000000E+02  0.00000000E+00
  1.40000000E+02  2.60000000E+02  0.00000000E+00
  1.40000000E+02  2.40000000E+02  0.00000000E+00
  1.40000000E+02  2.20000000E+02  0.00000000E+00
  1.40000000E+02  2.00000000E+02  0.00000000E+00
  1.40000000E+02  1.80000000E+02  0.00000000E+00
  1.40000000E+02  1.60000000E+02  0.00000000E+00
  1.40000000E+02  1.40000000E+02  0.00000000E+00
  1.40000000E+02  1.20000000E+02  0.00000000E+00
  1.40000000E+02  1.00000000E+02  0.00000000E+00
  1.40000000E+02  8.00000000E+01  0.00000000E+00
  1.40000000E+02  6.00000000E+01  0.00000000E+00
  1.40000000E+02  4.00000000E+01  0.00000000E+00
  1.40000000E+02  2.00000000E+01  0.00000000E+00
  1.40000000E+02  4.99600361E-14  0.00000000E+00
  1.60000000E+02  3.00000000E+02  0.00000000E+00
  1.60000000E+02  2.80000000E+02  0.00000000E+00
  1.60000000E+02  2.60000000E+02  0.00000000E+00
  1.60000000E+02  2.40000000E+02  0.00000000E+00
  1.60000000E+02  2.20000000E+02  0.00000000E+00
  1.60000000E+02  2.00000000E+02  0.00000000E+00
  1.60000000E+02  1.80000000E+02  0.00000000E+00
  1.60000000E+02  1.60000000E+02  0.00000000E+00
  1.60000000E+02  1.40000000E+02  0.00000000E+00
  1.60000000E+02  1.20000000E+02  0.00000000E+00
  1.60000000E+02  1.00000000E+02  0.00000000E+00
  1.60000000E+02  8.00000000E+01  0.00000000E+00
  1.60000000E+02  6.00000000E+01  0.00000000E+00
  1.60000000E+02  4.00000000E+01  0.00000000E+00
  1.60000000E+02  2.00000000E+01  0.00000000E+00
  1.60000000E+02  4.99600361E-14  0.00000000E+00
  1.80000000E+02  3.00000000E+02  0.00000000E+00
  1.80000000E+02  2.80000000E+02  0.00000000E+00
  1.80000000E+02  2.60000000E+02  0.00000000E+00
  1.80000000E+02  2.40000000E+02  0.00000000E+00
  1.80000000E+02  2.20000000E+02  0.00000000E+00
  1.80000000E+02  2.00000000E+02  0.00000000E+00
  1.80000000E+02  1.80000000E+02  0.00000000E+00
  1.80000000E+02  1.60000000E+02  0.00000000E+00
  1.80000000E+02  1.40000000E+02  0.00000000E+00
  1.80000000E+02  1.20000000E+02  0.00000000E+00
  1.80000000E+02  1.00000000E+02  0.00000000E+00
  1.80000000E+02  8.00000000E+01  0.00000000E+00
  1.80000000E+02  6.00000000E+01  0.00000000E+00
  1.80000000E+02  4.00000000E+01  0.00000000E+00
  1.80000000E+02  2.00000000E+01  0.00000000E+00
  1.80000000E+02  4.99600361E-14  0.00000000E+00
  2.00000000E+02  3.00000000E+02  0.00000000E+00
  2.00000000E+02  2.80000000E+02  0.00000000E+00
  2.00000000E+02  2.60000000E+02  0.00000000E+00
  2.00000000E+02  2.40000000E+02  0.00000000E+00
  2.00000000E+02  2.20000000E+02  0.00000000E+00
  2.00000000E+02  2.00000000E+02  0.00000000E+00
  2.00000000E+02  1.80000000E+02  0.00000000E+00
  2.00000000E+02  1.60000000E+02  0.00000000E+00
  2.00000000E+02  1.40000000E+02  0.00000000E+00
  2.00000000E+02  1.20000000E+02  0.00000000E+00
  2.00000000E+02  1.00000000E+02  0.00000000E+00
  2.00000000E+02  8.00000000E+01  0.00000000E+00
  2.00000000E+02  6.00000000E+01  0.00000000E+00
  2.00000000E+02  4.00000000E+01  0.00000000E+00
  2.00000000E+02  2.00000000E+01  0.00000000E+00
  2.00000000E+02  4.99600361E-14  0.00000000E+00
  2.20000000E+02  3.00000000E+02  0.00000000E+00
  2.20000000E+02  2.80000000E+02  0.00000000E+00
  2.20000000E+02  2.60000000E+02  0.00000000E+00
  2.20000000E+02  2.40000000E+02  0.00000000E+00
  2.20000000E+02  2.20000000E+02  0.00000000E+00
  2.20000000E+02  2.00000000E+02  0.00000000E+00
  2.20000000E+02  1.80000000E+02  0.00000000E+00
  2.20000000E+02  1.60000000E+02  0.00000000E+00
  2.20000000E+02  1.40000000E+02  0.00000000E+00
  2.20000000E+02  1.20000000E+02  0.00000000E+00
  2.20000000E+02  1.00000000E+02  0.00000000E+00
  2.20000000E+02  8.00000000E+01  0.00000000E+00
  2.20000000E+02  6.00000000E+01  0.00000000E+00
  2.20000000E+02  4.00000000E+01  0.00000000E+00
  2.20000000E+02  2.00000000E+01  0.00000000E+00
  2.20000000E+02  4.99600361E-14  0.00000000E+00
  2.40000000E+02  3.00000000E+02  0.00000000E+00
  2.40000000E+02  2.80000000E+02  0.00000000E+00
  2.40000000E+02  2.60000000E+02  0.00000000E+00
  2.40000000E+02  2.40000000E+02  0.00000000E+00
  2.40000000E+02  2.20000000E+02  0.00000000E+00
  2.40000000E+02  2.00000000E+02  0.00000000E+00
  2.40000000E+02  1.80000000E+02  0.00000000E+00
  2.40000000E+02  1.60000000E+02  0.00000000E+00
  2.40000000E+02  1.40000000E+02  0.00000000E+00
  2.40000000E+02  1.20000000E+02  0.00000000E+00
  2.40000000E+02  1.00000000E+02  0.00000000E+00
  2.40000000E+02  8.00000000E+01  0.00000000E+00
  2.40000000E+02  6.00000000E+01  0.00000000E+00
  2.40000000E+02  4.00000000E+01  0.00000000E+00
  2.40000000E+02  2.00000000E+01  0.00000000E+00
  2.40000000E+02  4.99600361E-14  0.00000000E+00
  2.60000000E+02  3.00000000E+02  0.00000000E+00
  2.60000000E+02  2.80000000E+02  0.00000000E+00
  2.60000000E+02  2.60000000E+02  0.00000000E+00
  2.60000000E+02  2.40000000E+02  0.00000000E+00
  2.60000000E+02  2.20000000E+02  0.00000000E+00
  2.60000000E+02  2.00000000E+02  0.00000000E+00
  2.60000000E+02  1.80000000E+02  0.00000000E+00
  2.60000000E+02  1.60000000E+02  0.00000000E+00
  2.60000000E+02  1.40000000E+02  0.00000000E+00
  2.60000000E+02  1.20000000E+02  0.00000000E+00
  2.60000000E+02  1.00000000E+02  0.00000000E+00
  2.60000000E+02  8.00000000E+01  0.00000000E+00
  2.60000000E+02  6.00000000E+01  0.00000000E+00
  2.60000000E+02  4.00000000E+01  0.00000000E+00
  2.60000000E+02  2.00000000E+01  0.00000000E+00
  2.60000000E+02  4.99600361E-14  0.00000000E+00
  2.80000000E+02  3.00000000E+02  0.00000000E+00
  2.80000000E+02  2.80000000E+02  0.00000000E+00
  2.80000000E+02  2.60000000E+02  0.00000000E+00
  2.80000000E+02  2.40000000E+02  0.00000000E+00
  2.80000000E+02  2.20000000E+02  0.00000000E+00
  2.80000000E+02  2.00000000E+02  0.00000000E+00
  2.80000000E+02  1.80000000E+02  0.00000000E+00
  2.80000000E+02  1.60000000E+02  0.00000000E+00
  2.80000000E+02  1.40000000E+02  0.00000000E+00
  2.80000000E+02  1.20000000E+02  0.00000000E+00
  2.80000000E+02  1.00000000E+02  0.00000000E+00
  2.80000000E+02  8.00000000E+01  0.00000000E+00
  2.80000000E+02  6.00000000E+01  0.00000000E+00
  2.80000000E+02  4.00000000E+01  0.00000000E+00
  2.80000000E+02  2.00000000E+01  0.00000000E+00
  2.80000000E+02  4.99600361E-14  0.00000000E+00
  3.00000000E+02  3.00000000E+02  0.00000000E+00
  3.00000000E+02  2.80000000E+02  0.00000000E+00
  3.00000000E+02  2.60000000E+02  0.00000000E+00
  3.00000000E+02  2.40000000E+02  0.00000000E+00
  3.00000000E+02  2.20000000E+02  0.00000000E+00
  3.00000000E+02  2.00000000E+02  0.00000000E+00
  3.00000000E+02  1.80000000E+02  0.00000000E+00
  3.00000000E+02  1.60000000E+02  0.00000000E+00
  3.00000000E+02  1.40000000E+02  0.00000000E+00
  3.00000000E+02  1.20000000E+02  0.00000000E+00
  3.00000000E+02  1.00000000E+02  0.00000000E+00
  3.00000000E+02  8.00000000E+01  0.00000000E+00
  3.00000000E+02  6.00000000E+01  0.00000000E+00
  3.00000000E+02  4.00000000E+01  0.00000000E+00
  3.00000000E+02  2.00000000E+01  0.00000000E+00
  3.00000000E+02  4.99600361E-14  0.00000000E+00
  3.20000000E+02  3.00000000E+02  0.00000000E+00
  3.20000000E+02  2.80000000E+02  0.00000000E+00
  3.20000000E+02  2.60000000E+02  0.00000000E+00
  3.20000000E+02  2.40000000E+02  0.00000000E+00
  3.20000000E+02  2.20000000E+02  0.00000000E+00
  3.20000000E+02  2.00000000E+02  0.00000000E+00
  3.20000000E+02  1.80000000E+02  0.00000000E+00
  3.20000000E+02  1.60000000E+02  0.00000000E+00
  3.20000000E+02  1.40000000E+02  0.00000000E+00
  3.20000000E+02  1.20000000E+02  0.00000000E+00
  3.20000000E+02  1.00000000E+02  0.00000000E+00
  3.20000000E+02  8.00000000E+01  0.00000000E+00
  3.20000000E+02  6.00000000E+01  0.00000000E+00
  3.20000000E+02  4.00000000E+01  0.00000000E+00
  3.20000000E+02  2.00000000E+01  0.00000000E+00
  3.20000000E+02  4.99600361E-14  0.00000000E+00
  3.40000000E+02  3.00000000E+02  0.00000000E+00
  3.40000000E+02  2.80000000E+02  0.00000000E+00
  3.40000000E+02  2.60000000E+02  0.00000000E+00
  3.40000000E+02  2.40000000E+02  0.00000000E+00
  3.40000000E+02  2.20000000E+02  0.00000000E+00
  3.40000000E+02  2.00000000E+02  0.00000000E+00
  3.40000000E+02  1.80000000E+02  0.00000000E+00
  3.40000000E+02  1.60000000E+02  0.00000000E+00
  3.40000000E+02  1.40000000E+02  0.00000000E+00
  3.40000000E+02  1.20000000E+02  0.00000000E+00
  3.40000000E+02  1.00000000E+02  0.00000000E+00
  3.40000000E+02  8.00000000E+01  0.00000000E+00
  3.40000000E+02  6.00000000E+01  0.00000000E+00
  3.40000000E+02  4.00000000E+01  0.00000000E+00
  3.40000000E+02  2.00000000E+01  0.00000000E+00
  3.40000000E+02  4.99600361E-14  0.00000000E+00
  3.60000000E+02  3.00000000E+02  0.00000000E+00
  3.60000000E+02  2.80000000E+02  0.00000000E+00
  3.60000000E+02  2.60000000E+02  0.00000000E+00
  3.60000000E+02  2.40000000E+02  0.00000000E+00
  3.60000000E+02  2.20000000E+02  0.00000000E+00
  3.60000000E+02  2.00000000E+02  0.00000000E+00
  3.60000000E+02  1.80000000E+02  0.00000000E+00
  3.60000000E+02  1.60000000E+02  0.00000000E+00
  3.60000000E+02  1.40000000E+02  0.00000000E+00
  3.60000000E+02  1.20000000E+02  0.00000000E+00
  3.60000000E+02  1.00000000E+02  0.00000000E+00
  3.60000000E+02  8.00000000E+01  0.00000000E+00
  3.60000000E+02  6.00000000E+01  0.00000000E+00
  3.60000000E+02  4.00000000E+01  0.00000000E+00
  3.60000000E+02  2.00000000E+01  0.00000000E+00
  3.60000000E+02  4.99600361E-14  0.00000000E+00
  3.80000000E+02  3.00000000E+02  0.00000000E+00
  3.80000000E+02  2.80000000E+02  0.00000000E+00
  3.80000000E+02  2.60000000E+02  0.00000000E+00
  3.80000000E+02  2.40000000E+02  0.00000000E+00
  3.80000000E+02  2.20000000E+02  0.00000000E+00
  3.80000000E+02  2.00000000E+02  0.00000000E+00
  3.80000000E+02  1.80000000E+02  0.00000000E+00
  3.80000000E+02  1.60000000E+02  0.00000000E+00
  3.80000000E+02  1.40000000E+02  0.00000000E+00
  3.80000000E+02  1.20000000E+02  0.00000000E+00
  3.80000000E+02  1.00000000E+02  0.00000000E+00
  3.80000000E+02  8.00000000E+01  0.00000000E+00
  3.80000000E+02  6.00000000E+01  0.00000000E+00
  3.80000000E+02  4.00000000E+01  0.00000000E+00
  3.80000000E+02  2.00000000E+01  0.00000000E+00
  3.80000000E+02  4.99600361E-14  0.00000000E+00
  4.00000000E+02  3.00000000E+02  0.00000000E+00
  4.00000000E+02  2.80000000E+02  0.00000000E+00
  4.00000000E+02  2.60000000E+02  0.00000000E+00
  4.00000000E+02  2.40000000E+02  0.00000000E+00
  4.00000000E+02  2.20000000E+02  0.00000000E+00
  4.00000000E+02  2.00000000E+02  0.00000000E+00
  4.00000000E+02  1.80000000E+02  0.00000000E+00
  4.00000000E+02  1.60000000E+02  0.00000000E+00
  4.00000000E+02  1.40000000E+02  0.00000000E+00
  4.00000000E+02  1.20000000E+02  0.00000000E+00
  4.00000000E+02  1.00000000E+02  0.00000000E+00
  4.00000000E+02  8.00000000E+01  0.00000000E+00
  4.00000000E+02  6.00000000E+01  0.00000000E+00
  4.00000000E+02  4.00000000E+01  0.00000000E+00
  4.00000000E+02  2.00000000E+01  0.00000000E+00
  4.00000000E+02  4.99600361E-14  0.00000000E+00
  4.20000000E+02  3.00000000E+02  0.00000000E+00
  4.20000000E+02  2.80000000E+02  0.00000000E+00
  4.20000000E+02  2.60000000E+02  0.00000000E+00
  4.20000000E+02  2.40000000E+02  0.00000000E+00
  4.20000000E+02  2.20000000E+02  0.00000000E+00
  4.20000000E+02  2.00000000E+02  0.00000000E+00
  4.20000000E+02  1.80000000E+02  0.00000000E+00
  4.20000000E+02  1.60000000E+02  0.00000000E+00
  4.20000000E+02  1.40000000E+02  0.00000000E+00
  4.20000000E+02  1.20000000E+02  0.00000000E+00
  4.20000000E+02  1.00000000E+02  0.00000000E+00
  4.20000000E+02  8.00000000E+01  0.00000000E+00
  4.20000000E+02  6.00000000E+01  0.00000000E+00
  4.20000000E+02  4.00000000E+01  0.00000000E+00
  4.20000000E+02  2.00000000E+01  0.00000000E+00
  4.20000000E+02  4.99600361E-14  0.00000000E+00
  4.40000000E+02  3.00000000E+02  0.00000000E+00
  4.40000000E+02  2.80000000E+02  0.00000000E+00
  4.40000000E+02  2.60000000E+02  0.00000000E+00
  4.40000000E+02  2.40000000E+02  0.00000000E+00
  4.40000000E+02  2.20000000E+02  0.00000000E+00
  4.40000000E+02  2.00000000E+02  0.00000000E+00
  4.40000000E+02  1.80000000E+02  0.00000000E+00
  4.40000000E+02  1.60000000E+02  0.00000000E+00
  4.40000000E+02  1.40000000E+02  0.00000000E+00
  4.40000000E+02  1.20000000E+02  0.00000000E+00
  4.40000000E+02  1.00000000E+02  0.00000000E+00
  4.40000000E+02  8.00000000E+01  0.00000000E+00
  4.40000000E+02  6.00000000E+01  0.00000000E+00
  4.40000000E+02  4.00000000E+01  0.00000000E+00
  4.40000000E+02  2.00000000E+01  0.00000000E+00
  4.40000000E+02  4.99600361E-14  0.00000000E+00
  4.60000000E+02  3.00000000E+02  0.00000000E+00
  4.60000000E+02  2.80000000E+02  0.00000000E+00
  4.60000000E+02  2.60000000E+02  0.00000000E+00
  4.60000000E+02  2.40000000E+02  0.00000000E+00
  4.60000000E+02  2.20000000E+02  0.00000000E+00
  4.60000000E+02  2.00000000E+02  0.00000000E+00
  4.60000000E+02  1.80000000E+02  0.00000000E+00
  4.60000000E+02  1.60000000E+02  0.00000000E+00
  4.60000000E+02  1.40000000E+02  0.00000000E+00
  4.60000000E+02  1.20000000E+02  0.00000000E+00
  4.60000000E+02  1.00000000E+02  0.00000000E+00
  4.60000000E+02  8.00000000E+01  0.00000000E+00
  4.60000000E+02  6.00000000E+01  0.00000000E+00
  4.60000000E+02  4.00000000E+01  0.00000000E+00
  4.60000000E+02  2.00000000E+01  0.00000000E+00
  4.60000000E+02  4.99600361E-14  0.00000000E+00
  4.80000000E+02  3.00000000E+02  0.00000000E+00
  4.80000000E+02  2.80000000E+02  0.00000000E+00
  4.80000000E+02  2.60000000E+02  0.00000000E+00
  4.80000000E+02  2.40000000E+02  0.00000000E+00
  4.80000000E+02  2.20000000E+02  0.00000000E+00
  4.80000000E+02  2.00000000E+02  0.00000000E+00
  4.80000000E+02  1.80000000E+02  0.00000000E+00
  4.80000000E+02  1.60000000E+02  0.00000000E+00
  4.80000000E+02  1.40000000E+02  0.00000000E+00
  4.80000000E+02  1.20000000E+02  0.00000000E+00
  4.80000000E+02  1.00000000E+02  0.00000000E+00
  4.80000000E+02  8.00000000E+01  0.00000000E+00
  4.80000000E+02  6.00000000E+01  0.00000000E+00
  4.80000000E+02  4.00000000E+01  0.00000000E+00
  4.80000000E+02  2.00000000E+01  0.00000000E+00
  4.80000000E+02  4.99600361E-14  0.00000000E+00
  5.00000000E+02  3.00000000E+02  0.00000000E+00
  5.00000000E+02  2.80000000E+02  0.00000000E+00
  5.00000000E+02  2.60000000E+02  0.00000000E+00
  5.00000000E+02  2.40000000E+02  0.00000000E+00
  5.00000000E+02  2.20000000E+02  0.00000000E+00
  5.00000000E+02  2.00000000E+02  0.00000000E+00
  5.00000000E+02  1.80000000E+02  0.00000000E+00
  5.00000000E+02  1.60000000E+02  0.00000000E+00
  5.00000000E+02  1.40000000E+02  0.00000000E+00
  5.00000000E+02  1.20000000E+02  0.00000000E+00
  5.00000000E+02  1.00000000E+02  0.00000000E+00
  5.00000000E+02  8.00000000E+01  0.00000000E+00
  5.00000000E+02  6.00000000E+01  0.00000000E+00
  5.00000000E+02  4.00000000E+01  0.00000000E+00
  5.00000000E+02  2.00000000E+01  0.00000000E+00
  5.00000000E+02  4.99600361E-14  0.00000000E+00
  5.20000000E+02  3.00000000E+02  0.00000000E+00
  5.20000000E+02  2.80000000E+02  0.00000000E+00
  5.20000000E+02  2.60000000E+02  0.00000000E+00
  5.20000000E+02  2.40000000E+02  0.00000000E+00
  5.20000000E+02  2.20000000E+02  0.00000000E+00
  5.20000000E+02  2.00000000E+02  0.00000000E+00
  5.20000000E+02  1.80000000E+02  0.00000000E+00
  5.20000000E+02  1.60000000E+02  0.00000000E+00
  5.20000000E+02  1.40000000E+02  0.00000000E+00
  5.20000000E+02  1.20000000E+02  0.00000000E+00
  5.20000000E+02  1.00000000E+02  0.00000000E+00
  5.20000000E+02  8.00000000E+01  0.00000000E+00
  5.20000000E+02  6.00000000E+01  0.00000000E+00
  5.20000000E+02  4.00000000E+01  0.00000000E+00
  5.20000000E+02  2.00000000E+01  0.00000000E+00
  5.20000000E+02  4.99600361E-14  0.00000000E+00
  5.40000000E+02  3.00000000E+02  0.00000000E+00
  5.40000000E+02  2.80000000E+02  0.00000000E+00
  5.40000000E+02  2.60000000E+02  0.00000000E+00
  5.40000000E+02  2.40000000E+02  0.00000000E+00
  5.40000000E+02  2.20000000E+02  0.00000000E+00
  5.40000000E+02  2.00000000E+02  0.00000000E+00
  5.40000000E+02  1.80000000E+02  0.00000000E+00
  5.40000000E+02  1.60000000E+02  0.00000000E+00
  5.40000000E+02  1.40000000E+02  0.00000000E+00
  5.40000000E+02  1.20000000E+02  0.00000000E+00
  5.40000000E+02  1.00000000E+02  0.00000000E+00
  5.40000000E+02  8.00000000E+01  0.00000000E+00
  5.40000000E+02  6.00000000E+01  0.00000000E+00
  5.40000000E+02  4.00000000E+01  0.00000000E+00
  5.40000000E+02  2.00000000E+01  0.00000000E+00
  5.40000000E+02  4.99600361E-14  0.00000000E+00
  5.60000000E+02  3.00000000E+02  0.00000000E+00
  5.60000000E+02  2.80000000E+02  0.00000000E+00
  5.60000000E+02  2.60000000E+02  0.00000000E+00
  5.60000000E+02  2.40000000E+02  0.00000000E+00
  5.60000000E+02  2.20000000E+02  0.00000000E+00
  5.60000000E+02  2.00000000E+02  0.00000000E+00
  5.60000000E+02  1.80000000E+02  0.00000000E+00
  5.60000000E+02  1.60000000E+02  0.00000000E+00
  5.60000000E+02  1.40000000E+02  0.00000000E+00
  5.60000000E+02  1.20000000E+02  0.00000000E+00
  5.60000000E+02  1.00000000E+02  0.00000000E+00
  5.60000000E+02  8.00000000E+01  0.00000000E+00
  5.60000000E+02  6.00000000E+01  0.00000000E+00
  5.60000000E+02  4.00000000E+01  0.00000000E+00
  5.60000000E+02  2.00000000E+01  0.00000000E+00
  5.60000000E+02  4.99600361E-14  0.00000000E+00
  5.80000000E+02  3.00000000E+02  0.00000000E+00
  5.80000000E+02  2.80000000E+02  0.00000000E+00
  5.80000000E+02  2.60000000E+02  0.00000000E+00
  5.80000000E+02  2.40000000E+02  0.00000000E+00
  5.80000000E+02  2.20000000E+02  0.00000000E+00
  5.80000000E+02  2.00000000E+02  0.00000000E+00
  5.80000000E+02  1.80000000E+02  0.00000000E+00
  5.80000000E+02  1.60000000E+02  0.00000000E+00
  5.80000000E+02  1.40000000E+02  0.00000000E+00
  5.80000000E+02  1.20000000E+02  0.00000000E+00
  5.80000000E+02  1.00000000E+02  0.00000000E+00
  5.80000000E+02  8.00000000E+01  0.00000000E+00
  5.80000000E+02  6.00000000E+01  0.00000000E+00
  5.80000000E+02  4.00000000E+01  0.00000000E+00
  5.80000000E+02  2.00000000E+01  0.00000000E+00
  5.80000000E+02  4.99600361E-14  0.00000000E+00
  6.00000000E+02  3.00000000E+02  0.00000000E+00
  6.00000000E+02  2.80000000E+02  0.00000000E+00
  6.00000000E+02  2.60000000E+02  0.00000000E+00
  6.00000000E+02  2.40000000E+02  0.00000000E+00
  6.00000000E+02  2.20000000E+02  0.00000000E+00
  6.00000000E+02  2.00000000E+02  0.00000000E+00
  6.00000000E+02  1.80000000E+02  0.00000000E+00
  6.00000000E+02  1.60000000E+02  0.00000000E+00
  6.00000000E+02  1.40000000E+02  0.00000000E+00
  6.00000000E+02  1.20000000E+02  0.00000000E+00
  6.00000000E+02  1.00000000E+02  0.00000000E+00
  6.00000000E+02  8.00000000E+01  0.00000000E+00
  6.00000000E+02  6.00000000E+01  0.00000000E+00
  6.00000000E+02  4.00000000E+01  0.00000000E+00
  6.00000000E+02  2.00000000E+01  0.00000000E+00
  6.00000000E+02  4.99600361E-14  0.00000000E+00
CELLS       450      2250
         4           0           1          17          16
         4           1           2          18          17
         4           2           3          19          18
         4           3           4          20          19
         4           4           5          21          20
         4           5           6          22          21
         4           6           7          23          22
         4           7           8          24          23
         4           8           9          25          24
         4           9          10          26          25
         4          10          11          27          26
         4          11          12          28          27
         4          12          13          29          28
         4          13          14          30          29
         4          14          15          31          30
         4          16          17          33          32
         4          17          18          34          33
         4          18          19          35          34
         4          19          20          36          35
         4          20          21          37          36
         4          21          22          38          37
         4          22          23          39          38
         4          23          24          40          39
         4          24          25          41          40
         4          25          26          42          41
         4          26          27          43          42
         4          27          28          44          43
         4          28          29          45          44
         4          29          30          46          45
         4          30          31          47          46
         4          32          33          49          48
         4          33          34          50          49
         4          34          35          51          50
         4          35          36          52          51
         4          36          37          53          52
         4          37          38          54          53
         4          38          39          55          54
         4          39          40          56          55
         4          40          41          57          56
         4          41          42          58          57
         4          42          43          59          58
         4          43          44          60          59
         4          44          45          61          60
         4          45          46          62          61
         4          46          47          63          62
         4          48          49          65          64
         4          49          50          66          65
         4          50          51          67          66
         4          51          52          68          67
         4          52          53          69          68
         4          53          54          70          69
         4          54          55          71          70
         4          55          56          72          71
         4          56          57          73          72
         4          57          58          74          73
         4          58          59          75          74
         4          59          60          76          75
         4          60          61          77          76
         4          61          62          78          77
         4          62          63          79          78
         4          64          65          81          80
         4          65          66          82          81
         4          66          67          83          82
         4          67          68          84          83
         4          68          69          85          84
         4          69          70          86          85
         4          70          71          87          86
         4          71          72          88          87
         4          72          73          89          88
         4          73          74          90          89
         4          74          75          91          90
         4          75          76          92          91
         4          76          77          93          92
         4          77          78          94          93
         4          78          79          95          94
         4          80          81          97          96
         4          81          82          98          97
         4          82          83          99          98
         4          83          84         100          99
         4          84          85         101         100
         4          85          86         102         101
         4          86          87         103         102
         4          87          88         104         103
         4          88          89         105         104
         4          89          90         106         105
         4          90          91         107         106
         4          91          92         108         107
         4          92          93         109         108
         4          93          94         110         109
         4          94          95         111         110
         4          96          97         113         112
         4          97          98         114         113
         4          98          99         115         114
         4          99         100         116         115
         4         100         101         117         116
         4         101         102         118         117
         4         102         103         119         118
         4         103         104         120         119
         4         104         105         121         120
         4         105         106         122         121
         4         106         107         123         122
         4         107         108         124         123
         4         108         109         125         124
         4         109         110         126         125
         4         110         111         127         126
         4         112         113         129         128
         4         113         114         130         129
         4         114         115         131         130
         4         115         116         132         131
         4         116         117         133         132
         4         117         118         134         133
         4         118         119         135         134
         4         119         120         136         135
         4         120         121         137         136
         4         121         122         138         137
         4         122         123         139         138
         4         123         124         140         139
         4         124         125         141         140
         4         125         126         142         141
         4         126         127         143         142
         4         128         129         145         144
         4         129         130         146         145
         4         130         131         147         146
         4         131         132         148         147
         4         132         133         149         148
         4         133         134         150         149
         4         134         135         151         150
         4         135         136         152         151
         4         136         137         153         152
         4         137         138         154         153
         4         138         139         155         154
         4         139         140         156         155
         4         140         141         157         156
         4         141         142         158         157
         4         142         143         159         158
         4         144         145         161         160
         4         145         146         162         161
         4         146         147         163         162
         4         147         148         164         163
         4         148         149         165         164
         4         149         150         166         165
         4         150         151         167         166
         4         151         152         168         167
         4         152         153         169         168
         4         153         154         170         169
         4         154         155         171         170
         4         155         156         172         171
         4         156         157         173         172
         4         157         158         174         173
         4         158         159         175         174
         4         160         161         177         176
         4         161         162         178         177
         4         162         163         179         178
         4         163         164         180         179
         4         164         165         181         180
         4         165         166         182         181
         4         166         167         183         182
         4         167         168         184         183
         4         168         169         185         184
         4         169         170         186         185
         4         170         171         187         186
         4         171         172         188         187
         4         172         173         189         188
         4         173         174         190         189
         4         174         175         191         190
         4         176         177         193         192
         4         177         178         194         193
         4         178         179         195         194
         4         179         180         196         195
         4         180         181         197         196
         4         181         182         198         197
         4         182         183         199         198
         4         183         184         200         199
         4         184         185         201         200
         4         185         186         202         201
         4         186         187         203         202
         4         187         188         204         203
         4         188         189         205         204
         4         189         190         206         205
         4         190         191         207         206
         4         192         193         209         208
         4         193         194         210         209
         4         194         195         211         210
         4         195         196         212         211
         4         196         197         213         212
         4         197         198         214         213
         4         198         199         215         214
         4         199         200         216         215
         4         200         201         217         216
         4         201         202         218         217
         4         202         203         219         218
         4         203         204         220         219
         4         204         205         221         220
         4         205         206         222         221
         4         206         207         223         222
         4         208         209         225         224
         4         209         210         226         225
         4         210         211         227         226
         4         211         212         228         227
         4         212         213         229         228
         4         213         214         230         229
         4         214         215         231         230
         4         215         216         232         231
         4         216         217         233         232
         4         217         218         234         233
         4         218         219         235         234
         4         219         220         236         235
         4         220         221         237         236
         4         221         222         238         237
         4         222         223         239         238
         4         224         225         241         240
         4         225         226         242         241
         4         226         227         243         242
         4         227         228         244         243
         4         228         229         245         244
         4         229         230         246         245
         4         230         231         247         246
         4         231         232         248         247
         4         232         233         249         248
         4         233         234         250         249
         4         234         235         251         250
         4         235         236         252         251
         4         236         237         253         252
         4         237         238         254         253
         4         238         239         255         254
         4         240         241         257         256
         4         241         242         258         257
         4         242         243         259         258
         4         243         244         260         259
         4         244         245         261         260
         4         245         246         262         261
         4         246         247         263         262
         4         247         248         264         263
         4         248         249         265         264
         4         249         250         266         265
         4         250         251         267         266
         4         251         252         268         267
         4         252         253         269         268
         4         253         254         270         269
         4         254         255         271         270
         4         256         257         273         272
         4         257         258         274         273
         4         258         259         275         274
         4         259         260         276         275
         4         260         261         277         276
         4         261         262         278         277
         4         262         263         279         278
         4         263         264         280         279
         4         264         265         281         280
         4         265         266         282         281
         4         266         267         283         282
         4         267         268         284         283
         4         268         269         285         284
         4         269         270         286         285
         4         270         271         287         286
         4         272         273         289         288
         4         273         274         290         289
         4         274         275         291         290
         4         275         276         292         291
         4         276         277         293         292
         4         277         278         294         293
         4         278         279         295         294
         4         279         280         296         295
         4         280         281         297         296
         4         281         282         298         297
         4         282         283         299         298
         4         283         284         300         299
         4         284         285         301         300
         4         285         286         302         301
         4         286         287         303         302
         4         288         289         305         304
         4         289         290         306         305
         4         290         291         307         306
         4         291         292         308         307
         4         292         293         309         308
         4         293         294         310         309
         4         294         295         311         310
         4         295         296         312         311
         4         296         297         313         312
         4         297         298         314         313
         4         298         299         315         314
         4         299         300         316         315
         4         300         301         317         316
         4         301         302         318         317
         4         302         303         319         318
         4         304         305         321         320
         4         305         306         322         321
         4         306         307         323         322
         4         307         308         324         323
         4         308         309         325         324
         4         309         310         326         325
         4         310         311         327         326
         4         311         312         328         327
         4         312         313         329         328
         4         313         314         330         329
         4         314         315         331         330
         4         315         316         332         331
         4         316         317         333         332
         4         317         318         334         333
         4         318         319         335         334
         4         320         321         337         336
         4         321         322         338         337
         4         322         323         339         338
         4         323         324         340         339
         4         324         325         341         340
         4         325         326         342         341
         4         326         327         343         342
         4         327         328         344         343
         4         328         329         345         344
         4         329         330         346         345
         4         330         331         347         346
         4         331         332         348         347
         4         332         333         349         348
         4         333         334         350         349
         4         334         335         351         350
         4         336         337         353         352
         4         337         338         354         353
         4         338         339         355         354
         4         339         340         356         355
         4         340         341         357         356
         4         341         342         358         357
         4         342         343         359         358
         4         343         344         360         359
         4         344         345         361         360
         4         345         346         362         361
         4         346         347         363         362
         4         347         348         364         363
         4         348         349         365         364
         4         349         350         366         365
         4         350         351         367         366
         4         352         353         369         368
         4         353         354         370         369
         4         354         355         371         370
         4         355         356         372         371
         4         356         357         373         372
         4         357         358         374         373
         4         358         359         375         374
         4         359         360         376         375
         4         360         361         377         376
         4         361         362         378         377
         4         362         363         379         378
         4         363         364         380         379
         4         364         365         381         380
         4         365         366         382         381
         4         366         367         383         382
         4         368         369         385         384
         4         369         370         386         385
         4         370         371         387         386
         4         371         372         388         387
         4         372         373         389         388
         4         373         374         390         389
         4         374         375         391         390
         4         375         376         392         391
         4         376         377         393         392
         4         377         378         394         393
         4         378         379         395         394
         4         379         380         396         395
         4         380         381         397         396
         4         381         382         398         397
         4         382         383         399         398
         4         384         385         401         400
         4         385         386         402         401
         4         386         387         403         402
         4         387         388         404         403
         4         388         389         405         404
         4         389         390         406         405
         4         390         391         407         406
         4         391         392         408         407
         4         392         393         409         408
         4         393         394         410         409
         4         394         395         411         410
         4         395         396         412         411
         4         396         397         413         412
         4         397         398         414         413
         4         398         399         415         414
         4         400         401         417         416
         4         401         402         418         417
         4         402         403         419         418
         4         403         404         420         419
         4         404         405         421         420
         4         405         406         422         421
         4         406         407         423         422
         4         407         408         424         423
         4         408         409         425         424
         4         409         410         426         425
         4         410         411         427         426
         4         411         412         428         427
         4         412         413         429         428
         4         413         414         430         429
         4         414         415         431         430
         4         416         417         433         432
         4         417         418         434         433
         4         418         419         435         434
         4         419         420         436         435
         4         420         421         437         436
         4         421         422         438         437
         4         422         423         439         438
         4         423         424         440         439
         4         424         425         441         440
         4         425         426         442         441
         4         426         427         443         442
         4         427         428         444         443
         4         428         429         445         444
         4         429         430         446         445
         4         430         431         447         446
         4         432         433         449         448
         4         433         434         450         449
         4         434         435         451         450
         4         435         436         452         451
         4         436         437         453         452
         4         437         438         454         453
         4         438         439         455         454
         4         439         440         456         455
         4         440         441         457         456
         4         441         442         458         457
         4         442         443         459         458
         4         443         444         460         459
         4         444         445         461         460
         4         445         446         462         461
         4         446         447         463         462
         4         448         449         465         464
         4         449         450         466         465
         4         450         451         467         466
         4         451         452         468         467
         4         452         453         469         468
         4         453         454         470         469
         4         454         455         471         470
         4         455         456         472         471
         4         456         457         473         472
         4         457         458         474         473
         4         458         459         475         474
         4         459         460         476         475
         4         460         461         477         476
         4         461         462         478         477
         4         462         463         479         478
         4         464         465         481         480
         4         465         466         482         481
         4         466         467         483         482
         4         467         468         484         483
         4         468         469         485         484
         4         469         470         486         485
         4         470         471         487         486
         4         471         472         488         487
         4         472         473         489         488
         4         473         474         490         489
         4         474         475         491         490
         4         475         476         492         491
         4         476         477         493         492
         4         477         478         494         493
         4         478         479         495         494
CELL_TYPES        450
9
9
9
9
9
9
9
9
9
9
9
9
9
9
9
9
9
9
9
9
9
9
9
9
9
9
9
9
9
9
9
9
9
9
9
9
9
9
9
9
9
9
9
9
9
9
9
9
9
9
9
9
9
9
9
9
9
9
9
9
9
9
9
9
9
9
9
9
9
9
9
9
9
9
9
9
9
9
9
9
9
9
9
9
9
9
9
9
9
9
9
9
9
9
9
9
9
9
9
9
9
9
9
9
9
9
9
9
9
9
9
9
9
9
9
9
9
9
9
9
9
9
9
9
9
9
9
9
9
9
9
9
9
9
9
9
9
9
9
9
9
9
9
9
9
9
9
9
9
9
9
9
9
9
9
9
9
9
9
9
9
9
9
9
9
9
9
9
9
9
9
9
9
9
9
9
9
9
9
9
9
9
9
9
9
9
9
9
9
9
9
9
9
9
9
9
9
9
9
9
9
9
9
9
9
9
9
9
9
9
9
9
9
9
9
9
9
9
9
9
9
9
9
9
9
9
9
9
9
9
9
9
9
9
9
9
9
9
9
9
9
9
9
9
9
9
9
9
9
9
9
9
9
9
9
9
9
9
9
9
9
9
9
9
9
9
9
9
9
9
9
9
9
9
9
9
9
9
9
9
9
9
9
9
9
9
9
9
9
9
9
9
9
9
9
9
9
9
9
9
9
9
9
9
9
9
9
9
9
9
9
9
9
9
9
9
9
9
9
9
9
9
9
9
9
9
9
9
9
9
9
9
9
9
9
9
9
9
9
9
9
9
9
9
9
9
9
9
9
9
9
9
9
9
9
9
9
9
9
9
9
9
9
9
9
9
9
9
9
9
9
9
9
9
9
9
9
9
9
9
9
9
9
9
9
9
9
9
9
9
9
9
9
9
9
9
9
9
9
9
9
9
9
9
9
9
9
9
9
9
9
9
9
9
9
9
9
9
9
9
9
9
9
9
9
9
9
9
9
9
9
9
9
9
9
9
9
9
9
9
9
9
9
9
9
9
9
9
9
9
POINT_DATA       496
SCALARS p double 
LOOKUP_TABLE default
   10000000.0000042     
   10000000.0000042     
   10000000.0000042     
   10000000.0000042     
   10000000.0000042     
   10000000.0000042     
   10000000.0000042     
   10000000.0000041     
   10000000.0000041     
   10000000.0000041     
   10000000.0000041     
   10000000.0000041     
   10000000.0000041     
   10000000.0000041     
   10000000.0000041     
   10000000.0000041     
   10000000.0000042     
   10000000.0000042     
   10000000.0000042     
   10000000.0000042     
   10000000.0000042     
   10000000.0000042     
   10000000.0000041     
   10000000.0000041     
   10000000.0000041     
   10000000.0000041     
   10000000.0000041     
   10000000.0000041     
   10000000.0000041     
   10000000.0000041     
   10000000.0000041     
   10000000.0000041     
   10000000.0000041     
   10000000.0000041     
   10000000.0000041     
   10000000.0000041     
   10000000.0000041     
   10000000.0000041     
   10000000.0000041     
   10000000.0000041     
   10000000.0000041     
   10000000.0000041     
   10000000.0000041     
   10000000.0000041     
   10000000.0000041     
   10000000.0000041     
   10000000.0000041     
   10000000.0000041     
   10000000.0000041     
   10000000.0000041     
   10000000.0000041     
   10000000.0000041     
   10000000.0000041     
   10000000.0000041     
   10000000.0000041     
   10000000.0000041     
   10000000.0000041     
   10000000.0000041     
   10000000.0000041     
   10000000.0000041     
   10000000.0000041     
   10000000.0000041     
   10000000.0000041     
   10000000.0000041     
   10000000.0000041     
   10000000.0000041     
   10000000.0000041     
   10000000.0000041     
   10000000.0000041     
   10000000.0000040     
   10000000.0000040     
   10000000.0000040     
   10000000.0000040     
   10000000.0000040     
   10000000.0000040     
   10000000.0000040     
   10000000.0000040     
   10000000.0000040     
   10000000.0000040     
   10000000.0000040     
   10000000.0000040     
   10000000.0000040     
   10000000.0000040     
   10000000.0000040     
   10000000.0000040     
   10000000.0000040     
   10000000.0000040     
   10000000.0000040     
   10000000.0000040     
   10000000.0000040     
   10000000.0000040     
   10000000.0000040     
   10000000.0000040     
   10000000.0000040     
   10000000.0000039     
   10000000.0000039     
   10000000.0000040     
   10000000.0000039     
   10000000.0000039     
   10000000.0000039     
   10000000.0000039     
   10000000.0000039     
   10000000.0000039     
   10000000.0000039     
   10000000.0000039     
   10000000.0000039     
   10000000.0000039     
   10000000.0000039     
   10000000.0000039     
   10000000.0000039     
   10000000.0000039     
   10000000.0000039     
   10000000.0000039     
   10000000.0000039     
   10000000.0000039     
   10000000.0000039     
   10000000.0000038     
   10000000.0000038     
   10000000.0000038     
   10000000.0000038     
   10000000.0000038     
   10000000.0000038     
   10000000.0000038     
   10000000.0000038     
   10000000.0000038     
   10000000.0000038     
   10000000.0000038     
   10000000.0000038     
   10000000.0000038     
   10000000.0000038     
   10000000.0000038     
   10000000.0000038     
   10000000.0000038     
   10000000.0000037     
   10000000.0000037     
   10000000.0000037     
   10000000.0000037     
   10000000.0000037     
   10000000.0000037     
   10000000.0000037     
   10000000.0000037     
   10000000.0000037     
   10000000.0000037     
   10000000.0000037     
   10000000.0000037     
   10000000.0000037     
   10000000.0000037     
   10000000.0000036     
   10000000.0000036     
   10000000.0000036     
   10000000.0000036     
   10000000.0000036     
   10000000.0000036     
   10000000.0000036     
   10000000.0000036     
   10000000.0000036     
   10000000.0000036     
   10000000.0000036     
   10000000.0000036     
   10000000.0000036     
   10000000.0000035     
   10000000.0000035     
   10000000.0000035     
   10000000.0000035     
   10000000.0000035     
   10000000.0000035     
   10000000.0000035     
   10000000.0000035     
   10000000.0000035     
   10000000.0000035     
   10000000.0000035     
   10000000.0000035     
   10000000.0000035     
   10000000.0000035     
   10000000.0000035     
   10000000.0000035     
   10000000.0000034     
   10000000.0000034     
   10000000.0000034     
   10000000.0000034     
   10000000.0000034     
   10000000.0000034     
   10000000.0000034     
   10000000.0000034     
   10000000.0000034     
   10000000.0000034     
   10000000.0000034     
   10000000.0000034     
   10000000.0000034     
   10000000.0000034     
   10000000.0000034     
   10000000.0000034     
   10000000.0000033     
   10000000.0000033     
   10000000.0000033     
   10000000.0000033     
   10000000.0000033     
   10000000.0000033     
   10000000.0000033     
   10000000.0000033     
   10000000.0000032     
   10000000.0000032     
   10000000.0000032     
   10000000.0000032     
   10000000.0000032     
   10000000.0000032     
   10000000.0000032     
   10000000.0000032     
   10000000.0000031     
   10000000.0000031     
   10000000.0000031     
   10000000.0000031     
   10000000.0000031     
   10000000.0000031     
   10000000.0000031     
   10000000.0000031     
   10000000.0000031     
   10000000.0000031     
   10000000.0000031     
   10000000.0000031     
   10000000.0000031     
   10000000.0000031     
   10000000.0000031     
   10000000.0000031     
   10000000.0000030     
   10000000.0000030     
   10000000.0000030     
   10000000.0000030     
   10000000.0000030     
   10000000.0000030     
   10000000.0000030     
   10000000.0000030     
   10000000.0000030     
   10000000.0000030     
   10000000.0000030     
   10000000.0000029     
   10000000.0000029     
   10000000.0000029     
   10000000.0000029     
   10000000.0000029     
   10000000.0000028     
   10000000.0000028     
   10000000.0000028     
   10000000.0000028     
   10000000.0000028     
   10000000.0000028     
   10000000.0000028     
   10000000.0000028     
   10000000.0000028     
   10000000.0000028     
   10000000.0000028     
   10000000.0000028     
   10000000.0000028     
   10000000.0000028     
   10000000.0000028     
   10000000.0000028     
   10000000.0000026     
   10000000.0000026     
   10000000.0000026     
   10000000.0000026     
   10000000.0000026     
   10000000.0000026     
   10000000.0000026     
   10000000.0000026     
   10000000.0000026     
   10000000.0000026     
   10000000.0000026     
   10000000.0000026     
   10000000.0000026     
   10000000.0000026     
   10000000.0000026     
   10000000.0000026     
   10000000.0000025     
   10000000.0000025     
   10000000.0000025     
   10000000.0000025     
   10000000.0000025     
   10000000.0000025     
   10000000.0000025     
   10000000.0000025     
   10000000.0000025     
   10000000.0000025     
   10000000.0000025     
   10000000.0000025     
   10000000.0000025     
   10000000.0000025     
   10000000.0000025     
   10000000.0000025     
   10000000.0000023     
   10000000.0000023     
   10000000.0000023     
   10000000.0000023     
   10000000.0000023     
   10000000.0000023     
   10000000.0000023     
   10000000.0000023     
   10000000.0000023     
   10000000.0000023     
   10000000.0000023     
   10000000.0000023     
   10000000.0000023     
   10000000.0000023     
   10000000.0000023     
   10000000.0000023     
   10000000.0000021     
   10000000.0000021     
   10000000.0000021     
   10000000.0000021     
   10000000.0000021     
   10000000.0000021     
   10000000.0000021     
   10000000.0000021     
   10000000.0000021     
   10000000.0000021     
   10000000.0000021     
   10000000.0000021     
   10000000.0000021     
   10000000.0000021     
   10000000.0000021     
   10000000.0000021     
   10000000.0000019     
   10000000.0000019     
   10000000.0000019     
   10000000.0000019     
   10000000.0000019     
   10000000.0000019     
   10000000.0000019     
   10000000.0000019     
   10000000.0000019     
   10000000.0000019     
   10000000.0000019     
   10000000.0000019     
   10000000.0000019     
   10000000.0000019     
   10000000.0000019     
   10000000.0000019     
   10000000.0000017     
   10000000.0000017     
   10000000.0000017     
   10000000.0000017     
   10000000.0000017     
   10000000.0000017     
   10000000.0000017     
   10000000.0000017     
   10000000.0000017     
   10000000.0000017     
   10000000.0000017     
   10000000.0000017     
   10000000.0000017     
   10000000.0000017     
   10000000.0000017     
   10000000.0000017     
   10000000.0000015     
   10000000.0000015     
   10000000.0000015     
   10000000.0000016     
   10000000.0000015     
   10000000.0000015     
   10000000.0000015     
   10000000.0000015     
   10000000.0000015     
   10000000.0000015     
   10000000.0000015     
   10000000.0000015     
   10000000.0000015     
   10000000.0000016     
   10000000.0000016     
   10000000.0000015     
   10000000.0000013     
   10000000.0000013     
   10000000.0000014     
   10000000.0000014     
   10000000.0000014     
   10000000.0000014     
   10000000.0000013     
   10000000.0000013     
   10000000.0000013     
   10000000.0000013     
   10000000.0000014     
   10000000.0000014     
   10000000.0000014     
   10000000.0000014     
   10000000.0000014     
   10000000.0000014     
   10000000.0000012     
   10000000.0000012     
   10000000.0000012     
   10000000.0000012     
   10000000.0000012     
   10000000.0000012     
   10000000.0000012     
   10000000.0000012     
   10000000.0000012     
   10000000.0000012     
   10000000.0000012     
   10000000.0000012     
   10000000.0000012     
   10000000.0000012     
   10000000.0000012     
   10000000.0000012     
   10000000.0000010     
   10000000.0000010     
   10000000.0000010     
   10000000.0000010     
   10000000.0000010     
   10000000.0000010     
   10000000.0000010     
   10000000.0000010     
   10000000.0000010     
   10000000.0000010     
   10000000.0000010     
   10000000.0000010     
   10000000.0000010     
   10000000.0000010     
   10000000.0000010     
   10000000.0000010     
   10000000.0000008     
   10000000.0000008     
   10000000.0000008     
   10000000.0000008     
   10000000.0000008     
   10000000.0000008     
   10000000.0000008     
   10000000.0000008     
   10000000.0000008     
   10000000.0000008     
   10000000.0000008     
   10000000.0000008     
   10000000.0000008     
   10000000.0000008     
   10000000.0000008     
   10000000.0000008     
   10000000.0000006     
   10000000.0000006     
   10000000.0000006     
   10000000.0000006     
   10000000.0000006     
   10000000.0000006     
   10000000.0000006     
   10000000.0000006     
   10000000.0000006     
   10000000.0000006     
   10000000.0000006     
   10000000.0000006     
   10000000.0000006     
   10000000.0000006     
   10000000.0000006     
   10000000.0000006     
   10000000.0000004     
   10000000.0000004     
   10000000.0000004     
   10000000.0000004     
   10000000.0000004     
   10000000.0000004     
   10000000.0000004     
   10000000.0000004     
   10000000.0000004     
   10000000.0000004     
   10000000.0000004     
   10000000.0000004     
   10000000.0000004     
   10000000.0000004     
   10000000.0000004     
   10000000.0000004     
   10000000.0000002     
   10000000.0000002     
   10000000.0000002     
   10000000.0000002     
   10000000.0000002     
   10000000.0000002     
   10000000.0000002     
   10000000.0000002     
   10000000.0000002     
   10000000.0000002     
   10000000.0000002     
   10000000.0000002     
   10000000.0000002     
   10000000.0000002     
   10000000.0000002     
   10000000.0000002     
   10000000.0000000     
   10000000.0000000     
   10000000.0000000     
   10000000.0000000     
   10000000.0000000     
   10000000.0000000     
   10000000.0000000     
   10000000.0000000     
   10000000.0000000     
   10000000.0000000     
   10000000.0000000     
   10000000.0000000     
   10000000.0000000     
  10000000.00000000     
   10000000.0000000     
   10000000.0000000     
VECTORS u double 
    0.00000E+00        -0.57692E-01         0.00000E+00
    0.00000E+00        -0.53846E-01         0.00000E+00
    0.00000E+00        -0.50000E-01         0.00000E+00
    0.00000E+00        -0.46154E-01         0.00000E+00
    0.00000E+00        -0.42308E-01         0.00000E+00
    0.00000E+00        -0.38462E-01         0.00000E+00
    0.00000E+00        -0.34615E-01         0.00000E+00
    0.00000E+00        -0.30769E-01         0.00000E+00
    0.00000E+00        -0.26923E-01         0.00000E+00
    0.00000E+00        -0.23077E-01         0.00000E+00
    0.00000E+00        -0.19231E-01         0.00000E+00
    0.00000E+00        -0.15385E-01         0.00000E+00
    0.00000E+00        -0.11538E-01         0.00000E+00
    0.00000E+00        -0.76923E-02         0.00000E+00
    0.00000E+00        -0.38462E-02         0.00000E+00
    0.00000E+00         0.00000E+00         0.00000E+00
    0.14431E-15        -0.57692E-01         0.00000E+00
    0.13278E-15        -0.53846E-01         0.00000E+00
    0.11560E-15        -0.50000E-01         0.00000E+00
    0.10596E-15        -0.46154E-01         0.00000E+00
    0.95036E-16        -0.42308E-01         0.00000E+00
    0.87233E-16        -0.38462E-01         0.00000E+00
    0.78255E-16        -0.34615E-01         0.00000E+00
    0.70611E-16        -0.30769E-01         0.00000E+00
    0.62213E-16        -0.26923E-01         0.00000E+00
    0.54402E-16        -0.23077E-01         0.00000E+00
    0.45184E-16        -0.19231E-01         0.00000E+00
    0.37136E-16        -0.15385E-01         0.00000E+00
    0.28231E-16        -0.11538E-01         0.00000E+00
    0.19082E-16        -0.76923E-02         0.00000E+00
    0.95176E-17        -0.38462E-02         0.00000E+00
    0.00000E+00         0.00000E+00         0.00000E+00
    0.29018E-15        -0.57692E-01         0.00000E+00
    0.26331E-15        -0.53846E-01         0.00000E+00
    0.23229E-15        -0.50000E-01         0.00000E+00
    0.21209E-15        -0.46154E-01         0.00000E+00
    0.18886E-15        -0.42308E-01         0.00000E+00
    0.17394E-15        -0.38462E-01         0.00000E+00
    0.15633E-15        -0.34615E-01         0.00000E+00
    0.14096E-15        -0.30769E-01         0.00000E+00
    0.12399E-15        -0.26923E-01         0.00000E+00
    0.10774E-15        -0.23077E-01         0.00000E+00
    0.90676E-16        -0.19231E-01         0.00000E+00
    0.73356E-16        -0.15385E-01         0.00000E+00
    0.56115E-16        -0.11538E-01         0.00000E+00
    0.38068E-16        -0.76923E-02         0.00000E+00
    0.19680E-16        -0.38462E-02         0.00000E+00
    0.00000E+00         0.00000E+00         0.00000E+00
    0.43356E-15        -0.57692E-01         0.00000E+00
    0.39043E-15        -0.53846E-01         0.00000E+00
    0.34956E-15        -0.50000E-01         0.00000E+00
    0.31524E-15        -0.46154E-01         0.00000E+00
    0.28409E-15        -0.42308E-01         0.00000E+00
    0.26060E-15        -0.38462E-01         0.00000E+00
    0.23362E-15        -0.34615E-01         0.00000E+00
    0.20857E-15        -0.30769E-01         0.00000E+00
    0.18347E-15        -0.26923E-01         0.00000E+00
    0.16048E-15        -0.23077E-01         0.00000E+00
    0.13539E-15        -0.19231E-01         0.00000E+00
    0.11006E-15        -0.15385E-01         0.00000E+00
    0.83600E-16        -0.11538E-01         0.00000E+00
    0.56754E-16        -0.76923E-02         0.00000E+00
    0.29261E-16        -0.38462E-02         0.00000E+00
    0.00000E+00         0.00000E+00         0.00000E+00
    0.56824E-15        -0.57692E-01         0.00000E+00
    0.51738E-15        -0.53846E-01         0.00000E+00
    0.46069E-15        -0.50000E-01         0.00000E+00
    0.41968E-15        -0.46154E-01         0.00000E+00
    0.37836E-15        -0.42308E-01         0.00000E+00
    0.34244E-15        -0.38462E-01         0.00000E+00
    0.30885E-15        -0.34615E-01         0.00000E+00
    0.27557E-15        -0.30769E-01         0.00000E+00
    0.24275E-15        -0.26923E-01         0.00000E+00
    0.21267E-15        -0.23077E-01         0.00000E+00
    0.17851E-15        -0.19231E-01         0.00000E+00
    0.14616E-15        -0.15385E-01         0.00000E+00
    0.11154E-15        -0.11538E-01         0.00000E+00
    0.75611E-16        -0.76923E-02         0.00000E+00
    0.38857E-16        -0.38462E-02         0.00000E+00
    0.00000E+00         0.00000E+00         0.00000E+00
    0.70108E-15        -0.57692E-01         0.00000E+00
    0.63804E-15        -0.53846E-01         0.00000E+00
    0.57074E-15        -0.50000E-01         0.00000E+00
    0.51916E-15        -0.46154E-01         0.00000E+00
    0.46714E-15        -0.42308E-01         0.00000E+00
    0.42150E-15        -0.38462E-01         0.00000E+00
    0.38113E-15        -0.34615E-01         0.00000E+00
    0.33980E-15        -0.30769E-01         0.00000E+00
    0.30041E-15        -0.26923E-01         0.00000E+00
    0.26116E-15        -0.23077E-01         0.00000E+00
    0.22072E-15        -0.19231E-01         0.00000E+00
    0.18035E-15        -0.15385E-01         0.00000E+00
    0.13795E-15        -0.11538E-01         0.00000E+00
    0.93823E-16        -0.76923E-02         0.00000E+00
    0.48663E-16        -0.38462E-02         0.00000E+00
    0.00000E+00         0.00000E+00         0.00000E+00
    0.83173E-15        -0.57692E-01         0.00000E+00
    0.75292E-15        -0.53846E-01         0.00000E+00
    0.67720E-15        -0.50000E-01         0.00000E+00
    0.61399E-15        -0.46154E-01         0.00000E+00
    0.55407E-15        -0.42308E-01         0.00000E+00
    0.49876E-15        -0.38462E-01         0.00000E+00
    0.45055E-15        -0.34615E-01         0.00000E+00
    0.40187E-15        -0.30769E-01         0.00000E+00
    0.35468E-15        -0.26923E-01         0.00000E+00
    0.30829E-15        -0.23077E-01         0.00000E+00
    0.26119E-15        -0.19231E-01         0.00000E+00
    0.21228E-15        -0.15385E-01         0.00000E+00
    0.16272E-15        -0.11538E-01         0.00000E+00
    0.11145E-15        -0.76923E-02         0.00000E+00
    0.57594E-16        -0.38462E-02         0.00000E+00
    0.00000E+00         0.00000E+00         0.00000E+00
    0.95216E-15        -0.57692E-01         0.00000E+00
    0.86447E-15        -0.53846E-01         0.00000E+00
    0.77788E-15        -0.50000E-01         0.00000E+00
    0.70372E-15        -0.46154E-01         0.00000E+00
    0.63646E-15        -0.42308E-01         0.00000E+00
    0.57304E-15        -0.38462E-01         0.00000E+00
    0.51469E-15        -0.34615E-01         0.00000E+00
    0.45869E-15        -0.30769E-01         0.00000E+00
    0.40662E-15        -0.26923E-01         0.00000E+00
    0.35323E-15        -0.23077E-01         0.00000E+00
    0.29953E-15        -0.19231E-01         0.00000E+00
    0.24225E-15        -0.15385E-01         0.00000E+00
    0.18700E-15        -0.11538E-01         0.00000E+00
    0.12737E-15        -0.76923E-02         0.00000E+00
    0.66064E-16        -0.38462E-02         0.00000E+00
    0.00000E+00         0.00000E+00         0.00000E+00
    0.10674E-14        -0.57692E-01         0.00000E+00
    0.96876E-15        -0.53846E-01         0.00000E+00
    0.87323E-15        -0.50000E-01         0.00000E+00
    0.78935E-15        -0.46154E-01         0.00000E+00
    0.71256E-15        -0.42308E-01         0.00000E+00
    0.64290E-15        -0.38462E-01         0.00000E+00
    0.57523E-15        -0.34615E-01         0.00000E+00
    0.51248E-15        -0.30769E-01         0.00000E+00
    0.45418E-15        -0.26923E-01         0.00000E+00
    0.39483E-15        -0.23077E-01         0.00000E+00
    0.33354E-15        -0.19231E-01         0.00000E+00
    0.27222E-15        -0.15385E-01         0.00000E+00
    0.20929E-15        -0.11538E-01         0.00000E+00
    0.14335E-15        -0.76923E-02         0.00000E+00
    0.73857E-16        -0.38462E-02         0.00000E+00
    0.00000E+00         0.00000E+00         0.00000E+00
    0.11769E-14        -0.57692E-01         0.00000E+00
    0.10642E-14        -0.53846E-01         0.00000E+00
    0.95914E-15        -0.50000E-01         0.00000E+00
    0.86761E-15        -0.46154E-01         0.00000E+00
    0.78197E-15        -0.42308E-01         0.00000E+00
    0.70635E-15        -0.38462E-01         0.00000E+00
    0.63213E-15        -0.34615E-01         0.00000E+00
    0.56223E-15        -0.30769E-01         0.00000E+00
    0.49805E-15        -0.26923E-01         0.00000E+00
    0.43320E-15        -0.23077E-01         0.00000E+00
    0.36644E-15        -0.19231E-01         0.00000E+00
    0.30021E-15        -0.15385E-01         0.00000E+00
    0.22964E-15        -0.11538E-01         0.00000E+00
    0.15758E-15        -0.76923E-02         0.00000E+00
    0.81683E-16        -0.38462E-02         0.00000E+00
    0.00000E+00         0.00000E+00         0.00000E+00
    0.12737E-14        -0.57692E-01         0.00000E+00
    0.11514E-14        -0.53846E-01         0.00000E+00
    0.10385E-14        -0.50000E-01         0.00000E+00
    0.93647E-15        -0.46154E-01         0.00000E+00
    0.84762E-15        -0.42308E-01         0.00000E+00
    0.76167E-15        -0.38462E-01         0.00000E+00
    0.68377E-15        -0.34615E-01         0.00000E+00
    0.60837E-15        -0.30769E-01         0.00000E+00
    0.53911E-15        -0.26923E-01         0.00000E+00
    0.46858E-15        -0.23077E-01         0.00000E+00
    0.39645E-15        -0.19231E-01         0.00000E+00
    0.32406E-15        -0.15385E-01         0.00000E+00
    0.24843E-15        -0.11538E-01         0.00000E+00
    0.17079E-15        -0.76923E-02         0.00000E+00
    0.89162E-16        -0.38462E-02         0.00000E+00
    0.00000E+00         0.00000E+00         0.00000E+00
    0.13604E-14        -0.57692E-01         0.00000E+00
    0.12307E-14        -0.53846E-01         0.00000E+00
    0.11072E-14        -0.50000E-01         0.00000E+00
    0.10008E-14        -0.46154E-01         0.00000E+00
    0.90440E-15        -0.42308E-01         0.00000E+00
    0.81188E-15        -0.38462E-01         0.00000E+00
    0.72871E-15        -0.34615E-01         0.00000E+00
    0.65018E-15        -0.30769E-01         0.00000E+00
    0.57412E-15        -0.26923E-01         0.00000E+00
    0.49947E-15        -0.23077E-01         0.00000E+00
    0.42282E-15        -0.19231E-01         0.00000E+00
    0.34602E-15        -0.15385E-01         0.00000E+00
    0.26567E-15        -0.11538E-01         0.00000E+00
    0.18204E-15        -0.76923E-02         0.00000E+00
    0.95574E-16        -0.38462E-02         0.00000E+00
    0.00000E+00         0.00000E+00         0.00000E+00
    0.14387E-14        -0.57692E-01         0.00000E+00
    0.12982E-14        -0.53846E-01         0.00000E+00
    0.11672E-14        -0.50000E-01         0.00000E+00
    0.10553E-14        -0.46154E-01         0.00000E+00
    0.95173E-15        -0.42308E-01         0.00000E+00
    0.85538E-15        -0.38462E-01         0.00000E+00
    0.76868E-15        -0.34615E-01         0.00000E+00
    0.68415E-15        -0.30769E-01         0.00000E+00
    0.60398E-15        -0.26923E-01         0.00000E+00
    0.52630E-15        -0.23077E-01         0.00000E+00
    0.44617E-15        -0.19231E-01         0.00000E+00
    0.36484E-15        -0.15385E-01         0.00000E+00
    0.28061E-15        -0.11538E-01         0.00000E+00
    0.19307E-15        -0.76923E-02         0.00000E+00
    0.10069E-15        -0.38462E-02         0.00000E+00
    0.00000E+00         0.00000E+00         0.00000E+00
    0.15039E-14        -0.57692E-01         0.00000E+00
    0.13563E-14        -0.53846E-01         0.00000E+00
    0.12182E-14        -0.50000E-01         0.00000E+00
    0.11003E-14        -0.46154E-01         0.00000E+00
    0.99211E-15        -0.42308E-01         0.00000E+00
    0.89365E-15        -0.38462E-01         0.00000E+00
    0.80072E-15        -0.34615E-01         0.00000E+00
    0.71337E-15        -0.30769E-01         0.00000E+00
    0.62939E-15        -0.26923E-01         0.00000E+00
    0.54750E-15        -0.23077E-01         0.00000E+00
    0.46520E-15        -0.19231E-01         0.00000E+00
    0.38044E-15        -0.15385E-01         0.00000E+00
    0.29291E-15        -0.11538E-01         0.00000E+00
    0.20230E-15        -0.76923E-02         0.00000E+00
    0.10514E-15        -0.38462E-02         0.00000E+00
    0.00000E+00         0.00000E+00         0.00000E+00
    0.15580E-14        -0.57692E-01         0.00000E+00
    0.14008E-14        -0.53846E-01         0.00000E+00
    0.12583E-14        -0.50000E-01         0.00000E+00
    0.11355E-14        -0.46154E-01         0.00000E+00
    0.10239E-14        -0.42308E-01         0.00000E+00
    0.92199E-15        -0.38462E-01         0.00000E+00
    0.82629E-15        -0.34615E-01         0.00000E+00
    0.73638E-15        -0.30769E-01         0.00000E+00
    0.64998E-15        -0.26923E-01         0.00000E+00
    0.56613E-15        -0.23077E-01         0.00000E+00
    0.48025E-15        -0.19231E-01         0.00000E+00
    0.39384E-15        -0.15385E-01         0.00000E+00
    0.30345E-15        -0.11538E-01         0.00000E+00
    0.20889E-15        -0.76923E-02         0.00000E+00
    0.10964E-15        -0.38462E-02         0.00000E+00
    0.00000E+00         0.00000E+00         0.00000E+00
    0.15932E-14        -0.57692E-01         0.00000E+00
    0.14349E-14        -0.53846E-01         0.00000E+00
    0.12864E-14        -0.50000E-01         0.00000E+00
    0.11602E-14        -0.46154E-01         0.00000E+00
    0.10466E-14        -0.42308E-01         0.00000E+00
    0.94160E-15        -0.38462E-01         0.00000E+00
    0.84430E-15        -0.34615E-01         0.00000E+00
    0.75425E-15        -0.30769E-01         0.00000E+00
    0.66456E-15        -0.26923E-01         0.00000E+00
    0.57942E-15        -0.23077E-01         0.00000E+00
    0.49283E-15        -0.19231E-01         0.00000E+00
    0.40459E-15        -0.15385E-01         0.00000E+00
    0.31177E-15        -0.11538E-01         0.00000E+00
    0.21556E-15        -0.76923E-02         0.00000E+00
    0.11172E-15        -0.38462E-02         0.00000E+00
    0.00000E+00         0.00000E+00         0.00000E+00
    0.16174E-14        -0.57692E-01         0.00000E+00
    0.14542E-14        -0.53846E-01         0.00000E+00
    0.13024E-14        -0.50000E-01         0.00000E+00
    0.11742E-14        -0.46154E-01         0.00000E+00
    0.10602E-14        -0.42308E-01         0.00000E+00
    0.95052E-15        -0.38462E-01         0.00000E+00
    0.85480E-15        -0.34615E-01         0.00000E+00
    0.76435E-15        -0.30769E-01         0.00000E+00
    0.67302E-15        -0.26923E-01         0.00000E+00
    0.58832E-15        -0.23077E-01         0.00000E+00
    0.50144E-15        -0.19231E-01         0.00000E+00
    0.41129E-15        -0.15385E-01         0.00000E+00
    0.31881E-15        -0.11538E-01         0.00000E+00
    0.22044E-15        -0.76923E-02         0.00000E+00
    0.11498E-15        -0.38462E-02         0.00000E+00
    0.00000E+00         0.00000E+00         0.00000E+00
    0.16260E-14        -0.57692E-01         0.00000E+00
    0.14588E-14        -0.53846E-01         0.00000E+00
    0.13047E-14        -0.50000E-01         0.00000E+00
    0.11775E-14        -0.46154E-01         0.00000E+00
    0.10607E-14        -0.42308E-01         0.00000E+00
    0.95198E-15        -0.38462E-01         0.00000E+00
    0.85544E-15        -0.34615E-01         0.00000E+00
    0.76614E-15        -0.30769E-01         0.00000E+00
    0.67585E-15        -0.26923E-01         0.00000E+00
    0.59184E-15        -0.23077E-01         0.00000E+00
    0.50488E-15        -0.19231E-01         0.00000E+00
    0.41625E-15        -0.15385E-01         0.00000E+00
    0.32300E-15        -0.11538E-01         0.00000E+00
    0.22408E-15        -0.76923E-02         0.00000E+00
    0.11655E-15        -0.38462E-02         0.00000E+00
    0.00000E+00         0.00000E+00         0.00000E+00
    0.16196E-14        -0.57692E-01         0.00000E+00
    0.14481E-14        -0.53846E-01         0.00000E+00
    0.12954E-14        -0.50000E-01         0.00000E+00
    0.11673E-14        -0.46154E-01         0.00000E+00
    0.10490E-14        -0.42308E-01         0.00000E+00
    0.94457E-15        -0.38462E-01         0.00000E+00
    0.84757E-15        -0.34615E-01         0.00000E+00
    0.75982E-15        -0.30769E-01         0.00000E+00
    0.67144E-15        -0.26923E-01         0.00000E+00
    0.58884E-15        -0.23077E-01         0.00000E+00
    0.50482E-15        -0.19231E-01         0.00000E+00
    0.41794E-15        -0.15385E-01         0.00000E+00
    0.32533E-15        -0.11538E-01         0.00000E+00
    0.22550E-15        -0.76923E-02         0.00000E+00
    0.11849E-15        -0.38462E-02         0.00000E+00
    0.00000E+00         0.00000E+00         0.00000E+00
    0.15942E-14        -0.57692E-01         0.00000E+00
    0.14224E-14        -0.53846E-01         0.00000E+00
    0.12703E-14        -0.50000E-01         0.00000E+00
    0.11411E-14        -0.46154E-01         0.00000E+00
    0.10288E-14        -0.42308E-01         0.00000E+00
    0.92404E-15        -0.38462E-01         0.00000E+00
    0.83178E-15        -0.34615E-01         0.00000E+00
    0.74570E-15        -0.30769E-01         0.00000E+00
    0.66226E-15        -0.26923E-01         0.00000E+00
    0.58110E-15        -0.23077E-01         0.00000E+00
    0.49968E-15        -0.19231E-01         0.00000E+00
    0.41507E-15        -0.15385E-01         0.00000E+00
    0.32441E-15        -0.11538E-01         0.00000E+00
    0.22590E-15        -0.76923E-02         0.00000E+00
    0.11927E-15        -0.38462E-02         0.00000E+00
    0.00000E+00         0.00000E+00         0.00000E+00
    0.15506E-14        -0.57692E-01         0.00000E+00
    0.13822E-14        -0.53846E-01         0.00000E+00
    0.12291E-14        -0.50000E-01         0.00000E+00
    0.11046E-14        -0.46154E-01         0.00000E+00
    0.99511E-15        -0.42308E-01         0.00000E+00
    0.89576E-15        -0.38462E-01         0.00000E+00
    0.80634E-15        -0.34615E-01         0.00000E+00
    0.72419E-15        -0.30769E-01         0.00000E+00
    0.64736E-15        -0.26923E-01         0.00000E+00
    0.56761E-15        -0.23077E-01         0.00000E+00
    0.49139E-15        -0.19231E-01         0.00000E+00
    0.40886E-15        -0.15385E-01         0.00000E+00
    0.32134E-15        -0.11538E-01         0.00000E+00
    0.22449E-15        -0.76923E-02         0.00000E+00
    0.11890E-15        -0.38462E-02         0.00000E+00
    0.00000E+00         0.00000E+00         0.00000E+00
    0.14911E-14        -0.57692E-01         0.00000E+00
    0.13237E-14        -0.53846E-01         0.00000E+00
    0.11755E-14        -0.50000E-01         0.00000E+00
    0.10558E-14        -0.46154E-01         0.00000E+00
    0.95052E-15        -0.42308E-01         0.00000E+00
    0.85826E-15        -0.38462E-01         0.00000E+00
    0.77230E-15        -0.34615E-01         0.00000E+00
    0.69550E-15        -0.30769E-01         0.00000E+00
    0.62342E-15        -0.26923E-01         0.00000E+00
    0.55009E-15        -0.23077E-01         0.00000E+00
    0.47635E-15        -0.19231E-01         0.00000E+00
    0.39890E-15        -0.15385E-01         0.00000E+00
    0.31407E-15        -0.11538E-01         0.00000E+00
    0.22024E-15        -0.76923E-02         0.00000E+00
    0.11746E-15        -0.38462E-02         0.00000E+00
    0.00000E+00         0.00000E+00         0.00000E+00
    0.14103E-14        -0.57692E-01         0.00000E+00
    0.12486E-14        -0.53846E-01         0.00000E+00
    0.11056E-14        -0.50000E-01         0.00000E+00
    0.99339E-15        -0.46154E-01         0.00000E+00
    0.89526E-15        -0.42308E-01         0.00000E+00
    0.80787E-15        -0.38462E-01         0.00000E+00
    0.72905E-15        -0.34615E-01         0.00000E+00
    0.65944E-15        -0.30769E-01         0.00000E+00
    0.59146E-15        -0.26923E-01         0.00000E+00
    0.52414E-15        -0.23077E-01         0.00000E+00
    0.45570E-15        -0.19231E-01         0.00000E+00
    0.38306E-15        -0.15385E-01         0.00000E+00
    0.30329E-15        -0.11538E-01         0.00000E+00
    0.21404E-15        -0.76923E-02         0.00000E+00
    0.11415E-15        -0.38462E-02         0.00000E+00
    0.00000E+00         0.00000E+00         0.00000E+00
    0.13109E-14        -0.57692E-01         0.00000E+00
    0.11555E-14        -0.53846E-01         0.00000E+00
    0.10204E-14        -0.50000E-01         0.00000E+00
    0.91638E-15        -0.46154E-01         0.00000E+00
    0.82468E-15        -0.42308E-01         0.00000E+00
    0.74617E-15        -0.38462E-01         0.00000E+00
    0.67383E-15        -0.34615E-01         0.00000E+00
    0.61374E-15        -0.30769E-01         0.00000E+00
    0.55091E-15        -0.26923E-01         0.00000E+00
    0.49181E-15        -0.23077E-01         0.00000E+00
    0.42825E-15        -0.19231E-01         0.00000E+00
    0.36156E-15        -0.15385E-01         0.00000E+00
    0.28785E-15        -0.11538E-01         0.00000E+00
    0.20496E-15        -0.76923E-02         0.00000E+00
    0.10977E-15        -0.38462E-02         0.00000E+00
    0.00000E+00         0.00000E+00         0.00000E+00
    0.11904E-14        -0.57692E-01         0.00000E+00
    0.10452E-14        -0.53846E-01         0.00000E+00
    0.92039E-15        -0.50000E-01         0.00000E+00
    0.82483E-15        -0.46154E-01         0.00000E+00
    0.74244E-15        -0.42308E-01         0.00000E+00
    0.67332E-15        -0.38462E-01         0.00000E+00
    0.61217E-15        -0.34615E-01         0.00000E+00
    0.55806E-15        -0.30769E-01         0.00000E+00
    0.50192E-15        -0.26923E-01         0.00000E+00
    0.45065E-15        -0.23077E-01         0.00000E+00
    0.39417E-15        -0.19231E-01         0.00000E+00
    0.33582E-15        -0.15385E-01         0.00000E+00
    0.26762E-15        -0.11538E-01         0.00000E+00
    0.19245E-15        -0.76923E-02         0.00000E+00
    0.10425E-15        -0.38462E-02         0.00000E+00
    0.00000E+00         0.00000E+00         0.00000E+00
    0.10479E-14        -0.57692E-01         0.00000E+00
    0.91614E-15        -0.53846E-01         0.00000E+00
    0.80280E-15        -0.50000E-01         0.00000E+00
    0.71939E-15        -0.46154E-01         0.00000E+00
    0.64779E-15        -0.42308E-01         0.00000E+00
    0.58984E-15        -0.38462E-01         0.00000E+00
    0.53970E-15        -0.34615E-01         0.00000E+00
    0.49223E-15        -0.30769E-01         0.00000E+00
    0.44427E-15        -0.26923E-01         0.00000E+00
    0.40014E-15        -0.23077E-01         0.00000E+00
    0.35277E-15        -0.19231E-01         0.00000E+00
    0.30207E-15        -0.15385E-01         0.00000E+00
    0.24318E-15        -0.11538E-01         0.00000E+00
    0.17483E-15        -0.76923E-02         0.00000E+00
    0.96652E-16        -0.38462E-02         0.00000E+00
    0.00000E+00         0.00000E+00         0.00000E+00
    0.88711E-15        -0.57692E-01         0.00000E+00
    0.76806E-15        -0.53846E-01         0.00000E+00
    0.67047E-15        -0.50000E-01         0.00000E+00
    0.60245E-15        -0.46154E-01         0.00000E+00
    0.54298E-15        -0.42308E-01         0.00000E+00
    0.49409E-15        -0.38462E-01         0.00000E+00
    0.45663E-15        -0.34615E-01         0.00000E+00
    0.41681E-15        -0.30769E-01         0.00000E+00
    0.37742E-15        -0.26923E-01         0.00000E+00
    0.34196E-15        -0.23077E-01         0.00000E+00
    0.30306E-15        -0.19231E-01         0.00000E+00
    0.26087E-15        -0.15385E-01         0.00000E+00
    0.21156E-15        -0.11538E-01         0.00000E+00
    0.15428E-15        -0.76923E-02         0.00000E+00
    0.86068E-16        -0.38462E-02         0.00000E+00
    0.00000E+00         0.00000E+00         0.00000E+00
    0.69963E-15        -0.57692E-01         0.00000E+00
    0.59959E-15        -0.53846E-01         0.00000E+00
    0.52376E-15        -0.50000E-01         0.00000E+00
    0.47083E-15        -0.46154E-01         0.00000E+00
    0.42646E-15        -0.42308E-01         0.00000E+00
    0.38759E-15        -0.38462E-01         0.00000E+00
    0.36042E-15        -0.34615E-01         0.00000E+00
    0.33113E-15        -0.30769E-01         0.00000E+00
    0.30159E-15        -0.26923E-01         0.00000E+00
    0.27365E-15        -0.23077E-01         0.00000E+00
    0.24480E-15        -0.19231E-01         0.00000E+00
    0.21223E-15        -0.15385E-01         0.00000E+00
    0.17332E-15        -0.11538E-01         0.00000E+00
    0.12854E-15        -0.76923E-02         0.00000E+00
    0.72992E-16        -0.38462E-02         0.00000E+00
    0.00000E+00         0.00000E+00         0.00000E+00
    0.48566E-15        -0.57692E-01         0.00000E+00
    0.41550E-15        -0.53846E-01         0.00000E+00
    0.36290E-15        -0.50000E-01         0.00000E+00
    0.32785E-15        -0.46154E-01         0.00000E+00
    0.29720E-15        -0.42308E-01         0.00000E+00
    0.27017E-15        -0.38462E-01         0.00000E+00
    0.25404E-15        -0.34615E-01         0.00000E+00
    0.23315E-15        -0.30769E-01         0.00000E+00
    0.21469E-15        -0.26923E-01         0.00000E+00
    0.19456E-15        -0.23077E-01         0.00000E+00
    0.17552E-15        -0.19231E-01         0.00000E+00
    0.15399E-15        -0.15385E-01         0.00000E+00
    0.12649E-15        -0.11538E-01         0.00000E+00
    0.94556E-16        -0.76923E-02         0.00000E+00
    0.55307E-16        -0.38462E-02         0.00000E+00
    0.00000E+00         0.00000E+00         0.00000E+00
    0.25481E-15        -0.57692E-01         0.00000E+00
    0.21457E-15        -0.53846E-01         0.00000E+00
    0.18884E-15        -0.50000E-01         0.00000E+00
    0.16999E-15        -0.46154E-01         0.00000E+00
    0.15583E-15        -0.42308E-01         0.00000E+00
    0.14230E-15        -0.38462E-01         0.00000E+00
    0.13207E-15        -0.34615E-01         0.00000E+00
    0.12393E-15        -0.30769E-01         0.00000E+00
    0.11386E-15        -0.26923E-01         0.00000E+00
    0.10303E-15        -0.23077E-01         0.00000E+00
    0.93666E-16        -0.19231E-01         0.00000E+00
    0.83847E-16        -0.15385E-01         0.00000E+00
    0.69566E-16        -0.11538E-01         0.00000E+00
    0.52975E-16        -0.76923E-02         0.00000E+00
    0.31913E-16        -0.38462E-02         0.00000E+00
    0.00000E+00         0.00000E+00         0.00000E+00
    0.00000E+00        -0.57692E-01         0.00000E+00
    0.00000E+00        -0.53846E-01         0.00000E+00
    0.00000E+00        -0.50000E-01         0.00000E+00
    0.00000E+00        -0.46154E-01         0.00000E+00
    0.00000E+00        -0.42308E-01         0.00000E+00
    0.00000E+00        -0.38462E-01         0.00000E+00
    0.00000E+00        -0.34615E-01         0.00000E+00
    0.00000E+00        -0.30769E-01         0.00000E+00
    0.00000E+00        -0.26923E-01         0.00000E+00
    0.00000E+00        -0.23077E-01         0.00000E+00
    0.00000E+00        -0.19231E-01         0.00000E+00
    0.00000E+00        -0.15385E-01         0.00000E+00
    0.00000E+00        -0.11538E-01         0.00000E+00
    0.00000E+00        -0.76923E-02         0.00000E+00
    0.00000E+00        -0.38462E-02         0.00000E+00
    0.00000E+00         0.00000E+00         0.00000E+00
CELL_DATA        450
VECTORS vDarcy double 
    0.43932E-20        -0.10776E-20         0.00000E+00
    0.37301E-20        -0.18236E-20         0.00000E+00
    0.28597E-20        -0.58023E-21         0.00000E+00
    0.43103E-20        -0.12434E-20         0.00000E+00
    0.26110E-20         0.00000E+00         0.00000E+00
    0.33156E-20        -0.82890E-21         0.00000E+00
    0.30255E-20        -0.25696E-20         0.00000E+00
    0.18236E-20        -0.36472E-20         0.00000E+00
    0.15335E-20        -0.40616E-20         0.00000E+00
    0.22380E-20        -0.38958E-20         0.00000E+00
    0.42274E-20        -0.22380E-20         0.00000E+00
    0.20723E-20        -0.82890E-22         0.00000E+00
    0.22380E-20        -0.66312E-21         0.00000E+00
    0.37715E-20        -0.33156E-20         0.00000E+00
    0.26525E-20        -0.17407E-20         0.00000E+00
    0.89521E-20        -0.10776E-20         0.00000E+00
    0.82890E-20        -0.11605E-20         0.00000E+00
    0.10361E-19        -0.25696E-20         0.00000E+00
    0.10817E-19        -0.87035E-21         0.00000E+00
    0.13055E-19        -0.16578E-20         0.00000E+00
    0.13801E-19        -0.82890E-22         0.00000E+00
    0.12972E-19        -0.18236E-20         0.00000E+00
    0.13843E-19        -0.44761E-20         0.00000E+00
    0.12931E-19        -0.28183E-20         0.00000E+00
    0.10278E-19        -0.31498E-20         0.00000E+00
    0.76259E-20        -0.99468E-21         0.00000E+00
    0.96153E-20        -0.15749E-20         0.00000E+00
    0.13345E-19        -0.24867E-20         0.00000E+00
    0.13718E-19        -0.33985E-20         0.00000E+00
    0.13014E-19        -0.66312E-21         0.00000E+00
    0.15666E-19         0.66312E-21         0.00000E+00
    0.15459E-19        -0.30255E-20         0.00000E+00
    0.17075E-19        -0.44761E-20         0.00000E+00
    0.18650E-19        -0.20723E-20         0.00000E+00
    0.18485E-19        -0.28183E-20         0.00000E+00
    0.18402E-19         0.58023E-21         0.00000E+00
    0.18733E-19        -0.22380E-20         0.00000E+00
    0.17241E-19        -0.33985E-20         0.00000E+00
    0.16744E-19        -0.24867E-20         0.00000E+00
    0.18360E-19        -0.24867E-20         0.00000E+00
    0.19479E-19        -0.16578E-20         0.00000E+00
    0.20432E-19        -0.39787E-20         0.00000E+00
    0.19935E-19        -0.33985E-20         0.00000E+00
    0.19852E-19        -0.24038E-20         0.00000E+00
    0.17821E-19         0.82890E-22         0.00000E+00
    0.23624E-19        -0.12434E-21         0.00000E+00
    0.25447E-19        -0.36057E-20         0.00000E+00
    0.25406E-19        -0.49320E-20         0.00000E+00
    0.24701E-19        -0.28183E-20         0.00000E+00
    0.25489E-19        -0.21551E-20         0.00000E+00
    0.26981E-19        -0.10776E-20         0.00000E+00
    0.26815E-19        -0.11605E-20         0.00000E+00
    0.27478E-19        -0.27354E-20         0.00000E+00
    0.27147E-19        -0.28183E-20         0.00000E+00
    0.26110E-19        -0.21551E-20         0.00000E+00
    0.26774E-19        -0.33156E-20         0.00000E+00
    0.27768E-19        -0.42274E-20         0.00000E+00
    0.28100E-19        -0.29012E-20         0.00000E+00
    0.26691E-19        -0.15749E-20         0.00000E+00
    0.28514E-19        -0.95324E-21         0.00000E+00
    0.32161E-19        -0.19065E-20         0.00000E+00
    0.32866E-19        -0.40616E-20         0.00000E+00
    0.32327E-19        -0.42274E-20         0.00000E+00
    0.32452E-19        -0.25282E-20         0.00000E+00
    0.31664E-19        -0.16164E-20         0.00000E+00
    0.32617E-19        -0.43103E-20         0.00000E+00
    0.35933E-19        -0.41445E-21         0.00000E+00
    0.34234E-19        -0.24038E-20         0.00000E+00
    0.33695E-19        -0.19894E-20         0.00000E+00
    0.35767E-19        -0.38129E-20         0.00000E+00
    0.36223E-19        -0.29840E-20         0.00000E+00
    0.34482E-19        -0.30669E-20         0.00000E+00
    0.32161E-19        -0.24867E-20         0.00000E+00
    0.32907E-19        -0.28183E-20         0.00000E+00
    0.33405E-19        -0.33156E-21         0.00000E+00
    0.38420E-19        -0.15749E-20         0.00000E+00
    0.38502E-19        -0.45590E-20         0.00000E+00
    0.38212E-19        -0.30669E-20         0.00000E+00
    0.38461E-19        -0.32327E-20         0.00000E+00
    0.40699E-19        -0.27354E-20         0.00000E+00
    0.41611E-19        -0.52635E-20         0.00000E+00
    0.40575E-19        -0.78746E-21         0.00000E+00
    0.40699E-19        -0.15335E-20         0.00000E+00
    0.41611E-19        -0.34399E-20         0.00000E+00
    0.42315E-19        -0.38129E-20         0.00000E+00
    0.41652E-19        -0.33156E-20         0.00000E+00
    0.40575E-19        -0.49734E-21         0.00000E+00
    0.40243E-19        -0.31498E-20         0.00000E+00
    0.39663E-19        -0.23209E-20         0.00000E+00
    0.40782E-19        -0.12019E-20         0.00000E+00
    0.49983E-19        -0.10776E-20         0.00000E+00
    0.47330E-19        -0.29426E-20         0.00000E+00
    0.46709E-19        -0.30669E-20         0.00000E+00
    0.46916E-19        -0.31498E-20         0.00000E+00
    0.46709E-19        -0.47247E-20         0.00000E+00
    0.46045E-19        -0.31913E-20         0.00000E+00
    0.45880E-19        -0.16578E-20         0.00000E+00
    0.48076E-19        -0.34814E-20         0.00000E+00
    0.48076E-19        -0.32327E-20         0.00000E+00
    0.47828E-19        -0.43932E-20         0.00000E+00
    0.48408E-19        -0.27354E-20         0.00000E+00
    0.48201E-19         0.00000E+00         0.00000E+00
    0.46874E-19        -0.24867E-20         0.00000E+00
    0.45631E-19        -0.27354E-20         0.00000E+00
    0.44429E-19        -0.82890E-21         0.00000E+00
    0.55536E-19        -0.58023E-21         0.00000E+00
    0.54873E-19        -0.82890E-21         0.00000E+00
    0.54044E-19        -0.33985E-20         0.00000E+00
    0.54210E-19        -0.34399E-20         0.00000E+00
    0.54583E-19        -0.47247E-20         0.00000E+00
    0.53837E-19        -0.20308E-20         0.00000E+00
    0.54832E-19        -0.33985E-20         0.00000E+00
    0.54293E-19        -0.29840E-20         0.00000E+00
    0.54749E-19        -0.38958E-20         0.00000E+00
    0.55661E-19        -0.51392E-20         0.00000E+00
    0.53464E-19        -0.29012E-21         0.00000E+00
    0.52179E-19         0.00000E+00         0.00000E+00
    0.52967E-19        -0.14920E-20         0.00000E+00
    0.53091E-19        -0.22795E-20         0.00000E+00
    0.52552E-19         0.33156E-21         0.00000E+00
    0.64074E-19         0.24867E-21         0.00000E+00
    0.63701E-19        -0.58023E-21         0.00000E+00
    0.64240E-19        -0.25696E-20         0.00000E+00
    0.62375E-19        -0.35228E-20         0.00000E+00
    0.61339E-19        -0.39787E-20         0.00000E+00
    0.60634E-19        -0.28183E-20         0.00000E+00
    0.61007E-19        -0.33156E-20         0.00000E+00
    0.60758E-19        -0.26525E-20         0.00000E+00
    0.59308E-19        -0.33985E-20         0.00000E+00
    0.57070E-19        -0.36472E-20         0.00000E+00
    0.57899E-19        -0.24867E-21         0.00000E+00
    0.60220E-19        -0.82890E-21         0.00000E+00
    0.59639E-19        -0.33156E-21         0.00000E+00
    0.57899E-19        -0.18236E-20         0.00000E+00
    0.57609E-19         0.33156E-21         0.00000E+00
    0.70001E-19         0.14920E-20         0.00000E+00
    0.68675E-19         0.82890E-21         0.00000E+00
    0.67265E-19        -0.27768E-20         0.00000E+00
    0.68550E-19        -0.21551E-20         0.00000E+00
    0.68219E-19        -0.21551E-20         0.00000E+00
    0.67182E-19        -0.37301E-20         0.00000E+00
    0.68675E-19        -0.36472E-20         0.00000E+00
    0.68675E-19        -0.24867E-20         0.00000E+00
    0.67514E-19        -0.33156E-21         0.00000E+00
    0.65483E-19        -0.16578E-20         0.00000E+00
    0.65649E-19        -0.39787E-20         0.00000E+00
    0.66519E-19        -0.82890E-21         0.00000E+00
    0.67141E-19        -0.95324E-21         0.00000E+00
    0.68757E-19        -0.29012E-21         0.00000E+00
    0.68799E-19        -0.74601E-21         0.00000E+00
    0.72032E-19         0.20723E-21         0.00000E+00
    0.74684E-19         0.82890E-21         0.00000E+00
    0.74062E-19        -0.53879E-21         0.00000E+00
    0.71120E-19        -0.33985E-20         0.00000E+00
    0.72653E-19        -0.25282E-20         0.00000E+00
    0.73689E-19        -0.32327E-20         0.00000E+00
    0.71534E-19        -0.28183E-20         0.00000E+00
    0.70167E-19        -0.20723E-20         0.00000E+00
    0.70125E-19         0.00000E+00         0.00000E+00
    0.71368E-19        -0.99468E-21         0.00000E+00
    0.69296E-19        -0.34399E-20         0.00000E+00
    0.69421E-19        -0.29012E-20         0.00000E+00
    0.71203E-19        -0.13262E-20         0.00000E+00
    0.70954E-19        -0.10776E-20         0.00000E+00
    0.72280E-19        -0.18236E-20         0.00000E+00
    0.79077E-19        -0.33156E-21         0.00000E+00
    0.77627E-19        -0.24867E-21         0.00000E+00
    0.78538E-19         0.91179E-21         0.00000E+00
    0.79077E-19        -0.28183E-20         0.00000E+00
    0.77005E-19        -0.21137E-20         0.00000E+00
    0.75720E-19        -0.29840E-20         0.00000E+00
    0.76300E-19        -0.14920E-20         0.00000E+00
    0.75057E-19        -0.17407E-20         0.00000E+00
    0.76010E-19        -0.91179E-21         0.00000E+00
    0.76300E-19        -0.53879E-21         0.00000E+00
    0.74891E-19        -0.12848E-20         0.00000E+00
    0.73938E-19        -0.34814E-20         0.00000E+00
    0.73938E-19        -0.16578E-20         0.00000E+00
    0.76218E-19        -0.26525E-20         0.00000E+00
    0.76508E-19        -0.22380E-20         0.00000E+00
    0.79450E-19        -0.12434E-20         0.00000E+00
    0.80942E-19         0.66312E-21         0.00000E+00
    0.82642E-19        -0.14920E-20         0.00000E+00
    0.80652E-19        -0.82890E-21         0.00000E+00
    0.80196E-19        -0.17821E-20         0.00000E+00
    0.81813E-19        -0.41445E-20         0.00000E+00
    0.81191E-19         0.24867E-21         0.00000E+00
    0.80528E-19        -0.29840E-20         0.00000E+00
    0.80238E-19        -0.10776E-20         0.00000E+00
    0.80859E-19        -0.82890E-22         0.00000E+00
    0.81937E-19        -0.21551E-20         0.00000E+00
    0.81232E-19        -0.11605E-20         0.00000E+00
    0.81232E-19        -0.37301E-20         0.00000E+00
    0.80611E-19        -0.21551E-20         0.00000E+00
    0.79160E-19        -0.15749E-20         0.00000E+00
    0.86040E-19        -0.11605E-20         0.00000E+00
    0.85128E-19        -0.41445E-21         0.00000E+00
    0.85253E-19        -0.99468E-21         0.00000E+00
    0.83885E-19         0.91179E-21         0.00000E+00
    0.86040E-19        -0.41445E-20         0.00000E+00
    0.85957E-19        -0.33571E-20         0.00000E+00
    0.86454E-19         0.24867E-21         0.00000E+00
    0.87366E-19        -0.27768E-20         0.00000E+00
    0.86496E-19        -0.53879E-21         0.00000E+00
    0.85418E-19        -0.12434E-20         0.00000E+00
    0.85377E-19        -0.14091E-20         0.00000E+00
    0.85543E-19        -0.16578E-20         0.00000E+00
    0.85667E-19        -0.31498E-20         0.00000E+00
    0.84341E-19        -0.87035E-21         0.00000E+00
    0.84507E-19        -0.14091E-20         0.00000E+00
    0.91884E-19        -0.14091E-20         0.00000E+00
    0.91801E-19         0.58023E-21         0.00000E+00
    0.90972E-19        -0.95324E-21         0.00000E+00
    0.92340E-19         0.58023E-21         0.00000E+00
    0.91096E-19        -0.45590E-20         0.00000E+00
    0.89065E-19        -0.26939E-20         0.00000E+00
    0.90060E-19        -0.19065E-20         0.00000E+00
    0.89480E-19        -0.10776E-20         0.00000E+00
    0.89231E-19        -0.58023E-21         0.00000E+00
    0.90931E-19        -0.12434E-20         0.00000E+00
    0.89894E-19        -0.12434E-20         0.00000E+00
    0.88651E-19        -0.20723E-20         0.00000E+00
    0.87449E-19        -0.12434E-20         0.00000E+00
    0.88029E-19        -0.74601E-21         0.00000E+00
    0.87698E-19        -0.82890E-21         0.00000E+00
    0.96318E-19        -0.21551E-20         0.00000E+00
    0.96028E-19         0.16578E-20         0.00000E+00
    0.96899E-19        -0.70457E-21         0.00000E+00
    0.97230E-19        -0.19479E-20         0.00000E+00
    0.96153E-19        -0.13262E-20         0.00000E+00
    0.95158E-19        -0.19065E-20         0.00000E+00
    0.95199E-19        -0.29840E-20         0.00000E+00
    0.96028E-19         0.12434E-21         0.00000E+00
    0.95448E-19        -0.22380E-20         0.00000E+00
    0.94205E-19         0.58023E-21         0.00000E+00
    0.91967E-19        -0.33156E-21         0.00000E+00
    0.90723E-19        -0.20723E-21         0.00000E+00
    0.91552E-19        -0.26110E-20         0.00000E+00
    0.91718E-19         0.16578E-21         0.00000E+00
    0.89853E-19         0.24867E-21         0.00000E+00
    0.95987E-19        -0.74601E-21         0.00000E+00
    0.96360E-19         0.49734E-21         0.00000E+00
    0.97562E-19        -0.16992E-20         0.00000E+00
    0.98018E-19        -0.27354E-20         0.00000E+00
    0.98349E-19        -0.33156E-21         0.00000E+00
    0.98308E-19        -0.58023E-21         0.00000E+00
    0.97769E-19        -0.29426E-20         0.00000E+00
    0.98183E-19        -0.78746E-21         0.00000E+00
    0.97562E-19        -0.13262E-20         0.00000E+00
    0.95987E-19         0.26525E-20         0.00000E+00
    0.95821E-19        -0.41445E-21         0.00000E+00
    0.97230E-19        -0.41445E-21         0.00000E+00
    0.93873E-19        -0.33156E-21         0.00000E+00
    0.92671E-19        -0.24867E-21         0.00000E+00
    0.92671E-19         0.78746E-21         0.00000E+00
    0.10291E-18        -0.95324E-21         0.00000E+00
    0.10245E-18         0.16578E-21         0.00000E+00
    0.10361E-18        -0.23624E-20         0.00000E+00
    0.10274E-18        -0.25696E-20         0.00000E+00
    0.10175E-18         0.12434E-21         0.00000E+00
    0.10158E-18         0.74601E-21         0.00000E+00
    0.99966E-19        -0.27354E-20         0.00000E+00
    0.98805E-19        -0.20723E-21         0.00000E+00
    0.98349E-19         0.41445E-21         0.00000E+00
    0.98639E-19         0.24867E-20         0.00000E+00
    0.98266E-19        -0.16578E-21         0.00000E+00
    0.97147E-19         0.41445E-21         0.00000E+00
    0.97396E-19         0.14091E-20         0.00000E+00
    0.98266E-19        -0.74601E-21         0.00000E+00
    0.98805E-19         0.33156E-21         0.00000E+00
    0.10411E-18        -0.31084E-20         0.00000E+00
    0.10432E-18         0.14920E-20         0.00000E+00
    0.10428E-18        -0.31498E-20         0.00000E+00
    0.10361E-18        -0.66312E-21         0.00000E+00
    0.10374E-18        -0.91179E-21         0.00000E+00
    0.10510E-18         0.82890E-21         0.00000E+00
    0.10345E-18        -0.58023E-21         0.00000E+00
    0.10195E-18         0.00000E+00         0.00000E+00
    0.10129E-18         0.15749E-20         0.00000E+00
    0.10133E-18         0.10776E-20         0.00000E+00
    0.10121E-18         0.33156E-21         0.00000E+00
    0.10137E-18         0.19065E-20         0.00000E+00
    0.99385E-19        -0.33156E-21         0.00000E+00
    0.10050E-18        -0.49734E-21         0.00000E+00
    0.10046E-18        -0.66312E-21         0.00000E+00
    0.10419E-18        -0.15749E-20         0.00000E+00
    0.10448E-18        -0.45590E-21         0.00000E+00
    0.10423E-18        -0.41445E-22         0.00000E+00
    0.10258E-18        -0.12848E-20         0.00000E+00
    0.10365E-18        -0.23624E-20         0.00000E+00
    0.10448E-18         0.66312E-21         0.00000E+00
    0.10535E-18         0.33156E-21         0.00000E+00
    0.10519E-18         0.41445E-21         0.00000E+00
    0.10457E-18         0.25696E-20         0.00000E+00
    0.10461E-18         0.11605E-20         0.00000E+00
    0.10473E-18        -0.41445E-21         0.00000E+00
    0.10502E-18         0.25696E-20         0.00000E+00
    0.10593E-18        -0.16578E-21         0.00000E+00
    0.10589E-18        -0.24867E-21         0.00000E+00
    0.10394E-18         0.12434E-21         0.00000E+00
    0.10850E-18         0.24867E-21         0.00000E+00
    0.10656E-18        -0.12434E-20         0.00000E+00
    0.10693E-18         0.17407E-20         0.00000E+00
    0.10709E-18        -0.23209E-20         0.00000E+00
    0.10660E-18        -0.24038E-20         0.00000E+00
    0.10718E-18         0.00000E+00         0.00000E+00
    0.10709E-18        -0.74601E-21         0.00000E+00
    0.10763E-18         0.15749E-20         0.00000E+00
    0.10689E-18         0.14920E-20         0.00000E+00
    0.10813E-18         0.13262E-20         0.00000E+00
    0.10743E-18         0.91179E-21         0.00000E+00
    0.10784E-18         0.13262E-20         0.00000E+00
    0.10685E-18         0.82890E-22         0.00000E+00
    0.10593E-18         0.13677E-20         0.00000E+00
    0.10718E-18        -0.62168E-21         0.00000E+00
    0.10904E-18         0.99468E-21         0.00000E+00
    0.10718E-18         0.82890E-21         0.00000E+00
    0.10685E-18         0.58023E-21         0.00000E+00
    0.10751E-18        -0.19479E-20         0.00000E+00
    0.10772E-18        -0.28183E-20         0.00000E+00
    0.10888E-18        -0.74601E-21         0.00000E+00
    0.10834E-18         0.45590E-21         0.00000E+00
    0.10809E-18         0.14091E-20         0.00000E+00
    0.10950E-18         0.13262E-20         0.00000E+00
    0.11037E-18         0.00000E+00         0.00000E+00
    0.11128E-18         0.11605E-20         0.00000E+00
    0.11240E-18         0.41445E-21         0.00000E+00
    0.10958E-18         0.29012E-20         0.00000E+00
    0.10838E-18         0.14920E-20         0.00000E+00
    0.10867E-18        -0.30669E-20         0.00000E+00
    0.11248E-18         0.21551E-20         0.00000E+00
    0.11285E-18         0.13677E-20         0.00000E+00
    0.11265E-18         0.33156E-21         0.00000E+00
    0.11095E-18        -0.91179E-21         0.00000E+00
    0.10838E-18        -0.28597E-20         0.00000E+00
    0.10867E-18        -0.14091E-20         0.00000E+00
    0.10950E-18         0.11605E-20         0.00000E+00
    0.10987E-18         0.49734E-21         0.00000E+00
    0.11099E-18        -0.82890E-21         0.00000E+00
    0.11091E-18         0.12434E-20         0.00000E+00
    0.10937E-18        -0.24867E-21         0.00000E+00
    0.10834E-18         0.27354E-20         0.00000E+00
    0.11008E-18         0.22380E-20         0.00000E+00
    0.11319E-18         0.29012E-21         0.00000E+00
    0.11091E-18        -0.91179E-21         0.00000E+00
    0.11087E-18         0.66312E-21         0.00000E+00
    0.11078E-18         0.29840E-20         0.00000E+00
    0.11033E-18         0.00000E+00         0.00000E+00
    0.11252E-18        -0.66312E-21         0.00000E+00
    0.11373E-18        -0.78746E-21         0.00000E+00
    0.11058E-18        -0.82890E-22         0.00000E+00
    0.11029E-18        -0.58023E-21         0.00000E+00
    0.11078E-18         0.74601E-21         0.00000E+00
    0.11078E-18        -0.99468E-21         0.00000E+00
    0.11269E-18         0.11605E-20         0.00000E+00
    0.11232E-18         0.10776E-20         0.00000E+00
    0.11294E-18         0.16578E-20         0.00000E+00
    0.11410E-18        -0.66312E-21         0.00000E+00
    0.11319E-18         0.15749E-20         0.00000E+00
    0.11377E-18        -0.66312E-21         0.00000E+00
    0.11103E-18         0.00000E+00         0.00000E+00
    0.11252E-18         0.17407E-20         0.00000E+00
    0.11323E-18         0.00000E+00         0.00000E+00
    0.11215E-18        -0.14091E-20         0.00000E+00
    0.11091E-18         0.33156E-21         0.00000E+00
    0.11087E-18         0.20308E-20         0.00000E+00
    0.11041E-18        -0.99468E-21         0.00000E+00
    0.10933E-18         0.91179E-21         0.00000E+00
    0.10925E-18        -0.18236E-20         0.00000E+00
    0.11128E-18        -0.16578E-20         0.00000E+00
    0.11406E-18         0.53879E-21         0.00000E+00
    0.11439E-18         0.14920E-20         0.00000E+00
    0.11128E-18         0.14091E-20         0.00000E+00
    0.11227E-18         0.49734E-21         0.00000E+00
    0.11273E-18        -0.12434E-21         0.00000E+00
    0.11165E-18         0.00000E+00         0.00000E+00
    0.11037E-18         0.14920E-20         0.00000E+00
    0.11082E-18        -0.41445E-21         0.00000E+00
    0.10966E-18         0.41445E-21         0.00000E+00
    0.10946E-18        -0.16578E-21         0.00000E+00
    0.11041E-18         0.91179E-21         0.00000E+00
    0.11145E-18        -0.10361E-20         0.00000E+00
    0.11165E-18         0.19065E-20         0.00000E+00
    0.11153E-18        -0.21966E-20         0.00000E+00
    0.11037E-18        -0.20723E-20         0.00000E+00
    0.10925E-18        -0.12434E-20         0.00000E+00
    0.11099E-18         0.18236E-20         0.00000E+00
    0.11323E-18         0.14091E-20         0.00000E+00
    0.11198E-18        -0.13262E-20         0.00000E+00
    0.11174E-18         0.15749E-20         0.00000E+00
    0.10883E-18         0.00000E+00         0.00000E+00
    0.11012E-18         0.13677E-20         0.00000E+00
    0.11120E-18        -0.13262E-20         0.00000E+00
    0.11132E-18         0.22380E-20         0.00000E+00
    0.11058E-18        -0.24867E-21         0.00000E+00
    0.11153E-18        -0.16578E-21         0.00000E+00
    0.11008E-18         0.24867E-21         0.00000E+00
    0.10842E-18         0.22795E-20         0.00000E+00
    0.10859E-18        -0.30255E-20         0.00000E+00
    0.10954E-18        -0.10776E-20         0.00000E+00
    0.10879E-18        -0.58023E-21         0.00000E+00
    0.10904E-18        -0.53879E-21         0.00000E+00
    0.10908E-18         0.10361E-20         0.00000E+00
    0.11004E-18        -0.11190E-20         0.00000E+00
    0.11107E-18         0.74601E-21         0.00000E+00
    0.11004E-18         0.24867E-21         0.00000E+00
    0.11045E-18         0.41445E-21         0.00000E+00
    0.10979E-18        -0.24867E-21         0.00000E+00
    0.11045E-18         0.12434E-20         0.00000E+00
    0.11087E-18         0.82890E-22         0.00000E+00
    0.10954E-18         0.41445E-22         0.00000E+00
    0.10854E-18         0.14506E-20         0.00000E+00
    0.11029E-18         0.45590E-21         0.00000E+00
    0.11074E-18        -0.24453E-20         0.00000E+00
    0.10896E-18        -0.33156E-21         0.00000E+00
    0.10871E-18        -0.45590E-21         0.00000E+00
    0.10825E-18        -0.87035E-21         0.00000E+00
    0.11062E-18        -0.78746E-21         0.00000E+00
    0.11136E-18        -0.11605E-20         0.00000E+00
    0.10917E-18         0.20723E-20         0.00000E+00
    0.11004E-18        -0.16578E-20         0.00000E+00
    0.11070E-18         0.58023E-21         0.00000E+00
    0.10871E-18         0.11605E-20         0.00000E+00
    0.10784E-18        -0.82890E-22         0.00000E+00
    0.10850E-18         0.66312E-21         0.00000E+00
    0.10987E-18         0.41445E-21         0.00000E+00
    0.11070E-18         0.33156E-21         0.00000E+00
    0.11020E-18         0.82890E-21         0.00000E+00
    0.10904E-18        -0.29012E-21         0.00000E+00
    0.10879E-18        -0.82890E-21         0.00000E+00
    0.10809E-18        -0.29012E-21         0.00000E+00
    0.10842E-18        -0.12434E-20         0.00000E+00
    0.10776E-18        -0.16578E-20         0.00000E+00
    0.10622E-18         0.82890E-22         0.00000E+00
    0.10759E-18         0.15749E-20         0.00000E+00
    0.10448E-18        -0.16578E-20         0.00000E+00
    0.10349E-18         0.41445E-21         0.00000E+00
    0.10506E-18         0.10776E-20         0.00000E+00
    0.10672E-18         0.82890E-22         0.00000E+00
    0.10593E-18         0.00000E+00         0.00000E+00
    0.10602E-18         0.00000E+00         0.00000E+00
    0.10606E-18         0.00000E+00         0.00000E+00
    0.10743E-18         0.14091E-20         0.00000E+00
    0.10854E-18        -0.82890E-22         0.00000E+00
    0.10751E-18        -0.49734E-21         0.00000E+00
    0.10780E-18         0.24867E-21         0.00000E+00
    0.10714E-18        -0.74601E-21         0.00000E+00
    0.10689E-18        -0.70457E-21         0.00000E+00
    0.10639E-18         0.41445E-21         0.00000E+00
    0.10610E-18         0.00000E+00         0.00000E+00
POINT_DATA        496
VECTORS vDarcyNodal double 
    0.19894E-20         0.66312E-21         0.00000E+00
    0.66312E-20        -0.16578E-20         0.00000E+00
    0.66312E-21        -0.13262E-20         0.00000E+00
    0.53050E-20        -0.66312E-21         0.00000E+00
    0.33156E-20        -0.99468E-21         0.00000E+00
    0.33156E-20        -0.33156E-21         0.00000E+00
    0.26525E-20        -0.19894E-20         0.00000E+00
    0.26525E-20        -0.36472E-20         0.00000E+00
    0.66312E-21        -0.43103E-20         0.00000E+00
    0.13262E-20        -0.33156E-20         0.00000E+00
    0.46418E-20        -0.19894E-20         0.00000E+00
    0.43103E-20        -0.19894E-20         0.00000E+00
    0.00000E+00        -0.33156E-21         0.00000E+00
    0.46418E-20        -0.16578E-20         0.00000E+00
    0.26525E-20        -0.33156E-20         0.00000E+00
    0.19894E-20        -0.19894E-20         0.00000E+00
    0.62997E-20        -0.31412E-20         0.00000E+00
    0.64654E-20        -0.13262E-20         0.00000E+00
    0.56365E-20        -0.99468E-21         0.00000E+00
    0.73287E-20        -0.14920E-20         0.00000E+00
    0.75916E-20         0.78600E-22         0.00000E+00
    0.89178E-20        -0.74172E-21         0.00000E+00
    0.79575E-20        -0.17364E-20         0.00000E+00
    0.76259E-20        -0.26525E-20         0.00000E+00
    0.79231E-20        -0.36472E-20         0.00000E+00
    0.62997E-20        -0.46418E-20         0.00000E+00
    0.66141E-20        -0.39787E-20         0.00000E+00
    0.53221E-20        -0.33156E-21         0.00000E+00
    0.69628E-20        -0.66312E-21         0.00000E+00
    0.86206E-20        -0.33156E-20         0.00000E+00
    0.82890E-20        -0.20765E-20         0.00000E+00
    0.76259E-20        -0.83748E-21         0.00000E+00
    0.12599E-19         0.10118E-20         0.00000E+00
    0.11342E-19        -0.99468E-21         0.00000E+00
    0.12599E-19        -0.28183E-20         0.00000E+00
    0.14057E-19        -0.21551E-20         0.00000E+00
    0.15583E-19        -0.24953E-20         0.00000E+00
    0.16481E-19        -0.11519E-20         0.00000E+00
    0.16081E-19        -0.48876E-21         0.00000E+00
    0.15915E-19        -0.36472E-20         0.00000E+00
    0.15286E-19        -0.33156E-20         0.00000E+00
    0.14920E-19        -0.16578E-20         0.00000E+00
    0.13131E-19        -0.99468E-21         0.00000E+00
    0.13743E-19        -0.26525E-20         0.00000E+00
    0.16412E-19        -0.36472E-20         0.00000E+00
    0.16910E-19        -0.29840E-20         0.00000E+00
    0.15915E-19        -0.18322E-20         0.00000E+00
    0.15583E-19        -0.17161E-22         0.00000E+00
    0.18899E-19         0.00000E+00         0.00000E+00
    0.19659E-19        -0.99468E-21         0.00000E+00
    0.20557E-19        -0.41445E-20         0.00000E+00
    0.21586E-19        -0.43103E-20         0.00000E+00
    0.22380E-19        -0.23295E-20         0.00000E+00
    0.21849E-19        -0.99468E-21         0.00000E+00
    0.23244E-19        -0.82032E-21         0.00000E+00
    0.22215E-19        -0.16578E-20         0.00000E+00
    0.21683E-19        -0.28097E-20         0.00000E+00
    0.22049E-19        -0.29840E-20         0.00000E+00
    0.22197E-19        -0.28268E-20         0.00000E+00
    0.23872E-19        -0.33156E-20         0.00000E+00
    0.23864E-19        -0.36472E-20         0.00000E+00
    0.23707E-19        -0.26525E-20         0.00000E+00
    0.22878E-19        -0.82032E-21         0.00000E+00
    0.23209E-19         0.34872E-21         0.00000E+00
    0.27520E-19        -0.62880E-21         0.00000E+00
    0.28514E-19        -0.26525E-20         0.00000E+00
    0.29509E-19        -0.43103E-20         0.00000E+00
    0.28811E-19        -0.36472E-20         0.00000E+00
    0.28549E-19        -0.26696E-20         0.00000E+00
    0.28314E-19        -0.21380E-20         0.00000E+00
    0.31132E-19        -0.97752E-21         0.00000E+00
    0.30835E-19        -0.23209E-20         0.00000E+00
    0.30504E-19        -0.26525E-20         0.00000E+00
    0.30155E-19        -0.19894E-20         0.00000E+00
    0.31481E-19        -0.33156E-20         0.00000E+00
    0.31332E-19        -0.43103E-20         0.00000E+00
    0.30346E-19        -0.36472E-20         0.00000E+00
    0.29832E-19        -0.23209E-20         0.00000E+00
    0.30835E-19        -0.20065E-20         0.00000E+00
    0.30835E-19        -0.13606E-20         0.00000E+00
    0.35477E-19        -0.19894E-20         0.00000E+00
    0.35809E-19        -0.30012E-20         0.00000E+00
    0.36140E-19        -0.43103E-20         0.00000E+00
    0.35180E-19        -0.33156E-20         0.00000E+00
    0.35443E-19        -0.16578E-20         0.00000E+00
    0.36706E-19        -0.36300E-20         0.00000E+00
    0.37798E-19        -0.36472E-20         0.00000E+00
    0.38461E-19        -0.99468E-21         0.00000E+00
    0.37135E-19        -0.19894E-20         0.00000E+00
    0.38810E-19        -0.39787E-20         0.00000E+00
    0.38644E-19        -0.36472E-20         0.00000E+00
    0.38793E-19        -0.19894E-20         0.00000E+00
    0.35966E-19        -0.23209E-20         0.00000E+00
    0.36646E-19        -0.29840E-20         0.00000E+00
    0.36472E-19        -0.13262E-20         0.00000E+00
    0.37135E-19         0.00000E+00         0.00000E+00
    0.44429E-19        -0.13262E-20         0.00000E+00
    0.44098E-19        -0.33156E-20         0.00000E+00
    0.42440E-19        -0.36472E-20         0.00000E+00
    0.42440E-19        -0.29840E-20         0.00000E+00
    0.42474E-19        -0.43274E-20         0.00000E+00
    0.44395E-19        -0.43103E-20         0.00000E+00
    0.42440E-19        -0.26353E-20         0.00000E+00
    0.43434E-19        -0.16578E-20         0.00000E+00
    0.45127E-19        -0.29669E-20         0.00000E+00
    0.44744E-19        -0.36472E-20         0.00000E+00
    0.45092E-19        -0.33328E-20         0.00000E+00
    0.44761E-19        -0.16578E-20         0.00000E+00
    0.44281E-19        -0.16578E-20         0.00000E+00
    0.42771E-19        -0.26525E-20         0.00000E+00
    0.42518E-19        -0.23038E-20         0.00000E+00
    0.42108E-19        -0.22866E-20         0.00000E+00
    0.53050E-19        -0.12576E-20         0.00000E+00
    0.52387E-19        -0.99468E-21         0.00000E+00
    0.50397E-19        -0.26868E-20         0.00000E+00
    0.50397E-19        -0.32813E-20         0.00000E+00
    0.50363E-19        -0.36128E-20         0.00000E+00
    0.50363E-19        -0.36815E-20         0.00000E+00
    0.49403E-19        -0.26868E-20         0.00000E+00
    0.50729E-19        -0.36128E-20         0.00000E+00
    0.50729E-19        -0.32813E-20         0.00000E+00
    0.51575E-19        -0.39787E-20         0.00000E+00
    0.52055E-19        -0.38473E-20         0.00000E+00
    0.49734E-19        -0.10290E-20         0.00000E+00
    0.49560E-19        -0.66312E-21         0.00000E+00
    0.49403E-19        -0.16235E-20         0.00000E+00
    0.49158E-19        -0.99468E-21         0.00000E+00
    0.47745E-19        -0.68643E-22         0.00000E+00
    0.60676E-19         0.68643E-22         0.00000E+00
    0.59349E-19        -0.66312E-21         0.00000E+00
    0.59681E-19        -0.16578E-20         0.00000E+00
    0.58320E-19        -0.29840E-20         0.00000E+00
    0.58389E-19        -0.43446E-20         0.00000E+00
    0.57360E-19        -0.32813E-20         0.00000E+00
    0.58023E-19        -0.29497E-20         0.00000E+00
    0.57692E-19        -0.29840E-20         0.00000E+00
    0.57360E-19        -0.36472E-20         0.00000E+00
    0.56680E-19        -0.49734E-20         0.00000E+00
    0.55702E-19        -0.16578E-20         0.00000E+00
    0.55702E-19         0.66312E-21         0.00000E+00
    0.56705E-19        -0.99468E-21         0.00000E+00
    0.55702E-19        -0.19894E-20         0.00000E+00
    0.55039E-19        -0.69744E-21         0.00000E+00
    0.55039E-19         0.59448E-21         0.00000E+00
    0.67307E-19         0.10633E-20         0.00000E+00
    0.66975E-19         0.00000E+00         0.00000E+00
    0.64986E-19        -0.16578E-20         0.00000E+00
    0.65649E-19        -0.19550E-20         0.00000E+00
    0.65283E-19        -0.26525E-20         0.00000E+00
    0.63694E-19        -0.33156E-20         0.00000E+00
    0.64654E-19        -0.29840E-20         0.00000E+00
    0.64689E-19        -0.29840E-20         0.00000E+00
    0.64952E-19        -0.23209E-20         0.00000E+00
    0.62351E-19        -0.23209E-20         0.00000E+00
    0.60012E-19        -0.26525E-20         0.00000E+00
    0.63660E-19        -0.23209E-20         0.00000E+00
    0.63651E-19        -0.86322E-21         0.00000E+00
    0.63660E-19        -0.16578E-21         0.00000E+00
    0.62665E-19        -0.62880E-21         0.00000E+00
    0.63660E-19         0.00000E+00         0.00000E+00
    0.70291E-19         0.66312E-21         0.00000E+00
    0.71617E-19         0.14577E-20         0.00000E+00
    0.71617E-19        -0.33156E-21         0.00000E+00
    0.69296E-19        -0.33156E-20         0.00000E+00
    0.69959E-19        -0.23209E-20         0.00000E+00
    0.70622E-19        -0.26182E-20         0.00000E+00
    0.69959E-19        -0.39787E-20         0.00000E+00
    0.69593E-19        -0.33156E-20         0.00000E+00
    0.68965E-19        -0.13262E-20         0.00000E+00
    0.68302E-19         0.00000E+00         0.00000E+00
    0.67638E-19        -0.29840E-20         0.00000E+00
    0.67307E-19        -0.29840E-20         0.00000E+00
    0.68973E-19        -0.99468E-21         0.00000E+00
    0.69462E-19        -0.99468E-21         0.00000E+00
    0.70125E-19        -0.66312E-21         0.00000E+00
    0.71286E-19        -0.13262E-20         0.00000E+00
    0.75264E-19        -0.13262E-20         0.00000E+00
    0.75596E-19        -0.13262E-20         0.00000E+00
    0.76591E-19         0.66312E-21         0.00000E+00
    0.75264E-19        -0.33156E-21         0.00000E+00
    0.74967E-19        -0.39787E-20         0.00000E+00
    0.74601E-19        -0.33156E-20         0.00000E+00
    0.74235E-19        -0.19894E-20         0.00000E+00
    0.72943E-19        -0.19894E-20         0.00000E+00
    0.72612E-19        -0.99468E-21         0.00000E+00
    0.73606E-19        -0.99468E-21         0.00000E+00
    0.72943E-19        -0.16921E-20         0.00000E+00
    0.71286E-19        -0.33156E-20         0.00000E+00
    0.72437E-19        -0.24524E-20         0.00000E+00
    0.72778E-19        -0.99468E-21         0.00000E+00
    0.74348E-19        -0.19894E-20         0.00000E+00
    0.74933E-19        -0.19894E-20         0.00000E+00
    0.79243E-19         0.00000E+00         0.00000E+00
    0.79575E-19         0.33156E-21         0.00000E+00
    0.78911E-19         0.00000E+00         0.00000E+00
    0.81232E-19        -0.16578E-20         0.00000E+00
    0.79043E-19        -0.16921E-20         0.00000E+00
    0.77917E-19        -0.19894E-20         0.00000E+00
    0.79609E-19        -0.22866E-20         0.00000E+00
    0.77585E-19        -0.16578E-20         0.00000E+00
    0.77951E-19        -0.19550E-20         0.00000E+00
    0.78580E-19        -0.33156E-21         0.00000E+00
    0.78248E-19        -0.69744E-21         0.00000E+00
    0.78580E-19        -0.23209E-20         0.00000E+00
    0.76756E-19        -0.26525E-20         0.00000E+00
    0.78580E-19        -0.33156E-20         0.00000E+00
    0.78170E-19        -0.26182E-20         0.00000E+00
    0.77585E-19        -0.19207E-20         0.00000E+00
    0.82890E-19        -0.19894E-20         0.00000E+00
    0.82890E-19        -0.99468E-21         0.00000E+00
    0.83885E-19        -0.99468E-21         0.00000E+00
    0.83553E-19        -0.66312E-21         0.00000E+00
    0.81564E-19        -0.66312E-21         0.00000E+00
    0.84514E-19        -0.36472E-20         0.00000E+00
    0.83885E-19        -0.16578E-20         0.00000E+00
    0.83719E-19        -0.42870E-21         0.00000E+00
    0.84016E-19        -0.19894E-20         0.00000E+00
    0.82227E-19        -0.13949E-20         0.00000E+00
    0.83885E-19        -0.16578E-20         0.00000E+00
    0.83222E-19        -0.13262E-20         0.00000E+00
    0.84059E-19        -0.26525E-20         0.00000E+00
    0.83222E-19        -0.26525E-20         0.00000E+00
    0.81808E-19        -0.99468E-21         0.00000E+00
    0.81895E-19        -0.99468E-21         0.00000E+00
    0.88527E-19         0.13729E-21         0.00000E+00
    0.89190E-19        -0.66312E-21         0.00000E+00
    0.88195E-19        -0.56598E-21         0.00000E+00
    0.87532E-19         0.56598E-21         0.00000E+00
    0.88527E-19        -0.25838E-20         0.00000E+00
    0.88692E-19        -0.45447E-20         0.00000E+00
    0.86835E-19        -0.13949E-20         0.00000E+00
    0.88893E-19        -0.14234E-20         0.00000E+00
    0.87532E-19        -0.42870E-21         0.00000E+00
    0.88178E-19        -0.33156E-21         0.00000E+00
    0.87864E-19        -0.17264E-20         0.00000E+00
    0.87532E-19        -0.23896E-20         0.00000E+00
    0.87532E-19        -0.26525E-20         0.00000E+00
    0.85874E-19        -0.92604E-21         0.00000E+00
    0.86546E-19        -0.99468E-21         0.00000E+00
    0.85543E-19        -0.21267E-20         0.00000E+00
    0.93832E-19        -0.33156E-20         0.00000E+00
    0.94495E-19        -0.66312E-21         0.00000E+00
    0.93169E-19         0.56598E-21         0.00000E+00
    0.93832E-19        -0.99468E-21         0.00000E+00
    0.95489E-19        -0.17264E-20         0.00000E+00
    0.92208E-19        -0.19894E-20         0.00000E+00
    0.91877E-19        -0.19894E-20         0.00000E+00
    0.92803E-19        -0.76026E-21         0.00000E+00
    0.91511E-19        -0.14234E-20         0.00000E+00
    0.93351E-19        -0.18922E-20         0.00000E+00
    0.91179E-19        -0.10633E-20         0.00000E+00
    0.90516E-19        -0.92604E-21         0.00000E+00
    0.88858E-19        -0.11605E-20         0.00000E+00
    0.90185E-19        -0.17264E-20         0.00000E+00
    0.89268E-19        -0.33156E-21         0.00000E+00
    0.88527E-19         0.13262E-20         0.00000E+00
    0.97147E-19        -0.11890E-20         0.00000E+00
    0.95489E-19         0.00000E+00         0.00000E+00
    0.96816E-19         0.00000E+00         0.00000E+00
    0.97147E-19        -0.16578E-20         0.00000E+00
    0.98176E-19        -0.10633E-20         0.00000E+00
    0.97147E-19        -0.59448E-21         0.00000E+00
    0.96153E-19        -0.17549E-20         0.00000E+00
    0.96816E-19        -0.13262E-20         0.00000E+00
    0.97147E-19        -0.13262E-20         0.00000E+00
    0.95821E-19         0.00000E+00         0.00000E+00
    0.93832E-19         0.13262E-20         0.00000E+00
    0.93832E-19         0.00000E+00         0.00000E+00
    0.93980E-19        -0.23209E-20         0.00000E+00
    0.91842E-19        -0.99468E-21         0.00000E+00
    0.91842E-19         0.59448E-21         0.00000E+00
    0.91179E-19        -0.14635E-20         0.00000E+00
    0.99137E-19         0.13729E-21         0.00000E+00
    0.99800E-19        -0.26292E-21         0.00000E+00
    0.99800E-19        -0.99468E-21         0.00000E+00
    0.10079E-18        -0.23896E-20         0.00000E+00
    0.10013E-18        -0.16578E-20         0.00000E+00
    0.10013E-18         0.68643E-22         0.00000E+00
    0.99137E-19        -0.17264E-20         0.00000E+00
    0.98805E-19        -0.19894E-20         0.00000E+00
    0.98839E-19        -0.26292E-21         0.00000E+00
    0.96816E-19         0.16578E-20         0.00000E+00
    0.97810E-19         0.99468E-21         0.00000E+00
    0.96982E-19        -0.99468E-21         0.00000E+00
    0.96327E-19         0.13262E-20         0.00000E+00
    0.94826E-19         0.66312E-21         0.00000E+00
    0.95489E-19        -0.68643E-22         0.00000E+00
    0.96153E-19         0.21836E-20         0.00000E+00
    0.10245E-18        -0.25152E-20         0.00000E+00
    0.10444E-18        -0.66312E-21         0.00000E+00
    0.10312E-18        -0.99468E-21         0.00000E+00
    0.10411E-18        -0.19207E-20         0.00000E+00
    0.10258E-18        -0.33156E-21         0.00000E+00
    0.10341E-18         0.33156E-21         0.00000E+00
    0.10278E-18        -0.66312E-21         0.00000E+00
    0.10083E-18        -0.99468E-21         0.00000E+00
    0.10043E-18         0.66312E-21         0.00000E+00
    0.99137E-19         0.99468E-21         0.00000E+00
    0.10046E-18         0.99468E-21         0.00000E+00
    0.99800E-19         0.13262E-20         0.00000E+00
    0.98142E-19        -0.68643E-22         0.00000E+00
    0.99137E-19         0.16578E-21         0.00000E+00
    0.99137E-19        -0.59448E-21         0.00000E+00
    0.10013E-18        -0.26525E-20         0.00000E+00
    0.10510E-18        -0.39787E-20         0.00000E+00
    0.10345E-18        -0.92604E-21         0.00000E+00
    0.10544E-18        -0.59448E-21         0.00000E+00
    0.10245E-18        -0.16578E-20         0.00000E+00
    0.10361E-18        -0.99468E-21         0.00000E+00
    0.10477E-18        -0.33156E-21         0.00000E+00
    0.10507E-18         0.99468E-21         0.00000E+00
    0.10411E-18         0.33156E-21         0.00000E+00
    0.10345E-18         0.13262E-20         0.00000E+00
    0.10310E-18         0.16578E-20         0.00000E+00
    0.10245E-18         0.33156E-21         0.00000E+00
    0.10345E-18         0.99468E-21         0.00000E+00
    0.10278E-18         0.13262E-20         0.00000E+00
    0.10312E-18        -0.59448E-21         0.00000E+00
    0.10278E-18        -0.99468E-21         0.00000E+00
    0.10146E-18        -0.13729E-21         0.00000E+00
    0.10709E-18         0.66312E-21         0.00000E+00
    0.10544E-18        -0.12291E-20         0.00000E+00
    0.10610E-18         0.00000E+00         0.00000E+00
    0.10444E-18        -0.58305E-35         0.00000E+00
    0.10481E-18        -0.26525E-20         0.00000E+00
    0.10544E-18        -0.10918E-20         0.00000E+00
    0.10613E-18         0.00000E+00         0.00000E+00
    0.10726E-18         0.66312E-21         0.00000E+00
    0.10610E-18         0.16578E-20         0.00000E+00
    0.10612E-18         0.19894E-20         0.00000E+00
    0.10643E-18         0.66312E-21         0.00000E+00
    0.10544E-18         0.66312E-21         0.00000E+00
    0.10643E-18         0.66312E-21         0.00000E+00
    0.10676E-18         0.00000E+00         0.00000E+00
    0.10444E-18         0.99468E-21         0.00000E+00
    0.10610E-18         0.13262E-20         0.00000E+00
    0.10942E-18        -0.80041E-21         0.00000E+00
    0.10809E-18        -0.68643E-22         0.00000E+00
    0.10610E-18         0.40020E-21         0.00000E+00
    0.10709E-18        -0.33156E-21         0.00000E+00
    0.10729E-18        -0.19894E-20         0.00000E+00
    0.10743E-18        -0.15892E-20         0.00000E+00
    0.10812E-18        -0.66312E-21         0.00000E+00
    0.10739E-18         0.33156E-21         0.00000E+00
    0.10763E-18         0.23209E-20         0.00000E+00
    0.10872E-18         0.13262E-20         0.00000E+00
    0.10975E-18         0.99468E-21         0.00000E+00
    0.10942E-18         0.99468E-21         0.00000E+00
    0.10975E-18         0.66312E-21         0.00000E+00
    0.10643E-18         0.17264E-20         0.00000E+00
    0.10709E-18        -0.66312E-21         0.00000E+00
    0.10875E-18        -0.34529E-20         0.00000E+00
    0.11140E-18         0.33156E-20         0.00000E+00
    0.11041E-18         0.23209E-20         0.00000E+00
    0.10975E-18         0.99468E-21         0.00000E+00
    0.10975E-18        -0.13262E-20         0.00000E+00
    0.10872E-18        -0.29840E-20         0.00000E+00
    0.10812E-18        -0.19894E-20         0.00000E+00
    0.10935E-18         0.00000E+00         0.00000E+00
    0.10809E-18         0.99468E-21         0.00000E+00
    0.10908E-18         0.33156E-21         0.00000E+00
    0.11111E-18         0.00000E+00         0.00000E+00
    0.11008E-18        -0.68643E-22         0.00000E+00
    0.11091E-18         0.33156E-21         0.00000E+00
    0.10942E-18         0.32185E-20         0.00000E+00
    0.11008E-18         0.26525E-20         0.00000E+00
    0.11107E-18        -0.99468E-21         0.00000E+00
    0.10942E-18        -0.19894E-20         0.00000E+00
    0.11074E-18         0.11890E-20         0.00000E+00
    0.11240E-18         0.16578E-20         0.00000E+00
    0.11140E-18         0.99468E-21         0.00000E+00
    0.11177E-18         0.66312E-21         0.00000E+00
    0.11157E-18        -0.66312E-21         0.00000E+00
    0.11008E-18        -0.23209E-20         0.00000E+00
    0.10879E-18        -0.33156E-21         0.00000E+00
    0.11041E-18         0.66312E-21         0.00000E+00
    0.11041E-18        -0.52583E-21         0.00000E+00
    0.11140E-18         0.40020E-21         0.00000E+00
    0.11157E-18         0.85740E-21         0.00000E+00
    0.11043E-18         0.19207E-20         0.00000E+00
    0.11107E-18         0.10633E-20         0.00000E+00
    0.11373E-18        -0.40020E-21         0.00000E+00
    0.11273E-18         0.23442E-21         0.00000E+00
    0.11240E-18         0.27457E-21         0.00000E+00
    0.11074E-18         0.00000E+00         0.00000E+00
    0.11140E-18         0.16578E-20         0.00000E+00
    0.11207E-18         0.16578E-20         0.00000E+00
    0.11220E-18        -0.16578E-20         0.00000E+00
    0.11303E-18        -0.17264E-20         0.00000E+00
    0.11140E-18         0.99468E-21         0.00000E+00
    0.10975E-18         0.68643E-22         0.00000E+00
    0.11038E-18        -0.66312E-21         0.00000E+00
    0.10988E-18        -0.76026E-21         0.00000E+00
    0.11041E-18        -0.99468E-21         0.00000E+00
    0.11271E-18         0.92604E-21         0.00000E+00
    0.11338E-18         0.99468E-21         0.00000E+00
    0.11339E-18         0.00000E+00         0.00000E+00
    0.11207E-18         0.13262E-20         0.00000E+00
    0.11347E-18         0.40020E-21         0.00000E+00
    0.11273E-18        -0.18521E-20         0.00000E+00
    0.11140E-18         0.00000E+00         0.00000E+00
    0.11140E-18         0.33156E-21         0.00000E+00
    0.11207E-18         0.33156E-21         0.00000E+00
    0.11260E-18        -0.56598E-21         0.00000E+00
    0.10982E-18        -0.68643E-22         0.00000E+00
    0.11044E-18         0.96619E-21         0.00000E+00
    0.11074E-18         0.56598E-21         0.00000E+00
    0.11111E-18         0.66312E-21         0.00000E+00
    0.10995E-18        -0.59448E-21         0.00000E+00
    0.11041E-18        -0.26525E-20         0.00000E+00
    0.11078E-18        -0.18922E-20         0.00000E+00
    0.11256E-18         0.82890E-21         0.00000E+00
    0.11257E-18         0.26525E-20         0.00000E+00
    0.11174E-18         0.97137E-22         0.00000E+00
    0.11298E-18         0.68643E-22         0.00000E+00
    0.11140E-18         0.21267E-20         0.00000E+00
    0.11041E-18         0.00000E+00         0.00000E+00
    0.11041E-18         0.99468E-21         0.00000E+00
    0.11074E-18         0.33156E-21         0.00000E+00
    0.11137E-18         0.66312E-21         0.00000E+00
    0.10984E-18         0.66312E-21         0.00000E+00
    0.11001E-18         0.00000E+00         0.00000E+00
    0.11137E-18        -0.66312E-21         0.00000E+00
    0.11054E-18        -0.19427E-21         0.00000E+00
    0.10988E-18         0.16578E-21         0.00000E+00
    0.11008E-18        -0.14635E-20         0.00000E+00
    0.10940E-18        -0.99468E-21         0.00000E+00
    0.10875E-18        -0.66312E-21         0.00000E+00
    0.11124E-18         0.66312E-21         0.00000E+00
    0.11156E-18         0.66312E-21         0.00000E+00
    0.11132E-18         0.66312E-21         0.00000E+00
    0.11207E-18         0.13262E-20         0.00000E+00
    0.10975E-18         0.00000E+00         0.00000E+00
    0.11015E-18        -0.28493E-22         0.00000E+00
    0.11074E-18        -0.66312E-21         0.00000E+00
    0.11011E-18         0.85740E-21         0.00000E+00
    0.11160E-18         0.12977E-20         0.00000E+00
    0.11028E-18        -0.69161E-21         0.00000E+00
    0.11044E-18         0.33156E-21         0.00000E+00
    0.10879E-18         0.20179E-20         0.00000E+00
    0.10978E-18        -0.33156E-21         0.00000E+00
    0.10908E-18        -0.20179E-20         0.00000E+00
    0.10875E-18        -0.63463E-21         0.00000E+00
    0.10877E-18        -0.66312E-21         0.00000E+00
    0.10876E-18         0.16578E-21         0.00000E+00
    0.11107E-18        -0.33156E-21         0.00000E+00
    0.11116E-18        -0.36005E-21         0.00000E+00
    0.10975E-18         0.13262E-20         0.00000E+00
    0.10975E-18        -0.56987E-22         0.00000E+00
    0.11094E-18         0.16578E-21         0.00000E+00
    0.11041E-18        -0.13729E-21         0.00000E+00
    0.10855E-18        -0.28493E-22         0.00000E+00
    0.10955E-18         0.30307E-21         0.00000E+00
    0.10988E-18         0.10232E-20         0.00000E+00
    0.10905E-18         0.10232E-20         0.00000E+00
    0.11041E-18         0.30307E-21         0.00000E+00
    0.11038E-18        -0.36005E-21         0.00000E+00
    0.10873E-18        -0.33156E-21         0.00000E+00
    0.10873E-18        -0.63463E-21         0.00000E+00
    0.10824E-18        -0.63463E-21         0.00000E+00
    0.10874E-18        -0.16578E-20         0.00000E+00
    0.10926E-18        -0.16863E-20         0.00000E+00
    0.10842E-18         0.13262E-20         0.00000E+00
    0.10875E-18         0.30410E-20         0.00000E+00
    0.10743E-18        -0.26525E-20         0.00000E+00
    0.10749E-18        -0.96619E-21         0.00000E+00
    0.10743E-18         0.13547E-20         0.00000E+00
    0.10713E-18         0.99468E-21         0.00000E+00
    0.10713E-18         0.00000E+00         0.00000E+00
    0.10779E-18         0.00000E+00         0.00000E+00
    0.10832E-18         0.00000E+00         0.00000E+00
    0.10879E-18         0.13262E-20         0.00000E+00
    0.10895E-18         0.12977E-20         0.00000E+00
    0.10827E-18        -0.66312E-21         0.00000E+00
    0.10844E-18         0.00000E+00         0.00000E+00
    0.10776E-18        -0.69161E-21         0.00000E+00
    0.10760E-18        -0.13262E-20         0.00000E+00
    0.10643E-18         0.00000E+00         0.00000E+00
    0.10610E-18         0.00000E+00         0.00000E+00
    0.10776E-18         0.00000E+00         0.00000E+00
    0.10610E-18         0.00000E+00         0.00000E+00
    0.10345E-18         0.00000E+00         0.00000E+00
    0.10411E-18         0.00000E+00         0.00000E+00
    0.10596E-18         0.00000E+00         0.00000E+00
    0.10603E-18         0.33156E-21         0.00000E+00
    0.10610E-18         0.00000E+00         0.00000E+00
    0.10603E-18         0.00000E+00         0.00000E+00
    0.10603E-18         0.00000E+00         0.00000E+00
    0.10802E-18         0.00000E+00         0.00000E+00
    0.10868E-18         0.00000E+00         0.00000E+00
    0.10743E-18         0.33156E-21         0.00000E+00
    0.10875E-18        -0.33156E-21         0.00000E+00
    0.10607E-18        -0.33156E-21         0.00000E+00
    0.10676E-18         0.33156E-21         0.00000E+00
    0.10610E-18         0.66312E-21         0.00000E+00
    0.10610E-18         0.00000E+00         0.00000E+00
CELL_DATA        450
TENSORS stressef double 
   -0.12500E+08        -0.36998E-07         0.00000E+00
   -0.36998E-07        -0.50000E+08         0.00000E+00
    0.00000E+00         0.00000E+00        -0.12500E+08
 
   -0.12500E+08         0.10571E-07         0.00000E+00
    0.10571E-07        -0.50000E+08         0.00000E+00
    0.00000E+00         0.00000E+00        -0.12500E+08
 
   -0.12500E+08         0.10571E-07         0.00000E+00
    0.10571E-07        -0.50000E+08         0.00000E+00
    0.00000E+00         0.00000E+00        -0.12500E+08
 
   -0.12500E+08         0.17178E-07         0.00000E+00
    0.17178E-07        -0.50000E+08         0.00000E+00
    0.00000E+00         0.00000E+00        -0.12500E+08
 
   -0.12500E+08         0.10571E-07         0.00000E+00
    0.10571E-07        -0.50000E+08         0.00000E+00
    0.00000E+00         0.00000E+00        -0.12500E+08
 
   -0.12500E+08         0.26427E-08         0.00000E+00
    0.26427E-08        -0.50000E+08         0.00000E+00
    0.00000E+00         0.00000E+00        -0.12500E+08
 
   -0.12500E+08         0.10571E-07         0.00000E+00
    0.10571E-07        -0.50000E+08         0.00000E+00
    0.00000E+00         0.00000E+00        -0.12500E+08
 
   -0.12500E+08        -0.39641E-08         0.00000E+00
   -0.39641E-08        -0.50000E+08         0.00000E+00
    0.00000E+00         0.00000E+00        -0.12500E+08
 
   -0.12500E+08         0.00000E+00         0.00000E+00
    0.00000E+00        -0.50000E+08         0.00000E+00
    0.00000E+00         0.00000E+00        -0.12500E+08
 
   -0.12500E+08         0.00000E+00         0.00000E+00
    0.00000E+00        -0.50000E+08         0.00000E+00
    0.00000E+00         0.00000E+00        -0.12500E+08
 
   -0.12500E+08         0.46248E-08         0.00000E+00
    0.46248E-08        -0.50000E+08         0.00000E+00
    0.00000E+00         0.00000E+00        -0.12500E+08
 
   -0.12500E+08         0.11892E-07         0.00000E+00
    0.11892E-07        -0.50000E+08         0.00000E+00
    0.00000E+00         0.00000E+00        -0.12500E+08
 
   -0.12500E+08         0.20481E-07         0.00000E+00
    0.20481E-07        -0.50000E+08         0.00000E+00
    0.00000E+00         0.00000E+00        -0.12500E+08
 
   -0.12500E+08         0.18169E-07         0.00000E+00
    0.18169E-07        -0.50000E+08         0.00000E+00
    0.00000E+00         0.00000E+00        -0.12500E+08
 
   -0.12500E+08         0.20481E-07         0.00000E+00
    0.20481E-07        -0.50000E+08         0.00000E+00
    0.00000E+00         0.00000E+00        -0.12500E+08
 
   -0.12500E+08         0.29070E-07         0.00000E+00
    0.29070E-07        -0.50000E+08         0.00000E+00
    0.00000E+00         0.00000E+00        -0.12500E+08
 
   -0.12500E+08        -0.15856E-07         0.00000E+00
   -0.15856E-07        -0.50000E+08         0.00000E+00
    0.00000E+00         0.00000E+00        -0.12500E+08
 
   -0.12500E+08        -0.79282E-08         0.00000E+00
   -0.79282E-08        -0.50000E+08         0.00000E+00
    0.00000E+00         0.00000E+00        -0.12500E+08
 
   -0.12500E+08         0.17178E-07         0.00000E+00
    0.17178E-07        -0.50000E+08         0.00000E+00
    0.00000E+00         0.00000E+00        -0.12500E+08
 
   -0.12500E+08        -0.26427E-08         0.00000E+00
   -0.26427E-08        -0.50000E+08         0.00000E+00
    0.00000E+00         0.00000E+00        -0.12500E+08
 
   -0.12500E+08        -0.22463E-07         0.00000E+00
   -0.22463E-07        -0.50000E+08         0.00000E+00
    0.00000E+00         0.00000E+00        -0.12500E+08
 
   -0.12500E+08        -0.19821E-07         0.00000E+00
   -0.19821E-07        -0.50000E+08         0.00000E+00
    0.00000E+00         0.00000E+00        -0.12500E+08
 
   -0.12500E+08         0.11892E-07         0.00000E+00
    0.11892E-07        -0.50000E+08         0.00000E+00
    0.00000E+00         0.00000E+00        -0.12500E+08
 
   -0.12500E+08         0.14535E-07         0.00000E+00
    0.14535E-07        -0.50000E+08         0.00000E+00
    0.00000E+00         0.00000E+00        -0.12500E+08
 
   -0.12500E+08         0.23124E-07         0.00000E+00
    0.23124E-07        -0.50000E+08         0.00000E+00
    0.00000E+00         0.00000E+00        -0.12500E+08
 
   -0.12500E+08         0.40302E-07         0.00000E+00
    0.40302E-07        -0.50000E+08         0.00000E+00
    0.00000E+00         0.00000E+00        -0.12500E+08
 
   -0.12500E+08         0.31052E-07         0.00000E+00
    0.31052E-07        -0.50000E+08         0.00000E+00
    0.00000E+00         0.00000E+00        -0.12500E+08
 
   -0.12500E+08         0.38650E-07         0.00000E+00
    0.38650E-07        -0.50000E+08         0.00000E+00
    0.00000E+00         0.00000E+00        -0.12500E+08
 
   -0.12500E+08         0.55498E-07         0.00000E+00
    0.55498E-07        -0.50000E+08         0.00000E+00
    0.00000E+00         0.00000E+00        -0.12500E+08
 
   -0.12500E+08         0.67225E-07         0.00000E+00
    0.67225E-07        -0.50000E+08         0.00000E+00
    0.00000E+00         0.00000E+00        -0.12500E+08
 
   -0.12500E+08        -0.18499E-07         0.00000E+00
   -0.18499E-07        -0.50000E+08         0.00000E+00
    0.00000E+00         0.00000E+00        -0.12500E+08
 
   -0.12500E+08        -0.10571E-07         0.00000E+00
   -0.10571E-07        -0.50000E+08         0.00000E+00
    0.00000E+00         0.00000E+00        -0.12500E+08
 
   -0.12500E+08         0.18499E-07         0.00000E+00
    0.18499E-07        -0.50000E+08         0.00000E+00
    0.00000E+00         0.00000E+00        -0.12500E+08
 
   -0.12500E+08         0.14535E-07         0.00000E+00
    0.14535E-07        -0.50000E+08         0.00000E+00
    0.00000E+00         0.00000E+00        -0.12500E+08
 
   -0.12500E+08        -0.38320E-07         0.00000E+00
   -0.38320E-07        -0.50000E+08         0.00000E+00
    0.00000E+00         0.00000E+00        -0.12500E+08
 
   -0.12500E+08        -0.18499E-07         0.00000E+00
   -0.18499E-07        -0.50000E+08         0.00000E+00
    0.00000E+00         0.00000E+00        -0.12500E+08
 
   -0.12500E+08        -0.13214E-08         0.00000E+00
   -0.13214E-08        -0.50000E+08         0.00000E+00
    0.00000E+00         0.00000E+00        -0.12500E+08
 
   -0.12500E+08         0.26427E-07         0.00000E+00
    0.26427E-07        -0.50000E+08         0.00000E+00
    0.00000E+00         0.00000E+00        -0.12500E+08
 
   -0.12500E+08         0.26427E-07         0.00000E+00
    0.26427E-07        -0.50000E+08         0.00000E+00
    0.00000E+00         0.00000E+00        -0.12500E+08
 
   -0.12500E+08         0.12553E-07         0.00000E+00
    0.12553E-07        -0.50000E+08         0.00000E+00
    0.00000E+00         0.00000E+00        -0.12500E+08
 
   -0.12500E+08         0.25767E-07         0.00000E+00
    0.25767E-07        -0.50000E+08         0.00000E+00
    0.00000E+00         0.00000E+00        -0.12500E+08
 
   -0.12500E+08         0.48891E-07         0.00000E+00
    0.48891E-07        -0.50000E+08         0.00000E+00
    0.00000E+00         0.00000E+00        -0.12500E+08
 
   -0.12500E+08         0.69702E-07         0.00000E+00
    0.69702E-07        -0.50000E+08         0.00000E+00
    0.00000E+00         0.00000E+00        -0.12500E+08
 
   -0.12500E+08         0.96130E-07         0.00000E+00
    0.96130E-07        -0.50000E+08         0.00000E+00
    0.00000E+00         0.00000E+00        -0.12500E+08
 
   -0.12500E+08         0.11248E-06         0.00000E+00
    0.11248E-06        -0.50000E+08         0.00000E+00
    0.00000E+00         0.00000E+00        -0.12500E+08
 
   -0.12500E+08        -0.29070E-07         0.00000E+00
   -0.29070E-07        -0.50000E+08         0.00000E+00
    0.00000E+00         0.00000E+00        -0.12500E+08
 
   -0.12500E+08        -0.47569E-07         0.00000E+00
   -0.47569E-07        -0.50000E+08         0.00000E+00
    0.00000E+00         0.00000E+00        -0.12500E+08
 
   -0.12500E+08        -0.34356E-07         0.00000E+00
   -0.34356E-07        -0.50000E+08         0.00000E+00
    0.00000E+00         0.00000E+00        -0.12500E+08
 
   -0.12500E+08        -0.18499E-07         0.00000E+00
   -0.18499E-07        -0.50000E+08         0.00000E+00
    0.00000E+00         0.00000E+00        -0.12500E+08
 
   -0.12500E+08        -0.46248E-07         0.00000E+00
   -0.46248E-07        -0.50000E+08         0.00000E+00
    0.00000E+00         0.00000E+00        -0.12500E+08
 
   -0.12500E+08        -0.66069E-08         0.00000E+00
   -0.66069E-08        -0.50000E+08         0.00000E+00
    0.00000E+00         0.00000E+00        -0.12500E+08
 
   -0.12500E+08         0.52855E-08         0.00000E+00
    0.52855E-08        -0.50000E+08         0.00000E+00
    0.00000E+00         0.00000E+00        -0.12500E+08
 
   -0.12500E+08         0.52855E-08         0.00000E+00
    0.52855E-08        -0.50000E+08         0.00000E+00
    0.00000E+00         0.00000E+00        -0.12500E+08
 
   -0.12500E+08         0.18499E-07         0.00000E+00
    0.18499E-07        -0.50000E+08         0.00000E+00
    0.00000E+00         0.00000E+00        -0.12500E+08
 
   -0.12500E+08         0.42945E-07         0.00000E+00
    0.42945E-07        -0.50000E+08         0.00000E+00
    0.00000E+00         0.00000E+00        -0.12500E+08
 
   -0.12500E+08         0.56158E-07         0.00000E+00
    0.56158E-07        -0.50000E+08         0.00000E+00
    0.00000E+00         0.00000E+00        -0.12500E+08
 
   -0.12500E+08         0.74657E-07         0.00000E+00
    0.74657E-07        -0.50000E+08         0.00000E+00
    0.00000E+00         0.00000E+00        -0.12500E+08
 
   -0.12500E+08         0.99764E-07         0.00000E+00
    0.99764E-07        -0.50000E+08         0.00000E+00
    0.00000E+00         0.00000E+00        -0.12500E+08
 
   -0.12500E+08         0.12520E-06         0.00000E+00
    0.12520E-06        -0.50000E+08         0.00000E+00
    0.00000E+00         0.00000E+00        -0.12500E+08
 
   -0.12500E+08         0.15741E-06         0.00000E+00
    0.15741E-06        -0.50000E+08         0.00000E+00
    0.00000E+00         0.00000E+00        -0.12500E+08
 
   -0.12500E+08        -0.50212E-07         0.00000E+00
   -0.50212E-07        -0.50000E+08         0.00000E+00
    0.00000E+00         0.00000E+00        -0.12500E+08
 
   -0.12500E+08        -0.47569E-07         0.00000E+00
   -0.47569E-07        -0.50000E+08         0.00000E+00
    0.00000E+00         0.00000E+00        -0.12500E+08
 
   -0.12500E+08        -0.31713E-07         0.00000E+00
   -0.31713E-07        -0.50000E+08         0.00000E+00
    0.00000E+00         0.00000E+00        -0.12500E+08
 
   -0.12500E+08        -0.10571E-07         0.00000E+00
   -0.10571E-07        -0.50000E+08         0.00000E+00
    0.00000E+00         0.00000E+00        -0.12500E+08
 
   -0.12500E+08        -0.92496E-08         0.00000E+00
   -0.92496E-08        -0.50000E+08         0.00000E+00
    0.00000E+00         0.00000E+00        -0.12500E+08
 
   -0.12500E+08        -0.14535E-07         0.00000E+00
   -0.14535E-07        -0.50000E+08         0.00000E+00
    0.00000E+00         0.00000E+00        -0.12500E+08
 
   -0.12500E+08         0.31713E-07         0.00000E+00
    0.31713E-07        -0.50000E+08         0.00000E+00
    0.00000E+00         0.00000E+00        -0.12500E+08
 
   -0.12500E+08         0.11892E-07         0.00000E+00
    0.11892E-07        -0.50000E+08         0.00000E+00
    0.00000E+00         0.00000E+00        -0.12500E+08
 
   -0.12500E+08         0.13214E-07         0.00000E+00
    0.13214E-07        -0.50000E+08         0.00000E+00
    0.00000E+00         0.00000E+00        -0.12500E+08
 
   -0.12500E+08         0.23124E-07         0.00000E+00
    0.23124E-07        -0.50000E+08         0.00000E+00
    0.00000E+00         0.00000E+00        -0.12500E+08
 
   -0.12500E+08         0.64087E-07         0.00000E+00
    0.64087E-07        -0.50000E+08         0.00000E+00
    0.00000E+00         0.00000E+00        -0.12500E+08
 
   -0.12500E+08         0.10175E-06         0.00000E+00
    0.10175E-06        -0.50000E+08         0.00000E+00
    0.00000E+00         0.00000E+00        -0.12500E+08
 
   -0.12500E+08         0.12619E-06         0.00000E+00
    0.12619E-06        -0.50000E+08         0.00000E+00
    0.00000E+00         0.00000E+00        -0.12500E+08
 
   -0.12500E+08         0.16484E-06         0.00000E+00
    0.16484E-06        -0.50000E+08         0.00000E+00
    0.00000E+00         0.00000E+00        -0.12500E+08
 
   -0.12500E+08         0.20052E-06         0.00000E+00
    0.20052E-06        -0.50000E+08         0.00000E+00
    0.00000E+00         0.00000E+00        -0.12500E+08
 
   -0.12500E+08        -0.29070E-07         0.00000E+00
   -0.29070E-07        -0.50000E+08         0.00000E+00
    0.00000E+00         0.00000E+00        -0.12500E+08
 
   -0.12500E+08        -0.23785E-07         0.00000E+00
   -0.23785E-07        -0.50000E+08         0.00000E+00
    0.00000E+00         0.00000E+00        -0.12500E+08
 
   -0.12500E+08         0.29070E-07         0.00000E+00
    0.29070E-07        -0.50000E+08         0.00000E+00
    0.00000E+00         0.00000E+00        -0.12500E+08
 
   -0.12500E+08        -0.15856E-07         0.00000E+00
   -0.15856E-07        -0.50000E+08         0.00000E+00
    0.00000E+00         0.00000E+00        -0.12500E+08
 
   -0.12500E+08        -0.21142E-07         0.00000E+00
   -0.21142E-07        -0.50000E+08         0.00000E+00
    0.00000E+00         0.00000E+00        -0.12500E+08
 
   -0.12500E+08        -0.17178E-07         0.00000E+00
   -0.17178E-07        -0.50000E+08         0.00000E+00
    0.00000E+00         0.00000E+00        -0.12500E+08
 
   -0.12500E+08         0.13214E-08         0.00000E+00
    0.13214E-08        -0.50000E+08         0.00000E+00
    0.00000E+00         0.00000E+00        -0.12500E+08
 
   -0.12500E+08         0.21142E-07         0.00000E+00
    0.21142E-07        -0.50000E+08         0.00000E+00
    0.00000E+00         0.00000E+00        -0.12500E+08
 
   -0.12500E+08         0.35677E-07         0.00000E+00
    0.35677E-07        -0.50000E+08         0.00000E+00
    0.00000E+00         0.00000E+00        -0.12500E+08
 
   -0.12500E+08         0.62104E-07         0.00000E+00
    0.62104E-07        -0.50000E+08         0.00000E+00
    0.00000E+00         0.00000E+00        -0.12500E+08
 
   -0.12500E+08         0.85889E-07         0.00000E+00
    0.85889E-07        -0.50000E+08         0.00000E+00
    0.00000E+00         0.00000E+00        -0.12500E+08
 
   -0.12500E+08         0.12091E-06         0.00000E+00
    0.12091E-06        -0.50000E+08         0.00000E+00
    0.00000E+00         0.00000E+00        -0.12500E+08
 
   -0.12500E+08         0.16220E-06         0.00000E+00
    0.16220E-06        -0.50000E+08         0.00000E+00
    0.00000E+00         0.00000E+00        -0.12500E+08
 
   -0.12500E+08         0.20184E-06         0.00000E+00
    0.20184E-06        -0.50000E+08         0.00000E+00
    0.00000E+00         0.00000E+00        -0.12500E+08
 
   -0.12500E+08         0.24429E-06         0.00000E+00
    0.24429E-06        -0.50000E+08         0.00000E+00
    0.00000E+00         0.00000E+00        -0.12500E+08
 
   -0.12500E+08         0.79282E-08         0.00000E+00
    0.79282E-08        -0.50000E+08         0.00000E+00
    0.00000E+00         0.00000E+00        -0.12500E+08
 
   -0.12500E+08        -0.39641E-07         0.00000E+00
   -0.39641E-07        -0.50000E+08         0.00000E+00
    0.00000E+00         0.00000E+00        -0.12500E+08
 
   -0.12500E+08        -0.13214E-07         0.00000E+00
   -0.13214E-07        -0.50000E+08         0.00000E+00
    0.00000E+00         0.00000E+00        -0.12500E+08
 
   -0.12500E+08        -0.46248E-07         0.00000E+00
   -0.46248E-07        -0.50000E+08         0.00000E+00
    0.00000E+00         0.00000E+00        -0.12500E+08
 
   -0.12500E+08        -0.52855E-07         0.00000E+00
   -0.52855E-07        -0.50000E+08         0.00000E+00
    0.00000E+00         0.00000E+00        -0.12500E+08
 
   -0.12500E+08        -0.51533E-07         0.00000E+00
   -0.51533E-07        -0.50000E+08         0.00000E+00
    0.00000E+00         0.00000E+00        -0.12500E+08
 
   -0.12500E+08        -0.26427E-08         0.00000E+00
   -0.26427E-08        -0.50000E+08         0.00000E+00
    0.00000E+00         0.00000E+00        -0.12500E+08
 
   -0.12500E+08         0.79282E-08         0.00000E+00
    0.79282E-08        -0.50000E+08         0.00000E+00
    0.00000E+00         0.00000E+00        -0.12500E+08
 
   -0.12500E+08         0.26427E-07         0.00000E+00
    0.26427E-07        -0.50000E+08         0.00000E+00
    0.00000E+00         0.00000E+00        -0.12500E+08
 
   -0.12500E+08         0.60783E-07         0.00000E+00
    0.60783E-07        -0.50000E+08         0.00000E+00
    0.00000E+00         0.00000E+00        -0.12500E+08
 
   -0.12500E+08         0.97121E-07         0.00000E+00
    0.97121E-07        -0.50000E+08         0.00000E+00
    0.00000E+00         0.00000E+00        -0.12500E+08
 
   -0.12500E+08         0.14007E-06         0.00000E+00
    0.14007E-06        -0.50000E+08         0.00000E+00
    0.00000E+00         0.00000E+00        -0.12500E+08
 
   -0.12500E+08         0.17574E-06         0.00000E+00
    0.17574E-06        -0.50000E+08         0.00000E+00
    0.00000E+00         0.00000E+00        -0.12500E+08
 
   -0.12500E+08         0.22794E-06         0.00000E+00
    0.22794E-06        -0.50000E+08         0.00000E+00
    0.00000E+00         0.00000E+00        -0.12500E+08
 
   -0.12500E+08         0.28376E-06         0.00000E+00
    0.28376E-06        -0.50000E+08         0.00000E+00
    0.00000E+00         0.00000E+00        -0.12500E+08
 
   -0.12500E+08        -0.15856E-07         0.00000E+00
   -0.15856E-07        -0.50000E+08         0.00000E+00
    0.00000E+00         0.00000E+00        -0.12500E+08
 
   -0.12500E+08        -0.66069E-07         0.00000E+00
   -0.66069E-07        -0.50000E+08         0.00000E+00
    0.00000E+00         0.00000E+00        -0.12500E+08
 
   -0.12500E+08        -0.47569E-07         0.00000E+00
   -0.47569E-07        -0.50000E+08         0.00000E+00
    0.00000E+00         0.00000E+00        -0.12500E+08
 
   -0.12500E+08        -0.60783E-07         0.00000E+00
   -0.60783E-07        -0.50000E+08         0.00000E+00
    0.00000E+00         0.00000E+00        -0.12500E+08
 
   -0.12500E+08        -0.58140E-07         0.00000E+00
   -0.58140E-07        -0.50000E+08         0.00000E+00
    0.00000E+00         0.00000E+00        -0.12500E+08
 
   -0.12500E+08        -0.26427E-08         0.00000E+00
   -0.26427E-08        -0.50000E+08         0.00000E+00
    0.00000E+00         0.00000E+00        -0.12500E+08
 
   -0.12500E+08         0.39641E-08         0.00000E+00
    0.39641E-08        -0.50000E+08         0.00000E+00
    0.00000E+00         0.00000E+00        -0.12500E+08
 
   -0.12500E+08         0.26427E-08         0.00000E+00
    0.26427E-08        -0.50000E+08         0.00000E+00
    0.00000E+00         0.00000E+00        -0.12500E+08
 
   -0.12500E+08         0.43605E-07         0.00000E+00
    0.43605E-07        -0.50000E+08         0.00000E+00
    0.00000E+00         0.00000E+00        -0.12500E+08
 
   -0.12500E+08         0.87211E-07         0.00000E+00
    0.87211E-07        -0.50000E+08         0.00000E+00
    0.00000E+00         0.00000E+00        -0.12500E+08
 
   -0.12500E+08         0.12355E-06         0.00000E+00
    0.12355E-06        -0.50000E+08         0.00000E+00
    0.00000E+00         0.00000E+00        -0.12500E+08
 
   -0.12500E+08         0.15262E-06         0.00000E+00
    0.15262E-06        -0.50000E+08         0.00000E+00
    0.00000E+00         0.00000E+00        -0.12500E+08
 
   -0.12500E+08         0.21010E-06         0.00000E+00
    0.21010E-06        -0.50000E+08         0.00000E+00
    0.00000E+00         0.00000E+00        -0.12500E+08
 
   -0.12500E+08         0.27055E-06         0.00000E+00
    0.27055E-06        -0.50000E+08         0.00000E+00
    0.00000E+00         0.00000E+00        -0.12500E+08
 
   -0.12500E+08         0.32390E-06         0.00000E+00
    0.32390E-06        -0.50000E+08         0.00000E+00
    0.00000E+00         0.00000E+00        -0.12500E+08
 
   -0.12500E+08        -0.55498E-07         0.00000E+00
   -0.55498E-07        -0.50000E+08         0.00000E+00
    0.00000E+00         0.00000E+00        -0.12500E+08
 
   -0.12500E+08        -0.95139E-07         0.00000E+00
   -0.95139E-07        -0.50000E+08         0.00000E+00
    0.00000E+00         0.00000E+00        -0.12500E+08
 
   -0.12500E+08        -0.76640E-07         0.00000E+00
   -0.76640E-07        -0.50000E+08         0.00000E+00
    0.00000E+00         0.00000E+00        -0.12500E+08
 
   -0.12500E+08        -0.58140E-07         0.00000E+00
   -0.58140E-07        -0.50000E+08         0.00000E+00
    0.00000E+00         0.00000E+00        -0.12500E+08
 
   -0.12500E+08        -0.26427E-07         0.00000E+00
   -0.26427E-07        -0.50000E+08         0.00000E+00
    0.00000E+00         0.00000E+00        -0.12500E+08
 
   -0.12500E+08        -0.26427E-07         0.00000E+00
   -0.26427E-07        -0.50000E+08         0.00000E+00
    0.00000E+00         0.00000E+00        -0.12500E+08
 
   -0.12500E+08         0.26427E-08         0.00000E+00
    0.26427E-08        -0.50000E+08         0.00000E+00
    0.00000E+00         0.00000E+00        -0.12500E+08
 
   -0.12500E+08         0.34356E-07         0.00000E+00
    0.34356E-07        -0.50000E+08         0.00000E+00
    0.00000E+00         0.00000E+00        -0.12500E+08
 
   -0.12500E+08         0.50212E-07         0.00000E+00
    0.50212E-07        -0.50000E+08         0.00000E+00
    0.00000E+00         0.00000E+00        -0.12500E+08
 
   -0.12500E+08         0.72675E-07         0.00000E+00
    0.72675E-07        -0.50000E+08         0.00000E+00
    0.00000E+00         0.00000E+00        -0.12500E+08
 
   -0.12500E+08         0.11760E-06         0.00000E+00
    0.11760E-06        -0.50000E+08         0.00000E+00
    0.00000E+00         0.00000E+00        -0.12500E+08
 
   -0.12500E+08         0.17376E-06         0.00000E+00
    0.17376E-06        -0.50000E+08         0.00000E+00
    0.00000E+00         0.00000E+00        -0.12500E+08
 
   -0.12500E+08         0.22529E-06         0.00000E+00
    0.22529E-06        -0.50000E+08         0.00000E+00
    0.00000E+00         0.00000E+00        -0.12500E+08
 
   -0.12500E+08         0.28905E-06         0.00000E+00
    0.28905E-06        -0.50000E+08         0.00000E+00
    0.00000E+00         0.00000E+00        -0.12500E+08
 
   -0.12500E+08         0.35215E-06         0.00000E+00
    0.35215E-06        -0.50000E+08         0.00000E+00
    0.00000E+00         0.00000E+00        -0.12500E+08
 
   -0.12500E+08        -0.58140E-07         0.00000E+00
   -0.58140E-07        -0.50000E+08         0.00000E+00
    0.00000E+00         0.00000E+00        -0.12500E+08
 
   -0.12500E+08        -0.50212E-07         0.00000E+00
   -0.50212E-07        -0.50000E+08         0.00000E+00
    0.00000E+00         0.00000E+00        -0.12500E+08
 
   -0.12500E+08        -0.21142E-07         0.00000E+00
   -0.21142E-07        -0.50000E+08         0.00000E+00
    0.00000E+00         0.00000E+00        -0.12500E+08
 
   -0.12500E+08        -0.64747E-07         0.00000E+00
   -0.64747E-07        -0.50000E+08         0.00000E+00
    0.00000E+00         0.00000E+00        -0.12500E+08
 
   -0.12500E+08        -0.39641E-07         0.00000E+00
   -0.39641E-07        -0.50000E+08         0.00000E+00
    0.00000E+00         0.00000E+00        -0.12500E+08
 
   -0.12500E+08        -0.23785E-07         0.00000E+00
   -0.23785E-07        -0.50000E+08         0.00000E+00
    0.00000E+00         0.00000E+00        -0.12500E+08
 
   -0.12500E+08        -0.34356E-07         0.00000E+00
   -0.34356E-07        -0.50000E+08         0.00000E+00
    0.00000E+00         0.00000E+00        -0.12500E+08
 
   -0.12500E+08        -0.66069E-08         0.00000E+00
   -0.66069E-08        -0.50000E+08         0.00000E+00
    0.00000E+00         0.00000E+00        -0.12500E+08
 
   -0.12500E+08         0.40963E-07         0.00000E+00
    0.40963E-07        -0.50000E+08         0.00000E+00
    0.00000E+00         0.00000E+00        -0.12500E+08
 
   -0.12500E+08         0.87211E-07         0.00000E+00
    0.87211E-07        -0.50000E+08         0.00000E+00
    0.00000E+00         0.00000E+00        -0.12500E+08
 
   -0.12500E+08         0.14469E-06         0.00000E+00
    0.14469E-06        -0.50000E+08         0.00000E+00
    0.00000E+00         0.00000E+00        -0.12500E+08
 
   -0.12500E+08         0.18037E-06         0.00000E+00
    0.18037E-06        -0.50000E+08         0.00000E+00
    0.00000E+00         0.00000E+00        -0.12500E+08
 
   -0.12500E+08         0.24115E-06         0.00000E+00
    0.24115E-06        -0.50000E+08         0.00000E+00
    0.00000E+00         0.00000E+00        -0.12500E+08
 
   -0.12500E+08         0.31614E-06         0.00000E+00
    0.31614E-06        -0.50000E+08         0.00000E+00
    0.00000E+00         0.00000E+00        -0.12500E+08
 
   -0.12500E+08         0.38815E-06         0.00000E+00
    0.38815E-06        -0.50000E+08         0.00000E+00
    0.00000E+00         0.00000E+00        -0.12500E+08
 
   -0.12500E+08         0.21142E-07         0.00000E+00
    0.21142E-07        -0.50000E+08         0.00000E+00
    0.00000E+00         0.00000E+00        -0.12500E+08
 
   -0.12500E+08        -0.71354E-07         0.00000E+00
   -0.71354E-07        -0.50000E+08         0.00000E+00
    0.00000E+00         0.00000E+00        -0.12500E+08
 
   -0.12500E+08        -0.55498E-07         0.00000E+00
   -0.55498E-07        -0.50000E+08         0.00000E+00
    0.00000E+00         0.00000E+00        -0.12500E+08
 
   -0.12500E+08        -0.67390E-07         0.00000E+00
   -0.67390E-07        -0.50000E+08         0.00000E+00
    0.00000E+00         0.00000E+00        -0.12500E+08
 
   -0.12500E+08        -0.22463E-07         0.00000E+00
   -0.22463E-07        -0.50000E+08         0.00000E+00
    0.00000E+00         0.00000E+00        -0.12500E+08
 
   -0.12500E+08        -0.21142E-07         0.00000E+00
   -0.21142E-07        -0.50000E+08         0.00000E+00
    0.00000E+00         0.00000E+00        -0.12500E+08
 
   -0.12500E+08        -0.23785E-07         0.00000E+00
   -0.23785E-07        -0.50000E+08         0.00000E+00
    0.00000E+00         0.00000E+00        -0.12500E+08
 
   -0.12500E+08         0.39641E-08         0.00000E+00
    0.39641E-08        -0.50000E+08         0.00000E+00
    0.00000E+00         0.00000E+00        -0.12500E+08
 
   -0.12500E+08         0.36998E-07         0.00000E+00
    0.36998E-07        -0.50000E+08         0.00000E+00
    0.00000E+00         0.00000E+00        -0.12500E+08
 
   -0.12500E+08         0.72015E-07         0.00000E+00
    0.72015E-07        -0.50000E+08         0.00000E+00
    0.00000E+00         0.00000E+00        -0.12500E+08
 
   -0.12500E+08         0.13280E-06         0.00000E+00
    0.13280E-06        -0.50000E+08         0.00000E+00
    0.00000E+00         0.00000E+00        -0.12500E+08
 
   -0.12500E+08         0.18565E-06         0.00000E+00
    0.18565E-06        -0.50000E+08         0.00000E+00
    0.00000E+00         0.00000E+00        -0.12500E+08
 
   -0.12500E+08         0.25668E-06         0.00000E+00
    0.25668E-06        -0.50000E+08         0.00000E+00
    0.00000E+00         0.00000E+00        -0.12500E+08
 
   -0.12500E+08         0.33232E-06         0.00000E+00
    0.33232E-06        -0.50000E+08         0.00000E+00
    0.00000E+00         0.00000E+00        -0.12500E+08
 
   -0.12500E+08         0.41574E-06         0.00000E+00
    0.41574E-06        -0.50000E+08         0.00000E+00
    0.00000E+00         0.00000E+00        -0.12500E+08
 
   -0.12500E+08        -0.31713E-07         0.00000E+00
   -0.31713E-07        -0.50000E+08         0.00000E+00
    0.00000E+00         0.00000E+00        -0.12500E+08
 
   -0.12500E+08        -0.76640E-07         0.00000E+00
   -0.76640E-07        -0.50000E+08         0.00000E+00
    0.00000E+00         0.00000E+00        -0.12500E+08
 
   -0.12500E+08        -0.50212E-07         0.00000E+00
   -0.50212E-07        -0.50000E+08         0.00000E+00
    0.00000E+00         0.00000E+00        -0.12500E+08
 
   -0.12500E+08        -0.68711E-07         0.00000E+00
   -0.68711E-07        -0.50000E+08         0.00000E+00
    0.00000E+00         0.00000E+00        -0.12500E+08
 
   -0.12500E+08        -0.36998E-07         0.00000E+00
   -0.36998E-07        -0.50000E+08         0.00000E+00
    0.00000E+00         0.00000E+00        -0.12500E+08
 
   -0.12500E+08        -0.63426E-07         0.00000E+00
   -0.63426E-07        -0.50000E+08         0.00000E+00
    0.00000E+00         0.00000E+00        -0.12500E+08
 
   -0.12500E+08        -0.13214E-07         0.00000E+00
   -0.13214E-07        -0.50000E+08         0.00000E+00
    0.00000E+00         0.00000E+00        -0.12500E+08
 
   -0.12500E+08        -0.79282E-08         0.00000E+00
   -0.79282E-08        -0.50000E+08         0.00000E+00
    0.00000E+00         0.00000E+00        -0.12500E+08
 
   -0.12500E+08         0.29070E-07         0.00000E+00
    0.29070E-07        -0.50000E+08         0.00000E+00
    0.00000E+00         0.00000E+00        -0.12500E+08
 
   -0.12500E+08         0.98442E-07         0.00000E+00
    0.98442E-07        -0.50000E+08         0.00000E+00
    0.00000E+00         0.00000E+00        -0.12500E+08
 
   -0.12500E+08         0.14535E-06         0.00000E+00
    0.14535E-06        -0.50000E+08         0.00000E+00
    0.00000E+00         0.00000E+00        -0.12500E+08
 
   -0.12500E+08         0.20283E-06         0.00000E+00
    0.20283E-06        -0.50000E+08         0.00000E+00
    0.00000E+00         0.00000E+00        -0.12500E+08
 
   -0.12500E+08         0.27980E-06         0.00000E+00
    0.27980E-06        -0.50000E+08         0.00000E+00
    0.00000E+00         0.00000E+00        -0.12500E+08
 
   -0.12500E+08         0.35809E-06         0.00000E+00
    0.35809E-06        -0.50000E+08         0.00000E+00
    0.00000E+00         0.00000E+00        -0.12500E+08
 
   -0.12500E+08         0.43969E-06         0.00000E+00
    0.43969E-06        -0.50000E+08         0.00000E+00
    0.00000E+00         0.00000E+00        -0.12500E+08
 
   -0.12500E+08        -0.26427E-07         0.00000E+00
   -0.26427E-07        -0.50000E+08         0.00000E+00
    0.00000E+00         0.00000E+00        -0.12500E+08
 
   -0.12500E+08        -0.79282E-07         0.00000E+00
   -0.79282E-07        -0.50000E+08         0.00000E+00
    0.00000E+00         0.00000E+00        -0.12500E+08
 
   -0.12500E+08        -0.42284E-07         0.00000E+00
   -0.42284E-07        -0.50000E+08         0.00000E+00
    0.00000E+00         0.00000E+00        -0.12500E+08
 
   -0.12500E+08        -0.56819E-07         0.00000E+00
   -0.56819E-07        -0.50000E+08         0.00000E+00
    0.00000E+00         0.00000E+00        -0.12500E+08
 
   -0.12500E+08        -0.77961E-07         0.00000E+00
   -0.77961E-07        -0.50000E+08         0.00000E+00
    0.00000E+00         0.00000E+00        -0.12500E+08
 
   -0.12500E+08        -0.60783E-07         0.00000E+00
   -0.60783E-07        -0.50000E+08         0.00000E+00
    0.00000E+00         0.00000E+00        -0.12500E+08
 
   -0.12500E+08        -0.30392E-07         0.00000E+00
   -0.30392E-07        -0.50000E+08         0.00000E+00
    0.00000E+00         0.00000E+00        -0.12500E+08
 
   -0.12500E+08        -0.19821E-07         0.00000E+00
   -0.19821E-07        -0.50000E+08         0.00000E+00
    0.00000E+00         0.00000E+00        -0.12500E+08
 
   -0.12500E+08         0.40963E-07         0.00000E+00
    0.40963E-07        -0.50000E+08         0.00000E+00
    0.00000E+00         0.00000E+00        -0.12500E+08
 
   -0.12500E+08         0.72015E-07         0.00000E+00
    0.72015E-07        -0.50000E+08         0.00000E+00
    0.00000E+00         0.00000E+00        -0.12500E+08
 
   -0.12500E+08         0.14139E-06         0.00000E+00
    0.14139E-06        -0.50000E+08         0.00000E+00
    0.00000E+00         0.00000E+00        -0.12500E+08
 
   -0.12500E+08         0.20944E-06         0.00000E+00
    0.20944E-06        -0.50000E+08         0.00000E+00
    0.00000E+00         0.00000E+00        -0.12500E+08
 
   -0.12500E+08         0.29334E-06         0.00000E+00
    0.29334E-06        -0.50000E+08         0.00000E+00
    0.00000E+00         0.00000E+00        -0.12500E+08
 
   -0.12500E+08         0.37692E-06         0.00000E+00
    0.37692E-06        -0.50000E+08         0.00000E+00
    0.00000E+00         0.00000E+00        -0.12500E+08
 
   -0.12500E+08         0.46810E-06         0.00000E+00
    0.46810E-06        -0.50000E+08         0.00000E+00
    0.00000E+00         0.00000E+00        -0.12500E+08
 
   -0.12500E+08        -0.21142E-07         0.00000E+00
   -0.21142E-07        -0.50000E+08         0.00000E+00
    0.00000E+00         0.00000E+00        -0.12500E+08
 
   -0.12500E+08        -0.76640E-07         0.00000E+00
   -0.76640E-07        -0.50000E+08         0.00000E+00
    0.00000E+00         0.00000E+00        -0.12500E+08
 
   -0.12500E+08        -0.87211E-07         0.00000E+00
   -0.87211E-07        -0.50000E+08         0.00000E+00
    0.00000E+00         0.00000E+00        -0.12500E+08
 
   -0.12500E+08        -0.83246E-07         0.00000E+00
   -0.83246E-07        -0.50000E+08         0.00000E+00
    0.00000E+00         0.00000E+00        -0.12500E+08
 
   -0.12500E+08        -0.75318E-07         0.00000E+00
   -0.75318E-07        -0.50000E+08         0.00000E+00
    0.00000E+00         0.00000E+00        -0.12500E+08
 
   -0.12500E+08        -0.59462E-07         0.00000E+00
   -0.59462E-07        -0.50000E+08         0.00000E+00
    0.00000E+00         0.00000E+00        -0.12500E+08
 
   -0.12500E+08        -0.39641E-07         0.00000E+00
   -0.39641E-07        -0.50000E+08         0.00000E+00
    0.00000E+00         0.00000E+00        -0.12500E+08
 
   -0.12500E+08         0.66069E-08         0.00000E+00
    0.66069E-08        -0.50000E+08         0.00000E+00
    0.00000E+00         0.00000E+00        -0.12500E+08
 
   -0.12500E+08         0.23785E-07         0.00000E+00
    0.23785E-07        -0.50000E+08         0.00000E+00
    0.00000E+00         0.00000E+00        -0.12500E+08
 
   -0.12500E+08         0.81264E-07         0.00000E+00
    0.81264E-07        -0.50000E+08         0.00000E+00
    0.00000E+00         0.00000E+00        -0.12500E+08
 
   -0.12500E+08         0.16385E-06         0.00000E+00
    0.16385E-06        -0.50000E+08         0.00000E+00
    0.00000E+00         0.00000E+00        -0.12500E+08
 
   -0.12500E+08         0.21472E-06         0.00000E+00
    0.21472E-06        -0.50000E+08         0.00000E+00
    0.00000E+00         0.00000E+00        -0.12500E+08
 
   -0.12500E+08         0.29235E-06         0.00000E+00
    0.29235E-06        -0.50000E+08         0.00000E+00
    0.00000E+00         0.00000E+00        -0.12500E+08
 
   -0.12500E+08         0.38551E-06         0.00000E+00
    0.38551E-06        -0.50000E+08         0.00000E+00
    0.00000E+00         0.00000E+00        -0.12500E+08
 
   -0.12500E+08         0.47999E-06         0.00000E+00
    0.47999E-06        -0.50000E+08         0.00000E+00
    0.00000E+00         0.00000E+00        -0.12500E+08
 
   -0.12500E+08        -0.10571E-07         0.00000E+00
   -0.10571E-07        -0.50000E+08         0.00000E+00
    0.00000E+00         0.00000E+00        -0.12500E+08
 
   -0.12500E+08        -0.52855E-07         0.00000E+00
   -0.52855E-07        -0.50000E+08         0.00000E+00
    0.00000E+00         0.00000E+00        -0.12500E+08
 
   -0.12500E+08        -0.89853E-07         0.00000E+00
   -0.89853E-07        -0.50000E+08         0.00000E+00
    0.00000E+00         0.00000E+00        -0.12500E+08
 
   -0.12500E+08        -0.88532E-07         0.00000E+00
   -0.88532E-07        -0.50000E+08         0.00000E+00
    0.00000E+00         0.00000E+00        -0.12500E+08
 
   -0.12500E+08        -0.77961E-07         0.00000E+00
   -0.77961E-07        -0.50000E+08         0.00000E+00
    0.00000E+00         0.00000E+00        -0.12500E+08
 
   -0.12500E+08        -0.88532E-07         0.00000E+00
   -0.88532E-07        -0.50000E+08         0.00000E+00
    0.00000E+00         0.00000E+00        -0.12500E+08
 
   -0.12500E+08        -0.54176E-07         0.00000E+00
   -0.54176E-07        -0.50000E+08         0.00000E+00
    0.00000E+00         0.00000E+00        -0.12500E+08
 
   -0.12500E+08        -0.11892E-07         0.00000E+00
   -0.11892E-07        -0.50000E+08         0.00000E+00
    0.00000E+00         0.00000E+00        -0.12500E+08
 
   -0.12500E+08         0.26427E-07         0.00000E+00
    0.26427E-07        -0.50000E+08         0.00000E+00
    0.00000E+00         0.00000E+00        -0.12500E+08
 
   -0.12500E+08         0.81925E-07         0.00000E+00
    0.81925E-07        -0.50000E+08         0.00000E+00
    0.00000E+00         0.00000E+00        -0.12500E+08
 
   -0.12500E+08         0.14403E-06         0.00000E+00
    0.14403E-06        -0.50000E+08         0.00000E+00
    0.00000E+00         0.00000E+00        -0.12500E+08
 
   -0.12500E+08         0.20746E-06         0.00000E+00
    0.20746E-06        -0.50000E+08         0.00000E+00
    0.00000E+00         0.00000E+00        -0.12500E+08
 
   -0.12500E+08         0.31416E-06         0.00000E+00
    0.31416E-06        -0.50000E+08         0.00000E+00
    0.00000E+00         0.00000E+00        -0.12500E+08
 
   -0.12500E+08         0.41161E-06         0.00000E+00
    0.41161E-06        -0.50000E+08         0.00000E+00
    0.00000E+00         0.00000E+00        -0.12500E+08
 
   -0.12500E+08         0.50377E-06         0.00000E+00
    0.50377E-06        -0.50000E+08         0.00000E+00
    0.00000E+00         0.00000E+00        -0.12500E+08
 
   -0.12500E+08        -0.39641E-07         0.00000E+00
   -0.39641E-07        -0.50000E+08         0.00000E+00
    0.00000E+00         0.00000E+00        -0.12500E+08
 
   -0.12500E+08        -0.66069E-07         0.00000E+00
   -0.66069E-07        -0.50000E+08         0.00000E+00
    0.00000E+00         0.00000E+00        -0.12500E+08
 
   -0.12500E+08        -0.81925E-07         0.00000E+00
   -0.81925E-07        -0.50000E+08         0.00000E+00
    0.00000E+00         0.00000E+00        -0.12500E+08
 
   -0.12500E+08        -0.11100E-06         0.00000E+00
   -0.11100E-06        -0.50000E+08         0.00000E+00
    0.00000E+00         0.00000E+00        -0.12500E+08
 
   -0.12500E+08        -0.10307E-06         0.00000E+00
   -0.10307E-06        -0.50000E+08         0.00000E+00
    0.00000E+00         0.00000E+00        -0.12500E+08
 
   -0.12500E+08        -0.88532E-07         0.00000E+00
   -0.88532E-07        -0.50000E+08         0.00000E+00
    0.00000E+00         0.00000E+00        -0.12500E+08
 
   -0.12500E+08        -0.52855E-07         0.00000E+00
   -0.52855E-07        -0.50000E+08         0.00000E+00
    0.00000E+00         0.00000E+00        -0.12500E+08
 
   -0.12500E+08        -0.26427E-08         0.00000E+00
   -0.26427E-08        -0.50000E+08         0.00000E+00
    0.00000E+00         0.00000E+00        -0.12500E+08
 
   -0.12500E+08         0.21142E-07         0.00000E+00
    0.21142E-07        -0.50000E+08         0.00000E+00
    0.00000E+00         0.00000E+00        -0.12500E+08
 
   -0.12500E+08         0.60783E-07         0.00000E+00
    0.60783E-07        -0.50000E+08         0.00000E+00
    0.00000E+00         0.00000E+00        -0.12500E+08
 
   -0.12500E+08         0.14337E-06         0.00000E+00
    0.14337E-06        -0.50000E+08         0.00000E+00
    0.00000E+00         0.00000E+00        -0.12500E+08
 
   -0.12500E+08         0.22794E-06         0.00000E+00
    0.22794E-06        -0.50000E+08         0.00000E+00
    0.00000E+00         0.00000E+00        -0.12500E+08
 
   -0.12500E+08         0.30986E-06         0.00000E+00
    0.30986E-06        -0.50000E+08         0.00000E+00
    0.00000E+00         0.00000E+00        -0.12500E+08
 
   -0.12500E+08         0.40566E-06         0.00000E+00
    0.40566E-06        -0.50000E+08         0.00000E+00
    0.00000E+00         0.00000E+00        -0.12500E+08
 
   -0.12500E+08         0.51418E-06         0.00000E+00
    0.51418E-06        -0.50000E+08         0.00000E+00
    0.00000E+00         0.00000E+00        -0.12500E+08
 
   -0.12500E+08        -0.23785E-07         0.00000E+00
   -0.23785E-07        -0.50000E+08         0.00000E+00
    0.00000E+00         0.00000E+00        -0.12500E+08
 
   -0.12500E+08        -0.12157E-06         0.00000E+00
   -0.12157E-06        -0.50000E+08         0.00000E+00
    0.00000E+00         0.00000E+00        -0.12500E+08
 
   -0.12500E+08        -0.89853E-07         0.00000E+00
   -0.89853E-07        -0.50000E+08         0.00000E+00
    0.00000E+00         0.00000E+00        -0.12500E+08
 
   -0.12500E+08        -0.12421E-06         0.00000E+00
   -0.12421E-06        -0.50000E+08         0.00000E+00
    0.00000E+00         0.00000E+00        -0.12500E+08
 
   -0.12500E+08        -0.12685E-06         0.00000E+00
   -0.12685E-06        -0.50000E+08         0.00000E+00
    0.00000E+00         0.00000E+00        -0.12500E+08
 
   -0.12500E+08        -0.11496E-06         0.00000E+00
   -0.11496E-06        -0.50000E+08         0.00000E+00
    0.00000E+00         0.00000E+00        -0.12500E+08
 
   -0.12500E+08        -0.59462E-07         0.00000E+00
   -0.59462E-07        -0.50000E+08         0.00000E+00
    0.00000E+00         0.00000E+00        -0.12500E+08
 
   -0.12500E+08        -0.38320E-07         0.00000E+00
   -0.38320E-07        -0.50000E+08         0.00000E+00
    0.00000E+00         0.00000E+00        -0.12500E+08
 
   -0.12500E+08        -0.19821E-07         0.00000E+00
   -0.19821E-07        -0.50000E+08         0.00000E+00
    0.00000E+00         0.00000E+00        -0.12500E+08
 
   -0.12500E+08         0.54176E-07         0.00000E+00
    0.54176E-07        -0.50000E+08         0.00000E+00
    0.00000E+00         0.00000E+00        -0.12500E+08
 
   -0.12500E+08         0.13940E-06         0.00000E+00
    0.13940E-06        -0.50000E+08         0.00000E+00
    0.00000E+00         0.00000E+00        -0.12500E+08
 
   -0.12500E+08         0.20679E-06         0.00000E+00
    0.20679E-06        -0.50000E+08         0.00000E+00
    0.00000E+00         0.00000E+00        -0.12500E+08
 
   -0.12500E+08         0.31746E-06         0.00000E+00
    0.31746E-06        -0.50000E+08         0.00000E+00
    0.00000E+00         0.00000E+00        -0.12500E+08
 
   -0.12500E+08         0.42482E-06         0.00000E+00
    0.42482E-06        -0.50000E+08         0.00000E+00
    0.00000E+00         0.00000E+00        -0.12500E+08
 
   -0.12500E+08         0.52756E-06         0.00000E+00
    0.52756E-06        -0.50000E+08         0.00000E+00
    0.00000E+00         0.00000E+00        -0.12500E+08
 
   -0.12500E+08        -0.60783E-07         0.00000E+00
   -0.60783E-07        -0.50000E+08         0.00000E+00
    0.00000E+00         0.00000E+00        -0.12500E+08
 
   -0.12500E+08        -0.10571E-06         0.00000E+00
   -0.10571E-06        -0.50000E+08         0.00000E+00
    0.00000E+00         0.00000E+00        -0.12500E+08
 
   -0.12500E+08        -0.11100E-06         0.00000E+00
   -0.11100E-06        -0.50000E+08         0.00000E+00
    0.00000E+00         0.00000E+00        -0.12500E+08
 
   -0.12500E+08        -0.14535E-06         0.00000E+00
   -0.14535E-06        -0.50000E+08         0.00000E+00
    0.00000E+00         0.00000E+00        -0.12500E+08
 
   -0.12500E+08        -0.12157E-06         0.00000E+00
   -0.12157E-06        -0.50000E+08         0.00000E+00
    0.00000E+00         0.00000E+00        -0.12500E+08
 
   -0.12500E+08        -0.10175E-06         0.00000E+00
   -0.10175E-06        -0.50000E+08         0.00000E+00
    0.00000E+00         0.00000E+00        -0.12500E+08
 
   -0.12500E+08        -0.11364E-06         0.00000E+00
   -0.11364E-06        -0.50000E+08         0.00000E+00
    0.00000E+00         0.00000E+00        -0.12500E+08
 
   -0.12500E+08        -0.43605E-07         0.00000E+00
   -0.43605E-07        -0.50000E+08         0.00000E+00
    0.00000E+00         0.00000E+00        -0.12500E+08
 
   -0.12500E+08         0.10571E-07         0.00000E+00
    0.10571E-07        -0.50000E+08         0.00000E+00
    0.00000E+00         0.00000E+00        -0.12500E+08
 
   -0.12500E+08         0.54176E-07         0.00000E+00
    0.54176E-07        -0.50000E+08         0.00000E+00
    0.00000E+00         0.00000E+00        -0.12500E+08
 
   -0.12500E+08         0.12685E-06         0.00000E+00
    0.12685E-06        -0.50000E+08         0.00000E+00
    0.00000E+00         0.00000E+00        -0.12500E+08
 
   -0.12500E+08         0.21472E-06         0.00000E+00
    0.21472E-06        -0.50000E+08         0.00000E+00
    0.00000E+00         0.00000E+00        -0.12500E+08
 
   -0.12500E+08         0.30590E-06         0.00000E+00
    0.30590E-06        -0.50000E+08         0.00000E+00
    0.00000E+00         0.00000E+00        -0.12500E+08
 
   -0.12500E+08         0.41095E-06         0.00000E+00
    0.41095E-06        -0.50000E+08         0.00000E+00
    0.00000E+00         0.00000E+00        -0.12500E+08
 
   -0.12500E+08         0.52558E-06         0.00000E+00
    0.52558E-06        -0.50000E+08         0.00000E+00
    0.00000E+00         0.00000E+00        -0.12500E+08
 
   -0.12500E+08        -0.52855E-07         0.00000E+00
   -0.52855E-07        -0.50000E+08         0.00000E+00
    0.00000E+00         0.00000E+00        -0.12500E+08
 
   -0.12500E+08        -0.95139E-07         0.00000E+00
   -0.95139E-07        -0.50000E+08         0.00000E+00
    0.00000E+00         0.00000E+00        -0.12500E+08
 
   -0.12500E+08        -0.12685E-06         0.00000E+00
   -0.12685E-06        -0.50000E+08         0.00000E+00
    0.00000E+00         0.00000E+00        -0.12500E+08
 
   -0.12500E+08        -0.15064E-06         0.00000E+00
   -0.15064E-06        -0.50000E+08         0.00000E+00
    0.00000E+00         0.00000E+00        -0.12500E+08
 
   -0.12500E+08        -0.14403E-06         0.00000E+00
   -0.14403E-06        -0.50000E+08         0.00000E+00
    0.00000E+00         0.00000E+00        -0.12500E+08
 
   -0.12500E+08        -0.12157E-06         0.00000E+00
   -0.12157E-06        -0.50000E+08         0.00000E+00
    0.00000E+00         0.00000E+00        -0.12500E+08
 
   -0.12500E+08        -0.11364E-06         0.00000E+00
   -0.11364E-06        -0.50000E+08         0.00000E+00
    0.00000E+00         0.00000E+00        -0.12500E+08
 
   -0.12500E+08        -0.67390E-07         0.00000E+00
   -0.67390E-07        -0.50000E+08         0.00000E+00
    0.00000E+00         0.00000E+00        -0.12500E+08
 
   -0.12500E+08        -0.79282E-08         0.00000E+00
   -0.79282E-08        -0.50000E+08         0.00000E+00
    0.00000E+00         0.00000E+00        -0.12500E+08
 
   -0.12500E+08         0.38320E-07         0.00000E+00
    0.38320E-07        -0.50000E+08         0.00000E+00
    0.00000E+00         0.00000E+00        -0.12500E+08
 
   -0.12500E+08         0.11562E-06         0.00000E+00
    0.11562E-06        -0.50000E+08         0.00000E+00
    0.00000E+00         0.00000E+00        -0.12500E+08
 
   -0.12500E+08         0.19755E-06         0.00000E+00
    0.19755E-06        -0.50000E+08         0.00000E+00
    0.00000E+00         0.00000E+00        -0.12500E+08
 
   -0.12500E+08         0.29202E-06         0.00000E+00
    0.29202E-06        -0.50000E+08         0.00000E+00
    0.00000E+00         0.00000E+00        -0.12500E+08
 
   -0.12500E+08         0.40533E-06         0.00000E+00
    0.40533E-06        -0.50000E+08         0.00000E+00
    0.00000E+00         0.00000E+00        -0.12500E+08
 
   -0.12500E+08         0.52624E-06         0.00000E+00
    0.52624E-06        -0.50000E+08         0.00000E+00
    0.00000E+00         0.00000E+00        -0.12500E+08
 
   -0.12500E+08        -0.21142E-07         0.00000E+00
   -0.21142E-07        -0.50000E+08         0.00000E+00
    0.00000E+00         0.00000E+00        -0.12500E+08
 
   -0.12500E+08        -0.89853E-07         0.00000E+00
   -0.89853E-07        -0.50000E+08         0.00000E+00
    0.00000E+00         0.00000E+00        -0.12500E+08
 
   -0.12500E+08        -0.14007E-06         0.00000E+00
   -0.14007E-06        -0.50000E+08         0.00000E+00
    0.00000E+00         0.00000E+00        -0.12500E+08
 
   -0.12500E+08        -0.18896E-06         0.00000E+00
   -0.18896E-06        -0.50000E+08         0.00000E+00
    0.00000E+00         0.00000E+00        -0.12500E+08
 
   -0.12500E+08        -0.19424E-06         0.00000E+00
   -0.19424E-06        -0.50000E+08         0.00000E+00
    0.00000E+00         0.00000E+00        -0.12500E+08
 
   -0.12500E+08        -0.15328E-06         0.00000E+00
   -0.15328E-06        -0.50000E+08         0.00000E+00
    0.00000E+00         0.00000E+00        -0.12500E+08
 
   -0.12500E+08        -0.14139E-06         0.00000E+00
   -0.14139E-06        -0.50000E+08         0.00000E+00
    0.00000E+00         0.00000E+00        -0.12500E+08
 
   -0.12500E+08        -0.89853E-07         0.00000E+00
   -0.89853E-07        -0.50000E+08         0.00000E+00
    0.00000E+00         0.00000E+00        -0.12500E+08
 
   -0.12500E+08        -0.23785E-07         0.00000E+00
   -0.23785E-07        -0.50000E+08         0.00000E+00
    0.00000E+00         0.00000E+00        -0.12500E+08
 
   -0.12500E+08         0.23124E-07         0.00000E+00
    0.23124E-07        -0.50000E+08         0.00000E+00
    0.00000E+00         0.00000E+00        -0.12500E+08
 
   -0.12500E+08         0.11892E-06         0.00000E+00
    0.11892E-06        -0.50000E+08         0.00000E+00
    0.00000E+00         0.00000E+00        -0.12500E+08
 
   -0.12500E+08         0.19358E-06         0.00000E+00
    0.19358E-06        -0.50000E+08         0.00000E+00
    0.00000E+00         0.00000E+00        -0.12500E+08
 
   -0.12500E+08         0.30986E-06         0.00000E+00
    0.30986E-06        -0.50000E+08         0.00000E+00
    0.00000E+00         0.00000E+00        -0.12500E+08
 
   -0.12500E+08         0.41755E-06         0.00000E+00
    0.41755E-06        -0.50000E+08         0.00000E+00
    0.00000E+00         0.00000E+00        -0.12500E+08
 
   -0.12500E+08         0.53235E-06         0.00000E+00
    0.53235E-06        -0.50000E+08         0.00000E+00
    0.00000E+00         0.00000E+00        -0.12500E+08
 
   -0.12500E+08        -0.39641E-07         0.00000E+00
   -0.39641E-07        -0.50000E+08         0.00000E+00
    0.00000E+00         0.00000E+00        -0.12500E+08
 
   -0.12500E+08        -0.10042E-06         0.00000E+00
   -0.10042E-06        -0.50000E+08         0.00000E+00
    0.00000E+00         0.00000E+00        -0.12500E+08
 
   -0.12500E+08        -0.13478E-06         0.00000E+00
   -0.13478E-06        -0.50000E+08         0.00000E+00
    0.00000E+00         0.00000E+00        -0.12500E+08
 
   -0.12500E+08        -0.14535E-06         0.00000E+00
   -0.14535E-06        -0.50000E+08         0.00000E+00
    0.00000E+00         0.00000E+00        -0.12500E+08
 
   -0.12500E+08        -0.15724E-06         0.00000E+00
   -0.15724E-06        -0.50000E+08         0.00000E+00
    0.00000E+00         0.00000E+00        -0.12500E+08
 
   -0.12500E+08        -0.17442E-06         0.00000E+00
   -0.17442E-06        -0.50000E+08         0.00000E+00
    0.00000E+00         0.00000E+00        -0.12500E+08
 
   -0.12500E+08        -0.13874E-06         0.00000E+00
   -0.13874E-06        -0.50000E+08         0.00000E+00
    0.00000E+00         0.00000E+00        -0.12500E+08
 
   -0.12500E+08        -0.88532E-07         0.00000E+00
   -0.88532E-07        -0.50000E+08         0.00000E+00
    0.00000E+00         0.00000E+00        -0.12500E+08
 
   -0.12500E+08        -0.43605E-07         0.00000E+00
   -0.43605E-07        -0.50000E+08         0.00000E+00
    0.00000E+00         0.00000E+00        -0.12500E+08
 
   -0.12500E+08         0.29070E-07         0.00000E+00
    0.29070E-07        -0.50000E+08         0.00000E+00
    0.00000E+00         0.00000E+00        -0.12500E+08
 
   -0.12500E+08         0.11033E-06         0.00000E+00
    0.11033E-06        -0.50000E+08         0.00000E+00
    0.00000E+00         0.00000E+00        -0.12500E+08
 
   -0.12500E+08         0.18037E-06         0.00000E+00
    0.18037E-06        -0.50000E+08         0.00000E+00
    0.00000E+00         0.00000E+00        -0.12500E+08
 
   -0.12500E+08         0.29698E-06         0.00000E+00
    0.29698E-06        -0.50000E+08         0.00000E+00
    0.00000E+00         0.00000E+00        -0.12500E+08
 
   -0.12500E+08         0.40797E-06         0.00000E+00
    0.40797E-06        -0.50000E+08         0.00000E+00
    0.00000E+00         0.00000E+00        -0.12500E+08
 
   -0.12500E+08         0.53615E-06         0.00000E+00
    0.53615E-06        -0.50000E+08         0.00000E+00
    0.00000E+00         0.00000E+00        -0.12500E+08
 
   -0.12500E+08        -0.26427E-07         0.00000E+00
   -0.26427E-07        -0.50000E+08         0.00000E+00
    0.00000E+00         0.00000E+00        -0.12500E+08
 
   -0.12500E+08        -0.12421E-06         0.00000E+00
   -0.12421E-06        -0.50000E+08         0.00000E+00
    0.00000E+00         0.00000E+00        -0.12500E+08
 
   -0.12500E+08        -0.14799E-06         0.00000E+00
   -0.14799E-06        -0.50000E+08         0.00000E+00
    0.00000E+00         0.00000E+00        -0.12500E+08
 
   -0.12500E+08        -0.20349E-06         0.00000E+00
   -0.20349E-06        -0.50000E+08         0.00000E+00
    0.00000E+00         0.00000E+00        -0.12500E+08
 
   -0.12500E+08        -0.19688E-06         0.00000E+00
   -0.19688E-06        -0.50000E+08         0.00000E+00
    0.00000E+00         0.00000E+00        -0.12500E+08
 
   -0.12500E+08        -0.16781E-06         0.00000E+00
   -0.16781E-06        -0.50000E+08         0.00000E+00
    0.00000E+00         0.00000E+00        -0.12500E+08
 
   -0.12500E+08        -0.14403E-06         0.00000E+00
   -0.14403E-06        -0.50000E+08         0.00000E+00
    0.00000E+00         0.00000E+00        -0.12500E+08
 
   -0.12500E+08        -0.10703E-06         0.00000E+00
   -0.10703E-06        -0.50000E+08         0.00000E+00
    0.00000E+00         0.00000E+00        -0.12500E+08
 
   -0.12500E+08        -0.68711E-07         0.00000E+00
   -0.68711E-07        -0.50000E+08         0.00000E+00
    0.00000E+00         0.00000E+00        -0.12500E+08
 
   -0.12500E+08        -0.10571E-07         0.00000E+00
   -0.10571E-07        -0.50000E+08         0.00000E+00
    0.00000E+00         0.00000E+00        -0.12500E+08
 
   -0.12500E+08         0.87211E-07         0.00000E+00
    0.87211E-07        -0.50000E+08         0.00000E+00
    0.00000E+00         0.00000E+00        -0.12500E+08
 
   -0.12500E+08         0.16980E-06         0.00000E+00
    0.16980E-06        -0.50000E+08         0.00000E+00
    0.00000E+00         0.00000E+00        -0.12500E+08
 
   -0.12500E+08         0.28343E-06         0.00000E+00
    0.28343E-06        -0.50000E+08         0.00000E+00
    0.00000E+00         0.00000E+00        -0.12500E+08
 
   -0.12500E+08         0.39674E-06         0.00000E+00
    0.39674E-06        -0.50000E+08         0.00000E+00
    0.00000E+00         0.00000E+00        -0.12500E+08
 
   -0.12500E+08         0.52409E-06         0.00000E+00
    0.52409E-06        -0.50000E+08         0.00000E+00
    0.00000E+00         0.00000E+00        -0.12500E+08
 
   -0.12500E+08        -0.89853E-07         0.00000E+00
   -0.89853E-07        -0.50000E+08         0.00000E+00
    0.00000E+00         0.00000E+00        -0.12500E+08
 
   -0.12500E+08        -0.14535E-06         0.00000E+00
   -0.14535E-06        -0.50000E+08         0.00000E+00
    0.00000E+00         0.00000E+00        -0.12500E+08
 
   -0.12500E+08        -0.18235E-06         0.00000E+00
   -0.18235E-06        -0.50000E+08         0.00000E+00
    0.00000E+00         0.00000E+00        -0.12500E+08
 
   -0.12500E+08        -0.21274E-06         0.00000E+00
   -0.21274E-06        -0.50000E+08         0.00000E+00
    0.00000E+00         0.00000E+00        -0.12500E+08
 
   -0.12500E+08        -0.20878E-06         0.00000E+00
   -0.20878E-06        -0.50000E+08         0.00000E+00
    0.00000E+00         0.00000E+00        -0.12500E+08
 
   -0.12500E+08        -0.16385E-06         0.00000E+00
   -0.16385E-06        -0.50000E+08         0.00000E+00
    0.00000E+00         0.00000E+00        -0.12500E+08
 
   -0.12500E+08        -0.13610E-06         0.00000E+00
   -0.13610E-06        -0.50000E+08         0.00000E+00
    0.00000E+00         0.00000E+00        -0.12500E+08
 
   -0.12500E+08        -0.10835E-06         0.00000E+00
   -0.10835E-06        -0.50000E+08         0.00000E+00
    0.00000E+00         0.00000E+00        -0.12500E+08
 
   -0.12500E+08        -0.64747E-07         0.00000E+00
   -0.64747E-07        -0.50000E+08         0.00000E+00
    0.00000E+00         0.00000E+00        -0.12500E+08
 
   -0.12500E+08        -0.46248E-08         0.00000E+00
   -0.46248E-08        -0.50000E+08         0.00000E+00
    0.00000E+00         0.00000E+00        -0.12500E+08
 
   -0.12500E+08         0.62765E-07         0.00000E+00
    0.62765E-07        -0.50000E+08         0.00000E+00
    0.00000E+00         0.00000E+00        -0.12500E+08
 
   -0.12500E+08         0.15130E-06         0.00000E+00
    0.15130E-06        -0.50000E+08         0.00000E+00
    0.00000E+00         0.00000E+00        -0.12500E+08
 
   -0.12500E+08         0.25436E-06         0.00000E+00
    0.25436E-06        -0.50000E+08         0.00000E+00
    0.00000E+00         0.00000E+00        -0.12500E+08
 
   -0.12500E+08         0.37164E-06         0.00000E+00
    0.37164E-06        -0.50000E+08         0.00000E+00
    0.00000E+00         0.00000E+00        -0.12500E+08
 
   -0.12500E+08         0.50609E-06         0.00000E+00
    0.50609E-06        -0.50000E+08         0.00000E+00
    0.00000E+00         0.00000E+00        -0.12500E+08
 
   -0.12500E+08        -0.10042E-06         0.00000E+00
   -0.10042E-06        -0.50000E+08         0.00000E+00
    0.00000E+00         0.00000E+00        -0.12500E+08
 
   -0.12500E+08        -0.14799E-06         0.00000E+00
   -0.14799E-06        -0.50000E+08         0.00000E+00
    0.00000E+00         0.00000E+00        -0.12500E+08
 
   -0.12500E+08        -0.19556E-06         0.00000E+00
   -0.19556E-06        -0.50000E+08         0.00000E+00
    0.00000E+00         0.00000E+00        -0.12500E+08
 
   -0.12500E+08        -0.19556E-06         0.00000E+00
   -0.19556E-06        -0.50000E+08         0.00000E+00
    0.00000E+00         0.00000E+00        -0.12500E+08
 
   -0.12500E+08        -0.18631E-06         0.00000E+00
   -0.18631E-06        -0.50000E+08         0.00000E+00
    0.00000E+00         0.00000E+00        -0.12500E+08
 
   -0.12500E+08        -0.18367E-06         0.00000E+00
   -0.18367E-06        -0.50000E+08         0.00000E+00
    0.00000E+00         0.00000E+00        -0.12500E+08
 
   -0.12500E+08        -0.17706E-06         0.00000E+00
   -0.17706E-06        -0.50000E+08         0.00000E+00
    0.00000E+00         0.00000E+00        -0.12500E+08
 
   -0.12500E+08        -0.12685E-06         0.00000E+00
   -0.12685E-06        -0.50000E+08         0.00000E+00
    0.00000E+00         0.00000E+00        -0.12500E+08
 
   -0.12500E+08        -0.76640E-07         0.00000E+00
   -0.76640E-07        -0.50000E+08         0.00000E+00
    0.00000E+00         0.00000E+00        -0.12500E+08
 
   -0.12500E+08        -0.31713E-07         0.00000E+00
   -0.31713E-07        -0.50000E+08         0.00000E+00
    0.00000E+00         0.00000E+00        -0.12500E+08
 
   -0.12500E+08         0.40963E-07         0.00000E+00
    0.40963E-07        -0.50000E+08         0.00000E+00
    0.00000E+00         0.00000E+00        -0.12500E+08
 
   -0.12500E+08         0.12817E-06         0.00000E+00
    0.12817E-06        -0.50000E+08         0.00000E+00
    0.00000E+00         0.00000E+00        -0.12500E+08
 
   -0.12500E+08         0.22926E-06         0.00000E+00
    0.22926E-06        -0.50000E+08         0.00000E+00
    0.00000E+00         0.00000E+00        -0.12500E+08
 
   -0.12500E+08         0.35578E-06         0.00000E+00
    0.35578E-06        -0.50000E+08         0.00000E+00
    0.00000E+00         0.00000E+00        -0.12500E+08
 
   -0.12500E+08         0.49205E-06         0.00000E+00
    0.49205E-06        -0.50000E+08         0.00000E+00
    0.00000E+00         0.00000E+00        -0.12500E+08
 
   -0.12500E+08        -0.10571E-07         0.00000E+00
   -0.10571E-07        -0.50000E+08         0.00000E+00
    0.00000E+00         0.00000E+00        -0.12500E+08
 
   -0.12500E+08        -0.14271E-06         0.00000E+00
   -0.14271E-06        -0.50000E+08         0.00000E+00
    0.00000E+00         0.00000E+00        -0.12500E+08
 
   -0.12500E+08        -0.19821E-06         0.00000E+00
   -0.19821E-06        -0.50000E+08         0.00000E+00
    0.00000E+00         0.00000E+00        -0.12500E+08
 
   -0.12500E+08        -0.21406E-06         0.00000E+00
   -0.21406E-06        -0.50000E+08         0.00000E+00
    0.00000E+00         0.00000E+00        -0.12500E+08
 
   -0.12500E+08        -0.23520E-06         0.00000E+00
   -0.23520E-06        -0.50000E+08         0.00000E+00
    0.00000E+00         0.00000E+00        -0.12500E+08
 
   -0.12500E+08        -0.16517E-06         0.00000E+00
   -0.16517E-06        -0.50000E+08         0.00000E+00
    0.00000E+00         0.00000E+00        -0.12500E+08
 
   -0.12500E+08        -0.12817E-06         0.00000E+00
   -0.12817E-06        -0.50000E+08         0.00000E+00
    0.00000E+00         0.00000E+00        -0.12500E+08
 
   -0.12500E+08        -0.11496E-06         0.00000E+00
   -0.11496E-06        -0.50000E+08         0.00000E+00
    0.00000E+00         0.00000E+00        -0.12500E+08
 
   -0.12500E+08        -0.10175E-06         0.00000E+00
   -0.10175E-06        -0.50000E+08         0.00000E+00
    0.00000E+00         0.00000E+00        -0.12500E+08
 
   -0.12500E+08        -0.29070E-07         0.00000E+00
   -0.29070E-07        -0.50000E+08         0.00000E+00
    0.00000E+00         0.00000E+00        -0.12500E+08
 
   -0.12500E+08         0.45587E-07         0.00000E+00
    0.45587E-07        -0.50000E+08         0.00000E+00
    0.00000E+00         0.00000E+00        -0.12500E+08
 
   -0.12500E+08         0.11166E-06         0.00000E+00
    0.11166E-06        -0.50000E+08         0.00000E+00
    0.00000E+00         0.00000E+00        -0.12500E+08
 
   -0.12500E+08         0.20911E-06         0.00000E+00
    0.20911E-06        -0.50000E+08         0.00000E+00
    0.00000E+00         0.00000E+00        -0.12500E+08
 
   -0.12500E+08         0.32109E-06         0.00000E+00
    0.32109E-06        -0.50000E+08         0.00000E+00
    0.00000E+00         0.00000E+00        -0.12500E+08
 
   -0.12500E+08         0.45075E-06         0.00000E+00
    0.45075E-06        -0.50000E+08         0.00000E+00
    0.00000E+00         0.00000E+00        -0.12500E+08
 
   -0.12500E+08        -0.21142E-07         0.00000E+00
   -0.21142E-07        -0.50000E+08         0.00000E+00
    0.00000E+00         0.00000E+00        -0.12500E+08
 
   -0.12500E+08        -0.13214E-06         0.00000E+00
   -0.13214E-06        -0.50000E+08         0.00000E+00
    0.00000E+00         0.00000E+00        -0.12500E+08
 
   -0.12500E+08        -0.20613E-06         0.00000E+00
   -0.20613E-06        -0.50000E+08         0.00000E+00
    0.00000E+00         0.00000E+00        -0.12500E+08
 
   -0.12500E+08        -0.19688E-06         0.00000E+00
   -0.19688E-06        -0.50000E+08         0.00000E+00
    0.00000E+00         0.00000E+00        -0.12500E+08
 
   -0.12500E+08        -0.20217E-06         0.00000E+00
   -0.20217E-06        -0.50000E+08         0.00000E+00
    0.00000E+00         0.00000E+00        -0.12500E+08
 
   -0.12500E+08        -0.18235E-06         0.00000E+00
   -0.18235E-06        -0.50000E+08         0.00000E+00
    0.00000E+00         0.00000E+00        -0.12500E+08
 
   -0.12500E+08        -0.17971E-06         0.00000E+00
   -0.17971E-06        -0.50000E+08         0.00000E+00
    0.00000E+00         0.00000E+00        -0.12500E+08
 
   -0.12500E+08        -0.13478E-06         0.00000E+00
   -0.13478E-06        -0.50000E+08         0.00000E+00
    0.00000E+00         0.00000E+00        -0.12500E+08
 
   -0.12500E+08        -0.68711E-07         0.00000E+00
   -0.68711E-07        -0.50000E+08         0.00000E+00
    0.00000E+00         0.00000E+00        -0.12500E+08
 
   -0.12500E+08        -0.48230E-07         0.00000E+00
   -0.48230E-07        -0.50000E+08         0.00000E+00
    0.00000E+00         0.00000E+00        -0.12500E+08
 
   -0.12500E+08         0.21803E-07         0.00000E+00
    0.21803E-07        -0.50000E+08         0.00000E+00
    0.00000E+00         0.00000E+00        -0.12500E+08
 
   -0.12500E+08         0.91175E-07         0.00000E+00
    0.91175E-07        -0.50000E+08         0.00000E+00
    0.00000E+00         0.00000E+00        -0.12500E+08
 
   -0.12500E+08         0.17277E-06         0.00000E+00
    0.17277E-06        -0.50000E+08         0.00000E+00
    0.00000E+00         0.00000E+00        -0.12500E+08
 
   -0.12500E+08         0.27749E-06         0.00000E+00
    0.27749E-06        -0.50000E+08         0.00000E+00
    0.00000E+00         0.00000E+00        -0.12500E+08
 
   -0.12500E+08         0.41029E-06         0.00000E+00
    0.41029E-06        -0.50000E+08         0.00000E+00
    0.00000E+00         0.00000E+00        -0.12500E+08
 
   -0.12500E+08        -0.11100E-06         0.00000E+00
   -0.11100E-06        -0.50000E+08         0.00000E+00
    0.00000E+00         0.00000E+00        -0.12500E+08
 
   -0.12500E+08        -0.17971E-06         0.00000E+00
   -0.17971E-06        -0.50000E+08         0.00000E+00
    0.00000E+00         0.00000E+00        -0.12500E+08
 
   -0.12500E+08        -0.20085E-06         0.00000E+00
   -0.20085E-06        -0.50000E+08         0.00000E+00
    0.00000E+00         0.00000E+00        -0.12500E+08
 
   -0.12500E+08        -0.18631E-06         0.00000E+00
   -0.18631E-06        -0.50000E+08         0.00000E+00
    0.00000E+00         0.00000E+00        -0.12500E+08
 
   -0.12500E+08        -0.19556E-06         0.00000E+00
   -0.19556E-06        -0.50000E+08         0.00000E+00
    0.00000E+00         0.00000E+00        -0.12500E+08
 
   -0.12500E+08        -0.15064E-06         0.00000E+00
   -0.15064E-06        -0.50000E+08         0.00000E+00
    0.00000E+00         0.00000E+00        -0.12500E+08
 
   -0.12500E+08        -0.11628E-06         0.00000E+00
   -0.11628E-06        -0.50000E+08         0.00000E+00
    0.00000E+00         0.00000E+00        -0.12500E+08
 
   -0.12500E+08        -0.10703E-06         0.00000E+00
   -0.10703E-06        -0.50000E+08         0.00000E+00
    0.00000E+00         0.00000E+00        -0.12500E+08
 
   -0.12500E+08        -0.84568E-07         0.00000E+00
   -0.84568E-07        -0.50000E+08         0.00000E+00
    0.00000E+00         0.00000E+00        -0.12500E+08
 
   -0.12500E+08        -0.52194E-07         0.00000E+00
   -0.52194E-07        -0.50000E+08         0.00000E+00
    0.00000E+00         0.00000E+00        -0.12500E+08
 
   -0.12500E+08         0.85889E-08         0.00000E+00
    0.85889E-08        -0.50000E+08         0.00000E+00
    0.00000E+00         0.00000E+00        -0.12500E+08
 
   -0.12500E+08         0.61444E-07         0.00000E+00
    0.61444E-07        -0.50000E+08         0.00000E+00
    0.00000E+00         0.00000E+00        -0.12500E+08
 
   -0.12500E+08         0.14007E-06         0.00000E+00
    0.14007E-06        -0.50000E+08         0.00000E+00
    0.00000E+00         0.00000E+00        -0.12500E+08
 
   -0.12500E+08         0.23785E-06         0.00000E+00
    0.23785E-06        -0.50000E+08         0.00000E+00
    0.00000E+00         0.00000E+00        -0.12500E+08
 
   -0.12500E+08         0.35727E-06         0.00000E+00
    0.35727E-06        -0.50000E+08         0.00000E+00
    0.00000E+00         0.00000E+00        -0.12500E+08
 
   -0.12500E+08        -0.12949E-06         0.00000E+00
   -0.12949E-06        -0.50000E+08         0.00000E+00
    0.00000E+00         0.00000E+00        -0.12500E+08
 
   -0.12500E+08        -0.20878E-06         0.00000E+00
   -0.20878E-06        -0.50000E+08         0.00000E+00
    0.00000E+00         0.00000E+00        -0.12500E+08
 
   -0.12500E+08        -0.17442E-06         0.00000E+00
   -0.17442E-06        -0.50000E+08         0.00000E+00
    0.00000E+00         0.00000E+00        -0.12500E+08
 
   -0.12500E+08        -0.18367E-06         0.00000E+00
   -0.18367E-06        -0.50000E+08         0.00000E+00
    0.00000E+00         0.00000E+00        -0.12500E+08
 
   -0.12500E+08        -0.18631E-06         0.00000E+00
   -0.18631E-06        -0.50000E+08         0.00000E+00
    0.00000E+00         0.00000E+00        -0.12500E+08
 
   -0.12500E+08        -0.14799E-06         0.00000E+00
   -0.14799E-06        -0.50000E+08         0.00000E+00
    0.00000E+00         0.00000E+00        -0.12500E+08
 
   -0.12500E+08        -0.11496E-06         0.00000E+00
   -0.11496E-06        -0.50000E+08         0.00000E+00
    0.00000E+00         0.00000E+00        -0.12500E+08
 
   -0.12500E+08        -0.96460E-07         0.00000E+00
   -0.96460E-07        -0.50000E+08         0.00000E+00
    0.00000E+00         0.00000E+00        -0.12500E+08
 
   -0.12500E+08        -0.42284E-07         0.00000E+00
   -0.42284E-07        -0.50000E+08         0.00000E+00
    0.00000E+00         0.00000E+00        -0.12500E+08
 
   -0.12500E+08        -0.35677E-07         0.00000E+00
   -0.35677E-07        -0.50000E+08         0.00000E+00
    0.00000E+00         0.00000E+00        -0.12500E+08
 
   -0.12500E+08         0.26427E-07         0.00000E+00
    0.26427E-07        -0.50000E+08         0.00000E+00
    0.00000E+00         0.00000E+00        -0.12500E+08
 
   -0.12500E+08         0.64747E-07         0.00000E+00
    0.64747E-07        -0.50000E+08         0.00000E+00
    0.00000E+00         0.00000E+00        -0.12500E+08
 
   -0.12500E+08         0.99103E-07         0.00000E+00
    0.99103E-07        -0.50000E+08         0.00000E+00
    0.00000E+00         0.00000E+00        -0.12500E+08
 
   -0.12500E+08         0.16847E-06         0.00000E+00
    0.16847E-06        -0.50000E+08         0.00000E+00
    0.00000E+00         0.00000E+00        -0.12500E+08
 
   -0.12500E+08         0.28855E-06         0.00000E+00
    0.28855E-06        -0.50000E+08         0.00000E+00
    0.00000E+00         0.00000E+00        -0.12500E+08
 
   -0.12500E+08        -0.31713E-07         0.00000E+00
   -0.31713E-07        -0.50000E+08         0.00000E+00
    0.00000E+00         0.00000E+00        -0.12500E+08
 
   -0.12500E+08        -0.95139E-07         0.00000E+00
   -0.95139E-07        -0.50000E+08         0.00000E+00
    0.00000E+00         0.00000E+00        -0.12500E+08
 
   -0.12500E+08        -0.11628E-06         0.00000E+00
   -0.11628E-06        -0.50000E+08         0.00000E+00
    0.00000E+00         0.00000E+00        -0.12500E+08
 
   -0.12500E+08        -0.12817E-06         0.00000E+00
   -0.12817E-06        -0.50000E+08         0.00000E+00
    0.00000E+00         0.00000E+00        -0.12500E+08
 
   -0.12500E+08        -0.93817E-07         0.00000E+00
   -0.93817E-07        -0.50000E+08         0.00000E+00
    0.00000E+00         0.00000E+00        -0.12500E+08
 
   -0.12500E+08        -0.70033E-07         0.00000E+00
   -0.70033E-07        -0.50000E+08         0.00000E+00
    0.00000E+00         0.00000E+00        -0.12500E+08
 
   -0.12500E+08        -0.71354E-07         0.00000E+00
   -0.71354E-07        -0.50000E+08         0.00000E+00
    0.00000E+00         0.00000E+00        -0.12500E+08
 
   -0.12500E+08        -0.44927E-07         0.00000E+00
   -0.44927E-07        -0.50000E+08         0.00000E+00
    0.00000E+00         0.00000E+00        -0.12500E+08
 
   -0.12500E+08        -0.56819E-07         0.00000E+00
   -0.56819E-07        -0.50000E+08         0.00000E+00
    0.00000E+00         0.00000E+00        -0.12500E+08
 
   -0.12500E+08        -0.49551E-07         0.00000E+00
   -0.49551E-07        -0.50000E+08         0.00000E+00
    0.00000E+00         0.00000E+00        -0.12500E+08
 
   -0.12500E+08        -0.13214E-08         0.00000E+00
   -0.13214E-08        -0.50000E+08         0.00000E+00
    0.00000E+00         0.00000E+00        -0.12500E+08
 
   -0.12500E+08         0.40963E-07         0.00000E+00
    0.40963E-07        -0.50000E+08         0.00000E+00
    0.00000E+00         0.00000E+00        -0.12500E+08
 
   -0.12500E+08         0.59462E-07         0.00000E+00
    0.59462E-07        -0.50000E+08         0.00000E+00
    0.00000E+00         0.00000E+00        -0.12500E+08
 
   -0.12500E+08         0.11694E-06         0.00000E+00
    0.11694E-06        -0.50000E+08         0.00000E+00
    0.00000E+00         0.00000E+00        -0.12500E+08
 
   -0.12500E+08         0.21951E-06         0.00000E+00
    0.21951E-06        -0.50000E+08         0.00000E+00
    0.00000E+00         0.00000E+00        -0.12500E+08
 
   -0.12500E+08        -0.13214E-07         0.00000E+00
   -0.13214E-07        -0.50000E+08         0.00000E+00
    0.00000E+00         0.00000E+00        -0.12500E+08
 
   -0.12500E+08        -0.63426E-07         0.00000E+00
   -0.63426E-07        -0.50000E+08         0.00000E+00
    0.00000E+00         0.00000E+00        -0.12500E+08
 
   -0.12500E+08        -0.87211E-07         0.00000E+00
   -0.87211E-07        -0.50000E+08         0.00000E+00
    0.00000E+00         0.00000E+00        -0.12500E+08
 
   -0.12500E+08        -0.79282E-08         0.00000E+00
   -0.79282E-08        -0.50000E+08         0.00000E+00
    0.00000E+00         0.00000E+00        -0.12500E+08
 
   -0.12500E+08         0.13214E-07         0.00000E+00
    0.13214E-07        -0.50000E+08         0.00000E+00
    0.00000E+00         0.00000E+00        -0.12500E+08
 
   -0.12500E+08        -0.50212E-07         0.00000E+00
   -0.50212E-07        -0.50000E+08         0.00000E+00
    0.00000E+00         0.00000E+00        -0.12500E+08
 
   -0.12500E+08        -0.93817E-07         0.00000E+00
   -0.93817E-07        -0.50000E+08         0.00000E+00
    0.00000E+00         0.00000E+00        -0.12500E+08
 
   -0.12500E+08        -0.99103E-07         0.00000E+00
   -0.99103E-07        -0.50000E+08         0.00000E+00
    0.00000E+00         0.00000E+00        -0.12500E+08
 
   -0.12500E+08        -0.13214E-08         0.00000E+00
   -0.13214E-08        -0.50000E+08         0.00000E+00
    0.00000E+00         0.00000E+00        -0.12500E+08
 
   -0.12500E+08         0.62104E-07         0.00000E+00
    0.62104E-07        -0.50000E+08         0.00000E+00
    0.00000E+00         0.00000E+00        -0.12500E+08
 
   -0.12500E+08         0.16517E-07         0.00000E+00
    0.16517E-07        -0.50000E+08         0.00000E+00
    0.00000E+00         0.00000E+00        -0.12500E+08
 
   -0.12500E+08        -0.52855E-08         0.00000E+00
   -0.52855E-08        -0.50000E+08         0.00000E+00
    0.00000E+00         0.00000E+00        -0.12500E+08
 
   -0.12500E+08         0.69372E-07         0.00000E+00
    0.69372E-07        -0.50000E+08         0.00000E+00
    0.00000E+00         0.00000E+00        -0.12500E+08
 
   -0.12500E+08         0.86880E-07         0.00000E+00
    0.86880E-07        -0.50000E+08         0.00000E+00
    0.00000E+00         0.00000E+00        -0.12500E+08
 
   -0.12500E+08         0.86880E-07         0.00000E+00
    0.86880E-07        -0.50000E+08         0.00000E+00
    0.00000E+00         0.00000E+00        -0.12500E+08
 
TENSORS stresstot double 
   -0.22500E+08        -0.36998E-07         0.00000E+00
   -0.36998E-07        -0.60000E+08         0.00000E+00
    0.00000E+00         0.00000E+00        -0.22500E+08
 
   -0.22500E+08         0.10571E-07         0.00000E+00
    0.10571E-07        -0.60000E+08         0.00000E+00
    0.00000E+00         0.00000E+00        -0.22500E+08
 
   -0.22500E+08         0.10571E-07         0.00000E+00
    0.10571E-07        -0.60000E+08         0.00000E+00
    0.00000E+00         0.00000E+00        -0.22500E+08
 
   -0.22500E+08         0.17178E-07         0.00000E+00
    0.17178E-07        -0.60000E+08         0.00000E+00
    0.00000E+00         0.00000E+00        -0.22500E+08
 
   -0.22500E+08         0.10571E-07         0.00000E+00
    0.10571E-07        -0.60000E+08         0.00000E+00
    0.00000E+00         0.00000E+00        -0.22500E+08
 
   -0.22500E+08         0.26427E-08         0.00000E+00
    0.26427E-08        -0.60000E+08         0.00000E+00
    0.00000E+00         0.00000E+00        -0.22500E+08
 
   -0.22500E+08         0.10571E-07         0.00000E+00
    0.10571E-07        -0.60000E+08         0.00000E+00
    0.00000E+00         0.00000E+00        -0.22500E+08
 
   -0.22500E+08        -0.39641E-08         0.00000E+00
   -0.39641E-08        -0.60000E+08         0.00000E+00
    0.00000E+00         0.00000E+00        -0.22500E+08
 
   -0.22500E+08         0.00000E+00         0.00000E+00
    0.00000E+00        -0.60000E+08         0.00000E+00
    0.00000E+00         0.00000E+00        -0.22500E+08
 
   -0.22500E+08         0.00000E+00         0.00000E+00
    0.00000E+00        -0.60000E+08         0.00000E+00
    0.00000E+00         0.00000E+00        -0.22500E+08
 
   -0.22500E+08         0.46248E-08         0.00000E+00
    0.46248E-08        -0.60000E+08         0.00000E+00
    0.00000E+00         0.00000E+00        -0.22500E+08
 
   -0.22500E+08         0.11892E-07         0.00000E+00
    0.11892E-07        -0.60000E+08         0.00000E+00
    0.00000E+00         0.00000E+00        -0.22500E+08
 
   -0.22500E+08         0.20481E-07         0.00000E+00
    0.20481E-07        -0.60000E+08         0.00000E+00
    0.00000E+00         0.00000E+00        -0.22500E+08
 
   -0.22500E+08         0.18169E-07         0.00000E+00
    0.18169E-07        -0.60000E+08         0.00000E+00
    0.00000E+00         0.00000E+00        -0.22500E+08
 
   -0.22500E+08         0.20481E-07         0.00000E+00
    0.20481E-07        -0.60000E+08         0.00000E+00
    0.00000E+00         0.00000E+00        -0.22500E+08
 
   -0.22500E+08         0.29070E-07         0.00000E+00
    0.29070E-07        -0.60000E+08         0.00000E+00
    0.00000E+00         0.00000E+00        -0.22500E+08
 
   -0.22500E+08        -0.15856E-07         0.00000E+00
   -0.15856E-07        -0.60000E+08         0.00000E+00
    0.00000E+00         0.00000E+00        -0.22500E+08
 
   -0.22500E+08        -0.79282E-08         0.00000E+00
   -0.79282E-08        -0.60000E+08         0.00000E+00
    0.00000E+00         0.00000E+00        -0.22500E+08
 
   -0.22500E+08         0.17178E-07         0.00000E+00
    0.17178E-07        -0.60000E+08         0.00000E+00
    0.00000E+00         0.00000E+00        -0.22500E+08
 
   -0.22500E+08        -0.26427E-08         0.00000E+00
   -0.26427E-08        -0.60000E+08         0.00000E+00
    0.00000E+00         0.00000E+00        -0.22500E+08
 
   -0.22500E+08        -0.22463E-07         0.00000E+00
   -0.22463E-07        -0.60000E+08         0.00000E+00
    0.00000E+00         0.00000E+00        -0.22500E+08
 
   -0.22500E+08        -0.19821E-07         0.00000E+00
   -0.19821E-07        -0.60000E+08         0.00000E+00
    0.00000E+00         0.00000E+00        -0.22500E+08
 
   -0.22500E+08         0.11892E-07         0.00000E+00
    0.11892E-07        -0.60000E+08         0.00000E+00
    0.00000E+00         0.00000E+00        -0.22500E+08
 
   -0.22500E+08         0.14535E-07         0.00000E+00
    0.14535E-07        -0.60000E+08         0.00000E+00
    0.00000E+00         0.00000E+00        -0.22500E+08
 
   -0.22500E+08         0.23124E-07         0.00000E+00
    0.23124E-07        -0.60000E+08         0.00000E+00
    0.00000E+00         0.00000E+00        -0.22500E+08
 
   -0.22500E+08         0.40302E-07         0.00000E+00
    0.40302E-07        -0.60000E+08         0.00000E+00
    0.00000E+00         0.00000E+00        -0.22500E+08
 
   -0.22500E+08         0.31052E-07         0.00000E+00
    0.31052E-07        -0.60000E+08         0.00000E+00
    0.00000E+00         0.00000E+00        -0.22500E+08
 
   -0.22500E+08         0.38650E-07         0.00000E+00
    0.38650E-07        -0.60000E+08         0.00000E+00
    0.00000E+00         0.00000E+00        -0.22500E+08
 
   -0.22500E+08         0.55498E-07         0.00000E+00
    0.55498E-07        -0.60000E+08         0.00000E+00
    0.00000E+00         0.00000E+00        -0.22500E+08
 
   -0.22500E+08         0.67225E-07         0.00000E+00
    0.67225E-07        -0.60000E+08         0.00000E+00
    0.00000E+00         0.00000E+00        -0.22500E+08
 
   -0.22500E+08        -0.18499E-07         0.00000E+00
   -0.18499E-07        -0.60000E+08         0.00000E+00
    0.00000E+00         0.00000E+00        -0.22500E+08
 
   -0.22500E+08        -0.10571E-07         0.00000E+00
   -0.10571E-07        -0.60000E+08         0.00000E+00
    0.00000E+00         0.00000E+00        -0.22500E+08
 
   -0.22500E+08         0.18499E-07         0.00000E+00
    0.18499E-07        -0.60000E+08         0.00000E+00
    0.00000E+00         0.00000E+00        -0.22500E+08
 
   -0.22500E+08         0.14535E-07         0.00000E+00
    0.14535E-07        -0.60000E+08         0.00000E+00
    0.00000E+00         0.00000E+00        -0.22500E+08
 
   -0.22500E+08        -0.38320E-07         0.00000E+00
   -0.38320E-07        -0.60000E+08         0.00000E+00
    0.00000E+00         0.00000E+00        -0.22500E+08
 
   -0.22500E+08        -0.18499E-07         0.00000E+00
   -0.18499E-07        -0.60000E+08         0.00000E+00
    0.00000E+00         0.00000E+00        -0.22500E+08
 
   -0.22500E+08        -0.13214E-08         0.00000E+00
   -0.13214E-08        -0.60000E+08         0.00000E+00
    0.00000E+00         0.00000E+00        -0.22500E+08
 
   -0.22500E+08         0.26427E-07         0.00000E+00
    0.26427E-07        -0.60000E+08         0.00000E+00
    0.00000E+00         0.00000E+00        -0.22500E+08
 
   -0.22500E+08         0.26427E-07         0.00000E+00
    0.26427E-07        -0.60000E+08         0.00000E+00
    0.00000E+00         0.00000E+00        -0.22500E+08
 
   -0.22500E+08         0.12553E-07         0.00000E+00
    0.12553E-07        -0.60000E+08         0.00000E+00
    0.00000E+00         0.00000E+00        -0.22500E+08
 
   -0.22500E+08         0.25767E-07         0.00000E+00
    0.25767E-07        -0.60000E+08         0.00000E+00
    0.00000E+00         0.00000E+00        -0.22500E+08
 
   -0.22500E+08         0.48891E-07         0.00000E+00
    0.48891E-07        -0.60000E+08         0.00000E+00
    0.00000E+00         0.00000E+00        -0.22500E+08
 
   -0.22500E+08         0.69702E-07         0.00000E+00
    0.69702E-07        -0.60000E+08         0.00000E+00
    0.00000E+00         0.00000E+00        -0.22500E+08
 
   -0.22500E+08         0.96130E-07         0.00000E+00
    0.96130E-07        -0.60000E+08         0.00000E+00
    0.00000E+00         0.00000E+00        -0.22500E+08
 
   -0.22500E+08         0.11248E-06         0.00000E+00
    0.11248E-06        -0.60000E+08         0.00000E+00
    0.00000E+00         0.00000E+00        -0.22500E+08
 
   -0.22500E+08        -0.29070E-07         0.00000E+00
   -0.29070E-07        -0.60000E+08         0.00000E+00
    0.00000E+00         0.00000E+00        -0.22500E+08
 
   -0.22500E+08        -0.47569E-07         0.00000E+00
   -0.47569E-07        -0.60000E+08         0.00000E+00
    0.00000E+00         0.00000E+00        -0.22500E+08
 
   -0.22500E+08        -0.34356E-07         0.00000E+00
   -0.34356E-07        -0.60000E+08         0.00000E+00
    0.00000E+00         0.00000E+00        -0.22500E+08
 
   -0.22500E+08        -0.18499E-07         0.00000E+00
   -0.18499E-07        -0.60000E+08         0.00000E+00
    0.00000E+00         0.00000E+00        -0.22500E+08
 
   -0.22500E+08        -0.46248E-07         0.00000E+00
   -0.46248E-07        -0.60000E+08         0.00000E+00
    0.00000E+00         0.00000E+00        -0.22500E+08
 
   -0.22500E+08        -0.66069E-08         0.00000E+00
   -0.66069E-08        -0.60000E+08         0.00000E+00
    0.00000E+00         0.00000E+00        -0.22500E+08
 
   -0.22500E+08         0.52855E-08         0.00000E+00
    0.52855E-08        -0.60000E+08         0.00000E+00
    0.00000E+00         0.00000E+00        -0.22500E+08
 
   -0.22500E+08         0.52855E-08         0.00000E+00
    0.52855E-08        -0.60000E+08         0.00000E+00
    0.00000E+00         0.00000E+00        -0.22500E+08
 
   -0.22500E+08         0.18499E-07         0.00000E+00
    0.18499E-07        -0.60000E+08         0.00000E+00
    0.00000E+00         0.00000E+00        -0.22500E+08
 
   -0.22500E+08         0.42945E-07         0.00000E+00
    0.42945E-07        -0.60000E+08         0.00000E+00
    0.00000E+00         0.00000E+00        -0.22500E+08
 
   -0.22500E+08         0.56158E-07         0.00000E+00
    0.56158E-07        -0.60000E+08         0.00000E+00
    0.00000E+00         0.00000E+00        -0.22500E+08
 
   -0.22500E+08         0.74657E-07         0.00000E+00
    0.74657E-07        -0.60000E+08         0.00000E+00
    0.00000E+00         0.00000E+00        -0.22500E+08
 
   -0.22500E+08         0.99764E-07         0.00000E+00
    0.99764E-07        -0.60000E+08         0.00000E+00
    0.00000E+00         0.00000E+00        -0.22500E+08
 
   -0.22500E+08         0.12520E-06         0.00000E+00
    0.12520E-06        -0.60000E+08         0.00000E+00
    0.00000E+00         0.00000E+00        -0.22500E+08
 
   -0.22500E+08         0.15741E-06         0.00000E+00
    0.15741E-06        -0.60000E+08         0.00000E+00
    0.00000E+00         0.00000E+00        -0.22500E+08
 
   -0.22500E+08        -0.50212E-07         0.00000E+00
   -0.50212E-07        -0.60000E+08         0.00000E+00
    0.00000E+00         0.00000E+00        -0.22500E+08
 
   -0.22500E+08        -0.47569E-07         0.00000E+00
   -0.47569E-07        -0.60000E+08         0.00000E+00
    0.00000E+00         0.00000E+00        -0.22500E+08
 
   -0.22500E+08        -0.31713E-07         0.00000E+00
   -0.31713E-07        -0.60000E+08         0.00000E+00
    0.00000E+00         0.00000E+00        -0.22500E+08
 
   -0.22500E+08        -0.10571E-07         0.00000E+00
   -0.10571E-07        -0.60000E+08         0.00000E+00
    0.00000E+00         0.00000E+00        -0.22500E+08
 
   -0.22500E+08        -0.92496E-08         0.00000E+00
   -0.92496E-08        -0.60000E+08         0.00000E+00
    0.00000E+00         0.00000E+00        -0.22500E+08
 
   -0.22500E+08        -0.14535E-07         0.00000E+00
   -0.14535E-07        -0.60000E+08         0.00000E+00
    0.00000E+00         0.00000E+00        -0.22500E+08
 
   -0.22500E+08         0.31713E-07         0.00000E+00
    0.31713E-07        -0.60000E+08         0.00000E+00
    0.00000E+00         0.00000E+00        -0.22500E+08
 
   -0.22500E+08         0.11892E-07         0.00000E+00
    0.11892E-07        -0.60000E+08         0.00000E+00
    0.00000E+00         0.00000E+00        -0.22500E+08
 
   -0.22500E+08         0.13214E-07         0.00000E+00
    0.13214E-07        -0.60000E+08         0.00000E+00
    0.00000E+00         0.00000E+00        -0.22500E+08
 
   -0.22500E+08         0.23124E-07         0.00000E+00
    0.23124E-07        -0.60000E+08         0.00000E+00
    0.00000E+00         0.00000E+00        -0.22500E+08
 
   -0.22500E+08         0.64087E-07         0.00000E+00
    0.64087E-07        -0.60000E+08         0.00000E+00
    0.00000E+00         0.00000E+00        -0.22500E+08
 
   -0.22500E+08         0.10175E-06         0.00000E+00
    0.10175E-06        -0.60000E+08         0.00000E+00
    0.00000E+00         0.00000E+00        -0.22500E+08
 
   -0.22500E+08         0.12619E-06         0.00000E+00
    0.12619E-06        -0.60000E+08         0.00000E+00
    0.00000E+00         0.00000E+00        -0.22500E+08
 
   -0.22500E+08         0.16484E-06         0.00000E+00
    0.16484E-06        -0.60000E+08         0.00000E+00
    0.00000E+00         0.00000E+00        -0.22500E+08
 
   -0.22500E+08         0.20052E-06         0.00000E+00
    0.20052E-06        -0.60000E+08         0.00000E+00
    0.00000E+00         0.00000E+00        -0.22500E+08
 
   -0.22500E+08        -0.29070E-07         0.00000E+00
   -0.29070E-07        -0.60000E+08         0.00000E+00
    0.00000E+00         0.00000E+00        -0.22500E+08
 
   -0.22500E+08        -0.23785E-07         0.00000E+00
   -0.23785E-07        -0.60000E+08         0.00000E+00
    0.00000E+00         0.00000E+00        -0.22500E+08
 
   -0.22500E+08         0.29070E-07         0.00000E+00
    0.29070E-07        -0.60000E+08         0.00000E+00
    0.00000E+00         0.00000E+00        -0.22500E+08
 
   -0.22500E+08        -0.15856E-07         0.00000E+00
   -0.15856E-07        -0.60000E+08         0.00000E+00
    0.00000E+00         0.00000E+00        -0.22500E+08
 
   -0.22500E+08        -0.21142E-07         0.00000E+00
   -0.21142E-07        -0.60000E+08         0.00000E+00
    0.00000E+00         0.00000E+00        -0.22500E+08
 
   -0.22500E+08        -0.17178E-07         0.00000E+00
   -0.17178E-07        -0.60000E+08         0.00000E+00
    0.00000E+00         0.00000E+00        -0.22500E+08
 
   -0.22500E+08         0.13214E-08         0.00000E+00
    0.13214E-08        -0.60000E+08         0.00000E+00
    0.00000E+00         0.00000E+00        -0.22500E+08
 
   -0.22500E+08         0.21142E-07         0.00000E+00
    0.21142E-07        -0.60000E+08         0.00000E+00
    0.00000E+00         0.00000E+00        -0.22500E+08
 
   -0.22500E+08         0.35677E-07         0.00000E+00
    0.35677E-07        -0.60000E+08         0.00000E+00
    0.00000E+00         0.00000E+00        -0.22500E+08
 
   -0.22500E+08         0.62104E-07         0.00000E+00
    0.62104E-07        -0.60000E+08         0.00000E+00
    0.00000E+00         0.00000E+00        -0.22500E+08
 
   -0.22500E+08         0.85889E-07         0.00000E+00
    0.85889E-07        -0.60000E+08         0.00000E+00
    0.00000E+00         0.00000E+00        -0.22500E+08
 
   -0.22500E+08         0.12091E-06         0.00000E+00
    0.12091E-06        -0.60000E+08         0.00000E+00
    0.00000E+00         0.00000E+00        -0.22500E+08
 
   -0.22500E+08         0.16220E-06         0.00000E+00
    0.16220E-06        -0.60000E+08         0.00000E+00
    0.00000E+00         0.00000E+00        -0.22500E+08
 
   -0.22500E+08         0.20184E-06         0.00000E+00
    0.20184E-06        -0.60000E+08         0.00000E+00
    0.00000E+00         0.00000E+00        -0.22500E+08
 
   -0.22500E+08         0.24429E-06         0.00000E+00
    0.24429E-06        -0.60000E+08         0.00000E+00
    0.00000E+00         0.00000E+00        -0.22500E+08
 
   -0.22500E+08         0.79282E-08         0.00000E+00
    0.79282E-08        -0.60000E+08         0.00000E+00
    0.00000E+00         0.00000E+00        -0.22500E+08
 
   -0.22500E+08        -0.39641E-07         0.00000E+00
   -0.39641E-07        -0.60000E+08         0.00000E+00
    0.00000E+00         0.00000E+00        -0.22500E+08
 
   -0.22500E+08        -0.13214E-07         0.00000E+00
   -0.13214E-07        -0.60000E+08         0.00000E+00
    0.00000E+00         0.00000E+00        -0.22500E+08
 
   -0.22500E+08        -0.46248E-07         0.00000E+00
   -0.46248E-07        -0.60000E+08         0.00000E+00
    0.00000E+00         0.00000E+00        -0.22500E+08
 
   -0.22500E+08        -0.52855E-07         0.00000E+00
   -0.52855E-07        -0.60000E+08         0.00000E+00
    0.00000E+00         0.00000E+00        -0.22500E+08
 
   -0.22500E+08        -0.51533E-07         0.00000E+00
   -0.51533E-07        -0.60000E+08         0.00000E+00
    0.00000E+00         0.00000E+00        -0.22500E+08
 
   -0.22500E+08        -0.26427E-08         0.00000E+00
   -0.26427E-08        -0.60000E+08         0.00000E+00
    0.00000E+00         0.00000E+00        -0.22500E+08
 
   -0.22500E+08         0.79282E-08         0.00000E+00
    0.79282E-08        -0.60000E+08         0.00000E+00
    0.00000E+00         0.00000E+00        -0.22500E+08
 
   -0.22500E+08         0.26427E-07         0.00000E+00
    0.26427E-07        -0.60000E+08         0.00000E+00
    0.00000E+00         0.00000E+00        -0.22500E+08
 
   -0.22500E+08         0.60783E-07         0.00000E+00
    0.60783E-07        -0.60000E+08         0.00000E+00
    0.00000E+00         0.00000E+00        -0.22500E+08
 
   -0.22500E+08         0.97121E-07         0.00000E+00
    0.97121E-07        -0.60000E+08         0.00000E+00
    0.00000E+00         0.00000E+00        -0.22500E+08
 
   -0.22500E+08         0.14007E-06         0.00000E+00
    0.14007E-06        -0.60000E+08         0.00000E+00
    0.00000E+00         0.00000E+00        -0.22500E+08
 
   -0.22500E+08         0.17574E-06         0.00000E+00
    0.17574E-06        -0.60000E+08         0.00000E+00
    0.00000E+00         0.00000E+00        -0.22500E+08
 
   -0.22500E+08         0.22794E-06         0.00000E+00
    0.22794E-06        -0.60000E+08         0.00000E+00
    0.00000E+00         0.00000E+00        -0.22500E+08
 
   -0.22500E+08         0.28376E-06         0.00000E+00
    0.28376E-06        -0.60000E+08         0.00000E+00
    0.00000E+00         0.00000E+00        -0.22500E+08
 
   -0.22500E+08        -0.15856E-07         0.00000E+00
   -0.15856E-07        -0.60000E+08         0.00000E+00
    0.00000E+00         0.00000E+00        -0.22500E+08
 
   -0.22500E+08        -0.66069E-07         0.00000E+00
   -0.66069E-07        -0.60000E+08         0.00000E+00
    0.00000E+00         0.00000E+00        -0.22500E+08
 
   -0.22500E+08        -0.47569E-07         0.00000E+00
   -0.47569E-07        -0.60000E+08         0.00000E+00
    0.00000E+00         0.00000E+00        -0.22500E+08
 
   -0.22500E+08        -0.60783E-07         0.00000E+00
   -0.60783E-07        -0.60000E+08         0.00000E+00
    0.00000E+00         0.00000E+00        -0.22500E+08
 
   -0.22500E+08        -0.58140E-07         0.00000E+00
   -0.58140E-07        -0.60000E+08         0.00000E+00
    0.00000E+00         0.00000E+00        -0.22500E+08
 
   -0.22500E+08        -0.26427E-08         0.00000E+00
   -0.26427E-08        -0.60000E+08         0.00000E+00
    0.00000E+00         0.00000E+00        -0.22500E+08
 
   -0.22500E+08         0.39641E-08         0.00000E+00
    0.39641E-08        -0.60000E+08         0.00000E+00
    0.00000E+00         0.00000E+00        -0.22500E+08
 
   -0.22500E+08         0.26427E-08         0.00000E+00
    0.26427E-08        -0.60000E+08         0.00000E+00
    0.00000E+00         0.00000E+00        -0.22500E+08
 
   -0.22500E+08         0.43605E-07         0.00000E+00
    0.43605E-07        -0.60000E+08         0.00000E+00
    0.00000E+00         0.00000E+00        -0.22500E+08
 
   -0.22500E+08         0.87211E-07         0.00000E+00
    0.87211E-07        -0.60000E+08         0.00000E+00
    0.00000E+00         0.00000E+00        -0.22500E+08
 
   -0.22500E+08         0.12355E-06         0.00000E+00
    0.12355E-06        -0.60000E+08         0.00000E+00
    0.00000E+00         0.00000E+00        -0.22500E+08
 
   -0.22500E+08         0.15262E-06         0.00000E+00
    0.15262E-06        -0.60000E+08         0.00000E+00
    0.00000E+00         0.00000E+00        -0.22500E+08
 
   -0.22500E+08         0.21010E-06         0.00000E+00
    0.21010E-06        -0.60000E+08         0.00000E+00
    0.00000E+00         0.00000E+00        -0.22500E+08
 
   -0.22500E+08         0.27055E-06         0.00000E+00
    0.27055E-06        -0.60000E+08         0.00000E+00
    0.00000E+00         0.00000E+00        -0.22500E+08
 
   -0.22500E+08         0.32390E-06         0.00000E+00
    0.32390E-06        -0.60000E+08         0.00000E+00
    0.00000E+00         0.00000E+00        -0.22500E+08
 
   -0.22500E+08        -0.55498E-07         0.00000E+00
   -0.55498E-07        -0.60000E+08         0.00000E+00
    0.00000E+00         0.00000E+00        -0.22500E+08
 
   -0.22500E+08        -0.95139E-07         0.00000E+00
   -0.95139E-07        -0.60000E+08         0.00000E+00
    0.00000E+00         0.00000E+00        -0.22500E+08
 
   -0.22500E+08        -0.76640E-07         0.00000E+00
   -0.76640E-07        -0.60000E+08         0.00000E+00
    0.00000E+00         0.00000E+00        -0.22500E+08
 
   -0.22500E+08        -0.58140E-07         0.00000E+00
   -0.58140E-07        -0.60000E+08         0.00000E+00
    0.00000E+00         0.00000E+00        -0.22500E+08
 
   -0.22500E+08        -0.26427E-07         0.00000E+00
   -0.26427E-07        -0.60000E+08         0.00000E+00
    0.00000E+00         0.00000E+00        -0.22500E+08
 
   -0.22500E+08        -0.26427E-07         0.00000E+00
   -0.26427E-07        -0.60000E+08         0.00000E+00
    0.00000E+00         0.00000E+00        -0.22500E+08
 
   -0.22500E+08         0.26427E-08         0.00000E+00
    0.26427E-08        -0.60000E+08         0.00000E+00
    0.00000E+00         0.00000E+00        -0.22500E+08
 
   -0.22500E+08         0.34356E-07         0.00000E+00
    0.34356E-07        -0.60000E+08         0.00000E+00
    0.00000E+00         0.00000E+00        -0.22500E+08
 
   -0.22500E+08         0.50212E-07         0.00000E+00
    0.50212E-07        -0.60000E+08         0.00000E+00
    0.00000E+00         0.00000E+00        -0.22500E+08
 
   -0.22500E+08         0.72675E-07         0.00000E+00
    0.72675E-07        -0.60000E+08         0.00000E+00
    0.00000E+00         0.00000E+00        -0.22500E+08
 
   -0.22500E+08         0.11760E-06         0.00000E+00
    0.11760E-06        -0.60000E+08         0.00000E+00
    0.00000E+00         0.00000E+00        -0.22500E+08
 
   -0.22500E+08         0.17376E-06         0.00000E+00
    0.17376E-06        -0.60000E+08         0.00000E+00
    0.00000E+00         0.00000E+00        -0.22500E+08
 
   -0.22500E+08         0.22529E-06         0.00000E+00
    0.22529E-06        -0.60000E+08         0.00000E+00
    0.00000E+00         0.00000E+00        -0.22500E+08
 
   -0.22500E+08         0.28905E-06         0.00000E+00
    0.28905E-06        -0.60000E+08         0.00000E+00
    0.00000E+00         0.00000E+00        -0.22500E+08
 
   -0.22500E+08         0.35215E-06         0.00000E+00
    0.35215E-06        -0.60000E+08         0.00000E+00
    0.00000E+00         0.00000E+00        -0.22500E+08
 
   -0.22500E+08        -0.58140E-07         0.00000E+00
   -0.58140E-07        -0.60000E+08         0.00000E+00
    0.00000E+00         0.00000E+00        -0.22500E+08
 
   -0.22500E+08        -0.50212E-07         0.00000E+00
   -0.50212E-07        -0.60000E+08         0.00000E+00
    0.00000E+00         0.00000E+00        -0.22500E+08
 
   -0.22500E+08        -0.21142E-07         0.00000E+00
   -0.21142E-07        -0.60000E+08         0.00000E+00
    0.00000E+00         0.00000E+00        -0.22500E+08
 
   -0.22500E+08        -0.64747E-07         0.00000E+00
   -0.64747E-07        -0.60000E+08         0.00000E+00
    0.00000E+00         0.00000E+00        -0.22500E+08
 
   -0.22500E+08        -0.39641E-07         0.00000E+00
   -0.39641E-07        -0.60000E+08         0.00000E+00
    0.00000E+00         0.00000E+00        -0.22500E+08
 
   -0.22500E+08        -0.23785E-07         0.00000E+00
   -0.23785E-07        -0.60000E+08         0.00000E+00
    0.00000E+00         0.00000E+00        -0.22500E+08
 
   -0.22500E+08        -0.34356E-07         0.00000E+00
   -0.34356E-07        -0.60000E+08         0.00000E+00
    0.00000E+00         0.00000E+00        -0.22500E+08
 
   -0.22500E+08        -0.66069E-08         0.00000E+00
   -0.66069E-08        -0.60000E+08         0.00000E+00
    0.00000E+00         0.00000E+00        -0.22500E+08
 
   -0.22500E+08         0.40963E-07         0.00000E+00
    0.40963E-07        -0.60000E+08         0.00000E+00
    0.00000E+00         0.00000E+00        -0.22500E+08
 
   -0.22500E+08         0.87211E-07         0.00000E+00
    0.87211E-07        -0.60000E+08         0.00000E+00
    0.00000E+00         0.00000E+00        -0.22500E+08
 
   -0.22500E+08         0.14469E-06         0.00000E+00
    0.14469E-06        -0.60000E+08         0.00000E+00
    0.00000E+00         0.00000E+00        -0.22500E+08
 
   -0.22500E+08         0.18037E-06         0.00000E+00
    0.18037E-06        -0.60000E+08         0.00000E+00
    0.00000E+00         0.00000E+00        -0.22500E+08
 
   -0.22500E+08         0.24115E-06         0.00000E+00
    0.24115E-06        -0.60000E+08         0.00000E+00
    0.00000E+00         0.00000E+00        -0.22500E+08
 
   -0.22500E+08         0.31614E-06         0.00000E+00
    0.31614E-06        -0.60000E+08         0.00000E+00
    0.00000E+00         0.00000E+00        -0.22500E+08
 
   -0.22500E+08         0.38815E-06         0.00000E+00
    0.38815E-06        -0.60000E+08         0.00000E+00
    0.00000E+00         0.00000E+00        -0.22500E+08
 
   -0.22500E+08         0.21142E-07         0.00000E+00
    0.21142E-07        -0.60000E+08         0.00000E+00
    0.00000E+00         0.00000E+00        -0.22500E+08
 
   -0.22500E+08        -0.71354E-07         0.00000E+00
   -0.71354E-07        -0.60000E+08         0.00000E+00
    0.00000E+00         0.00000E+00        -0.22500E+08
 
   -0.22500E+08        -0.55498E-07         0.00000E+00
   -0.55498E-07        -0.60000E+08         0.00000E+00
    0.00000E+00         0.00000E+00        -0.22500E+08
 
   -0.22500E+08        -0.67390E-07         0.00000E+00
   -0.67390E-07        -0.60000E+08         0.00000E+00
    0.00000E+00         0.00000E+00        -0.22500E+08
 
   -0.22500E+08        -0.22463E-07         0.00000E+00
   -0.22463E-07        -0.60000E+08         0.00000E+00
    0.00000E+00         0.00000E+00        -0.22500E+08
 
   -0.22500E+08        -0.21142E-07         0.00000E+00
   -0.21142E-07        -0.60000E+08         0.00000E+00
    0.00000E+00         0.00000E+00        -0.22500E+08
 
   -0.22500E+08        -0.23785E-07         0.00000E+00
   -0.23785E-07        -0.60000E+08         0.00000E+00
    0.00000E+00         0.00000E+00        -0.22500E+08
 
   -0.22500E+08         0.39641E-08         0.00000E+00
    0.39641E-08        -0.60000E+08         0.00000E+00
    0.00000E+00         0.00000E+00        -0.22500E+08
 
   -0.22500E+08         0.36998E-07         0.00000E+00
    0.36998E-07        -0.60000E+08         0.00000E+00
    0.00000E+00         0.00000E+00        -0.22500E+08
 
   -0.22500E+08         0.72015E-07         0.00000E+00
    0.72015E-07        -0.60000E+08         0.00000E+00
    0.00000E+00         0.00000E+00        -0.22500E+08
 
   -0.22500E+08         0.13280E-06         0.00000E+00
    0.13280E-06        -0.60000E+08         0.00000E+00
    0.00000E+00         0.00000E+00        -0.22500E+08
 
   -0.22500E+08         0.18565E-06         0.00000E+00
    0.18565E-06        -0.60000E+08         0.00000E+00
    0.00000E+00         0.00000E+00        -0.22500E+08
 
   -0.22500E+08         0.25668E-06         0.00000E+00
    0.25668E-06        -0.60000E+08         0.00000E+00
    0.00000E+00         0.00000E+00        -0.22500E+08
 
   -0.22500E+08         0.33232E-06         0.00000E+00
    0.33232E-06        -0.60000E+08         0.00000E+00
    0.00000E+00         0.00000E+00        -0.22500E+08
 
   -0.22500E+08         0.41574E-06         0.00000E+00
    0.41574E-06        -0.60000E+08         0.00000E+00
    0.00000E+00         0.00000E+00        -0.22500E+08
 
   -0.22500E+08        -0.31713E-07         0.00000E+00
   -0.31713E-07        -0.60000E+08         0.00000E+00
    0.00000E+00         0.00000E+00        -0.22500E+08
 
   -0.22500E+08        -0.76640E-07         0.00000E+00
   -0.76640E-07        -0.60000E+08         0.00000E+00
    0.00000E+00         0.00000E+00        -0.22500E+08
 
   -0.22500E+08        -0.50212E-07         0.00000E+00
   -0.50212E-07        -0.60000E+08         0.00000E+00
    0.00000E+00         0.00000E+00        -0.22500E+08
 
   -0.22500E+08        -0.68711E-07         0.00000E+00
   -0.68711E-07        -0.60000E+08         0.00000E+00
    0.00000E+00         0.00000E+00        -0.22500E+08
 
   -0.22500E+08        -0.36998E-07         0.00000E+00
   -0.36998E-07        -0.60000E+08         0.00000E+00
    0.00000E+00         0.00000E+00        -0.22500E+08
 
   -0.22500E+08        -0.63426E-07         0.00000E+00
   -0.63426E-07        -0.60000E+08         0.00000E+00
    0.00000E+00         0.00000E+00        -0.22500E+08
 
   -0.22500E+08        -0.13214E-07         0.00000E+00
   -0.13214E-07        -0.60000E+08         0.00000E+00
    0.00000E+00         0.00000E+00        -0.22500E+08
 
   -0.22500E+08        -0.79282E-08         0.00000E+00
   -0.79282E-08        -0.60000E+08         0.00000E+00
    0.00000E+00         0.00000E+00        -0.22500E+08
 
   -0.22500E+08         0.29070E-07         0.00000E+00
    0.29070E-07        -0.60000E+08         0.00000E+00
    0.00000E+00         0.00000E+00        -0.22500E+08
 
   -0.22500E+08         0.98442E-07         0.00000E+00
    0.98442E-07        -0.60000E+08         0.00000E+00
    0.00000E+00         0.00000E+00        -0.22500E+08
 
   -0.22500E+08         0.14535E-06         0.00000E+00
    0.14535E-06        -0.60000E+08         0.00000E+00
    0.00000E+00         0.00000E+00        -0.22500E+08
 
   -0.22500E+08         0.20283E-06         0.00000E+00
    0.20283E-06        -0.60000E+08         0.00000E+00
    0.00000E+00         0.00000E+00        -0.22500E+08
 
   -0.22500E+08         0.27980E-06         0.00000E+00
    0.27980E-06        -0.60000E+08         0.00000E+00
    0.00000E+00         0.00000E+00        -0.22500E+08
 
   -0.22500E+08         0.35809E-06         0.00000E+00
    0.35809E-06        -0.60000E+08         0.00000E+00
    0.00000E+00         0.00000E+00        -0.22500E+08
 
   -0.22500E+08         0.43969E-06         0.00000E+00
    0.43969E-06        -0.60000E+08         0.00000E+00
    0.00000E+00         0.00000E+00        -0.22500E+08
 
   -0.22500E+08        -0.26427E-07         0.00000E+00
   -0.26427E-07        -0.60000E+08         0.00000E+00
    0.00000E+00         0.00000E+00        -0.22500E+08
 
   -0.22500E+08        -0.79282E-07         0.00000E+00
   -0.79282E-07        -0.60000E+08         0.00000E+00
    0.00000E+00         0.00000E+00        -0.22500E+08
 
   -0.22500E+08        -0.42284E-07         0.00000E+00
   -0.42284E-07        -0.60000E+08         0.00000E+00
    0.00000E+00         0.00000E+00        -0.22500E+08
 
   -0.22500E+08        -0.56819E-07         0.00000E+00
   -0.56819E-07        -0.60000E+08         0.00000E+00
    0.00000E+00         0.00000E+00        -0.22500E+08
 
   -0.22500E+08        -0.77961E-07         0.00000E+00
   -0.77961E-07        -0.60000E+08         0.00000E+00
    0.00000E+00         0.00000E+00        -0.22500E+08
 
   -0.22500E+08        -0.60783E-07         0.00000E+00
   -0.60783E-07        -0.60000E+08         0.00000E+00
    0.00000E+00         0.00000E+00        -0.22500E+08
 
   -0.22500E+08        -0.30392E-07         0.00000E+00
   -0.30392E-07        -0.60000E+08         0.00000E+00
    0.00000E+00         0.00000E+00        -0.22500E+08
 
   -0.22500E+08        -0.19821E-07         0.00000E+00
   -0.19821E-07        -0.60000E+08         0.00000E+00
    0.00000E+00         0.00000E+00        -0.22500E+08
 
   -0.22500E+08         0.40963E-07         0.00000E+00
    0.40963E-07        -0.60000E+08         0.00000E+00
    0.00000E+00         0.00000E+00        -0.22500E+08
 
   -0.22500E+08         0.72015E-07         0.00000E+00
    0.72015E-07        -0.60000E+08         0.00000E+00
    0.00000E+00         0.00000E+00        -0.22500E+08
 
   -0.22500E+08         0.14139E-06         0.00000E+00
    0.14139E-06        -0.60000E+08         0.00000E+00
    0.00000E+00         0.00000E+00        -0.22500E+08
 
   -0.22500E+08         0.20944E-06         0.00000E+00
    0.20944E-06        -0.60000E+08         0.00000E+00
    0.00000E+00         0.00000E+00        -0.22500E+08
 
   -0.22500E+08         0.29334E-06         0.00000E+00
    0.29334E-06        -0.60000E+08         0.00000E+00
    0.00000E+00         0.00000E+00        -0.22500E+08
 
   -0.22500E+08         0.37692E-06         0.00000E+00
    0.37692E-06        -0.60000E+08         0.00000E+00
    0.00000E+00         0.00000E+00        -0.22500E+08
 
   -0.22500E+08         0.46810E-06         0.00000E+00
    0.46810E-06        -0.60000E+08         0.00000E+00
    0.00000E+00         0.00000E+00        -0.22500E+08
 
   -0.22500E+08        -0.21142E-07         0.00000E+00
   -0.21142E-07        -0.60000E+08         0.00000E+00
    0.00000E+00         0.00000E+00        -0.22500E+08
 
   -0.22500E+08        -0.76640E-07         0.00000E+00
   -0.76640E-07        -0.60000E+08         0.00000E+00
    0.00000E+00         0.00000E+00        -0.22500E+08
 
   -0.22500E+08        -0.87211E-07         0.00000E+00
   -0.87211E-07        -0.60000E+08         0.00000E+00
    0.00000E+00         0.00000E+00        -0.22500E+08
 
   -0.22500E+08        -0.83246E-07         0.00000E+00
   -0.83246E-07        -0.60000E+08         0.00000E+00
    0.00000E+00         0.00000E+00        -0.22500E+08
 
   -0.22500E+08        -0.75318E-07         0.00000E+00
   -0.75318E-07        -0.60000E+08         0.00000E+00
    0.00000E+00         0.00000E+00        -0.22500E+08
 
   -0.22500E+08        -0.59462E-07         0.00000E+00
   -0.59462E-07        -0.60000E+08         0.00000E+00
    0.00000E+00         0.00000E+00        -0.22500E+08
 
   -0.22500E+08        -0.39641E-07         0.00000E+00
   -0.39641E-07        -0.60000E+08         0.00000E+00
    0.00000E+00         0.00000E+00        -0.22500E+08
 
   -0.22500E+08         0.66069E-08         0.00000E+00
    0.66069E-08        -0.60000E+08         0.00000E+00
    0.00000E+00         0.00000E+00        -0.22500E+08
 
   -0.22500E+08         0.23785E-07         0.00000E+00
    0.23785E-07        -0.60000E+08         0.00000E+00
    0.00000E+00         0.00000E+00        -0.22500E+08
 
   -0.22500E+08         0.81264E-07         0.00000E+00
    0.81264E-07        -0.60000E+08         0.00000E+00
    0.00000E+00         0.00000E+00        -0.22500E+08
 
   -0.22500E+08         0.16385E-06         0.00000E+00
    0.16385E-06        -0.60000E+08         0.00000E+00
    0.00000E+00         0.00000E+00        -0.22500E+08
 
   -0.22500E+08         0.21472E-06         0.00000E+00
    0.21472E-06        -0.60000E+08         0.00000E+00
    0.00000E+00         0.00000E+00        -0.22500E+08
 
   -0.22500E+08         0.29235E-06         0.00000E+00
    0.29235E-06        -0.60000E+08         0.00000E+00
    0.00000E+00         0.00000E+00        -0.22500E+08
 
   -0.22500E+08         0.38551E-06         0.00000E+00
    0.38551E-06        -0.60000E+08         0.00000E+00
    0.00000E+00         0.00000E+00        -0.22500E+08
 
   -0.22500E+08         0.47999E-06         0.00000E+00
    0.47999E-06        -0.60000E+08         0.00000E+00
    0.00000E+00         0.00000E+00        -0.22500E+08
 
   -0.22500E+08        -0.10571E-07         0.00000E+00
   -0.10571E-07        -0.60000E+08         0.00000E+00
    0.00000E+00         0.00000E+00        -0.22500E+08
 
   -0.22500E+08        -0.52855E-07         0.00000E+00
   -0.52855E-07        -0.60000E+08         0.00000E+00
    0.00000E+00         0.00000E+00        -0.22500E+08
 
   -0.22500E+08        -0.89853E-07         0.00000E+00
   -0.89853E-07        -0.60000E+08         0.00000E+00
    0.00000E+00         0.00000E+00        -0.22500E+08
 
   -0.22500E+08        -0.88532E-07         0.00000E+00
   -0.88532E-07        -0.60000E+08         0.00000E+00
    0.00000E+00         0.00000E+00        -0.22500E+08
 
   -0.22500E+08        -0.77961E-07         0.00000E+00
   -0.77961E-07        -0.60000E+08         0.00000E+00
    0.00000E+00         0.00000E+00        -0.22500E+08
 
   -0.22500E+08        -0.88532E-07         0.00000E+00
   -0.88532E-07        -0.60000E+08         0.00000E+00
    0.00000E+00         0.00000E+00        -0.22500E+08
 
   -0.22500E+08        -0.54176E-07         0.00000E+00
   -0.54176E-07        -0.60000E+08         0.00000E+00
    0.00000E+00         0.00000E+00        -0.22500E+08
 
   -0.22500E+08        -0.11892E-07         0.00000E+00
   -0.11892E-07        -0.60000E+08         0.00000E+00
    0.00000E+00         0.00000E+00        -0.22500E+08
 
   -0.22500E+08         0.26427E-07         0.00000E+00
    0.26427E-07        -0.60000E+08         0.00000E+00
    0.00000E+00         0.00000E+00        -0.22500E+08
 
   -0.22500E+08         0.81925E-07         0.00000E+00
    0.81925E-07        -0.60000E+08         0.00000E+00
    0.00000E+00         0.00000E+00        -0.22500E+08
 
   -0.22500E+08         0.14403E-06         0.00000E+00
    0.14403E-06        -0.60000E+08         0.00000E+00
    0.00000E+00         0.00000E+00        -0.22500E+08
 
   -0.22500E+08         0.20746E-06         0.00000E+00
    0.20746E-06        -0.60000E+08         0.00000E+00
    0.00000E+00         0.00000E+00        -0.22500E+08
 
   -0.22500E+08         0.31416E-06         0.00000E+00
    0.31416E-06        -0.60000E+08         0.00000E+00
    0.00000E+00         0.00000E+00        -0.22500E+08
 
   -0.22500E+08         0.41161E-06         0.00000E+00
    0.41161E-06        -0.60000E+08         0.00000E+00
    0.00000E+00         0.00000E+00        -0.22500E+08
 
   -0.22500E+08         0.50377E-06         0.00000E+00
    0.50377E-06        -0.60000E+08         0.00000E+00
    0.00000E+00         0.00000E+00        -0.22500E+08
 
   -0.22500E+08        -0.39641E-07         0.00000E+00
   -0.39641E-07        -0.60000E+08         0.00000E+00
    0.00000E+00         0.00000E+00        -0.22500E+08
 
   -0.22500E+08        -0.66069E-07         0.00000E+00
   -0.66069E-07        -0.60000E+08         0.00000E+00
    0.00000E+00         0.00000E+00        -0.22500E+08
 
   -0.22500E+08        -0.81925E-07         0.00000E+00
   -0.81925E-07        -0.60000E+08         0.00000E+00
    0.00000E+00         0.00000E+00        -0.22500E+08
 
   -0.22500E+08        -0.11100E-06         0.00000E+00
   -0.11100E-06        -0.60000E+08         0.00000E+00
    0.00000E+00         0.00000E+00        -0.22500E+08
 
   -0.22500E+08        -0.10307E-06         0.00000E+00
   -0.10307E-06        -0.60000E+08         0.00000E+00
    0.00000E+00         0.00000E+00        -0.22500E+08
 
   -0.22500E+08        -0.88532E-07         0.00000E+00
   -0.88532E-07        -0.60000E+08         0.00000E+00
    0.00000E+00         0.00000E+00        -0.22500E+08
 
   -0.22500E+08        -0.52855E-07         0.00000E+00
   -0.52855E-07        -0.60000E+08         0.00000E+00
    0.00000E+00         0.00000E+00        -0.22500E+08
 
   -0.22500E+08        -0.26427E-08         0.00000E+00
   -0.26427E-08        -0.60000E+08         0.00000E+00
    0.00000E+00         0.00000E+00        -0.22500E+08
 
   -0.22500E+08         0.21142E-07         0.00000E+00
    0.21142E-07        -0.60000E+08         0.00000E+00
    0.00000E+00         0.00000E+00        -0.22500E+08
 
   -0.22500E+08         0.60783E-07         0.00000E+00
    0.60783E-07        -0.60000E+08         0.00000E+00
    0.00000E+00         0.00000E+00        -0.22500E+08
 
   -0.22500E+08         0.14337E-06         0.00000E+00
    0.14337E-06        -0.60000E+08         0.00000E+00
    0.00000E+00         0.00000E+00        -0.22500E+08
 
   -0.22500E+08         0.22794E-06         0.00000E+00
    0.22794E-06        -0.60000E+08         0.00000E+00
    0.00000E+00         0.00000E+00        -0.22500E+08
 
   -0.22500E+08         0.30986E-06         0.00000E+00
    0.30986E-06        -0.60000E+08         0.00000E+00
    0.00000E+00         0.00000E+00        -0.22500E+08
 
   -0.22500E+08         0.40566E-06         0.00000E+00
    0.40566E-06        -0.60000E+08         0.00000E+00
    0.00000E+00         0.00000E+00        -0.22500E+08
 
   -0.22500E+08         0.51418E-06         0.00000E+00
    0.51418E-06        -0.60000E+08         0.00000E+00
    0.00000E+00         0.00000E+00        -0.22500E+08
 
   -0.22500E+08        -0.23785E-07         0.00000E+00
   -0.23785E-07        -0.60000E+08         0.00000E+00
    0.00000E+00         0.00000E+00        -0.22500E+08
 
   -0.22500E+08        -0.12157E-06         0.00000E+00
   -0.12157E-06        -0.60000E+08         0.00000E+00
    0.00000E+00         0.00000E+00        -0.22500E+08
 
   -0.22500E+08        -0.89853E-07         0.00000E+00
   -0.89853E-07        -0.60000E+08         0.00000E+00
    0.00000E+00         0.00000E+00        -0.22500E+08
 
   -0.22500E+08        -0.12421E-06         0.00000E+00
   -0.12421E-06        -0.60000E+08         0.00000E+00
    0.00000E+00         0.00000E+00        -0.22500E+08
 
   -0.22500E+08        -0.12685E-06         0.00000E+00
   -0.12685E-06        -0.60000E+08         0.00000E+00
    0.00000E+00         0.00000E+00        -0.22500E+08
 
   -0.22500E+08        -0.11496E-06         0.00000E+00
   -0.11496E-06        -0.60000E+08         0.00000E+00
    0.00000E+00         0.00000E+00        -0.22500E+08
 
   -0.22500E+08        -0.59462E-07         0.00000E+00
   -0.59462E-07        -0.60000E+08         0.00000E+00
    0.00000E+00         0.00000E+00        -0.22500E+08
 
   -0.22500E+08        -0.38320E-07         0.00000E+00
   -0.38320E-07        -0.60000E+08         0.00000E+00
    0.00000E+00         0.00000E+00        -0.22500E+08
 
   -0.22500E+08        -0.19821E-07         0.00000E+00
   -0.19821E-07        -0.60000E+08         0.00000E+00
    0.00000E+00         0.00000E+00        -0.22500E+08
 
   -0.22500E+08         0.54176E-07         0.00000E+00
    0.54176E-07        -0.60000E+08         0.00000E+00
    0.00000E+00         0.00000E+00        -0.22500E+08
 
   -0.22500E+08         0.13940E-06         0.00000E+00
    0.13940E-06        -0.60000E+08         0.00000E+00
    0.00000E+00         0.00000E+00        -0.22500E+08
 
   -0.22500E+08         0.20679E-06         0.00000E+00
    0.20679E-06        -0.60000E+08         0.00000E+00
    0.00000E+00         0.00000E+00        -0.22500E+08
 
   -0.22500E+08         0.31746E-06         0.00000E+00
    0.31746E-06        -0.60000E+08         0.00000E+00
    0.00000E+00         0.00000E+00        -0.22500E+08
 
   -0.22500E+08         0.42482E-06         0.00000E+00
    0.42482E-06        -0.60000E+08         0.00000E+00
    0.00000E+00         0.00000E+00        -0.22500E+08
 
   -0.22500E+08         0.52756E-06         0.00000E+00
    0.52756E-06        -0.60000E+08         0.00000E+00
    0.00000E+00         0.00000E+00        -0.22500E+08
 
   -0.22500E+08        -0.60783E-07         0.00000E+00
   -0.60783E-07        -0.60000E+08         0.00000E+00
    0.00000E+00         0.00000E+00        -0.22500E+08
 
   -0.22500E+08        -0.10571E-06         0.00000E+00
   -0.10571E-06        -0.60000E+08         0.00000E+00
    0.00000E+00         0.00000E+00        -0.22500E+08
 
   -0.22500E+08        -0.11100E-06         0.00000E+00
   -0.11100E-06        -0.60000E+08         0.00000E+00
    0.00000E+00         0.00000E+00        -0.22500E+08
 
   -0.22500E+08        -0.14535E-06         0.00000E+00
   -0.14535E-06        -0.60000E+08         0.00000E+00
    0.00000E+00         0.00000E+00        -0.22500E+08
 
   -0.22500E+08        -0.12157E-06         0.00000E+00
   -0.12157E-06        -0.60000E+08         0.00000E+00
    0.00000E+00         0.00000E+00        -0.22500E+08
 
   -0.22500E+08        -0.10175E-06         0.00000E+00
   -0.10175E-06        -0.60000E+08         0.00000E+00
    0.00000E+00         0.00000E+00        -0.22500E+08
 
   -0.22500E+08        -0.11364E-06         0.00000E+00
   -0.11364E-06        -0.60000E+08         0.00000E+00
    0.00000E+00         0.00000E+00        -0.22500E+08
 
   -0.22500E+08        -0.43605E-07         0.00000E+00
   -0.43605E-07        -0.60000E+08         0.00000E+00
    0.00000E+00         0.00000E+00        -0.22500E+08
 
   -0.22500E+08         0.10571E-07         0.00000E+00
    0.10571E-07        -0.60000E+08         0.00000E+00
    0.00000E+00         0.00000E+00        -0.22500E+08
 
   -0.22500E+08         0.54176E-07         0.00000E+00
    0.54176E-07        -0.60000E+08         0.00000E+00
    0.00000E+00         0.00000E+00        -0.22500E+08
 
   -0.22500E+08         0.12685E-06         0.00000E+00
    0.12685E-06        -0.60000E+08         0.00000E+00
    0.00000E+00         0.00000E+00        -0.22500E+08
 
   -0.22500E+08         0.21472E-06         0.00000E+00
    0.21472E-06        -0.60000E+08         0.00000E+00
    0.00000E+00         0.00000E+00        -0.22500E+08
 
   -0.22500E+08         0.30590E-06         0.00000E+00
    0.30590E-06        -0.60000E+08         0.00000E+00
    0.00000E+00         0.00000E+00        -0.22500E+08
 
   -0.22500E+08         0.41095E-06         0.00000E+00
    0.41095E-06        -0.60000E+08         0.00000E+00
    0.00000E+00         0.00000E+00        -0.22500E+08
 
   -0.22500E+08         0.52558E-06         0.00000E+00
    0.52558E-06        -0.60000E+08         0.00000E+00
    0.00000E+00         0.00000E+00        -0.22500E+08
 
   -0.22500E+08        -0.52855E-07         0.00000E+00
   -0.52855E-07        -0.60000E+08         0.00000E+00
    0.00000E+00         0.00000E+00        -0.22500E+08
 
   -0.22500E+08        -0.95139E-07         0.00000E+00
   -0.95139E-07        -0.60000E+08         0.00000E+00
    0.00000E+00         0.00000E+00        -0.22500E+08
 
   -0.22500E+08        -0.12685E-06         0.00000E+00
   -0.12685E-06        -0.60000E+08         0.00000E+00
    0.00000E+00         0.00000E+00        -0.22500E+08
 
   -0.22500E+08        -0.15064E-06         0.00000E+00
   -0.15064E-06        -0.60000E+08         0.00000E+00
    0.00000E+00         0.00000E+00        -0.22500E+08
 
   -0.22500E+08        -0.14403E-06         0.00000E+00
   -0.14403E-06        -0.60000E+08         0.00000E+00
    0.00000E+00         0.00000E+00        -0.22500E+08
 
   -0.22500E+08        -0.12157E-06         0.00000E+00
   -0.12157E-06        -0.60000E+08         0.00000E+00
    0.00000E+00         0.00000E+00        -0.22500E+08
 
   -0.22500E+08        -0.11364E-06         0.00000E+00
   -0.11364E-06        -0.60000E+08         0.00000E+00
    0.00000E+00         0.00000E+00        -0.22500E+08
 
   -0.22500E+08        -0.67390E-07         0.00000E+00
   -0.67390E-07        -0.60000E+08         0.00000E+00
    0.00000E+00         0.00000E+00        -0.22500E+08
 
   -0.22500E+08        -0.79282E-08         0.00000E+00
   -0.79282E-08        -0.60000E+08         0.00000E+00
    0.00000E+00         0.00000E+00        -0.22500E+08
 
   -0.22500E+08         0.38320E-07         0.00000E+00
    0.38320E-07        -0.60000E+08         0.00000E+00
    0.00000E+00         0.00000E+00        -0.22500E+08
 
   -0.22500E+08         0.11562E-06         0.00000E+00
    0.11562E-06        -0.60000E+08         0.00000E+00
    0.00000E+00         0.00000E+00        -0.22500E+08
 
   -0.22500E+08         0.19755E-06         0.00000E+00
    0.19755E-06        -0.60000E+08         0.00000E+00
    0.00000E+00         0.00000E+00        -0.22500E+08
 
   -0.22500E+08         0.29202E-06         0.00000E+00
    0.29202E-06        -0.60000E+08         0.00000E+00
    0.00000E+00         0.00000E+00        -0.22500E+08
 
   -0.22500E+08         0.40533E-06         0.00000E+00
    0.40533E-06        -0.60000E+08         0.00000E+00
    0.00000E+00         0.00000E+00        -0.22500E+08
 
   -0.22500E+08         0.52624E-06         0.00000E+00
    0.52624E-06        -0.60000E+08         0.00000E+00
    0.00000E+00         0.00000E+00        -0.22500E+08
 
   -0.22500E+08        -0.21142E-07         0.00000E+00
   -0.21142E-07        -0.60000E+08         0.00000E+00
    0.00000E+00         0.00000E+00        -0.22500E+08
 
   -0.22500E+08        -0.89853E-07         0.00000E+00
   -0.89853E-07        -0.60000E+08         0.00000E+00
    0.00000E+00         0.00000E+00        -0.22500E+08
 
   -0.22500E+08        -0.14007E-06         0.00000E+00
   -0.14007E-06        -0.60000E+08         0.00000E+00
    0.00000E+00         0.00000E+00        -0.22500E+08
 
   -0.22500E+08        -0.18896E-06         0.00000E+00
   -0.18896E-06        -0.60000E+08         0.00000E+00
    0.00000E+00         0.00000E+00        -0.22500E+08
 
   -0.22500E+08        -0.19424E-06         0.00000E+00
   -0.19424E-06        -0.60000E+08         0.00000E+00
    0.00000E+00         0.00000E+00        -0.22500E+08
 
   -0.22500E+08        -0.15328E-06         0.00000E+00
   -0.15328E-06        -0.60000E+08         0.00000E+00
    0.00000E+00         0.00000E+00        -0.22500E+08
 
   -0.22500E+08        -0.14139E-06         0.00000E+00
   -0.14139E-06        -0.60000E+08         0.00000E+00
    0.00000E+00         0.00000E+00        -0.22500E+08
 
   -0.22500E+08        -0.89853E-07         0.00000E+00
   -0.89853E-07        -0.60000E+08         0.00000E+00
    0.00000E+00         0.00000E+00        -0.22500E+08
 
   -0.22500E+08        -0.23785E-07         0.00000E+00
   -0.23785E-07        -0.60000E+08         0.00000E+00
    0.00000E+00         0.00000E+00        -0.22500E+08
 
   -0.22500E+08         0.23124E-07         0.00000E+00
    0.23124E-07        -0.60000E+08         0.00000E+00
    0.00000E+00         0.00000E+00        -0.22500E+08
 
   -0.22500E+08         0.11892E-06         0.00000E+00
    0.11892E-06        -0.60000E+08         0.00000E+00
    0.00000E+00         0.00000E+00        -0.22500E+08
 
   -0.22500E+08         0.19358E-06         0.00000E+00
    0.19358E-06        -0.60000E+08         0.00000E+00
    0.00000E+00         0.00000E+00        -0.22500E+08
 
   -0.22500E+08         0.30986E-06         0.00000E+00
    0.30986E-06        -0.60000E+08         0.00000E+00
    0.00000E+00         0.00000E+00        -0.22500E+08
 
   -0.22500E+08         0.41755E-06         0.00000E+00
    0.41755E-06        -0.60000E+08         0.00000E+00
    0.00000E+00         0.00000E+00        -0.22500E+08
 
   -0.22500E+08         0.53235E-06         0.00000E+00
    0.53235E-06        -0.60000E+08         0.00000E+00
    0.00000E+00         0.00000E+00        -0.22500E+08
 
   -0.22500E+08        -0.39641E-07         0.00000E+00
   -0.39641E-07        -0.60000E+08         0.00000E+00
    0.00000E+00         0.00000E+00        -0.22500E+08
 
   -0.22500E+08        -0.10042E-06         0.00000E+00
   -0.10042E-06        -0.60000E+08         0.00000E+00
    0.00000E+00         0.00000E+00        -0.22500E+08
 
   -0.22500E+08        -0.13478E-06         0.00000E+00
   -0.13478E-06        -0.60000E+08         0.00000E+00
    0.00000E+00         0.00000E+00        -0.22500E+08
 
   -0.22500E+08        -0.14535E-06         0.00000E+00
   -0.14535E-06        -0.60000E+08         0.00000E+00
    0.00000E+00         0.00000E+00        -0.22500E+08
 
   -0.22500E+08        -0.15724E-06         0.00000E+00
   -0.15724E-06        -0.60000E+08         0.00000E+00
    0.00000E+00         0.00000E+00        -0.22500E+08
 
   -0.22500E+08        -0.17442E-06         0.00000E+00
   -0.17442E-06        -0.60000E+08         0.00000E+00
    0.00000E+00         0.00000E+00        -0.22500E+08
 
   -0.22500E+08        -0.13874E-06         0.00000E+00
   -0.13874E-06        -0.60000E+08         0.00000E+00
    0.00000E+00         0.00000E+00        -0.22500E+08
 
   -0.22500E+08        -0.88532E-07         0.00000E+00
   -0.88532E-07        -0.60000E+08         0.00000E+00
    0.00000E+00         0.00000E+00        -0.22500E+08
 
   -0.22500E+08        -0.43605E-07         0.00000E+00
   -0.43605E-07        -0.60000E+08         0.00000E+00
    0.00000E+00         0.00000E+00        -0.22500E+08
 
   -0.22500E+08         0.29070E-07         0.00000E+00
    0.29070E-07        -0.60000E+08         0.00000E+00
    0.00000E+00         0.00000E+00        -0.22500E+08
 
   -0.22500E+08         0.11033E-06         0.00000E+00
    0.11033E-06        -0.60000E+08         0.00000E+00
    0.00000E+00         0.00000E+00        -0.22500E+08
 
   -0.22500E+08         0.18037E-06         0.00000E+00
    0.18037E-06        -0.60000E+08         0.00000E+00
    0.00000E+00         0.00000E+00        -0.22500E+08
 
   -0.22500E+08         0.29698E-06         0.00000E+00
    0.29698E-06        -0.60000E+08         0.00000E+00
    0.00000E+00         0.00000E+00        -0.22500E+08
 
   -0.22500E+08         0.40797E-06         0.00000E+00
    0.40797E-06        -0.60000E+08         0.00000E+00
    0.00000E+00         0.00000E+00        -0.22500E+08
 
   -0.22500E+08         0.53615E-06         0.00000E+00
    0.53615E-06        -0.60000E+08         0.00000E+00
    0.00000E+00         0.00000E+00        -0.22500E+08
 
   -0.22500E+08        -0.26427E-07         0.00000E+00
   -0.26427E-07        -0.60000E+08         0.00000E+00
    0.00000E+00         0.00000E+00        -0.22500E+08
 
   -0.22500E+08        -0.12421E-06         0.00000E+00
   -0.12421E-06        -0.60000E+08         0.00000E+00
    0.00000E+00         0.00000E+00        -0.22500E+08
 
   -0.22500E+08        -0.14799E-06         0.00000E+00
   -0.14799E-06        -0.60000E+08         0.00000E+00
    0.00000E+00         0.00000E+00        -0.22500E+08
 
   -0.22500E+08        -0.20349E-06         0.00000E+00
   -0.20349E-06        -0.60000E+08         0.00000E+00
    0.00000E+00         0.00000E+00        -0.22500E+08
 
   -0.22500E+08        -0.19688E-06         0.00000E+00
   -0.19688E-06        -0.60000E+08         0.00000E+00
    0.00000E+00         0.00000E+00        -0.22500E+08
 
   -0.22500E+08        -0.16781E-06         0.00000E+00
   -0.16781E-06        -0.60000E+08         0.00000E+00
    0.00000E+00         0.00000E+00        -0.22500E+08
 
   -0.22500E+08        -0.14403E-06         0.00000E+00
   -0.14403E-06        -0.60000E+08         0.00000E+00
    0.00000E+00         0.00000E+00        -0.22500E+08
 
   -0.22500E+08        -0.10703E-06         0.00000E+00
   -0.10703E-06        -0.60000E+08         0.00000E+00
    0.00000E+00         0.00000E+00        -0.22500E+08
 
   -0.22500E+08        -0.68711E-07         0.00000E+00
   -0.68711E-07        -0.60000E+08         0.00000E+00
    0.00000E+00         0.00000E+00        -0.22500E+08
 
   -0.22500E+08        -0.10571E-07         0.00000E+00
   -0.10571E-07        -0.60000E+08         0.00000E+00
    0.00000E+00         0.00000E+00        -0.22500E+08
 
   -0.22500E+08         0.87211E-07         0.00000E+00
    0.87211E-07        -0.60000E+08         0.00000E+00
    0.00000E+00         0.00000E+00        -0.22500E+08
 
   -0.22500E+08         0.16980E-06         0.00000E+00
    0.16980E-06        -0.60000E+08         0.00000E+00
    0.00000E+00         0.00000E+00        -0.22500E+08
 
   -0.22500E+08         0.28343E-06         0.00000E+00
    0.28343E-06        -0.60000E+08         0.00000E+00
    0.00000E+00         0.00000E+00        -0.22500E+08
 
   -0.22500E+08         0.39674E-06         0.00000E+00
    0.39674E-06        -0.60000E+08         0.00000E+00
    0.00000E+00         0.00000E+00        -0.22500E+08
 
   -0.22500E+08         0.52409E-06         0.00000E+00
    0.52409E-06        -0.60000E+08         0.00000E+00
    0.00000E+00         0.00000E+00        -0.22500E+08
 
   -0.22500E+08        -0.89853E-07         0.00000E+00
   -0.89853E-07        -0.60000E+08         0.00000E+00
    0.00000E+00         0.00000E+00        -0.22500E+08
 
   -0.22500E+08        -0.14535E-06         0.00000E+00
   -0.14535E-06        -0.60000E+08         0.00000E+00
    0.00000E+00         0.00000E+00        -0.22500E+08
 
   -0.22500E+08        -0.18235E-06         0.00000E+00
   -0.18235E-06        -0.60000E+08         0.00000E+00
    0.00000E+00         0.00000E+00        -0.22500E+08
 
   -0.22500E+08        -0.21274E-06         0.00000E+00
   -0.21274E-06        -0.60000E+08         0.00000E+00
    0.00000E+00         0.00000E+00        -0.22500E+08
 
   -0.22500E+08        -0.20878E-06         0.00000E+00
   -0.20878E-06        -0.60000E+08         0.00000E+00
    0.00000E+00         0.00000E+00        -0.22500E+08
 
   -0.22500E+08        -0.16385E-06         0.00000E+00
   -0.16385E-06        -0.60000E+08         0.00000E+00
    0.00000E+00         0.00000E+00        -0.22500E+08
 
   -0.22500E+08        -0.13610E-06         0.00000E+00
   -0.13610E-06        -0.60000E+08         0.00000E+00
    0.00000E+00         0.00000E+00        -0.22500E+08
 
   -0.22500E+08        -0.10835E-06         0.00000E+00
   -0.10835E-06        -0.60000E+08         0.00000E+00
    0.00000E+00         0.00000E+00        -0.22500E+08
 
   -0.22500E+08        -0.64747E-07         0.00000E+00
   -0.64747E-07        -0.60000E+08         0.00000E+00
    0.00000E+00         0.00000E+00        -0.22500E+08
 
   -0.22500E+08        -0.46248E-08         0.00000E+00
   -0.46248E-08        -0.60000E+08         0.00000E+00
    0.00000E+00         0.00000E+00        -0.22500E+08
 
   -0.22500E+08         0.62765E-07         0.00000E+00
    0.62765E-07        -0.60000E+08         0.00000E+00
    0.00000E+00         0.00000E+00        -0.22500E+08
 
   -0.22500E+08         0.15130E-06         0.00000E+00
    0.15130E-06        -0.60000E+08         0.00000E+00
    0.00000E+00         0.00000E+00        -0.22500E+08
 
   -0.22500E+08         0.25436E-06         0.00000E+00
    0.25436E-06        -0.60000E+08         0.00000E+00
    0.00000E+00         0.00000E+00        -0.22500E+08
 
   -0.22500E+08         0.37164E-06         0.00000E+00
    0.37164E-06        -0.60000E+08         0.00000E+00
    0.00000E+00         0.00000E+00        -0.22500E+08
 
   -0.22500E+08         0.50609E-06         0.00000E+00
    0.50609E-06        -0.60000E+08         0.00000E+00
    0.00000E+00         0.00000E+00        -0.22500E+08
 
   -0.22500E+08        -0.10042E-06         0.00000E+00
   -0.10042E-06        -0.60000E+08         0.00000E+00
    0.00000E+00         0.00000E+00        -0.22500E+08
 
   -0.22500E+08        -0.14799E-06         0.00000E+00
   -0.14799E-06        -0.60000E+08         0.00000E+00
    0.00000E+00         0.00000E+00        -0.22500E+08
 
   -0.22500E+08        -0.19556E-06         0.00000E+00
   -0.19556E-06        -0.60000E+08         0.00000E+00
    0.00000E+00         0.00000E+00        -0.22500E+08
 
   -0.22500E+08        -0.19556E-06         0.00000E+00
   -0.19556E-06        -0.60000E+08         0.00000E+00
    0.00000E+00         0.00000E+00        -0.22500E+08
 
   -0.22500E+08        -0.18631E-06         0.00000E+00
   -0.18631E-06        -0.60000E+08         0.00000E+00
    0.00000E+00         0.00000E+00        -0.22500E+08
 
   -0.22500E+08        -0.18367E-06         0.00000E+00
   -0.18367E-06        -0.60000E+08         0.00000E+00
    0.00000E+00         0.00000E+00        -0.22500E+08
 
   -0.22500E+08        -0.17706E-06         0.00000E+00
   -0.17706E-06        -0.60000E+08         0.00000E+00
    0.00000E+00         0.00000E+00        -0.22500E+08
 
   -0.22500E+08        -0.12685E-06         0.00000E+00
   -0.12685E-06        -0.60000E+08         0.00000E+00
    0.00000E+00         0.00000E+00        -0.22500E+08
 
   -0.22500E+08        -0.76640E-07         0.00000E+00
   -0.76640E-07        -0.60000E+08         0.00000E+00
    0.00000E+00         0.00000E+00        -0.22500E+08
 
   -0.22500E+08        -0.31713E-07         0.00000E+00
   -0.31713E-07        -0.60000E+08         0.00000E+00
    0.00000E+00         0.00000E+00        -0.22500E+08
 
   -0.22500E+08         0.40963E-07         0.00000E+00
    0.40963E-07        -0.60000E+08         0.00000E+00
    0.00000E+00         0.00000E+00        -0.22500E+08
 
   -0.22500E+08         0.12817E-06         0.00000E+00
    0.12817E-06        -0.60000E+08         0.00000E+00
    0.00000E+00         0.00000E+00        -0.22500E+08
 
   -0.22500E+08         0.22926E-06         0.00000E+00
    0.22926E-06        -0.60000E+08         0.00000E+00
    0.00000E+00         0.00000E+00        -0.22500E+08
 
   -0.22500E+08         0.35578E-06         0.00000E+00
    0.35578E-06        -0.60000E+08         0.00000E+00
    0.00000E+00         0.00000E+00        -0.22500E+08
 
   -0.22500E+08         0.49205E-06         0.00000E+00
    0.49205E-06        -0.60000E+08         0.00000E+00
    0.00000E+00         0.00000E+00        -0.22500E+08
 
   -0.22500E+08        -0.10571E-07         0.00000E+00
   -0.10571E-07        -0.60000E+08         0.00000E+00
    0.00000E+00         0.00000E+00        -0.22500E+08
 
   -0.22500E+08        -0.14271E-06         0.00000E+00
   -0.14271E-06        -0.60000E+08         0.00000E+00
    0.00000E+00         0.00000E+00        -0.22500E+08
 
   -0.22500E+08        -0.19821E-06         0.00000E+00
   -0.19821E-06        -0.60000E+08         0.00000E+00
    0.00000E+00         0.00000E+00        -0.22500E+08
 
   -0.22500E+08        -0.21406E-06         0.00000E+00
   -0.21406E-06        -0.60000E+08         0.00000E+00
    0.00000E+00         0.00000E+00        -0.22500E+08
 
   -0.22500E+08        -0.23520E-06         0.00000E+00
   -0.23520E-06        -0.60000E+08         0.00000E+00
    0.00000E+00         0.00000E+00        -0.22500E+08
 
   -0.22500E+08        -0.16517E-06         0.00000E+00
   -0.16517E-06        -0.60000E+08         0.00000E+00
    0.00000E+00         0.00000E+00        -0.22500E+08
 
   -0.22500E+08        -0.12817E-06         0.00000E+00
   -0.12817E-06        -0.60000E+08         0.00000E+00
    0.00000E+00         0.00000E+00        -0.22500E+08
 
   -0.22500E+08        -0.11496E-06         0.00000E+00
   -0.11496E-06        -0.60000E+08         0.00000E+00
    0.00000E+00         0.00000E+00        -0.22500E+08
 
   -0.22500E+08        -0.10175E-06         0.00000E+00
   -0.10175E-06        -0.60000E+08         0.00000E+00
    0.00000E+00         0.00000E+00        -0.22500E+08
 
   -0.22500E+08        -0.29070E-07         0.00000E+00
   -0.29070E-07        -0.60000E+08         0.00000E+00
    0.00000E+00         0.00000E+00        -0.22500E+08
 
   -0.22500E+08         0.45587E-07         0.00000E+00
    0.45587E-07        -0.60000E+08         0.00000E+00
    0.00000E+00         0.00000E+00        -0.22500E+08
 
   -0.22500E+08         0.11166E-06         0.00000E+00
    0.11166E-06        -0.60000E+08         0.00000E+00
    0.00000E+00         0.00000E+00        -0.22500E+08
 
   -0.22500E+08         0.20911E-06         0.00000E+00
    0.20911E-06        -0.60000E+08         0.00000E+00
    0.00000E+00         0.00000E+00        -0.22500E+08
 
   -0.22500E+08         0.32109E-06         0.00000E+00
    0.32109E-06        -0.60000E+08         0.00000E+00
    0.00000E+00         0.00000E+00        -0.22500E+08
 
   -0.22500E+08         0.45075E-06         0.00000E+00
    0.45075E-06        -0.60000E+08         0.00000E+00
    0.00000E+00         0.00000E+00        -0.22500E+08
 
   -0.22500E+08        -0.21142E-07         0.00000E+00
   -0.21142E-07        -0.60000E+08         0.00000E+00
    0.00000E+00         0.00000E+00        -0.22500E+08
 
   -0.22500E+08        -0.13214E-06         0.00000E+00
   -0.13214E-06        -0.60000E+08         0.00000E+00
    0.00000E+00         0.00000E+00        -0.22500E+08
 
   -0.22500E+08        -0.20613E-06         0.00000E+00
   -0.20613E-06        -0.60000E+08         0.00000E+00
    0.00000E+00         0.00000E+00        -0.22500E+08
 
   -0.22500E+08        -0.19688E-06         0.00000E+00
   -0.19688E-06        -0.60000E+08         0.00000E+00
    0.00000E+00         0.00000E+00        -0.22500E+08
 
   -0.22500E+08        -0.20217E-06         0.00000E+00
   -0.20217E-06        -0.60000E+08         0.00000E+00
    0.00000E+00         0.00000E+00        -0.22500E+08
 
   -0.22500E+08        -0.18235E-06         0.00000E+00
   -0.18235E-06        -0.60000E+08         0.00000E+00
    0.00000E+00         0.00000E+00        -0.22500E+08
 
   -0.22500E+08        -0.17971E-06         0.00000E+00
   -0.17971E-06        -0.60000E+08         0.00000E+00
    0.00000E+00         0.00000E+00        -0.22500E+08
 
   -0.22500E+08        -0.13478E-06         0.00000E+00
   -0.13478E-06        -0.60000E+08         0.00000E+00
    0.00000E+00         0.00000E+00        -0.22500E+08
 
   -0.22500E+08        -0.68711E-07         0.00000E+00
   -0.68711E-07        -0.60000E+08         0.00000E+00
    0.00000E+00         0.00000E+00        -0.22500E+08
 
   -0.22500E+08        -0.48230E-07         0.00000E+00
   -0.48230E-07        -0.60000E+08         0.00000E+00
    0.00000E+00         0.00000E+00        -0.22500E+08
 
   -0.22500E+08         0.21803E-07         0.00000E+00
    0.21803E-07        -0.60000E+08         0.00000E+00
    0.00000E+00         0.00000E+00        -0.22500E+08
 
   -0.22500E+08         0.91175E-07         0.00000E+00
    0.91175E-07        -0.60000E+08         0.00000E+00
    0.00000E+00         0.00000E+00        -0.22500E+08
 
   -0.22500E+08         0.17277E-06         0.00000E+00
    0.17277E-06        -0.60000E+08         0.00000E+00
    0.00000E+00         0.00000E+00        -0.22500E+08
 
   -0.22500E+08         0.27749E-06         0.00000E+00
    0.27749E-06        -0.60000E+08         0.00000E+00
    0.00000E+00         0.00000E+00        -0.22500E+08
 
   -0.22500E+08         0.41029E-06         0.00000E+00
    0.41029E-06        -0.60000E+08         0.00000E+00
    0.00000E+00         0.00000E+00        -0.22500E+08
 
   -0.22500E+08        -0.11100E-06         0.00000E+00
   -0.11100E-06        -0.60000E+08         0.00000E+00
    0.00000E+00         0.00000E+00        -0.22500E+08
 
   -0.22500E+08        -0.17971E-06         0.00000E+00
   -0.17971E-06        -0.60000E+08         0.00000E+00
    0.00000E+00         0.00000E+00        -0.22500E+08
 
   -0.22500E+08        -0.20085E-06         0.00000E+00
   -0.20085E-06        -0.60000E+08         0.00000E+00
    0.00000E+00         0.00000E+00        -0.22500E+08
 
   -0.22500E+08        -0.18631E-06         0.00000E+00
   -0.18631E-06        -0.60000E+08         0.00000E+00
    0.00000E+00         0.00000E+00        -0.22500E+08
 
   -0.22500E+08        -0.19556E-06         0.00000E+00
   -0.19556E-06        -0.60000E+08         0.00000E+00
    0.00000E+00         0.00000E+00        -0.22500E+08
 
   -0.22500E+08        -0.15064E-06         0.00000E+00
   -0.15064E-06        -0.60000E+08         0.00000E+00
    0.00000E+00         0.00000E+00        -0.22500E+08
 
   -0.22500E+08        -0.11628E-06         0.00000E+00
   -0.11628E-06        -0.60000E+08         0.00000E+00
    0.00000E+00         0.00000E+00        -0.22500E+08
 
   -0.22500E+08        -0.10703E-06         0.00000E+00
   -0.10703E-06        -0.60000E+08         0.00000E+00
    0.00000E+00         0.00000E+00        -0.22500E+08
 
   -0.22500E+08        -0.84568E-07         0.00000E+00
   -0.84568E-07        -0.60000E+08         0.00000E+00
    0.00000E+00         0.00000E+00        -0.22500E+08
 
   -0.22500E+08        -0.52194E-07         0.00000E+00
   -0.52194E-07        -0.60000E+08         0.00000E+00
    0.00000E+00         0.00000E+00        -0.22500E+08
 
   -0.22500E+08         0.85889E-08         0.00000E+00
    0.85889E-08        -0.60000E+08         0.00000E+00
    0.00000E+00         0.00000E+00        -0.22500E+08
 
   -0.22500E+08         0.61444E-07         0.00000E+00
    0.61444E-07        -0.60000E+08         0.00000E+00
    0.00000E+00         0.00000E+00        -0.22500E+08
 
   -0.22500E+08         0.14007E-06         0.00000E+00
    0.14007E-06        -0.60000E+08         0.00000E+00
    0.00000E+00         0.00000E+00        -0.22500E+08
 
   -0.22500E+08         0.23785E-06         0.00000E+00
    0.23785E-06        -0.60000E+08         0.00000E+00
    0.00000E+00         0.00000E+00        -0.22500E+08
 
   -0.22500E+08         0.35727E-06         0.00000E+00
    0.35727E-06        -0.60000E+08         0.00000E+00
    0.00000E+00         0.00000E+00        -0.22500E+08
 
   -0.22500E+08        -0.12949E-06         0.00000E+00
   -0.12949E-06        -0.60000E+08         0.00000E+00
    0.00000E+00         0.00000E+00        -0.22500E+08
 
   -0.22500E+08        -0.20878E-06         0.00000E+00
   -0.20878E-06        -0.60000E+08         0.00000E+00
    0.00000E+00         0.00000E+00        -0.22500E+08
 
   -0.22500E+08        -0.17442E-06         0.00000E+00
   -0.17442E-06        -0.60000E+08         0.00000E+00
    0.00000E+00         0.00000E+00        -0.22500E+08
 
   -0.22500E+08        -0.18367E-06         0.00000E+00
   -0.18367E-06        -0.60000E+08         0.00000E+00
    0.00000E+00         0.00000E+00        -0.22500E+08
 
   -0.22500E+08        -0.18631E-06         0.00000E+00
   -0.18631E-06        -0.60000E+08         0.00000E+00
    0.00000E+00         0.00000E+00        -0.22500E+08
 
   -0.22500E+08        -0.14799E-06         0.00000E+00
   -0.14799E-06        -0.60000E+08         0.00000E+00
    0.00000E+00         0.00000E+00        -0.22500E+08
 
   -0.22500E+08        -0.11496E-06         0.00000E+00
   -0.11496E-06        -0.60000E+08         0.00000E+00
    0.00000E+00         0.00000E+00        -0.22500E+08
 
   -0.22500E+08        -0.96460E-07         0.00000E+00
   -0.96460E-07        -0.60000E+08         0.00000E+00
    0.00000E+00         0.00000E+00        -0.22500E+08
 
   -0.22500E+08        -0.42284E-07         0.00000E+00
   -0.42284E-07        -0.60000E+08         0.00000E+00
    0.00000E+00         0.00000E+00        -0.22500E+08
 
   -0.22500E+08        -0.35677E-07         0.00000E+00
   -0.35677E-07        -0.60000E+08         0.00000E+00
    0.00000E+00         0.00000E+00        -0.22500E+08
 
   -0.22500E+08         0.26427E-07         0.00000E+00
    0.26427E-07        -0.60000E+08         0.00000E+00
    0.00000E+00         0.00000E+00        -0.22500E+08
 
   -0.22500E+08         0.64747E-07         0.00000E+00
    0.64747E-07        -0.60000E+08         0.00000E+00
    0.00000E+00         0.00000E+00        -0.22500E+08
 
   -0.22500E+08         0.99103E-07         0.00000E+00
    0.99103E-07        -0.60000E+08         0.00000E+00
    0.00000E+00         0.00000E+00        -0.22500E+08
 
   -0.22500E+08         0.16847E-06         0.00000E+00
    0.16847E-06        -0.60000E+08         0.00000E+00
    0.00000E+00         0.00000E+00        -0.22500E+08
 
   -0.22500E+08         0.28855E-06         0.00000E+00
    0.28855E-06        -0.60000E+08         0.00000E+00
    0.00000E+00         0.00000E+00        -0.22500E+08
 
   -0.22500E+08        -0.31713E-07         0.00000E+00
   -0.31713E-07        -0.60000E+08         0.00000E+00
    0.00000E+00         0.00000E+00        -0.22500E+08
 
   -0.22500E+08        -0.95139E-07         0.00000E+00
   -0.95139E-07        -0.60000E+08         0.00000E+00
    0.00000E+00         0.00000E+00        -0.22500E+08
 
   -0.22500E+08        -0.11628E-06         0.00000E+00
   -0.11628E-06        -0.60000E+08         0.00000E+00
    0.00000E+00         0.00000E+00        -0.22500E+08
 
   -0.22500E+08        -0.12817E-06         0.00000E+00
   -0.12817E-06        -0.60000E+08         0.00000E+00
    0.00000E+00         0.00000E+00        -0.22500E+08
 
   -0.22500E+08        -0.93817E-07         0.00000E+00
   -0.93817E-07        -0.60000E+08         0.00000E+00
    0.00000E+00         0.00000E+00        -0.22500E+08
 
   -0.22500E+08        -0.70033E-07         0.00000E+00
   -0.70033E-07        -0.60000E+08         0.00000E+00
    0.00000E+00         0.00000E+00        -0.22500E+08
 
   -0.22500E+08        -0.71354E-07         0.00000E+00
   -0.71354E-07        -0.60000E+08         0.00000E+00
    0.00000E+00         0.00000E+00        -0.22500E+08
 
   -0.22500E+08        -0.44927E-07         0.00000E+00
   -0.44927E-07        -0.60000E+08         0.00000E+00
    0.00000E+00         0.00000E+00        -0.22500E+08
 
   -0.22500E+08        -0.56819E-07         0.00000E+00
   -0.56819E-07        -0.60000E+08         0.00000E+00
    0.00000E+00         0.00000E+00        -0.22500E+08
 
   -0.22500E+08        -0.49551E-07         0.00000E+00
   -0.49551E-07        -0.60000E+08         0.00000E+00
    0.00000E+00         0.00000E+00        -0.22500E+08
 
   -0.22500E+08        -0.13214E-08         0.00000E+00
   -0.13214E-08        -0.60000E+08         0.00000E+00
    0.00000E+00         0.00000E+00        -0.22500E+08
 
   -0.22500E+08         0.40963E-07         0.00000E+00
    0.40963E-07        -0.60000E+08         0.00000E+00
    0.00000E+00         0.00000E+00        -0.22500E+08
 
   -0.22500E+08         0.59462E-07         0.00000E+00
    0.59462E-07        -0.60000E+08         0.00000E+00
    0.00000E+00         0.00000E+00        -0.22500E+08
 
   -0.22500E+08         0.11694E-06         0.00000E+00
    0.11694E-06        -0.60000E+08         0.00000E+00
    0.00000E+00         0.00000E+00        -0.22500E+08
 
   -0.22500E+08         0.21951E-06         0.00000E+00
    0.21951E-06        -0.60000E+08         0.00000E+00
    0.00000E+00         0.00000E+00        -0.22500E+08
 
   -0.22500E+08        -0.13214E-07         0.00000E+00
   -0.13214E-07        -0.60000E+08         0.00000E+00
    0.00000E+00         0.00000E+00        -0.22500E+08
 
   -0.22500E+08        -0.63426E-07         0.00000E+00
   -0.63426E-07        -0.60000E+08         0.00000E+00
    0.00000E+00         0.00000E+00        -0.22500E+08
 
   -0.22500E+08        -0.87211E-07         0.00000E+00
   -0.87211E-07        -0.60000E+08         0.00000E+00
    0.00000E+00         0.00000E+00        -0.22500E+08
 
   -0.22500E+08        -0.79282E-08         0.00000E+00
   -0.79282E-08        -0.60000E+08         0.00000E+00
    0.00000E+00         0.00000E+00        -0.22500E+08
 
   -0.22500E+08         0.13214E-07         0.00000E+00
    0.13214E-07        -0.60000E+08         0.00000E+00
    0.00000E+00         0.00000E+00        -0.22500E+08
 
   -0.22500E+08        -0.50212E-07         0.00000E+00
   -0.50212E-07        -0.60000E+08         0.00000E+00
    0.00000E+00         0.00000E+00        -0.22500E+08
 
   -0.22500E+08        -0.93817E-07         0.00000E+00
   -0.93817E-07        -0.60000E+08         0.00000E+00
    0.00000E+00         0.00000E+00        -0.22500E+08
 
   -0.22500E+08        -0.99103E-07         0.00000E+00
   -0.99103E-07        -0.60000E+08         0.00000E+00
    0.00000E+00         0.00000E+00        -0.22500E+08
 
   -0.22500E+08        -0.13214E-08         0.00000E+00
   -0.13214E-08        -0.60000E+08         0.00000E+00
    0.00000E+00         0.00000E+00        -0.22500E+08
 
   -0.22500E+08         0.62104E-07         0.00000E+00
    0.62104E-07        -0.60000E+08         0.00000E+00
    0.00000E+00         0.00000E+00        -0.22500E+08
 
   -0.22500E+08         0.16517E-07         0.00000E+00
    0.16517E-07        -0.60000E+08         0.00000E+00
    0.00000E+00         0.00000E+00        -0.22500E+08
 
   -0.22500E+08        -0.52855E-08         0.00000E+00
   -0.52855E-08        -0.60000E+08         0.00000E+00
    0.00000E+00         0.00000E+00        -0.22500E+08
 
   -0.22500E+08         0.69372E-07         0.00000E+00
    0.69372E-07        -0.60000E+08         0.00000E+00
    0.00000E+00         0.00000E+00        -0.22500E+08
 
   -0.22500E+08         0.86880E-07         0.00000E+00
    0.86880E-07        -0.60000E+08         0.00000E+00
    0.00000E+00         0.00000E+00        -0.22500E+08
 
   -0.22500E+08         0.86880E-07         0.00000E+00
    0.86880E-07        -0.60000E+08         0.00000E+00
    0.00000E+00         0.00000E+00        -0.22500E+08
 
SCALARS stressS double 
LOOKUP_TABLE default
  -35000000.0000014     
  -35000000.0000015     
  -35000000.0000015     
  -35000000.0000016     
  -35000000.0000017     
  -35000000.0000017     
  -35000000.0000017     
  -35000000.0000018     
  -35000000.0000018     
  -35000000.0000018     
  -35000000.0000019     
  -35000000.0000019     
  -35000000.0000019     
  -35000000.0000020     
  -35000000.0000020     
  -35000000.0000015     
  -35000000.0000015     
  -35000000.0000015     
  -35000000.0000016     
  -35000000.0000017     
  -35000000.0000017     
  -35000000.0000017     
  -35000000.0000018     
  -35000000.0000018     
  -35000000.0000018     
  -35000000.0000019     
  -35000000.0000019     
  -35000000.0000019     
  -35000000.0000019     
  -35000000.0000020     
  -35000000.0000014     
  -35000000.0000015     
  -35000000.0000015     
  -35000000.0000016     
  -35000000.0000016     
  -35000000.0000017     
  -35000000.0000017     
  -35000000.0000018     
  -35000000.0000018     
  -35000000.0000018     
  -35000000.0000019     
  -35000000.0000019     
  -35000000.0000019     
  -35000000.0000019     
  -35000000.0000020     
  -35000000.0000014     
  -35000000.0000015     
  -35000000.0000015     
  -35000000.0000016     
  -35000000.0000016     
  -35000000.0000017     
  -35000000.0000017     
  -35000000.0000018     
  -35000000.0000018     
  -35000000.0000018     
  -35000000.0000018     
  -35000000.0000019     
  -35000000.0000019     
  -35000000.0000019     
  -35000000.0000019     
  -35000000.0000014     
  -35000000.0000015     
  -35000000.0000015     
  -35000000.0000016     
  -35000000.0000016     
  -35000000.0000017     
  -35000000.0000017     
  -35000000.0000017     
  -35000000.0000018     
  -35000000.0000018     
  -35000000.0000018     
  -35000000.0000018     
  -35000000.0000019     
  -35000000.0000019     
  -35000000.0000019     
  -35000000.0000014     
  -35000000.0000015     
  -35000000.0000015     
  -35000000.0000015     
  -35000000.0000016     
  -35000000.0000016     
  -35000000.0000017     
  -35000000.0000017     
  -35000000.0000018     
  -35000000.0000018     
  -35000000.0000018     
  -35000000.0000018     
  -35000000.0000018     
  -35000000.0000019     
  -35000000.0000019     
  -35000000.0000014     
  -35000000.0000014     
  -35000000.0000015     
  -35000000.0000015     
  -35000000.0000016     
  -35000000.0000016     
  -35000000.0000017     
  -35000000.0000017     
  -35000000.0000017     
  -35000000.0000017     
  -35000000.0000018     
  -35000000.0000018     
  -35000000.0000018     
  -35000000.0000018     
  -35000000.0000019     
  -35000000.0000014     
  -35000000.0000014     
  -35000000.0000015     
  -35000000.0000015     
  -35000000.0000016     
  -35000000.0000016     
  -35000000.0000016     
  -35000000.0000016     
  -35000000.0000017     
  -35000000.0000017     
  -35000000.0000018     
  -35000000.0000018     
  -35000000.0000018     
  -35000000.0000018     
  -35000000.0000018     
  -35000000.0000014     
  -35000000.0000014     
  -35000000.0000015     
  -35000000.0000015     
  -35000000.0000016     
  -35000000.0000016     
  -35000000.0000016     
  -35000000.0000016     
  -35000000.0000017     
  -35000000.0000017     
  -35000000.0000017     
  -35000000.0000017     
  -35000000.0000018     
  -35000000.0000018     
  -35000000.0000018     
  -35000000.0000014     
  -35000000.0000014     
  -35000000.0000014     
  -35000000.0000015     
  -35000000.0000015     
  -35000000.0000016     
  -35000000.0000016     
  -35000000.0000016     
  -35000000.0000016     
  -35000000.0000016     
  -35000000.0000017     
  -35000000.0000017     
  -35000000.0000017     
  -35000000.0000017     
  -35000000.0000018     
  -35000000.0000014     
  -35000000.0000013     
  -35000000.0000014     
  -35000000.0000015     
  -35000000.0000015     
  -35000000.0000015     
  -35000000.0000015     
  -35000000.0000016     
  -35000000.0000016     
  -35000000.0000016     
  -35000000.0000016     
  -35000000.0000016     
  -35000000.0000017     
  -35000000.0000017     
  -35000000.0000017     
  -35000000.0000013     
  -35000000.0000013     
  -35000000.0000014     
  -35000000.0000014     
  -35000000.0000015     
  -35000000.0000015     
  -35000000.0000015     
  -35000000.0000015     
  -35000000.0000016     
  -35000000.0000016     
  -35000000.0000016     
  -35000000.0000016     
  -35000000.0000016     
  -35000000.0000016     
  -35000000.0000016     
  -35000000.0000013     
  -35000000.0000013     
  -35000000.0000014     
  -35000000.0000014     
  -35000000.0000015     
  -35000000.0000014     
  -35000000.0000014     
  -35000000.0000015     
  -35000000.0000015     
  -35000000.0000015     
  -35000000.0000015     
  -35000000.0000016     
  -35000000.0000016     
  -35000000.0000016     
  -35000000.0000016     
  -35000000.0000013     
  -35000000.0000013     
  -35000000.0000013     
  -35000000.0000014     
  -35000000.0000014     
  -35000000.0000014     
  -35000000.0000014     
  -35000000.0000014     
  -35000000.0000015     
  -35000000.0000015     
  -35000000.0000015     
  -35000000.0000015     
  -35000000.0000015     
  -35000000.0000015     
  -35000000.0000015     
  -35000000.0000013     
  -35000000.0000013     
  -35000000.0000013     
  -35000000.0000013     
  -35000000.0000014     
  -35000000.0000014     
  -35000000.0000014     
  -35000000.0000014     
  -35000000.0000014     
  -35000000.0000014     
  -35000000.0000014     
  -35000000.0000014     
  -35000000.0000015     
  -35000000.0000014     
  -35000000.0000015     
  -35000000.0000013     
  -35000000.0000013     
  -35000000.0000013     
  -35000000.0000013     
  -35000000.0000013     
  -35000000.0000013     
  -35000000.0000013     
  -35000000.0000013     
  -35000000.0000014     
  -35000000.0000014     
  -35000000.0000014     
  -35000000.0000014     
  -35000000.0000014     
  -35000000.0000014     
  -35000000.0000014     
  -35000000.0000013     
  -35000000.0000013     
  -35000000.0000013     
  -35000000.0000013     
  -35000000.0000013     
  -35000000.0000013     
  -35000000.0000013     
  -35000000.0000013     
  -35000000.0000013     
  -35000000.0000013     
  -35000000.0000013     
  -35000000.0000013     
  -35000000.0000013     
  -35000000.0000013     
  -35000000.0000013     
  -35000000.0000012     
  -35000000.0000013     
  -35000000.0000013     
  -35000000.0000013     
  -35000000.0000012     
  -35000000.0000013     
  -35000000.0000012     
  -35000000.0000012     
  -35000000.0000013     
  -35000000.0000013     
  -35000000.0000012     
  -35000000.0000013     
  -35000000.0000013     
  -35000000.0000013     
  -35000000.0000012     
  -35000000.0000013     
  -35000000.0000013     
  -35000000.0000012     
  -35000000.0000012     
  -35000000.0000012     
  -35000000.0000012     
  -35000000.0000012     
  -35000000.0000012     
  -35000000.0000012     
  -35000000.0000012     
  -35000000.0000012     
  -35000000.0000012     
  -35000000.0000012     
  -35000000.0000012     
  -35000000.0000012     
  -35000000.0000013     
  -35000000.0000012     
  -35000000.0000012     
  -35000000.0000012     
  -35000000.0000012     
  -35000000.0000012     
  -35000000.0000011     
  -35000000.0000011     
  -35000000.0000011     
  -35000000.0000011     
  -35000000.0000011     
  -35000000.0000011     
  -35000000.0000011     
  -35000000.0000011     
  -35000000.0000011     
  -35000000.0000012     
  -35000000.0000012     
  -35000000.0000012     
  -35000000.0000011     
  -35000000.0000011     
  -35000000.0000012     
  -35000000.0000011     
  -35000000.0000011     
  -35000000.0000011     
  -35000000.0000011     
  -35000000.0000010     
  -35000000.0000010     
  -35000000.0000010     
  -35000000.0000010     
  -35000000.0000010     
  -35000000.0000012     
  -35000000.0000012     
  -35000000.0000011     
  -35000000.0000011     
  -35000000.0000011     
  -35000000.0000011     
  -35000000.0000010     
  -35000000.0000010     
  -35000000.0000010     
  -35000000.0000010     
  -35000000.0000009     
  -35000000.0000010     
  -35000000.0000009     
  -35000000.0000009     
  -35000000.0000009     
  -35000000.0000012     
  -35000000.0000012     
  -35000000.0000011     
  -35000000.0000011     
  -35000000.0000011     
  -35000000.0000010     
  -35000000.0000010     
  -35000000.0000010     
  -35000000.0000009     
  -35000000.0000009     
  -35000000.0000009     
  -35000000.0000009     
  -35000000.0000008     
  -35000000.0000008     
  -35000000.0000008     
  -35000000.0000012     
  -35000000.0000012     
  -35000000.0000011     
  -35000000.0000011     
  -35000000.0000010     
  -35000000.0000010     
  -35000000.0000009     
  -35000000.0000009     
  -35000000.0000008     
  -35000000.0000008     
  -35000000.0000008     
  -35000000.0000008     
  -35000000.0000008     
  -35000000.0000007     
  -35000000.0000007     
  -35000000.0000012     
  -35000000.0000011     
  -35000000.0000010     
  -35000000.0000010     
  -35000000.0000010     
  -35000000.0000009     
  -35000000.0000009     
  -35000000.0000008     
  -35000000.0000008     
  -35000000.0000007     
  -35000000.0000007     
  -35000000.0000007     
  -35000000.0000007     
  -35000000.0000006     
  -35000000.0000006     
  -35000000.0000012     
  -35000000.0000011     
  -35000000.0000011     
  -35000000.0000010     
  -35000000.0000009     
  -35000000.0000008     
  -35000000.0000008     
  -35000000.0000008     
  -35000000.0000007     
  -35000000.0000007     
  -35000000.0000006     
  -35000000.0000006     
  -35000000.0000006     
  -35000000.0000005     
  -35000000.0000005     
  -35000000.0000011     
  -35000000.0000011     
  -35000000.0000010     
  -35000000.0000010     
  -35000000.0000008     
  -35000000.0000008     
  -35000000.0000007     
  -35000000.0000007     
  -35000000.0000006     
  -35000000.0000006     
  -35000000.0000005     
  -35000000.0000005     
  -35000000.0000005     
  -35000000.0000004     
  -35000000.0000004     
  -35000000.0000012     
  -35000000.0000011     
  -35000000.0000010     
  -35000000.0000009     
  -35000000.0000008     
  -35000000.0000008     
  -35000000.0000006     
  -35000000.0000006     
  -35000000.0000006     
  -35000000.0000005     
  -35000000.0000004     
  -35000000.0000004     
  -35000000.0000003     
  -35000000.0000003     
  -35000000.0000003     
  -35000000.0000013     
  -35000000.0000011     
  -35000000.0000009     
  -35000000.0000008     
  -35000000.0000007     
  -35000000.0000007     
  -35000000.0000005     
  -35000000.0000005     
  -35000000.0000005     
  -35000000.0000004     
  -35000000.0000004     
  -35000000.0000003     
  -35000000.0000002     
  -35000000.0000002     
  -35000000.0000001     
  -35000000.0000012     
  -35000000.0000010     
  -35000000.0000009     
  -35000000.0000008     
  -35000000.0000006     
  -35000000.0000005     
  -35000000.0000004     
  -35000000.0000004     
  -35000000.0000005     
  -35000000.0000004     
  -35000000.0000002     
  -35000000.0000002     
  -35000000.0000002     
  -35000000.0000000     
  -35000000.0000000     
SCALARS 2waySource double 
LOOKUP_TABLE default
 -1.493463922646965E-015
 -1.534815321106268E-015
 -1.612071313205335E-015
 -1.654530989385395E-015
 -1.711907134267311E-015
 -1.759121084514529E-015
 -1.796395726635143E-015
 -1.835682413769121E-015
 -1.874670907818882E-015
 -1.906559368507956E-015
 -1.941232305558872E-015
 -1.963329939181475E-015
 -1.994629970778155E-015
 -2.020053668526959E-015
 -2.045144882959537E-015
 -1.472266693260927E-015
 -1.552447685705947E-015
 -1.600089032889398E-015
 -1.651840195679617E-015
 -1.706303891311604E-015
 -1.753411607806738E-015
 -1.796152331954997E-015
 -1.826228664038863E-015
 -1.872236059889271E-015
 -1.896546885897335E-015
 -1.933083386901481E-015
 -1.957918655557894E-015
 -1.988834768490326E-015
 -2.014992013335611E-015
 -2.038825238023359E-015
 -1.474923196734690E-015
 -1.535583158434764E-015
 -1.582178983377562E-015
 -1.653989401621039E-015
 -1.709898452309987E-015
 -1.740789463050388E-015
 -1.790519392787268E-015
 -1.821738292823900E-015
 -1.858880368036440E-015
 -1.889988440300999E-015
 -1.923531360495169E-015
 -1.955274703180151E-015
 -1.976020664401853E-015
 -2.005329159157224E-015
 -2.029337198061087E-015
 -1.458310021219689E-015
 -1.537796350820225E-015
 -1.583688324878569E-015
 -1.641209587764577E-015
 -1.691310885069685E-015
 -1.728337538490166E-015
 -1.772451674175320E-015
 -1.814160658142891E-015
 -1.844727142643087E-015
 -1.877046363324442E-015
 -1.906943287172203E-015
 -1.937049315468095E-015
 -1.965321476022785E-015
 -1.992084295076467E-015
 -2.014548702247311E-015
 -1.462254210650309E-015
 -1.516700761166289E-015
 -1.576307243549673E-015
 -1.631896362018425E-015
 -1.670185599203721E-015
 -1.725215984792108E-015
 -1.755275171759966E-015
 -1.804544645292539E-015
 -1.829891805501275E-015
 -1.857575536963579E-015
 -1.893442477315284E-015
 -1.918422863975787E-015
 -1.945471325017660E-015
 -1.972327826727412E-015
 -1.994314632577938E-015
 -1.451670444063305E-015
 -1.508308447828751E-015
 -1.565590910054596E-015
 -1.619461582574210E-015
 -1.661059738769701E-015
 -1.706845479075966E-015
 -1.738495139104877E-015
 -1.778677636455432E-015
 -1.814224644586929E-015
 -1.841209119184763E-015
 -1.870487917728108E-015
 -1.897041632333658E-015
 -1.921958032550120E-015
 -1.949466949796303E-015
 -1.970609380778272E-015
 -1.453832201100745E-015
 -1.489605458796379E-015
 -1.548572076739352E-015
 -1.604225181652145E-015
 -1.641925989745050E-015
 -1.687408942947111E-015
 -1.729514396674948E-015
 -1.752823178714346E-015
 -1.793274172937083E-015
 -1.820036991990765E-015
 -1.843503443130272E-015
 -1.870965519048423E-015
 -1.894909571508246E-015
 -1.917007205130847E-015
 -1.941906460231300E-015
 -1.429031222676346E-015
 -1.481533077679050E-015
 -1.526683547564880E-015
 -1.582260114937612E-015
 -1.623188710480672E-015
 -1.667460515265932E-015
 -1.706623823531811E-015
 -1.735787200283090E-015
 -1.764827198166279E-015
 -1.789184865502375E-015
 -1.813956147714746E-015
 -1.841354237188851E-015
 -1.863038255935179E-015
 -1.884769116009540E-015
 -1.905131158566999E-015
 -1.404166257807908E-015
 -1.477059851580092E-015
 -1.507101893431943E-015
 -1.566243325591031E-015
 -1.596413340330962E-015
 -1.642019672401120E-015
 -1.674927322174863E-015
 -1.713054296240070E-015
 -1.730201102443393E-015
 -1.757296404813303E-015
 -1.779807653312179E-015
 -1.805248496176989E-015
 -1.826326940714919E-015
 -1.845797767075787E-015
 -1.867989083354453E-015
 -1.408920531875066E-015
 -1.452212031827660E-015
 -1.496850610161164E-015
 -1.538018006364377E-015
 -1.582767412469955E-015
 -1.611632596137027E-015
 -1.643725567254239E-015
 -1.679942136038181E-015
 -1.698090986210169E-015
 -1.720538248265007E-015
 -1.747138804198593E-015
 -1.762217536020548E-015
 -1.786558058240639E-015
 -1.803291249567692E-015
 -1.822570116596435E-015
 -1.393403082984798E-015
 -1.434395664971891E-015
 -1.477443770244338E-015
 -1.516888126478423E-015
 -1.552759660850117E-015
 -1.582942226686074E-015
 -1.610911600136563E-015
 -1.647196749384534E-015
 -1.661076883885708E-015
 -1.683890919488786E-015
 -1.705080191798791E-015
 -1.723625511731052E-015
 -1.744895915601104E-015
 -1.758029951909784E-015
 -1.776417602741936E-015
 -1.362602391844428E-015
 -1.416729010140202E-015
 -1.453861897312769E-015
 -1.489511776140312E-015
 -1.512914240835777E-015
 -1.555957752088243E-015
 -1.579599017443862E-015
 -1.603129455027411E-015
 -1.618267579273418E-015
 -1.640842814216338E-015
 -1.661362525873902E-015
 -1.675835683487457E-015
 -1.693984533659455E-015
 -1.708120613936801E-015
 -1.724551018159654E-015
 -1.348397731103054E-015
 -1.394405126953462E-015
 -1.429683638212777E-015
 -1.452625646703935E-015
 -1.492769259802484E-015
 -1.521395642809397E-015
 -1.538367634796609E-015
 -1.563057785448933E-015
 -1.581428291165073E-015
 -1.598493965808357E-015
 -1.608621870211041E-015
 -1.627994419895849E-015
 -1.640062425791823E-015
 -1.656062070022397E-015
 -1.667955261702256E-015
 -1.327383273009166E-015
 -1.393876090285120E-015
 -1.402937964275102E-015
 -1.438024516202292E-015
 -1.457111423898906E-015
 -1.484556354701049E-015
 -1.501033600251939E-015
 -1.525915710236392E-015
 -1.533399662261326E-015
 -1.545561350813365E-015
 -1.560588647287302E-015
 -1.573023426731518E-015
 -1.585487902387759E-015
 -1.595359861014277E-015
 -1.607585536010357E-015
 -1.318973814555621E-015
 -1.365510247074369E-015
 -1.388179164673350E-015
 -1.397334721319394E-015
 -1.420353267350617E-015
 -1.453465427552507E-015
 -1.461217876449626E-015
 -1.476705629127873E-015
 -1.486321641978222E-015
 -1.491242773185471E-015
 -1.506048414115259E-015
 -1.514278464332694E-015
 -1.523352889418690E-015
 -1.531885726740334E-015
 -1.542043327355048E-015
 -1.303567193437424E-015
 -1.348282309310987E-015
 -1.352853812086001E-015
 -1.378162088042742E-015
 -1.391313269467428E-015
 -1.409892879631705E-015
 -1.417308251192612E-015
 -1.418297744065261E-015
 -1.433453013427277E-015
 -1.438864297050860E-015
 -1.445137100659001E-015
 -1.455405529045788E-015
 -1.457746694319334E-015
 -1.466867960733362E-015
 -1.474159953426181E-015
 -1.304133883393819E-015
 -1.328781786738094E-015
 -1.344090131180230E-015
 -1.347501920886471E-015
 -1.351928305657395E-015
 -1.371108896010079E-015
 -1.366414014366976E-015
 -1.371586497330400E-015
 -1.379612037119693E-015
 -1.384196090990727E-015
 -1.381313337952825E-015
 -1.389863320390472E-015
 -1.391168151463337E-015
 -1.395594536234260E-015
 -1.400848150757733E-015
 -1.285972482125811E-015
 -1.301290014607922E-015
 -1.311967463850996E-015
 -1.312334237399233E-015
 -1.319958713408276E-015
 -1.319404574547900E-015
 -1.325830453236164E-015
 -1.321455503813267E-015
 -1.320785943160823E-015
 -1.323937193070911E-015
 -1.316120757729744E-015
 -1.315229541533153E-015
 -1.321898814901566E-015
 -1.319958713408279E-015
 -1.323890351742876E-015
 -1.272860184953125E-015
 -1.293929441451077E-015
 -1.284330573716725E-015
 -1.288134239163249E-015
 -1.280923378030480E-015
 -1.272373395592833E-015
 -1.265814949996495E-015
 -1.262885355630565E-015
 -1.261132619449406E-015
 -1.256198937146142E-015
 -1.250736218174540E-015
 -1.245371775878992E-015
 -1.242872941505338E-015
 -1.242267367296934E-015
 -1.240787722007957E-015
 -1.269670050791031E-015
 -1.262109561226032E-015
 -1.257840845555221E-015
 -1.264109055143373E-015
 -1.232971286666794E-015
 -1.224408753133124E-015
 -1.213628433194005E-015
 -1.212353298333173E-015
 -1.194699194597496E-015
 -1.181040715640469E-015
 -1.180878452520372E-015
 -1.168541949752214E-015
 -1.162571933248268E-015
 -1.156427102528207E-015
 -1.153083893285997E-015
 -1.252382720603606E-015
 -1.244101235038143E-015
 -1.243619039697836E-015
 -1.220792452998740E-015
 -1.190336796270619E-015
 -1.185863570171657E-015
 -1.161057997727274E-015
 -1.143135397119419E-015
 -1.126768979340604E-015
 -1.113856598576073E-015
 -1.101264150031752E-015
 -1.087763340174831E-015
 -1.078688915088834E-015
 -1.067051669185142E-015
 -1.063708459942931E-015
 -1.258109342427403E-015
 -1.221799090987388E-015
 -1.214775595166759E-015
 -1.185240850847250E-015
 -1.149915498259902E-015
 -1.129920229250689E-015
 -1.103302528201097E-015
 -1.084053357384381E-015
 -1.053934777992471E-015
 -1.034527938075646E-015
 -1.021027128218726E-015
 -1.002383531610411E-015
 -9.877058635687065E-016
 -9.752882292405009E-016
 -9.669941925790202E-016
 -1.241333903792310E-015
 -1.207261946929799E-015
 -1.175991611545145E-015
 -1.147638319430405E-015
 -1.113152747691626E-015
 -1.083272968959872E-015
 -1.043410403829525E-015
 -1.017457669412381E-015
 -9.825630768173124E-016
 -9.522525380932751E-016
 -9.328160019644257E-016
 -9.138524731359016E-016
 -8.915331839691510E-016
 -8.756443675106548E-016
 -8.657895540001408E-016
 -1.249025729301424E-015
 -1.209133467959047E-015
 -1.153066748169982E-015
 -1.112500332155181E-015
 -1.066795723408971E-015
 -1.018877922277303E-015
 -9.727722497508351E-016
 -9.468241093536814E-016
 -9.060828791227624E-016
 -8.736871209013536E-016
 -8.467494876315537E-016
 -8.180465670845782E-016
 -7.925417377757260E-016
 -7.736124991792178E-016
 -7.579796284968850E-016
 -1.244143482346191E-015
 -1.187675698776869E-015
 -1.129753372110606E-015
 -1.065840520768350E-015
 -1.015453581475053E-015
 -9.569302746203811E-016
 -9.054304635863365E-016
 -8.637214796187692E-016
 -8.196073439336137E-016
 -7.831176842575013E-016
 -7.495919091793395E-016
 -7.167311007336297E-016
 -6.889022512672392E-016
 -6.656746007878916E-016
 -6.429245516288588E-016
 -1.256108617546113E-015
 -1.156742440728422E-015
 -1.094701110415422E-015
 -1.026386976494281E-015
 -9.525381800814614E-016
 -9.004282008190371E-016
 -8.289845561238089E-016
 -7.843116875582877E-016
 -7.305050014827169E-016
 -6.893673014915356E-016
 -6.555512904051934E-016
 -6.142387761978901E-016
 -5.832883730334432E-016
 -5.506835103638965E-016
 -5.235710628779811E-016
 -1.260424174544970E-015
 -1.152260026589499E-015
 -1.056109086125929E-015
 -9.727379595188306E-016
 -8.937292312386070E-016
 -8.206562292303124E-016
 -7.561971961037090E-016
 -6.973756961648277E-016
 -6.444727773818717E-016
 -5.938470374284094E-016
 -5.502105030635709E-016
 -5.072560804471926E-016
 -4.659904075679230E-016
 -4.291979607876134E-016
 -3.972283685384907E-016
 -1.262457958694314E-015
 -1.137676041203846E-015
 -1.017499916720421E-015
 -9.035029131890598E-016
 -8.224089654114565E-016
 -7.388584305682530E-016
 -6.697559511465683E-016
 -6.065674588608144E-016
 -5.454047936483820E-016
 -4.951115370111536E-016
 -4.484814218363387E-016
 -3.997489420481379E-016
 -3.517797055684452E-016
 -3.050044723895386E-016
 -2.654869416714360E-016
 -1.259238128320207E-015
 -1.104034844333637E-015
 -9.580260012451125E-016
 -8.338542519830384E-016
 -7.469947981296378E-016
 -6.614104791370705E-016
 -5.784358222902302E-016
 -5.136614509634102E-016
 -4.454924350463577E-016
 -3.934635873439790E-016
 -3.375842328670506E-016
 -2.860969729290271E-016
 -2.372193751367356E-016
 -1.811777575397096E-016
 -1.287307009410703E-016
 -1.253271474872303E-015
 -1.036522837972999E-015
 -8.734140300091760E-016
 -7.537920443861146E-016
 -6.357182845160715E-016
 -5.700949443007080E-016
 -4.802122134253017E-016
 -4.119152246201672E-016
 -3.458954146445336E-016
 -2.909072763641964E-016
 -2.287722633951316E-016
 -1.750718110716506E-016
 -1.230429633692729E-016
 -6.147464035660288E-017
  8.362617125511844E-018
SCALARS poroP double 
LOOKUP_TABLE default
  0.000000000000000E+000
  0.000000000000000E+000
  0.000000000000000E+000
  0.000000000000000E+000
  0.000000000000000E+000
  0.000000000000000E+000
  0.000000000000000E+000
  0.000000000000000E+000
  0.000000000000000E+000
  0.000000000000000E+000
  0.000000000000000E+000
  0.000000000000000E+000
  0.000000000000000E+000
  0.000000000000000E+000
  0.000000000000000E+000
  0.000000000000000E+000
  0.000000000000000E+000
  0.000000000000000E+000
  0.000000000000000E+000
  0.000000000000000E+000
  0.000000000000000E+000
  0.000000000000000E+000
  0.000000000000000E+000
  0.000000000000000E+000
  0.000000000000000E+000
  0.000000000000000E+000
  0.000000000000000E+000
  0.000000000000000E+000
  0.000000000000000E+000
  0.000000000000000E+000
  0.000000000000000E+000
  0.000000000000000E+000
  0.000000000000000E+000
  0.000000000000000E+000
  0.000000000000000E+000
  0.000000000000000E+000
  0.000000000000000E+000
  0.000000000000000E+000
  0.000000000000000E+000
  0.000000000000000E+000
  0.000000000000000E+000
  0.000000000000000E+000
  0.000000000000000E+000
  0.000000000000000E+000
  0.000000000000000E+000
  0.000000000000000E+000
  0.000000000000000E+000
  0.000000000000000E+000
  0.000000000000000E+000
  0.000000000000000E+000
  0.000000000000000E+000
  0.000000000000000E+000
  0.000000000000000E+000
  0.000000000000000E+000
  0.000000000000000E+000
  0.000000000000000E+000
  0.000000000000000E+000
  0.000000000000000E+000
  0.000000000000000E+000
  0.000000000000000E+000
  0.000000000000000E+000
  0.000000000000000E+000
  0.000000000000000E+000
  0.000000000000000E+000
  0.000000000000000E+000
  0.000000000000000E+000
  0.000000000000000E+000
  0.000000000000000E+000
  0.000000000000000E+000
  0.000000000000000E+000
  0.000000000000000E+000
  0.000000000000000E+000
  0.000000000000000E+000
  0.000000000000000E+000
  0.000000000000000E+000
  0.000000000000000E+000
  0.000000000000000E+000
  0.000000000000000E+000
  0.000000000000000E+000
  0.000000000000000E+000
  0.000000000000000E+000
  0.000000000000000E+000
  0.000000000000000E+000
  0.000000000000000E+000
  0.000000000000000E+000
  0.000000000000000E+000
  0.000000000000000E+000
  0.000000000000000E+000
  0.000000000000000E+000
  0.000000000000000E+000
  0.000000000000000E+000
  0.000000000000000E+000
  0.000000000000000E+000
  0.000000000000000E+000
  0.000000000000000E+000
  0.000000000000000E+000
  0.000000000000000E+000
  0.000000000000000E+000
  0.000000000000000E+000
  0.000000000000000E+000
  0.000000000000000E+000
  0.000000000000000E+000
  0.000000000000000E+000
  0.000000000000000E+000
  0.000000000000000E+000
  0.000000000000000E+000
  0.000000000000000E+000
  0.000000000000000E+000
  0.000000000000000E+000
  0.000000000000000E+000
  0.000000000000000E+000
  0.000000000000000E+000
  0.000000000000000E+000
  0.000000000000000E+000
  0.000000000000000E+000
  0.000000000000000E+000
  0.000000000000000E+000
  0.000000000000000E+000
  0.000000000000000E+000
  0.000000000000000E+000
  0.000000000000000E+000
  0.000000000000000E+000
  0.000000000000000E+000
  0.000000000000000E+000
  0.000000000000000E+000
  0.000000000000000E+000
  0.000000000000000E+000
  0.000000000000000E+000
  0.000000000000000E+000
  0.000000000000000E+000
  0.000000000000000E+000
  0.000000000000000E+000
  0.000000000000000E+000
  0.000000000000000E+000
  0.000000000000000E+000
  0.000000000000000E+000
  0.000000000000000E+000
  0.000000000000000E+000
  0.000000000000000E+000
  0.000000000000000E+000
  0.000000000000000E+000
  0.000000000000000E+000
  0.000000000000000E+000
  0.000000000000000E+000
  0.000000000000000E+000
  0.000000000000000E+000
  0.000000000000000E+000
  0.000000000000000E+000
  0.000000000000000E+000
  0.000000000000000E+000
  0.000000000000000E+000
  0.000000000000000E+000
  0.000000000000000E+000
  0.000000000000000E+000
  0.000000000000000E+000
  0.000000000000000E+000
  0.000000000000000E+000
  0.000000000000000E+000
  0.000000000000000E+000
  0.000000000000000E+000
  0.000000000000000E+000
  0.000000000000000E+000
  0.000000000000000E+000
  0.000000000000000E+000
  0.000000000000000E+000
  0.000000000000000E+000
  0.000000000000000E+000
  0.000000000000000E+000
  0.000000000000000E+000
  0.000000000000000E+000
  0.000000000000000E+000
  0.000000000000000E+000
  0.000000000000000E+000
  0.000000000000000E+000
  0.000000000000000E+000
  0.000000000000000E+000
  0.000000000000000E+000
  0.000000000000000E+000
  0.000000000000000E+000
  0.000000000000000E+000
  0.000000000000000E+000
  0.000000000000000E+000
  0.000000000000000E+000
  0.000000000000000E+000
  0.000000000000000E+000
  0.000000000000000E+000
  0.000000000000000E+000
  0.000000000000000E+000
  0.000000000000000E+000
  0.000000000000000E+000
  0.000000000000000E+000
  0.000000000000000E+000
  0.000000000000000E+000
  0.000000000000000E+000
  0.000000000000000E+000
  0.000000000000000E+000
  0.000000000000000E+000
  0.000000000000000E+000
  0.000000000000000E+000
  0.000000000000000E+000
  0.000000000000000E+000
  0.000000000000000E+000
  0.000000000000000E+000
  0.000000000000000E+000
  0.000000000000000E+000
  0.000000000000000E+000
  0.000000000000000E+000
  0.000000000000000E+000
  0.000000000000000E+000
  0.000000000000000E+000
  0.000000000000000E+000
  0.000000000000000E+000
  0.000000000000000E+000
  0.000000000000000E+000
  0.000000000000000E+000
  0.000000000000000E+000
  0.000000000000000E+000
  0.000000000000000E+000
  0.000000000000000E+000
  0.000000000000000E+000
  0.000000000000000E+000
  0.000000000000000E+000
  0.000000000000000E+000
  0.000000000000000E+000
  0.000000000000000E+000
  0.000000000000000E+000
  0.000000000000000E+000
  0.000000000000000E+000
  0.000000000000000E+000
  0.000000000000000E+000
  0.000000000000000E+000
  0.000000000000000E+000
  0.000000000000000E+000
  0.000000000000000E+000
  0.000000000000000E+000
  0.000000000000000E+000
  0.000000000000000E+000
  0.000000000000000E+000
  0.000000000000000E+000
  0.000000000000000E+000
  0.000000000000000E+000
  0.000000000000000E+000
  0.000000000000000E+000
  0.000000000000000E+000
  0.000000000000000E+000
  0.000000000000000E+000
  0.000000000000000E+000
  0.000000000000000E+000
  0.000000000000000E+000
  0.000000000000000E+000
  0.000000000000000E+000
  0.000000000000000E+000
  0.000000000000000E+000
  0.000000000000000E+000
  0.000000000000000E+000
  0.000000000000000E+000
  0.000000000000000E+000
  0.000000000000000E+000
  0.000000000000000E+000
  0.000000000000000E+000
  0.000000000000000E+000
  0.000000000000000E+000
  0.000000000000000E+000
  0.000000000000000E+000
  0.000000000000000E+000
  0.000000000000000E+000
  0.000000000000000E+000
  0.000000000000000E+000
  0.000000000000000E+000
  0.000000000000000E+000
  0.000000000000000E+000
  0.000000000000000E+000
  0.000000000000000E+000
  0.000000000000000E+000
  0.000000000000000E+000
  0.000000000000000E+000
  0.000000000000000E+000
  0.000000000000000E+000
  0.000000000000000E+000
  0.000000000000000E+000
  0.000000000000000E+000
  0.000000000000000E+000
  0.000000000000000E+000
  0.000000000000000E+000
  0.000000000000000E+000
  0.000000000000000E+000
  0.000000000000000E+000
  0.000000000000000E+000
  0.000000000000000E+000
  0.000000000000000E+000
  0.000000000000000E+000
  0.000000000000000E+000
  0.000000000000000E+000
  0.000000000000000E+000
  0.000000000000000E+000
  0.000000000000000E+000
  0.000000000000000E+000
  0.000000000000000E+000
  0.000000000000000E+000
  0.000000000000000E+000
  0.000000000000000E+000
  0.000000000000000E+000
  0.000000000000000E+000
  0.000000000000000E+000
  0.000000000000000E+000
  0.000000000000000E+000
  0.000000000000000E+000
  0.000000000000000E+000
  0.000000000000000E+000
  0.000000000000000E+000
  0.000000000000000E+000
  0.000000000000000E+000
  0.000000000000000E+000
  0.000000000000000E+000
  0.000000000000000E+000
  0.000000000000000E+000
  0.000000000000000E+000
  0.000000000000000E+000
  0.000000000000000E+000
  0.000000000000000E+000
  0.000000000000000E+000
  0.000000000000000E+000
  0.000000000000000E+000
  0.000000000000000E+000
  0.000000000000000E+000
  0.000000000000000E+000
  0.000000000000000E+000
  0.000000000000000E+000
  0.000000000000000E+000
  0.000000000000000E+000
  0.000000000000000E+000
  0.000000000000000E+000
  0.000000000000000E+000
  0.000000000000000E+000
  0.000000000000000E+000
  0.000000000000000E+000
  0.000000000000000E+000
  0.000000000000000E+000
  0.000000000000000E+000
  0.000000000000000E+000
  0.000000000000000E+000
  0.000000000000000E+000
  0.000000000000000E+000
  0.000000000000000E+000
  0.000000000000000E+000
  0.000000000000000E+000
  0.000000000000000E+000
  0.000000000000000E+000
  0.000000000000000E+000
  0.000000000000000E+000
  0.000000000000000E+000
  0.000000000000000E+000
  0.000000000000000E+000
  0.000000000000000E+000
  0.000000000000000E+000
  0.000000000000000E+000
  0.000000000000000E+000
  0.000000000000000E+000
  0.000000000000000E+000
  0.000000000000000E+000
  0.000000000000000E+000
  0.000000000000000E+000
  0.000000000000000E+000
  0.000000000000000E+000
  0.000000000000000E+000
  0.000000000000000E+000
  0.000000000000000E+000
  0.000000000000000E+000
  0.000000000000000E+000
  0.000000000000000E+000
  0.000000000000000E+000
  0.000000000000000E+000
  0.000000000000000E+000
  0.000000000000000E+000
  0.000000000000000E+000
  0.000000000000000E+000
  0.000000000000000E+000
  0.000000000000000E+000
  0.000000000000000E+000
  0.000000000000000E+000
  0.000000000000000E+000
  0.000000000000000E+000
  0.000000000000000E+000
  0.000000000000000E+000
  0.000000000000000E+000
  0.000000000000000E+000
  0.000000000000000E+000
  0.000000000000000E+000
  0.000000000000000E+000
  0.000000000000000E+000
  0.000000000000000E+000
  0.000000000000000E+000
  0.000000000000000E+000
  0.000000000000000E+000
  0.000000000000000E+000
  0.000000000000000E+000
  0.000000000000000E+000
  0.000000000000000E+000
  0.000000000000000E+000
  0.000000000000000E+000
  0.000000000000000E+000
  0.000000000000000E+000
  0.000000000000000E+000
  0.000000000000000E+000
  0.000000000000000E+000
  0.000000000000000E+000
  0.000000000000000E+000
  0.000000000000000E+000
  0.000000000000000E+000
  0.000000000000000E+000
  0.000000000000000E+000
  0.000000000000000E+000
  0.000000000000000E+000
  0.000000000000000E+000
  0.000000000000000E+000
  0.000000000000000E+000
  0.000000000000000E+000
  0.000000000000000E+000
  0.000000000000000E+000
  0.000000000000000E+000
  0.000000000000000E+000
  0.000000000000000E+000
  0.000000000000000E+000
  0.000000000000000E+000
  0.000000000000000E+000
  0.000000000000000E+000
  0.000000000000000E+000
  0.000000000000000E+000
  0.000000000000000E+000
  0.000000000000000E+000
  0.000000000000000E+000
  0.000000000000000E+000
  0.000000000000000E+000
  0.000000000000000E+000
  0.000000000000000E+000
  0.000000000000000E+000
  0.000000000000000E+000
  0.000000000000000E+000
  0.000000000000000E+000
  0.000000000000000E+000
  0.000000000000000E+000
  0.000000000000000E+000
  0.000000000000000E+000
  0.000000000000000E+000
  0.000000000000000E+000
  0.000000000000000E+000
  0.000000000000000E+000
  0.000000000000000E+000
  0.000000000000000E+000
  0.000000000000000E+000
SCALARS elementIsPlast double 
LOOKUP_TABLE default
  0.000000000000000E+000
  0.000000000000000E+000
  0.000000000000000E+000
  0.000000000000000E+000
  0.000000000000000E+000
  0.000000000000000E+000
  0.000000000000000E+000
  0.000000000000000E+000
  0.000000000000000E+000
  0.000000000000000E+000
  0.000000000000000E+000
  0.000000000000000E+000
  0.000000000000000E+000
  0.000000000000000E+000
  0.000000000000000E+000
  0.000000000000000E+000
  0.000000000000000E+000
  0.000000000000000E+000
  0.000000000000000E+000
  0.000000000000000E+000
  0.000000000000000E+000
  0.000000000000000E+000
  0.000000000000000E+000
  0.000000000000000E+000
  0.000000000000000E+000
  0.000000000000000E+000
  0.000000000000000E+000
  0.000000000000000E+000
  0.000000000000000E+000
  0.000000000000000E+000
  0.000000000000000E+000
  0.000000000000000E+000
  0.000000000000000E+000
  0.000000000000000E+000
  0.000000000000000E+000
  0.000000000000000E+000
  0.000000000000000E+000
  0.000000000000000E+000
  0.000000000000000E+000
  0.000000000000000E+000
  0.000000000000000E+000
  0.000000000000000E+000
  0.000000000000000E+000
  0.000000000000000E+000
  0.000000000000000E+000
  0.000000000000000E+000
  0.000000000000000E+000
  0.000000000000000E+000
  0.000000000000000E+000
  0.000000000000000E+000
  0.000000000000000E+000
  0.000000000000000E+000
  0.000000000000000E+000
  0.000000000000000E+000
  0.000000000000000E+000
  0.000000000000000E+000
  0.000000000000000E+000
  0.000000000000000E+000
  0.000000000000000E+000
  0.000000000000000E+000
  0.000000000000000E+000
  0.000000000000000E+000
  0.000000000000000E+000
  0.000000000000000E+000
  0.000000000000000E+000
  0.000000000000000E+000
  0.000000000000000E+000
  0.000000000000000E+000
  0.000000000000000E+000
  0.000000000000000E+000
  0.000000000000000E+000
  0.000000000000000E+000
  0.000000000000000E+000
  0.000000000000000E+000
  0.000000000000000E+000
  0.000000000000000E+000
  0.000000000000000E+000
  0.000000000000000E+000
  0.000000000000000E+000
  0.000000000000000E+000
  0.000000000000000E+000
  0.000000000000000E+000
  0.000000000000000E+000
  0.000000000000000E+000
  0.000000000000000E+000
  0.000000000000000E+000
  0.000000000000000E+000
  0.000000000000000E+000
  0.000000000000000E+000
  0.000000000000000E+000
  0.000000000000000E+000
  0.000000000000000E+000
  0.000000000000000E+000
  0.000000000000000E+000
  0.000000000000000E+000
  0.000000000000000E+000
  0.000000000000000E+000
  0.000000000000000E+000
  0.000000000000000E+000
  0.000000000000000E+000
  0.000000000000000E+000
  0.000000000000000E+000
  0.000000000000000E+000
  0.000000000000000E+000
  0.000000000000000E+000
  0.000000000000000E+000
  0.000000000000000E+000
  0.000000000000000E+000
  0.000000000000000E+000
  0.000000000000000E+000
  0.000000000000000E+000
  0.000000000000000E+000
  0.000000000000000E+000
  0.000000000000000E+000
  0.000000000000000E+000
  0.000000000000000E+000
  0.000000000000000E+000
  0.000000000000000E+000
  0.000000000000000E+000
  0.000000000000000E+000
  0.000000000000000E+000
  0.000000000000000E+000
  0.000000000000000E+000
  0.000000000000000E+000
  0.000000000000000E+000
  0.000000000000000E+000
  0.000000000000000E+000
  0.000000000000000E+000
  0.000000000000000E+000
  0.000000000000000E+000
  0.000000000000000E+000
  0.000000000000000E+000
  0.000000000000000E+000
  0.000000000000000E+000
  0.000000000000000E+000
  0.000000000000000E+000
  0.000000000000000E+000
  0.000000000000000E+000
  0.000000000000000E+000
  0.000000000000000E+000
  0.000000000000000E+000
  0.000000000000000E+000
  0.000000000000000E+000
  0.000000000000000E+000
  0.000000000000000E+000
  0.000000000000000E+000
  0.000000000000000E+000
  0.000000000000000E+000
  0.000000000000000E+000
  0.000000000000000E+000
  0.000000000000000E+000
  0.000000000000000E+000
  0.000000000000000E+000
  0.000000000000000E+000
  0.000000000000000E+000
  0.000000000000000E+000
  0.000000000000000E+000
  0.000000000000000E+000
  0.000000000000000E+000
  0.000000000000000E+000
  0.000000000000000E+000
  0.000000000000000E+000
  0.000000000000000E+000
  0.000000000000000E+000
  0.000000000000000E+000
  0.000000000000000E+000
  0.000000000000000E+000
  0.000000000000000E+000
  0.000000000000000E+000
  0.000000000000000E+000
  0.000000000000000E+000
  0.000000000000000E+000
  0.000000000000000E+000
  0.000000000000000E+000
  0.000000000000000E+000
  0.000000000000000E+000
  0.000000000000000E+000
  0.000000000000000E+000
  0.000000000000000E+000
  0.000000000000000E+000
  0.000000000000000E+000
  0.000000000000000E+000
  0.000000000000000E+000
  0.000000000000000E+000
  0.000000000000000E+000
  0.000000000000000E+000
  0.000000000000000E+000
  0.000000000000000E+000
  0.000000000000000E+000
  0.000000000000000E+000
  0.000000000000000E+000
  0.000000000000000E+000
  0.000000000000000E+000
  0.000000000000000E+000
  0.000000000000000E+000
  0.000000000000000E+000
  0.000000000000000E+000
  0.000000000000000E+000
  0.000000000000000E+000
  0.000000000000000E+000
  0.000000000000000E+000
  0.000000000000000E+000
  0.000000000000000E+000
  0.000000000000000E+000
  0.000000000000000E+000
  0.000000000000000E+000
  0.000000000000000E+000
  0.000000000000000E+000
  0.000000000000000E+000
  0.000000000000000E+000
  0.000000000000000E+000
  0.000000000000000E+000
  0.000000000000000E+000
  0.000000000000000E+000
  0.000000000000000E+000
  0.000000000000000E+000
  0.000000000000000E+000
  0.000000000000000E+000
  0.000000000000000E+000
  0.000000000000000E+000
  0.000000000000000E+000
  0.000000000000000E+000
  0.000000000000000E+000
  0.000000000000000E+000
  0.000000000000000E+000
  0.000000000000000E+000
  0.000000000000000E+000
  0.000000000000000E+000
  0.000000000000000E+000
  0.000000000000000E+000
  0.000000000000000E+000
  0.000000000000000E+000
  0.000000000000000E+000
  0.000000000000000E+000
  0.000000000000000E+000
  0.000000000000000E+000
  0.000000000000000E+000
  0.000000000000000E+000
  0.000000000000000E+000
  0.000000000000000E+000
  0.000000000000000E+000
  0.000000000000000E+000
  0.000000000000000E+000
  0.000000000000000E+000
  0.000000000000000E+000
  0.000000000000000E+000
  0.000000000000000E+000
  0.000000000000000E+000
  0.000000000000000E+000
  0.000000000000000E+000
  0.000000000000000E+000
  0.000000000000000E+000
  0.000000000000000E+000
  0.000000000000000E+000
  0.000000000000000E+000
  0.000000000000000E+000
  0.000000000000000E+000
  0.000000000000000E+000
  0.000000000000000E+000
  0.000000000000000E+000
  0.000000000000000E+000
  0.000000000000000E+000
  0.000000000000000E+000
  0.000000000000000E+000
  0.000000000000000E+000
  0.000000000000000E+000
  0.000000000000000E+000
  0.000000000000000E+000
  0.000000000000000E+000
  0.000000000000000E+000
  0.000000000000000E+000
  0.000000000000000E+000
  0.000000000000000E+000
  0.000000000000000E+000
  0.000000000000000E+000
  0.000000000000000E+000
  0.000000000000000E+000
  0.000000000000000E+000
  0.000000000000000E+000
  0.000000000000000E+000
  0.000000000000000E+000
  0.000000000000000E+000
  0.000000000000000E+000
  0.000000000000000E+000
  0.000000000000000E+000
  0.000000000000000E+000
  0.000000000000000E+000
  0.000000000000000E+000
  0.000000000000000E+000
  0.000000000000000E+000
  0.000000000000000E+000
  0.000000000000000E+000
  0.000000000000000E+000
  0.000000000000000E+000
  0.000000000000000E+000
  0.000000000000000E+000
  0.000000000000000E+000
  0.000000000000000E+000
  0.000000000000000E+000
  0.000000000000000E+000
  0.000000000000000E+000
  0.000000000000000E+000
  0.000000000000000E+000
  0.000000000000000E+000
  0.000000000000000E+000
  0.000000000000000E+000
  0.000000000000000E+000
  0.000000000000000E+000
  0.000000000000000E+000
  0.000000000000000E+000
  0.000000000000000E+000
  0.000000000000000E+000
  0.000000000000000E+000
  0.000000000000000E+000
  0.000000000000000E+000
  0.000000000000000E+000
  0.000000000000000E+000
  0.000000000000000E+000
  0.000000000000000E+000
  0.000000000000000E+000
  0.000000000000000E+000
  0.000000000000000E+000
  0.000000000000000E+000
  0.000000000000000E+000
  0.000000000000000E+000
  0.000000000000000E+000
  0.000000000000000E+000
  0.000000000000000E+000
  0.000000000000000E+000
  0.000000000000000E+000
  0.000000000000000E+000
  0.000000000000000E+000
  0.000000000000000E+000
  0.000000000000000E+000
  0.000000000000000E+000
  0.000000000000000E+000
  0.000000000000000E+000
  0.000000000000000E+000
  0.000000000000000E+000
  0.000000000000000E+000
  0.000000000000000E+000
  0.000000000000000E+000
  0.000000000000000E+000
  0.000000000000000E+000
  0.000000000000000E+000
  0.000000000000000E+000
  0.000000000000000E+000
  0.000000000000000E+000
  0.000000000000000E+000
  0.000000000000000E+000
  0.000000000000000E+000
  0.000000000000000E+000
  0.000000000000000E+000
  0.000000000000000E+000
  0.000000000000000E+000
  0.000000000000000E+000
  0.000000000000000E+000
  0.000000000000000E+000
  0.000000000000000E+000
  0.000000000000000E+000
  0.000000000000000E+000
  0.000000000000000E+000
  0.000000000000000E+000
  0.000000000000000E+000
  0.000000000000000E+000
  0.000000000000000E+000
  0.000000000000000E+000
  0.000000000000000E+000
  0.000000000000000E+000
  0.000000000000000E+000
  0.000000000000000E+000
  0.000000000000000E+000
  0.000000000000000E+000
  0.000000000000000E+000
  0.000000000000000E+000
  0.000000000000000E+000
  0.000000000000000E+000
  0.000000000000000E+000
  0.000000000000000E+000
  0.000000000000000E+000
  0.000000000000000E+000
  0.000000000000000E+000
  0.000000000000000E+000
  0.000000000000000E+000
  0.000000000000000E+000
  0.000000000000000E+000
  0.000000000000000E+000
  0.000000000000000E+000
  0.000000000000000E+000
  0.000000000000000E+000
  0.000000000000000E+000
  0.000000000000000E+000
  0.000000000000000E+000
  0.000000000000000E+000
  0.000000000000000E+000
  0.000000000000000E+000
  0.000000000000000E+000
  0.000000000000000E+000
  0.000000000000000E+000
  0.000000000000000E+000
  0.000000000000000E+000
  0.000000000000000E+000
  0.000000000000000E+000
  0.000000000000000E+000
  0.000000000000000E+000
  0.000000000000000E+000
  0.000000000000000E+000
  0.000000000000000E+000
  0.000000000000000E+000
  0.000000000000000E+000
  0.000000000000000E+000
  0.000000000000000E+000
  0.000000000000000E+000
  0.000000000000000E+000
  0.000000000000000E+000
  0.000000000000000E+000
  0.000000000000000E+000
  0.000000000000000E+000
  0.000000000000000E+000
  0.000000000000000E+000
  0.000000000000000E+000
  0.000000000000000E+000
  0.000000000000000E+000
  0.000000000000000E+000
  0.000000000000000E+000
  0.000000000000000E+000
  0.000000000000000E+000
  0.000000000000000E+000
  0.000000000000000E+000
  0.000000000000000E+000
  0.000000000000000E+000
  0.000000000000000E+000
  0.000000000000000E+000
  0.000000000000000E+000
  0.000000000000000E+000
  0.000000000000000E+000
  0.000000000000000E+000
  0.000000000000000E+000
  0.000000000000000E+000
  0.000000000000000E+000
  0.000000000000000E+000
  0.000000000000000E+000
  0.000000000000000E+000
  0.000000000000000E+000
  0.000000000000000E+000
  0.000000000000000E+000
  0.000000000000000E+000
  0.000000000000000E+000
  0.000000000000000E+000
  0.000000000000000E+000
SCALARS poroL double 
LOOKUP_TABLE default
  0.155807692307692     
  0.155807692307692     
  0.155807692307692     
  0.155807692307692     
  0.155807692307692     
  0.155807692307692     
  0.155807692307692     
  0.155807692307692     
  0.155807692307692     
  0.155807692307692     
  0.155807692307692     
  0.155807692307692     
  0.155807692307692     
  0.155807692307692     
  0.155807692307692     
  0.155807692307692     
  0.155807692307692     
  0.155807692307692     
  0.155807692307692     
  0.155807692307692     
  0.155807692307692     
  0.155807692307692     
  0.155807692307692     
  0.155807692307692     
  0.155807692307692     
  0.155807692307692     
  0.155807692307692     
  0.155807692307692     
  0.155807692307692     
  0.155807692307692     
  0.155807692307692     
  0.155807692307692     
  0.155807692307692     
  0.155807692307692     
  0.155807692307692     
  0.155807692307692     
  0.155807692307692     
  0.155807692307692     
  0.155807692307692     
  0.155807692307692     
  0.155807692307692     
  0.155807692307692     
  0.155807692307692     
  0.155807692307692     
  0.155807692307692     
  0.155807692307692     
  0.155807692307692     
  0.155807692307692     
  0.155807692307692     
  0.155807692307692     
  0.155807692307692     
  0.155807692307692     
  0.155807692307692     
  0.155807692307692     
  0.155807692307692     
  0.155807692307692     
  0.155807692307692     
  0.155807692307692     
  0.155807692307692     
  0.155807692307692     
  0.155807692307692     
  0.155807692307692     
  0.155807692307692     
  0.155807692307692     
  0.155807692307692     
  0.155807692307692     
  0.155807692307692     
  0.155807692307692     
  0.155807692307692     
  0.155807692307692     
  0.155807692307692     
  0.155807692307692     
  0.155807692307692     
  0.155807692307692     
  0.155807692307692     
  0.155807692307692     
  0.155807692307692     
  0.155807692307692     
  0.155807692307692     
  0.155807692307692     
  0.155807692307692     
  0.155807692307692     
  0.155807692307692     
  0.155807692307692     
  0.155807692307692     
  0.155807692307692     
  0.155807692307692     
  0.155807692307692     
  0.155807692307692     
  0.155807692307692     
  0.155807692307692     
  0.155807692307692     
  0.155807692307692     
  0.155807692307692     
  0.155807692307692     
  0.155807692307692     
  0.155807692307692     
  0.155807692307692     
  0.155807692307692     
  0.155807692307692     
  0.155807692307692     
  0.155807692307692     
  0.155807692307692     
  0.155807692307692     
  0.155807692307692     
  0.155807692307692     
  0.155807692307692     
  0.155807692307692     
  0.155807692307692     
  0.155807692307692     
  0.155807692307692     
  0.155807692307692     
  0.155807692307692     
  0.155807692307692     
  0.155807692307692     
  0.155807692307692     
  0.155807692307692     
  0.155807692307692     
  0.155807692307692     
  0.155807692307692     
  0.155807692307692     
  0.155807692307692     
  0.155807692307692     
  0.155807692307692     
  0.155807692307692     
  0.155807692307692     
  0.155807692307692     
  0.155807692307692     
  0.155807692307692     
  0.155807692307692     
  0.155807692307692     
  0.155807692307692     
  0.155807692307692     
  0.155807692307692     
  0.155807692307692     
  0.155807692307692     
  0.155807692307692     
  0.155807692307692     
  0.155807692307692     
  0.155807692307692     
  0.155807692307692     
  0.155807692307692     
  0.155807692307692     
  0.155807692307692     
  0.155807692307692     
  0.155807692307692     
  0.155807692307692     
  0.155807692307692     
  0.155807692307692     
  0.155807692307692     
  0.155807692307692     
  0.155807692307692     
  0.155807692307692     
  0.155807692307692     
  0.155807692307692     
  0.155807692307692     
  0.155807692307692     
  0.155807692307692     
  0.155807692307692     
  0.155807692307692     
  0.155807692307692     
  0.155807692307692     
  0.155807692307692     
  0.155807692307692     
  0.155807692307692     
  0.155807692307692     
  0.155807692307692     
  0.155807692307692     
  0.155807692307692     
  0.155807692307692     
  0.155807692307692     
  0.155807692307692     
  0.155807692307692     
  0.155807692307692     
  0.155807692307692     
  0.155807692307692     
  0.155807692307692     
  0.155807692307692     
  0.155807692307692     
  0.155807692307692     
  0.155807692307692     
  0.155807692307692     
  0.155807692307692     
  0.155807692307692     
  0.155807692307692     
  0.155807692307692     
  0.155807692307692     
  0.155807692307692     
  0.155807692307692     
  0.155807692307692     
  0.155807692307692     
  0.155807692307692     
  0.155807692307692     
  0.155807692307692     
  0.155807692307692     
  0.155807692307692     
  0.155807692307692     
  0.155807692307692     
  0.155807692307692     
  0.155807692307692     
  0.155807692307692     
  0.155807692307692     
  0.155807692307692     
  0.155807692307692     
  0.155807692307692     
  0.155807692307692     
  0.155807692307692     
  0.155807692307692     
  0.155807692307692     
  0.155807692307692     
  0.155807692307692     
  0.155807692307692     
  0.155807692307692     
  0.155807692307692     
  0.155807692307692     
  0.155807692307692     
  0.155807692307692     
  0.155807692307692     
  0.155807692307692     
  0.155807692307692     
  0.155807692307692     
  0.155807692307692     
  0.155807692307692     
  0.155807692307692     
  0.155807692307692     
  0.155807692307692     
  0.155807692307692     
  0.155807692307692     
  0.155807692307692     
  0.155807692307692     
  0.155807692307692     
  0.155807692307692     
  0.155807692307692     
  0.155807692307692     
  0.155807692307692     
  0.155807692307692     
  0.155807692307692     
  0.155807692307692     
  0.155807692307692     
  0.155807692307692     
  0.155807692307692     
  0.155807692307692     
  0.155807692307692     
  0.155807692307692     
  0.155807692307692     
  0.155807692307692     
  0.155807692307692     
  0.155807692307692     
  0.155807692307692     
  0.155807692307692     
  0.155807692307692     
  0.155807692307692     
  0.155807692307692     
  0.155807692307692     
  0.155807692307692     
  0.155807692307692     
  0.155807692307692     
  0.155807692307692     
  0.155807692307692     
  0.155807692307692     
  0.155807692307692     
  0.155807692307692     
  0.155807692307692     
  0.155807692307692     
  0.155807692307692     
  0.155807692307692     
  0.155807692307692     
  0.155807692307692     
  0.155807692307692     
  0.155807692307692     
  0.155807692307692     
  0.155807692307692     
  0.155807692307692     
  0.155807692307692     
  0.155807692307692     
  0.155807692307692     
  0.155807692307692     
  0.155807692307692     
  0.155807692307692     
  0.155807692307692     
  0.155807692307692     
  0.155807692307692     
  0.155807692307692     
  0.155807692307692     
  0.155807692307692     
  0.155807692307692     
  0.155807692307692     
  0.155807692307692     
  0.155807692307692     
  0.155807692307692     
  0.155807692307692     
  0.155807692307692     
  0.155807692307692     
  0.155807692307692     
  0.155807692307692     
  0.155807692307692     
  0.155807692307692     
  0.155807692307692     
  0.155807692307692     
  0.155807692307692     
  0.155807692307692     
  0.155807692307692     
  0.155807692307692     
  0.155807692307692     
  0.155807692307692     
  0.155807692307692     
  0.155807692307692     
  0.155807692307692     
  0.155807692307692     
  0.155807692307692     
  0.155807692307692     
  0.155807692307692     
  0.155807692307692     
  0.155807692307692     
  0.155807692307692     
  0.155807692307692     
  0.155807692307692     
  0.155807692307692     
  0.155807692307692     
  0.155807692307692     
  0.155807692307692     
  0.155807692307692     
  0.155807692307692     
  0.155807692307692     
  0.155807692307692     
  0.155807692307692     
  0.155807692307692     
  0.155807692307692     
  0.155807692307692     
  0.155807692307692     
  0.155807692307692     
  0.155807692307692     
  0.155807692307692     
  0.155807692307692     
  0.155807692307692     
  0.155807692307692     
  0.155807692307692     
  0.155807692307692     
  0.155807692307692     
  0.155807692307692     
  0.155807692307692     
  0.155807692307692     
  0.155807692307692     
  0.155807692307692     
  0.155807692307692     
  0.155807692307692     
  0.155807692307692     
  0.155807692307692     
  0.155807692307692     
  0.155807692307692     
  0.155807692307692     
  0.155807692307692     
  0.155807692307692     
  0.155807692307692     
  0.155807692307692     
  0.155807692307692     
  0.155807692307692     
  0.155807692307692     
  0.155807692307692     
  0.155807692307692     
  0.155807692307692     
  0.155807692307692     
  0.155807692307692     
  0.155807692307692     
  0.155807692307692     
  0.155807692307692     
  0.155807692307692     
  0.155807692307692     
  0.155807692307692     
  0.155807692307692     
  0.155807692307692     
  0.155807692307692     
  0.155807692307692     
  0.155807692307692     
  0.155807692307692     
  0.155807692307692     
  0.155807692307692     
  0.155807692307692     
  0.155807692307692     
  0.155807692307692     
  0.155807692307692     
  0.155807692307692     
  0.155807692307692     
  0.155807692307692     
  0.155807692307692     
  0.155807692307692     
  0.155807692307692     
  0.155807692307692     
  0.155807692307692     
  0.155807692307692     
  0.155807692307692     
  0.155807692307692     
  0.155807692307692     
  0.155807692307692     
  0.155807692307692     
  0.155807692307692     
  0.155807692307692     
  0.155807692307692     
  0.155807692307692     
  0.155807692307692     
  0.155807692307692     
  0.155807692307692     
  0.155807692307692     
  0.155807692307692     
  0.155807692307692     
  0.155807692307692     
  0.155807692307692     
  0.155807692307692     
  0.155807692307692     
  0.155807692307692     
  0.155807692307692     
  0.155807692307692     
  0.155807692307692     
  0.155807692307692     
  0.155807692307692     
  0.155807692307692     
  0.155807692307692     
  0.155807692307692     
  0.155807692307692     
  0.155807692307692     
  0.155807692307692     
  0.155807692307692     
  0.155807692307692     
  0.155807692307692     
  0.155807692307692     
  0.155807692307692     
  0.155807692307692     
  0.155807692307692     
  0.155807692307692     
  0.155807692307692     
  0.155807692307692     
  0.155807692307692     
  0.155807692307692     
  0.155807692307692     
  0.155807692307692     
  0.155807692307692     
  0.155807692307692     
  0.155807692307692     
  0.155807692307692     
  0.155807692307692     
  0.155807692307692     
  0.155807692307692     
  0.155807692307692     
  0.155807692307692     
  0.155807692307692     
  0.155807692307692     
  0.155807692307692     
  0.155807692307692     
  0.155807692307692     
  0.155807692307692     
