# vtk DataFile Version 3.0
vtk output
ASCII
DATASET UNSTRUCTURED_GRID
POINTS       496 double 
  0.00000000E+00  3.00000000E+02  0.00000000E+00
  0.00000000E+00  2.80000000E+02  0.00000000E+00
  0.00000000E+00  2.60000000E+02  0.00000000E+00
  0.00000000E+00  2.40000000E+02  0.00000000E+00
  0.00000000E+00  2.20000000E+02  0.00000000E+00
  0.00000000E+00  2.00000000E+02  0.00000000E+00
  0.00000000E+00  1.80000000E+02  0.00000000E+00
  0.00000000E+00  1.60000000E+02  0.00000000E+00
  0.00000000E+00  1.40000000E+02  0.00000000E+00
  0.00000000E+00  1.20000000E+02  0.00000000E+00
  0.00000000E+00  1.00000000E+02  0.00000000E+00
  0.00000000E+00  8.00000000E+01  0.00000000E+00
  0.00000000E+00  6.00000000E+01  0.00000000E+00
  0.00000000E+00  4.00000000E+01  0.00000000E+00
  0.00000000E+00  2.00000000E+01  0.00000000E+00
  0.00000000E+00  4.99600361E-14  0.00000000E+00
  2.00000000E+01  3.00000000E+02  0.00000000E+00
  2.00000000E+01  2.80000000E+02  0.00000000E+00
  2.00000000E+01  2.60000000E+02  0.00000000E+00
  2.00000000E+01  2.40000000E+02  0.00000000E+00
  2.00000000E+01  2.20000000E+02  0.00000000E+00
  2.00000000E+01  2.00000000E+02  0.00000000E+00
  2.00000000E+01  1.80000000E+02  0.00000000E+00
  2.00000000E+01  1.60000000E+02  0.00000000E+00
  2.00000000E+01  1.40000000E+02  0.00000000E+00
  2.00000000E+01  1.20000000E+02  0.00000000E+00
  2.00000000E+01  1.00000000E+02  0.00000000E+00
  2.00000000E+01  8.00000000E+01  0.00000000E+00
  2.00000000E+01  6.00000000E+01  0.00000000E+00
  2.00000000E+01  4.00000000E+01  0.00000000E+00
  2.00000000E+01  2.00000000E+01  0.00000000E+00
  2.00000000E+01  4.99600361E-14  0.00000000E+00
  4.00000000E+01  3.00000000E+02  0.00000000E+00
  4.00000000E+01  2.80000000E+02  0.00000000E+00
  4.00000000E+01  2.60000000E+02  0.00000000E+00
  4.00000000E+01  2.40000000E+02  0.00000000E+00
  4.00000000E+01  2.20000000E+02  0.00000000E+00
  4.00000000E+01  2.00000000E+02  0.00000000E+00
  4.00000000E+01  1.80000000E+02  0.00000000E+00
  4.00000000E+01  1.60000000E+02  0.00000000E+00
  4.00000000E+01  1.40000000E+02  0.00000000E+00
  4.00000000E+01  1.20000000E+02  0.00000000E+00
  4.00000000E+01  1.00000000E+02  0.00000000E+00
  4.00000000E+01  8.00000000E+01  0.00000000E+00
  4.00000000E+01  6.00000000E+01  0.00000000E+00
  4.00000000E+01  4.00000000E+01  0.00000000E+00
  4.00000000E+01  2.00000000E+01  0.00000000E+00
  4.00000000E+01  4.99600361E-14  0.00000000E+00
  6.00000000E+01  3.00000000E+02  0.00000000E+00
  6.00000000E+01  2.80000000E+02  0.00000000E+00
  6.00000000E+01  2.60000000E+02  0.00000000E+00
  6.00000000E+01  2.40000000E+02  0.00000000E+00
  6.00000000E+01  2.20000000E+02  0.00000000E+00
  6.00000000E+01  2.00000000E+02  0.00000000E+00
  6.00000000E+01  1.80000000E+02  0.00000000E+00
  6.00000000E+01  1.60000000E+02  0.00000000E+00
  6.00000000E+01  1.40000000E+02  0.00000000E+00
  6.00000000E+01  1.20000000E+02  0.00000000E+00
  6.00000000E+01  1.00000000E+02  0.00000000E+00
  6.00000000E+01  8.00000000E+01  0.00000000E+00
  6.00000000E+01  6.00000000E+01  0.00000000E+00
  6.00000000E+01  4.00000000E+01  0.00000000E+00
  6.00000000E+01  2.00000000E+01  0.00000000E+00
  6.00000000E+01  4.99600361E-14  0.00000000E+00
  8.00000000E+01  3.00000000E+02  0.00000000E+00
  8.00000000E+01  2.80000000E+02  0.00000000E+00
  8.00000000E+01  2.60000000E+02  0.00000000E+00
  8.00000000E+01  2.40000000E+02  0.00000000E+00
  8.00000000E+01  2.20000000E+02  0.00000000E+00
  8.00000000E+01  2.00000000E+02  0.00000000E+00
  8.00000000E+01  1.80000000E+02  0.00000000E+00
  8.00000000E+01  1.60000000E+02  0.00000000E+00
  8.00000000E+01  1.40000000E+02  0.00000000E+00
  8.00000000E+01  1.20000000E+02  0.00000000E+00
  8.00000000E+01  1.00000000E+02  0.00000000E+00
  8.00000000E+01  8.00000000E+01  0.00000000E+00
  8.00000000E+01  6.00000000E+01  0.00000000E+00
  8.00000000E+01  4.00000000E+01  0.00000000E+00
  8.00000000E+01  2.00000000E+01  0.00000000E+00
  8.00000000E+01  4.99600361E-14  0.00000000E+00
  1.00000000E+02  3.00000000E+02  0.00000000E+00
  1.00000000E+02  2.80000000E+02  0.00000000E+00
  1.00000000E+02  2.60000000E+02  0.00000000E+00
  1.00000000E+02  2.40000000E+02  0.00000000E+00
  1.00000000E+02  2.20000000E+02  0.00000000E+00
  1.00000000E+02  2.00000000E+02  0.00000000E+00
  1.00000000E+02  1.80000000E+02  0.00000000E+00
  1.00000000E+02  1.60000000E+02  0.00000000E+00
  1.00000000E+02  1.40000000E+02  0.00000000E+00
  1.00000000E+02  1.20000000E+02  0.00000000E+00
  1.00000000E+02  1.00000000E+02  0.00000000E+00
  1.00000000E+02  8.00000000E+01  0.00000000E+00
  1.00000000E+02  6.00000000E+01  0.00000000E+00
  1.00000000E+02  4.00000000E+01  0.00000000E+00
  1.00000000E+02  2.00000000E+01  0.00000000E+00
  1.00000000E+02  4.99600361E-14  0.00000000E+00
  1.20000000E+02  3.00000000E+02  0.00000000E+00
  1.20000000E+02  2.80000000E+02  0.00000000E+00
  1.20000000E+02  2.60000000E+02  0.00000000E+00
  1.20000000E+02  2.40000000E+02  0.00000000E+00
  1.20000000E+02  2.20000000E+02  0.00000000E+00
  1.20000000E+02  2.00000000E+02  0.00000000E+00
  1.20000000E+02  1.80000000E+02  0.00000000E+00
  1.20000000E+02  1.60000000E+02  0.00000000E+00
  1.20000000E+02  1.40000000E+02  0.00000000E+00
  1.20000000E+02  1.20000000E+02  0.00000000E+00
  1.20000000E+02  1.00000000E+02  0.00000000E+00
  1.20000000E+02  8.00000000E+01  0.00000000E+00
  1.20000000E+02  6.00000000E+01  0.00000000E+00
  1.20000000E+02  4.00000000E+01  0.00000000E+00
  1.20000000E+02  2.00000000E+01  0.00000000E+00
  1.20000000E+02  4.99600361E-14  0.00000000E+00
  1.40000000E+02  3.00000000E+02  0.00000000E+00
  1.40000000E+02  2.80000000E+02  0.00000000E+00
  1.40000000E+02  2.60000000E+02  0.00000000E+00
  1.40000000E+02  2.40000000E+02  0.00000000E+00
  1.40000000E+02  2.20000000E+02  0.00000000E+00
  1.40000000E+02  2.00000000E+02  0.00000000E+00
  1.40000000E+02  1.80000000E+02  0.00000000E+00
  1.40000000E+02  1.60000000E+02  0.00000000E+00
  1.40000000E+02  1.40000000E+02  0.00000000E+00
  1.40000000E+02  1.20000000E+02  0.00000000E+00
  1.40000000E+02  1.00000000E+02  0.00000000E+00
  1.40000000E+02  8.00000000E+01  0.00000000E+00
  1.40000000E+02  6.00000000E+01  0.00000000E+00
  1.40000000E+02  4.00000000E+01  0.00000000E+00
  1.40000000E+02  2.00000000E+01  0.00000000E+00
  1.40000000E+02  4.99600361E-14  0.00000000E+00
  1.60000000E+02  3.00000000E+02  0.00000000E+00
  1.60000000E+02  2.80000000E+02  0.00000000E+00
  1.60000000E+02  2.60000000E+02  0.00000000E+00
  1.60000000E+02  2.40000000E+02  0.00000000E+00
  1.60000000E+02  2.20000000E+02  0.00000000E+00
  1.60000000E+02  2.00000000E+02  0.00000000E+00
  1.60000000E+02  1.80000000E+02  0.00000000E+00
  1.60000000E+02  1.60000000E+02  0.00000000E+00
  1.60000000E+02  1.40000000E+02  0.00000000E+00
  1.60000000E+02  1.20000000E+02  0.00000000E+00
  1.60000000E+02  1.00000000E+02  0.00000000E+00
  1.60000000E+02  8.00000000E+01  0.00000000E+00
  1.60000000E+02  6.00000000E+01  0.00000000E+00
  1.60000000E+02  4.00000000E+01  0.00000000E+00
  1.60000000E+02  2.00000000E+01  0.00000000E+00
  1.60000000E+02  4.99600361E-14  0.00000000E+00
  1.80000000E+02  3.00000000E+02  0.00000000E+00
  1.80000000E+02  2.80000000E+02  0.00000000E+00
  1.80000000E+02  2.60000000E+02  0.00000000E+00
  1.80000000E+02  2.40000000E+02  0.00000000E+00
  1.80000000E+02  2.20000000E+02  0.00000000E+00
  1.80000000E+02  2.00000000E+02  0.00000000E+00
  1.80000000E+02  1.80000000E+02  0.00000000E+00
  1.80000000E+02  1.60000000E+02  0.00000000E+00
  1.80000000E+02  1.40000000E+02  0.00000000E+00
  1.80000000E+02  1.20000000E+02  0.00000000E+00
  1.80000000E+02  1.00000000E+02  0.00000000E+00
  1.80000000E+02  8.00000000E+01  0.00000000E+00
  1.80000000E+02  6.00000000E+01  0.00000000E+00
  1.80000000E+02  4.00000000E+01  0.00000000E+00
  1.80000000E+02  2.00000000E+01  0.00000000E+00
  1.80000000E+02  4.99600361E-14  0.00000000E+00
  2.00000000E+02  3.00000000E+02  0.00000000E+00
  2.00000000E+02  2.80000000E+02  0.00000000E+00
  2.00000000E+02  2.60000000E+02  0.00000000E+00
  2.00000000E+02  2.40000000E+02  0.00000000E+00
  2.00000000E+02  2.20000000E+02  0.00000000E+00
  2.00000000E+02  2.00000000E+02  0.00000000E+00
  2.00000000E+02  1.80000000E+02  0.00000000E+00
  2.00000000E+02  1.60000000E+02  0.00000000E+00
  2.00000000E+02  1.40000000E+02  0.00000000E+00
  2.00000000E+02  1.20000000E+02  0.00000000E+00
  2.00000000E+02  1.00000000E+02  0.00000000E+00
  2.00000000E+02  8.00000000E+01  0.00000000E+00
  2.00000000E+02  6.00000000E+01  0.00000000E+00
  2.00000000E+02  4.00000000E+01  0.00000000E+00
  2.00000000E+02  2.00000000E+01  0.00000000E+00
  2.00000000E+02  4.99600361E-14  0.00000000E+00
  2.20000000E+02  3.00000000E+02  0.00000000E+00
  2.20000000E+02  2.80000000E+02  0.00000000E+00
  2.20000000E+02  2.60000000E+02  0.00000000E+00
  2.20000000E+02  2.40000000E+02  0.00000000E+00
  2.20000000E+02  2.20000000E+02  0.00000000E+00
  2.20000000E+02  2.00000000E+02  0.00000000E+00
  2.20000000E+02  1.80000000E+02  0.00000000E+00
  2.20000000E+02  1.60000000E+02  0.00000000E+00
  2.20000000E+02  1.40000000E+02  0.00000000E+00
  2.20000000E+02  1.20000000E+02  0.00000000E+00
  2.20000000E+02  1.00000000E+02  0.00000000E+00
  2.20000000E+02  8.00000000E+01  0.00000000E+00
  2.20000000E+02  6.00000000E+01  0.00000000E+00
  2.20000000E+02  4.00000000E+01  0.00000000E+00
  2.20000000E+02  2.00000000E+01  0.00000000E+00
  2.20000000E+02  4.99600361E-14  0.00000000E+00
  2.40000000E+02  3.00000000E+02  0.00000000E+00
  2.40000000E+02  2.80000000E+02  0.00000000E+00
  2.40000000E+02  2.60000000E+02  0.00000000E+00
  2.40000000E+02  2.40000000E+02  0.00000000E+00
  2.40000000E+02  2.20000000E+02  0.00000000E+00
  2.40000000E+02  2.00000000E+02  0.00000000E+00
  2.40000000E+02  1.80000000E+02  0.00000000E+00
  2.40000000E+02  1.60000000E+02  0.00000000E+00
  2.40000000E+02  1.40000000E+02  0.00000000E+00
  2.40000000E+02  1.20000000E+02  0.00000000E+00
  2.40000000E+02  1.00000000E+02  0.00000000E+00
  2.40000000E+02  8.00000000E+01  0.00000000E+00
  2.40000000E+02  6.00000000E+01  0.00000000E+00
  2.40000000E+02  4.00000000E+01  0.00000000E+00
  2.40000000E+02  2.00000000E+01  0.00000000E+00
  2.40000000E+02  4.99600361E-14  0.00000000E+00
  2.60000000E+02  3.00000000E+02  0.00000000E+00
  2.60000000E+02  2.80000000E+02  0.00000000E+00
  2.60000000E+02  2.60000000E+02  0.00000000E+00
  2.60000000E+02  2.40000000E+02  0.00000000E+00
  2.60000000E+02  2.20000000E+02  0.00000000E+00
  2.60000000E+02  2.00000000E+02  0.00000000E+00
  2.60000000E+02  1.80000000E+02  0.00000000E+00
  2.60000000E+02  1.60000000E+02  0.00000000E+00
  2.60000000E+02  1.40000000E+02  0.00000000E+00
  2.60000000E+02  1.20000000E+02  0.00000000E+00
  2.60000000E+02  1.00000000E+02  0.00000000E+00
  2.60000000E+02  8.00000000E+01  0.00000000E+00
  2.60000000E+02  6.00000000E+01  0.00000000E+00
  2.60000000E+02  4.00000000E+01  0.00000000E+00
  2.60000000E+02  2.00000000E+01  0.00000000E+00
  2.60000000E+02  4.99600361E-14  0.00000000E+00
  2.80000000E+02  3.00000000E+02  0.00000000E+00
  2.80000000E+02  2.80000000E+02  0.00000000E+00
  2.80000000E+02  2.60000000E+02  0.00000000E+00
  2.80000000E+02  2.40000000E+02  0.00000000E+00
  2.80000000E+02  2.20000000E+02  0.00000000E+00
  2.80000000E+02  2.00000000E+02  0.00000000E+00
  2.80000000E+02  1.80000000E+02  0.00000000E+00
  2.80000000E+02  1.60000000E+02  0.00000000E+00
  2.80000000E+02  1.40000000E+02  0.00000000E+00
  2.80000000E+02  1.20000000E+02  0.00000000E+00
  2.80000000E+02  1.00000000E+02  0.00000000E+00
  2.80000000E+02  8.00000000E+01  0.00000000E+00
  2.80000000E+02  6.00000000E+01  0.00000000E+00
  2.80000000E+02  4.00000000E+01  0.00000000E+00
  2.80000000E+02  2.00000000E+01  0.00000000E+00
  2.80000000E+02  4.99600361E-14  0.00000000E+00
  3.00000000E+02  3.00000000E+02  0.00000000E+00
  3.00000000E+02  2.80000000E+02  0.00000000E+00
  3.00000000E+02  2.60000000E+02  0.00000000E+00
  3.00000000E+02  2.40000000E+02  0.00000000E+00
  3.00000000E+02  2.20000000E+02  0.00000000E+00
  3.00000000E+02  2.00000000E+02  0.00000000E+00
  3.00000000E+02  1.80000000E+02  0.00000000E+00
  3.00000000E+02  1.60000000E+02  0.00000000E+00
  3.00000000E+02  1.40000000E+02  0.00000000E+00
  3.00000000E+02  1.20000000E+02  0.00000000E+00
  3.00000000E+02  1.00000000E+02  0.00000000E+00
  3.00000000E+02  8.00000000E+01  0.00000000E+00
  3.00000000E+02  6.00000000E+01  0.00000000E+00
  3.00000000E+02  4.00000000E+01  0.00000000E+00
  3.00000000E+02  2.00000000E+01  0.00000000E+00
  3.00000000E+02  4.99600361E-14  0.00000000E+00
  3.20000000E+02  3.00000000E+02  0.00000000E+00
  3.20000000E+02  2.80000000E+02  0.00000000E+00
  3.20000000E+02  2.60000000E+02  0.00000000E+00
  3.20000000E+02  2.40000000E+02  0.00000000E+00
  3.20000000E+02  2.20000000E+02  0.00000000E+00
  3.20000000E+02  2.00000000E+02  0.00000000E+00
  3.20000000E+02  1.80000000E+02  0.00000000E+00
  3.20000000E+02  1.60000000E+02  0.00000000E+00
  3.20000000E+02  1.40000000E+02  0.00000000E+00
  3.20000000E+02  1.20000000E+02  0.00000000E+00
  3.20000000E+02  1.00000000E+02  0.00000000E+00
  3.20000000E+02  8.00000000E+01  0.00000000E+00
  3.20000000E+02  6.00000000E+01  0.00000000E+00
  3.20000000E+02  4.00000000E+01  0.00000000E+00
  3.20000000E+02  2.00000000E+01  0.00000000E+00
  3.20000000E+02  4.99600361E-14  0.00000000E+00
  3.40000000E+02  3.00000000E+02  0.00000000E+00
  3.40000000E+02  2.80000000E+02  0.00000000E+00
  3.40000000E+02  2.60000000E+02  0.00000000E+00
  3.40000000E+02  2.40000000E+02  0.00000000E+00
  3.40000000E+02  2.20000000E+02  0.00000000E+00
  3.40000000E+02  2.00000000E+02  0.00000000E+00
  3.40000000E+02  1.80000000E+02  0.00000000E+00
  3.40000000E+02  1.60000000E+02  0.00000000E+00
  3.40000000E+02  1.40000000E+02  0.00000000E+00
  3.40000000E+02  1.20000000E+02  0.00000000E+00
  3.40000000E+02  1.00000000E+02  0.00000000E+00
  3.40000000E+02  8.00000000E+01  0.00000000E+00
  3.40000000E+02  6.00000000E+01  0.00000000E+00
  3.40000000E+02  4.00000000E+01  0.00000000E+00
  3.40000000E+02  2.00000000E+01  0.00000000E+00
  3.40000000E+02  4.99600361E-14  0.00000000E+00
  3.60000000E+02  3.00000000E+02  0.00000000E+00
  3.60000000E+02  2.80000000E+02  0.00000000E+00
  3.60000000E+02  2.60000000E+02  0.00000000E+00
  3.60000000E+02  2.40000000E+02  0.00000000E+00
  3.60000000E+02  2.20000000E+02  0.00000000E+00
  3.60000000E+02  2.00000000E+02  0.00000000E+00
  3.60000000E+02  1.80000000E+02  0.00000000E+00
  3.60000000E+02  1.60000000E+02  0.00000000E+00
  3.60000000E+02  1.40000000E+02  0.00000000E+00
  3.60000000E+02  1.20000000E+02  0.00000000E+00
  3.60000000E+02  1.00000000E+02  0.00000000E+00
  3.60000000E+02  8.00000000E+01  0.00000000E+00
  3.60000000E+02  6.00000000E+01  0.00000000E+00
  3.60000000E+02  4.00000000E+01  0.00000000E+00
  3.60000000E+02  2.00000000E+01  0.00000000E+00
  3.60000000E+02  4.99600361E-14  0.00000000E+00
  3.80000000E+02  3.00000000E+02  0.00000000E+00
  3.80000000E+02  2.80000000E+02  0.00000000E+00
  3.80000000E+02  2.60000000E+02  0.00000000E+00
  3.80000000E+02  2.40000000E+02  0.00000000E+00
  3.80000000E+02  2.20000000E+02  0.00000000E+00
  3.80000000E+02  2.00000000E+02  0.00000000E+00
  3.80000000E+02  1.80000000E+02  0.00000000E+00
  3.80000000E+02  1.60000000E+02  0.00000000E+00
  3.80000000E+02  1.40000000E+02  0.00000000E+00
  3.80000000E+02  1.20000000E+02  0.00000000E+00
  3.80000000E+02  1.00000000E+02  0.00000000E+00
  3.80000000E+02  8.00000000E+01  0.00000000E+00
  3.80000000E+02  6.00000000E+01  0.00000000E+00
  3.80000000E+02  4.00000000E+01  0.00000000E+00
  3.80000000E+02  2.00000000E+01  0.00000000E+00
  3.80000000E+02  4.99600361E-14  0.00000000E+00
  4.00000000E+02  3.00000000E+02  0.00000000E+00
  4.00000000E+02  2.80000000E+02  0.00000000E+00
  4.00000000E+02  2.60000000E+02  0.00000000E+00
  4.00000000E+02  2.40000000E+02  0.00000000E+00
  4.00000000E+02  2.20000000E+02  0.00000000E+00
  4.00000000E+02  2.00000000E+02  0.00000000E+00
  4.00000000E+02  1.80000000E+02  0.00000000E+00
  4.00000000E+02  1.60000000E+02  0.00000000E+00
  4.00000000E+02  1.40000000E+02  0.00000000E+00
  4.00000000E+02  1.20000000E+02  0.00000000E+00
  4.00000000E+02  1.00000000E+02  0.00000000E+00
  4.00000000E+02  8.00000000E+01  0.00000000E+00
  4.00000000E+02  6.00000000E+01  0.00000000E+00
  4.00000000E+02  4.00000000E+01  0.00000000E+00
  4.00000000E+02  2.00000000E+01  0.00000000E+00
  4.00000000E+02  4.99600361E-14  0.00000000E+00
  4.20000000E+02  3.00000000E+02  0.00000000E+00
  4.20000000E+02  2.80000000E+02  0.00000000E+00
  4.20000000E+02  2.60000000E+02  0.00000000E+00
  4.20000000E+02  2.40000000E+02  0.00000000E+00
  4.20000000E+02  2.20000000E+02  0.00000000E+00
  4.20000000E+02  2.00000000E+02  0.00000000E+00
  4.20000000E+02  1.80000000E+02  0.00000000E+00
  4.20000000E+02  1.60000000E+02  0.00000000E+00
  4.20000000E+02  1.40000000E+02  0.00000000E+00
  4.20000000E+02  1.20000000E+02  0.00000000E+00
  4.20000000E+02  1.00000000E+02  0.00000000E+00
  4.20000000E+02  8.00000000E+01  0.00000000E+00
  4.20000000E+02  6.00000000E+01  0.00000000E+00
  4.20000000E+02  4.00000000E+01  0.00000000E+00
  4.20000000E+02  2.00000000E+01  0.00000000E+00
  4.20000000E+02  4.99600361E-14  0.00000000E+00
  4.40000000E+02  3.00000000E+02  0.00000000E+00
  4.40000000E+02  2.80000000E+02  0.00000000E+00
  4.40000000E+02  2.60000000E+02  0.00000000E+00
  4.40000000E+02  2.40000000E+02  0.00000000E+00
  4.40000000E+02  2.20000000E+02  0.00000000E+00
  4.40000000E+02  2.00000000E+02  0.00000000E+00
  4.40000000E+02  1.80000000E+02  0.00000000E+00
  4.40000000E+02  1.60000000E+02  0.00000000E+00
  4.40000000E+02  1.40000000E+02  0.00000000E+00
  4.40000000E+02  1.20000000E+02  0.00000000E+00
  4.40000000E+02  1.00000000E+02  0.00000000E+00
  4.40000000E+02  8.00000000E+01  0.00000000E+00
  4.40000000E+02  6.00000000E+01  0.00000000E+00
  4.40000000E+02  4.00000000E+01  0.00000000E+00
  4.40000000E+02  2.00000000E+01  0.00000000E+00
  4.40000000E+02  4.99600361E-14  0.00000000E+00
  4.60000000E+02  3.00000000E+02  0.00000000E+00
  4.60000000E+02  2.80000000E+02  0.00000000E+00
  4.60000000E+02  2.60000000E+02  0.00000000E+00
  4.60000000E+02  2.40000000E+02  0.00000000E+00
  4.60000000E+02  2.20000000E+02  0.00000000E+00
  4.60000000E+02  2.00000000E+02  0.00000000E+00
  4.60000000E+02  1.80000000E+02  0.00000000E+00
  4.60000000E+02  1.60000000E+02  0.00000000E+00
  4.60000000E+02  1.40000000E+02  0.00000000E+00
  4.60000000E+02  1.20000000E+02  0.00000000E+00
  4.60000000E+02  1.00000000E+02  0.00000000E+00
  4.60000000E+02  8.00000000E+01  0.00000000E+00
  4.60000000E+02  6.00000000E+01  0.00000000E+00
  4.60000000E+02  4.00000000E+01  0.00000000E+00
  4.60000000E+02  2.00000000E+01  0.00000000E+00
  4.60000000E+02  4.99600361E-14  0.00000000E+00
  4.80000000E+02  3.00000000E+02  0.00000000E+00
  4.80000000E+02  2.80000000E+02  0.00000000E+00
  4.80000000E+02  2.60000000E+02  0.00000000E+00
  4.80000000E+02  2.40000000E+02  0.00000000E+00
  4.80000000E+02  2.20000000E+02  0.00000000E+00
  4.80000000E+02  2.00000000E+02  0.00000000E+00
  4.80000000E+02  1.80000000E+02  0.00000000E+00
  4.80000000E+02  1.60000000E+02  0.00000000E+00
  4.80000000E+02  1.40000000E+02  0.00000000E+00
  4.80000000E+02  1.20000000E+02  0.00000000E+00
  4.80000000E+02  1.00000000E+02  0.00000000E+00
  4.80000000E+02  8.00000000E+01  0.00000000E+00
  4.80000000E+02  6.00000000E+01  0.00000000E+00
  4.80000000E+02  4.00000000E+01  0.00000000E+00
  4.80000000E+02  2.00000000E+01  0.00000000E+00
  4.80000000E+02  4.99600361E-14  0.00000000E+00
  5.00000000E+02  3.00000000E+02  0.00000000E+00
  5.00000000E+02  2.80000000E+02  0.00000000E+00
  5.00000000E+02  2.60000000E+02  0.00000000E+00
  5.00000000E+02  2.40000000E+02  0.00000000E+00
  5.00000000E+02  2.20000000E+02  0.00000000E+00
  5.00000000E+02  2.00000000E+02  0.00000000E+00
  5.00000000E+02  1.80000000E+02  0.00000000E+00
  5.00000000E+02  1.60000000E+02  0.00000000E+00
  5.00000000E+02  1.40000000E+02  0.00000000E+00
  5.00000000E+02  1.20000000E+02  0.00000000E+00
  5.00000000E+02  1.00000000E+02  0.00000000E+00
  5.00000000E+02  8.00000000E+01  0.00000000E+00
  5.00000000E+02  6.00000000E+01  0.00000000E+00
  5.00000000E+02  4.00000000E+01  0.00000000E+00
  5.00000000E+02  2.00000000E+01  0.00000000E+00
  5.00000000E+02  4.99600361E-14  0.00000000E+00
  5.20000000E+02  3.00000000E+02  0.00000000E+00
  5.20000000E+02  2.80000000E+02  0.00000000E+00
  5.20000000E+02  2.60000000E+02  0.00000000E+00
  5.20000000E+02  2.40000000E+02  0.00000000E+00
  5.20000000E+02  2.20000000E+02  0.00000000E+00
  5.20000000E+02  2.00000000E+02  0.00000000E+00
  5.20000000E+02  1.80000000E+02  0.00000000E+00
  5.20000000E+02  1.60000000E+02  0.00000000E+00
  5.20000000E+02  1.40000000E+02  0.00000000E+00
  5.20000000E+02  1.20000000E+02  0.00000000E+00
  5.20000000E+02  1.00000000E+02  0.00000000E+00
  5.20000000E+02  8.00000000E+01  0.00000000E+00
  5.20000000E+02  6.00000000E+01  0.00000000E+00
  5.20000000E+02  4.00000000E+01  0.00000000E+00
  5.20000000E+02  2.00000000E+01  0.00000000E+00
  5.20000000E+02  4.99600361E-14  0.00000000E+00
  5.40000000E+02  3.00000000E+02  0.00000000E+00
  5.40000000E+02  2.80000000E+02  0.00000000E+00
  5.40000000E+02  2.60000000E+02  0.00000000E+00
  5.40000000E+02  2.40000000E+02  0.00000000E+00
  5.40000000E+02  2.20000000E+02  0.00000000E+00
  5.40000000E+02  2.00000000E+02  0.00000000E+00
  5.40000000E+02  1.80000000E+02  0.00000000E+00
  5.40000000E+02  1.60000000E+02  0.00000000E+00
  5.40000000E+02  1.40000000E+02  0.00000000E+00
  5.40000000E+02  1.20000000E+02  0.00000000E+00
  5.40000000E+02  1.00000000E+02  0.00000000E+00
  5.40000000E+02  8.00000000E+01  0.00000000E+00
  5.40000000E+02  6.00000000E+01  0.00000000E+00
  5.40000000E+02  4.00000000E+01  0.00000000E+00
  5.40000000E+02  2.00000000E+01  0.00000000E+00
  5.40000000E+02  4.99600361E-14  0.00000000E+00
  5.60000000E+02  3.00000000E+02  0.00000000E+00
  5.60000000E+02  2.80000000E+02  0.00000000E+00
  5.60000000E+02  2.60000000E+02  0.00000000E+00
  5.60000000E+02  2.40000000E+02  0.00000000E+00
  5.60000000E+02  2.20000000E+02  0.00000000E+00
  5.60000000E+02  2.00000000E+02  0.00000000E+00
  5.60000000E+02  1.80000000E+02  0.00000000E+00
  5.60000000E+02  1.60000000E+02  0.00000000E+00
  5.60000000E+02  1.40000000E+02  0.00000000E+00
  5.60000000E+02  1.20000000E+02  0.00000000E+00
  5.60000000E+02  1.00000000E+02  0.00000000E+00
  5.60000000E+02  8.00000000E+01  0.00000000E+00
  5.60000000E+02  6.00000000E+01  0.00000000E+00
  5.60000000E+02  4.00000000E+01  0.00000000E+00
  5.60000000E+02  2.00000000E+01  0.00000000E+00
  5.60000000E+02  4.99600361E-14  0.00000000E+00
  5.80000000E+02  3.00000000E+02  0.00000000E+00
  5.80000000E+02  2.80000000E+02  0.00000000E+00
  5.80000000E+02  2.60000000E+02  0.00000000E+00
  5.80000000E+02  2.40000000E+02  0.00000000E+00
  5.80000000E+02  2.20000000E+02  0.00000000E+00
  5.80000000E+02  2.00000000E+02  0.00000000E+00
  5.80000000E+02  1.80000000E+02  0.00000000E+00
  5.80000000E+02  1.60000000E+02  0.00000000E+00
  5.80000000E+02  1.40000000E+02  0.00000000E+00
  5.80000000E+02  1.20000000E+02  0.00000000E+00
  5.80000000E+02  1.00000000E+02  0.00000000E+00
  5.80000000E+02  8.00000000E+01  0.00000000E+00
  5.80000000E+02  6.00000000E+01  0.00000000E+00
  5.80000000E+02  4.00000000E+01  0.00000000E+00
  5.80000000E+02  2.00000000E+01  0.00000000E+00
  5.80000000E+02  4.99600361E-14  0.00000000E+00
  6.00000000E+02  3.00000000E+02  0.00000000E+00
  6.00000000E+02  2.80000000E+02  0.00000000E+00
  6.00000000E+02  2.60000000E+02  0.00000000E+00
  6.00000000E+02  2.40000000E+02  0.00000000E+00
  6.00000000E+02  2.20000000E+02  0.00000000E+00
  6.00000000E+02  2.00000000E+02  0.00000000E+00
  6.00000000E+02  1.80000000E+02  0.00000000E+00
  6.00000000E+02  1.60000000E+02  0.00000000E+00
  6.00000000E+02  1.40000000E+02  0.00000000E+00
  6.00000000E+02  1.20000000E+02  0.00000000E+00
  6.00000000E+02  1.00000000E+02  0.00000000E+00
  6.00000000E+02  8.00000000E+01  0.00000000E+00
  6.00000000E+02  6.00000000E+01  0.00000000E+00
  6.00000000E+02  4.00000000E+01  0.00000000E+00
  6.00000000E+02  2.00000000E+01  0.00000000E+00
  6.00000000E+02  4.99600361E-14  0.00000000E+00
CELLS       450      2250
         4           0           1          17          16
         4           1           2          18          17
         4           2           3          19          18
         4           3           4          20          19
         4           4           5          21          20
         4           5           6          22          21
         4           6           7          23          22
         4           7           8          24          23
         4           8           9          25          24
         4           9          10          26          25
         4          10          11          27          26
         4          11          12          28          27
         4          12          13          29          28
         4          13          14          30          29
         4          14          15          31          30
         4          16          17          33          32
         4          17          18          34          33
         4          18          19          35          34
         4          19          20          36          35
         4          20          21          37          36
         4          21          22          38          37
         4          22          23          39          38
         4          23          24          40          39
         4          24          25          41          40
         4          25          26          42          41
         4          26          27          43          42
         4          27          28          44          43
         4          28          29          45          44
         4          29          30          46          45
         4          30          31          47          46
         4          32          33          49          48
         4          33          34          50          49
         4          34          35          51          50
         4          35          36          52          51
         4          36          37          53          52
         4          37          38          54          53
         4          38          39          55          54
         4          39          40          56          55
         4          40          41          57          56
         4          41          42          58          57
         4          42          43          59          58
         4          43          44          60          59
         4          44          45          61          60
         4          45          46          62          61
         4          46          47          63          62
         4          48          49          65          64
         4          49          50          66          65
         4          50          51          67          66
         4          51          52          68          67
         4          52          53          69          68
         4          53          54          70          69
         4          54          55          71          70
         4          55          56          72          71
         4          56          57          73          72
         4          57          58          74          73
         4          58          59          75          74
         4          59          60          76          75
         4          60          61          77          76
         4          61          62          78          77
         4          62          63          79          78
         4          64          65          81          80
         4          65          66          82          81
         4          66          67          83          82
         4          67          68          84          83
         4          68          69          85          84
         4          69          70          86          85
         4          70          71          87          86
         4          71          72          88          87
         4          72          73          89          88
         4          73          74          90          89
         4          74          75          91          90
         4          75          76          92          91
         4          76          77          93          92
         4          77          78          94          93
         4          78          79          95          94
         4          80          81          97          96
         4          81          82          98          97
         4          82          83          99          98
         4          83          84         100          99
         4          84          85         101         100
         4          85          86         102         101
         4          86          87         103         102
         4          87          88         104         103
         4          88          89         105         104
         4          89          90         106         105
         4          90          91         107         106
         4          91          92         108         107
         4          92          93         109         108
         4          93          94         110         109
         4          94          95         111         110
         4          96          97         113         112
         4          97          98         114         113
         4          98          99         115         114
         4          99         100         116         115
         4         100         101         117         116
         4         101         102         118         117
         4         102         103         119         118
         4         103         104         120         119
         4         104         105         121         120
         4         105         106         122         121
         4         106         107         123         122
         4         107         108         124         123
         4         108         109         125         124
         4         109         110         126         125
         4         110         111         127         126
         4         112         113         129         128
         4         113         114         130         129
         4         114         115         131         130
         4         115         116         132         131
         4         116         117         133         132
         4         117         118         134         133
         4         118         119         135         134
         4         119         120         136         135
         4         120         121         137         136
         4         121         122         138         137
         4         122         123         139         138
         4         123         124         140         139
         4         124         125         141         140
         4         125         126         142         141
         4         126         127         143         142
         4         128         129         145         144
         4         129         130         146         145
         4         130         131         147         146
         4         131         132         148         147
         4         132         133         149         148
         4         133         134         150         149
         4         134         135         151         150
         4         135         136         152         151
         4         136         137         153         152
         4         137         138         154         153
         4         138         139         155         154
         4         139         140         156         155
         4         140         141         157         156
         4         141         142         158         157
         4         142         143         159         158
         4         144         145         161         160
         4         145         146         162         161
         4         146         147         163         162
         4         147         148         164         163
         4         148         149         165         164
         4         149         150         166         165
         4         150         151         167         166
         4         151         152         168         167
         4         152         153         169         168
         4         153         154         170         169
         4         154         155         171         170
         4         155         156         172         171
         4         156         157         173         172
         4         157         158         174         173
         4         158         159         175         174
         4         160         161         177         176
         4         161         162         178         177
         4         162         163         179         178
         4         163         164         180         179
         4         164         165         181         180
         4         165         166         182         181
         4         166         167         183         182
         4         167         168         184         183
         4         168         169         185         184
         4         169         170         186         185
         4         170         171         187         186
         4         171         172         188         187
         4         172         173         189         188
         4         173         174         190         189
         4         174         175         191         190
         4         176         177         193         192
         4         177         178         194         193
         4         178         179         195         194
         4         179         180         196         195
         4         180         181         197         196
         4         181         182         198         197
         4         182         183         199         198
         4         183         184         200         199
         4         184         185         201         200
         4         185         186         202         201
         4         186         187         203         202
         4         187         188         204         203
         4         188         189         205         204
         4         189         190         206         205
         4         190         191         207         206
         4         192         193         209         208
         4         193         194         210         209
         4         194         195         211         210
         4         195         196         212         211
         4         196         197         213         212
         4         197         198         214         213
         4         198         199         215         214
         4         199         200         216         215
         4         200         201         217         216
         4         201         202         218         217
         4         202         203         219         218
         4         203         204         220         219
         4         204         205         221         220
         4         205         206         222         221
         4         206         207         223         222
         4         208         209         225         224
         4         209         210         226         225
         4         210         211         227         226
         4         211         212         228         227
         4         212         213         229         228
         4         213         214         230         229
         4         214         215         231         230
         4         215         216         232         231
         4         216         217         233         232
         4         217         218         234         233
         4         218         219         235         234
         4         219         220         236         235
         4         220         221         237         236
         4         221         222         238         237
         4         222         223         239         238
         4         224         225         241         240
         4         225         226         242         241
         4         226         227         243         242
         4         227         228         244         243
         4         228         229         245         244
         4         229         230         246         245
         4         230         231         247         246
         4         231         232         248         247
         4         232         233         249         248
         4         233         234         250         249
         4         234         235         251         250
         4         235         236         252         251
         4         236         237         253         252
         4         237         238         254         253
         4         238         239         255         254
         4         240         241         257         256
         4         241         242         258         257
         4         242         243         259         258
         4         243         244         260         259
         4         244         245         261         260
         4         245         246         262         261
         4         246         247         263         262
         4         247         248         264         263
         4         248         249         265         264
         4         249         250         266         265
         4         250         251         267         266
         4         251         252         268         267
         4         252         253         269         268
         4         253         254         270         269
         4         254         255         271         270
         4         256         257         273         272
         4         257         258         274         273
         4         258         259         275         274
         4         259         260         276         275
         4         260         261         277         276
         4         261         262         278         277
         4         262         263         279         278
         4         263         264         280         279
         4         264         265         281         280
         4         265         266         282         281
         4         266         267         283         282
         4         267         268         284         283
         4         268         269         285         284
         4         269         270         286         285
         4         270         271         287         286
         4         272         273         289         288
         4         273         274         290         289
         4         274         275         291         290
         4         275         276         292         291
         4         276         277         293         292
         4         277         278         294         293
         4         278         279         295         294
         4         279         280         296         295
         4         280         281         297         296
         4         281         282         298         297
         4         282         283         299         298
         4         283         284         300         299
         4         284         285         301         300
         4         285         286         302         301
         4         286         287         303         302
         4         288         289         305         304
         4         289         290         306         305
         4         290         291         307         306
         4         291         292         308         307
         4         292         293         309         308
         4         293         294         310         309
         4         294         295         311         310
         4         295         296         312         311
         4         296         297         313         312
         4         297         298         314         313
         4         298         299         315         314
         4         299         300         316         315
         4         300         301         317         316
         4         301         302         318         317
         4         302         303         319         318
         4         304         305         321         320
         4         305         306         322         321
         4         306         307         323         322
         4         307         308         324         323
         4         308         309         325         324
         4         309         310         326         325
         4         310         311         327         326
         4         311         312         328         327
         4         312         313         329         328
         4         313         314         330         329
         4         314         315         331         330
         4         315         316         332         331
         4         316         317         333         332
         4         317         318         334         333
         4         318         319         335         334
         4         320         321         337         336
         4         321         322         338         337
         4         322         323         339         338
         4         323         324         340         339
         4         324         325         341         340
         4         325         326         342         341
         4         326         327         343         342
         4         327         328         344         343
         4         328         329         345         344
         4         329         330         346         345
         4         330         331         347         346
         4         331         332         348         347
         4         332         333         349         348
         4         333         334         350         349
         4         334         335         351         350
         4         336         337         353         352
         4         337         338         354         353
         4         338         339         355         354
         4         339         340         356         355
         4         340         341         357         356
         4         341         342         358         357
         4         342         343         359         358
         4         343         344         360         359
         4         344         345         361         360
         4         345         346         362         361
         4         346         347         363         362
         4         347         348         364         363
         4         348         349         365         364
         4         349         350         366         365
         4         350         351         367         366
         4         352         353         369         368
         4         353         354         370         369
         4         354         355         371         370
         4         355         356         372         371
         4         356         357         373         372
         4         357         358         374         373
         4         358         359         375         374
         4         359         360         376         375
         4         360         361         377         376
         4         361         362         378         377
         4         362         363         379         378
         4         363         364         380         379
         4         364         365         381         380
         4         365         366         382         381
         4         366         367         383         382
         4         368         369         385         384
         4         369         370         386         385
         4         370         371         387         386
         4         371         372         388         387
         4         372         373         389         388
         4         373         374         390         389
         4         374         375         391         390
         4         375         376         392         391
         4         376         377         393         392
         4         377         378         394         393
         4         378         379         395         394
         4         379         380         396         395
         4         380         381         397         396
         4         381         382         398         397
         4         382         383         399         398
         4         384         385         401         400
         4         385         386         402         401
         4         386         387         403         402
         4         387         388         404         403
         4         388         389         405         404
         4         389         390         406         405
         4         390         391         407         406
         4         391         392         408         407
         4         392         393         409         408
         4         393         394         410         409
         4         394         395         411         410
         4         395         396         412         411
         4         396         397         413         412
         4         397         398         414         413
         4         398         399         415         414
         4         400         401         417         416
         4         401         402         418         417
         4         402         403         419         418
         4         403         404         420         419
         4         404         405         421         420
         4         405         406         422         421
         4         406         407         423         422
         4         407         408         424         423
         4         408         409         425         424
         4         409         410         426         425
         4         410         411         427         426
         4         411         412         428         427
         4         412         413         429         428
         4         413         414         430         429
         4         414         415         431         430
         4         416         417         433         432
         4         417         418         434         433
         4         418         419         435         434
         4         419         420         436         435
         4         420         421         437         436
         4         421         422         438         437
         4         422         423         439         438
         4         423         424         440         439
         4         424         425         441         440
         4         425         426         442         441
         4         426         427         443         442
         4         427         428         444         443
         4         428         429         445         444
         4         429         430         446         445
         4         430         431         447         446
         4         432         433         449         448
         4         433         434         450         449
         4         434         435         451         450
         4         435         436         452         451
         4         436         437         453         452
         4         437         438         454         453
         4         438         439         455         454
         4         439         440         456         455
         4         440         441         457         456
         4         441         442         458         457
         4         442         443         459         458
         4         443         444         460         459
         4         444         445         461         460
         4         445         446         462         461
         4         446         447         463         462
         4         448         449         465         464
         4         449         450         466         465
         4         450         451         467         466
         4         451         452         468         467
         4         452         453         469         468
         4         453         454         470         469
         4         454         455         471         470
         4         455         456         472         471
         4         456         457         473         472
         4         457         458         474         473
         4         458         459         475         474
         4         459         460         476         475
         4         460         461         477         476
         4         461         462         478         477
         4         462         463         479         478
         4         464         465         481         480
         4         465         466         482         481
         4         466         467         483         482
         4         467         468         484         483
         4         468         469         485         484
         4         469         470         486         485
         4         470         471         487         486
         4         471         472         488         487
         4         472         473         489         488
         4         473         474         490         489
         4         474         475         491         490
         4         475         476         492         491
         4         476         477         493         492
         4         477         478         494         493
         4         478         479         495         494
CELL_TYPES        450
9
9
9
9
9
9
9
9
9
9
9
9
9
9
9
9
9
9
9
9
9
9
9
9
9
9
9
9
9
9
9
9
9
9
9
9
9
9
9
9
9
9
9
9
9
9
9
9
9
9
9
9
9
9
9
9
9
9
9
9
9
9
9
9
9
9
9
9
9
9
9
9
9
9
9
9
9
9
9
9
9
9
9
9
9
9
9
9
9
9
9
9
9
9
9
9
9
9
9
9
9
9
9
9
9
9
9
9
9
9
9
9
9
9
9
9
9
9
9
9
9
9
9
9
9
9
9
9
9
9
9
9
9
9
9
9
9
9
9
9
9
9
9
9
9
9
9
9
9
9
9
9
9
9
9
9
9
9
9
9
9
9
9
9
9
9
9
9
9
9
9
9
9
9
9
9
9
9
9
9
9
9
9
9
9
9
9
9
9
9
9
9
9
9
9
9
9
9
9
9
9
9
9
9
9
9
9
9
9
9
9
9
9
9
9
9
9
9
9
9
9
9
9
9
9
9
9
9
9
9
9
9
9
9
9
9
9
9
9
9
9
9
9
9
9
9
9
9
9
9
9
9
9
9
9
9
9
9
9
9
9
9
9
9
9
9
9
9
9
9
9
9
9
9
9
9
9
9
9
9
9
9
9
9
9
9
9
9
9
9
9
9
9
9
9
9
9
9
9
9
9
9
9
9
9
9
9
9
9
9
9
9
9
9
9
9
9
9
9
9
9
9
9
9
9
9
9
9
9
9
9
9
9
9
9
9
9
9
9
9
9
9
9
9
9
9
9
9
9
9
9
9
9
9
9
9
9
9
9
9
9
9
9
9
9
9
9
9
9
9
9
9
9
9
9
9
9
9
9
9
9
9
9
9
9
9
9
9
9
9
9
9
9
9
9
9
9
9
9
9
9
9
9
9
9
9
9
9
9
9
9
9
9
9
9
9
9
9
9
9
9
9
9
9
9
9
9
9
9
9
9
9
9
9
9
9
9
9
9
9
9
9
9
9
9
9
9
9
9
9
POINT_DATA       496
SCALARS p double 
LOOKUP_TABLE default
   54876252.7473705     
   54899268.2658687     
   54962839.5404027     
   55059462.3757639     
   55181824.6452110     
   55322895.2701277     
   55475981.1940898     
   55634756.8342917     
   55793271.2387472     
   55945938.5709603     
   56087517.7207793     
   56213086.9268212     
   56318019.4118432     
   56397966.2976394     
   56448853.6093063     
   56466901.1488753     
   54870691.7159405     
   54893783.9033758     
   54957545.9067246     
   55054428.2458200     
   55177084.1305627     
   55318457.3276492     
   55471837.7602225     
   55630889.4357664     
   55789656.0181071     
   55942549.7269226     
   56084329.4006413     
   56210073.6228157     
   56315154.9077206     
   56395221.1873180     
   56446191.3666763     
   56464272.6658727     
   54853817.4426171     
   54877135.4827832     
   54941458.2999804     
   55039102.0283927     
   55162617.2933537     
   55304873.7188226     
   55459111.3874044     
   55618964.1890016     
   55778460.6373325     
   55932008.0220516     
   56074365.8418851     
   56200614.4603559     
   56306124.9599857     
   56386536.3607053     
   56437746.8380919     
   56455926.4702750     
   54825042.8046958     
   54848723.3570496     
   54913942.8151184     
   55012798.2875450     
   55137674.1487559     
   55281320.8789473     
   55436899.5711798     
   55597997.6214260     
   55758621.6228192     
   55913173.6360955     
   56056416.9574323     
   56183437.3854889     
   56289605.9204979     
   56370548.9233704     
   56422132.1406741     
   56440465.7980273     
   54783343.6446448     
   54807502.2930038     
   54873896.6714940     
   54974327.8355339     
   55100957.4609893     
   55246378.6036244     
   55403650.3636150     
   55566302.8061193     
   55728318.7830203     
   55884099.2463666     
   56028418.4057412     
   56156374.7964914     
   56263344.1102952     
   56344939.6012726     
   56396986.1294644     
   56415514.5642695     
   54727189.1795656     
   54751911.5966920     
   54819677.7208927     
   54921926.5582400     
   55050551.0095556     
   55197957.9866429     
   55357090.2464867     
   55521417.4049515     
   55684903.5823046     
   55841958.7934960     
   55987380.7045681     
   56116292.8717988     
   56224085.1738577     
   56306361.9366078     
   56358903.3318473     
   56377646.1157772     
   54654442.2874452     
   54679775.0395934     
   54749003.6297604     
   54853153.8478239     
   54983817.5259555     
   55133199.2530566     
   55294122.2823771     
   55460002.4995335     
   55624798.8900024     
   55782948.2274485     
   55929290.8865622     
   56058993.9037091     
   56167476.7668170     
   56250344.9941598     
   56303336.4383703     
   56322285.5181520     
   54562227.4722436     
   54588168.4272650     
   54658818.7037709     
   54764758.8273648     
   54897264.7860012     
   55048338.3430549     
   55210693.8217471     
   55377711.9422434     
   55543370.3023706     
   55702158.8886085     
   55848987.7817028     
   55979093.1086953     
   56087946.3727117     
   56171171.6216320     
   56224474.5500644     
   56243587.6319312     
   54446763.8289415     
   54473252.1853123     
   54545125.9022907     
   54652512.2096272     
   54786378.1056881     
   54938540.9911821     
   55101633.0720616     
   55269032.1324472     
   55434769.5526415     
   55593424.6356779     
   55740012.5989529     
   55869872.0902427     
   55978556.8505072     
   56061735.1931617     
   56115100.3206905     
   56134294.1894928     
   54303159.9967723     
   54330066.0219527     
   54402781.3300265     
   54511001.4636298     
   54645417.4410967     
   54797703.1382639     
   54960454.0776978     
   55127092.5169806     
   55291751.0653061     
   55449144.5123173     
   55594437.2888424     
   55723112.0565655     
   55830843.3432195     
   55913378.8765828     
   55966430.3003242     
   55985574.2745264     
   54125167.9850109     
   54152282.6446104     
   54225248.4803320     
   54333387.0607958     
   54467177.5315110     
   54618216.9081370     
   54779130.2128528     
   54943447.8200587     
   55105463.5587147     
   55260083.7223140     
   55402674.2653390     
   55528911.1007085     
   55634636.4804981     
   55715722.8497484     
   55767944.2306496     
   55786854.0741883     
   53904893.0003780     
   53931917.7821440     
   54004309.8677915     
   54111118.0723477     
   54242710.1892149     
   54390702.2167288     
   54547837.2868148     
   54707834.1479150     
   54865219.8623795     
   55015157.0498775     
   55153272.5248104     
   55275491.3961080     
   55377878.4355131     
   55456486.5935867     
   55507210.8032986     
   55525643.5613888     
   53632457.1734542     
   53658994.5736442     
   53729734.6148880     
   53833606.4878509     
   53961009.1292795     
   54103705.5529214     
   54254668.9848266     
   54407902.8510076     
   54558249.9310459     
   54701200.7303719     
   54832707.1100300     
   54949004.1129171     
   55046440.3984935     
   55121315.4480865     
   55169719.5035439     
   55187369.9028228     
   53295616.6283419     
   53321161.9902443     
   53388902.3221704     
   53487861.6048968     
   53608659.9327627     
   53743369.8525677     
   53885329.8687412     
   54028938.5791358     
   54169444.5858646     
   54302741.2869341     
   54425171.3304429     
   54533342.2900290     
   54623952.4522457     
   54693623.0623499     
   54738730.6445463     
   54755229.8972461     
   52879334.0335841     
   52903269.7354283     
   52966386.5473965     
   53058089.1067708     
   53169461.2478089     
   53293083.0567996     
   53422814.8775887     
   53553571.6182443     
   53681101.0222174     
   53801773.1710426     
   53912384.2850732     
   54009974.8798418     
   54091659.7207599     
   54154464.2210003     
   54195158.5603149     
   54210076.6333325     
   52365313.1422779     
   52386906.5639386     
   52443506.0099367     
   52525264.5708719     
   52624028.7116008     
   52733118.4164547     
   52847089.6464678     
   52961499.7205432     
   53072685.8795915     
   53177561.3868083     
   53273430.1782648     
   53357818.7968334     
   53428322.0472162     
   53482455.7949857     
   53517506.1621966     
   53530358.8068989     
   51731508.6311521     
   51749915.9430014     
   51797859.0206850     
   51866698.9347493     
   51949401.0818707     
   52040287.5579259     
   52134793.5800381     
   52229241.6932637     
   52320638.0190145     
   52406490.8839419     
   52484650.8271025     
   52553170.1324351     
   52610178.3756009     
   52653767.2446979     
   52681872.6561533     
   52692134.7308845     
   50951634.8554707     
   50965913.5490744     
   51002867.7362618     
   51055624.9889198     
   51118679.7154845     
   51187638.6416733     
   51258998.1918230     
   51329954.5505788     
   51398241.5054520     
   51461991.6551931     
   51519618.8119768     
   51569720.8450087     
   51611001.4983125     
   51642206.1967097     
   51662060.1470188     
   51669186.9843442     
   49994712.4661864     
   50003846.7953014     
   50027375.2091715     
   50060850.7536669     
   50100749.1416062     
   50144247.7093306     
   50189067.5953029     
   50233358.6845427     
   50275610.0995255     
   50314577.4896177     
   50349226.1310447     
   50378693.3216321     
   50402273.9514314     
   50419429.1410332     
   50429809.1212020     
   50433267.8755402     
   48824714.3241163     
   48827659.5891479     
   48835361.9981606     
   48846549.5945458     
   48860149.6843891     
   48875172.7781357     
   48890687.1057499     
   48905831.9119189     
   48919838.2939602     
   48932047.5745048     
   48941932.2628184     
   48949132.4357985     
   48953521.7148841     
   48955312.3278980     
   48955197.4548476     
   48954510.4926271     
   47400404.7946300     
   47396158.8586582     
   47385883.2264069     
   47372290.6394514     
   47357204.7775378     
   47341668.6547175     
   47326150.4622566     
   47310753.9270729     
   47295391.0238505     
   47279914.0402081     
   47264226.6418700     
   47248403.4564392     
   47232849.2780450     
   47218523.6725714     
   47207242.7982471     
   47202045.2451578     
   45675513.5354765     
   45663227.2891861     
   45633375.3074013     
   45593459.4734803     
   45548547.6277717     
   45501796.6631231     
   45455026.5084311     
   45409207.8251140     
   45364824.9966160     
   45322135.7100062     
   45281374.4668029     
   45242955.1326688     
   45207728.1397353     
   45177343.3089756     
   45154754.2618659     
   45144867.7884244     
   43599452.2652033     
   43578595.0886124     
   43528549.1128905     
   43462281.3516289     
   43388245.2852259     
   43311607.1356963     
   43235361.4533736     
   43161174.4871749     
   43089959.4094160     
   43022259.7790410     
   42958532.9730425     
   42899422.0017676     
   42846102.1171561     
   42800789.1421729     
   42767486.8147356     
   42753011.6029776     
   41118879.2741718     
   41089480.7468939     
   41020179.2348554     
   40929739.4321460     
   40829781.4651192     
   40727120.3621905     
   40625610.1222728     
   40527387.2750489     
   40433643.0026636     
   40345100.8691240     
   40262350.7867982     
   40186161.5606144     
   40117889.3599544     
   40060115.7433371     
   40017661.4629488     
   39999087.9771400     
   38180554.1985921     
   38143548.4909140     
   38058223.4450577     
   37948776.6896076     
   37829224.6626840     
   37707374.9041004     
   37587522.6955813     
   37472046.1386511     
   37362298.8651842     
   37259124.6297394     
   37163201.4888694     
   37075356.6508231     
   36996987.6596248     
   36930772.7722928     
   36881926.9703731     
   36860268.3009241     
   34736124.5193569     
   34693825.3832432     
   34598864.8681360     
   34479266.7748833     
   34349952.8838545     
   34218832.8194951     
   34090232.7610678     
   33966619.4459810     
   33849470.5472683     
   33739757.3688095     
   33638264.1290724     
   33545873.6112492     
   33463936.8636223     
   33394938.0281571     
   33343855.0325238     
   33320798.3827648     
   30749777.9979336     
   30706498.6616486     
   30612243.3556084     
   30495283.6541628     
   30369280.3200493     
   30241401.8232958     
   30115789.6518659     
   29994989.5089991     
   29880648.7795469     
   29773922.5406846     
   29675764.0355627     
   29587174.4469863     
   29509484.5493411     
   29444791.4535882     
   29397080.6198826     
   29375146.7306871     
   26210153.6278670     
   26172899.2993765     
   26093730.6272708     
   25995041.0384732     
   25887147.0134263     
   25776235.6059770     
   25666357.7187305     
   25560237.5275994     
   25459737.4212426     
   25366218.4331602     
   25280835.1921194     
   25204781.0203712     
   25139487.3990430     
   25086816.6234777     
   25049206.4236481     
   25031899.6285821     
   21148690.1218053     
   21127433.9763297     
   21079153.2093680     
   21013152.9352421     
   20936648.8407051     
   20855331.0262855     
   20773325.0811312     
   20693450.3923763     
   20617633.6097812     
   20547293.1474511     
   20483662.6105352     
   20428058.6649488     
   20382081.9689884     
   20347649.6447358     
   20326687.1379392     
   20318316.8648857     
   15668381.4911366     
   15673091.4246064     
   15661357.5007095     
   15633515.2887788     
   15595723.5744988     
   15553007.5427173     
   15508746.0009551     
   15465117.7890317     
   15423560.0875189     
   15385119.8604219     
   15350726.0264954     
   15321420.2485123     
   15298567.8117226     
   15284003.4302288     
   15279807.6123338     
   15286294.5663339     
   10000000.0000000     
   10000000.0000000     
   10000000.0000000     
   10000000.0000000     
   10000000.0000000     
   10000000.0000000     
   10000000.0000000     
   10000000.0000000     
   10000000.0000000     
   10000000.0000000     
   10000000.0000000     
   10000000.0000000     
   10000000.0000000     
  10000000.00000000     
   10000000.0000000     
   10000000.0000000     
VECTORS u double 
    0.00000E+00        -0.52957E-02         0.00000E+00
    0.00000E+00        -0.47343E-02         0.00000E+00
    0.00000E+00        -0.41893E-02         0.00000E+00
    0.00000E+00        -0.36674E-02         0.00000E+00
    0.00000E+00        -0.31736E-02         0.00000E+00
    0.00000E+00        -0.27116E-02         0.00000E+00
    0.00000E+00        -0.22838E-02         0.00000E+00
    0.00000E+00        -0.18918E-02         0.00000E+00
    0.00000E+00        -0.15363E-02         0.00000E+00
    0.00000E+00        -0.12173E-02         0.00000E+00
    0.00000E+00        -0.93423E-03         0.00000E+00
    0.00000E+00        -0.68594E-03         0.00000E+00
    0.00000E+00        -0.47080E-03         0.00000E+00
    0.00000E+00        -0.28664E-03         0.00000E+00
    0.00000E+00        -0.13078E-03         0.00000E+00
    0.00000E+00         0.00000E+00         0.00000E+00
    0.69511E-03        -0.53123E-02         0.00000E+00
    0.65809E-03        -0.47501E-02         0.00000E+00
    0.61500E-03        -0.42044E-02         0.00000E+00
    0.56761E-03        -0.36818E-02         0.00000E+00
    0.51741E-03        -0.31873E-02         0.00000E+00
    0.46558E-03        -0.27245E-02         0.00000E+00
    0.41309E-03        -0.22959E-02         0.00000E+00
    0.36070E-03        -0.19029E-02         0.00000E+00
    0.30900E-03        -0.15463E-02         0.00000E+00
    0.25847E-03        -0.12260E-02         0.00000E+00
    0.20949E-03        -0.94162E-03         0.00000E+00
    0.16242E-03        -0.69190E-03         0.00000E+00
    0.11759E-03        -0.47527E-03         0.00000E+00
    0.75336E-04        -0.28960E-03         0.00000E+00
    0.36016E-04        -0.13224E-03         0.00000E+00
    0.00000E+00         0.00000E+00         0.00000E+00
    0.13934E-02        -0.53626E-02         0.00000E+00
    0.13185E-02        -0.47980E-02         0.00000E+00
    0.12316E-02        -0.42502E-02         0.00000E+00
    0.11363E-02        -0.37255E-02         0.00000E+00
    0.10356E-02        -0.32289E-02         0.00000E+00
    0.93172E-03        -0.27638E-02         0.00000E+00
    0.82665E-03        -0.23325E-02         0.00000E+00
    0.72185E-03        -0.19365E-02         0.00000E+00
    0.61848E-03        -0.15765E-02         0.00000E+00
    0.51745E-03        -0.12526E-02         0.00000E+00
    0.41952E-03        -0.96406E-03         0.00000E+00
    0.32538E-03        -0.71000E-03         0.00000E+00
    0.23566E-03        -0.48884E-03         0.00000E+00
    0.15105E-03        -0.29858E-03         0.00000E+00
    0.72242E-04        -0.13666E-03         0.00000E+00
    0.00000E+00         0.00000E+00         0.00000E+00
    0.20980E-02        -0.54481E-02         0.00000E+00
    0.19834E-02        -0.48796E-02         0.00000E+00
    0.18514E-02        -0.43282E-02         0.00000E+00
    0.17072E-02        -0.38001E-02         0.00000E+00
    0.15552E-02        -0.32998E-02         0.00000E+00
    0.13989E-02        -0.28307E-02         0.00000E+00
    0.12411E-02        -0.23950E-02         0.00000E+00
    0.10839E-02        -0.19939E-02         0.00000E+00
    0.92888E-03        -0.16282E-02         0.00000E+00
    0.77744E-03        -0.12978E-02         0.00000E+00
    0.63063E-03        -0.10023E-02         0.00000E+00
    0.48941E-03        -0.74085E-03         0.00000E+00
    0.35471E-03        -0.51200E-03         0.00000E+00
    0.22752E-03        -0.31390E-03         0.00000E+00
    0.10890E-03        -0.14421E-03         0.00000E+00
    0.00000E+00         0.00000E+00         0.00000E+00
    0.28119E-02        -0.55713E-02         0.00000E+00
    0.26549E-02        -0.49972E-02         0.00000E+00
    0.24756E-02        -0.44408E-02         0.00000E+00
    0.22811E-02        -0.39078E-02         0.00000E+00
    0.20769E-02        -0.34024E-02         0.00000E+00
    0.18676E-02        -0.29275E-02         0.00000E+00
    0.16568E-02        -0.24853E-02         0.00000E+00
    0.14471E-02        -0.20769E-02         0.00000E+00
    0.12407E-02        -0.17028E-02         0.00000E+00
    0.10390E-02        -0.13632E-02         0.00000E+00
    0.84340E-03        -0.10577E-02         0.00000E+00
    0.65511E-03        -0.78553E-03         0.00000E+00
    0.47529E-03        -0.54551E-03         0.00000E+00
    0.30519E-03        -0.33607E-03         0.00000E+00
    0.14624E-03        -0.15512E-03         0.00000E+00
    0.00000E+00         0.00000E+00         0.00000E+00
    0.35374E-02        -0.57356E-02         0.00000E+00
    0.33346E-02        -0.51544E-02         0.00000E+00
    0.31054E-02        -0.45915E-02         0.00000E+00
    0.28586E-02        -0.40520E-02         0.00000E+00
    0.26010E-02        -0.35398E-02         0.00000E+00
    0.23381E-02        -0.30574E-02         0.00000E+00
    0.20740E-02        -0.26065E-02         0.00000E+00
    0.18119E-02        -0.21882E-02         0.00000E+00
    0.15542E-02        -0.18031E-02         0.00000E+00
    0.13025E-02        -0.14511E-02         0.00000E+00
    0.10584E-02        -0.11320E-02         0.00000E+00
    0.82312E-03        -0.84546E-03         0.00000E+00
    0.59799E-03        -0.59047E-03         0.00000E+00
    0.38454E-03        -0.36581E-03         0.00000E+00
    0.18454E-03        -0.16976E-03         0.00000E+00
    0.00000E+00         0.00000E+00         0.00000E+00
    0.42769E-02        -0.59455E-02         0.00000E+00
    0.40237E-02        -0.53556E-02         0.00000E+00
    0.37413E-02        -0.47846E-02         0.00000E+00
    0.34399E-02        -0.42370E-02         0.00000E+00
    0.31275E-02        -0.37162E-02         0.00000E+00
    0.28102E-02        -0.32241E-02         0.00000E+00
    0.24927E-02        -0.27623E-02         0.00000E+00
    0.21785E-02        -0.23314E-02         0.00000E+00
    0.18699E-02        -0.19319E-02         0.00000E+00
    0.15687E-02        -0.15640E-02         0.00000E+00
    0.12763E-02        -0.12276E-02         0.00000E+00
    0.99412E-03        -0.92251E-03         0.00000E+00
    0.72349E-03        -0.64827E-03         0.00000E+00
    0.46613E-03        -0.40404E-03         0.00000E+00
    0.22413E-03        -0.18856E-03         0.00000E+00
    0.00000E+00         0.00000E+00         0.00000E+00
    0.50317E-02        -0.62065E-02         0.00000E+00
    0.47230E-02        -0.56061E-02         0.00000E+00
    0.43835E-02        -0.50254E-02         0.00000E+00
    0.40249E-02        -0.44680E-02         0.00000E+00
    0.36560E-02        -0.39366E-02         0.00000E+00
    0.32837E-02        -0.34326E-02         0.00000E+00
    0.29128E-02        -0.29570E-02         0.00000E+00
    0.25468E-02        -0.25103E-02         0.00000E+00
    0.21879E-02        -0.20930E-02         0.00000E+00
    0.18378E-02        -0.17052E-02         0.00000E+00
    0.14978E-02        -0.13471E-02         0.00000E+00
    0.11689E-02        -0.10189E-02         0.00000E+00
    0.85254E-03        -0.72056E-03         0.00000E+00
    0.55059E-03        -0.45184E-03         0.00000E+00
    0.26540E-03        -0.21207E-03         0.00000E+00
    0.00000E+00         0.00000E+00         0.00000E+00
    0.58026E-02        -0.65251E-02         0.00000E+00
    0.54323E-02        -0.59124E-02         0.00000E+00
    0.50314E-02        -0.53202E-02         0.00000E+00
    0.46127E-02        -0.47511E-02         0.00000E+00
    0.41859E-02        -0.42069E-02         0.00000E+00
    0.37579E-02        -0.36883E-02         0.00000E+00
    0.33338E-02        -0.31959E-02         0.00000E+00
    0.29167E-02        -0.27300E-02         0.00000E+00
    0.25085E-02        -0.22907E-02         0.00000E+00
    0.21105E-02        -0.18785E-02         0.00000E+00
    0.17234E-02        -0.14938E-02         0.00000E+00
    0.13482E-02        -0.11372E-02         0.00000E+00
    0.98599E-03        -0.80928E-03         0.00000E+00
    0.63865E-03        -0.51050E-03         0.00000E+00
    0.30880E-03        -0.24091E-03         0.00000E+00
    0.00000E+00         0.00000E+00         0.00000E+00
    0.65894E-02        -0.69086E-02         0.00000E+00
    0.61507E-02        -0.62818E-02         0.00000E+00
    0.56836E-02        -0.56761E-02         0.00000E+00
    0.52019E-02        -0.50931E-02         0.00000E+00
    0.47156E-02        -0.45336E-02         0.00000E+00
    0.42317E-02        -0.39976E-02         0.00000E+00
    0.37549E-02        -0.34849E-02         0.00000E+00
    0.32877E-02        -0.29955E-02         0.00000E+00
    0.28316E-02        -0.25297E-02         0.00000E+00
    0.23869E-02        -0.20880E-02         0.00000E+00
    0.19539E-02        -0.16711E-02         0.00000E+00
    0.15329E-02        -0.12802E-02         0.00000E+00
    0.11247E-02        -0.91658E-03         0.00000E+00
    0.73110E-03        -0.58144E-03         0.00000E+00
    0.35482E-03        -0.27578E-03         0.00000E+00
    0.00000E+00         0.00000E+00         0.00000E+00
    0.73907E-02        -0.73655E-02         0.00000E+00
    0.68761E-02        -0.67223E-02         0.00000E+00
    0.63378E-02        -0.61010E-02         0.00000E+00
    0.57900E-02        -0.55018E-02         0.00000E+00
    0.52430E-02        -0.49241E-02         0.00000E+00
    0.47032E-02        -0.43671E-02         0.00000E+00
    0.41747E-02        -0.38302E-02         0.00000E+00
    0.36592E-02        -0.33128E-02         0.00000E+00
    0.31570E-02        -0.28153E-02         0.00000E+00
    0.26675E-02        -0.23382E-02         0.00000E+00
    0.21899E-02        -0.18829E-02         0.00000E+00
    0.17240E-02        -0.14511E-02         0.00000E+00
    0.12698E-02        -0.10448E-02         0.00000E+00
    0.82882E-03        -0.66622E-03         0.00000E+00
    0.40403E-03        -0.31745E-03         0.00000E+00
    0.00000E+00         0.00000E+00         0.00000E+00
    0.82037E-02        -0.79048E-02         0.00000E+00
    0.76053E-02        -0.72430E-02         0.00000E+00
    0.69904E-02        -0.66036E-02         0.00000E+00
    0.63738E-02        -0.59853E-02         0.00000E+00
    0.57651E-02        -0.53862E-02         0.00000E+00
    0.51701E-02        -0.48043E-02         0.00000E+00
    0.45916E-02        -0.42385E-02         0.00000E+00
    0.40300E-02        -0.36880E-02         0.00000E+00
    0.34841E-02        -0.31528E-02         0.00000E+00
    0.29520E-02        -0.26340E-02         0.00000E+00
    0.24319E-02        -0.21333E-02         0.00000E+00
    0.19221E-02        -0.16530E-02         0.00000E+00
    0.14220E-02        -0.11963E-02         0.00000E+00
    0.93273E-03        -0.76647E-03         0.00000E+00
    0.45705E-03        -0.36673E-03         0.00000E+00
    0.00000E+00         0.00000E+00         0.00000E+00
    0.90239E-02        -0.85364E-02         0.00000E+00
    0.83331E-02        -0.78533E-02         0.00000E+00
    0.76366E-02        -0.71931E-02         0.00000E+00
    0.69487E-02        -0.65524E-02         0.00000E+00
    0.62780E-02        -0.59279E-02         0.00000E+00
    0.56291E-02        -0.53168E-02         0.00000E+00
    0.50030E-02        -0.47168E-02         0.00000E+00
    0.43982E-02        -0.41272E-02         0.00000E+00
    0.38119E-02        -0.35478E-02         0.00000E+00
    0.32404E-02        -0.29800E-02         0.00000E+00
    0.26801E-02        -0.24261E-02         0.00000E+00
    0.21280E-02        -0.18894E-02         0.00000E+00
    0.15824E-02        -0.13738E-02         0.00000E+00
    0.10438E-02        -0.88389E-03         0.00000E+00
    0.51449E-03        -0.42448E-03         0.00000E+00
    0.00000E+00         0.00000E+00         0.00000E+00
    0.98446E-02        -0.92708E-02         0.00000E+00
    0.90529E-02        -0.85634E-02         0.00000E+00
    0.82699E-02        -0.78789E-02         0.00000E+00
    0.75087E-02        -0.72120E-02         0.00000E+00
    0.67766E-02        -0.65577E-02         0.00000E+00
    0.60760E-02        -0.59119E-02         0.00000E+00
    0.54056E-02        -0.52720E-02         0.00000E+00
    0.47617E-02        -0.46365E-02         0.00000E+00
    0.41390E-02        -0.40056E-02         0.00000E+00
    0.35318E-02        -0.33810E-02         0.00000E+00
    0.29344E-02        -0.27655E-02         0.00000E+00
    0.23421E-02        -0.21633E-02         0.00000E+00
    0.17518E-02        -0.15795E-02         0.00000E+00
    0.11627E-02        -0.10201E-02         0.00000E+00
    0.57698E-03        -0.49154E-03         0.00000E+00
    0.00000E+00         0.00000E+00         0.00000E+00
    0.10657E-01        -0.10119E-01         0.00000E+00
    0.97558E-02        -0.93833E-02         0.00000E+00
    0.88818E-02        -0.86706E-02         0.00000E+00
    0.80464E-02        -0.79729E-02         0.00000E+00
    0.72544E-02        -0.72835E-02         0.00000E+00
    0.65053E-02        -0.65971E-02         0.00000E+00
    0.57951E-02        -0.59103E-02         0.00000E+00
    0.51171E-02        -0.52216E-02         0.00000E+00
    0.44632E-02        -0.45312E-02         0.00000E+00
    0.38249E-02        -0.38411E-02         0.00000E+00
    0.31943E-02        -0.31549E-02         0.00000E+00
    0.25645E-02        -0.24777E-02         0.00000E+00
    0.19306E-02        -0.18158E-02         0.00000E+00
    0.12904E-02        -0.11768E-02         0.00000E+00
    0.64508E-03        -0.56873E-03         0.00000E+00
    0.00000E+00         0.00000E+00         0.00000E+00
    0.11449E-01        -0.11091E-01         0.00000E+00
    0.10431E-01        -0.10323E-01         0.00000E+00
    0.94622E-02        -0.95776E-02         0.00000E+00
    0.85527E-02        -0.88436E-02         0.00000E+00
    0.77035E-02        -0.81128E-02         0.00000E+00
    0.69107E-02        -0.73788E-02         0.00000E+00
    0.61663E-02        -0.66376E-02         0.00000E+00
    0.54603E-02        -0.58874E-02         0.00000E+00
    0.47812E-02        -0.51287E-02         0.00000E+00
    0.41176E-02        -0.43639E-02         0.00000E+00
    0.34585E-02        -0.35973E-02         0.00000E+00
    0.27947E-02        -0.28350E-02         0.00000E+00
    0.21188E-02        -0.20847E-02         0.00000E+00
    0.14271E-02        -0.13553E-02         0.00000E+00
    0.71922E-03        -0.65679E-03         0.00000E+00
    0.00000E+00         0.00000E+00         0.00000E+00
    0.12206E-01        -0.12199E-01         0.00000E+00
    0.11063E-01        -0.11393E-01         0.00000E+00
    0.99982E-02        -0.10608E-01         0.00000E+00
    0.90163E-02        -0.98314E-02         0.00000E+00
    0.81144E-02        -0.90519E-02         0.00000E+00
    0.72838E-02        -0.82623E-02         0.00000E+00
    0.65125E-02        -0.74580E-02         0.00000E+00
    0.57859E-02        -0.66373E-02         0.00000E+00
    0.50890E-02        -0.58009E-02         0.00000E+00
    0.44067E-02        -0.49517E-02         0.00000E+00
    0.37249E-02        -0.40947E-02         0.00000E+00
    0.30313E-02        -0.32371E-02         0.00000E+00
    0.23160E-02        -0.23875E-02         0.00000E+00
    0.15728E-02        -0.15566E-02         0.00000E+00
    0.79963E-03        -0.75636E-03         0.00000E+00
    0.00000E+00         0.00000E+00         0.00000E+00
    0.12910E-01        -0.13450E-01         0.00000E+00
    0.11636E-01        -0.12601E-01         0.00000E+00
    0.10475E-01        -0.11770E-01         0.00000E+00
    0.94240E-02        -0.10942E-01         0.00000E+00
    0.84756E-02        -0.10105E-01         0.00000E+00
    0.76153E-02        -0.92509E-02         0.00000E+00
    0.68255E-02        -0.83740E-02         0.00000E+00
    0.60871E-02        -0.74729E-02         0.00000E+00
    0.53808E-02        -0.65489E-02         0.00000E+00
    0.46876E-02        -0.56053E-02         0.00000E+00
    0.39898E-02        -0.46480E-02         0.00000E+00
    0.32717E-02        -0.36846E-02         0.00000E+00
    0.25205E-02        -0.27251E-02         0.00000E+00
    0.17269E-02        -0.17815E-02         0.00000E+00
    0.88617E-03        -0.86788E-03         0.00000E+00
    0.00000E+00         0.00000E+00         0.00000E+00
    0.13537E-01        -0.14855E-01         0.00000E+00
    0.12130E-01        -0.13953E-01         0.00000E+00
    0.10873E-01        -0.13068E-01         0.00000E+00
    0.97602E-02        -0.12180E-01         0.00000E+00
    0.87739E-02        -0.11276E-01         0.00000E+00
    0.78935E-02        -0.10346E-01         0.00000E+00
    0.70955E-02        -0.93853E-02         0.00000E+00
    0.63555E-02        -0.83934E-02         0.00000E+00
    0.56493E-02        -0.73715E-02         0.00000E+00
    0.49540E-02        -0.63236E-02         0.00000E+00
    0.42480E-02        -0.52559E-02         0.00000E+00
    0.35120E-02        -0.41769E-02         0.00000E+00
    0.27295E-02        -0.30973E-02         0.00000E+00
    0.18876E-02        -0.20302E-02         0.00000E+00
    0.97821E-03        -0.99158E-03         0.00000E+00
    0.00000E+00         0.00000E+00         0.00000E+00
    0.14061E-01        -0.16418E-01         0.00000E+00
    0.12519E-01        -0.15455E-01         0.00000E+00
    0.11174E-01        -0.14505E-01         0.00000E+00
    0.10007E-01        -0.13545E-01         0.00000E+00
    0.89938E-02        -0.12561E-01         0.00000E+00
    0.81052E-02        -0.11543E-01         0.00000E+00
    0.73107E-02        -0.10488E-01         0.00000E+00
    0.65803E-02        -0.93944E-02         0.00000E+00
    0.58849E-02        -0.82644E-02         0.00000E+00
    0.51973E-02        -0.71025E-02         0.00000E+00
    0.44921E-02        -0.59154E-02         0.00000E+00
    0.37460E-02        -0.47117E-02         0.00000E+00
    0.29383E-02        -0.35025E-02         0.00000E+00
    0.20519E-02        -0.23020E-02         0.00000E+00
    0.10744E-02        -0.11274E-02         0.00000E+00
    0.00000E+00         0.00000E+00         0.00000E+00
    0.14449E-01        -0.18142E-01         0.00000E+00
    0.12776E-01        -0.17106E-01         0.00000E+00
    0.11351E-01        -0.16078E-01         0.00000E+00
    0.10144E-01        -0.15033E-01         0.00000E+00
    0.91179E-02        -0.13956E-01         0.00000E+00
    0.82350E-02        -0.12837E-01         0.00000E+00
    0.74573E-02        -0.11674E-01         0.00000E+00
    0.67487E-02        -0.10468E-01         0.00000E+00
    0.60755E-02        -0.92195E-02         0.00000E+00
    0.54063E-02        -0.79349E-02         0.00000E+00
    0.47117E-02        -0.66205E-02         0.00000E+00
    0.39647E-02        -0.52846E-02         0.00000E+00
    0.31400E-02        -0.39381E-02         0.00000E+00
    0.22153E-02        -0.25954E-02         0.00000E+00
    0.11726E-02        -0.12749E-02         0.00000E+00
    0.00000E+00         0.00000E+00         0.00000E+00
    0.14663E-01        -0.20024E-01         0.00000E+00
    0.12869E-01        -0.18902E-01         0.00000E+00
    0.11380E-01        -0.17781E-01         0.00000E+00
    0.10148E-01        -0.16634E-01         0.00000E+00
    0.91267E-02        -0.15448E-01         0.00000E+00
    0.82655E-02        -0.14214E-01         0.00000E+00
    0.75189E-02        -0.12930E-01         0.00000E+00
    0.68451E-02        -0.11599E-01         0.00000E+00
    0.62058E-02        -0.10224E-01         0.00000E+00
    0.55661E-02        -0.88096E-02         0.00000E+00
    0.48932E-02        -0.73620E-02         0.00000E+00
    0.41560E-02        -0.58886E-02         0.00000E+00
    0.33246E-02        -0.43994E-02         0.00000E+00
    0.23707E-02        -0.29080E-02         0.00000E+00
    0.12691E-02        -0.14331E-02         0.00000E+00
    0.00000E+00         0.00000E+00         0.00000E+00
    0.14660E-01        -0.22056E-01         0.00000E+00
    0.12762E-01        -0.20831E-01         0.00000E+00
    0.11229E-01        -0.19598E-01         0.00000E+00
    0.99959E-02        -0.18332E-01         0.00000E+00
    0.89988E-02        -0.17019E-01         0.00000E+00
    0.81770E-02        -0.15653E-01         0.00000E+00
    0.74767E-02        -0.14236E-01         0.00000E+00
    0.68505E-02        -0.12770E-01         0.00000E+00
    0.62569E-02        -0.11260E-01         0.00000E+00
    0.56580E-02        -0.97111E-02         0.00000E+00
    0.50185E-02        -0.81271E-02         0.00000E+00
    0.43036E-02        -0.65141E-02         0.00000E+00
    0.34785E-02        -0.48799E-02         0.00000E+00
    0.25082E-02        -0.32362E-02         0.00000E+00
    0.13588E-02        -0.16009E-02         0.00000E+00
    0.00000E+00         0.00000E+00         0.00000E+00
    0.14390E-01        -0.24220E-01         0.00000E+00
    0.12414E-01        -0.22873E-01         0.00000E+00
    0.10866E-01        -0.21508E-01         0.00000E+00
    0.96599E-02        -0.20101E-01         0.00000E+00
    0.87112E-02        -0.18641E-01         0.00000E+00
    0.79479E-02        -0.17127E-01         0.00000E+00
    0.73088E-02        -0.15563E-01         0.00000E+00
    0.67425E-02        -0.13954E-01         0.00000E+00
    0.62055E-02        -0.12305E-01         0.00000E+00
    0.56585E-02        -0.10619E-01         0.00000E+00
    0.50645E-02        -0.88990E-02         0.00000E+00
    0.43859E-02        -0.71483E-02         0.00000E+00
    0.35834E-02        -0.53708E-02         0.00000E+00
    0.26144E-02        -0.35751E-02         0.00000E+00
    0.14346E-02        -0.17762E-02         0.00000E+00
    0.00000E+00         0.00000E+00         0.00000E+00
    0.13798E-01        -0.26487E-01         0.00000E+00
    0.11782E-01        -0.24995E-01         0.00000E+00
    0.10260E-01        -0.23474E-01         0.00000E+00
    0.91136E-02        -0.21902E-01         0.00000E+00
    0.82397E-02        -0.20275E-01         0.00000E+00
    0.75542E-02        -0.18597E-01         0.00000E+00
    0.69902E-02        -0.16876E-01         0.00000E+00
    0.64946E-02        -0.15118E-01         0.00000E+00
    0.60236E-02        -0.13328E-01         0.00000E+00
    0.55385E-02        -0.11507E-01         0.00000E+00
    0.50021E-02        -0.96568E-02         0.00000E+00
    0.43755E-02        -0.77749E-02         0.00000E+00
    0.36153E-02        -0.58610E-02         0.00000E+00
    0.26712E-02        -0.39181E-02         0.00000E+00
    0.14865E-02        -0.19567E-02         0.00000E+00
    0.00000E+00         0.00000E+00         0.00000E+00
    0.12822E-01        -0.28812E-01         0.00000E+00
    0.10823E-01        -0.27150E-01         0.00000E+00
    0.93771E-02        -0.25446E-01         0.00000E+00
    0.83305E-02        -0.23685E-01         0.00000E+00
    0.75593E-02        -0.21870E-01         0.00000E+00
    0.69697E-02        -0.20015E-01         0.00000E+00
    0.64924E-02        -0.18129E-01         0.00000E+00
    0.60756E-02        -0.16221E-01         0.00000E+00
    0.56778E-02        -0.14294E-01         0.00000E+00
    0.52630E-02        -0.12346E-01         0.00000E+00
    0.47959E-02        -0.10375E-01         0.00000E+00
    0.42381E-02        -0.83745E-02         0.00000E+00
    0.35435E-02        -0.63367E-02         0.00000E+00
    0.26549E-02        -0.42574E-02         0.00000E+00
    0.15013E-02        -0.21393E-02         0.00000E+00
    0.00000E+00         0.00000E+00         0.00000E+00
    0.11397E-01        -0.31129E-01         0.00000E+00
    0.94926E-02        -0.29270E-01         0.00000E+00
    0.81873E-02        -0.27354E-01         0.00000E+00
    0.72857E-02        -0.25378E-01         0.00000E+00
    0.66443E-02        -0.23361E-01         0.00000E+00
    0.61653E-02        -0.21321E-01         0.00000E+00
    0.57826E-02        -0.19271E-01         0.00000E+00
    0.54493E-02        -0.17219E-01         0.00000E+00
    0.51292E-02        -0.15164E-01         0.00000E+00
    0.47912E-02        -0.13102E-01         0.00000E+00
    0.44040E-02        -0.11026E-01         0.00000E+00
    0.39321E-02        -0.89240E-02         0.00000E+00
    0.33296E-02        -0.67811E-02         0.00000E+00
    0.25344E-02        -0.45828E-02         0.00000E+00
    0.14611E-02        -0.23201E-02         0.00000E+00
    0.00000E+00         0.00000E+00         0.00000E+00
    0.94566E-02        -0.33344E-01         0.00000E+00
    0.77532E-02        -0.31259E-01         0.00000E+00
    0.66675E-02        -0.29101E-01         0.00000E+00
    0.59566E-02        -0.26892E-01         0.00000E+00
    0.54671E-02        -0.24666E-01         0.00000E+00
    0.51079E-02        -0.22446E-01         0.00000E+00
    0.48229E-02        -0.20244E-01         0.00000E+00
    0.45745E-02        -0.18062E-01         0.00000E+00
    0.43342E-02        -0.15896E-01         0.00000E+00
    0.40773E-02        -0.13739E-01         0.00000E+00
    0.37787E-02        -0.11578E-01         0.00000E+00
    0.34086E-02        -0.93969E-02         0.00000E+00
    0.29261E-02        -0.71736E-02         0.00000E+00
    0.22694E-02        -0.48815E-02         0.00000E+00
    0.13415E-02        -0.24941E-02         0.00000E+00
    0.00000E+00         0.00000E+00         0.00000E+00
    0.69351E-02        -0.35319E-01         0.00000E+00
    0.55815E-02        -0.32981E-01         0.00000E+00
    0.48046E-02        -0.30559E-01         0.00000E+00
    0.43217E-02        -0.28115E-01         0.00000E+00
    0.39956E-02        -0.25696E-01         0.00000E+00
    0.37585E-02        -0.23320E-01         0.00000E+00
    0.35705E-02        -0.20991E-01         0.00000E+00
    0.34060E-02        -0.18704E-01         0.00000E+00
    0.32455E-02        -0.16453E-01         0.00000E+00
    0.30723E-02        -0.14223E-01         0.00000E+00
    0.28690E-02        -0.12001E-01         0.00000E+00
    0.26140E-02        -0.97645E-02         0.00000E+00
    0.22766E-02        -0.74885E-02         0.00000E+00
    0.18065E-02        -0.51355E-02         0.00000E+00
    0.11071E-02        -0.26541E-02         0.00000E+00
    0.00000E+00         0.00000E+00         0.00000E+00
    0.37791E-02        -0.36849E-01         0.00000E+00
    0.29849E-02        -0.34234E-01         0.00000E+00
    0.25921E-02        -0.31555E-01         0.00000E+00
    0.23512E-02        -0.28921E-01         0.00000E+00
    0.21896E-02        -0.26360E-01         0.00000E+00
    0.20720E-02        -0.23875E-01         0.00000E+00
    0.19785E-02        -0.21460E-01         0.00000E+00
    0.18961E-02        -0.19106E-01         0.00000E+00
    0.18153E-02        -0.16800E-01         0.00000E+00
    0.17277E-02        -0.14526E-01         0.00000E+00
    0.16243E-02        -0.12266E-01         0.00000E+00
    0.14940E-02        -0.99991E-02         0.00000E+00
    0.13203E-02        -0.76956E-02         0.00000E+00
    0.10747E-02        -0.53146E-02         0.00000E+00
    0.69987E-03        -0.27887E-02         0.00000E+00
    0.00000E+00         0.00000E+00         0.00000E+00
    0.00000E+00        -0.37559E-01         0.00000E+00
    0.00000E+00        -0.34718E-01         0.00000E+00
    0.00000E+00        -0.31914E-01         0.00000E+00
    0.00000E+00        -0.29204E-01         0.00000E+00
    0.00000E+00        -0.26589E-01         0.00000E+00
    0.00000E+00        -0.24065E-01         0.00000E+00
    0.00000E+00        -0.21620E-01         0.00000E+00
    0.00000E+00        -0.19243E-01         0.00000E+00
    0.00000E+00        -0.16917E-01         0.00000E+00
    0.00000E+00        -0.14628E-01         0.00000E+00
    0.00000E+00        -0.12356E-01         0.00000E+00
    0.00000E+00        -0.10080E-01         0.00000E+00
    0.00000E+00        -0.77683E-02         0.00000E+00
    0.00000E+00        -0.53804E-02         0.00000E+00
    0.00000E+00        -0.28480E-02         0.00000E+00
    0.00000E+00         0.00000E+00         0.00000E+00
CELL_DATA        450
VECTORS vDarcy double 
    0.39452E-10         0.16469E-09         0.00000E+00
    0.38496E-10         0.45480E-09         0.00000E+00
    0.36887E-10         0.69113E-09         0.00000E+00
    0.34911E-10         0.87510E-09         0.00000E+00
    0.32781E-10         0.10088E-08         0.00000E+00
    0.30648E-10         0.10945E-08         0.00000E+00
    0.28610E-10         0.11351E-08         0.00000E+00
    0.26723E-10         0.11331E-08         0.00000E+00
    0.25014E-10         0.10913E-08         0.00000E+00
    0.23489E-10         0.10120E-08         0.00000E+00
    0.22148E-10         0.89750E-09         0.00000E+00
    0.20991E-10         0.75000E-09         0.00000E+00
    0.20033E-10         0.57143E-09         0.00000E+00
    0.19310E-10         0.36375E-09         0.00000E+00
    0.18894E-10         0.12902E-09         0.00000E+00
    0.11974E-09         0.16577E-09         0.00000E+00
    0.11692E-09         0.45748E-09         0.00000E+00
    0.11220E-09         0.69478E-09         0.00000E+00
    0.10641E-09         0.87922E-09         0.00000E+00
    0.10018E-09         0.10130E-08         0.00000E+00
    0.93965E-10         0.10986E-08         0.00000E+00
    0.88041E-10         0.11389E-08         0.00000E+00
    0.82572E-10         0.11366E-08         0.00000E+00
    0.77630E-10         0.10944E-08         0.00000E+00
    0.73230E-10         0.10147E-08         0.00000E+00
    0.69363E-10         0.89993E-09         0.00000E+00
    0.66028E-10         0.75206E-09         0.00000E+00
    0.63262E-10         0.57309E-09         0.00000E+00
    0.61171E-10         0.36490E-09         0.00000E+00
    0.59961E-10         0.12949E-09         0.00000E+00
    0.20426E-09         0.16787E-09         0.00000E+00
    0.19976E-09         0.46269E-09         0.00000E+00
    0.19222E-09         0.70182E-09         0.00000E+00
    0.18303E-09         0.88715E-09         0.00000E+00
    0.17320E-09         0.10211E-08         0.00000E+00
    0.16345E-09         0.11065E-08         0.00000E+00
    0.15421E-09         0.11462E-08         0.00000E+00
    0.14573E-09         0.11433E-08         0.00000E+00
    0.13811E-09         0.11003E-08         0.00000E+00
    0.13136E-09         0.10200E-08         0.00000E+00
    0.12544E-09         0.90448E-09         0.00000E+00
    0.12033E-09         0.75594E-09         0.00000E+00
    0.11609E-09         0.57622E-09         0.00000E+00
    0.11285E-09         0.36709E-09         0.00000E+00
    0.11097E-09         0.13039E-09         0.00000E+00
    0.29617E-09         0.17087E-09         0.00000E+00
    0.29026E-09         0.47009E-09         0.00000E+00
    0.28043E-09         0.71178E-09         0.00000E+00
    0.26854E-09         0.89827E-09         0.00000E+00
    0.25593E-09         0.10324E-08         0.00000E+00
    0.24354E-09         0.11173E-08         0.00000E+00
    0.23194E-09         0.11562E-08         0.00000E+00
    0.22141E-09         0.11523E-08         0.00000E+00
    0.21205E-09         0.11083E-08         0.00000E+00
    0.20382E-09         0.10270E-08         0.00000E+00
    0.19663E-09         0.91057E-09         0.00000E+00
    0.19043E-09         0.76115E-09         0.00000E+00
    0.18524E-09         0.58044E-09         0.00000E+00
    0.18125E-09         0.37007E-09         0.00000E+00
    0.17890E-09         0.13164E-09         0.00000E+00
    0.39913E-09         0.17459E-09         0.00000E+00
    0.39221E-09         0.47918E-09         0.00000E+00
    0.38081E-09         0.72390E-09         0.00000E+00
    0.36718E-09         0.91165E-09         0.00000E+00
    0.35296E-09         0.10458E-08         0.00000E+00
    0.33922E-09         0.11300E-08         0.00000E+00
    0.32659E-09         0.11678E-08         0.00000E+00
    0.31535E-09         0.11625E-08         0.00000E+00
    0.30554E-09         0.11172E-08         0.00000E+00
    0.29705E-09         0.10347E-08         0.00000E+00
    0.28969E-09         0.91732E-09         0.00000E+00
    0.28334E-09         0.76694E-09         0.00000E+00
    0.27796E-09         0.58520E-09         0.00000E+00
    0.27376E-09         0.37349E-09         0.00000E+00
    0.27122E-09         0.13310E-09         0.00000E+00
    0.51750E-09         0.17879E-09         0.00000E+00
    0.51008E-09         0.48931E-09         0.00000E+00
    0.49805E-09         0.73718E-09         0.00000E+00
    0.48397E-09         0.92606E-09         0.00000E+00
    0.46962E-09         0.10600E-08         0.00000E+00
    0.45616E-09         0.11430E-08         0.00000E+00
    0.44421E-09         0.11793E-08         0.00000E+00
    0.43398E-09         0.11724E-08         0.00000E+00
    0.42539E-09         0.11257E-08         0.00000E+00
    0.41819E-09         0.10419E-08         0.00000E+00
    0.41207E-09         0.92355E-09         0.00000E+00
    0.40677E-09         0.77234E-09         0.00000E+00
    0.40219E-09         0.58974E-09         0.00000E+00
    0.39847E-09         0.37686E-09         0.00000E+00
    0.39612E-09         0.13460E-09         0.00000E+00
    0.65658E-09         0.18314E-09         0.00000E+00
    0.64931E-09         0.49961E-09         0.00000E+00
    0.63782E-09         0.75036E-09         0.00000E+00
    0.62483E-09         0.93992E-09         0.00000E+00
    0.61219E-09         0.10731E-08         0.00000E+00
    0.60102E-09         0.11545E-08         0.00000E+00
    0.59183E-09         0.11889E-08         0.00000E+00
    0.58468E-09         0.11801E-08         0.00000E+00
    0.57931E-09         0.11318E-08         0.00000E+00
    0.57528E-09         0.10470E-08         0.00000E+00
    0.57210E-09         0.92780E-09         0.00000E+00
    0.56933E-09         0.77611E-09         0.00000E+00
    0.56673E-09         0.59312E-09         0.00000E+00
    0.56433E-09         0.37957E-09         0.00000E+00
    0.56263E-09         0.13592E-09         0.00000E+00
    0.82288E-09         0.18727E-09         0.00000E+00
    0.81652E-09         0.50905E-09         0.00000E+00
    0.80696E-09         0.76191E-09         0.00000E+00
    0.79692E-09         0.95134E-09         0.00000E+00
    0.78815E-09         0.10830E-08         0.00000E+00
    0.78161E-09         0.11623E-08         0.00000E+00
    0.77761E-09         0.11943E-08         0.00000E+00
    0.77595E-09         0.11835E-08         0.00000E+00
    0.77613E-09         0.11336E-08         0.00000E+00
    0.77746E-09         0.10478E-08         0.00000E+00
    0.77918E-09         0.92834E-09         0.00000E+00
    0.78065E-09         0.77682E-09         0.00000E+00
    0.78141E-09         0.59421E-09         0.00000E+00
    0.78134E-09         0.38090E-09         0.00000E+00
    0.78082E-09         0.13679E-09         0.00000E+00
    0.10244E-08         0.19072E-09         0.00000E+00
    0.10198E-08         0.51643E-09         0.00000E+00
    0.10138E-08         0.77005E-09         0.00000E+00
    0.10088E-08         0.95816E-09         0.00000E+00
    0.10064E-08         0.10873E-08         0.00000E+00
    0.10072E-08         0.11637E-08         0.00000E+00
    0.10111E-08         0.11929E-08         0.00000E+00
    0.10176E-08         0.11799E-08         0.00000E+00
    0.10260E-08         0.11286E-08         0.00000E+00
    0.10351E-08         0.10423E-08         0.00000E+00
    0.10439E-08         0.92321E-09         0.00000E+00
    0.10515E-08         0.77280E-09         0.00000E+00
    0.10572E-08         0.59174E-09         0.00000E+00
    0.10606E-08         0.37999E-09         0.00000E+00
    0.10619E-08         0.13689E-09         0.00000E+00
    0.12708E-08         0.19295E-09         0.00000E+00
    0.12691E-08         0.52032E-09         0.00000E+00
    0.12684E-08         0.77273E-09         0.00000E+00
    0.12709E-08         0.95787E-09         0.00000E+00
    0.12775E-08         0.10833E-08         0.00000E+00
    0.12885E-08         0.11559E-08         0.00000E+00
    0.13033E-08         0.11819E-08         0.00000E+00
    0.13210E-08         0.11666E-08         0.00000E+00
    0.13404E-08         0.11142E-08         0.00000E+00
    0.13599E-08         0.10280E-08         0.00000E+00
    0.13782E-08         0.91025E-09         0.00000E+00
    0.13941E-08         0.76221E-09         0.00000E+00
    0.14064E-08         0.58425E-09         0.00000E+00
    0.14145E-08         0.37590E-09         0.00000E+00
    0.14183E-08         0.13588E-09         0.00000E+00
    0.15739E-08         0.19337E-09         0.00000E+00
    0.15762E-08         0.51916E-09         0.00000E+00
    0.15829E-08         0.76767E-09         0.00000E+00
    0.15954E-08         0.94777E-09         0.00000E+00
    0.16141E-08         0.10679E-08         0.00000E+00
    0.16385E-08         0.11358E-08         0.00000E+00
    0.16673E-08         0.11581E-08         0.00000E+00
    0.16993E-08         0.11406E-08         0.00000E+00
    0.17325E-08         0.10875E-08         0.00000E+00
    0.17651E-08         0.10023E-08         0.00000E+00
    0.17954E-08         0.88717E-09         0.00000E+00
    0.18217E-08         0.74310E-09         0.00000E+00
    0.18424E-08         0.57021E-09         0.00000E+00
    0.18566E-08         0.36757E-09         0.00000E+00
    0.18636E-08         0.13333E-09         0.00000E+00
    0.19479E-08         0.19131E-09         0.00000E+00
    0.19554E-08         0.51120E-09         0.00000E+00
    0.19717E-08         0.75242E-09         0.00000E+00
    0.19971E-08         0.92493E-09         0.00000E+00
    0.20309E-08         0.10381E-08         0.00000E+00
    0.20718E-08         0.11002E-08         0.00000E+00
    0.21179E-08         0.11185E-08         0.00000E+00
    0.21671E-08         0.10989E-08         0.00000E+00
    0.22172E-08         0.10458E-08         0.00000E+00
    0.22657E-08         0.96273E-09         0.00000E+00
    0.23104E-08         0.85164E-09         0.00000E+00
    0.23491E-08         0.71348E-09         0.00000E+00
    0.23801E-08         0.54801E-09         0.00000E+00
    0.24017E-08         0.35393E-09         0.00000E+00
    0.24127E-08         0.12883E-09         0.00000E+00
    0.24097E-08         0.18602E-09         0.00000E+00
    0.24238E-08         0.49457E-09         0.00000E+00
    0.24519E-08         0.72436E-09         0.00000E+00
    0.24930E-08         0.88635E-09         0.00000E+00
    0.25450E-08         0.99061E-09         0.00000E+00
    0.26056E-08         0.10460E-08         0.00000E+00
    0.26720E-08         0.10600E-08         0.00000E+00
    0.27414E-08         0.10385E-08         0.00000E+00
    0.28110E-08         0.98636E-09         0.00000E+00
    0.28778E-08         0.90668E-09         0.00000E+00
    0.29392E-08         0.80145E-09         0.00000E+00
    0.29925E-08         0.67140E-09         0.00000E+00
    0.30354E-08         0.51607E-09         0.00000E+00
    0.30657E-08         0.33386E-09         0.00000E+00
    0.30815E-08         0.12192E-09         0.00000E+00
    0.29793E-08         0.17672E-09         0.00000E+00
    0.30014E-08         0.46733E-09         0.00000E+00
    0.30436E-08         0.68087E-09         0.00000E+00
    0.31030E-08         0.82907E-09         0.00000E+00
    0.31762E-08         0.92245E-09         0.00000E+00
    0.32593E-08         0.97012E-09         0.00000E+00
    0.33488E-08         0.97964E-09         0.00000E+00
    0.34409E-08         0.95702E-09         0.00000E+00
    0.35322E-08         0.90677E-09         0.00000E+00
    0.36194E-08         0.83203E-09         0.00000E+00
    0.36993E-08         0.73462E-09         0.00000E+00
    0.37689E-08         0.61512E-09         0.00000E+00
    0.38252E-08         0.47295E-09         0.00000E+00
    0.38654E-08         0.30632E-09         0.00000E+00
    0.38867E-08         0.11216E-09         0.00000E+00
    0.36799E-08         0.16260E-09         0.00000E+00
    0.37113E-08         0.42752E-09         0.00000E+00
    0.37698E-08         0.61942E-09         0.00000E+00
    0.38502E-08         0.75034E-09         0.00000E+00
    0.39469E-08         0.83092E-09         0.00000E+00
    0.40549E-08         0.87013E-09         0.00000E+00
    0.41695E-08         0.87533E-09         0.00000E+00
    0.42861E-08         0.85228E-09         0.00000E+00
    0.44007E-08         0.80525E-09         0.00000E+00
    0.45096E-08         0.73716E-09         0.00000E+00
    0.46093E-08         0.64967E-09         0.00000E+00
    0.46963E-08         0.54331E-09         0.00000E+00
    0.47670E-08         0.41746E-09         0.00000E+00
    0.48180E-08         0.27039E-09         0.00000E+00
    0.48454E-08         0.99134E-10         0.00000E+00
    0.45382E-08         0.14285E-09         0.00000E+00
    0.45802E-08         0.37331E-09         0.00000E+00
    0.46569E-08         0.53774E-09         0.00000E+00
    0.47602E-08         0.64792E-09         0.00000E+00
    0.48823E-08         0.71398E-09         0.00000E+00
    0.50166E-08         0.74431E-09         0.00000E+00
    0.51572E-08         0.74565E-09         0.00000E+00
    0.52990E-08         0.72322E-09         0.00000E+00
    0.54374E-08         0.68089E-09         0.00000E+00
    0.55684E-08         0.62126E-09         0.00000E+00
    0.56882E-08         0.54585E-09         0.00000E+00
    0.57929E-08         0.45518E-09         0.00000E+00
    0.58786E-08         0.34883E-09         0.00000E+00
    0.59409E-08         0.22544E-09         0.00000E+00
    0.59748E-08         0.82507E-10         0.00000E+00
    0.55844E-08         0.11672E-09         0.00000E+00
    0.56379E-08         0.30313E-09         0.00000E+00
    0.57342E-08         0.43415E-09         0.00000E+00
    0.58615E-08         0.52038E-09         0.00000E+00
    0.60097E-08         0.57065E-09         0.00000E+00
    0.61704E-08         0.59212E-09         0.00000E+00
    0.63367E-08         0.59046E-09         0.00000E+00
    0.65029E-08         0.57002E-09         0.00000E+00
    0.66641E-08         0.53403E-09         0.00000E+00
    0.68162E-08         0.48470E-09         0.00000E+00
    0.69551E-08         0.42342E-09         0.00000E+00
    0.70768E-08         0.35083E-09         0.00000E+00
    0.71770E-08         0.26696E-09         0.00000E+00
    0.72505E-08         0.17118E-09         0.00000E+00
    0.72909E-08         0.62064E-10         0.00000E+00
    0.68518E-08         0.83596E-10         0.00000E+00
    0.69175E-08         0.21594E-09         0.00000E+00
    0.70338E-08         0.30785E-09         0.00000E+00
    0.71849E-08         0.36752E-09         0.00000E+00
    0.73582E-08         0.40143E-09         0.00000E+00
    0.75436E-08         0.41471E-09         0.00000E+00
    0.77333E-08         0.41137E-09         0.00000E+00
    0.79212E-08         0.39455E-09         0.00000E+00
    0.81024E-08         0.36663E-09         0.00000E+00
    0.82728E-08         0.32935E-09         0.00000E+00
    0.84283E-08         0.28399E-09         0.00000E+00
    0.85649E-08         0.23150E-09         0.00000E+00
    0.86781E-08         0.17260E-09         0.00000E+00
    0.87618E-08         0.10790E-09         0.00000E+00
    0.88085E-08         0.37778E-10         0.00000E+00
    0.83759E-08         0.43124E-10         0.00000E+00
    0.84539E-08         0.11149E-09         0.00000E+00
    0.85894E-08         0.15943E-09         0.00000E+00
    0.87624E-08         0.19095E-09         0.00000E+00
    0.89575E-08         0.20888E-09         0.00000E+00
    0.91635E-08         0.21534E-09         0.00000E+00
    0.93719E-08         0.21213E-09         0.00000E+00
    0.95765E-08         0.20078E-09         0.00000E+00
    0.97727E-08         0.18264E-09         0.00000E+00
    0.99564E-08         0.15893E-09         0.00000E+00
    0.10124E-07         0.13086E-09         0.00000E+00
    0.10272E-07         0.99816E-10         0.00000E+00
    0.10395E-07         0.67611E-10         0.00000E+00
    0.10487E-07         0.36632E-10         0.00000E+00
    0.10539E-07         0.98910E-11         0.00000E+00
    0.10194E-07        -0.46427E-11         0.00000E+00
    0.10283E-07        -0.91842E-11         0.00000E+00
    0.10435E-07        -0.85833E-11         0.00000E+00
    0.10625E-07        -0.53024E-11         0.00000E+00
    0.10836E-07        -0.18308E-11         0.00000E+00
    0.11056E-07        -0.13792E-13         0.00000E+00
    0.11275E-07        -0.89830E-12         0.00000E+00
    0.11489E-07        -0.48407E-11         0.00000E+00
    0.11692E-07        -0.11661E-10         0.00000E+00
    0.11882E-07        -0.20706E-10         0.00000E+00
    0.12055E-07        -0.30770E-10         0.00000E+00
    0.12209E-07        -0.39840E-10         0.00000E+00
    0.12337E-07        -0.44728E-10         0.00000E+00
    0.12434E-07        -0.40662E-10         0.00000E+00
    0.12490E-07        -0.20996E-10         0.00000E+00
    0.12340E-07        -0.58998E-10         0.00000E+00
    0.12438E-07        -0.14319E-09         0.00000E+00
    0.12601E-07        -0.19093E-09         0.00000E+00
    0.12801E-07        -0.21408E-09         0.00000E+00
    0.13018E-07        -0.22224E-09         0.00000E+00
    0.13241E-07        -0.22224E-09         0.00000E+00
    0.13461E-07        -0.21841E-09         0.00000E+00
    0.13673E-07        -0.21317E-09         0.00000E+00
    0.13873E-07        -0.20753E-09         0.00000E+00
    0.14060E-07        -0.20140E-09         0.00000E+00
    0.14230E-07        -0.19353E-09         0.00000E+00
    0.14380E-07        -0.18118E-09         0.00000E+00
    0.14508E-07        -0.15952E-09         0.00000E+00
    0.14605E-07        -0.12084E-09         0.00000E+00
    0.14662E-07        -0.53814E-10         0.00000E+00
    0.14845E-07        -0.11825E-09         0.00000E+00
    0.14946E-07        -0.28504E-09         0.00000E+00
    0.15112E-07        -0.37880E-09         0.00000E+00
    0.15309E-07        -0.42433E-09         0.00000E+00
    0.15519E-07        -0.44016E-09         0.00000E+00
    0.15731E-07        -0.43883E-09         0.00000E+00
    0.15937E-07        -0.42809E-09         0.00000E+00
    0.16134E-07        -0.41237E-09         0.00000E+00
    0.16319E-07        -0.39379E-09         0.00000E+00
    0.16491E-07        -0.37274E-09         0.00000E+00
    0.16646E-07        -0.34792E-09         0.00000E+00
    0.16785E-07        -0.31587E-09         0.00000E+00
    0.16902E-07        -0.27003E-09         0.00000E+00
    0.16993E-07        -0.19937E-09         0.00000E+00
    0.17048E-07        -0.86900E-10         0.00000E+00
    0.17726E-07        -0.17925E-09         0.00000E+00
    0.17824E-07        -0.42566E-09         0.00000E+00
    0.17978E-07        -0.55889E-09         0.00000E+00
    0.18157E-07        -0.62054E-09         0.00000E+00
    0.18342E-07        -0.63946E-09         0.00000E+00
    0.18525E-07        -0.63396E-09         0.00000E+00
    0.18701E-07        -0.61490E-09         0.00000E+00
    0.18867E-07        -0.58833E-09         0.00000E+00
    0.19022E-07        -0.55725E-09         0.00000E+00
    0.19165E-07        -0.52243E-09         0.00000E+00
    0.19294E-07        -0.48257E-09         0.00000E+00
    0.19408E-07        -0.43368E-09         0.00000E+00
    0.19506E-07        -0.36768E-09         0.00000E+00
    0.19583E-07        -0.27020E-09         0.00000E+00
    0.19629E-07        -0.11787E-09         0.00000E+00
    0.20980E-07        -0.23676E-09         0.00000E+00
    0.21064E-07        -0.55130E-09         0.00000E+00
    0.21189E-07        -0.71266E-09         0.00000E+00
    0.21326E-07        -0.78264E-09         0.00000E+00
    0.21465E-07        -0.80048E-09         0.00000E+00
    0.21599E-07        -0.78928E-09         0.00000E+00
    0.21727E-07        -0.76197E-09         0.00000E+00
    0.21846E-07        -0.72560E-09         0.00000E+00
    0.21956E-07        -0.68363E-09         0.00000E+00
    0.22056E-07        -0.63713E-09         0.00000E+00
    0.22145E-07        -0.58494E-09         0.00000E+00
    0.22222E-07        -0.52293E-09         0.00000E+00
    0.22289E-07        -0.44215E-09         0.00000E+00
    0.22342E-07        -0.32558E-09         0.00000E+00
    0.22375E-07        -0.14347E-09         0.00000E+00
    0.24570E-07        -0.28264E-09         0.00000E+00
    0.24624E-07        -0.64253E-09         0.00000E+00
    0.24695E-07        -0.81633E-09         0.00000E+00
    0.24767E-07        -0.88701E-09         0.00000E+00
    0.24836E-07        -0.90168E-09         0.00000E+00
    0.24901E-07        -0.88561E-09         0.00000E+00
    0.24962E-07        -0.85228E-09         0.00000E+00
    0.25019E-07        -0.80885E-09         0.00000E+00
    0.25070E-07        -0.75894E-09         0.00000E+00
    0.25114E-07        -0.70381E-09         0.00000E+00
    0.25150E-07        -0.64258E-09         0.00000E+00
    0.25180E-07        -0.57154E-09         0.00000E+00
    0.25203E-07        -0.48209E-09         0.00000E+00
    0.25221E-07        -0.35629E-09         0.00000E+00
    0.25234E-07        -0.15943E-09         0.00000E+00
    0.28404E-07        -0.30485E-09         0.00000E+00
    0.28406E-07        -0.67406E-09         0.00000E+00
    0.28396E-07        -0.84277E-09         0.00000E+00
    0.28377E-07        -0.90967E-09         0.00000E+00
    0.28356E-07        -0.92285E-09         0.00000E+00
    0.28336E-07        -0.90586E-09         0.00000E+00
    0.28317E-07        -0.87100E-09         0.00000E+00
    0.28298E-07        -0.82499E-09         0.00000E+00
    0.28279E-07        -0.77140E-09         0.00000E+00
    0.28258E-07        -0.71160E-09         0.00000E+00
    0.28234E-07        -0.64508E-09         0.00000E+00
    0.28206E-07        -0.56899E-09         0.00000E+00
    0.28177E-07        -0.47656E-09         0.00000E+00
    0.28150E-07        -0.35217E-09         0.00000E+00
    0.28135E-07        -0.16038E-09         0.00000E+00
    0.32303E-07        -0.28672E-09         0.00000E+00
    0.32231E-07        -0.61750E-09         0.00000E+00
    0.32116E-07        -0.76794E-09         0.00000E+00
    0.31991E-07        -0.83302E-09         0.00000E+00
    0.31869E-07        -0.85054E-09         0.00000E+00
    0.31756E-07        -0.83886E-09         0.00000E+00
    0.31650E-07        -0.80840E-09         0.00000E+00
    0.31551E-07        -0.76543E-09         0.00000E+00
    0.31456E-07        -0.71347E-09         0.00000E+00
    0.31366E-07        -0.65400E-09         0.00000E+00
    0.31277E-07        -0.58670E-09         0.00000E+00
    0.31190E-07        -0.50954E-09         0.00000E+00
    0.31105E-07        -0.41827E-09         0.00000E+00
    0.31028E-07        -0.30409E-09         0.00000E+00
    0.30977E-07        -0.13986E-09         0.00000E+00
    0.35961E-07        -0.20818E-09         0.00000E+00
    0.35801E-07        -0.45356E-09         0.00000E+00
    0.35582E-07        -0.58620E-09         0.00000E+00
    0.35359E-07        -0.65646E-09         0.00000E+00
    0.35147E-07        -0.68443E-09         0.00000E+00
    0.34947E-07        -0.68328E-09         0.00000E+00
    0.34758E-07        -0.66238E-09         0.00000E+00
    0.34579E-07        -0.62797E-09         0.00000E+00
    0.34412E-07        -0.58365E-09         0.00000E+00
    0.34254E-07        -0.53081E-09         0.00000E+00
    0.34106E-07        -0.46902E-09         0.00000E+00
    0.33967E-07        -0.39642E-09         0.00000E+00
    0.33836E-07        -0.31034E-09         0.00000E+00
    0.33714E-07        -0.20871E-09         0.00000E+00
    0.33626E-07        -0.91500E-10         0.00000E+00
    0.38880E-07        -0.58833E-10         0.00000E+00
    0.38671E-07        -0.21346E-09         0.00000E+00
    0.38415E-07        -0.33387E-09         0.00000E+00
    0.38150E-07        -0.40673E-09         0.00000E+00
    0.37881E-07        -0.44145E-09         0.00000E+00
    0.37614E-07        -0.44946E-09         0.00000E+00
    0.37355E-07        -0.43967E-09         0.00000E+00
    0.37108E-07        -0.41790E-09         0.00000E+00
    0.36876E-07        -0.38734E-09         0.00000E+00
    0.36661E-07        -0.34907E-09         0.00000E+00
    0.36466E-07        -0.30239E-09         0.00000E+00
    0.36294E-07        -0.24514E-09         0.00000E+00
    0.36144E-07        -0.17453E-09         0.00000E+00
    0.36018E-07        -0.89624E-10         0.00000E+00
    0.35909E-07        -0.67099E-11         0.00000E+00
    0.40301E-07         0.16737E-10         0.00000E+00
    0.40296E-07        -0.41716E-10         0.00000E+00
    0.40168E-07        -0.99015E-10         0.00000E+00
    0.39944E-07        -0.13443E-09         0.00000E+00
    0.39665E-07        -0.15197E-09         0.00000E+00
    0.39361E-07        -0.15750E-09         0.00000E+00
    0.39053E-07        -0.15526E-09         0.00000E+00
    0.38754E-07        -0.14791E-09         0.00000E+00
    0.38473E-07        -0.13683E-09         0.00000E+00
    0.38218E-07        -0.12244E-09         0.00000E+00
    0.37994E-07        -0.10433E-09         0.00000E+00
    0.37812E-07        -0.81366E-10         0.00000E+00
    0.37683E-07        -0.51862E-10         0.00000E+00
    0.37622E-07        -0.14943E-10         0.00000E+00
    0.37638E-07         0.23107E-10         0.00000E+00
POINT_DATA        496
VECTORS vDarcyNodal double 
    0.39725E-10         0.16441E-09         0.00000E+00
    0.39177E-10         0.30926E-09         0.00000E+00
    0.37814E-10         0.57216E-09         0.00000E+00
    0.35960E-10         0.78213E-09         0.00000E+00
    0.33862E-10         0.94086E-09         0.00000E+00
    0.31700E-10         0.10506E-08         0.00000E+00
    0.29596E-10         0.11138E-08         0.00000E+00
    0.27624E-10         0.11332E-08         0.00000E+00
    0.25822E-10         0.11113E-08         0.00000E+00
    0.24205E-10         0.10508E-08         0.00000E+00
    0.22773E-10         0.95406E-09         0.00000E+00
    0.21522E-10         0.82317E-09         0.00000E+00
    0.20459E-10         0.66024E-09         0.00000E+00
    0.19606E-10         0.46723E-09         0.00000E+00
    0.19014E-10         0.24617E-09         0.00000E+00
    0.18773E-10         0.12890E-09         0.00000E+00
    0.80134E-10         0.16496E-09         0.00000E+00
    0.79052E-10         0.31022E-09         0.00000E+00
    0.76367E-10         0.57377E-09         0.00000E+00
    0.72719E-10         0.78410E-09         0.00000E+00
    0.68600E-10         0.94299E-09         0.00000E+00
    0.64364E-10         0.10527E-08         0.00000E+00
    0.60249E-10         0.11158E-08         0.00000E+00
    0.56402E-10         0.11351E-08         0.00000E+00
    0.52894E-10         0.11130E-08         0.00000E+00
    0.49750E-10         0.10524E-08         0.00000E+00
    0.46969E-10         0.95540E-09         0.00000E+00
    0.44542E-10         0.82433E-09         0.00000E+00
    0.42477E-10         0.66120E-09         0.00000E+00
    0.40818E-10         0.46795E-09         0.00000E+00
    0.39663E-10         0.24659E-09         0.00000E+00
    0.39192E-10         0.12914E-09         0.00000E+00
    0.16305E-09         0.16657E-09         0.00000E+00
    0.16094E-09         0.31303E-09         0.00000E+00
    0.15574E-09         0.57849E-09         0.00000E+00
    0.14869E-09         0.78989E-09         0.00000E+00
    0.14075E-09         0.94921E-09         0.00000E+00
    0.13263E-09         0.10589E-08         0.00000E+00
    0.12478E-09         0.11218E-08         0.00000E+00
    0.11747E-09         0.11405E-08         0.00000E+00
    0.11083E-09         0.11180E-08         0.00000E+00
    0.10491E-09         0.10568E-08         0.00000E+00
    0.99682E-10         0.95926E-09         0.00000E+00
    0.95124E-10         0.82766E-09         0.00000E+00
    0.91240E-10         0.66396E-09         0.00000E+00
    0.88108E-10         0.47004E-09         0.00000E+00
    0.85918E-10         0.24780E-09         0.00000E+00
    0.85016E-10         0.12984E-09         0.00000E+00
    0.25172E-09         0.16916E-09         0.00000E+00
    0.24871E-09         0.31753E-09         0.00000E+00
    0.24131E-09         0.58602E-09         0.00000E+00
    0.23135E-09         0.79908E-09         0.00000E+00
    0.22022E-09         0.95904E-09         0.00000E+00
    0.20891E-09         0.10687E-08         0.00000E+00
    0.19807E-09         0.11310E-08         0.00000E+00
    0.18807E-09         0.11490E-08         0.00000E+00
    0.17907E-09         0.11256E-08         0.00000E+00
    0.17110E-09         0.10635E-08         0.00000E+00
    0.16409E-09         0.96517E-09         0.00000E+00
    0.15799E-09         0.83276E-09         0.00000E+00
    0.15278E-09         0.66820E-09         0.00000E+00
    0.14855E-09         0.47327E-09         0.00000E+00
    0.14556E-09         0.24968E-09         0.00000E+00
    0.14431E-09         0.13094E-09         0.00000E+00
    0.34951E-09         0.17258E-09         0.00000E+00
    0.34579E-09         0.32343E-09         0.00000E+00
    0.33668E-09         0.59584E-09         0.00000E+00
    0.32456E-09         0.81097E-09         0.00000E+00
    0.31116E-09         0.97164E-09         0.00000E+00
    0.29773E-09         0.10811E-08         0.00000E+00
    0.28503E-09         0.11426E-08         0.00000E+00
    0.27349E-09         0.11595E-08         0.00000E+00
    0.26327E-09         0.11349E-08         0.00000E+00
    0.25433E-09         0.10717E-08         0.00000E+00
    0.24654E-09         0.97235E-09         0.00000E+00
    0.23978E-09         0.83896E-09         0.00000E+00
    0.23398E-09         0.67339E-09         0.00000E+00
    0.22922E-09         0.47725E-09         0.00000E+00
    0.22579E-09         0.25203E-09         0.00000E+00
    0.22433E-09         0.13233E-09         0.00000E+00
    0.46041E-09         0.17661E-09         0.00000E+00
    0.45621E-09         0.33034E-09         0.00000E+00
    0.44608E-09         0.60724E-09         0.00000E+00
    0.43278E-09         0.82458E-09         0.00000E+00
    0.41837E-09         0.98585E-09         0.00000E+00
    0.40421E-09         0.10948E-08         0.00000E+00
    0.39117E-09         0.11552E-08         0.00000E+00
    0.37963E-09         0.11707E-08         0.00000E+00
    0.36970E-09         0.11447E-08         0.00000E+00
    0.36123E-09         0.10802E-08         0.00000E+00
    0.35400E-09         0.97969E-09         0.00000E+00
    0.34776E-09         0.84530E-09         0.00000E+00
    0.34235E-09         0.67875E-09         0.00000E+00
    0.33780E-09         0.48144E-09         0.00000E+00
    0.33442E-09         0.25456E-09         0.00000E+00
    0.33292E-09         0.13386E-09         0.00000E+00
    0.58921E-09         0.18097E-09         0.00000E+00
    0.58485E-09         0.33775E-09         0.00000E+00
    0.57453E-09         0.61925E-09         0.00000E+00
    0.56134E-09         0.83865E-09         0.00000E+00
    0.54746E-09         0.10002E-08         0.00000E+00
    0.53435E-09         0.11082E-08         0.00000E+00
    0.52283E-09         0.11671E-08         0.00000E+00
    0.51321E-09         0.11809E-08         0.00000E+00
    0.50545E-09         0.11533E-08         0.00000E+00
    0.49925E-09         0.10874E-08         0.00000E+00
    0.49422E-09         0.98579E-09         0.00000E+00
    0.48995E-09         0.85058E-09         0.00000E+00
    0.48616E-09         0.68332E-09         0.00000E+00
    0.48276E-09         0.48515E-09         0.00000E+00
    0.48004E-09         0.25690E-09         0.00000E+00
    0.47871E-09         0.13533E-09         0.00000E+00
    0.74179E-09         0.18531E-09         0.00000E+00
    0.73765E-09         0.34500E-09         0.00000E+00
    0.72818E-09         0.63072E-09         0.00000E+00
    0.71660E-09         0.85162E-09         0.00000E+00
    0.70515E-09         0.10128E-08         0.00000E+00
    0.69520E-09         0.11194E-08         0.00000E+00
    0.68744E-09         0.11763E-08         0.00000E+00
    0.68200E-09         0.11881E-08         0.00000E+00
    0.67863E-09         0.11587E-08         0.00000E+00
    0.67681E-09         0.10914E-08         0.00000E+00
    0.67593E-09         0.98895E-09         0.00000E+00
    0.67536E-09         0.85333E-09         0.00000E+00
    0.67463E-09         0.68591E-09         0.00000E+00
    0.67351E-09         0.48753E-09         0.00000E+00
    0.67217E-09         0.25859E-09         0.00000E+00
    0.67129E-09         0.13650E-09         0.00000E+00
    0.92534E-09         0.18922E-09         0.00000E+00
    0.92188E-09         0.35132E-09         0.00000E+00
    0.91447E-09         0.64025E-09         0.00000E+00
    0.90630E-09         0.86164E-09         0.00000E+00
    0.89945E-09         0.10215E-08         0.00000E+00
    0.89510E-09         0.11259E-08         0.00000E+00
    0.89367E-09         0.11803E-08         0.00000E+00
    0.89501E-09         0.11897E-08         0.00000E+00
    0.89856E-09         0.11584E-08         0.00000E+00
    0.90353E-09         0.10900E-08         0.00000E+00
    0.90900E-09         0.98720E-09         0.00000E+00
    0.91409E-09         0.85183E-09         0.00000E+00
    0.91809E-09         0.68512E-09         0.00000E+00
    0.92054E-09         0.48758E-09         0.00000E+00
    0.92142E-09         0.25909E-09         0.00000E+00
    0.92131E-09         0.13707E-09         0.00000E+00
    0.11487E-08         0.19221E-09         0.00000E+00
    0.11464E-08         0.35582E-09         0.00000E+00
    0.11425E-08         0.64623E-09         0.00000E+00
    0.11397E-08         0.86657E-09         0.00000E+00
    0.11400E-08         0.10239E-08         0.00000E+00
    0.11440E-08         0.11251E-08         0.00000E+00
    0.11517E-08         0.11763E-08         0.00000E+00
    0.11627E-08         0.11831E-08         0.00000E+00
    0.11760E-08         0.11501E-08         0.00000E+00
    0.11904E-08         0.10809E-08         0.00000E+00
    0.12046E-08         0.97832E-09         0.00000E+00
    0.12175E-08         0.84417E-09         0.00000E+00
    0.12281E-08         0.67941E-09         0.00000E+00
    0.12355E-08         0.48415E-09         0.00000E+00
    0.12396E-08         0.25779E-09         0.00000E+00
    0.12406E-08         0.13671E-09         0.00000E+00
    0.14225E-08         0.19370E-09         0.00000E+00
    0.14221E-08         0.35745E-09         0.00000E+00
    0.14232E-08         0.64682E-09         0.00000E+00
    0.14282E-08         0.86403E-09         0.00000E+00
    0.14382E-08         0.10172E-08         0.00000E+00
    0.14535E-08         0.11140E-08         0.00000E+00
    0.14735E-08         0.11614E-08         0.00000E+00
    0.14972E-08         0.11653E-08         0.00000E+00
    0.15231E-08         0.11307E-08         0.00000E+00
    0.15497E-08         0.10613E-08         0.00000E+00
    0.15753E-08         0.95993E-09         0.00000E+00
    0.15983E-08         0.82828E-09         0.00000E+00
    0.16174E-08         0.66705E-09         0.00000E+00
    0.16314E-08         0.47600E-09         0.00000E+00
    0.16397E-08         0.25398E-09         0.00000E+00
    0.16422E-08         0.13504E-09         0.00000E+00
    0.17598E-08         0.19305E-09         0.00000E+00
    0.17619E-08         0.35508E-09         0.00000E+00
    0.17697E-08         0.64001E-09         0.00000E+00
    0.17849E-08         0.85141E-09         0.00000E+00
    0.18076E-08         0.99845E-09         0.00000E+00
    0.18374E-08         0.10896E-08         0.00000E+00
    0.18728E-08         0.11325E-08         0.00000E+00
    0.19124E-08         0.11333E-08         0.00000E+00
    0.19540E-08         0.10974E-08         0.00000E+00
    0.19956E-08         0.10286E-08         0.00000E+00
    0.20352E-08         0.92958E-09         0.00000E+00
    0.20706E-08         0.80199E-09         0.00000E+00
    0.21002E-08         0.64626E-09         0.00000E+00
    0.21223E-08         0.46178E-09         0.00000E+00
    0.21359E-08         0.24692E-09         0.00000E+00
    0.21404E-08         0.13163E-09         0.00000E+00
    0.21761E-08         0.18957E-09         0.00000E+00
    0.21814E-08         0.34743E-09         0.00000E+00
    0.21979E-08         0.62361E-09         0.00000E+00
    0.22258E-08         0.82594E-09         0.00000E+00
    0.22643E-08         0.96455E-09         0.00000E+00
    0.23116E-08         0.10487E-08         0.00000E+00
    0.23657E-08         0.10863E-08         0.00000E+00
    0.24242E-08         0.10840E-08         0.00000E+00
    0.24844E-08         0.10473E-08         0.00000E+00
    0.25438E-08         0.97998E-09         0.00000E+00
    0.25997E-08         0.88480E-09         0.00000E+00
    0.26498E-08         0.76313E-09         0.00000E+00
    0.26918E-08         0.61523E-09         0.00000E+00
    0.27237E-08         0.44015E-09         0.00000E+00
    0.27437E-08         0.23583E-09         0.00000E+00
    0.27506E-08         0.12603E-09         0.00000E+00
    0.26898E-08         0.18248E-09         0.00000E+00
    0.26991E-08         0.33316E-09         0.00000E+00
    0.27261E-08         0.59533E-09         0.00000E+00
    0.27694E-08         0.78478E-09         0.00000E+00
    0.28266E-08         0.91241E-09         0.00000E+00
    0.28946E-08         0.98794E-09         0.00000E+00
    0.29703E-08         0.10197E-08         0.00000E+00
    0.30505E-08         0.10145E-08         0.00000E+00
    0.31319E-08         0.97762E-09         0.00000E+00
    0.32114E-08         0.91306E-09         0.00000E+00
    0.32859E-08         0.82333E-09         0.00000E+00
    0.33526E-08         0.70971E-09         0.00000E+00
    0.34088E-08         0.57224E-09         0.00000E+00
    0.34518E-08         0.40978E-09         0.00000E+00
    0.34793E-08         0.21994E-09         0.00000E+00
    0.34890E-08         0.11781E-09         0.00000E+00
    0.33225E-08         0.17097E-09         0.00000E+00
    0.33365E-08         0.31089E-09         0.00000E+00
    0.33761E-08         0.55288E-09         0.00000E+00
    0.34374E-08         0.72516E-09         0.00000E+00
    0.35159E-08         0.83911E-09         0.00000E+00
    0.36072E-08         0.90463E-09         0.00000E+00
    0.37070E-08         0.93008E-09         0.00000E+00
    0.38112E-08         0.92219E-09         0.00000E+00
    0.39158E-08         0.88616E-09         0.00000E+00
    0.40172E-08         0.82574E-09         0.00000E+00
    0.41119E-08         0.74332E-09         0.00000E+00
    0.41967E-08         0.64003E-09         0.00000E+00
    0.42684E-08         0.51583E-09         0.00000E+00
    0.43238E-08         0.36949E-09         0.00000E+00
    0.43596E-08         0.19853E-09         0.00000E+00
    0.43726E-08         0.10651E-09         0.00000E+00
    0.40992E-08         0.15423E-09         0.00000E+00
    0.41188E-08         0.27923E-09         0.00000E+00
    0.41727E-08         0.49406E-09         0.00000E+00
    0.42541E-08         0.64459E-09         0.00000E+00
    0.43563E-08         0.74215E-09         0.00000E+00
    0.44730E-08         0.79642E-09         0.00000E+00
    0.45986E-08         0.81539E-09         0.00000E+00
    0.47281E-08         0.80542E-09         0.00000E+00
    0.48570E-08         0.77136E-09         0.00000E+00
    0.49812E-08         0.71666E-09         0.00000E+00
    0.50969E-08         0.64351E-09         0.00000E+00
    0.52006E-08         0.55294E-09         0.00000E+00
    0.52886E-08         0.44493E-09         0.00000E+00
    0.53571E-08         0.31836E-09         0.00000E+00
    0.54019E-08         0.17100E-09         0.00000E+00
    0.54184E-08         0.91758E-10         0.00000E+00
    0.50482E-08         0.13147E-09         0.00000E+00
    0.50742E-08         0.23693E-09         0.00000E+00
    0.51440E-08         0.41699E-09         0.00000E+00
    0.52472E-08         0.54107E-09         0.00000E+00
    0.53745E-08         0.61976E-09         0.00000E+00
    0.55175E-08         0.66187E-09         0.00000E+00
    0.56695E-08         0.67457E-09         0.00000E+00
    0.58244E-08         0.66345E-09         0.00000E+00
    0.59774E-08         0.63275E-09         0.00000E+00
    0.61241E-08         0.58548E-09         0.00000E+00
    0.62605E-08         0.52360E-09         0.00000E+00
    0.63828E-08         0.44808E-09         0.00000E+00
    0.64869E-08         0.35908E-09         0.00000E+00
    0.65686E-08         0.25591E-09         0.00000E+00
    0.66227E-08         0.13695E-09         0.00000E+00
    0.66431E-08         0.73257E-10         0.00000E+00
    0.62015E-08         0.10197E-09         0.00000E+00
    0.62344E-08         0.18293E-09         0.00000E+00
    0.63211E-08         0.32029E-09         0.00000E+00
    0.64470E-08         0.41346E-09         0.00000E+00
    0.65995E-08         0.47128E-09         0.00000E+00
    0.67684E-08         0.50091E-09         0.00000E+00
    0.69456E-08         0.50802E-09         0.00000E+00
    0.71244E-08         0.49704E-09         0.00000E+00
    0.72997E-08         0.47131E-09         0.00000E+00
    0.74669E-08         0.43325E-09         0.00000E+00
    0.76221E-08         0.38452E-09         0.00000E+00
    0.77613E-08         0.32617E-09         0.00000E+00
    0.78805E-08         0.25872E-09         0.00000E+00
    0.79746E-08         0.18224E-09         0.00000E+00
    0.80377E-08         0.96296E-10         0.00000E+00
    0.80618E-08         0.50871E-10         0.00000E+00
    0.75936E-08         0.65224E-10         0.00000E+00
    0.76338E-08         0.11661E-09         0.00000E+00
    0.77376E-08         0.20350E-09         0.00000E+00
    0.78856E-08         0.26192E-09         0.00000E+00
    0.80618E-08         0.29768E-09         0.00000E+00
    0.82540E-08         0.31524E-09         0.00000E+00
    0.84531E-08         0.31806E-09         0.00000E+00
    0.86521E-08         0.30889E-09         0.00000E+00
    0.88457E-08         0.28988E-09         0.00000E+00
    0.90295E-08         0.26274E-09         0.00000E+00
    0.91997E-08         0.22883E-09         0.00000E+00
    0.93527E-08         0.18932E-09         0.00000E+00
    0.94841E-08         0.14538E-09         0.00000E+00
    0.95889E-08         0.98267E-10         0.00000E+00
    0.96599E-08         0.49386E-10         0.00000E+00
    0.96876E-08         0.24686E-10         0.00000E+00
    0.92609E-08         0.21028E-10         0.00000E+00
    0.93083E-08         0.38007E-10         0.00000E+00
    0.94283E-08         0.67424E-10         0.00000E+00
    0.95958E-08         0.88471E-10         0.00000E+00
    0.97916E-08         0.10216E-09         0.00000E+00
    0.10002E-07         0.10898E-09         0.00000E+00
    0.10217E-07         0.10942E-09         0.00000E+00
    0.10430E-07         0.10403E-09         0.00000E+00
    0.10635E-07         0.93555E-10         0.00000E+00
    0.10830E-07         0.78845E-10         0.00000E+00
    0.11009E-07         0.60969E-10         0.00000E+00
    0.11170E-07         0.41357E-10         0.00000E+00
    0.11310E-07         0.22053E-10         0.00000E+00
    0.11422E-07         0.59798E-11         0.00000E+00
    0.11499E-07        -0.28612E-11         0.00000E+00
    0.11530E-07        -0.49025E-11         0.00000E+00
    0.11240E-07        -0.30308E-10         0.00000E+00
    0.11294E-07        -0.51826E-10         0.00000E+00
    0.11427E-07        -0.85178E-10         0.00000E+00
    0.11609E-07        -0.10234E-09         0.00000E+00
    0.11817E-07        -0.10927E-09         0.00000E+00
    0.12037E-07        -0.11081E-09         0.00000E+00
    0.12259E-07        -0.11031E-09         0.00000E+00
    0.12477E-07        -0.10976E-09         0.00000E+00
    0.12685E-07        -0.11004E-09         0.00000E+00
    0.12881E-07        -0.11120E-09         0.00000E+00
    0.13061E-07        -0.11243E-09         0.00000E+00
    0.13224E-07        -0.11196E-09         0.00000E+00
    0.13365E-07        -0.10661E-09         0.00000E+00
    0.13480E-07        -0.91363E-10         0.00000E+00
    0.13559E-07        -0.58793E-10         0.00000E+00
    0.13592E-07        -0.37088E-10         0.00000E+00
    0.13563E-07        -0.87681E-10         0.00000E+00
    0.13621E-07        -0.15035E-09         0.00000E+00
    0.13763E-07        -0.24893E-09         0.00000E+00
    0.13950E-07        -0.30265E-09         0.00000E+00
    0.14160E-07        -0.32702E-09         0.00000E+00
    0.14378E-07        -0.33365E-09         0.00000E+00
    0.14594E-07        -0.33032E-09         0.00000E+00
    0.14804E-07        -0.32180E-09         0.00000E+00
    0.15003E-07        -0.31064E-09         0.00000E+00
    0.15189E-07        -0.29772E-09         0.00000E+00
    0.15361E-07        -0.28248E-09         0.00000E+00
    0.15515E-07        -0.26274E-09         0.00000E+00
    0.15650E-07        -0.23407E-09         0.00000E+00
    0.15760E-07        -0.18898E-09         0.00000E+00
    0.15838E-07        -0.11585E-09         0.00000E+00
    0.15871E-07        -0.70537E-10         0.00000E+00
    0.16255E-07        -0.14881E-09         0.00000E+00
    0.16315E-07        -0.25292E-09         0.00000E+00
    0.16455E-07        -0.41489E-09         0.00000E+00
    0.16635E-07        -0.50045E-09         0.00000E+00
    0.16831E-07        -0.53743E-09         0.00000E+00
    0.17030E-07        -0.54531E-09         0.00000E+00
    0.17226E-07        -0.53657E-09         0.00000E+00
    0.17413E-07        -0.51863E-09         0.00000E+00
    0.17589E-07        -0.49550E-09         0.00000E+00
    0.17753E-07        -0.46879E-09         0.00000E+00
    0.17903E-07        -0.43816E-09         0.00000E+00
    0.18037E-07        -0.40104E-09         0.00000E+00
    0.18155E-07        -0.35182E-09         0.00000E+00
    0.18253E-07        -0.28042E-09         0.00000E+00
    0.18323E-07        -0.17042E-09         0.00000E+00
    0.18354E-07        -0.10326E-09         0.00000E+00
    0.19324E-07        -0.20968E-09         0.00000E+00
    0.19381E-07        -0.35196E-09         0.00000E+00
    0.19507E-07        -0.56963E-09         0.00000E+00
    0.19660E-07        -0.67894E-09         0.00000E+00
    0.19823E-07        -0.72252E-09         0.00000E+00
    0.19984E-07        -0.72807E-09         0.00000E+00
    0.20140E-07        -0.71225E-09         0.00000E+00
    0.20288E-07        -0.68457E-09         0.00000E+00
    0.20426E-07        -0.65006E-09         0.00000E+00
    0.20553E-07        -0.61087E-09         0.00000E+00
    0.20668E-07        -0.56682E-09         0.00000E+00
    0.20770E-07        -0.51520E-09         0.00000E+00
    0.20860E-07        -0.44952E-09         0.00000E+00
    0.20934E-07        -0.35745E-09         0.00000E+00
    0.20990E-07        -0.21764E-09         0.00000E+00
    0.21015E-07        -0.13248E-09         0.00000E+00
    0.22752E-07        -0.26383E-09         0.00000E+00
    0.22798E-07        -0.43607E-09         0.00000E+00
    0.22890E-07        -0.69430E-09         0.00000E+00
    0.22994E-07        -0.81632E-09         0.00000E+00
    0.23099E-07        -0.86056E-09         0.00000E+00
    0.23202E-07        -0.86166E-09         0.00000E+00
    0.23299E-07        -0.83897E-09         0.00000E+00
    0.23390E-07        -0.80297E-09         0.00000E+00
    0.23475E-07        -0.75914E-09         0.00000E+00
    0.23551E-07        -0.70987E-09         0.00000E+00
    0.23618E-07        -0.65523E-09         0.00000E+00
    0.23677E-07        -0.59266E-09         0.00000E+00
    0.23726E-07        -0.51554E-09         0.00000E+00
    0.23766E-07        -0.41027E-09         0.00000E+00
    0.23797E-07        -0.25140E-09         0.00000E+00
    0.23813E-07        -0.15446E-09         0.00000E+00
    0.26476E-07        -0.30143E-09         0.00000E+00
    0.26499E-07        -0.48908E-09         0.00000E+00
    0.26532E-07        -0.76453E-09         0.00000E+00
    0.26560E-07        -0.88699E-09         0.00000E+00
    0.26584E-07        -0.92810E-09         0.00000E+00
    0.26607E-07        -0.92561E-09         0.00000E+00
    0.26629E-07        -0.89890E-09         0.00000E+00
    0.26650E-07        -0.85813E-09         0.00000E+00
    0.26667E-07        -0.80863E-09         0.00000E+00
    0.26681E-07        -0.75286E-09         0.00000E+00
    0.26690E-07        -0.69114E-09         0.00000E+00
    0.26694E-07        -0.62145E-09         0.00000E+00
    0.26692E-07        -0.53808E-09         0.00000E+00
    0.26688E-07        -0.42810E-09         0.00000E+00
    0.26684E-07        -0.26431E-09         0.00000E+00
    0.26685E-07        -0.16440E-09         0.00000E+00
    0.30362E-07        -0.30825E-09         0.00000E+00
    0.30346E-07        -0.48982E-09         0.00000E+00
    0.30292E-07        -0.75228E-09         0.00000E+00
    0.30221E-07        -0.86544E-09         0.00000E+00
    0.30147E-07        -0.90442E-09         0.00000E+00
    0.30078E-07        -0.90310E-09         0.00000E+00
    0.30013E-07        -0.87795E-09         0.00000E+00
    0.29953E-07        -0.83785E-09         0.00000E+00
    0.29896E-07        -0.78775E-09         0.00000E+00
    0.29840E-07        -0.73013E-09         0.00000E+00
    0.29784E-07        -0.66553E-09         0.00000E+00
    0.29727E-07        -0.59262E-09         0.00000E+00
    0.29669E-07        -0.50747E-09         0.00000E+00
    0.29613E-07        -0.40064E-09         0.00000E+00
    0.29566E-07        -0.24824E-09         0.00000E+00
    0.29546E-07        -0.15637E-09         0.00000E+00
    0.34171E-07        -0.26518E-09         0.00000E+00
    0.34095E-07        -0.41441E-09         0.00000E+00
    0.33937E-07        -0.63318E-09         0.00000E+00
    0.33761E-07        -0.73554E-09         0.00000E+00
    0.33589E-07        -0.77916E-09         0.00000E+00
    0.33427E-07        -0.78631E-09         0.00000E+00
    0.33275E-07        -0.76933E-09         0.00000E+00
    0.33132E-07        -0.73599E-09         0.00000E+00
    0.32998E-07        -0.69116E-09         0.00000E+00
    0.32870E-07        -0.63735E-09         0.00000E+00
    0.32749E-07        -0.57517E-09         0.00000E+00
    0.32634E-07        -0.50363E-09         0.00000E+00
    0.32523E-07        -0.42034E-09         0.00000E+00
    0.32418E-07        -0.32172E-09         0.00000E+00
    0.32324E-07        -0.19571E-09         0.00000E+00
    0.32277E-07        -0.12336E-09         0.00000E+00
    0.37495E-07        -0.15121E-09         0.00000E+00
    0.37351E-07        -0.24738E-09         0.00000E+00
    0.37120E-07        -0.40664E-09         0.00000E+00
    0.36876E-07        -0.50717E-09         0.00000E+00
    0.36633E-07        -0.56178E-09         0.00000E+00
    0.36395E-07        -0.58144E-09         0.00000E+00
    0.36166E-07        -0.57637E-09         0.00000E+00
    0.35947E-07        -0.55439E-09         0.00000E+00
    0.35740E-07        -0.52049E-09         0.00000E+00
    0.35547E-07        -0.47713E-09         0.00000E+00
    0.35368E-07        -0.42468E-09         0.00000E+00
    0.35204E-07        -0.36183E-09         0.00000E+00
    0.35056E-07        -0.28644E-09         0.00000E+00
    0.34924E-07        -0.19735E-09         0.00000E+00
    0.34808E-07        -0.10451E-09         0.00000E+00
    0.34725E-07        -0.59649E-10         0.00000E+00
    0.39629E-07         0.33484E-10         0.00000E+00
    0.39561E-07        -0.24984E-10         0.00000E+00
    0.39403E-07        -0.14076E-09         0.00000E+00
    0.39178E-07        -0.23349E-09         0.00000E+00
    0.38914E-07        -0.28646E-09         0.00000E+00
    0.38631E-07        -0.30953E-09         0.00000E+00
    0.38344E-07        -0.31282E-09         0.00000E+00
    0.38064E-07        -0.30323E-09         0.00000E+00
    0.37798E-07        -0.28479E-09         0.00000E+00
    0.37551E-07        -0.25931E-09         0.00000E+00
    0.37328E-07        -0.22681E-09         0.00000E+00
    0.37133E-07        -0.18573E-09         0.00000E+00
    0.36973E-07        -0.13325E-09         0.00000E+00
    0.36855E-07        -0.66815E-10         0.00000E+00
    0.36785E-07         0.81645E-11         0.00000E+00
    0.36758E-07         0.46219E-10         0.00000E+00
    0.40285E-07         0.00000E+00         0.00000E+00
    0.40328E-07         0.00000E+00         0.00000E+00
    0.40260E-07        -0.11178E-21         0.00000E+00
    0.40074E-07         0.26401E-25         0.00000E+00
    0.39813E-07         0.11595E-21         0.00000E+00
    0.39516E-07         0.00000E+00         0.00000E+00
    0.39206E-07         0.00000E+00         0.00000E+00
    0.38900E-07        -0.11187E-21         0.00000E+00
    0.38608E-07        -0.10773E-21         0.00000E+00
    0.38338E-07         0.10775E-21         0.00000E+00
    0.38097E-07         0.11189E-21         0.00000E+00
    0.37892E-07        -0.11191E-21         0.00000E+00
    0.37733E-07        -0.41336E-23         0.00000E+00
    0.37634E-07         0.11193E-21         0.00000E+00
    0.37611E-07         0.82920E-23         0.00000E+00
    0.37661E-07         0.00000E+00         0.00000E+00
CELL_DATA        450
TENSORS stressef double 
    0.69698E+07         0.11210E+05         0.00000E+00
    0.11210E+05        -0.51052E+07         0.00000E+00
    0.00000E+00         0.00000E+00         0.37291E+06
 
    0.65027E+07         0.29631E+05         0.00000E+00
    0.29631E+05        -0.50208E+07         0.00000E+00
    0.00000E+00         0.00000E+00         0.29638E+06
 
    0.59897E+07         0.43500E+05         0.00000E+00
    0.43500E+05        -0.48674E+07         0.00000E+00
    0.00000E+00         0.00000E+00         0.22445E+06
 
    0.54467E+07         0.53778E+05         0.00000E+00
    0.53778E+05        -0.46606E+07         0.00000E+00
    0.00000E+00         0.00000E+00         0.15721E+06
 
    0.48866E+07         0.61346E+05         0.00000E+00
    0.61346E+05        -0.44139E+07         0.00000E+00
    0.00000E+00         0.00000E+00         0.94538E+05
 
    0.43197E+07         0.66968E+05         0.00000E+00
    0.66968E+05        -0.41387E+07         0.00000E+00
    0.00000E+00         0.00000E+00         0.36208E+05
 
    0.37541E+07         0.71263E+05         0.00000E+00
    0.71263E+05        -0.38448E+07         0.00000E+00
    0.00000E+00         0.00000E+00        -0.18132E+05
 
    0.31959E+07         0.74699E+05         0.00000E+00
    0.74699E+05        -0.35405E+07         0.00000E+00
    0.00000E+00         0.00000E+00        -0.68908E+05
 
    0.26498E+07         0.77582E+05         0.00000E+00
    0.77582E+05        -0.32329E+07         0.00000E+00
    0.00000E+00         0.00000E+00        -0.11661E+06
 
    0.21196E+07         0.80071E+05         0.00000E+00
    0.80071E+05        -0.29283E+07         0.00000E+00
    0.00000E+00         0.00000E+00        -0.16176E+06
 
    0.16082E+07         0.82189E+05         0.00000E+00
    0.82189E+05        -0.26327E+07         0.00000E+00
    0.00000E+00         0.00000E+00        -0.20490E+06
 
    0.11184E+07         0.83846E+05         0.00000E+00
    0.83846E+05        -0.23515E+07         0.00000E+00
    0.00000E+00         0.00000E+00        -0.24662E+06
 
    0.65305E+06         0.84876E+05         0.00000E+00
    0.84876E+05        -0.20904E+07         0.00000E+00
    0.00000E+00         0.00000E+00        -0.28747E+06
 
    0.21481E+06         0.85072E+05         0.00000E+00
    0.85072E+05        -0.18550E+07         0.00000E+00
    0.00000E+00         0.00000E+00        -0.32803E+06
 
   -0.19329E+06         0.84234E+05         0.00000E+00
    0.84234E+05        -0.16511E+07         0.00000E+00
    0.00000E+00         0.00000E+00        -0.36887E+06
 
    0.70006E+07         0.33392E+05         0.00000E+00
    0.33392E+05        -0.51166E+07         0.00000E+00
    0.00000E+00         0.00000E+00         0.37680E+06
 
    0.65237E+07         0.88188E+05         0.00000E+00
    0.88188E+05        -0.50328E+07         0.00000E+00
    0.00000E+00         0.00000E+00         0.29816E+06
 
    0.60030E+07         0.12938E+06         0.00000E+00
    0.12938E+06        -0.48809E+07         0.00000E+00
    0.00000E+00         0.00000E+00         0.22443E+06
 
    0.54543E+07         0.15986E+06         0.00000E+00
    0.15986E+06        -0.46761E+07         0.00000E+00
    0.00000E+00         0.00000E+00         0.15563E+06
 
    0.48902E+07         0.18231E+06         0.00000E+00
    0.18231E+06        -0.44320E+07         0.00000E+00
    0.00000E+00         0.00000E+00         0.91638E+05
 
    0.43207E+07         0.19903E+06         0.00000E+00
    0.19903E+06        -0.41598E+07         0.00000E+00
    0.00000E+00         0.00000E+00         0.32181E+05
 
    0.37536E+07         0.21187E+06         0.00000E+00
    0.21187E+06        -0.38692E+07         0.00000E+00
    0.00000E+00         0.00000E+00        -0.23118E+05
 
    0.31946E+07         0.22223E+06         0.00000E+00
    0.22223E+06        -0.35681E+07         0.00000E+00
    0.00000E+00         0.00000E+00        -0.74713E+05
 
    0.26481E+07         0.23104E+06         0.00000E+00
    0.23104E+06        -0.32637E+07         0.00000E+00
    0.00000E+00         0.00000E+00        -0.12311E+06
 
    0.21175E+07         0.23876E+06         0.00000E+00
    0.23876E+06        -0.29619E+07         0.00000E+00
    0.00000E+00         0.00000E+00        -0.16887E+06
 
    0.16057E+07         0.24542E+06         0.00000E+00
    0.24542E+06        -0.26685E+07         0.00000E+00
    0.00000E+00         0.00000E+00        -0.21255E+06
 
    0.11153E+07         0.25076E+06         0.00000E+00
    0.25076E+06        -0.23889E+07         0.00000E+00
    0.00000E+00         0.00000E+00        -0.25474E+06
 
    0.64867E+06         0.25425E+06         0.00000E+00
    0.25425E+06        -0.21287E+07         0.00000E+00
    0.00000E+00         0.00000E+00        -0.29601E+06
 
    0.20875E+06         0.25524E+06         0.00000E+00
    0.25524E+06        -0.18934E+07         0.00000E+00
    0.00000E+00         0.00000E+00        -0.33693E+06
 
   -0.20149E+06         0.25309E+06         0.00000E+00
    0.25309E+06        -0.16890E+07         0.00000E+00
    0.00000E+00         0.00000E+00        -0.37809E+06
 
    0.70608E+07         0.54852E+05         0.00000E+00
    0.54852E+05        -0.51397E+07         0.00000E+00
    0.00000E+00         0.00000E+00         0.38422E+06
 
    0.65643E+07         0.14462E+06         0.00000E+00
    0.14462E+06        -0.50574E+07         0.00000E+00
    0.00000E+00         0.00000E+00         0.30138E+06
 
    0.60284E+07         0.21186E+06         0.00000E+00
    0.21186E+06        -0.49082E+07         0.00000E+00
    0.00000E+00         0.00000E+00         0.22403E+06
 
    0.54684E+07         0.26151E+06         0.00000E+00
    0.26151E+06        -0.47077E+07         0.00000E+00
    0.00000E+00         0.00000E+00         0.15214E+06
 
    0.48965E+07         0.29808E+06         0.00000E+00
    0.29808E+06        -0.44690E+07         0.00000E+00
    0.00000E+00         0.00000E+00         0.85509E+05
 
    0.43220E+07         0.32543E+06         0.00000E+00
    0.32543E+06        -0.42030E+07         0.00000E+00
    0.00000E+00         0.00000E+00         0.23809E+05
 
    0.37519E+07         0.34668E+06         0.00000E+00
    0.34668E+06        -0.39189E+07         0.00000E+00
    0.00000E+00         0.00000E+00        -0.33397E+05
 
    0.31914E+07         0.36416E+06         0.00000E+00
    0.36416E+06        -0.36245E+07         0.00000E+00
    0.00000E+00         0.00000E+00        -0.86620E+05
 
    0.26443E+07         0.37938E+06         0.00000E+00
    0.37938E+06        -0.33264E+07         0.00000E+00
    0.00000E+00         0.00000E+00        -0.13642E+06
 
    0.21133E+07         0.39305E+06         0.00000E+00
    0.39305E+06        -0.30302E+07         0.00000E+00
    0.00000E+00         0.00000E+00        -0.18339E+06
 
    0.16007E+07         0.40522E+06         0.00000E+00
    0.40522E+06        -0.27414E+07         0.00000E+00
    0.00000E+00         0.00000E+00        -0.22813E+06
 
    0.11088E+07         0.41536E+06         0.00000E+00
    0.41536E+06        -0.24651E+07         0.00000E+00
    0.00000E+00         0.00000E+00        -0.27125E+06
 
    0.63983E+06         0.42251E+06         0.00000E+00
    0.42251E+06        -0.22066E+07         0.00000E+00
    0.00000E+00         0.00000E+00        -0.31336E+06
 
    0.19649E+06         0.42549E+06         0.00000E+00
    0.42549E+06        -0.19716E+07         0.00000E+00
    0.00000E+00         0.00000E+00        -0.35503E+06
 
   -0.21814E+06         0.42314E+06         0.00000E+00
    0.42314E+06        -0.17661E+07         0.00000E+00
    0.00000E+00         0.00000E+00        -0.39684E+06
 
    0.71477E+07         0.75083E+05         0.00000E+00
    0.75083E+05        -0.51754E+07         0.00000E+00
    0.00000E+00         0.00000E+00         0.39446E+06
 
    0.66219E+07         0.19744E+06         0.00000E+00
    0.19744E+06        -0.50953E+07         0.00000E+00
    0.00000E+00         0.00000E+00         0.30533E+06
 
    0.60634E+07         0.28860E+06         0.00000E+00
    0.28860E+06        -0.49506E+07         0.00000E+00
    0.00000E+00         0.00000E+00         0.22256E+06
 
    0.54869E+07         0.35567E+06         0.00000E+00
    0.35567E+06        -0.47567E+07         0.00000E+00
    0.00000E+00         0.00000E+00         0.14605E+06
 
    0.49036E+07         0.40508E+06         0.00000E+00
    0.40508E+06        -0.45262E+07         0.00000E+00
    0.00000E+00         0.00000E+00         0.75485E+05
 
    0.43219E+07         0.44231E+06         0.00000E+00
    0.44231E+06        -0.42697E+07         0.00000E+00
    0.00000E+00         0.00000E+00         0.10448E+05
 
    0.37479E+07         0.47176E+06         0.00000E+00
    0.47176E+06        -0.39958E+07         0.00000E+00
    0.00000E+00         0.00000E+00        -0.49592E+05
 
    0.31855E+07         0.49667E+06         0.00000E+00
    0.49667E+06        -0.37117E+07         0.00000E+00
    0.00000E+00         0.00000E+00        -0.10523E+06
 
    0.26377E+07         0.51910E+06         0.00000E+00
    0.51910E+06        -0.34232E+07         0.00000E+00
    0.00000E+00         0.00000E+00        -0.15710E+06
 
    0.21063E+07         0.53998E+06         0.00000E+00
    0.53998E+06        -0.31356E+07         0.00000E+00
    0.00000E+00         0.00000E+00        -0.20587E+06
 
    0.15928E+07         0.55927E+06         0.00000E+00
    0.55927E+06        -0.28538E+07         0.00000E+00
    0.00000E+00         0.00000E+00        -0.25219E+06
 
    0.10989E+07         0.57608E+06         0.00000E+00
    0.57608E+06        -0.25825E+07         0.00000E+00
    0.00000E+00         0.00000E+00        -0.29672E+06
 
    0.62635E+06         0.58892E+06         0.00000E+00
    0.58892E+06        -0.23268E+07         0.00000E+00
    0.00000E+00         0.00000E+00        -0.34009E+06
 
    0.17775E+06         0.59593E+06         0.00000E+00
    0.59593E+06        -0.20923E+07         0.00000E+00
    0.00000E+00         0.00000E+00        -0.38291E+06
 
   -0.24372E+06         0.59529E+06         0.00000E+00
    0.59529E+06        -0.18850E+07         0.00000E+00
    0.00000E+00         0.00000E+00        -0.42574E+06
 
    0.72570E+07         0.93544E+05         0.00000E+00
    0.93544E+05        -0.52249E+07         0.00000E+00
    0.00000E+00         0.00000E+00         0.40641E+06
 
    0.66924E+07         0.24508E+06         0.00000E+00
    0.24508E+06        -0.51480E+07         0.00000E+00
    0.00000E+00         0.00000E+00         0.30889E+06
 
    0.61043E+07         0.35712E+06         0.00000E+00
    0.35712E+06        -0.50096E+07         0.00000E+00
    0.00000E+00         0.00000E+00         0.21893E+06
 
    0.55063E+07         0.43914E+06         0.00000E+00
    0.43914E+06        -0.48248E+07         0.00000E+00
    0.00000E+00         0.00000E+00         0.13630E+06
 
    0.49086E+07         0.49960E+06         0.00000E+00
    0.49960E+06        -0.46059E+07         0.00000E+00
    0.00000E+00         0.00000E+00         0.60544E+05
 
    0.43181E+07         0.54567E+06         0.00000E+00
    0.54567E+06        -0.43626E+07         0.00000E+00
    0.00000E+00         0.00000E+00        -0.88864E+04
 
    0.37395E+07         0.58305E+06         0.00000E+00
    0.58305E+06        -0.41028E+07         0.00000E+00
    0.00000E+00         0.00000E+00        -0.72649E+05
 
    0.31755E+07         0.61586E+06         0.00000E+00
    0.61586E+06        -0.38327E+07         0.00000E+00
    0.00000E+00         0.00000E+00        -0.13146E+06
 
    0.26274E+07         0.64665E+06         0.00000E+00
    0.64665E+06        -0.35576E+07         0.00000E+00
    0.00000E+00         0.00000E+00        -0.18605E+06
 
    0.20959E+07         0.67653E+06         0.00000E+00
    0.67653E+06        -0.32818E+07         0.00000E+00
    0.00000E+00         0.00000E+00        -0.23718E+06
 
    0.15816E+07         0.70523E+06         0.00000E+00
    0.70523E+06        -0.30096E+07         0.00000E+00
    0.00000E+00         0.00000E+00        -0.28559E+06
 
    0.10852E+07         0.73139E+06         0.00000E+00
    0.73139E+06        -0.27452E+07         0.00000E+00
    0.00000E+00         0.00000E+00        -0.33200E+06
 
    0.60793E+06         0.75280E+06         0.00000E+00
    0.75280E+06        -0.24933E+07         0.00000E+00
    0.00000E+00         0.00000E+00        -0.37707E+06
 
    0.15211E+06         0.76679E+06         0.00000E+00
    0.76679E+06        -0.22593E+07         0.00000E+00
    0.00000E+00         0.00000E+00        -0.42144E+06
 
   -0.27899E+06         0.77058E+06         0.00000E+00
    0.77058E+06        -0.20495E+07         0.00000E+00
    0.00000E+00         0.00000E+00        -0.46570E+06
 
    0.73828E+07         0.10964E+06         0.00000E+00
    0.10964E+06        -0.52903E+07         0.00000E+00
    0.00000E+00         0.00000E+00         0.41850E+06
 
    0.67702E+07         0.28585E+06         0.00000E+00
    0.28585E+06        -0.52176E+07         0.00000E+00
    0.00000E+00         0.00000E+00         0.31052E+06
 
    0.61458E+07         0.41481E+06         0.00000E+00
    0.41481E+06        -0.50876E+07         0.00000E+00
    0.00000E+00         0.00000E+00         0.21164E+06
 
    0.55221E+07         0.50857E+06         0.00000E+00
    0.50857E+06        -0.49149E+07         0.00000E+00
    0.00000E+00         0.00000E+00         0.12143E+06
 
    0.49075E+07         0.57778E+06         0.00000E+00
    0.57778E+06        -0.47111E+07         0.00000E+00
    0.00000E+00         0.00000E+00         0.39280E+05
 
    0.43073E+07         0.63136E+06         0.00000E+00
    0.63136E+06        -0.44850E+07         0.00000E+00
    0.00000E+00         0.00000E+00        -0.35544E+05
 
    0.37242E+07         0.67633E+06         0.00000E+00
    0.67633E+06        -0.42435E+07         0.00000E+00
    0.00000E+00         0.00000E+00        -0.10386E+06
 
    0.31591E+07         0.71767E+06         0.00000E+00
    0.71767E+06        -0.39918E+07         0.00000E+00
    0.00000E+00         0.00000E+00        -0.16654E+06
 
    0.26117E+07         0.75838E+06         0.00000E+00
    0.75838E+06        -0.37340E+07         0.00000E+00
    0.00000E+00         0.00000E+00        -0.22446E+06
 
    0.20811E+07         0.79958E+06         0.00000E+00
    0.79958E+06        -0.34736E+07         0.00000E+00
    0.00000E+00         0.00000E+00        -0.27848E+06
 
    0.15664E+07         0.84070E+06         0.00000E+00
    0.84070E+06        -0.32138E+07         0.00000E+00
    0.00000E+00         0.00000E+00        -0.32947E+06
 
    0.10672E+07         0.87972E+06         0.00000E+00
    0.87972E+06        -0.29582E+07         0.00000E+00
    0.00000E+00         0.00000E+00        -0.37820E+06
 
    0.58413E+06         0.91354E+06         0.00000E+00
    0.91354E+06        -0.27113E+07         0.00000E+00
    0.00000E+00         0.00000E+00        -0.42543E+06
 
    0.11895E+06         0.93838E+06         0.00000E+00
    0.93838E+06        -0.24780E+07         0.00000E+00
    0.00000E+00         0.00000E+00        -0.47181E+06
 
   -0.32492E+06         0.95029E+06         0.00000E+00
    0.95029E+06        -0.22648E+07         0.00000E+00
    0.00000E+00         0.00000E+00        -0.51794E+06
 
    0.75173E+07         0.12273E+06         0.00000E+00
    0.12273E+06        -0.53740E+07         0.00000E+00
    0.00000E+00         0.00000E+00         0.42866E+06
 
    0.68477E+07         0.31791E+06         0.00000E+00
    0.31791E+06        -0.53068E+07         0.00000E+00
    0.00000E+00         0.00000E+00         0.30819E+06
 
    0.61811E+07         0.45883E+06         0.00000E+00
    0.45883E+06        -0.51876E+07         0.00000E+00
    0.00000E+00         0.00000E+00         0.19870E+06
 
    0.55281E+07         0.56036E+06         0.00000E+00
    0.56036E+06        -0.50304E+07         0.00000E+00
    0.00000E+00         0.00000E+00         0.99539E+05
 
    0.48951E+07         0.63551E+06         0.00000E+00
    0.63551E+06        -0.48457E+07         0.00000E+00
    0.00000E+00         0.00000E+00         0.98656E+04
 
    0.42850E+07         0.69503E+06         0.00000E+00
    0.69503E+06        -0.46414E+07         0.00000E+00
    0.00000E+00         0.00000E+00        -0.71271E+05
 
    0.36984E+07         0.74724E+06         0.00000E+00
    0.74724E+06        -0.44229E+07         0.00000E+00
    0.00000E+00         0.00000E+00        -0.14490E+06
 
    0.31338E+07         0.79795E+06         0.00000E+00
    0.79795E+06        -0.41942E+07         0.00000E+00
    0.00000E+00         0.00000E+00        -0.21207E+06
 
    0.25888E+07         0.85052E+06         0.00000E+00
    0.85052E+06        -0.39580E+07         0.00000E+00
    0.00000E+00         0.00000E+00        -0.27384E+06
 
    0.20604E+07         0.90598E+06         0.00000E+00
    0.90598E+06        -0.37167E+07         0.00000E+00
    0.00000E+00         0.00000E+00        -0.33125E+06
 
    0.15462E+07         0.96327E+06         0.00000E+00
    0.96327E+06        -0.34725E+07         0.00000E+00
    0.00000E+00         0.00000E+00        -0.38525E+06
 
    0.10443E+07         0.10195E+07         0.00000E+00
    0.10195E+07        -0.32281E+07         0.00000E+00
    0.00000E+00         0.00000E+00        -0.43676E+06
 
    0.55431E+06         0.10706E+07         0.00000E+00
    0.10706E+07        -0.29872E+07         0.00000E+00
    0.00000E+00         0.00000E+00        -0.48658E+06
 
    0.77499E+05         0.11112E+07         0.00000E+00
    0.11112E+07        -0.27547E+07         0.00000E+00
    0.00000E+00         0.00000E+00        -0.53545E+06
 
   -0.38277E+06         0.11359E+07         0.00000E+00
    0.11359E+07        -0.25371E+07         0.00000E+00
    0.00000E+00         0.00000E+00        -0.58397E+06
 
    0.76504E+07         0.13210E+06         0.00000E+00
    0.13210E+06        -0.54794E+07         0.00000E+00
    0.00000E+00         0.00000E+00         0.43421E+06
 
    0.69157E+07         0.33927E+06         0.00000E+00
    0.33927E+06        -0.54192E+07         0.00000E+00
    0.00000E+00         0.00000E+00         0.29930E+06
 
    0.62017E+07         0.48616E+06         0.00000E+00
    0.48616E+06        -0.53136E+07         0.00000E+00
    0.00000E+00         0.00000E+00         0.17761E+06
 
    0.55168E+07         0.59074E+06         0.00000E+00
    0.59074E+06        -0.51757E+07         0.00000E+00
    0.00000E+00         0.00000E+00         0.68219E+05
 
    0.48648E+07         0.66851E+06         0.00000E+00
    0.66851E+06        -0.50148E+07         0.00000E+00
    0.00000E+00         0.00000E+00        -0.29992E+05
 
    0.42459E+07         0.73214E+06         0.00000E+00
    0.73214E+06        -0.48372E+07         0.00000E+00
    0.00000E+00         0.00000E+00        -0.11824E+06
 
    0.36577E+07         0.79126E+06         0.00000E+00
    0.79126E+06        -0.46468E+07         0.00000E+00
    0.00000E+00         0.00000E+00        -0.19782E+06
 
    0.30961E+07         0.85243E+06         0.00000E+00
    0.85243E+06        -0.44461E+07         0.00000E+00
    0.00000E+00         0.00000E+00        -0.27001E+06
 
    0.25559E+07         0.91924E+06         0.00000E+00
    0.91924E+06        -0.42363E+07         0.00000E+00
    0.00000E+00         0.00000E+00        -0.33609E+06
 
    0.20319E+07         0.99249E+06         0.00000E+00
    0.99249E+06        -0.40183E+07         0.00000E+00
    0.00000E+00         0.00000E+00        -0.39727E+06
 
    0.15196E+07         0.10705E+07         0.00000E+00
    0.10705E+07        -0.37930E+07         0.00000E+00
    0.00000E+00         0.00000E+00        -0.45469E+06
 
    0.10154E+07         0.11493E+07         0.00000E+00
    0.11493E+07        -0.35622E+07         0.00000E+00
    0.00000E+00         0.00000E+00        -0.50937E+06
 
    0.51758E+06         0.12234E+07         0.00000E+00
    0.12234E+07        -0.33288E+07         0.00000E+00
    0.00000E+00         0.00000E+00        -0.56225E+06
 
    0.26715E+05         0.12859E+07         0.00000E+00
    0.12859E+07        -0.30972E+07         0.00000E+00
    0.00000E+00         0.00000E+00        -0.61410E+06
 
   -0.45403E+06         0.13293E+07         0.00000E+00
    0.13293E+07        -0.28739E+07         0.00000E+00
    0.00000E+00         0.00000E+00        -0.66558E+06
 
    0.77698E+07         0.13693E+06         0.00000E+00
    0.13693E+06        -0.56109E+07         0.00000E+00
    0.00000E+00         0.00000E+00         0.43179E+06
 
    0.69624E+07         0.34776E+06         0.00000E+00
    0.34776E+06        -0.55595E+07         0.00000E+00
    0.00000E+00         0.00000E+00         0.28058E+06
 
    0.61970E+07         0.49354E+06         0.00000E+00
    0.49354E+06        -0.54707E+07         0.00000E+00
    0.00000E+00         0.00000E+00         0.14525E+06
 
    0.54789E+07         0.59567E+06         0.00000E+00
    0.59567E+06        -0.53564E+07         0.00000E+00
    0.00000E+00         0.00000E+00         0.24500E+05
 
    0.48087E+07         0.67231E+06         0.00000E+00
    0.67231E+06        -0.52242E+07         0.00000E+00
    0.00000E+00         0.00000E+00        -0.83107E+05
 
    0.41832E+07         0.73804E+06         0.00000E+00
    0.73804E+06        -0.50788E+07         0.00000E+00
    0.00000E+00         0.00000E+00        -0.17912E+06
 
    0.35966E+07         0.80378E+06         0.00000E+00
    0.80378E+06        -0.49223E+07         0.00000E+00
    0.00000E+00         0.00000E+00        -0.26514E+06
 
    0.30414E+07         0.87674E+06         0.00000E+00
    0.87674E+06        -0.47550E+07         0.00000E+00
    0.00000E+00         0.00000E+00        -0.34273E+06
 
    0.25095E+07         0.96064E+06         0.00000E+00
    0.96064E+06        -0.45766E+07         0.00000E+00
    0.00000E+00         0.00000E+00        -0.41343E+06
 
    0.19929E+07         0.10559E+07         0.00000E+00
    0.10559E+07        -0.43864E+07         0.00000E+00
    0.00000E+00         0.00000E+00        -0.47868E+06
 
    0.14846E+07         0.11599E+07         0.00000E+00
    0.11599E+07        -0.41837E+07         0.00000E+00
    0.00000E+00         0.00000E+00        -0.53982E+06
 
    0.97899E+06         0.12676E+07         0.00000E+00
    0.12676E+07        -0.39692E+07         0.00000E+00
    0.00000E+00         0.00000E+00        -0.59805E+06
 
    0.47273E+06         0.13717E+07         0.00000E+00
    0.13717E+07        -0.37447E+07         0.00000E+00
    0.00000E+00         0.00000E+00        -0.65440E+06
 
   -0.34695E+05         0.14633E+07         0.00000E+00
    0.14633E+07        -0.35141E+07         0.00000E+00
    0.00000E+00         0.00000E+00        -0.70977E+06
 
   -0.54047E+06         0.15326E+07         0.00000E+00
    0.15326E+07        -0.32837E+07         0.00000E+00
    0.00000E+00         0.00000E+00        -0.76484E+06
 
    0.78602E+07         0.13638E+06         0.00000E+00
    0.13638E+06        -0.57742E+07         0.00000E+00
    0.00000E+00         0.00000E+00         0.41721E+06
 
    0.69738E+07         0.34103E+06         0.00000E+00
    0.34103E+06        -0.57336E+07         0.00000E+00
    0.00000E+00         0.00000E+00         0.24804E+06
 
    0.61542E+07         0.47754E+06         0.00000E+00
    0.47754E+06        -0.56652E+07         0.00000E+00
    0.00000E+00         0.00000E+00         0.97795E+05
 
    0.54031E+07         0.57098E+06         0.00000E+00
    0.57098E+06        -0.55792E+07         0.00000E+00
    0.00000E+00         0.00000E+00        -0.35225E+05
 
    0.47170E+07         0.64228E+06         0.00000E+00
    0.64228E+06        -0.54814E+07         0.00000E+00
    0.00000E+00         0.00000E+00        -0.15287E+06
 
    0.40887E+07         0.70798E+06         0.00000E+00
    0.70798E+06        -0.53741E+07         0.00000E+00
    0.00000E+00         0.00000E+00        -0.25709E+06
 
    0.35081E+07         0.78016E+06         0.00000E+00
    0.78016E+06        -0.52573E+07         0.00000E+00
    0.00000E+00         0.00000E+00        -0.34983E+06
 
    0.29642E+07         0.86658E+06         0.00000E+00
    0.86658E+06        -0.51293E+07         0.00000E+00
    0.00000E+00         0.00000E+00        -0.43302E+06
 
    0.24453E+07         0.97090E+06         0.00000E+00
    0.97090E+06        -0.49878E+07         0.00000E+00
    0.00000E+00         0.00000E+00        -0.50850E+06
 
    0.19401E+07         0.10930E+07         0.00000E+00
    0.10930E+07        -0.48300E+07         0.00000E+00
    0.00000E+00         0.00000E+00        -0.57798E+06
 
    0.14387E+07         0.12292E+07         0.00000E+00
    0.12292E+07        -0.46539E+07         0.00000E+00
    0.00000E+00         0.00000E+00        -0.64303E+06
 
    0.93313E+06         0.13731E+07         0.00000E+00
    0.13731E+07        -0.44585E+07         0.00000E+00
    0.00000E+00         0.00000E+00        -0.70507E+06
 
    0.41809E+06         0.15152E+07         0.00000E+00
    0.15152E+07        -0.42445E+07         0.00000E+00
    0.00000E+00         0.00000E+00        -0.76529E+06
 
   -0.10836E+06         0.16444E+07         0.00000E+00
    0.16444E+07        -0.40151E+07         0.00000E+00
    0.00000E+00         0.00000E+00        -0.82468E+06
 
   -0.64410E+06         0.17481E+07         0.00000E+00
    0.17481E+07        -0.37760E+07         0.00000E+00
    0.00000E+00         0.00000E+00        -0.88402E+06
 
    0.79031E+07         0.12949E+06         0.00000E+00
    0.12949E+06        -0.59764E+07         0.00000E+00
    0.00000E+00         0.00000E+00         0.38534E+06
 
    0.69328E+07         0.31659E+06         0.00000E+00
    0.31659E+06        -0.59488E+07         0.00000E+00
    0.00000E+00         0.00000E+00         0.19680E+06
 
    0.60581E+07         0.43455E+06         0.00000E+00
    0.43455E+06        -0.59049E+07         0.00000E+00
    0.00000E+00         0.00000E+00         0.30650E+05
 
    0.52761E+07         0.51237E+06         0.00000E+00
    0.51237E+06        -0.58525E+07         0.00000E+00
    0.00000E+00         0.00000E+00        -0.11528E+06
 
    0.45783E+07         0.57381E+06         0.00000E+00
    0.57381E+06        -0.57949E+07         0.00000E+00
    0.00000E+00         0.00000E+00        -0.24333E+06
 
    0.39525E+07         0.63727E+06         0.00000E+00
    0.63727E+06        -0.57320E+07         0.00000E+00
    0.00000E+00         0.00000E+00        -0.35591E+06
 
    0.33842E+07         0.71588E+06         0.00000E+00
    0.71588E+06        -0.56612E+07         0.00000E+00
    0.00000E+00         0.00000E+00        -0.45541E+06
 
    0.28578E+07         0.81775E+06         0.00000E+00
    0.81775E+06        -0.55785E+07         0.00000E+00
    0.00000E+00         0.00000E+00        -0.54415E+06
 
    0.23576E+07         0.94633E+06         0.00000E+00
    0.94633E+06        -0.54793E+07         0.00000E+00
    0.00000E+00         0.00000E+00        -0.62433E+06
 
    0.18689E+07         0.11007E+07         0.00000E+00
    0.11007E+07        -0.53589E+07         0.00000E+00
    0.00000E+00         0.00000E+00        -0.69800E+06
 
    0.13783E+07         0.12761E+07         0.00000E+00
    0.12761E+07        -0.52133E+07         0.00000E+00
    0.00000E+00         0.00000E+00        -0.76701E+06
 
    0.87504E+06         0.14642E+07         0.00000E+00
    0.14642E+07        -0.50401E+07         0.00000E+00
    0.00000E+00         0.00000E+00        -0.83301E+06
 
    0.35142E+06         0.16536E+07         0.00000E+00
    0.16536E+07        -0.48384E+07         0.00000E+00
    0.00000E+00         0.00000E+00        -0.89740E+06
 
   -0.19633E+06         0.18304E+07         0.00000E+00
    0.18304E+07        -0.46103E+07         0.00000E+00
    0.00000E+00         0.00000E+00        -0.96133E+06
 
   -0.76722E+06         0.19787E+07         0.00000E+00
    0.19787E+07        -0.43610E+07         0.00000E+00
    0.00000E+00         0.00000E+00        -0.10257E+07
 
    0.78763E+07         0.11524E+06         0.00000E+00
    0.11524E+06        -0.62264E+07         0.00000E+00
    0.00000E+00         0.00000E+00         0.32997E+06
 
    0.68193E+07         0.27181E+06         0.00000E+00
    0.27181E+06        -0.62144E+07         0.00000E+00
    0.00000E+00         0.00000E+00         0.12098E+06
 
    0.58908E+07         0.36089E+06         0.00000E+00
    0.36089E+06        -0.61993E+07         0.00000E+00
    0.00000E+00         0.00000E+00        -0.61691E+05
 
    0.50821E+07         0.41556E+06         0.00000E+00
    0.41556E+06        -0.61861E+07         0.00000E+00
    0.00000E+00         0.00000E+00        -0.22080E+06
 
    0.43788E+07         0.46237E+06         0.00000E+00
    0.46237E+06        -0.61750E+07         0.00000E+00
    0.00000E+00         0.00000E+00        -0.35925E+06
 
    0.37630E+07         0.52143E+06         0.00000E+00
    0.52143E+06        -0.61629E+07         0.00000E+00
    0.00000E+00         0.00000E+00        -0.48000E+06
 
    0.32148E+07         0.60671E+06         0.00000E+00
    0.60671E+06        -0.61445E+07         0.00000E+00
    0.00000E+00         0.00000E+00        -0.58594E+06
 
    0.27137E+07         0.72644E+06         0.00000E+00
    0.72644E+06        -0.61131E+07         0.00000E+00
    0.00000E+00         0.00000E+00        -0.67987E+06
 
    0.22396E+07         0.88359E+06         0.00000E+00
    0.88359E+06        -0.60616E+07         0.00000E+00
    0.00000E+00         0.00000E+00        -0.76440E+06
 
    0.17736E+07         0.10764E+07         0.00000E+00
    0.10764E+07        -0.59835E+07         0.00000E+00
    0.00000E+00         0.00000E+00        -0.84198E+06
 
    0.12988E+07         0.12986E+07         0.00000E+00
    0.12986E+07        -0.58726E+07         0.00000E+00
    0.00000E+00         0.00000E+00        -0.91477E+06
 
    0.80100E+06         0.15400E+07         0.00000E+00
    0.15400E+07        -0.57246E+07         0.00000E+00
    0.00000E+00         0.00000E+00        -0.98473E+06
 
    0.26975E+06         0.17870E+07         0.00000E+00
    0.17870E+07        -0.55372E+07         0.00000E+00
    0.00000E+00         0.00000E+00        -0.10535E+07
 
   -0.30114E+06         0.20226E+07         0.00000E+00
    0.20226E+07        -0.53107E+07         0.00000E+00
    0.00000E+00         0.00000E+00        -0.11224E+07
 
   -0.91236E+06         0.22273E+07         0.00000E+00
    0.22273E+07        -0.50495E+07         0.00000E+00
    0.00000E+00         0.00000E+00        -0.11924E+07
 
    0.77536E+07         0.92568E+05         0.00000E+00
    0.92568E+05        -0.65355E+07         0.00000E+00
    0.00000E+00         0.00000E+00         0.24362E+06
 
    0.66097E+07         0.20401E+06         0.00000E+00
    0.20401E+06        -0.65418E+07         0.00000E+00
    0.00000E+00         0.00000E+00         0.13578E+05
 
    0.56315E+07         0.25289E+06         0.00000E+00
    0.25289E+06        -0.65602E+07         0.00000E+00
    0.00000E+00         0.00000E+00        -0.18574E+06
 
    0.48030E+07         0.27641E+06         0.00000E+00
    0.27641E+06        -0.65920E+07         0.00000E+00
    0.00000E+00         0.00000E+00        -0.35780E+06
 
    0.41028E+07         0.30376E+06         0.00000E+00
    0.30376E+06        -0.66337E+07         0.00000E+00
    0.00000E+00         0.00000E+00        -0.50618E+06
 
    0.35065E+07         0.35648E+06         0.00000E+00
    0.35648E+06        -0.66787E+07         0.00000E+00
    0.00000E+00         0.00000E+00        -0.63445E+06
 
    0.29882E+07         0.44901E+06         0.00000E+00
    0.44901E+06        -0.67187E+07         0.00000E+00
    0.00000E+00         0.00000E+00        -0.74611E+06
 
    0.25219E+07         0.58938E+06         0.00000E+00
    0.58938E+06        -0.67442E+07         0.00000E+00
    0.00000E+00         0.00000E+00        -0.84447E+06
 
    0.20825E+07         0.77986E+06         0.00000E+00
    0.77986E+06        -0.67458E+07         0.00000E+00
    0.00000E+00         0.00000E+00        -0.93266E+06
 
    0.16469E+07         0.10175E+07         0.00000E+00
    0.10175E+07        -0.67145E+07         0.00000E+00
    0.00000E+00         0.00000E+00        -0.10135E+07
 
    0.11940E+07         0.12948E+07         0.00000E+00
    0.12948E+07        -0.66423E+07         0.00000E+00
    0.00000E+00         0.00000E+00        -0.10897E+07
 
    0.70605E+06         0.15994E+07         0.00000E+00
    0.15994E+07        -0.65227E+07         0.00000E+00
    0.00000E+00         0.00000E+00        -0.11633E+07
 
    0.16911E+06         0.19153E+07         0.00000E+00
    0.19153E+07        -0.63514E+07         0.00000E+00
    0.00000E+00         0.00000E+00        -0.12365E+07
 
   -0.42598E+06         0.22223E+07         0.00000E+00
    0.22223E+07        -0.61272E+07         0.00000E+00
    0.00000E+00         0.00000E+00        -0.13106E+07
 
   -0.10823E+07         0.24970E+07         0.00000E+00
    0.24970E+07        -0.58526E+07         0.00000E+00
    0.00000E+00         0.00000E+00        -0.13870E+07
 
    0.75042E+07         0.60363E+05         0.00000E+00
    0.60363E+05        -0.69173E+07         0.00000E+00
    0.00000E+00         0.00000E+00         0.11737E+06
 
    0.62765E+07         0.11051E+06         0.00000E+00
    0.11051E+06        -0.69449E+07         0.00000E+00
    0.00000E+00         0.00000E+00        -0.13367E+06
 
    0.52559E+07         0.10705E+06         0.00000E+00
    0.10705E+06        -0.70016E+07         0.00000E+00
    0.00000E+00         0.00000E+00        -0.34914E+06
 
    0.44176E+07         0.91191E+05         0.00000E+00
    0.91191E+05        -0.70841E+07         0.00000E+00
    0.00000E+00         0.00000E+00        -0.53330E+06
 
    0.37320E+07         0.94414E+05         0.00000E+00
    0.94414E+05        -0.71847E+07         0.00000E+00
    0.00000E+00         0.00000E+00        -0.69053E+06
 
    0.31672E+07         0.13920E+06         0.00000E+00
    0.13920E+06        -0.72928E+07         0.00000E+00
    0.00000E+00         0.00000E+00        -0.82512E+06
 
    0.26904E+07         0.24000E+06         0.00000E+00
    0.24000E+06        -0.73966E+07         0.00000E+00
    0.00000E+00         0.00000E+00        -0.94123E+06
 
    0.22700E+07         0.40424E+06         0.00000E+00
    0.40424E+06        -0.74840E+07         0.00000E+00
    0.00000E+00         0.00000E+00        -0.10428E+07
 
    0.18756E+07         0.63319E+06         0.00000E+00
    0.63319E+06        -0.75431E+07         0.00000E+00
    0.00000E+00         0.00000E+00        -0.11335E+07
 
    0.14794E+07         0.92266E+06         0.00000E+00
    0.92266E+06        -0.75626E+07         0.00000E+00
    0.00000E+00         0.00000E+00        -0.12167E+07
 
    0.10560E+07         0.12634E+07         0.00000E+00
    0.12634E+07        -0.75326E+07         0.00000E+00
    0.00000E+00         0.00000E+00        -0.12953E+07
 
    0.58364E+06         0.16416E+07         0.00000E+00
    0.16416E+07        -0.74444E+07         0.00000E+00
    0.00000E+00         0.00000E+00        -0.13722E+07
 
    0.44337E+05         0.20384E+07         0.00000E+00
    0.20384E+07        -0.72915E+07         0.00000E+00
    0.00000E+00         0.00000E+00        -0.14494E+07
 
   -0.57481E+06         0.24307E+07         0.00000E+00
    0.24307E+07        -0.70703E+07         0.00000E+00
    0.00000E+00         0.00000E+00        -0.15290E+07
 
   -0.12803E+07         0.27906E+07         0.00000E+00
    0.27906E+07        -0.67811E+07         0.00000E+00
    0.00000E+00         0.00000E+00        -0.16123E+07
 
    0.70922E+07         0.17507E+05         0.00000E+00
    0.17507E+05        -0.73886E+07         0.00000E+00
    0.00000E+00         0.00000E+00        -0.59283E+05
 
    0.57882E+07        -0.11266E+05         0.00000E+00
   -0.11266E+05        -0.74404E+07         0.00000E+00
    0.00000E+00         0.00000E+00        -0.33045E+06
 
    0.47366E+07        -0.79782E+05         0.00000E+00
   -0.79782E+05        -0.75403E+07         0.00000E+00
    0.00000E+00         0.00000E+00        -0.56074E+06
 
    0.39022E+07        -0.14317E+06         0.00000E+00
   -0.14317E+06        -0.76791E+07         0.00000E+00
    0.00000E+00         0.00000E+00        -0.75539E+06
 
    0.32457E+07        -0.16828E+06         0.00000E+00
   -0.16828E+06        -0.78439E+07         0.00000E+00
    0.00000E+00         0.00000E+00        -0.91964E+06
 
    0.27267E+07        -0.13240E+06         0.00000E+00
   -0.13240E+06        -0.80199E+07         0.00000E+00
    0.00000E+00         0.00000E+00        -0.10586E+07
 
    0.23053E+07        -0.21721E+05         0.00000E+00
   -0.21721E+05        -0.81919E+07         0.00000E+00
    0.00000E+00         0.00000E+00        -0.11773E+07
 
    0.19435E+07         0.17002E+06         0.00000E+00
    0.17002E+06        -0.83448E+07         0.00000E+00
    0.00000E+00         0.00000E+00        -0.12803E+07
 
    0.16057E+07         0.44278E+06         0.00000E+00
    0.44278E+06        -0.84646E+07         0.00000E+00
    0.00000E+00         0.00000E+00        -0.13718E+07
 
    0.12593E+07         0.79098E+06         0.00000E+00
    0.79098E+06        -0.85381E+07         0.00000E+00
    0.00000E+00         0.00000E+00        -0.14558E+07
 
    0.87462E+06         0.12039E+07         0.00000E+00
    0.12039E+07        -0.85532E+07         0.00000E+00
    0.00000E+00         0.00000E+00        -0.15357E+07
 
    0.42521E+06         0.16660E+07         0.00000E+00
    0.16660E+07        -0.84992E+07         0.00000E+00
    0.00000E+00         0.00000E+00        -0.16148E+07
 
   -0.11135E+06         0.21563E+07         0.00000E+00
    0.21563E+07        -0.83669E+07         0.00000E+00
    0.00000E+00         0.00000E+00        -0.16956E+07
 
   -0.75258E+06         0.26486E+07         0.00000E+00
    0.26486E+07        -0.81498E+07         0.00000E+00
    0.00000E+00         0.00000E+00        -0.17805E+07
 
   -0.15095E+07         0.31108E+07         0.00000E+00
    0.31108E+07        -0.78454E+07         0.00000E+00
    0.00000E+00         0.00000E+00        -0.18710E+07
 
    0.64764E+07        -0.37093E+05         0.00000E+00
   -0.37093E+05        -0.79695E+07         0.00000E+00
    0.00000E+00         0.00000E+00        -0.29863E+06
 
    0.51088E+07        -0.16365E+06         0.00000E+00
   -0.16365E+06        -0.80487E+07         0.00000E+00
    0.00000E+00         0.00000E+00        -0.58798E+06
 
    0.40426E+07        -0.31013E+06         0.00000E+00
   -0.31013E+06        -0.81963E+07         0.00000E+00
    0.00000E+00         0.00000E+00        -0.83075E+06
 
    0.32299E+07        -0.42868E+06         0.00000E+00
   -0.42868E+06        -0.83962E+07         0.00000E+00
    0.00000E+00         0.00000E+00        -0.10333E+07
 
    0.26205E+07        -0.48548E+06         0.00000E+00
   -0.48548E+06        -0.86295E+07         0.00000E+00
    0.00000E+00         0.00000E+00        -0.12018E+07
 
    0.21644E+07        -0.45857E+06         0.00000E+00
   -0.45857E+06        -0.88767E+07         0.00000E+00
    0.00000E+00         0.00000E+00        -0.13425E+07
 
    0.18140E+07        -0.33571E+06         0.00000E+00
   -0.33571E+06        -0.91190E+07         0.00000E+00
    0.00000E+00         0.00000E+00        -0.14610E+07
 
    0.15251E+07        -0.11245E+06         0.00000E+00
   -0.11245E+06        -0.93392E+07         0.00000E+00
    0.00000E+00         0.00000E+00        -0.15628E+07
 
    0.12569E+07         0.20948E+06         0.00000E+00
    0.20948E+06        -0.95211E+07         0.00000E+00
    0.00000E+00         0.00000E+00        -0.16528E+07
 
    0.97214E+06         0.62304E+06         0.00000E+00
    0.62304E+06        -0.96500E+07         0.00000E+00
    0.00000E+00         0.00000E+00        -0.17356E+07
 
    0.63676E+06         0.11163E+07         0.00000E+00
    0.11163E+07        -0.97122E+07         0.00000E+00
    0.00000E+00         0.00000E+00        -0.18151E+07
 
    0.21968E+06         0.16724E+07         0.00000E+00
    0.16724E+07        -0.96945E+07         0.00000E+00
    0.00000E+00         0.00000E+00        -0.18950E+07
 
   -0.30669E+06         0.22688E+07         0.00000E+00
    0.22688E+07        -0.95851E+07         0.00000E+00
    0.00000E+00         0.00000E+00        -0.19784E+07
 
   -0.96550E+06         0.28765E+07         0.00000E+00
    0.28765E+07        -0.93742E+07         0.00000E+00
    0.00000E+00         0.00000E+00        -0.20679E+07
 
   -0.17737E+07         0.34595E+07         0.00000E+00
    0.34595E+07        -0.90548E+07         0.00000E+00
    0.00000E+00         0.00000E+00        -0.21657E+07
 
    0.56097E+07        -0.10446E+06         0.00000E+00
   -0.10446E+06        -0.86843E+07         0.00000E+00
    0.00000E+00         0.00000E+00        -0.61492E+06
 
    0.41980E+07        -0.34855E+06         0.00000E+00
   -0.34855E+06        -0.87937E+07         0.00000E+00
    0.00000E+00         0.00000E+00        -0.91915E+06
 
    0.31394E+07        -0.58556E+06         0.00000E+00
   -0.58556E+06        -0.89930E+07         0.00000E+00
    0.00000E+00         0.00000E+00        -0.11707E+07
 
    0.23713E+07        -0.76585E+06         0.00000E+00
   -0.76585E+06        -0.92576E+07         0.00000E+00
    0.00000E+00         0.00000E+00        -0.13773E+07
 
    0.18305E+07        -0.85631E+06         0.00000E+00
   -0.85631E+06        -0.95616E+07         0.00000E+00
    0.00000E+00         0.00000E+00        -0.15462E+07
 
    0.14568E+07        -0.83718E+06         0.00000E+00
   -0.83718E+06        -0.98808E+07         0.00000E+00
    0.00000E+00         0.00000E+00        -0.16848E+07
 
    0.11948E+07        -0.69899E+06         0.00000E+00
   -0.69899E+06        -0.10193E+08         0.00000E+00
    0.00000E+00         0.00000E+00        -0.17997E+07
 
    0.99420E+06        -0.43991E+06         0.00000E+00
   -0.43991E+06        -0.10479E+08         0.00000E+00
    0.00000E+00         0.00000E+00        -0.18970E+07
 
    0.80960E+06        -0.63770E+05         0.00000E+00
   -0.63770E+05        -0.10722E+08         0.00000E+00
    0.00000E+00         0.00000E+00        -0.19825E+07
 
    0.59960E+06         0.42100E+06         0.00000E+00
    0.42100E+06        -0.10906E+08         0.00000E+00
    0.00000E+00         0.00000E+00        -0.20612E+07
 
    0.32593E+06         0.10017E+07         0.00000E+00
    0.10017E+07        -0.11015E+08         0.00000E+00
    0.00000E+00         0.00000E+00        -0.21379E+07
 
   -0.47162E+05         0.16608E+07         0.00000E+00
    0.16608E+07        -0.11036E+08         0.00000E+00
    0.00000E+00         0.00000E+00        -0.22165E+07
 
   -0.55293E+06         0.23750E+07         0.00000E+00
    0.23750E+07        -0.10952E+08         0.00000E+00
    0.00000E+00         0.00000E+00        -0.23009E+07
 
   -0.12213E+07         0.31136E+07         0.00000E+00
    0.31136E+07        -0.10750E+08         0.00000E+00
    0.00000E+00         0.00000E+00        -0.23942E+07
 
   -0.20769E+07         0.38373E+07         0.00000E+00
    0.38373E+07        -0.10417E+08         0.00000E+00
    0.00000E+00         0.00000E+00        -0.24988E+07
 
    0.44393E+07        -0.18549E+06         0.00000E+00
   -0.18549E+06        -0.95616E+07         0.00000E+00
    0.00000E+00         0.00000E+00        -0.10245E+07
 
    0.30111E+07        -0.56724E+06         0.00000E+00
   -0.56724E+06        -0.97038E+07         0.00000E+00
    0.00000E+00         0.00000E+00        -0.13385E+07
 
    0.19896E+07        -0.90632E+06         0.00000E+00
   -0.90632E+06        -0.99577E+07         0.00000E+00
    0.00000E+00         0.00000E+00        -0.15936E+07
 
    0.12942E+07        -0.11531E+07         0.00000E+00
   -0.11531E+07        -0.10288E+08         0.00000E+00
    0.00000E+00         0.00000E+00        -0.17989E+07
 
    0.84737E+06        -0.12771E+07         0.00000E+00
   -0.12771E+07        -0.10663E+08         0.00000E+00
    0.00000E+00         0.00000E+00        -0.19631E+07
 
    0.57810E+06        -0.12629E+07         0.00000E+00
   -0.12629E+07        -0.11051E+08         0.00000E+00
    0.00000E+00         0.00000E+00        -0.20946E+07
 
    0.42317E+06        -0.11053E+07         0.00000E+00
   -0.11053E+07        -0.11429E+08         0.00000E+00
    0.00000E+00         0.00000E+00        -0.22012E+07
 
    0.32706E+06        -0.80595E+06         0.00000E+00
   -0.80595E+06        -0.11776E+08         0.00000E+00
    0.00000E+00         0.00000E+00        -0.22899E+07
 
    0.24063E+06        -0.37132E+06         0.00000E+00
   -0.37132E+06        -0.12075E+08         0.00000E+00
    0.00000E+00         0.00000E+00        -0.23669E+07
 
    0.11933E+06         0.18903E+06         0.00000E+00
    0.18903E+06        -0.12310E+08         0.00000E+00
    0.00000E+00         0.00000E+00        -0.24382E+07
 
   -0.78564E+05         0.86225E+06         0.00000E+00
    0.86225E+06        -0.12465E+08         0.00000E+00
    0.00000E+00         0.00000E+00        -0.25088E+07
 
   -0.39335E+06         0.16314E+07         0.00000E+00
    0.16314E+07        -0.12524E+08         0.00000E+00
    0.00000E+00         0.00000E+00        -0.25835E+07
 
   -0.86440E+06         0.24737E+07         0.00000E+00
    0.24737E+07        -0.12469E+08         0.00000E+00
    0.00000E+00         0.00000E+00        -0.26666E+07
 
   -0.15296E+07         0.33581E+07         0.00000E+00
    0.33581E+07        -0.12279E+08         0.00000E+00
    0.00000E+00         0.00000E+00        -0.27617E+07
 
   -0.24233E+07         0.42429E+07         0.00000E+00
    0.42429E+07        -0.11937E+08         0.00000E+00
    0.00000E+00         0.00000E+00        -0.28721E+07
 
    0.29062E+07        -0.28087E+06         0.00000E+00
   -0.28087E+06        -0.10635E+08         0.00000E+00
    0.00000E+00         0.00000E+00        -0.15457E+07
 
    0.14996E+07        -0.82008E+06         0.00000E+00
   -0.82008E+06        -0.10812E+08         0.00000E+00
    0.00000E+00         0.00000E+00        -0.18624E+07
 
    0.55287E+06        -0.12707E+07         0.00000E+00
   -0.12707E+07        -0.11121E+08         0.00000E+00
    0.00000E+00         0.00000E+00        -0.21137E+07
 
   -0.35464E+05        -0.15858E+07         0.00000E+00
   -0.15858E+07        -0.11517E+08         0.00000E+00
    0.00000E+00         0.00000E+00        -0.23105E+07
 
   -0.35901E+06        -0.17407E+07         0.00000E+00
   -0.17407E+07        -0.11957E+08         0.00000E+00
    0.00000E+00         0.00000E+00        -0.24632E+07
 
   -0.49998E+06        -0.17264E+07         0.00000E+00
   -0.17264E+07        -0.12407E+08         0.00000E+00
    0.00000E+00         0.00000E+00        -0.25814E+07
 
   -0.52852E+06        -0.15440E+07         0.00000E+00
   -0.15440E+07        -0.12841E+08         0.00000E+00
    0.00000E+00         0.00000E+00        -0.26740E+07
 
   -0.50406E+06        -0.12003E+07         0.00000E+00
   -0.12003E+07        -0.13239E+08         0.00000E+00
    0.00000E+00         0.00000E+00        -0.27487E+07
 
   -0.47782E+06        -0.70422E+06         0.00000E+00
   -0.70422E+06        -0.13585E+08         0.00000E+00
    0.00000E+00         0.00000E+00        -0.28126E+07
 
   -0.49594E+06        -0.66309E+05         0.00000E+00
   -0.66309E+05        -0.13864E+08         0.00000E+00
    0.00000E+00         0.00000E+00        -0.28720E+07
 
   -0.60244E+06         0.70159E+06         0.00000E+00
    0.70159E+06        -0.14061E+08         0.00000E+00
    0.00000E+00         0.00000E+00        -0.29327E+07
 
   -0.84160E+06         0.15846E+07         0.00000E+00
    0.15846E+07        -0.14158E+08         0.00000E+00
    0.00000E+00         0.00000E+00        -0.29999E+07
 
   -0.12592E+07         0.25625E+07         0.00000E+00
    0.25625E+07        -0.14133E+08         0.00000E+00
    0.00000E+00         0.00000E+00        -0.30785E+07
 
   -0.19025E+07         0.36057E+07         0.00000E+00
    0.36057E+07        -0.13962E+08         0.00000E+00
    0.00000E+00         0.00000E+00        -0.31729E+07
 
   -0.28179E+07         0.46723E+07         0.00000E+00
    0.46723E+07        -0.13617E+08         0.00000E+00
    0.00000E+00         0.00000E+00        -0.32870E+07
 
    0.94603E+06        -0.39101E+06         0.00000E+00
   -0.39101E+06        -0.11942E+08         0.00000E+00
    0.00000E+00         0.00000E+00        -0.21992E+07
 
   -0.38831E+06        -0.11061E+07         0.00000E+00
   -0.11061E+07        -0.12155E+08         0.00000E+00
    0.00000E+00         0.00000E+00        -0.25086E+07
 
   -0.12125E+07        -0.16745E+07         0.00000E+00
   -0.16745E+07        -0.12519E+08         0.00000E+00
    0.00000E+00         0.00000E+00        -0.27464E+07
 
   -0.16527E+07        -0.20558E+07         0.00000E+00
   -0.20558E+07        -0.12974E+08         0.00000E+00
    0.00000E+00         0.00000E+00        -0.29254E+07
 
   -0.18201E+07        -0.22349E+07         0.00000E+00
   -0.22349E+07        -0.13470E+08         0.00000E+00
    0.00000E+00         0.00000E+00        -0.30580E+07
 
   -0.18076E+07        -0.22130E+07         0.00000E+00
   -0.22130E+07        -0.13968E+08         0.00000E+00
    0.00000E+00         0.00000E+00        -0.31551E+07
 
   -0.16909E+07        -0.19997E+07         0.00000E+00
   -0.19997E+07        -0.14442E+08         0.00000E+00
    0.00000E+00         0.00000E+00        -0.32266E+07
 
   -0.15310E+07        -0.16078E+07         0.00000E+00
   -0.16078E+07        -0.14875E+08         0.00000E+00
    0.00000E+00         0.00000E+00        -0.32811E+07
 
   -0.13786E+07        -0.10496E+07         0.00000E+00
   -0.10496E+07        -0.15252E+08         0.00000E+00
    0.00000E+00         0.00000E+00        -0.33262E+07
 
   -0.12792E+07        -0.33564E+06         0.00000E+00
   -0.33564E+06        -0.15564E+08         0.00000E+00
    0.00000E+00         0.00000E+00        -0.33686E+07
 
   -0.12773E+07         0.52471E+06         0.00000E+00
    0.52471E+06        -0.15795E+08         0.00000E+00
    0.00000E+00         0.00000E+00        -0.34145E+07
 
   -0.14202E+07         0.15209E+07         0.00000E+00
    0.15209E+07        -0.15928E+08         0.00000E+00
    0.00000E+00         0.00000E+00        -0.34697E+07
 
   -0.17601E+07         0.26375E+07         0.00000E+00
    0.26375E+07        -0.15938E+08         0.00000E+00
    0.00000E+00         0.00000E+00        -0.35397E+07
 
   -0.23548E+07         0.38497E+07         0.00000E+00
    0.38497E+07        -0.15793E+08         0.00000E+00
    0.00000E+00         0.00000E+00        -0.36296E+07
 
   -0.32658E+07         0.51176E+07         0.00000E+00
    0.51176E+07        -0.15455E+08         0.00000E+00
    0.00000E+00         0.00000E+00        -0.37442E+07
 
   -0.15101E+07        -0.51591E+06         0.00000E+00
   -0.51591E+06        -0.13528E+08         0.00000E+00
    0.00000E+00         0.00000E+00        -0.30075E+07
 
   -0.27059E+07        -0.14226E+07         0.00000E+00
   -0.14226E+07        -0.13775E+08         0.00000E+00
    0.00000E+00         0.00000E+00        -0.32963E+07
 
   -0.33483E+07        -0.21101E+07         0.00000E+00
   -0.21101E+07        -0.14190E+08         0.00000E+00
    0.00000E+00         0.00000E+00        -0.35076E+07
 
   -0.35922E+07        -0.25499E+07         0.00000E+00
   -0.25499E+07        -0.14693E+08         0.00000E+00
    0.00000E+00         0.00000E+00        -0.36570E+07
 
   -0.35673E+07        -0.27419E+07         0.00000E+00
   -0.27419E+07        -0.15226E+08         0.00000E+00
    0.00000E+00         0.00000E+00        -0.37587E+07
 
   -0.33764E+07        -0.27017E+07         0.00000E+00
   -0.27017E+07        -0.15750E+08         0.00000E+00
    0.00000E+00         0.00000E+00        -0.38253E+07
 
   -0.30975E+07        -0.24504E+07         0.00000E+00
   -0.24504E+07        -0.16240E+08         0.00000E+00
    0.00000E+00         0.00000E+00        -0.38676E+07
 
   -0.27897E+07        -0.20082E+07         0.00000E+00
   -0.20082E+07        -0.16683E+08         0.00000E+00
    0.00000E+00         0.00000E+00        -0.38946E+07
 
   -0.25000E+07        -0.13903E+07         0.00000E+00
   -0.13903E+07        -0.17072E+08         0.00000E+00
    0.00000E+00         0.00000E+00        -0.39144E+07
 
   -0.22699E+07        -0.60653E+06         0.00000E+00
   -0.60653E+06        -0.17399E+08         0.00000E+00
    0.00000E+00         0.00000E+00        -0.39338E+07
 
   -0.21418E+07         0.33815E+06         0.00000E+00
    0.33815E+06        -0.17655E+08         0.00000E+00
    0.00000E+00         0.00000E+00        -0.39593E+07
 
   -0.21642E+07         0.14401E+07         0.00000E+00
    0.14401E+07        -0.17821E+08         0.00000E+00
    0.00000E+00         0.00000E+00        -0.39970E+07
 
   -0.23954E+07         0.26926E+07         0.00000E+00
    0.26926E+07        -0.17869E+08         0.00000E+00
    0.00000E+00         0.00000E+00        -0.40529E+07
 
   -0.29053E+07         0.40790E+07         0.00000E+00
    0.40790E+07        -0.17761E+08         0.00000E+00
    0.00000E+00         0.00000E+00        -0.41332E+07
 
   -0.37732E+07         0.55657E+07         0.00000E+00
    0.55657E+07        -0.17445E+08         0.00000E+00
    0.00000E+00         0.00000E+00        -0.42437E+07
 
   -0.45343E+07        -0.65498E+06         0.00000E+00
   -0.65498E+06        -0.15439E+08         0.00000E+00
    0.00000E+00         0.00000E+00        -0.39946E+07
 
   -0.55058E+07        -0.17644E+07         0.00000E+00
   -0.17644E+07        -0.15719E+08         0.00000E+00
    0.00000E+00         0.00000E+00        -0.42450E+07
 
   -0.58936E+07        -0.25649E+07         0.00000E+00
   -0.25649E+07        -0.16173E+08         0.00000E+00
    0.00000E+00         0.00000E+00        -0.44133E+07
 
   -0.58858E+07        -0.30480E+07         0.00000E+00
   -0.30480E+07        -0.16705E+08         0.00000E+00
    0.00000E+00         0.00000E+00        -0.45182E+07
 
   -0.56310E+07        -0.32360E+07         0.00000E+00
   -0.32360E+07        -0.17250E+08         0.00000E+00
    0.00000E+00         0.00000E+00        -0.45761E+07
 
   -0.52385E+07        -0.31640E+07         0.00000E+00
   -0.31640E+07        -0.17767E+08         0.00000E+00
    0.00000E+00         0.00000E+00        -0.46012E+07
 
   -0.47843E+07        -0.28674E+07         0.00000E+00
   -0.28674E+07        -0.18240E+08         0.00000E+00
    0.00000E+00         0.00000E+00        -0.46048E+07
 
   -0.43209E+07        -0.23748E+07         0.00000E+00
   -0.23748E+07        -0.18661E+08         0.00000E+00
    0.00000E+00         0.00000E+00        -0.45964E+07
 
   -0.38865E+07        -0.17043E+07         0.00000E+00
   -0.17043E+07        -0.19032E+08         0.00000E+00
    0.00000E+00         0.00000E+00        -0.45837E+07
 
   -0.35145E+07        -0.86332E+06         0.00000E+00
   -0.86332E+06        -0.19353E+08         0.00000E+00
    0.00000E+00         0.00000E+00        -0.45735E+07
 
   -0.32420E+07         0.14987E+06         0.00000E+00
    0.14987E+06        -0.19618E+08         0.00000E+00
    0.00000E+00         0.00000E+00        -0.45720E+07
 
   -0.31161E+07         0.13420E+07         0.00000E+00
    0.13420E+07        -0.19812E+08         0.00000E+00
    0.00000E+00         0.00000E+00        -0.45856E+07
 
   -0.32002E+07         0.27190E+07         0.00000E+00
    0.27190E+07        -0.19904E+08         0.00000E+00
    0.00000E+00         0.00000E+00        -0.46209E+07
 
   -0.35768E+07         0.42780E+07         0.00000E+00
    0.42780E+07        -0.19847E+08         0.00000E+00
    0.00000E+00         0.00000E+00        -0.46848E+07
 
   -0.43469E+07         0.59966E+07         0.00000E+00
    0.59966E+07        -0.19575E+08         0.00000E+00
    0.00000E+00         0.00000E+00        -0.47845E+07
 
   -0.81983E+07        -0.80682E+06         0.00000E+00
   -0.80682E+06        -0.17727E+08         0.00000E+00
    0.00000E+00         0.00000E+00        -0.51851E+07
 
   -0.88359E+07        -0.21228E+07         0.00000E+00
   -0.21228E+07        -0.18033E+08         0.00000E+00
    0.00000E+00         0.00000E+00        -0.53739E+07
 
   -0.88811E+07        -0.30200E+07         0.00000E+00
   -0.30200E+07        -0.18509E+08         0.00000E+00
    0.00000E+00         0.00000E+00        -0.54781E+07
 
   -0.85600E+07        -0.35220E+07         0.00000E+00
   -0.35220E+07        -0.19041E+08         0.00000E+00
    0.00000E+00         0.00000E+00        -0.55201E+07
 
   -0.80381E+07        -0.36825E+07         0.00000E+00
   -0.36825E+07        -0.19557E+08         0.00000E+00
    0.00000E+00         0.00000E+00        -0.55190E+07
 
   -0.74256E+07        -0.35625E+07         0.00000E+00
   -0.35625E+07        -0.20024E+08         0.00000E+00
    0.00000E+00         0.00000E+00        -0.54900E+07
 
   -0.67897E+07        -0.32143E+07         0.00000E+00
   -0.32143E+07        -0.20434E+08         0.00000E+00
    0.00000E+00         0.00000E+00        -0.54448E+07
 
   -0.61692E+07        -0.26753E+07         0.00000E+00
   -0.26753E+07        -0.20793E+08         0.00000E+00
    0.00000E+00         0.00000E+00        -0.53925E+07
 
   -0.55881E+07        -0.19652E+07         0.00000E+00
   -0.19652E+07        -0.21112E+08         0.00000E+00
    0.00000E+00         0.00000E+00        -0.53400E+07
 
   -0.50669E+07        -0.10873E+07         0.00000E+00
   -0.10873E+07        -0.21399E+08         0.00000E+00
    0.00000E+00         0.00000E+00        -0.52932E+07
 
   -0.46325E+07        -0.30820E+05         0.00000E+00
   -0.30820E+05        -0.21656E+08         0.00000E+00
    0.00000E+00         0.00000E+00        -0.52577E+07
 
   -0.43272E+07         0.12250E+07         0.00000E+00
    0.12250E+07        -0.21871E+08         0.00000E+00
    0.00000E+00         0.00000E+00        -0.52397E+07
 
   -0.42172E+07         0.27043E+07         0.00000E+00
    0.27043E+07        -0.22013E+08         0.00000E+00
    0.00000E+00         0.00000E+00        -0.52461E+07
 
   -0.43978E+07         0.44243E+07         0.00000E+00
    0.44243E+07        -0.22026E+08         0.00000E+00
    0.00000E+00         0.00000E+00        -0.52848E+07
 
   -0.49953E+07         0.63816E+07         0.00000E+00
    0.63816E+07        -0.21828E+08         0.00000E+00
    0.00000E+00         0.00000E+00        -0.53647E+07
 
   -0.12570E+08        -0.96882E+06         0.00000E+00
   -0.96882E+06        -0.20445E+08         0.00000E+00
    0.00000E+00         0.00000E+00        -0.66029E+07
 
   -0.12734E+08        -0.24838E+07         0.00000E+00
   -0.24838E+07        -0.20766E+08         0.00000E+00
    0.00000E+00         0.00000E+00        -0.66999E+07
 
   -0.12332E+08        -0.34473E+07         0.00000E+00
   -0.34473E+07        -0.21235E+08         0.00000E+00
    0.00000E+00         0.00000E+00        -0.67133E+07
 
   -0.11632E+08        -0.39317E+07         0.00000E+00
   -0.39317E+07        -0.21720E+08         0.00000E+00
    0.00000E+00         0.00000E+00        -0.66704E+07
 
   -0.10810E+08        -0.40353E+07         0.00000E+00
   -0.40353E+07        -0.22153E+08         0.00000E+00
    0.00000E+00         0.00000E+00        -0.65927E+07
 
   -0.99684E+07        -0.38505E+07         0.00000E+00
   -0.38505E+07        -0.22513E+08         0.00000E+00
    0.00000E+00         0.00000E+00        -0.64962E+07
 
   -0.91536E+07        -0.34481E+07         0.00000E+00
   -0.34481E+07        -0.22807E+08         0.00000E+00
    0.00000E+00         0.00000E+00        -0.63921E+07
 
   -0.83830E+07        -0.28725E+07         0.00000E+00
   -0.28725E+07        -0.23055E+08         0.00000E+00
    0.00000E+00         0.00000E+00        -0.62877E+07
 
   -0.76602E+07        -0.21431E+07         0.00000E+00
   -0.21431E+07        -0.23281E+08         0.00000E+00
    0.00000E+00         0.00000E+00        -0.61883E+07
 
   -0.69873E+07        -0.12574E+07         0.00000E+00
   -0.12574E+07        -0.23503E+08         0.00000E+00
    0.00000E+00         0.00000E+00        -0.60981E+07
 
   -0.63761E+07        -0.19340E+06         0.00000E+00
   -0.19340E+06        -0.23731E+08         0.00000E+00
    0.00000E+00         0.00000E+00        -0.60214E+07
 
   -0.58586E+07         0.10869E+07         0.00000E+00
    0.10869E+07        -0.23959E+08         0.00000E+00
    0.00000E+00         0.00000E+00        -0.59634E+07
 
   -0.54988E+07         0.26318E+07         0.00000E+00
    0.26318E+07        -0.24157E+08         0.00000E+00
    0.00000E+00         0.00000E+00        -0.59312E+07
 
   -0.54037E+07         0.44875E+07         0.00000E+00
    0.44875E+07        -0.24265E+08         0.00000E+00
    0.00000E+00         0.00000E+00        -0.59337E+07
 
   -0.57286E+07         0.66802E+07         0.00000E+00
    0.66802E+07        -0.24180E+08         0.00000E+00
    0.00000E+00         0.00000E+00        -0.59817E+07
 
   -0.17703E+08        -0.11365E+07         0.00000E+00
   -0.11365E+07        -0.23642E+08         0.00000E+00
    0.00000E+00         0.00000E+00        -0.82689E+07
 
   -0.17216E+08        -0.28254E+07         0.00000E+00
   -0.28254E+07        -0.23957E+08         0.00000E+00
    0.00000E+00         0.00000E+00        -0.82346E+07
 
   -0.16247E+08        -0.38048E+07         0.00000E+00
   -0.38048E+07        -0.24373E+08         0.00000E+00
    0.00000E+00         0.00000E+00        -0.81240E+07
 
   -0.15105E+08        -0.42220E+07         0.00000E+00
   -0.42220E+07        -0.24746E+08         0.00000E+00
    0.00000E+00         0.00000E+00        -0.79702E+07
 
   -0.13963E+08        -0.42354E+07         0.00000E+00
   -0.42354E+07        -0.25022E+08         0.00000E+00
    0.00000E+00         0.00000E+00        -0.77971E+07
 
   -0.12896E+08        -0.39730E+07         0.00000E+00
   -0.39730E+07        -0.25204E+08         0.00000E+00
    0.00000E+00         0.00000E+00        -0.76200E+07
 
   -0.11917E+08        -0.35211E+07         0.00000E+00
   -0.35211E+07        -0.25321E+08         0.00000E+00
    0.00000E+00         0.00000E+00        -0.74475E+07
 
   -0.11013E+08        -0.29269E+07         0.00000E+00
   -0.29269E+07        -0.25408E+08         0.00000E+00
    0.00000E+00         0.00000E+00        -0.72841E+07
 
   -0.10161E+08        -0.22067E+07         0.00000E+00
   -0.22067E+07        -0.25499E+08         0.00000E+00
    0.00000E+00         0.00000E+00        -0.71320E+07
 
   -0.93405E+07        -0.13510E+07         0.00000E+00
   -0.13510E+07        -0.25622E+08         0.00000E+00
    0.00000E+00         0.00000E+00        -0.69926E+07
 
   -0.85426E+07        -0.32610E+06         0.00000E+00
   -0.32610E+06        -0.25797E+08         0.00000E+00
    0.00000E+00         0.00000E+00        -0.68678E+07
 
   -0.77807E+07         0.92513E+06         0.00000E+00
    0.92513E+06        -0.26026E+08         0.00000E+00
    0.00000E+00         0.00000E+00        -0.67613E+07
 
   -0.71086E+07         0.24807E+07         0.00000E+00
    0.24807E+07        -0.26288E+08         0.00000E+00
    0.00000E+00         0.00000E+00        -0.66793E+07
 
   -0.66394E+07         0.44277E+07         0.00000E+00
    0.44277E+07        -0.26519E+08         0.00000E+00
    0.00000E+00         0.00000E+00        -0.66317E+07
 
   -0.65599E+07         0.68377E+07         0.00000E+00
    0.68377E+07        -0.26600E+08         0.00000E+00
    0.00000E+00         0.00000E+00        -0.66320E+07
 
   -0.23627E+08        -0.13023E+07         0.00000E+00
   -0.13023E+07        -0.27356E+08         0.00000E+00
    0.00000E+00         0.00000E+00        -0.10197E+08
 
   -0.22266E+08        -0.31117E+07         0.00000E+00
   -0.31117E+07        -0.27632E+08         0.00000E+00
    0.00000E+00         0.00000E+00        -0.99796E+07
 
   -0.20598E+08        -0.40288E+07         0.00000E+00
   -0.40288E+07        -0.27923E+08         0.00000E+00
    0.00000E+00         0.00000E+00        -0.97042E+07
 
   -0.18966E+08        -0.43172E+07         0.00000E+00
   -0.43172E+07        -0.28089E+08         0.00000E+00
    0.00000E+00         0.00000E+00        -0.94108E+07
 
   -0.17506E+08        -0.42109E+07         0.00000E+00
   -0.42109E+07        -0.28113E+08         0.00000E+00
    0.00000E+00         0.00000E+00        -0.91239E+07
 
   -0.16237E+08        -0.38702E+07         0.00000E+00
   -0.38702E+07        -0.28038E+08         0.00000E+00
    0.00000E+00         0.00000E+00        -0.88550E+07
 
   -0.15121E+08        -0.33865E+07         0.00000E+00
   -0.33865E+07        -0.27916E+08         0.00000E+00
    0.00000E+00         0.00000E+00        -0.86075E+07
 
   -0.14108E+08        -0.28026E+07         0.00000E+00
   -0.28026E+07        -0.27795E+08         0.00000E+00
    0.00000E+00         0.00000E+00        -0.83807E+07
 
   -0.13147E+08        -0.21281E+07         0.00000E+00
   -0.21281E+07        -0.27715E+08         0.00000E+00
    0.00000E+00         0.00000E+00        -0.81724E+07
 
   -0.12190E+08        -0.13465E+07         0.00000E+00
   -0.13465E+07        -0.27709E+08         0.00000E+00
    0.00000E+00         0.00000E+00        -0.79800E+07
 
   -0.11204E+08        -0.41543E+06         0.00000E+00
   -0.41543E+06        -0.27805E+08         0.00000E+00
    0.00000E+00         0.00000E+00        -0.78018E+07
 
   -0.10173E+08         0.73904E+06         0.00000E+00
    0.73904E+06        -0.28019E+08         0.00000E+00
    0.00000E+00         0.00000E+00        -0.76385E+07
 
   -0.91245E+07         0.22280E+07         0.00000E+00
    0.22280E+07        -0.28348E+08         0.00000E+00
    0.00000E+00         0.00000E+00        -0.74945E+07
 
   -0.81633E+07         0.41942E+07         0.00000E+00
    0.41942E+07        -0.28737E+08         0.00000E+00
    0.00000E+00         0.00000E+00        -0.73800E+07
 
   -0.75077E+07         0.67801E+07         0.00000E+00
    0.67801E+07        -0.29051E+08         0.00000E+00
    0.00000E+00         0.00000E+00        -0.73117E+07
 
   -0.30326E+08        -0.14528E+07         0.00000E+00
   -0.14528E+07        -0.31608E+08         0.00000E+00
    0.00000E+00         0.00000E+00        -0.12387E+08
 
   -0.27806E+08        -0.32800E+07         0.00000E+00
   -0.32800E+07        -0.31784E+08         0.00000E+00
    0.00000E+00         0.00000E+00        -0.11918E+08
 
   -0.25317E+08        -0.40204E+07         0.00000E+00
   -0.40204E+07        -0.31830E+08         0.00000E+00
    0.00000E+00         0.00000E+00        -0.11429E+08
 
   -0.23186E+08        -0.41167E+07         0.00000E+00
   -0.41167E+07        -0.31654E+08         0.00000E+00
    0.00000E+00         0.00000E+00        -0.10968E+08
 
   -0.21447E+08        -0.38828E+07         0.00000E+00
   -0.38828E+07        -0.31319E+08         0.00000E+00
    0.00000E+00         0.00000E+00        -0.10553E+08
 
   -0.20020E+08        -0.34878E+07         0.00000E+00
   -0.34878E+07        -0.30913E+08         0.00000E+00
    0.00000E+00         0.00000E+00        -0.10187E+08
 
   -0.18805E+08        -0.30089E+07         0.00000E+00
   -0.30089E+07        -0.30507E+08         0.00000E+00
    0.00000E+00         0.00000E+00        -0.98623E+07
 
   -0.17712E+08        -0.24755E+07         0.00000E+00
   -0.24755E+07        -0.30148E+08         0.00000E+00
    0.00000E+00         0.00000E+00        -0.95719E+07
 
   -0.16664E+08        -0.18885E+07         0.00000E+00
   -0.18885E+07        -0.29874E+08         0.00000E+00
    0.00000E+00         0.00000E+00        -0.93075E+07
 
   -0.15590E+08        -0.12268E+07         0.00000E+00
   -0.12268E+07        -0.29717E+08         0.00000E+00
    0.00000E+00         0.00000E+00        -0.90615E+07
 
   -0.14428E+08        -0.44574E+06         0.00000E+00
   -0.44574E+06        -0.29710E+08         0.00000E+00
    0.00000E+00         0.00000E+00        -0.88276E+07
 
   -0.13120E+08         0.53508E+06         0.00000E+00
    0.53508E+06        -0.29886E+08         0.00000E+00
    0.00000E+00         0.00000E+00        -0.86013E+07
 
   -0.11642E+08         0.18544E+07         0.00000E+00
    0.18544E+07        -0.30273E+08         0.00000E+00
    0.00000E+00         0.00000E+00        -0.83831E+07
 
   -0.10057E+08         0.37258E+07         0.00000E+00
    0.37258E+07        -0.30851E+08         0.00000E+00
    0.00000E+00         0.00000E+00        -0.81816E+07
 
   -0.86006E+07         0.64069E+07         0.00000E+00
    0.64069E+07        -0.31487E+08         0.00000E+00
    0.00000E+00         0.00000E+00        -0.80174E+07
 
   -0.37693E+08        -0.15607E+07         0.00000E+00
   -0.15607E+07        -0.36373E+08         0.00000E+00
    0.00000E+00         0.00000E+00        -0.14813E+08
 
   -0.33668E+08        -0.32095E+07         0.00000E+00
   -0.32095E+07        -0.36330E+08         0.00000E+00
    0.00000E+00         0.00000E+00        -0.14000E+08
 
   -0.30297E+08        -0.36234E+07         0.00000E+00
   -0.36234E+07        -0.35927E+08         0.00000E+00
    0.00000E+00         0.00000E+00        -0.13245E+08
 
   -0.27740E+08        -0.35025E+07         0.00000E+00
   -0.35025E+07        -0.35242E+08         0.00000E+00
    0.00000E+00         0.00000E+00        -0.12596E+08
 
   -0.25803E+08        -0.31852E+07         0.00000E+00
   -0.31852E+07        -0.34457E+08         0.00000E+00
    0.00000E+00         0.00000E+00        -0.12052E+08
 
   -0.24275E+08        -0.27955E+07         0.00000E+00
   -0.27955E+07        -0.33682E+08         0.00000E+00
    0.00000E+00         0.00000E+00        -0.11591E+08
 
   -0.22997E+08        -0.23780E+07         0.00000E+00
   -0.23780E+07        -0.32979E+08         0.00000E+00
    0.00000E+00         0.00000E+00        -0.11195E+08
 
   -0.21850E+08        -0.19440E+07         0.00000E+00
   -0.19440E+07        -0.32381E+08         0.00000E+00
    0.00000E+00         0.00000E+00        -0.10846E+08
 
   -0.20737E+08        -0.14869E+07         0.00000E+00
   -0.14869E+07        -0.31915E+08         0.00000E+00
    0.00000E+00         0.00000E+00        -0.10530E+08
 
   -0.19569E+08        -0.98584E+06         0.00000E+00
   -0.98584E+06        -0.31605E+08         0.00000E+00
    0.00000E+00         0.00000E+00        -0.10235E+08
 
   -0.18257E+08        -0.40205E+06         0.00000E+00
   -0.40205E+06        -0.31483E+08         0.00000E+00
    0.00000E+00         0.00000E+00        -0.99479E+07
 
   -0.16698E+08         0.33488E+06         0.00000E+00
    0.33488E+06        -0.31593E+08         0.00000E+00
    0.00000E+00         0.00000E+00        -0.96582E+07
 
   -0.14779E+08         0.13600E+07         0.00000E+00
    0.13600E+07        -0.32000E+08         0.00000E+00
    0.00000E+00         0.00000E+00        -0.93558E+07
 
   -0.12444E+08         0.29574E+07         0.00000E+00
    0.29574E+07        -0.32780E+08         0.00000E+00
    0.00000E+00         0.00000E+00        -0.90449E+07
 
   -0.98893E+07         0.55783E+07         0.00000E+00
    0.55783E+07        -0.33844E+08         0.00000E+00
    0.00000E+00         0.00000E+00        -0.87468E+07
 
   -0.45441E+08        -0.15474E+07         0.00000E+00
   -0.15474E+07        -0.41544E+08         0.00000E+00
    0.00000E+00         0.00000E+00        -0.17397E+08
 
   -0.39549E+08        -0.26315E+07         0.00000E+00
   -0.26315E+07        -0.40972E+08         0.00000E+00
    0.00000E+00         0.00000E+00        -0.16104E+08
 
   -0.35442E+08        -0.26290E+07         0.00000E+00
   -0.26290E+07        -0.39805E+08         0.00000E+00
    0.00000E+00         0.00000E+00        -0.15049E+08
 
   -0.32640E+08        -0.23944E+07         0.00000E+00
   -0.23944E+07        -0.38509E+08         0.00000E+00
    0.00000E+00         0.00000E+00        -0.14230E+08
 
   -0.30600E+08        -0.21065E+07         0.00000E+00
   -0.21065E+07        -0.37272E+08         0.00000E+00
    0.00000E+00         0.00000E+00        -0.13574E+08
 
   -0.29019E+08        -0.18123E+07         0.00000E+00
   -0.18123E+07        -0.36162E+08         0.00000E+00
    0.00000E+00         0.00000E+00        -0.13036E+08
 
   -0.27703E+08        -0.15233E+07         0.00000E+00
   -0.15233E+07        -0.35203E+08         0.00000E+00
    0.00000E+00         0.00000E+00        -0.12581E+08
 
   -0.26517E+08        -0.12379E+07         0.00000E+00
   -0.12379E+07        -0.34407E+08         0.00000E+00
    0.00000E+00         0.00000E+00        -0.12185E+08
 
   -0.25354E+08        -0.94744E+06         0.00000E+00
   -0.94744E+06        -0.33782E+08         0.00000E+00
    0.00000E+00         0.00000E+00        -0.11827E+08
 
   -0.24114E+08        -0.63658E+06         0.00000E+00
   -0.63658E+06        -0.33342E+08         0.00000E+00
    0.00000E+00         0.00000E+00        -0.11491E+08
 
   -0.22688E+08        -0.27967E+06         0.00000E+00
   -0.27967E+06        -0.33113E+08         0.00000E+00
    0.00000E+00         0.00000E+00        -0.11160E+08
 
   -0.20938E+08         0.16928E+06         0.00000E+00
    0.16928E+06        -0.33141E+08         0.00000E+00
    0.00000E+00         0.00000E+00        -0.10816E+08
 
   -0.18665E+08         0.80316E+06         0.00000E+00
    0.80316E+06        -0.33514E+08         0.00000E+00
    0.00000E+00         0.00000E+00        -0.10436E+08
 
   -0.15541E+08         0.18539E+07         0.00000E+00
    0.18539E+07        -0.34399E+08         0.00000E+00
    0.00000E+00         0.00000E+00        -0.99879E+07
 
   -0.11491E+08         0.40766E+07         0.00000E+00
    0.40766E+07        -0.36040E+08         0.00000E+00
    0.00000E+00         0.00000E+00        -0.95063E+07
 
   -0.52833E+08        -0.97402E+06         0.00000E+00
   -0.97402E+06        -0.46460E+08         0.00000E+00
    0.00000E+00         0.00000E+00        -0.19859E+08
 
   -0.45159E+08        -0.10960E+07         0.00000E+00
   -0.10960E+07        -0.44696E+08         0.00000E+00
    0.00000E+00         0.00000E+00        -0.17971E+08
 
   -0.40816E+08        -0.97699E+06         0.00000E+00
   -0.97699E+06        -0.42773E+08         0.00000E+00
    0.00000E+00         0.00000E+00        -0.16718E+08
 
   -0.37926E+08        -0.85472E+06         0.00000E+00
   -0.85472E+06        -0.41021E+08         0.00000E+00
    0.00000E+00         0.00000E+00        -0.15789E+08
 
   -0.35841E+08        -0.73597E+06         0.00000E+00
   -0.73597E+06        -0.39485E+08         0.00000E+00
    0.00000E+00         0.00000E+00        -0.15065E+08
 
   -0.34225E+08        -0.62519E+06         0.00000E+00
   -0.62519E+06        -0.38166E+08         0.00000E+00
    0.00000E+00         0.00000E+00        -0.14478E+08
 
   -0.32875E+08        -0.52134E+06         0.00000E+00
   -0.52134E+06        -0.37053E+08         0.00000E+00
    0.00000E+00         0.00000E+00        -0.13986E+08
 
   -0.31652E+08        -0.42172E+06         0.00000E+00
   -0.42172E+06        -0.36139E+08         0.00000E+00
    0.00000E+00         0.00000E+00        -0.13558E+08
 
   -0.30445E+08        -0.32233E+06         0.00000E+00
   -0.32233E+06        -0.35419E+08         0.00000E+00
    0.00000E+00         0.00000E+00        -0.13173E+08
 
   -0.29151E+08        -0.21750E+06         0.00000E+00
   -0.21750E+06        -0.34900E+08         0.00000E+00
    0.00000E+00         0.00000E+00        -0.12810E+08
 
   -0.27653E+08        -0.98415E+05         0.00000E+00
   -0.98415E+05        -0.34602E+08         0.00000E+00
    0.00000E+00         0.00000E+00        -0.12451E+08
 
   -0.25792E+08         0.50291E+05         0.00000E+00
    0.50291E+05        -0.34569E+08         0.00000E+00
    0.00000E+00         0.00000E+00        -0.12072E+08
 
   -0.23317E+08         0.26130E+06         0.00000E+00
    0.26130E+06        -0.34889E+08         0.00000E+00
    0.00000E+00         0.00000E+00        -0.11641E+08
 
   -0.19754E+08         0.60855E+06         0.00000E+00
    0.60855E+06        -0.35763E+08         0.00000E+00
    0.00000E+00         0.00000E+00        -0.11104E+08
 
   -0.13709E+08         0.15613E+07         0.00000E+00
    0.15613E+07        -0.37775E+08         0.00000E+00
    0.00000E+00         0.00000E+00        -0.10297E+08
 
TENSORS stresstot double 
   -0.47915E+08         0.11210E+05         0.00000E+00
    0.11210E+05        -0.59990E+08         0.00000E+00
    0.00000E+00         0.00000E+00        -0.54512E+08
 
   -0.48426E+08         0.29631E+05         0.00000E+00
    0.29631E+05        -0.59949E+08         0.00000E+00
    0.00000E+00         0.00000E+00        -0.54632E+08
 
   -0.49019E+08         0.43500E+05         0.00000E+00
    0.43500E+05        -0.59876E+08         0.00000E+00
    0.00000E+00         0.00000E+00        -0.54784E+08
 
   -0.49672E+08         0.53778E+05         0.00000E+00
    0.53778E+05        -0.59779E+08         0.00000E+00
    0.00000E+00         0.00000E+00        -0.54961E+08
 
   -0.50363E+08         0.61346E+05         0.00000E+00
    0.61346E+05        -0.59664E+08         0.00000E+00
    0.00000E+00         0.00000E+00        -0.55156E+08
 
   -0.51078E+08         0.66968E+05         0.00000E+00
    0.66968E+05        -0.59536E+08         0.00000E+00
    0.00000E+00         0.00000E+00        -0.55361E+08
 
   -0.51799E+08         0.71263E+05         0.00000E+00
    0.71263E+05        -0.59398E+08         0.00000E+00
    0.00000E+00         0.00000E+00        -0.55571E+08
 
   -0.52516E+08         0.74699E+05         0.00000E+00
    0.74699E+05        -0.59253E+08         0.00000E+00
    0.00000E+00         0.00000E+00        -0.55781E+08
 
   -0.53218E+08         0.77582E+05         0.00000E+00
    0.77582E+05        -0.59101E+08         0.00000E+00
    0.00000E+00         0.00000E+00        -0.55984E+08
 
   -0.53896E+08         0.80071E+05         0.00000E+00
    0.80071E+05        -0.58943E+08         0.00000E+00
    0.00000E+00         0.00000E+00        -0.56177E+08
 
   -0.54541E+08         0.82189E+05         0.00000E+00
    0.82189E+05        -0.58781E+08         0.00000E+00
    0.00000E+00         0.00000E+00        -0.56354E+08
 
   -0.55146E+08         0.83846E+05         0.00000E+00
    0.83846E+05        -0.58616E+08         0.00000E+00
    0.00000E+00         0.00000E+00        -0.56511E+08
 
   -0.55704E+08         0.84876E+05         0.00000E+00
    0.84876E+05        -0.58447E+08         0.00000E+00
    0.00000E+00         0.00000E+00        -0.56644E+08
 
   -0.56207E+08         0.85072E+05         0.00000E+00
    0.85072E+05        -0.58277E+08         0.00000E+00
    0.00000E+00         0.00000E+00        -0.56750E+08
 
   -0.56650E+08         0.84234E+05         0.00000E+00
    0.84234E+05        -0.58108E+08         0.00000E+00
    0.00000E+00         0.00000E+00        -0.56825E+08
 
   -0.47873E+08         0.33392E+05         0.00000E+00
    0.33392E+05        -0.59990E+08         0.00000E+00
    0.00000E+00         0.00000E+00        -0.54497E+08
 
   -0.48394E+08         0.88188E+05         0.00000E+00
    0.88188E+05        -0.59950E+08         0.00000E+00
    0.00000E+00         0.00000E+00        -0.54619E+08
 
   -0.48995E+08         0.12938E+06         0.00000E+00
    0.12938E+06        -0.59879E+08         0.00000E+00
    0.00000E+00         0.00000E+00        -0.54774E+08
 
   -0.49654E+08         0.15986E+06         0.00000E+00
    0.15986E+06        -0.59784E+08         0.00000E+00
    0.00000E+00         0.00000E+00        -0.54953E+08
 
   -0.50351E+08         0.18231E+06         0.00000E+00
    0.18231E+06        -0.59673E+08         0.00000E+00
    0.00000E+00         0.00000E+00        -0.55149E+08
 
   -0.51068E+08         0.19903E+06         0.00000E+00
    0.19903E+06        -0.59548E+08         0.00000E+00
    0.00000E+00         0.00000E+00        -0.55356E+08
 
   -0.51792E+08         0.21187E+06         0.00000E+00
    0.21187E+06        -0.59414E+08         0.00000E+00
    0.00000E+00         0.00000E+00        -0.55568E+08
 
   -0.52510E+08         0.22223E+06         0.00000E+00
    0.22223E+06        -0.59273E+08         0.00000E+00
    0.00000E+00         0.00000E+00        -0.55779E+08
 
   -0.53213E+08         0.23104E+06         0.00000E+00
    0.23104E+06        -0.59124E+08         0.00000E+00
    0.00000E+00         0.00000E+00        -0.55984E+08
 
   -0.53891E+08         0.23876E+06         0.00000E+00
    0.23876E+06        -0.58970E+08         0.00000E+00
    0.00000E+00         0.00000E+00        -0.56177E+08
 
   -0.54537E+08         0.24542E+06         0.00000E+00
    0.24542E+06        -0.58811E+08         0.00000E+00
    0.00000E+00         0.00000E+00        -0.56355E+08
 
   -0.55143E+08         0.25076E+06         0.00000E+00
    0.25076E+06        -0.58647E+08         0.00000E+00
    0.00000E+00         0.00000E+00        -0.56513E+08
 
   -0.55702E+08         0.25425E+06         0.00000E+00
    0.25425E+06        -0.58479E+08         0.00000E+00
    0.00000E+00         0.00000E+00        -0.56647E+08
 
   -0.56208E+08         0.25524E+06         0.00000E+00
    0.25524E+06        -0.58310E+08         0.00000E+00
    0.00000E+00         0.00000E+00        -0.56753E+08
 
   -0.56653E+08         0.25309E+06         0.00000E+00
    0.25309E+06        -0.58140E+08         0.00000E+00
    0.00000E+00         0.00000E+00        -0.56829E+08
 
   -0.47790E+08         0.54852E+05         0.00000E+00
    0.54852E+05        -0.59991E+08         0.00000E+00
    0.00000E+00         0.00000E+00        -0.54467E+08
 
   -0.48331E+08         0.14462E+06         0.00000E+00
    0.14462E+06        -0.59953E+08         0.00000E+00
    0.00000E+00         0.00000E+00        -0.54594E+08
 
   -0.48948E+08         0.21186E+06         0.00000E+00
    0.21186E+06        -0.59885E+08         0.00000E+00
    0.00000E+00         0.00000E+00        -0.54753E+08
 
   -0.49620E+08         0.26151E+06         0.00000E+00
    0.26151E+06        -0.59796E+08         0.00000E+00
    0.00000E+00         0.00000E+00        -0.54936E+08
 
   -0.50325E+08         0.29808E+06         0.00000E+00
    0.29808E+06        -0.59691E+08         0.00000E+00
    0.00000E+00         0.00000E+00        -0.55136E+08
 
   -0.51049E+08         0.32543E+06         0.00000E+00
    0.32543E+06        -0.59574E+08         0.00000E+00
    0.00000E+00         0.00000E+00        -0.55347E+08
 
   -0.51776E+08         0.34668E+06         0.00000E+00
    0.34668E+06        -0.59447E+08         0.00000E+00
    0.00000E+00         0.00000E+00        -0.55562E+08
 
   -0.52497E+08         0.36416E+06         0.00000E+00
    0.36416E+06        -0.59313E+08         0.00000E+00
    0.00000E+00         0.00000E+00        -0.55775E+08
 
   -0.53201E+08         0.37938E+06         0.00000E+00
    0.37938E+06        -0.59172E+08         0.00000E+00
    0.00000E+00         0.00000E+00        -0.55982E+08
 
   -0.53881E+08         0.39305E+06         0.00000E+00
    0.39305E+06        -0.59024E+08         0.00000E+00
    0.00000E+00         0.00000E+00        -0.56177E+08
 
   -0.54528E+08         0.40522E+06         0.00000E+00
    0.40522E+06        -0.58870E+08         0.00000E+00
    0.00000E+00         0.00000E+00        -0.56357E+08
 
   -0.55136E+08         0.41536E+06         0.00000E+00
    0.41536E+06        -0.58710E+08         0.00000E+00
    0.00000E+00         0.00000E+00        -0.56516E+08
 
   -0.55698E+08         0.42251E+06         0.00000E+00
    0.42251E+06        -0.58545E+08         0.00000E+00
    0.00000E+00         0.00000E+00        -0.56652E+08
 
   -0.56208E+08         0.42549E+06         0.00000E+00
    0.42549E+06        -0.58376E+08         0.00000E+00
    0.00000E+00         0.00000E+00        -0.56759E+08
 
   -0.56657E+08         0.42314E+06         0.00000E+00
    0.42314E+06        -0.58205E+08         0.00000E+00
    0.00000E+00         0.00000E+00        -0.56836E+08
 
   -0.47668E+08         0.75083E+05         0.00000E+00
    0.75083E+05        -0.59992E+08         0.00000E+00
    0.00000E+00         0.00000E+00        -0.54422E+08
 
   -0.48239E+08         0.19744E+06         0.00000E+00
    0.19744E+06        -0.59956E+08         0.00000E+00
    0.00000E+00         0.00000E+00        -0.54556E+08
 
   -0.48880E+08         0.28860E+06         0.00000E+00
    0.28860E+06        -0.59894E+08         0.00000E+00
    0.00000E+00         0.00000E+00        -0.54721E+08
 
   -0.49570E+08         0.35567E+06         0.00000E+00
    0.35567E+06        -0.59813E+08         0.00000E+00
    0.00000E+00         0.00000E+00        -0.54910E+08
 
   -0.50288E+08         0.40508E+06         0.00000E+00
    0.40508E+06        -0.59718E+08         0.00000E+00
    0.00000E+00         0.00000E+00        -0.55116E+08
 
   -0.51020E+08         0.44231E+06         0.00000E+00
    0.44231E+06        -0.59612E+08         0.00000E+00
    0.00000E+00         0.00000E+00        -0.55332E+08
 
   -0.51753E+08         0.47176E+06         0.00000E+00
    0.47176E+06        -0.59497E+08         0.00000E+00
    0.00000E+00         0.00000E+00        -0.55551E+08
 
   -0.52477E+08         0.49667E+06         0.00000E+00
    0.49667E+06        -0.59375E+08         0.00000E+00
    0.00000E+00         0.00000E+00        -0.55768E+08
 
   -0.53183E+08         0.51910E+06         0.00000E+00
    0.51910E+06        -0.59244E+08         0.00000E+00
    0.00000E+00         0.00000E+00        -0.55978E+08
 
   -0.53864E+08         0.53998E+06         0.00000E+00
    0.53998E+06        -0.59106E+08         0.00000E+00
    0.00000E+00         0.00000E+00        -0.56176E+08
 
   -0.54513E+08         0.55927E+06         0.00000E+00
    0.55927E+06        -0.58960E+08         0.00000E+00
    0.00000E+00         0.00000E+00        -0.56358E+08
 
   -0.55124E+08         0.57608E+06         0.00000E+00
    0.57608E+06        -0.58806E+08         0.00000E+00
    0.00000E+00         0.00000E+00        -0.56520E+08
 
   -0.55691E+08         0.58892E+06         0.00000E+00
    0.58892E+06        -0.58644E+08         0.00000E+00
    0.00000E+00         0.00000E+00        -0.56657E+08
 
   -0.56206E+08         0.59593E+06         0.00000E+00
    0.59593E+06        -0.58476E+08         0.00000E+00
    0.00000E+00         0.00000E+00        -0.56767E+08
 
   -0.56662E+08         0.59529E+06         0.00000E+00
    0.59529E+06        -0.58304E+08         0.00000E+00
    0.00000E+00         0.00000E+00        -0.56845E+08
 
   -0.47510E+08         0.93544E+05         0.00000E+00
    0.93544E+05        -0.59992E+08         0.00000E+00
    0.00000E+00         0.00000E+00        -0.54361E+08
 
   -0.48121E+08         0.24508E+06         0.00000E+00
    0.24508E+06        -0.59961E+08         0.00000E+00
    0.00000E+00         0.00000E+00        -0.54504E+08
 
   -0.48793E+08         0.35712E+06         0.00000E+00
    0.35712E+06        -0.59907E+08         0.00000E+00
    0.00000E+00         0.00000E+00        -0.54679E+08
 
   -0.49506E+08         0.43914E+06         0.00000E+00
    0.43914E+06        -0.59837E+08         0.00000E+00
    0.00000E+00         0.00000E+00        -0.54876E+08
 
   -0.50240E+08         0.49960E+06         0.00000E+00
    0.49960E+06        -0.59755E+08         0.00000E+00
    0.00000E+00         0.00000E+00        -0.55088E+08
 
   -0.50983E+08         0.54567E+06         0.00000E+00
    0.54567E+06        -0.59664E+08         0.00000E+00
    0.00000E+00         0.00000E+00        -0.55310E+08
 
   -0.51723E+08         0.58305E+06         0.00000E+00
    0.58305E+06        -0.59565E+08         0.00000E+00
    0.00000E+00         0.00000E+00        -0.55535E+08
 
   -0.52450E+08         0.61586E+06         0.00000E+00
    0.61586E+06        -0.59458E+08         0.00000E+00
    0.00000E+00         0.00000E+00        -0.55757E+08
 
   -0.53157E+08         0.64665E+06         0.00000E+00
    0.64665E+06        -0.59342E+08         0.00000E+00
    0.00000E+00         0.00000E+00        -0.55971E+08
 
   -0.53840E+08         0.67653E+06         0.00000E+00
    0.67653E+06        -0.59217E+08         0.00000E+00
    0.00000E+00         0.00000E+00        -0.56173E+08
 
   -0.54490E+08         0.70523E+06         0.00000E+00
    0.70523E+06        -0.59082E+08         0.00000E+00
    0.00000E+00         0.00000E+00        -0.56358E+08
 
   -0.55105E+08         0.73139E+06         0.00000E+00
    0.73139E+06        -0.58935E+08         0.00000E+00
    0.00000E+00         0.00000E+00        -0.56522E+08
 
   -0.55677E+08         0.75280E+06         0.00000E+00
    0.75280E+06        -0.58778E+08         0.00000E+00
    0.00000E+00         0.00000E+00        -0.56662E+08
 
   -0.56200E+08         0.76679E+06         0.00000E+00
    0.76679E+06        -0.58611E+08         0.00000E+00
    0.00000E+00         0.00000E+00        -0.56773E+08
 
   -0.56666E+08         0.77058E+06         0.00000E+00
    0.77058E+06        -0.58437E+08         0.00000E+00
    0.00000E+00         0.00000E+00        -0.56853E+08
 
   -0.47321E+08         0.10964E+06         0.00000E+00
    0.10964E+06        -0.59994E+08         0.00000E+00
    0.00000E+00         0.00000E+00        -0.54285E+08
 
   -0.47980E+08         0.28585E+06         0.00000E+00
    0.28585E+06        -0.59968E+08         0.00000E+00
    0.00000E+00         0.00000E+00        -0.54440E+08
 
   -0.48690E+08         0.41481E+06         0.00000E+00
    0.41481E+06        -0.59924E+08         0.00000E+00
    0.00000E+00         0.00000E+00        -0.54624E+08
 
   -0.49430E+08         0.50857E+06         0.00000E+00
    0.50857E+06        -0.59867E+08         0.00000E+00
    0.00000E+00         0.00000E+00        -0.54831E+08
 
   -0.50184E+08         0.57778E+06         0.00000E+00
    0.57778E+06        -0.59802E+08         0.00000E+00
    0.00000E+00         0.00000E+00        -0.55052E+08
 
   -0.50938E+08         0.63136E+06         0.00000E+00
    0.63136E+06        -0.59731E+08         0.00000E+00
    0.00000E+00         0.00000E+00        -0.55281E+08
 
   -0.51684E+08         0.67633E+06         0.00000E+00
    0.67633E+06        -0.59652E+08         0.00000E+00
    0.00000E+00         0.00000E+00        -0.55512E+08
 
   -0.52414E+08         0.71767E+06         0.00000E+00
    0.71767E+06        -0.59565E+08         0.00000E+00
    0.00000E+00         0.00000E+00        -0.55739E+08
 
   -0.53122E+08         0.75838E+06         0.00000E+00
    0.75838E+06        -0.59468E+08         0.00000E+00
    0.00000E+00         0.00000E+00        -0.55958E+08
 
   -0.53804E+08         0.79958E+06         0.00000E+00
    0.79958E+06        -0.59359E+08         0.00000E+00
    0.00000E+00         0.00000E+00        -0.56164E+08
 
   -0.54457E+08         0.84070E+06         0.00000E+00
    0.84070E+06        -0.59237E+08         0.00000E+00
    0.00000E+00         0.00000E+00        -0.56352E+08
 
   -0.55074E+08         0.87972E+06         0.00000E+00
    0.87972E+06        -0.59100E+08         0.00000E+00
    0.00000E+00         0.00000E+00        -0.56520E+08
 
   -0.55653E+08         0.91354E+06         0.00000E+00
    0.91354E+06        -0.58948E+08         0.00000E+00
    0.00000E+00         0.00000E+00        -0.56662E+08
 
   -0.56186E+08         0.93838E+06         0.00000E+00
    0.93838E+06        -0.58783E+08         0.00000E+00
    0.00000E+00         0.00000E+00        -0.56777E+08
 
   -0.56665E+08         0.95029E+06         0.00000E+00
    0.95029E+06        -0.58605E+08         0.00000E+00
    0.00000E+00         0.00000E+00        -0.56858E+08
 
   -0.47104E+08         0.12273E+06         0.00000E+00
    0.12273E+06        -0.59995E+08         0.00000E+00
    0.00000E+00         0.00000E+00        -0.54192E+08
 
   -0.47821E+08         0.31791E+06         0.00000E+00
    0.31791E+06        -0.59976E+08         0.00000E+00
    0.00000E+00         0.00000E+00        -0.54361E+08
 
   -0.48575E+08         0.45883E+06         0.00000E+00
    0.45883E+06        -0.59944E+08         0.00000E+00
    0.00000E+00         0.00000E+00        -0.54558E+08
 
   -0.49347E+08         0.56036E+06         0.00000E+00
    0.56036E+06        -0.59905E+08         0.00000E+00
    0.00000E+00         0.00000E+00        -0.54775E+08
 
   -0.50121E+08         0.63551E+06         0.00000E+00
    0.63551E+06        -0.59861E+08         0.00000E+00
    0.00000E+00         0.00000E+00        -0.55006E+08
 
   -0.50887E+08         0.69503E+06         0.00000E+00
    0.69503E+06        -0.59813E+08         0.00000E+00
    0.00000E+00         0.00000E+00        -0.55243E+08
 
   -0.51637E+08         0.74724E+06         0.00000E+00
    0.74724E+06        -0.59759E+08         0.00000E+00
    0.00000E+00         0.00000E+00        -0.55481E+08
 
   -0.52368E+08         0.79795E+06         0.00000E+00
    0.79795E+06        -0.59696E+08         0.00000E+00
    0.00000E+00         0.00000E+00        -0.55714E+08
 
   -0.53075E+08         0.85052E+06         0.00000E+00
    0.85052E+06        -0.59621E+08         0.00000E+00
    0.00000E+00         0.00000E+00        -0.55937E+08
 
   -0.53755E+08         0.90598E+06         0.00000E+00
    0.90598E+06        -0.59533E+08         0.00000E+00
    0.00000E+00         0.00000E+00        -0.56147E+08
 
   -0.54408E+08         0.96327E+06         0.00000E+00
    0.96327E+06        -0.59427E+08         0.00000E+00
    0.00000E+00         0.00000E+00        -0.56339E+08
 
   -0.55029E+08         0.10195E+07         0.00000E+00
    0.10195E+07        -0.59301E+08         0.00000E+00
    0.00000E+00         0.00000E+00        -0.56510E+08
 
   -0.55615E+08         0.10706E+07         0.00000E+00
    0.10706E+07        -0.59156E+08         0.00000E+00
    0.00000E+00         0.00000E+00        -0.56656E+08
 
   -0.56160E+08         0.11112E+07         0.00000E+00
    0.11112E+07        -0.58992E+08         0.00000E+00
    0.00000E+00         0.00000E+00        -0.56773E+08
 
   -0.56656E+08         0.11359E+07         0.00000E+00
    0.11359E+07        -0.58810E+08         0.00000E+00
    0.00000E+00         0.00000E+00        -0.56857E+08
 
   -0.46867E+08         0.13210E+06         0.00000E+00
    0.13210E+06        -0.59997E+08         0.00000E+00
    0.00000E+00         0.00000E+00        -0.54083E+08
 
   -0.47651E+08         0.33927E+06         0.00000E+00
    0.33927E+06        -0.59986E+08         0.00000E+00
    0.00000E+00         0.00000E+00        -0.54267E+08
 
   -0.48454E+08         0.48616E+06         0.00000E+00
    0.48616E+06        -0.59969E+08         0.00000E+00
    0.00000E+00         0.00000E+00        -0.54478E+08
 
   -0.49258E+08         0.59074E+06         0.00000E+00
    0.59074E+06        -0.59951E+08         0.00000E+00
    0.00000E+00         0.00000E+00        -0.54707E+08
 
   -0.50053E+08         0.66851E+06         0.00000E+00
    0.66851E+06        -0.59932E+08         0.00000E+00
    0.00000E+00         0.00000E+00        -0.54948E+08
 
   -0.50829E+08         0.73214E+06         0.00000E+00
    0.73214E+06        -0.59912E+08         0.00000E+00
    0.00000E+00         0.00000E+00        -0.55193E+08
 
   -0.51582E+08         0.79126E+06         0.00000E+00
    0.79126E+06        -0.59887E+08         0.00000E+00
    0.00000E+00         0.00000E+00        -0.55438E+08
 
   -0.52310E+08         0.85243E+06         0.00000E+00
    0.85243E+06        -0.59852E+08         0.00000E+00
    0.00000E+00         0.00000E+00        -0.55676E+08
 
   -0.53013E+08         0.91924E+06         0.00000E+00
    0.91924E+06        -0.59805E+08         0.00000E+00
    0.00000E+00         0.00000E+00        -0.55905E+08
 
   -0.53689E+08         0.99249E+06         0.00000E+00
    0.99249E+06        -0.59739E+08         0.00000E+00
    0.00000E+00         0.00000E+00        -0.56118E+08
 
   -0.54340E+08         0.10705E+07         0.00000E+00
    0.10705E+07        -0.59652E+08         0.00000E+00
    0.00000E+00         0.00000E+00        -0.56314E+08
 
   -0.54963E+08         0.11493E+07         0.00000E+00
    0.11493E+07        -0.59541E+08         0.00000E+00
    0.00000E+00         0.00000E+00        -0.56488E+08
 
   -0.55557E+08         0.12234E+07         0.00000E+00
    0.12234E+07        -0.59404E+08         0.00000E+00
    0.00000E+00         0.00000E+00        -0.56637E+08
 
   -0.56116E+08         0.12859E+07         0.00000E+00
    0.12859E+07        -0.59240E+08         0.00000E+00
    0.00000E+00         0.00000E+00        -0.56757E+08
 
   -0.56633E+08         0.13293E+07         0.00000E+00
    0.13293E+07        -0.59053E+08         0.00000E+00
    0.00000E+00         0.00000E+00        -0.56845E+08
 
   -0.46618E+08         0.13693E+06         0.00000E+00
    0.13693E+06        -0.59999E+08         0.00000E+00
    0.00000E+00         0.00000E+00        -0.53957E+08
 
   -0.47475E+08         0.34776E+06         0.00000E+00
    0.34776E+06        -0.59997E+08         0.00000E+00
    0.00000E+00         0.00000E+00        -0.54157E+08
 
   -0.48331E+08         0.49354E+06         0.00000E+00
    0.49354E+06        -0.59999E+08         0.00000E+00
    0.00000E+00         0.00000E+00        -0.54383E+08
 
   -0.49170E+08         0.59567E+06         0.00000E+00
    0.59567E+06        -0.60005E+08         0.00000E+00
    0.00000E+00         0.00000E+00        -0.54624E+08
 
   -0.49983E+08         0.67231E+06         0.00000E+00
    0.67231E+06        -0.60016E+08         0.00000E+00
    0.00000E+00         0.00000E+00        -0.54875E+08
 
   -0.50766E+08         0.73804E+06         0.00000E+00
    0.73804E+06        -0.60028E+08         0.00000E+00
    0.00000E+00         0.00000E+00        -0.55129E+08
 
   -0.51518E+08         0.80378E+06         0.00000E+00
    0.80378E+06        -0.60037E+08         0.00000E+00
    0.00000E+00         0.00000E+00        -0.55380E+08
 
   -0.52239E+08         0.87674E+06         0.00000E+00
    0.87674E+06        -0.60036E+08         0.00000E+00
    0.00000E+00         0.00000E+00        -0.55623E+08
 
   -0.52933E+08         0.96064E+06         0.00000E+00
    0.96064E+06        -0.60019E+08         0.00000E+00
    0.00000E+00         0.00000E+00        -0.55856E+08
 
   -0.53601E+08         0.10559E+07         0.00000E+00
    0.10559E+07        -0.59981E+08         0.00000E+00
    0.00000E+00         0.00000E+00        -0.56073E+08
 
   -0.54247E+08         0.11599E+07         0.00000E+00
    0.11599E+07        -0.59916E+08         0.00000E+00
    0.00000E+00         0.00000E+00        -0.56272E+08
 
   -0.54872E+08         0.12676E+07         0.00000E+00
    0.12676E+07        -0.59820E+08         0.00000E+00
    0.00000E+00         0.00000E+00        -0.56449E+08
 
   -0.55473E+08         0.13717E+07         0.00000E+00
    0.13717E+07        -0.59691E+08         0.00000E+00
    0.00000E+00         0.00000E+00        -0.56601E+08
 
   -0.56049E+08         0.14633E+07         0.00000E+00
    0.14633E+07        -0.59528E+08         0.00000E+00
    0.00000E+00         0.00000E+00        -0.56724E+08
 
   -0.56591E+08         0.15326E+07         0.00000E+00
    0.15326E+07        -0.59334E+08         0.00000E+00
    0.00000E+00         0.00000E+00        -0.56815E+08
 
   -0.46367E+08         0.13638E+06         0.00000E+00
    0.13638E+06        -0.60002E+08         0.00000E+00
    0.00000E+00         0.00000E+00        -0.53810E+08
 
   -0.47304E+08         0.34103E+06         0.00000E+00
    0.34103E+06        -0.60011E+08         0.00000E+00
    0.00000E+00         0.00000E+00        -0.54030E+08
 
   -0.48214E+08         0.47754E+06         0.00000E+00
    0.47754E+06        -0.60033E+08         0.00000E+00
    0.00000E+00         0.00000E+00        -0.54270E+08
 
   -0.49086E+08         0.57098E+06         0.00000E+00
    0.57098E+06        -0.60068E+08         0.00000E+00
    0.00000E+00         0.00000E+00        -0.54524E+08
 
   -0.49915E+08         0.64228E+06         0.00000E+00
    0.64228E+06        -0.60114E+08         0.00000E+00
    0.00000E+00         0.00000E+00        -0.54785E+08
 
   -0.50700E+08         0.70798E+06         0.00000E+00
    0.70798E+06        -0.60163E+08         0.00000E+00
    0.00000E+00         0.00000E+00        -0.55046E+08
 
   -0.51444E+08         0.78016E+06         0.00000E+00
    0.78016E+06        -0.60210E+08         0.00000E+00
    0.00000E+00         0.00000E+00        -0.55302E+08
 
   -0.52153E+08         0.86658E+06         0.00000E+00
    0.86658E+06        -0.60246E+08         0.00000E+00
    0.00000E+00         0.00000E+00        -0.55550E+08
 
   -0.52831E+08         0.97090E+06         0.00000E+00
    0.97090E+06        -0.60264E+08         0.00000E+00
    0.00000E+00         0.00000E+00        -0.55785E+08
 
   -0.53487E+08         0.10930E+07         0.00000E+00
    0.10930E+07        -0.60257E+08         0.00000E+00
    0.00000E+00         0.00000E+00        -0.56005E+08
 
   -0.54124E+08         0.12292E+07         0.00000E+00
    0.12292E+07        -0.60216E+08         0.00000E+00
    0.00000E+00         0.00000E+00        -0.56205E+08
 
   -0.54746E+08         0.13731E+07         0.00000E+00
    0.13731E+07        -0.60138E+08         0.00000E+00
    0.00000E+00         0.00000E+00        -0.56384E+08
 
   -0.55356E+08         0.15152E+07         0.00000E+00
    0.15152E+07        -0.60018E+08         0.00000E+00
    0.00000E+00         0.00000E+00        -0.56539E+08
 
   -0.55949E+08         0.16444E+07         0.00000E+00
    0.16444E+07        -0.59856E+08         0.00000E+00
    0.00000E+00         0.00000E+00        -0.56666E+08
 
   -0.56521E+08         0.17481E+07         0.00000E+00
    0.17481E+07        -0.59653E+08         0.00000E+00
    0.00000E+00         0.00000E+00        -0.56761E+08
 
   -0.46125E+08         0.12949E+06         0.00000E+00
    0.12949E+06        -0.60005E+08         0.00000E+00
    0.00000E+00         0.00000E+00        -0.53643E+08
 
   -0.47146E+08         0.31659E+06         0.00000E+00
    0.31659E+06        -0.60027E+08         0.00000E+00
    0.00000E+00         0.00000E+00        -0.53882E+08
 
   -0.48110E+08         0.43455E+06         0.00000E+00
    0.43455E+06        -0.60073E+08         0.00000E+00
    0.00000E+00         0.00000E+00        -0.54138E+08
 
   -0.49013E+08         0.51237E+06         0.00000E+00
    0.51237E+06        -0.60141E+08         0.00000E+00
    0.00000E+00         0.00000E+00        -0.54404E+08
 
   -0.49851E+08         0.57381E+06         0.00000E+00
    0.57381E+06        -0.60225E+08         0.00000E+00
    0.00000E+00         0.00000E+00        -0.54673E+08
 
   -0.50632E+08         0.63727E+06         0.00000E+00
    0.63727E+06        -0.60316E+08         0.00000E+00
    0.00000E+00         0.00000E+00        -0.54940E+08
 
   -0.51360E+08         0.71588E+06         0.00000E+00
    0.71588E+06        -0.60406E+08         0.00000E+00
    0.00000E+00         0.00000E+00        -0.55200E+08
 
   -0.52048E+08         0.81775E+06         0.00000E+00
    0.81775E+06        -0.60484E+08         0.00000E+00
    0.00000E+00         0.00000E+00        -0.55450E+08
 
   -0.52704E+08         0.94633E+06         0.00000E+00
    0.94633E+06        -0.60541E+08         0.00000E+00
    0.00000E+00         0.00000E+00        -0.55686E+08
 
   -0.53339E+08         0.11007E+07         0.00000E+00
    0.11007E+07        -0.60567E+08         0.00000E+00
    0.00000E+00         0.00000E+00        -0.55906E+08
 
   -0.53962E+08         0.12761E+07         0.00000E+00
    0.12761E+07        -0.60553E+08         0.00000E+00
    0.00000E+00         0.00000E+00        -0.56107E+08
 
   -0.54579E+08         0.14642E+07         0.00000E+00
    0.14642E+07        -0.60494E+08         0.00000E+00
    0.00000E+00         0.00000E+00        -0.56287E+08
 
   -0.55195E+08         0.16536E+07         0.00000E+00
    0.16536E+07        -0.60385E+08         0.00000E+00
    0.00000E+00         0.00000E+00        -0.56444E+08
 
   -0.55808E+08         0.18304E+07         0.00000E+00
    0.18304E+07        -0.60222E+08         0.00000E+00
    0.00000E+00         0.00000E+00        -0.56573E+08
 
   -0.56414E+08         0.19787E+07         0.00000E+00
    0.19787E+07        -0.60008E+08         0.00000E+00
    0.00000E+00         0.00000E+00        -0.56673E+08
 
   -0.45906E+08         0.11524E+06         0.00000E+00
    0.11524E+06        -0.60009E+08         0.00000E+00
    0.00000E+00         0.00000E+00        -0.53452E+08
 
   -0.47012E+08         0.27181E+06         0.00000E+00
    0.27181E+06        -0.60046E+08         0.00000E+00
    0.00000E+00         0.00000E+00        -0.53710E+08
 
   -0.48029E+08         0.36089E+06         0.00000E+00
    0.36089E+06        -0.60119E+08         0.00000E+00
    0.00000E+00         0.00000E+00        -0.53981E+08
 
   -0.48955E+08         0.41556E+06         0.00000E+00
    0.41556E+06        -0.60223E+08         0.00000E+00
    0.00000E+00         0.00000E+00        -0.54258E+08
 
   -0.49796E+08         0.46237E+06         0.00000E+00
    0.46237E+06        -0.60350E+08         0.00000E+00
    0.00000E+00         0.00000E+00        -0.54534E+08
 
   -0.50561E+08         0.52143E+06         0.00000E+00
    0.52143E+06        -0.60487E+08         0.00000E+00
    0.00000E+00         0.00000E+00        -0.54804E+08
 
   -0.51265E+08         0.60671E+06         0.00000E+00
    0.60671E+06        -0.60624E+08         0.00000E+00
    0.00000E+00         0.00000E+00        -0.55066E+08
 
   -0.51921E+08         0.72644E+06         0.00000E+00
    0.72644E+06        -0.60748E+08         0.00000E+00
    0.00000E+00         0.00000E+00        -0.55315E+08
 
   -0.52545E+08         0.88359E+06         0.00000E+00
    0.88359E+06        -0.60847E+08         0.00000E+00
    0.00000E+00         0.00000E+00        -0.55549E+08
 
   -0.53152E+08         0.10764E+07         0.00000E+00
    0.10764E+07        -0.60909E+08         0.00000E+00
    0.00000E+00         0.00000E+00        -0.55768E+08
 
   -0.53754E+08         0.12986E+07         0.00000E+00
    0.12986E+07        -0.60925E+08         0.00000E+00
    0.00000E+00         0.00000E+00        -0.55967E+08
 
   -0.54361E+08         0.15400E+07         0.00000E+00
    0.15400E+07        -0.60887E+08         0.00000E+00
    0.00000E+00         0.00000E+00        -0.56147E+08
 
   -0.54981E+08         0.17870E+07         0.00000E+00
    0.17870E+07        -0.60788E+08         0.00000E+00
    0.00000E+00         0.00000E+00        -0.56304E+08
 
   -0.55615E+08         0.20226E+07         0.00000E+00
    0.20226E+07        -0.60624E+08         0.00000E+00
    0.00000E+00         0.00000E+00        -0.56436E+08
 
   -0.56260E+08         0.22273E+07         0.00000E+00
    0.22273E+07        -0.60397E+08         0.00000E+00
    0.00000E+00         0.00000E+00        -0.56540E+08
 
   -0.45723E+08         0.92568E+05         0.00000E+00
    0.92568E+05        -0.60013E+08         0.00000E+00
    0.00000E+00         0.00000E+00        -0.53233E+08
 
   -0.46915E+08         0.20401E+06         0.00000E+00
    0.20401E+06        -0.60067E+08         0.00000E+00
    0.00000E+00         0.00000E+00        -0.53511E+08
 
   -0.47979E+08         0.25289E+06         0.00000E+00
    0.25289E+06        -0.60170E+08         0.00000E+00
    0.00000E+00         0.00000E+00        -0.53796E+08
 
   -0.48920E+08         0.27641E+06         0.00000E+00
    0.27641E+06        -0.60315E+08         0.00000E+00
    0.00000E+00         0.00000E+00        -0.54081E+08
 
   -0.49751E+08         0.30376E+06         0.00000E+00
    0.30376E+06        -0.60488E+08         0.00000E+00
    0.00000E+00         0.00000E+00        -0.54360E+08
 
   -0.50490E+08         0.35648E+06         0.00000E+00
    0.35648E+06        -0.60676E+08         0.00000E+00
    0.00000E+00         0.00000E+00        -0.54631E+08
 
   -0.51156E+08         0.44901E+06         0.00000E+00
    0.44901E+06        -0.60863E+08         0.00000E+00
    0.00000E+00         0.00000E+00        -0.54890E+08
 
   -0.51769E+08         0.58938E+06         0.00000E+00
    0.58938E+06        -0.61035E+08         0.00000E+00
    0.00000E+00         0.00000E+00        -0.55136E+08
 
   -0.52350E+08         0.77986E+06         0.00000E+00
    0.77986E+06        -0.61179E+08         0.00000E+00
    0.00000E+00         0.00000E+00        -0.55366E+08
 
   -0.52919E+08         0.10175E+07         0.00000E+00
    0.10175E+07        -0.61280E+08         0.00000E+00
    0.00000E+00         0.00000E+00        -0.55579E+08
 
   -0.53491E+08         0.12948E+07         0.00000E+00
    0.12948E+07        -0.61327E+08         0.00000E+00
    0.00000E+00         0.00000E+00        -0.55775E+08
 
   -0.54082E+08         0.15994E+07         0.00000E+00
    0.15994E+07        -0.61311E+08         0.00000E+00
    0.00000E+00         0.00000E+00        -0.55952E+08
 
   -0.54702E+08         0.19153E+07         0.00000E+00
    0.19153E+07        -0.61223E+08         0.00000E+00
    0.00000E+00         0.00000E+00        -0.56108E+08
 
   -0.55357E+08         0.22223E+07         0.00000E+00
    0.22223E+07        -0.61058E+08         0.00000E+00
    0.00000E+00         0.00000E+00        -0.56241E+08
 
   -0.56045E+08         0.24970E+07         0.00000E+00
    0.24970E+07        -0.60815E+08         0.00000E+00
    0.00000E+00         0.00000E+00        -0.56350E+08
 
   -0.45596E+08         0.60363E+05         0.00000E+00
    0.60363E+05        -0.60017E+08         0.00000E+00
    0.00000E+00         0.00000E+00        -0.52982E+08
 
   -0.46868E+08         0.11051E+06         0.00000E+00
    0.11051E+06        -0.60090E+08         0.00000E+00
    0.00000E+00         0.00000E+00        -0.53279E+08
 
   -0.47969E+08         0.10705E+06         0.00000E+00
    0.10705E+06        -0.60227E+08         0.00000E+00
    0.00000E+00         0.00000E+00        -0.53574E+08
 
   -0.48913E+08         0.91191E+05         0.00000E+00
    0.91191E+05        -0.60415E+08         0.00000E+00
    0.00000E+00         0.00000E+00        -0.53864E+08
 
   -0.49722E+08         0.94414E+05         0.00000E+00
    0.94414E+05        -0.60638E+08         0.00000E+00
    0.00000E+00         0.00000E+00        -0.54144E+08
 
   -0.50419E+08         0.13920E+06         0.00000E+00
    0.13920E+06        -0.60879E+08         0.00000E+00
    0.00000E+00         0.00000E+00        -0.54411E+08
 
   -0.51032E+08         0.24000E+06         0.00000E+00
    0.24000E+06        -0.61119E+08         0.00000E+00
    0.00000E+00         0.00000E+00        -0.54664E+08
 
   -0.51588E+08         0.40424E+06         0.00000E+00
    0.40424E+06        -0.61342E+08         0.00000E+00
    0.00000E+00         0.00000E+00        -0.54901E+08
 
   -0.52113E+08         0.63319E+06         0.00000E+00
    0.63319E+06        -0.61532E+08         0.00000E+00
    0.00000E+00         0.00000E+00        -0.55122E+08
 
   -0.52631E+08         0.92266E+06         0.00000E+00
    0.92266E+06        -0.61673E+08         0.00000E+00
    0.00000E+00         0.00000E+00        -0.55327E+08
 
   -0.53164E+08         0.12634E+07         0.00000E+00
    0.12634E+07        -0.61753E+08         0.00000E+00
    0.00000E+00         0.00000E+00        -0.55516E+08
 
   -0.53731E+08         0.16416E+07         0.00000E+00
    0.16416E+07        -0.61759E+08         0.00000E+00
    0.00000E+00         0.00000E+00        -0.55687E+08
 
   -0.54347E+08         0.20384E+07         0.00000E+00
    0.20384E+07        -0.61682E+08         0.00000E+00
    0.00000E+00         0.00000E+00        -0.55840E+08
 
   -0.55020E+08         0.24307E+07         0.00000E+00
    0.24307E+07        -0.61516E+08         0.00000E+00
    0.00000E+00         0.00000E+00        -0.55975E+08
 
   -0.55755E+08         0.27906E+07         0.00000E+00
    0.27906E+07        -0.61256E+08         0.00000E+00
    0.00000E+00         0.00000E+00        -0.56087E+08
 
   -0.45542E+08         0.17507E+05         0.00000E+00
    0.17507E+05        -0.60022E+08         0.00000E+00
    0.00000E+00         0.00000E+00        -0.52693E+08
 
   -0.46887E+08        -0.11266E+05         0.00000E+00
   -0.11266E+05        -0.60115E+08         0.00000E+00
    0.00000E+00         0.00000E+00        -0.53005E+08
 
   -0.48012E+08        -0.79782E+05         0.00000E+00
   -0.79782E+05        -0.60289E+08         0.00000E+00
    0.00000E+00         0.00000E+00        -0.53309E+08
 
   -0.48942E+08        -0.14317E+06         0.00000E+00
   -0.14317E+06        -0.60523E+08         0.00000E+00
    0.00000E+00         0.00000E+00        -0.53600E+08
 
   -0.49709E+08        -0.16828E+06         0.00000E+00
   -0.16828E+06        -0.60799E+08         0.00000E+00
    0.00000E+00         0.00000E+00        -0.53875E+08
 
   -0.50347E+08        -0.13240E+06         0.00000E+00
   -0.13240E+06        -0.61094E+08         0.00000E+00
    0.00000E+00         0.00000E+00        -0.54133E+08
 
   -0.50891E+08        -0.21721E+05         0.00000E+00
   -0.21721E+05        -0.61388E+08         0.00000E+00
    0.00000E+00         0.00000E+00        -0.54374E+08
 
   -0.51374E+08         0.17002E+06         0.00000E+00
    0.17002E+06        -0.61662E+08         0.00000E+00
    0.00000E+00         0.00000E+00        -0.54597E+08
 
   -0.51828E+08         0.44278E+06         0.00000E+00
    0.44278E+06        -0.61898E+08         0.00000E+00
    0.00000E+00         0.00000E+00        -0.54805E+08
 
   -0.52282E+08         0.79098E+06         0.00000E+00
    0.79098E+06        -0.62079E+08         0.00000E+00
    0.00000E+00         0.00000E+00        -0.54997E+08
 
   -0.52764E+08         0.12039E+07         0.00000E+00
    0.12039E+07        -0.62192E+08         0.00000E+00
    0.00000E+00         0.00000E+00        -0.55174E+08
 
   -0.53297E+08         0.16660E+07         0.00000E+00
    0.16660E+07        -0.62221E+08         0.00000E+00
    0.00000E+00         0.00000E+00        -0.55337E+08
 
   -0.53901E+08         0.21563E+07         0.00000E+00
    0.21563E+07        -0.62156E+08         0.00000E+00
    0.00000E+00         0.00000E+00        -0.55485E+08
 
   -0.54590E+08         0.26486E+07         0.00000E+00
    0.26486E+07        -0.61987E+08         0.00000E+00
    0.00000E+00         0.00000E+00        -0.55618E+08
 
   -0.55373E+08         0.31108E+07         0.00000E+00
    0.31108E+07        -0.61709E+08         0.00000E+00
    0.00000E+00         0.00000E+00        -0.55734E+08
 
   -0.45582E+08        -0.37093E+05         0.00000E+00
   -0.37093E+05        -0.60028E+08         0.00000E+00
    0.00000E+00         0.00000E+00        -0.52357E+08
 
   -0.46986E+08        -0.16365E+06         0.00000E+00
   -0.16365E+06        -0.60143E+08         0.00000E+00
    0.00000E+00         0.00000E+00        -0.52683E+08
 
   -0.48116E+08        -0.31013E+06         0.00000E+00
   -0.31013E+06        -0.60355E+08         0.00000E+00
    0.00000E+00         0.00000E+00        -0.52989E+08
 
   -0.49011E+08        -0.42868E+06         0.00000E+00
   -0.42868E+06        -0.60638E+08         0.00000E+00
    0.00000E+00         0.00000E+00        -0.53275E+08
 
   -0.49716E+08        -0.48548E+06         0.00000E+00
   -0.48548E+06        -0.60966E+08         0.00000E+00
    0.00000E+00         0.00000E+00        -0.53539E+08
 
   -0.50274E+08        -0.45857E+06         0.00000E+00
   -0.45857E+06        -0.61315E+08         0.00000E+00
    0.00000E+00         0.00000E+00        -0.53781E+08
 
   -0.50729E+08        -0.33571E+06         0.00000E+00
   -0.33571E+06        -0.61662E+08         0.00000E+00
    0.00000E+00         0.00000E+00        -0.54004E+08
 
   -0.51121E+08        -0.11245E+06         0.00000E+00
   -0.11245E+06        -0.61985E+08         0.00000E+00
    0.00000E+00         0.00000E+00        -0.54209E+08
 
   -0.51487E+08         0.20948E+06         0.00000E+00
    0.20948E+06        -0.62265E+08         0.00000E+00
    0.00000E+00         0.00000E+00        -0.54397E+08
 
   -0.51863E+08         0.62304E+06         0.00000E+00
    0.62304E+06        -0.62486E+08         0.00000E+00
    0.00000E+00         0.00000E+00        -0.54571E+08
 
   -0.52281E+08         0.11163E+07         0.00000E+00
    0.11163E+07        -0.62629E+08         0.00000E+00
    0.00000E+00         0.00000E+00        -0.54732E+08
 
   -0.52768E+08         0.16724E+07         0.00000E+00
    0.16724E+07        -0.62682E+08         0.00000E+00
    0.00000E+00         0.00000E+00        -0.54882E+08
 
   -0.53350E+08         0.22688E+07         0.00000E+00
    0.22688E+07        -0.62629E+08         0.00000E+00
    0.00000E+00         0.00000E+00        -0.55022E+08
 
   -0.54049E+08         0.28765E+07         0.00000E+00
    0.28765E+07        -0.62458E+08         0.00000E+00
    0.00000E+00         0.00000E+00        -0.55152E+08
 
   -0.54879E+08         0.34595E+07         0.00000E+00
    0.34595E+07        -0.62160E+08         0.00000E+00
    0.00000E+00         0.00000E+00        -0.55271E+08
 
   -0.45740E+08        -0.10446E+06         0.00000E+00
   -0.10446E+06        -0.60034E+08         0.00000E+00
    0.00000E+00         0.00000E+00        -0.51965E+08
 
   -0.47181E+08        -0.34855E+06         0.00000E+00
   -0.34855E+06        -0.60173E+08         0.00000E+00
    0.00000E+00         0.00000E+00        -0.52298E+08
 
   -0.48291E+08        -0.58556E+06         0.00000E+00
   -0.58556E+06        -0.60424E+08         0.00000E+00
    0.00000E+00         0.00000E+00        -0.52601E+08
 
   -0.49126E+08        -0.76585E+06         0.00000E+00
   -0.76585E+06        -0.60755E+08         0.00000E+00
    0.00000E+00         0.00000E+00        -0.52875E+08
 
   -0.49744E+08        -0.85631E+06         0.00000E+00
   -0.85631E+06        -0.61136E+08         0.00000E+00
    0.00000E+00         0.00000E+00        -0.53120E+08
 
   -0.50199E+08        -0.83718E+06         0.00000E+00
   -0.83718E+06        -0.61536E+08         0.00000E+00
    0.00000E+00         0.00000E+00        -0.53340E+08
 
   -0.50543E+08        -0.69899E+06         0.00000E+00
   -0.69899E+06        -0.61931E+08         0.00000E+00
    0.00000E+00         0.00000E+00        -0.53538E+08
 
   -0.50825E+08        -0.43991E+06         0.00000E+00
   -0.43991E+06        -0.62299E+08         0.00000E+00
    0.00000E+00         0.00000E+00        -0.53717E+08
 
   -0.51087E+08        -0.63770E+05         0.00000E+00
   -0.63770E+05        -0.62619E+08         0.00000E+00
    0.00000E+00         0.00000E+00        -0.53879E+08
 
   -0.51369E+08         0.42100E+06         0.00000E+00
    0.42100E+06        -0.62874E+08         0.00000E+00
    0.00000E+00         0.00000E+00        -0.54029E+08
 
   -0.51706E+08         0.10017E+07         0.00000E+00
    0.10017E+07        -0.63047E+08         0.00000E+00
    0.00000E+00         0.00000E+00        -0.54170E+08
 
   -0.52133E+08         0.16608E+07         0.00000E+00
    0.16608E+07        -0.63122E+08         0.00000E+00
    0.00000E+00         0.00000E+00        -0.54303E+08
 
   -0.52682E+08         0.23750E+07         0.00000E+00
    0.23750E+07        -0.63081E+08         0.00000E+00
    0.00000E+00         0.00000E+00        -0.54430E+08
 
   -0.53381E+08         0.31136E+07         0.00000E+00
    0.31136E+07        -0.62910E+08         0.00000E+00
    0.00000E+00         0.00000E+00        -0.54554E+08
 
   -0.54253E+08         0.38373E+07         0.00000E+00
    0.38373E+07        -0.62593E+08         0.00000E+00
    0.00000E+00         0.00000E+00        -0.54675E+08
 
   -0.46040E+08        -0.18549E+06         0.00000E+00
   -0.18549E+06        -0.60041E+08         0.00000E+00
    0.00000E+00         0.00000E+00        -0.51503E+08
 
   -0.47489E+08        -0.56724E+06         0.00000E+00
   -0.56724E+06        -0.60204E+08         0.00000E+00
    0.00000E+00         0.00000E+00        -0.51839E+08
 
   -0.48547E+08        -0.90632E+06         0.00000E+00
   -0.90632E+06        -0.60494E+08         0.00000E+00
    0.00000E+00         0.00000E+00        -0.52130E+08
 
   -0.49290E+08        -0.11531E+07         0.00000E+00
   -0.11531E+07        -0.60872E+08         0.00000E+00
    0.00000E+00         0.00000E+00        -0.52383E+08
 
   -0.49790E+08        -0.12771E+07         0.00000E+00
   -0.12771E+07        -0.61301E+08         0.00000E+00
    0.00000E+00         0.00000E+00        -0.52601E+08
 
   -0.50117E+08        -0.12629E+07         0.00000E+00
   -0.12629E+07        -0.61746E+08         0.00000E+00
    0.00000E+00         0.00000E+00        -0.52790E+08
 
   -0.50330E+08        -0.11053E+07         0.00000E+00
   -0.11053E+07        -0.62182E+08         0.00000E+00
    0.00000E+00         0.00000E+00        -0.52954E+08
 
   -0.50482E+08        -0.80595E+06         0.00000E+00
   -0.80595E+06        -0.62586E+08         0.00000E+00
    0.00000E+00         0.00000E+00        -0.53099E+08
 
   -0.50622E+08        -0.37132E+06         0.00000E+00
   -0.37132E+06        -0.62938E+08         0.00000E+00
    0.00000E+00         0.00000E+00        -0.53230E+08
 
   -0.50792E+08         0.18903E+06         0.00000E+00
    0.18903E+06        -0.63222E+08         0.00000E+00
    0.00000E+00         0.00000E+00        -0.53350E+08
 
   -0.51033E+08         0.86225E+06         0.00000E+00
    0.86225E+06        -0.63420E+08         0.00000E+00
    0.00000E+00         0.00000E+00        -0.53463E+08
 
   -0.51384E+08         0.16314E+07         0.00000E+00
    0.16314E+07        -0.63515E+08         0.00000E+00
    0.00000E+00         0.00000E+00        -0.53574E+08
 
   -0.51883E+08         0.24737E+07         0.00000E+00
    0.24737E+07        -0.63487E+08         0.00000E+00
    0.00000E+00         0.00000E+00        -0.53685E+08
 
   -0.52568E+08         0.33581E+07         0.00000E+00
    0.33581E+07        -0.63317E+08         0.00000E+00
    0.00000E+00         0.00000E+00        -0.53800E+08
 
   -0.53472E+08         0.42429E+07         0.00000E+00
    0.42429E+07        -0.62986E+08         0.00000E+00
    0.00000E+00         0.00000E+00        -0.53921E+08
 
   -0.46507E+08        -0.28087E+06         0.00000E+00
   -0.28087E+06        -0.60047E+08         0.00000E+00
    0.00000E+00         0.00000E+00        -0.50958E+08
 
   -0.47924E+08        -0.82008E+06         0.00000E+00
   -0.82008E+06        -0.60235E+08         0.00000E+00
    0.00000E+00         0.00000E+00        -0.51286E+08
 
   -0.48890E+08        -0.12707E+07         0.00000E+00
   -0.12707E+07        -0.60564E+08         0.00000E+00
    0.00000E+00         0.00000E+00        -0.51556E+08
 
   -0.49503E+08        -0.15858E+07         0.00000E+00
   -0.15858E+07        -0.60984E+08         0.00000E+00
    0.00000E+00         0.00000E+00        -0.51778E+08
 
   -0.49854E+08        -0.17407E+07         0.00000E+00
   -0.17407E+07        -0.61452E+08         0.00000E+00
    0.00000E+00         0.00000E+00        -0.51958E+08
 
   -0.50025E+08        -0.17264E+07         0.00000E+00
   -0.17264E+07        -0.61932E+08         0.00000E+00
    0.00000E+00         0.00000E+00        -0.52106E+08
 
   -0.50083E+08        -0.15440E+07         0.00000E+00
   -0.15440E+07        -0.62396E+08         0.00000E+00
    0.00000E+00         0.00000E+00        -0.52229E+08
 
   -0.50088E+08        -0.12003E+07         0.00000E+00
   -0.12003E+07        -0.62823E+08         0.00000E+00
    0.00000E+00         0.00000E+00        -0.52332E+08
 
   -0.50088E+08        -0.70422E+06         0.00000E+00
   -0.70422E+06        -0.63196E+08         0.00000E+00
    0.00000E+00         0.00000E+00        -0.52423E+08
 
   -0.50130E+08        -0.66309E+05         0.00000E+00
   -0.66309E+05        -0.63499E+08         0.00000E+00
    0.00000E+00         0.00000E+00        -0.52506E+08
 
   -0.50257E+08         0.70159E+06         0.00000E+00
    0.70159E+06        -0.63716E+08         0.00000E+00
    0.00000E+00         0.00000E+00        -0.52587E+08
 
   -0.50513E+08         0.15846E+07         0.00000E+00
    0.15846E+07        -0.63829E+08         0.00000E+00
    0.00000E+00         0.00000E+00        -0.52671E+08
 
   -0.50942E+08         0.25625E+07         0.00000E+00
    0.25625E+07        -0.63816E+08         0.00000E+00
    0.00000E+00         0.00000E+00        -0.52761E+08
 
   -0.51592E+08         0.36057E+07         0.00000E+00
    0.36057E+07        -0.63652E+08         0.00000E+00
    0.00000E+00         0.00000E+00        -0.52863E+08
 
   -0.52511E+08         0.46723E+07         0.00000E+00
    0.46723E+07        -0.63310E+08         0.00000E+00
    0.00000E+00         0.00000E+00        -0.52980E+08
 
   -0.47166E+08        -0.39101E+06         0.00000E+00
   -0.39101E+06        -0.60054E+08         0.00000E+00
    0.00000E+00         0.00000E+00        -0.50311E+08
 
   -0.48500E+08        -0.11061E+07         0.00000E+00
   -0.11061E+07        -0.60266E+08         0.00000E+00
    0.00000E+00         0.00000E+00        -0.50620E+08
 
   -0.49323E+08        -0.16745E+07         0.00000E+00
   -0.16745E+07        -0.60629E+08         0.00000E+00
    0.00000E+00         0.00000E+00        -0.50856E+08
 
   -0.49762E+08        -0.20558E+07         0.00000E+00
   -0.20558E+07        -0.61083E+08         0.00000E+00
    0.00000E+00         0.00000E+00        -0.51034E+08
 
   -0.49929E+08        -0.22349E+07         0.00000E+00
   -0.22349E+07        -0.61578E+08         0.00000E+00
    0.00000E+00         0.00000E+00        -0.51167E+08
 
   -0.49916E+08        -0.22130E+07         0.00000E+00
   -0.22130E+07        -0.62076E+08         0.00000E+00
    0.00000E+00         0.00000E+00        -0.51264E+08
 
   -0.49799E+08        -0.19997E+07         0.00000E+00
   -0.19997E+07        -0.62550E+08         0.00000E+00
    0.00000E+00         0.00000E+00        -0.51335E+08
 
   -0.49639E+08        -0.16078E+07         0.00000E+00
   -0.16078E+07        -0.62983E+08         0.00000E+00
    0.00000E+00         0.00000E+00        -0.51389E+08
 
   -0.49485E+08        -0.10496E+07         0.00000E+00
   -0.10496E+07        -0.63359E+08         0.00000E+00
    0.00000E+00         0.00000E+00        -0.51433E+08
 
   -0.49384E+08        -0.33564E+06         0.00000E+00
   -0.33564E+06        -0.63668E+08         0.00000E+00
    0.00000E+00         0.00000E+00        -0.51473E+08
 
   -0.49378E+08         0.52471E+06         0.00000E+00
    0.52471E+06        -0.63896E+08         0.00000E+00
    0.00000E+00         0.00000E+00        -0.51515E+08
 
   -0.49516E+08         0.15209E+07         0.00000E+00
    0.15209E+07        -0.64024E+08         0.00000E+00
    0.00000E+00         0.00000E+00        -0.51566E+08
 
   -0.49850E+08         0.26375E+07         0.00000E+00
    0.26375E+07        -0.64028E+08         0.00000E+00
    0.00000E+00         0.00000E+00        -0.51630E+08
 
   -0.50439E+08         0.38497E+07         0.00000E+00
    0.38497E+07        -0.63877E+08         0.00000E+00
    0.00000E+00         0.00000E+00        -0.51714E+08
 
   -0.51346E+08         0.51176E+07         0.00000E+00
    0.51176E+07        -0.63535E+08         0.00000E+00
    0.00000E+00         0.00000E+00        -0.51824E+08
 
   -0.48044E+08        -0.51591E+06         0.00000E+00
   -0.51591E+06        -0.60061E+08         0.00000E+00
    0.00000E+00         0.00000E+00        -0.49541E+08
 
   -0.49226E+08        -0.14226E+07         0.00000E+00
   -0.14226E+07        -0.60295E+08         0.00000E+00
    0.00000E+00         0.00000E+00        -0.49816E+08
 
   -0.49845E+08        -0.21101E+07         0.00000E+00
   -0.21101E+07        -0.60686E+08         0.00000E+00
    0.00000E+00         0.00000E+00        -0.50004E+08
 
   -0.50060E+08        -0.25499E+07         0.00000E+00
   -0.25499E+07        -0.61161E+08         0.00000E+00
    0.00000E+00         0.00000E+00        -0.50125E+08
 
   -0.50005E+08        -0.27419E+07         0.00000E+00
   -0.27419E+07        -0.61664E+08         0.00000E+00
    0.00000E+00         0.00000E+00        -0.50196E+08
 
   -0.49783E+08        -0.27017E+07         0.00000E+00
   -0.27017E+07        -0.62156E+08         0.00000E+00
    0.00000E+00         0.00000E+00        -0.50231E+08
 
   -0.49473E+08        -0.24504E+07         0.00000E+00
   -0.24504E+07        -0.62616E+08         0.00000E+00
    0.00000E+00         0.00000E+00        -0.50243E+08
 
   -0.49135E+08        -0.20082E+07         0.00000E+00
   -0.20082E+07        -0.63028E+08         0.00000E+00
    0.00000E+00         0.00000E+00        -0.50240E+08
 
   -0.48816E+08        -0.13903E+07         0.00000E+00
   -0.13903E+07        -0.63388E+08         0.00000E+00
    0.00000E+00         0.00000E+00        -0.50230E+08
 
   -0.48557E+08        -0.60653E+06         0.00000E+00
   -0.60653E+06        -0.63686E+08         0.00000E+00
    0.00000E+00         0.00000E+00        -0.50221E+08
 
   -0.48401E+08         0.33815E+06         0.00000E+00
    0.33815E+06        -0.63914E+08         0.00000E+00
    0.00000E+00         0.00000E+00        -0.50219E+08
 
   -0.48397E+08         0.14401E+07         0.00000E+00
    0.14401E+07        -0.64054E+08         0.00000E+00
    0.00000E+00         0.00000E+00        -0.50230E+08
 
   -0.48605E+08         0.26926E+07         0.00000E+00
    0.26926E+07        -0.64078E+08         0.00000E+00
    0.00000E+00         0.00000E+00        -0.50262E+08
 
   -0.49095E+08         0.40790E+07         0.00000E+00
    0.40790E+07        -0.63950E+08         0.00000E+00
    0.00000E+00         0.00000E+00        -0.50323E+08
 
   -0.49950E+08         0.55657E+07         0.00000E+00
    0.55657E+07        -0.63622E+08         0.00000E+00
    0.00000E+00         0.00000E+00        -0.50421E+08
 
   -0.49163E+08        -0.65498E+06         0.00000E+00
   -0.65498E+06        -0.60068E+08         0.00000E+00
    0.00000E+00         0.00000E+00        -0.48624E+08
 
   -0.50107E+08        -0.17644E+07         0.00000E+00
   -0.17644E+07        -0.60320E+08         0.00000E+00
    0.00000E+00         0.00000E+00        -0.48846E+08
 
   -0.50448E+08        -0.25649E+07         0.00000E+00
   -0.25649E+07        -0.60727E+08         0.00000E+00
    0.00000E+00         0.00000E+00        -0.48968E+08
 
   -0.50384E+08        -0.30480E+07         0.00000E+00
   -0.30480E+07        -0.61203E+08         0.00000E+00
    0.00000E+00         0.00000E+00        -0.49016E+08
 
   -0.50069E+08        -0.32360E+07         0.00000E+00
   -0.32360E+07        -0.61687E+08         0.00000E+00
    0.00000E+00         0.00000E+00        -0.49014E+08
 
   -0.49614E+08        -0.31640E+07         0.00000E+00
   -0.31640E+07        -0.62143E+08         0.00000E+00
    0.00000E+00         0.00000E+00        -0.48977E+08
 
   -0.49100E+08        -0.28674E+07         0.00000E+00
   -0.28674E+07        -0.62555E+08         0.00000E+00
    0.00000E+00         0.00000E+00        -0.48920E+08
 
   -0.48577E+08        -0.23748E+07         0.00000E+00
   -0.23748E+07        -0.62917E+08         0.00000E+00
    0.00000E+00         0.00000E+00        -0.48853E+08
 
   -0.48086E+08        -0.17043E+07         0.00000E+00
   -0.17043E+07        -0.63232E+08         0.00000E+00
    0.00000E+00         0.00000E+00        -0.48783E+08
 
   -0.47661E+08        -0.86332E+06         0.00000E+00
   -0.86332E+06        -0.63499E+08         0.00000E+00
    0.00000E+00         0.00000E+00        -0.48720E+08
 
   -0.47338E+08         0.14987E+06         0.00000E+00
    0.14987E+06        -0.63714E+08         0.00000E+00
    0.00000E+00         0.00000E+00        -0.48668E+08
 
   -0.47165E+08         0.13420E+07         0.00000E+00
    0.13420E+07        -0.63861E+08         0.00000E+00
    0.00000E+00         0.00000E+00        -0.48635E+08
 
   -0.47208E+08         0.27190E+07         0.00000E+00
    0.27190E+07        -0.63912E+08         0.00000E+00
    0.00000E+00         0.00000E+00        -0.48629E+08
 
   -0.47552E+08         0.42780E+07         0.00000E+00
    0.42780E+07        -0.63822E+08         0.00000E+00
    0.00000E+00         0.00000E+00        -0.48660E+08
 
   -0.48302E+08         0.59966E+07         0.00000E+00
    0.59966E+07        -0.63530E+08         0.00000E+00
    0.00000E+00         0.00000E+00        -0.48739E+08
 
   -0.50545E+08        -0.80682E+06         0.00000E+00
   -0.80682E+06        -0.60074E+08         0.00000E+00
    0.00000E+00         0.00000E+00        -0.47532E+08
 
   -0.51140E+08        -0.21228E+07         0.00000E+00
   -0.21228E+07        -0.60338E+08         0.00000E+00
    0.00000E+00         0.00000E+00        -0.47678E+08
 
   -0.51116E+08        -0.30200E+07         0.00000E+00
   -0.30200E+07        -0.60744E+08         0.00000E+00
    0.00000E+00         0.00000E+00        -0.47713E+08
 
   -0.50712E+08        -0.35220E+07         0.00000E+00
   -0.35220E+07        -0.61193E+08         0.00000E+00
    0.00000E+00         0.00000E+00        -0.47673E+08
 
   -0.50102E+08        -0.36825E+07         0.00000E+00
   -0.36825E+07        -0.61621E+08         0.00000E+00
    0.00000E+00         0.00000E+00        -0.47583E+08
 
   -0.49401E+08        -0.35625E+07         0.00000E+00
   -0.35625E+07        -0.61999E+08         0.00000E+00
    0.00000E+00         0.00000E+00        -0.47465E+08
 
   -0.48677E+08        -0.32143E+07         0.00000E+00
   -0.32143E+07        -0.62322E+08         0.00000E+00
    0.00000E+00         0.00000E+00        -0.47332E+08
 
   -0.47972E+08        -0.26753E+07         0.00000E+00
   -0.26753E+07        -0.62596E+08         0.00000E+00
    0.00000E+00         0.00000E+00        -0.47196E+08
 
   -0.47311E+08        -0.19652E+07         0.00000E+00
   -0.19652E+07        -0.62835E+08         0.00000E+00
    0.00000E+00         0.00000E+00        -0.47063E+08
 
   -0.46714E+08        -0.10873E+07         0.00000E+00
   -0.10873E+07        -0.63046E+08         0.00000E+00
    0.00000E+00         0.00000E+00        -0.46940E+08
 
   -0.46209E+08        -0.30820E+05         0.00000E+00
   -0.30820E+05        -0.63233E+08         0.00000E+00
    0.00000E+00         0.00000E+00        -0.46834E+08
 
   -0.45840E+08         0.12250E+07         0.00000E+00
    0.12250E+07        -0.63384E+08         0.00000E+00
    0.00000E+00         0.00000E+00        -0.46752E+08
 
   -0.45673E+08         0.27043E+07         0.00000E+00
    0.27043E+07        -0.63470E+08         0.00000E+00
    0.00000E+00         0.00000E+00        -0.46702E+08
 
   -0.45809E+08         0.44243E+07         0.00000E+00
    0.44243E+07        -0.63438E+08         0.00000E+00
    0.00000E+00         0.00000E+00        -0.46696E+08
 
   -0.46380E+08         0.63816E+07         0.00000E+00
    0.63816E+07        -0.63212E+08         0.00000E+00
    0.00000E+00         0.00000E+00        -0.46749E+08
 
   -0.52203E+08        -0.96882E+06         0.00000E+00
   -0.96882E+06        -0.60078E+08         0.00000E+00
    0.00000E+00         0.00000E+00        -0.46236E+08
 
   -0.52311E+08        -0.24838E+07         0.00000E+00
   -0.24838E+07        -0.60344E+08         0.00000E+00
    0.00000E+00         0.00000E+00        -0.46278E+08
 
   -0.51821E+08        -0.34473E+07         0.00000E+00
   -0.34473E+07        -0.60724E+08         0.00000E+00
    0.00000E+00         0.00000E+00        -0.46203E+08
 
   -0.51016E+08        -0.39317E+07         0.00000E+00
   -0.39317E+07        -0.61104E+08         0.00000E+00
    0.00000E+00         0.00000E+00        -0.46055E+08
 
   -0.50084E+08        -0.40353E+07         0.00000E+00
   -0.40353E+07        -0.61426E+08         0.00000E+00
    0.00000E+00         0.00000E+00        -0.45866E+08
 
   -0.49130E+08        -0.38505E+07         0.00000E+00
   -0.38505E+07        -0.61675E+08         0.00000E+00
    0.00000E+00         0.00000E+00        -0.45658E+08
 
   -0.48207E+08        -0.34481E+07         0.00000E+00
   -0.34481E+07        -0.61860E+08         0.00000E+00
    0.00000E+00         0.00000E+00        -0.45445E+08
 
   -0.47332E+08        -0.28725E+07         0.00000E+00
   -0.28725E+07        -0.62004E+08         0.00000E+00
    0.00000E+00         0.00000E+00        -0.45237E+08
 
   -0.46510E+08        -0.21431E+07         0.00000E+00
   -0.21431E+07        -0.62131E+08         0.00000E+00
    0.00000E+00         0.00000E+00        -0.45038E+08
 
   -0.45745E+08        -0.12574E+07         0.00000E+00
   -0.12574E+07        -0.62261E+08         0.00000E+00
    0.00000E+00         0.00000E+00        -0.44856E+08
 
   -0.45048E+08        -0.19340E+06         0.00000E+00
   -0.19340E+06        -0.62403E+08         0.00000E+00
    0.00000E+00         0.00000E+00        -0.44693E+08
 
   -0.44453E+08         0.10869E+07         0.00000E+00
    0.10869E+07        -0.62553E+08         0.00000E+00
    0.00000E+00         0.00000E+00        -0.44558E+08
 
   -0.44025E+08         0.26318E+07         0.00000E+00
    0.26318E+07        -0.62684E+08         0.00000E+00
    0.00000E+00         0.00000E+00        -0.44458E+08
 
   -0.43876E+08         0.44875E+07         0.00000E+00
    0.44875E+07        -0.62737E+08         0.00000E+00
    0.00000E+00         0.00000E+00        -0.44406E+08
 
   -0.44168E+08         0.66802E+07         0.00000E+00
    0.66802E+07        -0.62619E+08         0.00000E+00
    0.00000E+00         0.00000E+00        -0.44421E+08
 
   -0.54141E+08        -0.11365E+07         0.00000E+00
   -0.11365E+07        -0.60080E+08         0.00000E+00
    0.00000E+00         0.00000E+00        -0.44707E+08
 
   -0.53590E+08        -0.28254E+07         0.00000E+00
   -0.28254E+07        -0.60331E+08         0.00000E+00
    0.00000E+00         0.00000E+00        -0.44608E+08
 
   -0.52518E+08        -0.38048E+07         0.00000E+00
   -0.38048E+07        -0.60645E+08         0.00000E+00
    0.00000E+00         0.00000E+00        -0.44395E+08
 
   -0.51257E+08        -0.42220E+07         0.00000E+00
   -0.42220E+07        -0.60898E+08         0.00000E+00
    0.00000E+00         0.00000E+00        -0.44122E+08
 
   -0.49990E+08        -0.42354E+07         0.00000E+00
   -0.42354E+07        -0.61049E+08         0.00000E+00
    0.00000E+00         0.00000E+00        -0.43823E+08
 
   -0.48797E+08        -0.39730E+07         0.00000E+00
   -0.39730E+07        -0.61105E+08         0.00000E+00
    0.00000E+00         0.00000E+00        -0.43521E+08
 
   -0.47696E+08        -0.35211E+07         0.00000E+00
   -0.35211E+07        -0.61100E+08         0.00000E+00
    0.00000E+00         0.00000E+00        -0.43227E+08
 
   -0.46675E+08        -0.29269E+07         0.00000E+00
   -0.29269E+07        -0.61070E+08         0.00000E+00
    0.00000E+00         0.00000E+00        -0.42947E+08
 
   -0.45714E+08        -0.22067E+07         0.00000E+00
   -0.22067E+07        -0.61052E+08         0.00000E+00
    0.00000E+00         0.00000E+00        -0.42685E+08
 
   -0.44791E+08        -0.13510E+07         0.00000E+00
   -0.13510E+07        -0.61072E+08         0.00000E+00
    0.00000E+00         0.00000E+00        -0.42443E+08
 
   -0.43898E+08        -0.32610E+06         0.00000E+00
   -0.32610E+06        -0.61152E+08         0.00000E+00
    0.00000E+00         0.00000E+00        -0.42223E+08
 
   -0.43051E+08         0.92513E+06         0.00000E+00
    0.92513E+06        -0.61296E+08         0.00000E+00
    0.00000E+00         0.00000E+00        -0.42032E+08
 
   -0.42305E+08         0.24807E+07         0.00000E+00
    0.24807E+07        -0.61485E+08         0.00000E+00
    0.00000E+00         0.00000E+00        -0.41876E+08
 
   -0.41777E+08         0.44277E+07         0.00000E+00
    0.44277E+07        -0.61657E+08         0.00000E+00
    0.00000E+00         0.00000E+00        -0.41770E+08
 
   -0.41662E+08         0.68377E+07         0.00000E+00
    0.68377E+07        -0.61702E+08         0.00000E+00
    0.00000E+00         0.00000E+00        -0.41734E+08
 
   -0.56349E+08        -0.13023E+07         0.00000E+00
   -0.13023E+07        -0.60078E+08         0.00000E+00
    0.00000E+00         0.00000E+00        -0.42918E+08
 
   -0.54918E+08        -0.31117E+07         0.00000E+00
   -0.31117E+07        -0.60285E+08         0.00000E+00
    0.00000E+00         0.00000E+00        -0.42632E+08
 
   -0.53144E+08        -0.40288E+07         0.00000E+00
   -0.40288E+07        -0.60470E+08         0.00000E+00
    0.00000E+00         0.00000E+00        -0.42251E+08
 
   -0.51389E+08        -0.43172E+07         0.00000E+00
   -0.43172E+07        -0.60512E+08         0.00000E+00
    0.00000E+00         0.00000E+00        -0.41834E+08
 
   -0.49801E+08        -0.42109E+07         0.00000E+00
   -0.42109E+07        -0.60408E+08         0.00000E+00
    0.00000E+00         0.00000E+00        -0.41419E+08
 
   -0.48403E+08        -0.38702E+07         0.00000E+00
   -0.38702E+07        -0.60205E+08         0.00000E+00
    0.00000E+00         0.00000E+00        -0.41022E+08
 
   -0.47163E+08        -0.33865E+07         0.00000E+00
   -0.33865E+07        -0.59958E+08         0.00000E+00
    0.00000E+00         0.00000E+00        -0.40649E+08
 
   -0.46031E+08        -0.28026E+07         0.00000E+00
   -0.28026E+07        -0.59718E+08         0.00000E+00
    0.00000E+00         0.00000E+00        -0.40304E+08
 
   -0.44957E+08        -0.21281E+07         0.00000E+00
   -0.21281E+07        -0.59526E+08         0.00000E+00
    0.00000E+00         0.00000E+00        -0.39983E+08
 
   -0.43897E+08        -0.13465E+07         0.00000E+00
   -0.13465E+07        -0.59416E+08         0.00000E+00
    0.00000E+00         0.00000E+00        -0.39687E+08
 
   -0.42816E+08        -0.41543E+06         0.00000E+00
   -0.41543E+06        -0.59416E+08         0.00000E+00
    0.00000E+00         0.00000E+00        -0.39414E+08
 
   -0.41700E+08         0.73904E+06         0.00000E+00
    0.73904E+06        -0.59546E+08         0.00000E+00
    0.00000E+00         0.00000E+00        -0.39165E+08
 
   -0.40578E+08         0.22280E+07         0.00000E+00
    0.22280E+07        -0.59801E+08         0.00000E+00
    0.00000E+00         0.00000E+00        -0.38948E+08
 
   -0.39558E+08         0.41942E+07         0.00000E+00
    0.41942E+07        -0.60132E+08         0.00000E+00
    0.00000E+00         0.00000E+00        -0.38775E+08
 
   -0.38867E+08         0.67801E+07         0.00000E+00
    0.67801E+07        -0.60410E+08         0.00000E+00
    0.00000E+00         0.00000E+00        -0.38671E+08
 
   -0.58786E+08        -0.14528E+07         0.00000E+00
   -0.14528E+07        -0.60067E+08         0.00000E+00
    0.00000E+00         0.00000E+00        -0.40847E+08
 
   -0.56203E+08        -0.32800E+07         0.00000E+00
   -0.32800E+07        -0.60180E+08         0.00000E+00
    0.00000E+00         0.00000E+00        -0.40314E+08
 
   -0.53616E+08        -0.40204E+07         0.00000E+00
   -0.40204E+07        -0.60129E+08         0.00000E+00
    0.00000E+00         0.00000E+00        -0.39729E+08
 
   -0.51373E+08        -0.41167E+07         0.00000E+00
   -0.41167E+07        -0.59841E+08         0.00000E+00
    0.00000E+00         0.00000E+00        -0.39155E+08
 
   -0.49516E+08        -0.38828E+07         0.00000E+00
   -0.38828E+07        -0.59387E+08         0.00000E+00
    0.00000E+00         0.00000E+00        -0.38622E+08
 
   -0.47970E+08        -0.34878E+07         0.00000E+00
   -0.34878E+07        -0.58863E+08         0.00000E+00
    0.00000E+00         0.00000E+00        -0.38137E+08
 
   -0.46639E+08        -0.30089E+07         0.00000E+00
   -0.30089E+07        -0.58341E+08         0.00000E+00
    0.00000E+00         0.00000E+00        -0.37697E+08
 
   -0.45436E+08        -0.24755E+07         0.00000E+00
   -0.24755E+07        -0.57871E+08         0.00000E+00
    0.00000E+00         0.00000E+00        -0.37296E+08
 
   -0.44284E+08        -0.18885E+07         0.00000E+00
   -0.18885E+07        -0.57494E+08         0.00000E+00
    0.00000E+00         0.00000E+00        -0.36928E+08
 
   -0.43115E+08        -0.12268E+07         0.00000E+00
   -0.12268E+07        -0.57242E+08         0.00000E+00
    0.00000E+00         0.00000E+00        -0.36586E+08
 
   -0.41865E+08        -0.44574E+06         0.00000E+00
   -0.44574E+06        -0.57147E+08         0.00000E+00
    0.00000E+00         0.00000E+00        -0.36265E+08
 
   -0.40481E+08         0.53508E+06         0.00000E+00
    0.53508E+06        -0.57247E+08         0.00000E+00
    0.00000E+00         0.00000E+00        -0.35962E+08
 
   -0.38937E+08         0.18544E+07         0.00000E+00
    0.18544E+07        -0.57569E+08         0.00000E+00
    0.00000E+00         0.00000E+00        -0.35678E+08
 
   -0.37301E+08         0.37258E+07         0.00000E+00
    0.37258E+07        -0.58096E+08         0.00000E+00
    0.00000E+00         0.00000E+00        -0.35426E+08
 
   -0.35814E+08         0.64069E+07         0.00000E+00
    0.64069E+07        -0.58700E+08         0.00000E+00
    0.00000E+00         0.00000E+00        -0.35231E+08
 
   -0.61358E+08        -0.15607E+07         0.00000E+00
   -0.15607E+07        -0.60038E+08         0.00000E+00
    0.00000E+00         0.00000E+00        -0.38478E+08
 
   -0.57287E+08        -0.32095E+07         0.00000E+00
   -0.32095E+07        -0.59948E+08         0.00000E+00
    0.00000E+00         0.00000E+00        -0.37618E+08
 
   -0.53842E+08        -0.36234E+07         0.00000E+00
   -0.36234E+07        -0.59472E+08         0.00000E+00
    0.00000E+00         0.00000E+00        -0.36790E+08
 
   -0.51198E+08        -0.35025E+07         0.00000E+00
   -0.35025E+07        -0.58700E+08         0.00000E+00
    0.00000E+00         0.00000E+00        -0.36054E+08
 
   -0.49167E+08        -0.31852E+07         0.00000E+00
   -0.31852E+07        -0.57821E+08         0.00000E+00
    0.00000E+00         0.00000E+00        -0.35416E+08
 
   -0.47543E+08        -0.27955E+07         0.00000E+00
   -0.27955E+07        -0.56950E+08         0.00000E+00
    0.00000E+00         0.00000E+00        -0.34859E+08
 
   -0.46171E+08        -0.23780E+07         0.00000E+00
   -0.23780E+07        -0.56152E+08         0.00000E+00
    0.00000E+00         0.00000E+00        -0.34369E+08
 
   -0.44933E+08        -0.19440E+07         0.00000E+00
   -0.19440E+07        -0.55464E+08         0.00000E+00
    0.00000E+00         0.00000E+00        -0.33929E+08
 
   -0.43735E+08        -0.14869E+07         0.00000E+00
   -0.14869E+07        -0.54913E+08         0.00000E+00
    0.00000E+00         0.00000E+00        -0.33528E+08
 
   -0.42489E+08        -0.98584E+06         0.00000E+00
   -0.98584E+06        -0.54525E+08         0.00000E+00
    0.00000E+00         0.00000E+00        -0.33154E+08
 
   -0.41106E+08        -0.40205E+06         0.00000E+00
   -0.40205E+06        -0.54332E+08         0.00000E+00
    0.00000E+00         0.00000E+00        -0.32797E+08
 
   -0.39487E+08         0.33488E+06         0.00000E+00
    0.33488E+06        -0.54381E+08         0.00000E+00
    0.00000E+00         0.00000E+00        -0.32447E+08
 
   -0.37518E+08         0.13600E+07         0.00000E+00
    0.13600E+07        -0.54739E+08         0.00000E+00
    0.00000E+00         0.00000E+00        -0.32095E+08
 
   -0.35147E+08         0.29574E+07         0.00000E+00
    0.29574E+07        -0.55483E+08         0.00000E+00
    0.00000E+00         0.00000E+00        -0.31748E+08
 
   -0.32571E+08         0.55783E+07         0.00000E+00
    0.55783E+07        -0.56526E+08         0.00000E+00
    0.00000E+00         0.00000E+00        -0.31428E+08
 
   -0.63845E+08        -0.15474E+07         0.00000E+00
   -0.15474E+07        -0.59948E+08         0.00000E+00
    0.00000E+00         0.00000E+00        -0.35801E+08
 
   -0.57934E+08        -0.26315E+07         0.00000E+00
   -0.26315E+07        -0.59357E+08         0.00000E+00
    0.00000E+00         0.00000E+00        -0.34489E+08
 
   -0.53789E+08        -0.26290E+07         0.00000E+00
   -0.26290E+07        -0.58152E+08         0.00000E+00
    0.00000E+00         0.00000E+00        -0.33396E+08
 
   -0.50935E+08        -0.23944E+07         0.00000E+00
   -0.23944E+07        -0.56804E+08         0.00000E+00
    0.00000E+00         0.00000E+00        -0.32525E+08
 
   -0.48835E+08        -0.21065E+07         0.00000E+00
   -0.21065E+07        -0.55507E+08         0.00000E+00
    0.00000E+00         0.00000E+00        -0.31810E+08
 
   -0.47191E+08        -0.18123E+07         0.00000E+00
   -0.18123E+07        -0.54334E+08         0.00000E+00
    0.00000E+00         0.00000E+00        -0.31209E+08
 
   -0.45813E+08        -0.15233E+07         0.00000E+00
   -0.15233E+07        -0.53313E+08         0.00000E+00
    0.00000E+00         0.00000E+00        -0.30691E+08
 
   -0.44567E+08        -0.12379E+07         0.00000E+00
   -0.12379E+07        -0.52456E+08         0.00000E+00
    0.00000E+00         0.00000E+00        -0.30235E+08
 
   -0.43347E+08        -0.94744E+06         0.00000E+00
   -0.94744E+06        -0.51775E+08         0.00000E+00
    0.00000E+00         0.00000E+00        -0.29821E+08
 
   -0.42055E+08        -0.63658E+06         0.00000E+00
   -0.63658E+06        -0.51284E+08         0.00000E+00
    0.00000E+00         0.00000E+00        -0.29433E+08
 
   -0.40584E+08        -0.27967E+06         0.00000E+00
   -0.27967E+06        -0.51009E+08         0.00000E+00
    0.00000E+00         0.00000E+00        -0.29056E+08
 
   -0.38795E+08         0.16928E+06         0.00000E+00
    0.16928E+06        -0.50998E+08         0.00000E+00
    0.00000E+00         0.00000E+00        -0.28673E+08
 
   -0.36493E+08         0.80316E+06         0.00000E+00
    0.80316E+06        -0.51342E+08         0.00000E+00
    0.00000E+00         0.00000E+00        -0.28264E+08
 
   -0.33350E+08         0.18539E+07         0.00000E+00
    0.18539E+07        -0.52208E+08         0.00000E+00
    0.00000E+00         0.00000E+00        -0.27797E+08
 
   -0.29294E+08         0.40766E+07         0.00000E+00
    0.40766E+07        -0.53843E+08         0.00000E+00
    0.00000E+00         0.00000E+00        -0.27309E+08
 
   -0.65669E+08        -0.97402E+06         0.00000E+00
   -0.97402E+06        -0.59296E+08         0.00000E+00
    0.00000E+00         0.00000E+00        -0.32694E+08
 
   -0.57992E+08        -0.10960E+07         0.00000E+00
   -0.10960E+07        -0.57529E+08         0.00000E+00
    0.00000E+00         0.00000E+00        -0.30805E+08
 
   -0.53640E+08        -0.97699E+06         0.00000E+00
   -0.97699E+06        -0.55597E+08         0.00000E+00
    0.00000E+00         0.00000E+00        -0.29542E+08
 
   -0.50733E+08        -0.85472E+06         0.00000E+00
   -0.85472E+06        -0.53828E+08         0.00000E+00
    0.00000E+00         0.00000E+00        -0.28597E+08
 
   -0.48628E+08        -0.73597E+06         0.00000E+00
   -0.73597E+06        -0.52272E+08         0.00000E+00
    0.00000E+00         0.00000E+00        -0.27852E+08
 
   -0.46990E+08        -0.62519E+06         0.00000E+00
   -0.62519E+06        -0.50931E+08         0.00000E+00
    0.00000E+00         0.00000E+00        -0.27244E+08
 
   -0.45618E+08        -0.52134E+06         0.00000E+00
   -0.52134E+06        -0.49797E+08         0.00000E+00
    0.00000E+00         0.00000E+00        -0.26729E+08
 
   -0.44374E+08        -0.42172E+06         0.00000E+00
   -0.42172E+06        -0.48861E+08         0.00000E+00
    0.00000E+00         0.00000E+00        -0.26280E+08
 
   -0.43147E+08        -0.32233E+06         0.00000E+00
   -0.32233E+06        -0.48121E+08         0.00000E+00
    0.00000E+00         0.00000E+00        -0.25875E+08
 
   -0.41835E+08        -0.21750E+06         0.00000E+00
   -0.21750E+06        -0.47584E+08         0.00000E+00
    0.00000E+00         0.00000E+00        -0.25494E+08
 
   -0.40321E+08        -0.98415E+05         0.00000E+00
   -0.98415E+05        -0.47270E+08         0.00000E+00
    0.00000E+00         0.00000E+00        -0.25119E+08
 
   -0.38447E+08         0.50291E+05         0.00000E+00
    0.50291E+05        -0.47224E+08         0.00000E+00
    0.00000E+00         0.00000E+00        -0.24727E+08
 
   -0.35962E+08         0.26130E+06         0.00000E+00
    0.26130E+06        -0.47535E+08         0.00000E+00
    0.00000E+00         0.00000E+00        -0.24287E+08
 
   -0.32395E+08         0.60855E+06         0.00000E+00
    0.60855E+06        -0.48404E+08         0.00000E+00
    0.00000E+00         0.00000E+00        -0.23744E+08
 
   -0.26350E+08         0.15613E+07         0.00000E+00
    0.15613E+07        -0.50417E+08         0.00000E+00
    0.00000E+00         0.00000E+00        -0.22938E+08
 
SCALARS stressS double 
LOOKUP_TABLE default
  -54139169.6193449     
  -54335603.3473375     
  -54559665.0949891     
  -54803787.9690713     
  -55060989.7706341     
  -55324877.5573654     
  -55589629.3497686     
  -55849958.6923290     
  -56101067.8019234     
  -56338594.9259838     
  -56558561.3674129     
  -56757323.4774543     
  -56931534.8296240     
  -57078123.8214477     
  -57194292.1614365     
  -54120256.7824811     
  -54321154.0270711     
  -54549279.7683003     
  -54797049.0768901     
  -55057483.0901349     
  -55324208.8121900     
  -55591436.1146683     
  -55853917.7501426     
  -56106898.1725401     
  -56346056.8136283     
  -56567451.2713000     
  -56767465.6897875     
  -56942769.5121883     
  -57090291.8147315     
  -57207216.6434523     
  -54082737.1652620     
  -54292545.7009657     
  -54528762.1879475     
  -54783770.8427247     
  -55050604.3655037     
  -55322934.1811158     
  -55595038.0167026     
  -55861750.8308404     
  -56118405.0072780     
  -56360765.5090053     
  -56584965.4373162     
  -56787447.2246168     
  -56964914.5666495     
  -57114300.2202598     
  -57232755.0062458     
  -54027228.0972614     
  -54250360.1147319     
  -54498615.6893440     
  -54764345.8822844     
  -55040613.0108879     
  -55321166.4644052     
  -55600396.1226937     
  -55873269.6933307     
  -56135260.0477784     
  -56382268.3043147     
  -56610548.0639903     
  -56816635.9276011     
  -56997293.2635902     
  -57149464.2058853     
  -57270255.0800890     
  -53954668.1122393     
  -54195472.1327974     
  -54459587.6900541     
  -54739346.3671585     
  -55027873.0082736     
  -55319042.1453054     
  -55607412.5055968     
  -55888146.3114564     
  -56156919.6525020     
  -56409829.7127159     
  -56643304.1646338     
  -56854017.6783754     
  -57038820.2886922     
  -57194682.3601735     
  -57318661.1233600     
  -53866330.5804604     
  -54129050.8937484     
  -54412659.0129400     
  -54709502.4034483     
  -55012821.3590899     
  -55316680.9542400     
  -55615881.8911262     
  -55905857.4349062     
  -56182562.9269685     
  -56442363.6402263     
  -56681926.0988770     
  -56898117.5074771     
  -57087917.6724113     
  -57248347.7858992     
  -57376420.7004032     
  -53763839.5002365     
  -54052558.7558256     
  -54359027.0000918     
  -54675670.6533857     
  -54995923.7134582     
  -55314130.0107500     
  -55625425.6899407     
  -55925609.6634208     
  -56211008.7100265     
  -56478342.8633102     
  -56724595.8694710     
  -56946894.8759046     
  -57142403.1831791     
  -57308229.8769619     
  -57441360.4573548     
  -53649185.3561039     
  -53967745.7528496     
  -54300080.0945921     
  -54638790.9796013     
  -54977615.1943576     
  -55311290.9101506     
  -55635407.2116644     
  -55946244.3004105     
  -56240611.1499932     
  -56515685.9681701     
  -56768863.6752056     
  -56997613.8176098     
  -57199351.9360717     
  -57371327.3995799     
  -57510531.0878035     
  -53524738.3785594     
  -53876636.6487384     
  -54237360.9268225     
  -54599828.2973273     
  -54958223.9358653     
  -55307827.7615116     
  -55644826.6636044     
  -55966121.2405962     
  -56269133.7749746     
  -56551622.2456637     
  -56811503.6878806     
  -57046689.2206673     
  -57254932.5906568     
  -57433694.1050582     
  -57580022.3018204     
  -53393255.9529024     
  -53781507.0157818     
  -54172514.2691349     
  -54559696.2060119     
  -54937874.3634376     
  -55303053.8666025     
  -55652194.4299263     
  -55982981.2668354     
  -56293602.3096589     
  -56582535.5938782     
  -56848348.7565236     
  -57089511.3881258     
  -57304220.4469612     
  -57490239.0347967     
  -57644749.4610316     
  -53257880.3386047     
  -53684844.0729317     
  -54107215.5181821     
  -54519158.3421447     
  -54916366.7711833     
  -55295794.4779849     
  -55655381.1405223     
  -55993786.4301633     
  -56310137.0735411     
  -56603789.3252802     
  -56874106.8100112     
  -57120252.2558204     
  -57340991.0839338     
  -57534505.0296780     
  -57698214.8128497     
  -53122122.3034112     
  -53589287.3164373     
  -54043074.6329920     
  -54478702.7578842     
  -54893029.3146811     
  -55284222.9206772     
  -55651443.2197777     
  -55994538.7248848     
  -56313766.6850425     
  -56609534.9883278     
  -56882163.2183056     
  -57131658.3459237     
  -57357500.0198964     
  -57558430.8300627     
  -57732248.0576443     
  -52989825.7895958     
  -53497543.2733495     
  -53981509.7079617     
  -54438383.9995218     
  -54866538.1663769     
  -55265667.3523518     
  -55636423.0189819     
  -55980078.1281982     
  -56298226.0851696     
  -56592509.9953089     
  -56864375.3886219     
  -57114837.8114247     
  -57344256.3229103     
  -57552104.6682179     
  -57736733.4390811     
  -52865108.3703307     
  -53412268.0308106     
  -53923583.6050222     
  -54397626.9564581     
  -54834701.3154336     
  -55236385.6388276     
  -55605123.3732350     
  -55943862.3610003     
  -56255743.7046651     
  -56543831.1259458     
  -56810868.5442016     
  -57059051.9059190     
  -57289801.2894881     
  -57503520.5453027     
  -57699333.8023966     
  -52752272.0934989     
  -53335910.5627833     
  -53869796.3181809     
  -54354986.0011043     
  -54794201.3934400     
  -55191306.3301847     
  -55550857.6123754     
  -55877732.5935862     
  -56176825.0912821     
  -56452794.0121396     
  -56709845.1167228     
  -56951525.0443177     
  -57180507.3867942     
  -57398352.5955582     
  -57605226.2745288     
  -52655679.4287877     
  -53270509.3011118     
  -53819824.9935567     
  -54307852.4694739     
  -54740293.0506541     
  -55123734.6735488     
  -55465177.8767216     
  -55771671.9752885     
  -56050043.7054873     
  -56306692.7129694     
  -56547424.6726886     
  -56777292.4785543     
  -57000417.7760578     
  -57219768.2247247     
  -57436869.5473760     
  -52579589.5043658     
  -53217433.8509742     
  -53772202.7387505     
  -54252103.1556453     
  -54666450.8970561     
  -55025024.1832089     
  -55337587.3003699     
  -55613567.6020367     
  -55861854.1772696     
  -56090678.7350450     
  -56307537.0328795     
  -56519110.7069463     
  -56731153.0802262     
  -56948307.2233083     
  -57173829.3472976     
  -52527950.6702310     
  -53177063.1083338     
  -53723926.3973154     
  -54181682.1839824     
  -54563964.9859455     
  -54884216.7818738     
  -55155245.6008645     
  -55388991.7615867     
  -55596449.4931070     
  -55787685.7013294     
  -55971898.5421001     
  -56157463.3239112     
  -56351919.8295751     
  -56561861.9503647     
  -56792696.6751229     
  -52504146.5648392     
  -53148389.9631058     
  -53669982.0078257     
  -54088108.2501916     
  -54421482.4083939     
  -54687658.3354960     
  -54902683.4098808     
  -55081025.5989777     
  -55235691.8891902     
  -55378454.7863004     
  -55520110.7022545     
  -55670704.4335701     
  -55839664.4734866     
  -56035803.1165994     
  -56267142.8610349     
  -52510693.9269502     
  -53128540.4706524     
  -53602773.9449062     
  -53959898.4221113     
  -54224495.9733814     
  -54418602.1770918     
  -54561549.1602498     
  -54670158.5705569     
  -54759158.3662423     
  -54841707.5875737     
  -54929932.0985384     
  -55035393.4742004     
  -55169428.3810843     
  -55343306.8832273     
  -55568166.3571169     
  -52548890.4560607     
  -53112190.0349571     
  -53511438.0244678     
  -53781897.6015327     
  -53954784.4636623     
  -54056822.1082173     
  -54110424.9555324     
  -54134311.4267109     
  -54144356.5556269     
  -54154527.8775836     
  -54177789.3404578     
  -54226890.0645521     
  -54314973.6350710     
  -54455952.3809031     
  -54664598.3553226     
  -52618407.9134560     
  -53090846.6806982     
  -53381006.2334413     
  -53534497.5208732     
  -53589814.2555956     
  -53578270.7486741     
  -53524767.1778413     
  -53449050.7668450     
  -53367185.8739761     
  -53293032.0068335     
  -53239611.1490223     
  -53220296.6272100     
  -53249768.2510158     
  -53344675.5915021     
  -53523947.6402100     
  -52716814.6330221     
  -53051942.1073561     
  -53191362.3926687     
  -53192717.0032375     
  -53102121.3660503     
  -52954844.3423822     
  -52777058.6577838     
  -52588091.7691090     
  -52402742.5334408     
  -52233428.4185081     
  -52092092.2281606     
  -51991862.0815218     
  -51948446.9257578     
  -51981188.8193277     
  -52113680.1960146     
  -52838980.1145270     
  -52977601.5326875     
  -52915862.6406423     
  -52725089.8953567     
  -52458713.7310827     
  -52154364.2017360     
  -51837311.6798161     
  -51524225.4478201     
  -51226591.1940417     
  -50953586.3352550     
  -50714517.0071786     
  -50520998.1910375     
  -50388906.6899537     
  -50340015.2012495     
  -50403047.4012555     
  -52976235.5555492     
  -52842784.3860907     
  -52519345.1995840     
  -52092260.7741939     
  -51620591.6806379     
  -51140989.9667881     
  -50674151.7354566     
  -50230857.0661124     
  -49816643.5896180     
  -49435232.3145698     
  -49091299.6557143     
  -48793107.5513243     
  -48555289.4477581     
  -48401358.2568749     
  -48365613.6121189     
  -53114906.3128864     
  -52612033.1541189     
  -51954889.2964938     
  -51245144.5205901     
  -50542673.8302074     
  -49876500.6986017     
  -49256865.7973308     
  -48684395.7758742     
  -48155757.9421850     
  -47666870.0064216     
  -47215349.9182644     
  -46803550.7277874     
  -46442227.5132979     
  -46155255.8077628     
  -45982676.4379044     
  -53233195.7223603     
  -52232561.1912505     
  -51157936.8292376     
  -50122675.6494320     
  -49174970.3586295     
  -48323373.7124242     
  -47558939.2303067     
  -46867770.0345865     
  -46235145.2540845     
  -45647261.6628737     
  -45092415.8543608     
  -44562900.0955397     
  -44061436.5121690     
  -43607658.3440631     
  -43248177.3412487     
  -53291123.0396004     
  -51617556.1064985     
  -50034829.2026992     
  -48650591.0986029     
  -47467916.8012594     
  -46450775.7540499     
  -45563690.9311161     
  -44775335.3692836     
  -44058593.4587517     
  -43389312.9197145     
  -42745078.3810810     
  -42104967.2782325     
  -41450686.2214991     
  -40792482.2744202     
  -40175052.9906820     
  -53198169.3732169     
  -50593467.1851987     
  -48445425.6948611     
  -46754389.4206346     
  -45383940.3565959     
  -44244653.8213521     
  -43272363.6588327     
  -42419382.5759924     
  -41647637.2290889     
  -40923960.4870300     
  -40216179.7842853     
  -39488878.2315506     
  -38699610.6744763     
  -37785314.8293793     
  -36815306.6822133     
  -52552765.7535208     
  -48775434.0984877     
  -46259558.2344669     
  -44385959.2956492     
  -42917575.6044765     
  -41721619.1334648     
  -40714650.9287081     
  -39838384.1956198     
  -39047943.7640080     
  -38304621.2012198     
  -37570005.8300538     
  -36799143.1127843     
  -35928075.4147709     
  -34848035.5982771     
  -33235182.7678439     
SCALARS 2waySource double 
LOOKUP_TABLE default
 -3.809006468650249E-004
 -3.629424601619858E-004
 -3.445368920446462E-004
 -3.260214412058228E-004
 -3.076674716191996E-004
 -2.896928793681198E-004
 -2.722731291586658E-004
 -2.555509486902295E-004
 -2.396448577389789E-004
 -2.246566123731328E-004
 -2.106775447560711E-004
 -1.977936570356784E-004
 -1.860891651076146E-004
 -1.756479648617109E-004
 -1.665521882454249E-004
 -3.812557155507385E-004
 -3.630815577031272E-004
 -3.445465531377673E-004
 -3.259705266146769E-004
 -3.076091941793830E-004
 -2.896665779229522E-004
 -2.723058221402345E-004
 -2.556586972808319E-004
 -2.398339694304024E-004
 -2.249247212887583E-004
 -2.110146164130465E-004
 -1.981829829326294E-004
 -1.865084371436423E-004
 -1.760705517703477E-004
 -1.669487768685038E-004
 -3.819179812126922E-004
 -3.633122361166240E-004
 -3.445253290150631E-004
 -3.258403092054667E-004
 -3.074801425802004E-004
 -2.896197309863326E-004
 -2.723963334579798E-004
 -2.559186809024910E-004
 -2.402749758604091E-004
 -2.255398887403100E-004
 -2.117805804305805E-004
 -1.990616786964730E-004
 -1.874489932844335E-004
 -1.770115528250990E-004
 -1.678212644111495E-004
 -3.828544791776334E-004
 -3.636183276299604E-004
 -3.444763289609449E-004
 -3.256543525548965E-004
 -3.073245814549506E-004
 -2.896169310599203E-004
 -2.726288409235193E-004
 -2.564337399092404E-004
 -2.410884019083414E-004
 -2.266393489341422E-004
 -2.131283972967531E-004
 -2.005973601788702E-004
 -1.890917974055966E-004
 -1.786635217462340E-004
 -1.693713102234312E-004
 -3.840137870221384E-004
 -3.639743280788879E-004
 -3.444032724543079E-004
 -3.254469719981949E-004
 -3.072074383033992E-004
 -2.897528645254300E-004
 -2.731264615884079E-004
 -2.573539170404864E-004
 -2.424497301487926E-004
 -2.284226463644423E-004
 -2.152803820641901E-004
 -2.030337754974368E-004
 -1.917004041176996E-004
 -1.813075544626703E-004
 -1.718941990326332E-004
 -3.853293714405088E-004
 -3.643495401819542E-004
 -3.443150897349873E-004
 -3.252679618686416E-004
 -3.072188527450254E-004
 -2.901564222543709E-004
 -2.740547228926671E-004
 -2.588791601188852E-004
 -2.445912854470722E-004
 -2.311527350584996E-004
 -2.185286323075638E-004
 -2.066907519538206E-004
 -1.956206816053817E-004
 -1.853130968073060E-004
 -1.757790729015493E-004
 -3.867239707616302E-004
 -3.647135463872179E-004
 -3.442319998795836E-004
 -3.251888032202413E-004
 -3.074800756504836E-004
 -2.909959164337017E-004
 -2.756258106104323E-004
 -2.612624178107060E-004
 -2.478041078365682E-004
 -2.351566737046028E-004
 -2.232347044880708E-004
 -2.119631197978772E-004
 -2.012793444090697E-004
 -1.911365252145911E-004
 -1.815080489852700E-004
 -3.881150066478900E-004
 -3.650430319230433E-004
 -3.441930823395540E-004
 -3.253103315602531E-004
 -3.081506337023650E-004
 -2.924852341974435E-004
 -2.781033253772048E-004
 -2.648127539485034E-004
 -2.524393303216389E-004
 -2.408253253327322E-004
 -2.298278428714979E-004
 -2.193178184916572E-004
 -2.091804129134307E-004
 -1.993175432745585E-004
 -1.896532146296362E-004
 -3.894209862748883E-004
 -3.653299593805095E-004
 -3.442653363709864E-004
 -3.257718075531581E-004
 -3.094366145280997E-004
 -2.948906699733473E-004
 -2.818071618417954E-004
 -2.698979606103347E-004
 -2.589084076569841E-004
 -2.486112761701581E-004
 -2.388008483537341E-004
 -2.292881511759844E-004
 -2.198984523093100E-004
 -2.104721487665243E-004
 -2.008701809080029E-004
 -3.905688045087704E-004
 -3.655910588341888E-004
 -3.445541786190910E-004
 -3.267612664294135E-004
 -3.115998280600273E-004
 -2.985380443376602E-004
 -2.871179584590125E-004
 -2.769459574947615E-004
 -2.676813281986585E-004
 -2.590239564823216E-004
 -2.507024254617701E-004
 -2.424638844677075E-004
 -2.340671517454010E-004
 -2.252806062831423E-004
 -2.158865269787226E-004
 -3.915017829757868E-004
 -3.658785374793413E-004
 -3.452152517358499E-004
 -3.285269070380002E-004
 -3.149674393171511E-004
 -3.038195132328674E-004
 -2.944803276303112E-004
 -2.864440041006067E-004
 -2.792816673310498E-004
 -2.726206658784304E-004
 -2.661245589235794E-004
 -2.594755921646282E-004
 -2.523614853386614E-004
 -2.444685111440504E-004
 -2.354830802123623E-004
 -3.921881903415201E-004
 -3.662918235826368E-004
 -3.464672895023407E-004
 -3.313890922007219E-004
 -3.199414122174538E-004
 -3.111991606473304E-004
 -3.044037301086235E-004
 -2.989343922548118E-004
 -2.942769862544234E-004
 -2.899918641005833E-004
 -2.856831421639756E-004
 -2.809713149987475E-004
 -2.754713567038779E-004
 -2.687786580610075E-004
 -2.604655560105431E-004
 -3.926298795595401E-004
 -3.669900311511496E-004
 -3.486055790261108E-004
 -3.357522251450251E-004
 -3.270067001699449E-004
 -3.212159945271247E-004
 -3.174593531592447E-004
 -3.150047885646866E-004
 -3.132626161055211E-004
 -3.117386714134673E-004
 -3.099897067795885E-004
 -3.075832615478739E-004
 -3.040642807994345E-004
 -2.989310479652699E-004
 -2.916236396175163E-004
 -3.928705612437604E-004
 -3.682046468629671E-004
 -3.520152325911637E-004
 -3.421152732503139E-004
 -3.367364848574784E-004
 -3.344822466719852E-004
 -3.342706157579341E-004
 -3.352707035990303E-004
 -3.368362592509272E-004
 -3.384400152878709E-004
 -3.396116865585878E-004
 -3.398819226460407E-004
 -3.387343238390351E-004
 -3.355680040094249E-004
 -3.296741534359366E-004
 -3.930031199412725E-004
 -3.702516682918423E-004
 -3.571829544512907E-004
 -3.510789197851193E-004
 -3.497917736880460E-004
 -3.516737905303482E-004
 -3.554938538307624E-004
 -3.603466037652813E-004
 -3.655600452192703E-004
 -3.706062487001090E-004
 -3.750182012886932E-004
 -3.783146385455750E-004
 -3.799342386868666E-004
 -3.791810613014896E-004
 -3.751845535504275E-004
 -3.931752875831645E-004
 -3.735420048800378E-004
 -3.647051336024528E-004
 -3.633460609595497E-004
 -3.669111271858152E-004
 -3.735078599335276E-004
 -3.817841956209908E-004
 -3.908008617387892E-004
 -3.999056530894104E-004
 -4.086153432901266E-004
 -4.165078856761715E-004
 -4.231253841229078E-004
 -4.278875489498421E-004
 -4.300160970014380E-004
 -4.284726883337058E-004
 -3.935929308927265E-004
 -3.785882844877979E-004
 -3.752886980746389E-004
 -3.797103501962275E-004
 -3.888839118429226E-004
 -4.007008286487408E-004
 -4.137394424567814E-004
 -4.270879580207282E-004
 -4.401768164820534E-004
 -4.526269367335187E-004
 -4.641148565805646E-004
 -4.742523792937160E-004
 -4.824773147568186E-004
 -4.879531443025673E-004
 -4.894785925295636E-004
 -3.945201919134740E-004
 -3.860050937233573E-004
 -3.897388686964473E-004
 -4.010242807417992E-004
 -4.164968334514252E-004
 -4.338952572673739E-004
 -4.518117086976838E-004
 -4.694490009601435E-004
 -4.864019486247503E-004
 -5.024686267561063E-004
 -5.174885719647373E-004
 -5.312001647582243E-004
 -5.431085352473282E-004
 -5.523575617051442E-004
 -5.576041511258066E-004
 -3.962757175381171E-004
 -3.964977614083533E-004
 -4.089241380894920E-004
 -4.281331865634528E-004
 -4.504379750486897E-004
 -4.735402954726531E-004
 -4.961724258522023E-004
 -5.177686741233013E-004
 -5.381878110885189E-004
 -5.574880413065471E-004
 -5.757431808063903E-004
 -5.928830963022511E-004
 -6.085416920254348E-004
 -6.218997864700926E-004
 -6.315168139591116E-004
 -3.992241294883739E-004
 -4.108314094683895E-004
 -4.337024173673717E-004
 -4.617534028418824E-004
 -4.911342515049322E-004
 -5.197023433081355E-004
 -5.465109397268538E-004
 -5.713732323946626E-004
 -5.945232630070688E-004
 -6.163635260713455E-004
 -6.372721054639333E-004
 -6.574378894956239E-004
 -6.766958921140388E-004
 -6.943418624476797E-004
 -7.089142240439569E-004
 -4.037614840525081E-004
 -4.297658938845686E-004
 -4.647814697869024E-004
 -5.022598419294638E-004
 -5.384858943345799E-004
 -5.717731990679811E-004
 -6.017404779834264E-004
 -6.287505316513317E-004
 -6.535205102007357E-004
 -6.768659719836121E-004
 -6.995241170296381E-004
 -7.220039241532247E-004
 -7.444214849603433E-004
 -7.662903709814156E-004
 -7.862476785843861E-004
 -4.102922188795192E-004
 -4.539310017488161E-004
 -5.024680331202807E-004
 -5.493274522450789E-004
 -5.914438472349464E-004
 -6.280308452061001E-004
 -6.595786464944420E-004
 -6.871702305231593E-004
 -7.120804580608507E-004
 -7.355644900901591E-004
 -7.587379520794142E-004
 -7.824714064696472E-004
 -8.072439113489380E-004
 -8.329174552938925E-004
 -8.584038493518219E-004
 -4.191919295347731E-004
 -4.835947035163663E-004
 -5.462267505519826E-004
 -6.013375918900417E-004
 -6.473516876798572E-004
 -6.849953485237347E-004
 -7.159654424621403E-004
 -7.421820258027825E-004
 -7.654693138748612E-004
 -7.874689496998601E-004
 -8.096330661765707E-004
 -8.331987177514278E-004
 -8.590829931119401E-004
 -8.876546205103183E-004
 -9.183465453093332E-004
 -4.307424733752410E-004
 -5.182340523169826E-004
 -5.939080184934218E-004
 -6.544068826890238E-004
 -7.009444373776627E-004
 -7.365155991959596E-004
 -7.642860356146371E-004
 -7.869747097980714E-004
 -8.067949608330889E-004
 -8.256013753425392E-004
 -8.450524241227800E-004
 -8.667009584147555E-004
 -8.919545475701831E-004
 -9.218694590569135E-004
 -9.567245332817977E-004
 -4.450091806485954E-004
 -5.557219083530398E-004
 -6.403834751872038E-004
 -7.008128751324128E-004
 -7.428748281090005E-004
 -7.725403299762817E-004
 -7.943889441425818E-004
 -8.115906511503859E-004
 -8.263706548296100E-004
 -8.404796424254614E-004
 -8.555478300952251E-004
 -8.733076445177257E-004
 -8.956676148745820E-004
 -9.245437789295797E-004
 -9.614629774579501E-004
 -4.615715248985007E-004
 -5.907165733607298E-004
 -6.750715141898775E-004
 -7.264839787125802E-004
 -7.576748824151651E-004
 -7.776072022632586E-004
 -7.914483207626915E-004
 -8.020022625720852E-004
 -8.109367541891304E-004
 -8.194766794200279E-004
 -8.288707471616886E-004
 -8.407916291790881E-004
 -8.575253662896178E-004
 -8.820059048851245E-004
 -9.173774110527096E-004
 -4.789113185778775E-004
 -6.111207016424973E-004
 -6.773324977721019E-004
 -7.071963410282896E-004
 -7.213013098902042E-004
 -7.293125159694045E-004
 -7.347751098781367E-004
 -7.390537772076546E-004
 -7.426710044266640E-004
 -7.459346491719377E-004
 -7.493207491215594E-004
 -7.538949224092078E-004
 -7.621301570571718E-004
 -7.777466854312664E-004
 -8.059744685626953E-004
 -4.919717538399232E-004
 -5.895728256961829E-004
 -6.076893966097919E-004
 -6.037961978513338E-004
 -5.994247208332079E-004
 -5.971321397201327E-004
 -5.966938017021386E-004
 -5.972229986652973E-004
 -5.978473350484730E-004
 -5.978197682820300E-004
 -5.965791869598518E-004
 -5.939831286446397E-004
 -5.909735785696209E-004
 -5.929423245499710E-004
 -6.055646989165362E-004
 -4.838702245105840E-004
 -4.566511501915778E-004
 -3.942801958275933E-004
 -3.623767381644366E-004
 -3.473597927064584E-004
 -3.419099943405957E-004
 -3.414143719393616E-004
 -3.430644875164060E-004
 -3.449570973584916E-004
 -3.455936324087983E-004
 -3.435421927474755E-004
 -3.371885977941351E-004
 -3.247576164707821E-004
 -3.050541960142758E-004
 -2.948730918067062E-004
 -3.211850858164224E-004
 -4.042321558968514E-005
  4.887776427132724E-005
  8.051746946585310E-005
  8.795121863707737E-005
  8.455102134494293E-005
  7.646190062973309E-005
  6.691571465521746E-005
  5.787896413787227E-005
  5.086537665384901E-005
  4.747540305926294E-005
  4.997209907099879E-005
  6.220865377832190E-005
  9.188427638948747E-005
  1.518477690753483E-004
SCALARS poroP double 
LOOKUP_TABLE default
  0.000000000000000E+000
  0.000000000000000E+000
  0.000000000000000E+000
  0.000000000000000E+000
  0.000000000000000E+000
  0.000000000000000E+000
  0.000000000000000E+000
  0.000000000000000E+000
  0.000000000000000E+000
  0.000000000000000E+000
  0.000000000000000E+000
  0.000000000000000E+000
  0.000000000000000E+000
  0.000000000000000E+000
  0.000000000000000E+000
  0.000000000000000E+000
  0.000000000000000E+000
  0.000000000000000E+000
  0.000000000000000E+000
  0.000000000000000E+000
  0.000000000000000E+000
  0.000000000000000E+000
  0.000000000000000E+000
  0.000000000000000E+000
  0.000000000000000E+000
  0.000000000000000E+000
  0.000000000000000E+000
  0.000000000000000E+000
  0.000000000000000E+000
  0.000000000000000E+000
  0.000000000000000E+000
  0.000000000000000E+000
  0.000000000000000E+000
  0.000000000000000E+000
  0.000000000000000E+000
  0.000000000000000E+000
  0.000000000000000E+000
  0.000000000000000E+000
  0.000000000000000E+000
  0.000000000000000E+000
  0.000000000000000E+000
  0.000000000000000E+000
  0.000000000000000E+000
  0.000000000000000E+000
  0.000000000000000E+000
  0.000000000000000E+000
  0.000000000000000E+000
  0.000000000000000E+000
  0.000000000000000E+000
  0.000000000000000E+000
  0.000000000000000E+000
  0.000000000000000E+000
  0.000000000000000E+000
  0.000000000000000E+000
  0.000000000000000E+000
  0.000000000000000E+000
  0.000000000000000E+000
  0.000000000000000E+000
  0.000000000000000E+000
  0.000000000000000E+000
  0.000000000000000E+000
  0.000000000000000E+000
  0.000000000000000E+000
  0.000000000000000E+000
  0.000000000000000E+000
  0.000000000000000E+000
  0.000000000000000E+000
  0.000000000000000E+000
  0.000000000000000E+000
  0.000000000000000E+000
  0.000000000000000E+000
  0.000000000000000E+000
  0.000000000000000E+000
  0.000000000000000E+000
  0.000000000000000E+000
  0.000000000000000E+000
  0.000000000000000E+000
  0.000000000000000E+000
  0.000000000000000E+000
  0.000000000000000E+000
  0.000000000000000E+000
  0.000000000000000E+000
  0.000000000000000E+000
  0.000000000000000E+000
  0.000000000000000E+000
  0.000000000000000E+000
  0.000000000000000E+000
  0.000000000000000E+000
  0.000000000000000E+000
  0.000000000000000E+000
  0.000000000000000E+000
  0.000000000000000E+000
  0.000000000000000E+000
  0.000000000000000E+000
  0.000000000000000E+000
  0.000000000000000E+000
  0.000000000000000E+000
  0.000000000000000E+000
  0.000000000000000E+000
  0.000000000000000E+000
  0.000000000000000E+000
  0.000000000000000E+000
  0.000000000000000E+000
  0.000000000000000E+000
  0.000000000000000E+000
  0.000000000000000E+000
  0.000000000000000E+000
  0.000000000000000E+000
  0.000000000000000E+000
  0.000000000000000E+000
  0.000000000000000E+000
  0.000000000000000E+000
  0.000000000000000E+000
  0.000000000000000E+000
  0.000000000000000E+000
  0.000000000000000E+000
  0.000000000000000E+000
  0.000000000000000E+000
  0.000000000000000E+000
  0.000000000000000E+000
  0.000000000000000E+000
  0.000000000000000E+000
  0.000000000000000E+000
  0.000000000000000E+000
  0.000000000000000E+000
  0.000000000000000E+000
  0.000000000000000E+000
  0.000000000000000E+000
  0.000000000000000E+000
  0.000000000000000E+000
  0.000000000000000E+000
  0.000000000000000E+000
  0.000000000000000E+000
  0.000000000000000E+000
  0.000000000000000E+000
  0.000000000000000E+000
  0.000000000000000E+000
  0.000000000000000E+000
  0.000000000000000E+000
  0.000000000000000E+000
  0.000000000000000E+000
  0.000000000000000E+000
  0.000000000000000E+000
  0.000000000000000E+000
  0.000000000000000E+000
  0.000000000000000E+000
  0.000000000000000E+000
  0.000000000000000E+000
  0.000000000000000E+000
  0.000000000000000E+000
  0.000000000000000E+000
  0.000000000000000E+000
  0.000000000000000E+000
  0.000000000000000E+000
  0.000000000000000E+000
  0.000000000000000E+000
  0.000000000000000E+000
  0.000000000000000E+000
  0.000000000000000E+000
  0.000000000000000E+000
  0.000000000000000E+000
  0.000000000000000E+000
  0.000000000000000E+000
  0.000000000000000E+000
  0.000000000000000E+000
  0.000000000000000E+000
  0.000000000000000E+000
  0.000000000000000E+000
  0.000000000000000E+000
  0.000000000000000E+000
  0.000000000000000E+000
  0.000000000000000E+000
  0.000000000000000E+000
  0.000000000000000E+000
  0.000000000000000E+000
  0.000000000000000E+000
  0.000000000000000E+000
  0.000000000000000E+000
  0.000000000000000E+000
  0.000000000000000E+000
  0.000000000000000E+000
  0.000000000000000E+000
  0.000000000000000E+000
  0.000000000000000E+000
  0.000000000000000E+000
  0.000000000000000E+000
  0.000000000000000E+000
  0.000000000000000E+000
  0.000000000000000E+000
  0.000000000000000E+000
  0.000000000000000E+000
  0.000000000000000E+000
  0.000000000000000E+000
  0.000000000000000E+000
  0.000000000000000E+000
  0.000000000000000E+000
  0.000000000000000E+000
  0.000000000000000E+000
  0.000000000000000E+000
  0.000000000000000E+000
  0.000000000000000E+000
  0.000000000000000E+000
  0.000000000000000E+000
  0.000000000000000E+000
  0.000000000000000E+000
  0.000000000000000E+000
  0.000000000000000E+000
  0.000000000000000E+000
  0.000000000000000E+000
  0.000000000000000E+000
  0.000000000000000E+000
  0.000000000000000E+000
  0.000000000000000E+000
  0.000000000000000E+000
  0.000000000000000E+000
  0.000000000000000E+000
  0.000000000000000E+000
  0.000000000000000E+000
  0.000000000000000E+000
  0.000000000000000E+000
  0.000000000000000E+000
  0.000000000000000E+000
  0.000000000000000E+000
  0.000000000000000E+000
  0.000000000000000E+000
  0.000000000000000E+000
  0.000000000000000E+000
  0.000000000000000E+000
  0.000000000000000E+000
  0.000000000000000E+000
  0.000000000000000E+000
  0.000000000000000E+000
  0.000000000000000E+000
  0.000000000000000E+000
  0.000000000000000E+000
  0.000000000000000E+000
  0.000000000000000E+000
  0.000000000000000E+000
  0.000000000000000E+000
  0.000000000000000E+000
  0.000000000000000E+000
  0.000000000000000E+000
  0.000000000000000E+000
  0.000000000000000E+000
  0.000000000000000E+000
  0.000000000000000E+000
  0.000000000000000E+000
  0.000000000000000E+000
  0.000000000000000E+000
  0.000000000000000E+000
  0.000000000000000E+000
  0.000000000000000E+000
  0.000000000000000E+000
  0.000000000000000E+000
  0.000000000000000E+000
  0.000000000000000E+000
  0.000000000000000E+000
  0.000000000000000E+000
  0.000000000000000E+000
  0.000000000000000E+000
  0.000000000000000E+000
  0.000000000000000E+000
  0.000000000000000E+000
  0.000000000000000E+000
  0.000000000000000E+000
  0.000000000000000E+000
  0.000000000000000E+000
  0.000000000000000E+000
  0.000000000000000E+000
  0.000000000000000E+000
  0.000000000000000E+000
  0.000000000000000E+000
  0.000000000000000E+000
  0.000000000000000E+000
  0.000000000000000E+000
  0.000000000000000E+000
  0.000000000000000E+000
  0.000000000000000E+000
  0.000000000000000E+000
  0.000000000000000E+000
  0.000000000000000E+000
  0.000000000000000E+000
  0.000000000000000E+000
  0.000000000000000E+000
  0.000000000000000E+000
  0.000000000000000E+000
  0.000000000000000E+000
  0.000000000000000E+000
  0.000000000000000E+000
  0.000000000000000E+000
  0.000000000000000E+000
  0.000000000000000E+000
  0.000000000000000E+000
  0.000000000000000E+000
  0.000000000000000E+000
  0.000000000000000E+000
  0.000000000000000E+000
  0.000000000000000E+000
  0.000000000000000E+000
  0.000000000000000E+000
  0.000000000000000E+000
  0.000000000000000E+000
  0.000000000000000E+000
  0.000000000000000E+000
  0.000000000000000E+000
  0.000000000000000E+000
  0.000000000000000E+000
  0.000000000000000E+000
  0.000000000000000E+000
  0.000000000000000E+000
  0.000000000000000E+000
  0.000000000000000E+000
  0.000000000000000E+000
  0.000000000000000E+000
  0.000000000000000E+000
  0.000000000000000E+000
  0.000000000000000E+000
  0.000000000000000E+000
  0.000000000000000E+000
  0.000000000000000E+000
  0.000000000000000E+000
  0.000000000000000E+000
  0.000000000000000E+000
  0.000000000000000E+000
  0.000000000000000E+000
  0.000000000000000E+000
  0.000000000000000E+000
  0.000000000000000E+000
  0.000000000000000E+000
  0.000000000000000E+000
  0.000000000000000E+000
  0.000000000000000E+000
  0.000000000000000E+000
  0.000000000000000E+000
  0.000000000000000E+000
  0.000000000000000E+000
  0.000000000000000E+000
  0.000000000000000E+000
  0.000000000000000E+000
  0.000000000000000E+000
  0.000000000000000E+000
  0.000000000000000E+000
  0.000000000000000E+000
  0.000000000000000E+000
  0.000000000000000E+000
  0.000000000000000E+000
  0.000000000000000E+000
  0.000000000000000E+000
  0.000000000000000E+000
  0.000000000000000E+000
  0.000000000000000E+000
  0.000000000000000E+000
  0.000000000000000E+000
  0.000000000000000E+000
  0.000000000000000E+000
  0.000000000000000E+000
  0.000000000000000E+000
  0.000000000000000E+000
  0.000000000000000E+000
  0.000000000000000E+000
  0.000000000000000E+000
  0.000000000000000E+000
  0.000000000000000E+000
  0.000000000000000E+000
  0.000000000000000E+000
  0.000000000000000E+000
  0.000000000000000E+000
  0.000000000000000E+000
  0.000000000000000E+000
  0.000000000000000E+000
  0.000000000000000E+000
  0.000000000000000E+000
  0.000000000000000E+000
  0.000000000000000E+000
  0.000000000000000E+000
  0.000000000000000E+000
  0.000000000000000E+000
  0.000000000000000E+000
  0.000000000000000E+000
  0.000000000000000E+000
  0.000000000000000E+000
  0.000000000000000E+000
  0.000000000000000E+000
  0.000000000000000E+000
  0.000000000000000E+000
  0.000000000000000E+000
  0.000000000000000E+000
  0.000000000000000E+000
  0.000000000000000E+000
  0.000000000000000E+000
  0.000000000000000E+000
  0.000000000000000E+000
  0.000000000000000E+000
  0.000000000000000E+000
  0.000000000000000E+000
  0.000000000000000E+000
  0.000000000000000E+000
  0.000000000000000E+000
  0.000000000000000E+000
  0.000000000000000E+000
  0.000000000000000E+000
  0.000000000000000E+000
  0.000000000000000E+000
  0.000000000000000E+000
  0.000000000000000E+000
  0.000000000000000E+000
  0.000000000000000E+000
  0.000000000000000E+000
  0.000000000000000E+000
  0.000000000000000E+000
  0.000000000000000E+000
  0.000000000000000E+000
  0.000000000000000E+000
  0.000000000000000E+000
  0.000000000000000E+000
  0.000000000000000E+000
  0.000000000000000E+000
  0.000000000000000E+000
  0.000000000000000E+000
  0.000000000000000E+000
  0.000000000000000E+000
  0.000000000000000E+000
  0.000000000000000E+000
  0.000000000000000E+000
  0.000000000000000E+000
  0.000000000000000E+000
  0.000000000000000E+000
  0.000000000000000E+000
  0.000000000000000E+000
  0.000000000000000E+000
  0.000000000000000E+000
  0.000000000000000E+000
  0.000000000000000E+000
  0.000000000000000E+000
  0.000000000000000E+000
  0.000000000000000E+000
  0.000000000000000E+000
  0.000000000000000E+000
  0.000000000000000E+000
  0.000000000000000E+000
  0.000000000000000E+000
  0.000000000000000E+000
  0.000000000000000E+000
  0.000000000000000E+000
  0.000000000000000E+000
  0.000000000000000E+000
  0.000000000000000E+000
  0.000000000000000E+000
  0.000000000000000E+000
  0.000000000000000E+000
SCALARS elementIsPlast double 
LOOKUP_TABLE default
  0.000000000000000E+000
  0.000000000000000E+000
  0.000000000000000E+000
  0.000000000000000E+000
  0.000000000000000E+000
  0.000000000000000E+000
  0.000000000000000E+000
  0.000000000000000E+000
  0.000000000000000E+000
  0.000000000000000E+000
  0.000000000000000E+000
  0.000000000000000E+000
  0.000000000000000E+000
  0.000000000000000E+000
  0.000000000000000E+000
  0.000000000000000E+000
  0.000000000000000E+000
  0.000000000000000E+000
  0.000000000000000E+000
  0.000000000000000E+000
  0.000000000000000E+000
  0.000000000000000E+000
  0.000000000000000E+000
  0.000000000000000E+000
  0.000000000000000E+000
  0.000000000000000E+000
  0.000000000000000E+000
  0.000000000000000E+000
  0.000000000000000E+000
  0.000000000000000E+000
  0.000000000000000E+000
  0.000000000000000E+000
  0.000000000000000E+000
  0.000000000000000E+000
  0.000000000000000E+000
  0.000000000000000E+000
  0.000000000000000E+000
  0.000000000000000E+000
  0.000000000000000E+000
  0.000000000000000E+000
  0.000000000000000E+000
  0.000000000000000E+000
  0.000000000000000E+000
  0.000000000000000E+000
  0.000000000000000E+000
  0.000000000000000E+000
  0.000000000000000E+000
  0.000000000000000E+000
  0.000000000000000E+000
  0.000000000000000E+000
  0.000000000000000E+000
  0.000000000000000E+000
  0.000000000000000E+000
  0.000000000000000E+000
  0.000000000000000E+000
  0.000000000000000E+000
  0.000000000000000E+000
  0.000000000000000E+000
  0.000000000000000E+000
  0.000000000000000E+000
  0.000000000000000E+000
  0.000000000000000E+000
  0.000000000000000E+000
  0.000000000000000E+000
  0.000000000000000E+000
  0.000000000000000E+000
  0.000000000000000E+000
  0.000000000000000E+000
  0.000000000000000E+000
  0.000000000000000E+000
  0.000000000000000E+000
  0.000000000000000E+000
  0.000000000000000E+000
  0.000000000000000E+000
  0.000000000000000E+000
  0.000000000000000E+000
  0.000000000000000E+000
  0.000000000000000E+000
  0.000000000000000E+000
  0.000000000000000E+000
  0.000000000000000E+000
  0.000000000000000E+000
  0.000000000000000E+000
  0.000000000000000E+000
  0.000000000000000E+000
  0.000000000000000E+000
  0.000000000000000E+000
  0.000000000000000E+000
  0.000000000000000E+000
  0.000000000000000E+000
  0.000000000000000E+000
  0.000000000000000E+000
  0.000000000000000E+000
  0.000000000000000E+000
  0.000000000000000E+000
  0.000000000000000E+000
  0.000000000000000E+000
  0.000000000000000E+000
  0.000000000000000E+000
  0.000000000000000E+000
  0.000000000000000E+000
  0.000000000000000E+000
  0.000000000000000E+000
  0.000000000000000E+000
  0.000000000000000E+000
  0.000000000000000E+000
  0.000000000000000E+000
  0.000000000000000E+000
  0.000000000000000E+000
  0.000000000000000E+000
  0.000000000000000E+000
  0.000000000000000E+000
  0.000000000000000E+000
  0.000000000000000E+000
  0.000000000000000E+000
  0.000000000000000E+000
  0.000000000000000E+000
  0.000000000000000E+000
  0.000000000000000E+000
  0.000000000000000E+000
  0.000000000000000E+000
  0.000000000000000E+000
  0.000000000000000E+000
  0.000000000000000E+000
  0.000000000000000E+000
  0.000000000000000E+000
  0.000000000000000E+000
  0.000000000000000E+000
  0.000000000000000E+000
  0.000000000000000E+000
  0.000000000000000E+000
  0.000000000000000E+000
  0.000000000000000E+000
  0.000000000000000E+000
  0.000000000000000E+000
  0.000000000000000E+000
  0.000000000000000E+000
  0.000000000000000E+000
  0.000000000000000E+000
  0.000000000000000E+000
  0.000000000000000E+000
  0.000000000000000E+000
  0.000000000000000E+000
  0.000000000000000E+000
  0.000000000000000E+000
  0.000000000000000E+000
  0.000000000000000E+000
  0.000000000000000E+000
  0.000000000000000E+000
  0.000000000000000E+000
  0.000000000000000E+000
  0.000000000000000E+000
  0.000000000000000E+000
  0.000000000000000E+000
  0.000000000000000E+000
  0.000000000000000E+000
  0.000000000000000E+000
  0.000000000000000E+000
  0.000000000000000E+000
  0.000000000000000E+000
  0.000000000000000E+000
  0.000000000000000E+000
  0.000000000000000E+000
  0.000000000000000E+000
  0.000000000000000E+000
  0.000000000000000E+000
  0.000000000000000E+000
  0.000000000000000E+000
  0.000000000000000E+000
  0.000000000000000E+000
  0.000000000000000E+000
  0.000000000000000E+000
  0.000000000000000E+000
  0.000000000000000E+000
  0.000000000000000E+000
  0.000000000000000E+000
  0.000000000000000E+000
  0.000000000000000E+000
  0.000000000000000E+000
  0.000000000000000E+000
  0.000000000000000E+000
  0.000000000000000E+000
  0.000000000000000E+000
  0.000000000000000E+000
  0.000000000000000E+000
  0.000000000000000E+000
  0.000000000000000E+000
  0.000000000000000E+000
  0.000000000000000E+000
  0.000000000000000E+000
  0.000000000000000E+000
  0.000000000000000E+000
  0.000000000000000E+000
  0.000000000000000E+000
  0.000000000000000E+000
  0.000000000000000E+000
  0.000000000000000E+000
  0.000000000000000E+000
  0.000000000000000E+000
  0.000000000000000E+000
  0.000000000000000E+000
  0.000000000000000E+000
  0.000000000000000E+000
  0.000000000000000E+000
  0.000000000000000E+000
  0.000000000000000E+000
  0.000000000000000E+000
  0.000000000000000E+000
  0.000000000000000E+000
  0.000000000000000E+000
  0.000000000000000E+000
  0.000000000000000E+000
  0.000000000000000E+000
  0.000000000000000E+000
  0.000000000000000E+000
  0.000000000000000E+000
  0.000000000000000E+000
  0.000000000000000E+000
  0.000000000000000E+000
  0.000000000000000E+000
  0.000000000000000E+000
  0.000000000000000E+000
  0.000000000000000E+000
  0.000000000000000E+000
  0.000000000000000E+000
  0.000000000000000E+000
  0.000000000000000E+000
  0.000000000000000E+000
  0.000000000000000E+000
  0.000000000000000E+000
  0.000000000000000E+000
  0.000000000000000E+000
  0.000000000000000E+000
  0.000000000000000E+000
  0.000000000000000E+000
  0.000000000000000E+000
  0.000000000000000E+000
  0.000000000000000E+000
  0.000000000000000E+000
  0.000000000000000E+000
  0.000000000000000E+000
  0.000000000000000E+000
  0.000000000000000E+000
  0.000000000000000E+000
  0.000000000000000E+000
  0.000000000000000E+000
  0.000000000000000E+000
  0.000000000000000E+000
  0.000000000000000E+000
  0.000000000000000E+000
  0.000000000000000E+000
  0.000000000000000E+000
  0.000000000000000E+000
  0.000000000000000E+000
  0.000000000000000E+000
  0.000000000000000E+000
  0.000000000000000E+000
  0.000000000000000E+000
  0.000000000000000E+000
  0.000000000000000E+000
  0.000000000000000E+000
  0.000000000000000E+000
  0.000000000000000E+000
  0.000000000000000E+000
  0.000000000000000E+000
  0.000000000000000E+000
  0.000000000000000E+000
  0.000000000000000E+000
  0.000000000000000E+000
  0.000000000000000E+000
  0.000000000000000E+000
  0.000000000000000E+000
  0.000000000000000E+000
  0.000000000000000E+000
  0.000000000000000E+000
  0.000000000000000E+000
  0.000000000000000E+000
  0.000000000000000E+000
  0.000000000000000E+000
  0.000000000000000E+000
  0.000000000000000E+000
  0.000000000000000E+000
  0.000000000000000E+000
  0.000000000000000E+000
  0.000000000000000E+000
  0.000000000000000E+000
  0.000000000000000E+000
  0.000000000000000E+000
  0.000000000000000E+000
  0.000000000000000E+000
  0.000000000000000E+000
  0.000000000000000E+000
  0.000000000000000E+000
  0.000000000000000E+000
  0.000000000000000E+000
  0.000000000000000E+000
  0.000000000000000E+000
  0.000000000000000E+000
  0.000000000000000E+000
  0.000000000000000E+000
  0.000000000000000E+000
  0.000000000000000E+000
  0.000000000000000E+000
  0.000000000000000E+000
  0.000000000000000E+000
  0.000000000000000E+000
  0.000000000000000E+000
  0.000000000000000E+000
  0.000000000000000E+000
  0.000000000000000E+000
  0.000000000000000E+000
  0.000000000000000E+000
  0.000000000000000E+000
  0.000000000000000E+000
  0.000000000000000E+000
  0.000000000000000E+000
  0.000000000000000E+000
  0.000000000000000E+000
  0.000000000000000E+000
  0.000000000000000E+000
  0.000000000000000E+000
  0.000000000000000E+000
  0.000000000000000E+000
  0.000000000000000E+000
  0.000000000000000E+000
  0.000000000000000E+000
  0.000000000000000E+000
  0.000000000000000E+000
  0.000000000000000E+000
  0.000000000000000E+000
  0.000000000000000E+000
  0.000000000000000E+000
  0.000000000000000E+000
  0.000000000000000E+000
  0.000000000000000E+000
  0.000000000000000E+000
  0.000000000000000E+000
  0.000000000000000E+000
  0.000000000000000E+000
  0.000000000000000E+000
  0.000000000000000E+000
  0.000000000000000E+000
  0.000000000000000E+000
  0.000000000000000E+000
  0.000000000000000E+000
  0.000000000000000E+000
  0.000000000000000E+000
  0.000000000000000E+000
  0.000000000000000E+000
  0.000000000000000E+000
  0.000000000000000E+000
  0.000000000000000E+000
  0.000000000000000E+000
  0.000000000000000E+000
  0.000000000000000E+000
  0.000000000000000E+000
  0.000000000000000E+000
  0.000000000000000E+000
  0.000000000000000E+000
  0.000000000000000E+000
  0.000000000000000E+000
  0.000000000000000E+000
  0.000000000000000E+000
  0.000000000000000E+000
  0.000000000000000E+000
  0.000000000000000E+000
  0.000000000000000E+000
  0.000000000000000E+000
  0.000000000000000E+000
  0.000000000000000E+000
  0.000000000000000E+000
  0.000000000000000E+000
  0.000000000000000E+000
  0.000000000000000E+000
  0.000000000000000E+000
  0.000000000000000E+000
  0.000000000000000E+000
  0.000000000000000E+000
  0.000000000000000E+000
  0.000000000000000E+000
  0.000000000000000E+000
  0.000000000000000E+000
  0.000000000000000E+000
  0.000000000000000E+000
  0.000000000000000E+000
  0.000000000000000E+000
  0.000000000000000E+000
  0.000000000000000E+000
  0.000000000000000E+000
  0.000000000000000E+000
  0.000000000000000E+000
  0.000000000000000E+000
  0.000000000000000E+000
  0.000000000000000E+000
  0.000000000000000E+000
  0.000000000000000E+000
  0.000000000000000E+000
  0.000000000000000E+000
  0.000000000000000E+000
  0.000000000000000E+000
  0.000000000000000E+000
  0.000000000000000E+000
  0.000000000000000E+000
  0.000000000000000E+000
  0.000000000000000E+000
  0.000000000000000E+000
  0.000000000000000E+000
  0.000000000000000E+000
  0.000000000000000E+000
  0.000000000000000E+000
  0.000000000000000E+000
  0.000000000000000E+000
  0.000000000000000E+000
  0.000000000000000E+000
  0.000000000000000E+000
  0.000000000000000E+000
  0.000000000000000E+000
  0.000000000000000E+000
  0.000000000000000E+000
  0.000000000000000E+000
  0.000000000000000E+000
  0.000000000000000E+000
  0.000000000000000E+000
  0.000000000000000E+000
  0.000000000000000E+000
  0.000000000000000E+000
  0.000000000000000E+000
  0.000000000000000E+000
  0.000000000000000E+000
  0.000000000000000E+000
  0.000000000000000E+000
  0.000000000000000E+000
  0.000000000000000E+000
  0.000000000000000E+000
  0.000000000000000E+000
  0.000000000000000E+000
  0.000000000000000E+000
  0.000000000000000E+000
  0.000000000000000E+000
  0.000000000000000E+000
  0.000000000000000E+000
  0.000000000000000E+000
  0.000000000000000E+000
  0.000000000000000E+000
  0.000000000000000E+000
  0.000000000000000E+000
  0.000000000000000E+000
  0.000000000000000E+000
  0.000000000000000E+000
  0.000000000000000E+000
SCALARS poroL double 
LOOKUP_TABLE default
  0.156005737150298     
  0.156004559661975     
  0.156003453107094     
  0.156002418552925     
  0.156001454427483     
  0.156000557041005     
  0.155999721053510     
  0.155998939882226     
  0.155998206046821     
  0.155997511453299     
  0.155996847619618     
  0.155996205847999     
  0.155995577350935     
  0.155994953340721     
  0.155994325096433     
  0.156005796925798     
  0.156004587129778     
  0.156003452721938     
  0.156002394298828     
  0.156001409807904     
  0.156000495086433     
  0.155999644342911     
  0.155998850575538     
  0.155998105926374     
  0.155997401972571     
  0.155996729958155     
  0.155996080971523     
  0.155995446075706     
  0.155994816400950     
  0.155994183213014     
  0.156005911096973     
  0.156004636686829     
  0.156003446639768     
  0.156002340593052     
  0.156001315516496     
  0.156000366286215     
  0.155999486193658     
  0.155998667386052     
  0.155997901238248     
  0.155997178658503     
  0.155996490332492     
  0.155995826911207     
  0.155995179149804     
  0.155994538006503     
  0.155993894713889     
  0.156006068653289     
  0.156004697355149     
  0.156003424043947     
  0.156002246873469     
  0.156001161305863     
  0.156000160737615     
  0.155999237049753     
  0.155998381080885     
  0.155997583025187     
  0.155996832759670     
  0.155996120106325     
  0.155995435035581     
  0.155994767818271     
  0.155994109134560     
  0.155993450150600     
  0.156006252450510     
  0.156004752114906     
  0.156003368226973     
  0.156002096879607     
  0.156000931448130     
  0.155999863285806     
  0.155998882328459     
  0.155997977610251     
  0.155997137695760     
  0.155996351035191     
  0.155995606250231     
  0.155994892358152     
  0.155994198941668     
  0.155993516272228     
  0.155992835395477     
  0.156006438453426     
  0.156004777239254     
  0.156003256010971     
  0.156001868152553     
  0.156000604308344     
  0.155999453165292     
  0.155998402124748     
  0.155997437870456     
  0.155996546841895     
  0.155995715623175     
  0.155994931257637     
  0.155994181497474     
  0.155993454996503     
  0.155992741452995     
  0.155992031708851     
  0.156006594721588     
  0.156004741405341     
  0.156003056975016     
  0.156001531369949     
  0.156000151778950     
  0.155998903526264     
  0.155997770822666     
  0.155996737394193     
  0.155995787002824     
  0.155994903873714     
  0.155994073042698     
  0.155993280635862     
  0.155992514090428     
  0.155991762323262     
  0.155991015850594     
  0.156006680135556     
  0.156004604581168     
  0.156002732490894     
  0.156001049519251     
  0.155999538579709     
  0.155998180851130     
  0.155996956619465     
  0.155995845974477     
  0.155994829382268     
  0.155993888153908     
  0.155993004828613     
  0.155992163486830     
  0.155991350004411     
  0.155990552254014     
  0.155989760254502     
  0.156006642862536     
  0.156004316690086     
  0.156002234571535     
  0.156000376915444     
  0.155998721430640     
  0.155997244269679     
  0.155995920971432     
  0.155994727231356     
  0.155993639528204     
  0.155992635634718     
  0.155991695037083     
  0.155990799283573     
  0.155989932276732     
  0.155989080515905     
  0.155988233288226     
  0.156006418563148     
  0.156003816058488     
  0.156001504540881     
  0.155999458074371     
  0.155997648110702     
  0.155996044786290     
  0.155994617974823     
  0.155993338134411     
  0.155992176987731     
  0.155991108071949     
  0.155990107191703     
  0.155989152802747     
  0.155988226345697     
  0.155987312538689     
  0.155986399625068     
  0.156005928346265     
  0.156003027658621     
  0.156000471541170     
  0.155998226460549     
  0.155996256422617     
  0.155994524439832     
  0.155992993701741     
  0.155991628499362     
  0.155990394953652     
  0.155989261596656     
  0.155988199850090     
  0.155987184439211     
  0.155986193769276     
  0.155985210277613     
  0.155984220756573     
  0.156005076487146     
  0.156001861168409     
  0.155999050904829     
  0.155996603140091     
  0.155994473095826     
  0.155992615427613     
  0.155990985519984     
  0.155989540484409     
  0.155988239924680     
  0.155987046533580     
  0.155985926581290     
  0.155984850347999     
  0.155983792539992     
  0.155982732709670     
  0.155981655676039     
  0.156003747936937     
  0.156000208885399     
  0.155997142434996     
  0.155994495386840     
  0.155992212676542     
  0.155990239240095     
  0.155988521438861     
  0.155987008121989     
  0.155985651408065     
  0.155984407270147     
  0.155983236006325     
  0.155982102669246     
  0.155980977511672     
  0.155979836480742     
  0.155978661761907     
  0.156001805670974     
  0.155997943554754     
  0.155994628663771     
  0.155991795315512     
  0.155989376478516     
  0.155987305875193     
  0.155985519541251     
  0.155983956935311     
  0.155982561702399     
  0.155981282203019     
  0.155980071920401     
  0.155978889849460     
  0.155977700950574     
  0.155976476719821     
  0.155975195885627     
  0.155999087952118     
  0.155994916205011     
  0.155991373194158     
  0.155988378653140     
  0.155985851703575     
  0.155983713232070     
  0.155981887587333     
  0.155980303707435     
  0.155978895809797     
  0.155977603794178     
  0.155976373514756     
  0.155975157067822     
  0.155973913215840     
  0.155972608027608     
  0.155971215759740     
  0.155995405628010     
  0.155990954135256     
  0.155987219285696     
  0.155984103814272     
  0.155981510891472     
  0.155979346827897     
  0.155977522909872     
  0.155975956495022     
  0.155974571541053     
  0.155973298773893     
  0.155972075713931     
  0.155970846768150     
  0.155969563562227     
  0.155968185632614     
  0.155966681527244     
  0.155990539644156     
  0.155985859270856     
  0.155981988922549     
  0.155978811523266     
  0.155976211929632     
  0.155974080040844     
  0.155972312766950     
  0.155970815010308     
  0.155969499894913     
  0.155968288533150     
  0.155967109639394     
  0.155965899284661     
  0.155964601040374     
  0.155963166687214     
  0.155961557571402     
  0.155984239048048     
  0.155979407213186     
  0.155975482717498     
  0.155972325338200     
  0.155969798952431     
  0.155967775163482     
  0.155966135378113     
  0.155964771534219     
  0.155963585813033     
  0.155962489752466     
  0.155961403201810     
  0.155960253531386     
  0.155958975445133     
  0.155957511647701     
  0.155955814495053     
  0.155976219897914     
  0.155971347468730     
  0.155967481172162     
  0.155964453588795     
  0.155962104595538     
  0.155960285657397     
  0.155958861945496     
  0.155957712570373     
  0.155956729434425     
  0.155955815315986     
  0.155954881810274     
  0.155953847699403     
  0.155952638229310     
  0.155951185645343     
  0.155949431179808     
  0.155966165695882     
  0.155961405580365     
  0.155957748057075     
  0.155954993463476     
  0.155952954253849     
  0.155951460135178     
  0.155950360051473     
  0.155949521501682     
  0.155948827995130     
  0.155948175558018     
  0.155947469166159     
  0.155946619871131     
  0.155945543256671     
  0.155944159709078     
  0.155942396789543     
  0.155953730274334     
  0.155949288239504     
  0.155946037031825     
  0.155943738292523     
  0.155942173230516     
  0.155941148757415     
  0.155940498920963     
  0.155940082561665     
  0.155939778537593     
  0.155939479883363     
  0.155939088081415     
  0.155938508414901     
  0.155937647211267     
  0.155936411643304     
  0.155934712532062     
  0.155938544531778     
  0.155934693000145     
  0.155932103154445     
  0.155930489507028     
  0.155929597960941     
  0.155929212901473     
  0.155929157118390     
  0.155929286468559     
  0.155929481608460     
  0.155929638797888     
  0.155929661230727     
  0.155929451963236     
  0.155928909403277     
  0.155927926290696     
  0.155926392942129     
  0.155920229132390     
  0.155917325068757     
  0.155915721729925     
  0.155915075345233     
  0.155915092824585     
  0.155915539080200     
  0.155916233266744     
  0.155917038071342     
  0.155917846140243     
  0.155918566405258     
  0.155919111727711     
  0.155919388705218     
  0.155919290593576     
  0.155918694803627     
  0.155917466398219     
  0.155898416427409     
  0.155896925049590     
  0.155896718208152     
  0.155897379158977     
  0.155898574320134     
  0.155900058021687     
  0.155901660229831     
  0.155903266295174     
  0.155904795774213     
  0.155906183523911     
  0.155907363466266     
  0.155908254620129     
  0.155908750266876     
  0.155908712338738     
  0.155907974529051     
  0.155872786750711     
  0.155873314085852     
  0.155875014905730     
  0.155877381111374     
  0.155880044266438     
  0.155882769237141     
  0.155885422719422     
  0.155887936551409     
  0.155890277071255     
  0.155892421958381     
  0.155894341340879     
  0.155895980239577     
  0.155897241302947     
  0.155897973191877     
  0.155897969988919     
  0.155843128079444     
  0.155846467883946     
  0.155850704041282     
  0.155855217702982     
  0.155859632254857     
  0.155863769719733     
  0.155867577246497     
  0.155871065663804     
  0.155874270706668     
  0.155877231207785     
  0.155879972454903     
  0.155882485128000     
  0.155884700463157     
  0.155886460849814     
  0.155887511875027     
  0.155809435666726     
  0.155816644475344     
  0.155824162598766     
  0.155831261633516     
  0.155837642660247     
  0.155843281326827     
  0.155848272341319     
  0.155852739486729     
  0.155856807588766     
  0.155860591718365     
  0.155864190175534     
  0.155867671782757     
  0.155871028526878     
  0.155874129349508     
  0.155876655046227     
  0.155772105163206     
  0.155784621139781     
  0.155796234155768     
  0.155806210818141     
  0.155814584029387     
  0.155821669512338     
  0.155827766551914     
  0.155833134072065     
  0.155837993286109     
  0.155842539918662     
  0.155846955815315     
  0.155851412576809     
  0.155856064020674     
  0.155860846982177     
  0.155865434419408     
  0.155732355614463     
  0.155752244552635     
  0.155768472069528     
  0.155781079774917     
  0.155791163364534     
  0.155799445758396     
  0.155806444585823     
  0.155812542753028     
  0.155818044341902     
  0.155823213384032     
  0.155828306054641     
  0.155833605030323     
  0.155839449731073     
  0.155846340170207     
  0.155853749768178     
  0.155694481557503     
  0.155723524447176     
  0.155742801230484     
  0.155757087310924     
  0.155768227747499     
  0.155777260148096     
  0.155784837038606     
  0.155791413732873     
  0.155797340201715     
  0.155802918002081     
  0.155808446390298     
  0.155814275799248     
  0.155820904364582     
  0.155829176285864     
  0.155841587252129     
