# vtk DataFile Version 3.0
vtk output
ASCII
DATASET UNSTRUCTURED_GRID
POINTS       496 double 
  0.00000000E+00  3.00000000E+02  0.00000000E+00
  0.00000000E+00  2.80000000E+02  0.00000000E+00
  0.00000000E+00  2.60000000E+02  0.00000000E+00
  0.00000000E+00  2.40000000E+02  0.00000000E+00
  0.00000000E+00  2.20000000E+02  0.00000000E+00
  0.00000000E+00  2.00000000E+02  0.00000000E+00
  0.00000000E+00  1.80000000E+02  0.00000000E+00
  0.00000000E+00  1.60000000E+02  0.00000000E+00
  0.00000000E+00  1.40000000E+02  0.00000000E+00
  0.00000000E+00  1.20000000E+02  0.00000000E+00
  0.00000000E+00  1.00000000E+02  0.00000000E+00
  0.00000000E+00  8.00000000E+01  0.00000000E+00
  0.00000000E+00  6.00000000E+01  0.00000000E+00
  0.00000000E+00  4.00000000E+01  0.00000000E+00
  0.00000000E+00  2.00000000E+01  0.00000000E+00
  0.00000000E+00  4.99600361E-14  0.00000000E+00
  2.00000000E+01  3.00000000E+02  0.00000000E+00
  2.00000000E+01  2.80000000E+02  0.00000000E+00
  2.00000000E+01  2.60000000E+02  0.00000000E+00
  2.00000000E+01  2.40000000E+02  0.00000000E+00
  2.00000000E+01  2.20000000E+02  0.00000000E+00
  2.00000000E+01  2.00000000E+02  0.00000000E+00
  2.00000000E+01  1.80000000E+02  0.00000000E+00
  2.00000000E+01  1.60000000E+02  0.00000000E+00
  2.00000000E+01  1.40000000E+02  0.00000000E+00
  2.00000000E+01  1.20000000E+02  0.00000000E+00
  2.00000000E+01  1.00000000E+02  0.00000000E+00
  2.00000000E+01  8.00000000E+01  0.00000000E+00
  2.00000000E+01  6.00000000E+01  0.00000000E+00
  2.00000000E+01  4.00000000E+01  0.00000000E+00
  2.00000000E+01  2.00000000E+01  0.00000000E+00
  2.00000000E+01  4.99600361E-14  0.00000000E+00
  4.00000000E+01  3.00000000E+02  0.00000000E+00
  4.00000000E+01  2.80000000E+02  0.00000000E+00
  4.00000000E+01  2.60000000E+02  0.00000000E+00
  4.00000000E+01  2.40000000E+02  0.00000000E+00
  4.00000000E+01  2.20000000E+02  0.00000000E+00
  4.00000000E+01  2.00000000E+02  0.00000000E+00
  4.00000000E+01  1.80000000E+02  0.00000000E+00
  4.00000000E+01  1.60000000E+02  0.00000000E+00
  4.00000000E+01  1.40000000E+02  0.00000000E+00
  4.00000000E+01  1.20000000E+02  0.00000000E+00
  4.00000000E+01  1.00000000E+02  0.00000000E+00
  4.00000000E+01  8.00000000E+01  0.00000000E+00
  4.00000000E+01  6.00000000E+01  0.00000000E+00
  4.00000000E+01  4.00000000E+01  0.00000000E+00
  4.00000000E+01  2.00000000E+01  0.00000000E+00
  4.00000000E+01  4.99600361E-14  0.00000000E+00
  6.00000000E+01  3.00000000E+02  0.00000000E+00
  6.00000000E+01  2.80000000E+02  0.00000000E+00
  6.00000000E+01  2.60000000E+02  0.00000000E+00
  6.00000000E+01  2.40000000E+02  0.00000000E+00
  6.00000000E+01  2.20000000E+02  0.00000000E+00
  6.00000000E+01  2.00000000E+02  0.00000000E+00
  6.00000000E+01  1.80000000E+02  0.00000000E+00
  6.00000000E+01  1.60000000E+02  0.00000000E+00
  6.00000000E+01  1.40000000E+02  0.00000000E+00
  6.00000000E+01  1.20000000E+02  0.00000000E+00
  6.00000000E+01  1.00000000E+02  0.00000000E+00
  6.00000000E+01  8.00000000E+01  0.00000000E+00
  6.00000000E+01  6.00000000E+01  0.00000000E+00
  6.00000000E+01  4.00000000E+01  0.00000000E+00
  6.00000000E+01  2.00000000E+01  0.00000000E+00
  6.00000000E+01  4.99600361E-14  0.00000000E+00
  8.00000000E+01  3.00000000E+02  0.00000000E+00
  8.00000000E+01  2.80000000E+02  0.00000000E+00
  8.00000000E+01  2.60000000E+02  0.00000000E+00
  8.00000000E+01  2.40000000E+02  0.00000000E+00
  8.00000000E+01  2.20000000E+02  0.00000000E+00
  8.00000000E+01  2.00000000E+02  0.00000000E+00
  8.00000000E+01  1.80000000E+02  0.00000000E+00
  8.00000000E+01  1.60000000E+02  0.00000000E+00
  8.00000000E+01  1.40000000E+02  0.00000000E+00
  8.00000000E+01  1.20000000E+02  0.00000000E+00
  8.00000000E+01  1.00000000E+02  0.00000000E+00
  8.00000000E+01  8.00000000E+01  0.00000000E+00
  8.00000000E+01  6.00000000E+01  0.00000000E+00
  8.00000000E+01  4.00000000E+01  0.00000000E+00
  8.00000000E+01  2.00000000E+01  0.00000000E+00
  8.00000000E+01  4.99600361E-14  0.00000000E+00
  1.00000000E+02  3.00000000E+02  0.00000000E+00
  1.00000000E+02  2.80000000E+02  0.00000000E+00
  1.00000000E+02  2.60000000E+02  0.00000000E+00
  1.00000000E+02  2.40000000E+02  0.00000000E+00
  1.00000000E+02  2.20000000E+02  0.00000000E+00
  1.00000000E+02  2.00000000E+02  0.00000000E+00
  1.00000000E+02  1.80000000E+02  0.00000000E+00
  1.00000000E+02  1.60000000E+02  0.00000000E+00
  1.00000000E+02  1.40000000E+02  0.00000000E+00
  1.00000000E+02  1.20000000E+02  0.00000000E+00
  1.00000000E+02  1.00000000E+02  0.00000000E+00
  1.00000000E+02  8.00000000E+01  0.00000000E+00
  1.00000000E+02  6.00000000E+01  0.00000000E+00
  1.00000000E+02  4.00000000E+01  0.00000000E+00
  1.00000000E+02  2.00000000E+01  0.00000000E+00
  1.00000000E+02  4.99600361E-14  0.00000000E+00
  1.20000000E+02  3.00000000E+02  0.00000000E+00
  1.20000000E+02  2.80000000E+02  0.00000000E+00
  1.20000000E+02  2.60000000E+02  0.00000000E+00
  1.20000000E+02  2.40000000E+02  0.00000000E+00
  1.20000000E+02  2.20000000E+02  0.00000000E+00
  1.20000000E+02  2.00000000E+02  0.00000000E+00
  1.20000000E+02  1.80000000E+02  0.00000000E+00
  1.20000000E+02  1.60000000E+02  0.00000000E+00
  1.20000000E+02  1.40000000E+02  0.00000000E+00
  1.20000000E+02  1.20000000E+02  0.00000000E+00
  1.20000000E+02  1.00000000E+02  0.00000000E+00
  1.20000000E+02  8.00000000E+01  0.00000000E+00
  1.20000000E+02  6.00000000E+01  0.00000000E+00
  1.20000000E+02  4.00000000E+01  0.00000000E+00
  1.20000000E+02  2.00000000E+01  0.00000000E+00
  1.20000000E+02  4.99600361E-14  0.00000000E+00
  1.40000000E+02  3.00000000E+02  0.00000000E+00
  1.40000000E+02  2.80000000E+02  0.00000000E+00
  1.40000000E+02  2.60000000E+02  0.00000000E+00
  1.40000000E+02  2.40000000E+02  0.00000000E+00
  1.40000000E+02  2.20000000E+02  0.00000000E+00
  1.40000000E+02  2.00000000E+02  0.00000000E+00
  1.40000000E+02  1.80000000E+02  0.00000000E+00
  1.40000000E+02  1.60000000E+02  0.00000000E+00
  1.40000000E+02  1.40000000E+02  0.00000000E+00
  1.40000000E+02  1.20000000E+02  0.00000000E+00
  1.40000000E+02  1.00000000E+02  0.00000000E+00
  1.40000000E+02  8.00000000E+01  0.00000000E+00
  1.40000000E+02  6.00000000E+01  0.00000000E+00
  1.40000000E+02  4.00000000E+01  0.00000000E+00
  1.40000000E+02  2.00000000E+01  0.00000000E+00
  1.40000000E+02  4.99600361E-14  0.00000000E+00
  1.60000000E+02  3.00000000E+02  0.00000000E+00
  1.60000000E+02  2.80000000E+02  0.00000000E+00
  1.60000000E+02  2.60000000E+02  0.00000000E+00
  1.60000000E+02  2.40000000E+02  0.00000000E+00
  1.60000000E+02  2.20000000E+02  0.00000000E+00
  1.60000000E+02  2.00000000E+02  0.00000000E+00
  1.60000000E+02  1.80000000E+02  0.00000000E+00
  1.60000000E+02  1.60000000E+02  0.00000000E+00
  1.60000000E+02  1.40000000E+02  0.00000000E+00
  1.60000000E+02  1.20000000E+02  0.00000000E+00
  1.60000000E+02  1.00000000E+02  0.00000000E+00
  1.60000000E+02  8.00000000E+01  0.00000000E+00
  1.60000000E+02  6.00000000E+01  0.00000000E+00
  1.60000000E+02  4.00000000E+01  0.00000000E+00
  1.60000000E+02  2.00000000E+01  0.00000000E+00
  1.60000000E+02  4.99600361E-14  0.00000000E+00
  1.80000000E+02  3.00000000E+02  0.00000000E+00
  1.80000000E+02  2.80000000E+02  0.00000000E+00
  1.80000000E+02  2.60000000E+02  0.00000000E+00
  1.80000000E+02  2.40000000E+02  0.00000000E+00
  1.80000000E+02  2.20000000E+02  0.00000000E+00
  1.80000000E+02  2.00000000E+02  0.00000000E+00
  1.80000000E+02  1.80000000E+02  0.00000000E+00
  1.80000000E+02  1.60000000E+02  0.00000000E+00
  1.80000000E+02  1.40000000E+02  0.00000000E+00
  1.80000000E+02  1.20000000E+02  0.00000000E+00
  1.80000000E+02  1.00000000E+02  0.00000000E+00
  1.80000000E+02  8.00000000E+01  0.00000000E+00
  1.80000000E+02  6.00000000E+01  0.00000000E+00
  1.80000000E+02  4.00000000E+01  0.00000000E+00
  1.80000000E+02  2.00000000E+01  0.00000000E+00
  1.80000000E+02  4.99600361E-14  0.00000000E+00
  2.00000000E+02  3.00000000E+02  0.00000000E+00
  2.00000000E+02  2.80000000E+02  0.00000000E+00
  2.00000000E+02  2.60000000E+02  0.00000000E+00
  2.00000000E+02  2.40000000E+02  0.00000000E+00
  2.00000000E+02  2.20000000E+02  0.00000000E+00
  2.00000000E+02  2.00000000E+02  0.00000000E+00
  2.00000000E+02  1.80000000E+02  0.00000000E+00
  2.00000000E+02  1.60000000E+02  0.00000000E+00
  2.00000000E+02  1.40000000E+02  0.00000000E+00
  2.00000000E+02  1.20000000E+02  0.00000000E+00
  2.00000000E+02  1.00000000E+02  0.00000000E+00
  2.00000000E+02  8.00000000E+01  0.00000000E+00
  2.00000000E+02  6.00000000E+01  0.00000000E+00
  2.00000000E+02  4.00000000E+01  0.00000000E+00
  2.00000000E+02  2.00000000E+01  0.00000000E+00
  2.00000000E+02  4.99600361E-14  0.00000000E+00
  2.20000000E+02  3.00000000E+02  0.00000000E+00
  2.20000000E+02  2.80000000E+02  0.00000000E+00
  2.20000000E+02  2.60000000E+02  0.00000000E+00
  2.20000000E+02  2.40000000E+02  0.00000000E+00
  2.20000000E+02  2.20000000E+02  0.00000000E+00
  2.20000000E+02  2.00000000E+02  0.00000000E+00
  2.20000000E+02  1.80000000E+02  0.00000000E+00
  2.20000000E+02  1.60000000E+02  0.00000000E+00
  2.20000000E+02  1.40000000E+02  0.00000000E+00
  2.20000000E+02  1.20000000E+02  0.00000000E+00
  2.20000000E+02  1.00000000E+02  0.00000000E+00
  2.20000000E+02  8.00000000E+01  0.00000000E+00
  2.20000000E+02  6.00000000E+01  0.00000000E+00
  2.20000000E+02  4.00000000E+01  0.00000000E+00
  2.20000000E+02  2.00000000E+01  0.00000000E+00
  2.20000000E+02  4.99600361E-14  0.00000000E+00
  2.40000000E+02  3.00000000E+02  0.00000000E+00
  2.40000000E+02  2.80000000E+02  0.00000000E+00
  2.40000000E+02  2.60000000E+02  0.00000000E+00
  2.40000000E+02  2.40000000E+02  0.00000000E+00
  2.40000000E+02  2.20000000E+02  0.00000000E+00
  2.40000000E+02  2.00000000E+02  0.00000000E+00
  2.40000000E+02  1.80000000E+02  0.00000000E+00
  2.40000000E+02  1.60000000E+02  0.00000000E+00
  2.40000000E+02  1.40000000E+02  0.00000000E+00
  2.40000000E+02  1.20000000E+02  0.00000000E+00
  2.40000000E+02  1.00000000E+02  0.00000000E+00
  2.40000000E+02  8.00000000E+01  0.00000000E+00
  2.40000000E+02  6.00000000E+01  0.00000000E+00
  2.40000000E+02  4.00000000E+01  0.00000000E+00
  2.40000000E+02  2.00000000E+01  0.00000000E+00
  2.40000000E+02  4.99600361E-14  0.00000000E+00
  2.60000000E+02  3.00000000E+02  0.00000000E+00
  2.60000000E+02  2.80000000E+02  0.00000000E+00
  2.60000000E+02  2.60000000E+02  0.00000000E+00
  2.60000000E+02  2.40000000E+02  0.00000000E+00
  2.60000000E+02  2.20000000E+02  0.00000000E+00
  2.60000000E+02  2.00000000E+02  0.00000000E+00
  2.60000000E+02  1.80000000E+02  0.00000000E+00
  2.60000000E+02  1.60000000E+02  0.00000000E+00
  2.60000000E+02  1.40000000E+02  0.00000000E+00
  2.60000000E+02  1.20000000E+02  0.00000000E+00
  2.60000000E+02  1.00000000E+02  0.00000000E+00
  2.60000000E+02  8.00000000E+01  0.00000000E+00
  2.60000000E+02  6.00000000E+01  0.00000000E+00
  2.60000000E+02  4.00000000E+01  0.00000000E+00
  2.60000000E+02  2.00000000E+01  0.00000000E+00
  2.60000000E+02  4.99600361E-14  0.00000000E+00
  2.80000000E+02  3.00000000E+02  0.00000000E+00
  2.80000000E+02  2.80000000E+02  0.00000000E+00
  2.80000000E+02  2.60000000E+02  0.00000000E+00
  2.80000000E+02  2.40000000E+02  0.00000000E+00
  2.80000000E+02  2.20000000E+02  0.00000000E+00
  2.80000000E+02  2.00000000E+02  0.00000000E+00
  2.80000000E+02  1.80000000E+02  0.00000000E+00
  2.80000000E+02  1.60000000E+02  0.00000000E+00
  2.80000000E+02  1.40000000E+02  0.00000000E+00
  2.80000000E+02  1.20000000E+02  0.00000000E+00
  2.80000000E+02  1.00000000E+02  0.00000000E+00
  2.80000000E+02  8.00000000E+01  0.00000000E+00
  2.80000000E+02  6.00000000E+01  0.00000000E+00
  2.80000000E+02  4.00000000E+01  0.00000000E+00
  2.80000000E+02  2.00000000E+01  0.00000000E+00
  2.80000000E+02  4.99600361E-14  0.00000000E+00
  3.00000000E+02  3.00000000E+02  0.00000000E+00
  3.00000000E+02  2.80000000E+02  0.00000000E+00
  3.00000000E+02  2.60000000E+02  0.00000000E+00
  3.00000000E+02  2.40000000E+02  0.00000000E+00
  3.00000000E+02  2.20000000E+02  0.00000000E+00
  3.00000000E+02  2.00000000E+02  0.00000000E+00
  3.00000000E+02  1.80000000E+02  0.00000000E+00
  3.00000000E+02  1.60000000E+02  0.00000000E+00
  3.00000000E+02  1.40000000E+02  0.00000000E+00
  3.00000000E+02  1.20000000E+02  0.00000000E+00
  3.00000000E+02  1.00000000E+02  0.00000000E+00
  3.00000000E+02  8.00000000E+01  0.00000000E+00
  3.00000000E+02  6.00000000E+01  0.00000000E+00
  3.00000000E+02  4.00000000E+01  0.00000000E+00
  3.00000000E+02  2.00000000E+01  0.00000000E+00
  3.00000000E+02  4.99600361E-14  0.00000000E+00
  3.20000000E+02  3.00000000E+02  0.00000000E+00
  3.20000000E+02  2.80000000E+02  0.00000000E+00
  3.20000000E+02  2.60000000E+02  0.00000000E+00
  3.20000000E+02  2.40000000E+02  0.00000000E+00
  3.20000000E+02  2.20000000E+02  0.00000000E+00
  3.20000000E+02  2.00000000E+02  0.00000000E+00
  3.20000000E+02  1.80000000E+02  0.00000000E+00
  3.20000000E+02  1.60000000E+02  0.00000000E+00
  3.20000000E+02  1.40000000E+02  0.00000000E+00
  3.20000000E+02  1.20000000E+02  0.00000000E+00
  3.20000000E+02  1.00000000E+02  0.00000000E+00
  3.20000000E+02  8.00000000E+01  0.00000000E+00
  3.20000000E+02  6.00000000E+01  0.00000000E+00
  3.20000000E+02  4.00000000E+01  0.00000000E+00
  3.20000000E+02  2.00000000E+01  0.00000000E+00
  3.20000000E+02  4.99600361E-14  0.00000000E+00
  3.40000000E+02  3.00000000E+02  0.00000000E+00
  3.40000000E+02  2.80000000E+02  0.00000000E+00
  3.40000000E+02  2.60000000E+02  0.00000000E+00
  3.40000000E+02  2.40000000E+02  0.00000000E+00
  3.40000000E+02  2.20000000E+02  0.00000000E+00
  3.40000000E+02  2.00000000E+02  0.00000000E+00
  3.40000000E+02  1.80000000E+02  0.00000000E+00
  3.40000000E+02  1.60000000E+02  0.00000000E+00
  3.40000000E+02  1.40000000E+02  0.00000000E+00
  3.40000000E+02  1.20000000E+02  0.00000000E+00
  3.40000000E+02  1.00000000E+02  0.00000000E+00
  3.40000000E+02  8.00000000E+01  0.00000000E+00
  3.40000000E+02  6.00000000E+01  0.00000000E+00
  3.40000000E+02  4.00000000E+01  0.00000000E+00
  3.40000000E+02  2.00000000E+01  0.00000000E+00
  3.40000000E+02  4.99600361E-14  0.00000000E+00
  3.60000000E+02  3.00000000E+02  0.00000000E+00
  3.60000000E+02  2.80000000E+02  0.00000000E+00
  3.60000000E+02  2.60000000E+02  0.00000000E+00
  3.60000000E+02  2.40000000E+02  0.00000000E+00
  3.60000000E+02  2.20000000E+02  0.00000000E+00
  3.60000000E+02  2.00000000E+02  0.00000000E+00
  3.60000000E+02  1.80000000E+02  0.00000000E+00
  3.60000000E+02  1.60000000E+02  0.00000000E+00
  3.60000000E+02  1.40000000E+02  0.00000000E+00
  3.60000000E+02  1.20000000E+02  0.00000000E+00
  3.60000000E+02  1.00000000E+02  0.00000000E+00
  3.60000000E+02  8.00000000E+01  0.00000000E+00
  3.60000000E+02  6.00000000E+01  0.00000000E+00
  3.60000000E+02  4.00000000E+01  0.00000000E+00
  3.60000000E+02  2.00000000E+01  0.00000000E+00
  3.60000000E+02  4.99600361E-14  0.00000000E+00
  3.80000000E+02  3.00000000E+02  0.00000000E+00
  3.80000000E+02  2.80000000E+02  0.00000000E+00
  3.80000000E+02  2.60000000E+02  0.00000000E+00
  3.80000000E+02  2.40000000E+02  0.00000000E+00
  3.80000000E+02  2.20000000E+02  0.00000000E+00
  3.80000000E+02  2.00000000E+02  0.00000000E+00
  3.80000000E+02  1.80000000E+02  0.00000000E+00
  3.80000000E+02  1.60000000E+02  0.00000000E+00
  3.80000000E+02  1.40000000E+02  0.00000000E+00
  3.80000000E+02  1.20000000E+02  0.00000000E+00
  3.80000000E+02  1.00000000E+02  0.00000000E+00
  3.80000000E+02  8.00000000E+01  0.00000000E+00
  3.80000000E+02  6.00000000E+01  0.00000000E+00
  3.80000000E+02  4.00000000E+01  0.00000000E+00
  3.80000000E+02  2.00000000E+01  0.00000000E+00
  3.80000000E+02  4.99600361E-14  0.00000000E+00
  4.00000000E+02  3.00000000E+02  0.00000000E+00
  4.00000000E+02  2.80000000E+02  0.00000000E+00
  4.00000000E+02  2.60000000E+02  0.00000000E+00
  4.00000000E+02  2.40000000E+02  0.00000000E+00
  4.00000000E+02  2.20000000E+02  0.00000000E+00
  4.00000000E+02  2.00000000E+02  0.00000000E+00
  4.00000000E+02  1.80000000E+02  0.00000000E+00
  4.00000000E+02  1.60000000E+02  0.00000000E+00
  4.00000000E+02  1.40000000E+02  0.00000000E+00
  4.00000000E+02  1.20000000E+02  0.00000000E+00
  4.00000000E+02  1.00000000E+02  0.00000000E+00
  4.00000000E+02  8.00000000E+01  0.00000000E+00
  4.00000000E+02  6.00000000E+01  0.00000000E+00
  4.00000000E+02  4.00000000E+01  0.00000000E+00
  4.00000000E+02  2.00000000E+01  0.00000000E+00
  4.00000000E+02  4.99600361E-14  0.00000000E+00
  4.20000000E+02  3.00000000E+02  0.00000000E+00
  4.20000000E+02  2.80000000E+02  0.00000000E+00
  4.20000000E+02  2.60000000E+02  0.00000000E+00
  4.20000000E+02  2.40000000E+02  0.00000000E+00
  4.20000000E+02  2.20000000E+02  0.00000000E+00
  4.20000000E+02  2.00000000E+02  0.00000000E+00
  4.20000000E+02  1.80000000E+02  0.00000000E+00
  4.20000000E+02  1.60000000E+02  0.00000000E+00
  4.20000000E+02  1.40000000E+02  0.00000000E+00
  4.20000000E+02  1.20000000E+02  0.00000000E+00
  4.20000000E+02  1.00000000E+02  0.00000000E+00
  4.20000000E+02  8.00000000E+01  0.00000000E+00
  4.20000000E+02  6.00000000E+01  0.00000000E+00
  4.20000000E+02  4.00000000E+01  0.00000000E+00
  4.20000000E+02  2.00000000E+01  0.00000000E+00
  4.20000000E+02  4.99600361E-14  0.00000000E+00
  4.40000000E+02  3.00000000E+02  0.00000000E+00
  4.40000000E+02  2.80000000E+02  0.00000000E+00
  4.40000000E+02  2.60000000E+02  0.00000000E+00
  4.40000000E+02  2.40000000E+02  0.00000000E+00
  4.40000000E+02  2.20000000E+02  0.00000000E+00
  4.40000000E+02  2.00000000E+02  0.00000000E+00
  4.40000000E+02  1.80000000E+02  0.00000000E+00
  4.40000000E+02  1.60000000E+02  0.00000000E+00
  4.40000000E+02  1.40000000E+02  0.00000000E+00
  4.40000000E+02  1.20000000E+02  0.00000000E+00
  4.40000000E+02  1.00000000E+02  0.00000000E+00
  4.40000000E+02  8.00000000E+01  0.00000000E+00
  4.40000000E+02  6.00000000E+01  0.00000000E+00
  4.40000000E+02  4.00000000E+01  0.00000000E+00
  4.40000000E+02  2.00000000E+01  0.00000000E+00
  4.40000000E+02  4.99600361E-14  0.00000000E+00
  4.60000000E+02  3.00000000E+02  0.00000000E+00
  4.60000000E+02  2.80000000E+02  0.00000000E+00
  4.60000000E+02  2.60000000E+02  0.00000000E+00
  4.60000000E+02  2.40000000E+02  0.00000000E+00
  4.60000000E+02  2.20000000E+02  0.00000000E+00
  4.60000000E+02  2.00000000E+02  0.00000000E+00
  4.60000000E+02  1.80000000E+02  0.00000000E+00
  4.60000000E+02  1.60000000E+02  0.00000000E+00
  4.60000000E+02  1.40000000E+02  0.00000000E+00
  4.60000000E+02  1.20000000E+02  0.00000000E+00
  4.60000000E+02  1.00000000E+02  0.00000000E+00
  4.60000000E+02  8.00000000E+01  0.00000000E+00
  4.60000000E+02  6.00000000E+01  0.00000000E+00
  4.60000000E+02  4.00000000E+01  0.00000000E+00
  4.60000000E+02  2.00000000E+01  0.00000000E+00
  4.60000000E+02  4.99600361E-14  0.00000000E+00
  4.80000000E+02  3.00000000E+02  0.00000000E+00
  4.80000000E+02  2.80000000E+02  0.00000000E+00
  4.80000000E+02  2.60000000E+02  0.00000000E+00
  4.80000000E+02  2.40000000E+02  0.00000000E+00
  4.80000000E+02  2.20000000E+02  0.00000000E+00
  4.80000000E+02  2.00000000E+02  0.00000000E+00
  4.80000000E+02  1.80000000E+02  0.00000000E+00
  4.80000000E+02  1.60000000E+02  0.00000000E+00
  4.80000000E+02  1.40000000E+02  0.00000000E+00
  4.80000000E+02  1.20000000E+02  0.00000000E+00
  4.80000000E+02  1.00000000E+02  0.00000000E+00
  4.80000000E+02  8.00000000E+01  0.00000000E+00
  4.80000000E+02  6.00000000E+01  0.00000000E+00
  4.80000000E+02  4.00000000E+01  0.00000000E+00
  4.80000000E+02  2.00000000E+01  0.00000000E+00
  4.80000000E+02  4.99600361E-14  0.00000000E+00
  5.00000000E+02  3.00000000E+02  0.00000000E+00
  5.00000000E+02  2.80000000E+02  0.00000000E+00
  5.00000000E+02  2.60000000E+02  0.00000000E+00
  5.00000000E+02  2.40000000E+02  0.00000000E+00
  5.00000000E+02  2.20000000E+02  0.00000000E+00
  5.00000000E+02  2.00000000E+02  0.00000000E+00
  5.00000000E+02  1.80000000E+02  0.00000000E+00
  5.00000000E+02  1.60000000E+02  0.00000000E+00
  5.00000000E+02  1.40000000E+02  0.00000000E+00
  5.00000000E+02  1.20000000E+02  0.00000000E+00
  5.00000000E+02  1.00000000E+02  0.00000000E+00
  5.00000000E+02  8.00000000E+01  0.00000000E+00
  5.00000000E+02  6.00000000E+01  0.00000000E+00
  5.00000000E+02  4.00000000E+01  0.00000000E+00
  5.00000000E+02  2.00000000E+01  0.00000000E+00
  5.00000000E+02  4.99600361E-14  0.00000000E+00
  5.20000000E+02  3.00000000E+02  0.00000000E+00
  5.20000000E+02  2.80000000E+02  0.00000000E+00
  5.20000000E+02  2.60000000E+02  0.00000000E+00
  5.20000000E+02  2.40000000E+02  0.00000000E+00
  5.20000000E+02  2.20000000E+02  0.00000000E+00
  5.20000000E+02  2.00000000E+02  0.00000000E+00
  5.20000000E+02  1.80000000E+02  0.00000000E+00
  5.20000000E+02  1.60000000E+02  0.00000000E+00
  5.20000000E+02  1.40000000E+02  0.00000000E+00
  5.20000000E+02  1.20000000E+02  0.00000000E+00
  5.20000000E+02  1.00000000E+02  0.00000000E+00
  5.20000000E+02  8.00000000E+01  0.00000000E+00
  5.20000000E+02  6.00000000E+01  0.00000000E+00
  5.20000000E+02  4.00000000E+01  0.00000000E+00
  5.20000000E+02  2.00000000E+01  0.00000000E+00
  5.20000000E+02  4.99600361E-14  0.00000000E+00
  5.40000000E+02  3.00000000E+02  0.00000000E+00
  5.40000000E+02  2.80000000E+02  0.00000000E+00
  5.40000000E+02  2.60000000E+02  0.00000000E+00
  5.40000000E+02  2.40000000E+02  0.00000000E+00
  5.40000000E+02  2.20000000E+02  0.00000000E+00
  5.40000000E+02  2.00000000E+02  0.00000000E+00
  5.40000000E+02  1.80000000E+02  0.00000000E+00
  5.40000000E+02  1.60000000E+02  0.00000000E+00
  5.40000000E+02  1.40000000E+02  0.00000000E+00
  5.40000000E+02  1.20000000E+02  0.00000000E+00
  5.40000000E+02  1.00000000E+02  0.00000000E+00
  5.40000000E+02  8.00000000E+01  0.00000000E+00
  5.40000000E+02  6.00000000E+01  0.00000000E+00
  5.40000000E+02  4.00000000E+01  0.00000000E+00
  5.40000000E+02  2.00000000E+01  0.00000000E+00
  5.40000000E+02  4.99600361E-14  0.00000000E+00
  5.60000000E+02  3.00000000E+02  0.00000000E+00
  5.60000000E+02  2.80000000E+02  0.00000000E+00
  5.60000000E+02  2.60000000E+02  0.00000000E+00
  5.60000000E+02  2.40000000E+02  0.00000000E+00
  5.60000000E+02  2.20000000E+02  0.00000000E+00
  5.60000000E+02  2.00000000E+02  0.00000000E+00
  5.60000000E+02  1.80000000E+02  0.00000000E+00
  5.60000000E+02  1.60000000E+02  0.00000000E+00
  5.60000000E+02  1.40000000E+02  0.00000000E+00
  5.60000000E+02  1.20000000E+02  0.00000000E+00
  5.60000000E+02  1.00000000E+02  0.00000000E+00
  5.60000000E+02  8.00000000E+01  0.00000000E+00
  5.60000000E+02  6.00000000E+01  0.00000000E+00
  5.60000000E+02  4.00000000E+01  0.00000000E+00
  5.60000000E+02  2.00000000E+01  0.00000000E+00
  5.60000000E+02  4.99600361E-14  0.00000000E+00
  5.80000000E+02  3.00000000E+02  0.00000000E+00
  5.80000000E+02  2.80000000E+02  0.00000000E+00
  5.80000000E+02  2.60000000E+02  0.00000000E+00
  5.80000000E+02  2.40000000E+02  0.00000000E+00
  5.80000000E+02  2.20000000E+02  0.00000000E+00
  5.80000000E+02  2.00000000E+02  0.00000000E+00
  5.80000000E+02  1.80000000E+02  0.00000000E+00
  5.80000000E+02  1.60000000E+02  0.00000000E+00
  5.80000000E+02  1.40000000E+02  0.00000000E+00
  5.80000000E+02  1.20000000E+02  0.00000000E+00
  5.80000000E+02  1.00000000E+02  0.00000000E+00
  5.80000000E+02  8.00000000E+01  0.00000000E+00
  5.80000000E+02  6.00000000E+01  0.00000000E+00
  5.80000000E+02  4.00000000E+01  0.00000000E+00
  5.80000000E+02  2.00000000E+01  0.00000000E+00
  5.80000000E+02  4.99600361E-14  0.00000000E+00
  6.00000000E+02  3.00000000E+02  0.00000000E+00
  6.00000000E+02  2.80000000E+02  0.00000000E+00
  6.00000000E+02  2.60000000E+02  0.00000000E+00
  6.00000000E+02  2.40000000E+02  0.00000000E+00
  6.00000000E+02  2.20000000E+02  0.00000000E+00
  6.00000000E+02  2.00000000E+02  0.00000000E+00
  6.00000000E+02  1.80000000E+02  0.00000000E+00
  6.00000000E+02  1.60000000E+02  0.00000000E+00
  6.00000000E+02  1.40000000E+02  0.00000000E+00
  6.00000000E+02  1.20000000E+02  0.00000000E+00
  6.00000000E+02  1.00000000E+02  0.00000000E+00
  6.00000000E+02  8.00000000E+01  0.00000000E+00
  6.00000000E+02  6.00000000E+01  0.00000000E+00
  6.00000000E+02  4.00000000E+01  0.00000000E+00
  6.00000000E+02  2.00000000E+01  0.00000000E+00
  6.00000000E+02  4.99600361E-14  0.00000000E+00
CELLS       450      2250
         4           0           1          17          16
         4           1           2          18          17
         4           2           3          19          18
         4           3           4          20          19
         4           4           5          21          20
         4           5           6          22          21
         4           6           7          23          22
         4           7           8          24          23
         4           8           9          25          24
         4           9          10          26          25
         4          10          11          27          26
         4          11          12          28          27
         4          12          13          29          28
         4          13          14          30          29
         4          14          15          31          30
         4          16          17          33          32
         4          17          18          34          33
         4          18          19          35          34
         4          19          20          36          35
         4          20          21          37          36
         4          21          22          38          37
         4          22          23          39          38
         4          23          24          40          39
         4          24          25          41          40
         4          25          26          42          41
         4          26          27          43          42
         4          27          28          44          43
         4          28          29          45          44
         4          29          30          46          45
         4          30          31          47          46
         4          32          33          49          48
         4          33          34          50          49
         4          34          35          51          50
         4          35          36          52          51
         4          36          37          53          52
         4          37          38          54          53
         4          38          39          55          54
         4          39          40          56          55
         4          40          41          57          56
         4          41          42          58          57
         4          42          43          59          58
         4          43          44          60          59
         4          44          45          61          60
         4          45          46          62          61
         4          46          47          63          62
         4          48          49          65          64
         4          49          50          66          65
         4          50          51          67          66
         4          51          52          68          67
         4          52          53          69          68
         4          53          54          70          69
         4          54          55          71          70
         4          55          56          72          71
         4          56          57          73          72
         4          57          58          74          73
         4          58          59          75          74
         4          59          60          76          75
         4          60          61          77          76
         4          61          62          78          77
         4          62          63          79          78
         4          64          65          81          80
         4          65          66          82          81
         4          66          67          83          82
         4          67          68          84          83
         4          68          69          85          84
         4          69          70          86          85
         4          70          71          87          86
         4          71          72          88          87
         4          72          73          89          88
         4          73          74          90          89
         4          74          75          91          90
         4          75          76          92          91
         4          76          77          93          92
         4          77          78          94          93
         4          78          79          95          94
         4          80          81          97          96
         4          81          82          98          97
         4          82          83          99          98
         4          83          84         100          99
         4          84          85         101         100
         4          85          86         102         101
         4          86          87         103         102
         4          87          88         104         103
         4          88          89         105         104
         4          89          90         106         105
         4          90          91         107         106
         4          91          92         108         107
         4          92          93         109         108
         4          93          94         110         109
         4          94          95         111         110
         4          96          97         113         112
         4          97          98         114         113
         4          98          99         115         114
         4          99         100         116         115
         4         100         101         117         116
         4         101         102         118         117
         4         102         103         119         118
         4         103         104         120         119
         4         104         105         121         120
         4         105         106         122         121
         4         106         107         123         122
         4         107         108         124         123
         4         108         109         125         124
         4         109         110         126         125
         4         110         111         127         126
         4         112         113         129         128
         4         113         114         130         129
         4         114         115         131         130
         4         115         116         132         131
         4         116         117         133         132
         4         117         118         134         133
         4         118         119         135         134
         4         119         120         136         135
         4         120         121         137         136
         4         121         122         138         137
         4         122         123         139         138
         4         123         124         140         139
         4         124         125         141         140
         4         125         126         142         141
         4         126         127         143         142
         4         128         129         145         144
         4         129         130         146         145
         4         130         131         147         146
         4         131         132         148         147
         4         132         133         149         148
         4         133         134         150         149
         4         134         135         151         150
         4         135         136         152         151
         4         136         137         153         152
         4         137         138         154         153
         4         138         139         155         154
         4         139         140         156         155
         4         140         141         157         156
         4         141         142         158         157
         4         142         143         159         158
         4         144         145         161         160
         4         145         146         162         161
         4         146         147         163         162
         4         147         148         164         163
         4         148         149         165         164
         4         149         150         166         165
         4         150         151         167         166
         4         151         152         168         167
         4         152         153         169         168
         4         153         154         170         169
         4         154         155         171         170
         4         155         156         172         171
         4         156         157         173         172
         4         157         158         174         173
         4         158         159         175         174
         4         160         161         177         176
         4         161         162         178         177
         4         162         163         179         178
         4         163         164         180         179
         4         164         165         181         180
         4         165         166         182         181
         4         166         167         183         182
         4         167         168         184         183
         4         168         169         185         184
         4         169         170         186         185
         4         170         171         187         186
         4         171         172         188         187
         4         172         173         189         188
         4         173         174         190         189
         4         174         175         191         190
         4         176         177         193         192
         4         177         178         194         193
         4         178         179         195         194
         4         179         180         196         195
         4         180         181         197         196
         4         181         182         198         197
         4         182         183         199         198
         4         183         184         200         199
         4         184         185         201         200
         4         185         186         202         201
         4         186         187         203         202
         4         187         188         204         203
         4         188         189         205         204
         4         189         190         206         205
         4         190         191         207         206
         4         192         193         209         208
         4         193         194         210         209
         4         194         195         211         210
         4         195         196         212         211
         4         196         197         213         212
         4         197         198         214         213
         4         198         199         215         214
         4         199         200         216         215
         4         200         201         217         216
         4         201         202         218         217
         4         202         203         219         218
         4         203         204         220         219
         4         204         205         221         220
         4         205         206         222         221
         4         206         207         223         222
         4         208         209         225         224
         4         209         210         226         225
         4         210         211         227         226
         4         211         212         228         227
         4         212         213         229         228
         4         213         214         230         229
         4         214         215         231         230
         4         215         216         232         231
         4         216         217         233         232
         4         217         218         234         233
         4         218         219         235         234
         4         219         220         236         235
         4         220         221         237         236
         4         221         222         238         237
         4         222         223         239         238
         4         224         225         241         240
         4         225         226         242         241
         4         226         227         243         242
         4         227         228         244         243
         4         228         229         245         244
         4         229         230         246         245
         4         230         231         247         246
         4         231         232         248         247
         4         232         233         249         248
         4         233         234         250         249
         4         234         235         251         250
         4         235         236         252         251
         4         236         237         253         252
         4         237         238         254         253
         4         238         239         255         254
         4         240         241         257         256
         4         241         242         258         257
         4         242         243         259         258
         4         243         244         260         259
         4         244         245         261         260
         4         245         246         262         261
         4         246         247         263         262
         4         247         248         264         263
         4         248         249         265         264
         4         249         250         266         265
         4         250         251         267         266
         4         251         252         268         267
         4         252         253         269         268
         4         253         254         270         269
         4         254         255         271         270
         4         256         257         273         272
         4         257         258         274         273
         4         258         259         275         274
         4         259         260         276         275
         4         260         261         277         276
         4         261         262         278         277
         4         262         263         279         278
         4         263         264         280         279
         4         264         265         281         280
         4         265         266         282         281
         4         266         267         283         282
         4         267         268         284         283
         4         268         269         285         284
         4         269         270         286         285
         4         270         271         287         286
         4         272         273         289         288
         4         273         274         290         289
         4         274         275         291         290
         4         275         276         292         291
         4         276         277         293         292
         4         277         278         294         293
         4         278         279         295         294
         4         279         280         296         295
         4         280         281         297         296
         4         281         282         298         297
         4         282         283         299         298
         4         283         284         300         299
         4         284         285         301         300
         4         285         286         302         301
         4         286         287         303         302
         4         288         289         305         304
         4         289         290         306         305
         4         290         291         307         306
         4         291         292         308         307
         4         292         293         309         308
         4         293         294         310         309
         4         294         295         311         310
         4         295         296         312         311
         4         296         297         313         312
         4         297         298         314         313
         4         298         299         315         314
         4         299         300         316         315
         4         300         301         317         316
         4         301         302         318         317
         4         302         303         319         318
         4         304         305         321         320
         4         305         306         322         321
         4         306         307         323         322
         4         307         308         324         323
         4         308         309         325         324
         4         309         310         326         325
         4         310         311         327         326
         4         311         312         328         327
         4         312         313         329         328
         4         313         314         330         329
         4         314         315         331         330
         4         315         316         332         331
         4         316         317         333         332
         4         317         318         334         333
         4         318         319         335         334
         4         320         321         337         336
         4         321         322         338         337
         4         322         323         339         338
         4         323         324         340         339
         4         324         325         341         340
         4         325         326         342         341
         4         326         327         343         342
         4         327         328         344         343
         4         328         329         345         344
         4         329         330         346         345
         4         330         331         347         346
         4         331         332         348         347
         4         332         333         349         348
         4         333         334         350         349
         4         334         335         351         350
         4         336         337         353         352
         4         337         338         354         353
         4         338         339         355         354
         4         339         340         356         355
         4         340         341         357         356
         4         341         342         358         357
         4         342         343         359         358
         4         343         344         360         359
         4         344         345         361         360
         4         345         346         362         361
         4         346         347         363         362
         4         347         348         364         363
         4         348         349         365         364
         4         349         350         366         365
         4         350         351         367         366
         4         352         353         369         368
         4         353         354         370         369
         4         354         355         371         370
         4         355         356         372         371
         4         356         357         373         372
         4         357         358         374         373
         4         358         359         375         374
         4         359         360         376         375
         4         360         361         377         376
         4         361         362         378         377
         4         362         363         379         378
         4         363         364         380         379
         4         364         365         381         380
         4         365         366         382         381
         4         366         367         383         382
         4         368         369         385         384
         4         369         370         386         385
         4         370         371         387         386
         4         371         372         388         387
         4         372         373         389         388
         4         373         374         390         389
         4         374         375         391         390
         4         375         376         392         391
         4         376         377         393         392
         4         377         378         394         393
         4         378         379         395         394
         4         379         380         396         395
         4         380         381         397         396
         4         381         382         398         397
         4         382         383         399         398
         4         384         385         401         400
         4         385         386         402         401
         4         386         387         403         402
         4         387         388         404         403
         4         388         389         405         404
         4         389         390         406         405
         4         390         391         407         406
         4         391         392         408         407
         4         392         393         409         408
         4         393         394         410         409
         4         394         395         411         410
         4         395         396         412         411
         4         396         397         413         412
         4         397         398         414         413
         4         398         399         415         414
         4         400         401         417         416
         4         401         402         418         417
         4         402         403         419         418
         4         403         404         420         419
         4         404         405         421         420
         4         405         406         422         421
         4         406         407         423         422
         4         407         408         424         423
         4         408         409         425         424
         4         409         410         426         425
         4         410         411         427         426
         4         411         412         428         427
         4         412         413         429         428
         4         413         414         430         429
         4         414         415         431         430
         4         416         417         433         432
         4         417         418         434         433
         4         418         419         435         434
         4         419         420         436         435
         4         420         421         437         436
         4         421         422         438         437
         4         422         423         439         438
         4         423         424         440         439
         4         424         425         441         440
         4         425         426         442         441
         4         426         427         443         442
         4         427         428         444         443
         4         428         429         445         444
         4         429         430         446         445
         4         430         431         447         446
         4         432         433         449         448
         4         433         434         450         449
         4         434         435         451         450
         4         435         436         452         451
         4         436         437         453         452
         4         437         438         454         453
         4         438         439         455         454
         4         439         440         456         455
         4         440         441         457         456
         4         441         442         458         457
         4         442         443         459         458
         4         443         444         460         459
         4         444         445         461         460
         4         445         446         462         461
         4         446         447         463         462
         4         448         449         465         464
         4         449         450         466         465
         4         450         451         467         466
         4         451         452         468         467
         4         452         453         469         468
         4         453         454         470         469
         4         454         455         471         470
         4         455         456         472         471
         4         456         457         473         472
         4         457         458         474         473
         4         458         459         475         474
         4         459         460         476         475
         4         460         461         477         476
         4         461         462         478         477
         4         462         463         479         478
         4         464         465         481         480
         4         465         466         482         481
         4         466         467         483         482
         4         467         468         484         483
         4         468         469         485         484
         4         469         470         486         485
         4         470         471         487         486
         4         471         472         488         487
         4         472         473         489         488
         4         473         474         490         489
         4         474         475         491         490
         4         475         476         492         491
         4         476         477         493         492
         4         477         478         494         493
         4         478         479         495         494
CELL_TYPES        450
9
9
9
9
9
9
9
9
9
9
9
9
9
9
9
9
9
9
9
9
9
9
9
9
9
9
9
9
9
9
9
9
9
9
9
9
9
9
9
9
9
9
9
9
9
9
9
9
9
9
9
9
9
9
9
9
9
9
9
9
9
9
9
9
9
9
9
9
9
9
9
9
9
9
9
9
9
9
9
9
9
9
9
9
9
9
9
9
9
9
9
9
9
9
9
9
9
9
9
9
9
9
9
9
9
9
9
9
9
9
9
9
9
9
9
9
9
9
9
9
9
9
9
9
9
9
9
9
9
9
9
9
9
9
9
9
9
9
9
9
9
9
9
9
9
9
9
9
9
9
9
9
9
9
9
9
9
9
9
9
9
9
9
9
9
9
9
9
9
9
9
9
9
9
9
9
9
9
9
9
9
9
9
9
9
9
9
9
9
9
9
9
9
9
9
9
9
9
9
9
9
9
9
9
9
9
9
9
9
9
9
9
9
9
9
9
9
9
9
9
9
9
9
9
9
9
9
9
9
9
9
9
9
9
9
9
9
9
9
9
9
9
9
9
9
9
9
9
9
9
9
9
9
9
9
9
9
9
9
9
9
9
9
9
9
9
9
9
9
9
9
9
9
9
9
9
9
9
9
9
9
9
9
9
9
9
9
9
9
9
9
9
9
9
9
9
9
9
9
9
9
9
9
9
9
9
9
9
9
9
9
9
9
9
9
9
9
9
9
9
9
9
9
9
9
9
9
9
9
9
9
9
9
9
9
9
9
9
9
9
9
9
9
9
9
9
9
9
9
9
9
9
9
9
9
9
9
9
9
9
9
9
9
9
9
9
9
9
9
9
9
9
9
9
9
9
9
9
9
9
9
9
9
9
9
9
9
9
9
9
9
9
9
9
9
9
9
9
9
9
9
9
9
9
9
9
9
9
9
9
9
9
9
9
9
9
9
9
9
9
9
9
9
9
9
9
9
9
9
9
9
9
9
9
9
9
9
9
9
9
9
9
9
9
9
9
9
9
9
9
POINT_DATA       496
SCALARS p double 
LOOKUP_TABLE default
   28227157.1038343     
   28223759.4139452     
   28214517.9312333     
   28200661.8147643     
   28183317.6640310     
   28163517.4620787     
   28142206.8585856     
   28120253.6330073     
   28098456.1930253     
   28077551.9802263     
   28058225.6725332     
   28041117.0910013     
   28026828.7368894     
   28015932.9033428     
   28008978.3245768     
   28006496.3442452     
   28200282.6832045     
   28196894.2145614     
   28187678.6370007     
   28173862.5417552     
   28156569.8394244     
   28136829.7584009     
   28115585.1774814     
   28093701.1322449     
   28071973.3502223     
   28051136.6868005     
   28031873.3515587     
   28014820.8328947     
   28000579.4471136     
   27989719.4565178     
   27982787.7195135     
   27980313.8544429     
   28119751.8991779     
   28116391.1484758     
   28107253.4253608     
   28093557.5879555     
   28076419.4548449     
   28056859.9696862     
   28035813.6824139     
   28014137.3850943     
   27992618.7568691     
   27971984.8900506     
   27952910.5876508     
   27936026.3410121     
   27921925.9145265     
   27911173.4826379     
   27904310.2825238     
   27901860.7642344     
   27985842.0364429     
   27982527.6617294     
   27973520.1553966     
   27960025.3883168     
   27943145.6081262     
   27923887.8817177     
   27903172.8240648     
   27881843.4490733     
   27860673.9961339     
   27840378.6048658     
   27821619.7295289     
   27805016.2033155     
   27791150.8810358     
   27780577.8065889     
   27773828.8692952     
   27771419.9309559     
   27799014.7388579     
   27795765.6628343     
   27786941.4106746     
   27773729.4636674     
   27757212.8938782     
   27738379.1974746     
   27718129.3699898     
   27697287.0563239     
   27676607.6285423     
   27656787.0650410     
   27638470.5247031     
   27622260.5288593     
   27608724.6820471     
   27598402.8798841     
   27591813.9691752     
   27589461.8421842     
   27559915.2603193     
   27556750.7669575     
   27548163.7225701     
   27535317.6089185     
   27519270.5433905     
   27500984.6176145     
   27481335.4173983     
   27461121.5537722     
   27441074.0582189     
   27421865.5179055     
   27404118.8481532     
   27388415.6190724     
   27375303.8711919     
   27365305.3712940     
   27358922.2751083     
   27356643.1787745     
   27269371.4101074     
   27266311.2313307     
   27258016.4747728     
   27245620.7456731     
   27230151.2060096     
   27212538.5343784     
   27193626.9875548     
   27174184.3909561     
   27154911.9123976     
   27136453.4990738     
   27119404.8807798     
   27104322.0625848     
   27091729.2475013     
   27082126.1446217     
   27075994.6315496     
   27073804.7528737     
   26928392.1880682     
   26925456.5766414     
   26917510.4819521     
   26905651.4293702     
   26890869.3583693     
   26874057.3208364     
   26856022.1787948     
   26837495.1273992     
   26819141.9010487     
   26801572.5494653     
   26785350.6956428     
   26771002.2082057     
   26759023.2370610     
   26749887.5739437     
   26744053.3097562     
   26741968.7700584     
   26538166.1054199     
   26535375.8893766     
   26527836.2351683     
   26516601.9997330     
   26502619.3251980     
   26486737.1932084     
   26469718.8492772     
   26452252.9237749     
   26434964.1140941     
   26418423.3257566     
   26403157.1975971     
   26389656.9571061     
   26378386.5667572     
   26369790.1316323     
   26364298.5445497     
   26362335.3493681     
   26100059.1887098     
   26097435.8015999     
   26090361.8074399     
   26079842.3630205     
   26066772.8937170     
   26051951.6205574     
   26036091.7952471     
   26019833.4737720     
   26003754.7044019     
   25988382.0443287     
   25974200.3492501     
   25961661.8012663     
   25951194.1527709     
   25943208.1688970     
   25938104.2507437     
   25936278.2190172     
   25615612.6677964     
   25613178.1477196     
   25606630.4151924     
   25596917.3956674     
   25584876.5030886     
   25571248.2536360     
   25556689.3858897     
   25541785.3266128     
   25527061.8955610     
   25512996.1875252     
   25500026.6031297     
   25488562.0207797     
   25478990.1109413     
   25471684.7923620     
   25467012.8208645     
   25465339.4889242     
   25086540.3539855     
   25084317.3027749     
   25078357.6354161     
   25069543.9615983     
   25058647.9911981     
   25046345.3432386     
   25033229.6119222     
   25019825.5436442     
   25006601.2443804     
   24993979.3896570     
   24982347.4465657     
   24972066.9376084     
   24963481.7799611     
   24956925.7233001     
   24952728.8885341     
   24951223.3838624     
   24514725.7219473     
   24512737.2139332     
   24507428.2845572     
   24499607.5400997     
   24489972.8834827     
   24479127.6182220     
   24467595.5019939     
   24455834.6263688     
   24444250.0791272     
   24433205.4086507     
   24423032.9520402     
   24414043.1078983     
   24406532.6316323     
   24400792.0086492     
   24397111.9240376     
   24395788.8031139     
   23902218.7191530     
   23900488.1466465     
   23895892.9738132     
   23889158.4679114     
   23880900.2127467     
   23871641.5945145     
   23861829.8587580     
   23851850.6476824     
   23842041.0257083     
   23832701.0775835     
   23824104.2117323     
   23816506.3191011     
   23810153.9252791     
   23805291.4350437     
   23802167.5103733     
   23801040.5542444     
   23251232.3397632     
   23249783.1797088     
   23245964.3669926     
   23240407.8084416     
   23233637.8650588     
   23226090.2889266     
   23218129.2650623     
   23210062.5128295     
   23202154.5252488     
   23194638.1185945     
   23187724.5208192     
   23181612.2421816     
   23176494.9462262     
   23172568.4792270     
   23170037.1299529     
   23169119.0904687     
   22564139.0168315     
   22562994.4999072     
   22560013.1819315     
   22555722.8729825     
   22550547.4549089     
   22544827.3151567     
   22538837.3097014     
   22532802.2713548     
   22526910.2376701     
   22521323.6899132     
   22516189.1601340     
   22511645.5736396     
   22507831.6516814     
   22504892.6111008     
   22502986.2748583     
   22502288.5638523     
   21843466.9082926     
   21842649.5679542     
   21840563.9952350     
   21837622.4336542     
   21834138.7424423     
   21830350.3433259     
   21826436.9807404     
   21822536.3954336     
   21818757.2166385     
   21815189.5251801     
   21811913.6156362     
   21809007.4878825     
   21806553.5325079     
   21804644.7505180     
   21803390.6783903     
   21802922.9915148     
   21091896.1800199     
   21091427.2542872     
   21090290.9336309     
   21088771.6854405     
   21087063.6157721     
   21085293.9070154     
   21083542.1707971     
   21081855.9321001     
   21080262.7311341     
   21078779.5132690     
   21077420.0610044     
   21076201.2092743     
   21075148.4880669     
   21074301.6675511     
   21073720.4543535     
   21073490.3208457     
   20312255.4257960     
   20312154.0783139     
   20312013.3645229     
   20311977.0344088     
   20312109.6697065     
   20312421.5397104     
   20312888.2294674     
   20313465.4246954     
   20314099.5971751     
   20314735.5574159     
   20315321.9227050     
   20315815.5077954     
   20316185.5064238     
   20316418.1110424     
   20316521.9255513     
   20316534.1748800     
   19507518.4137290     
   19507800.7314399     
   19508691.7347714     
   19510180.8091004     
   19512193.4137099     
   19514617.2091334     
   19517321.4770717     
   19520170.4783225     
   19523031.8690244     
   19525781.5467249     
   19528306.3482885     
   19530505.9275322     
   19532294.9482870     
   19533606.4554761     
   19534396.9273651     
   19534653.0632427     
   18680801.4192654     
   18681479.1290613     
   18683423.7520808     
   18686456.0075852     
   18690353.1264816     
   18694875.9806696     
   18699787.5500092     
   18704863.8086707     
   18709898.7218564     
   18714705.2756564     
   18719114.4161858     
   18722973.5816252     
   18726146.2571413     
   18728513.6765264     
   18729979.3893267     
   18730476.8602462     
   17835361.5107191     
   17836440.3308469     
   17839441.1596965     
   17844001.1937732     
   17849741.3224490     
   17856293.7569336     
   17863318.3621978     
   17870509.5532460     
   17877596.3379028     
   17884338.1673446     
   17890518.9733844     
   17895941.4055494     
   17900422.9713152     
   17903795.5072064     
   17905909.0297173     
   17906640.3811224     
   16974596.3208476     
   16976073.8124866     
   16980107.4241091     
   16986135.6215366     
   16993616.6683017     
   17002055.7681897     
   17011017.3080583     
   17020125.5246642     
   17029057.5894844     
   17037532.7129750     
   17045300.0923021     
   17052127.8784767     
   17057795.0142608     
   17062087.6967185     
   17064802.0445835     
   17065753.9267463     
   16102046.1195280     
   16103908.8039825     
   16108916.7355142     
   16116294.5460970     
   16125334.9106578     
   16135423.1558089     
   16146042.0524436     
   16156762.9304383     
   16167229.3064764     
   16177137.6652632     
   16186218.3459003     
   16194218.4456649     
   16200888.4181648     
   16205974.4016303     
   16209218.7240211     
   16210370.7021031     
   15221399.5046242     
   15223618.8041496     
   15229494.7956059     
   15238024.3694279     
   15248337.8028358     
   15259716.3793561     
   15271583.7891038     
   15283482.8608607     
   15295046.9477539     
   15305971.2723757     
   15315986.4865050     
   15324835.2847576     
   15332252.9519173     
   15337953.8966738     
   15341627.9575492     
   15342951.0036565     
   14336504.9842764     
   14339031.0894001     
   14345601.8635228     
   14354976.4963941     
   14366137.8650116     
   14378293.1129774     
   14390841.1492907     
   14403328.5739129     
   14415406.6087098     
   14426793.2779100     
   14437240.7874548     
   14446506.8046256     
   14454328.7013686     
   14460402.0336293     
   14464368.5278274     
   14465822.9190128     
   13451392.6995100     
   13454144.3697116     
   13461138.1583545     
   13470896.8806649     
   13482294.5514170     
   13494516.5990147     
   13506986.0601628     
   13519292.3802516     
   13531134.5530151     
   13542277.0711216     
   13552514.3896266     
   13561639.5942890     
   13569413.8088378     
   13575534.3025100     
   13579606.7997575     
   13581138.7146299     
   12570314.9929397     
   12573160.4476804     
   12580149.7291268     
   12589603.5267287     
   12600373.1896914     
   12611708.2426228     
   12623118.1520936     
   12634276.0169924     
   12644954.9027507     
   12654984.1597068     
   12664216.3423658     
   12672497.9470087     
   12679638.0061222     
   12685368.6120761     
   12689289.3450647     
   12690824.6589743     
   11697827.5415853     
   11700539.9473879     
   11706825.0603598     
   11714931.8687527     
   11723872.0822620     
   11733076.7559391     
   11742204.8318704     
   11751044.2446129     
   11759456.7394130     
   11767343.6110319     
   11774621.1216572     
   11781198.7185041     
   11786953.8008525     
   11791693.6606718     
   11795088.3273629     
   11796514.9641253     
   10838962.3817326     
   10841109.5315824     
   10845425.7242589     
   10850607.3171327     
   10856099.8835692     
   10861619.1272384     
   10867007.3737788     
   10872173.4380011     
   10877062.5028079     
   10881638.5776014     
   10885872.3817606     
   10889730.6735416     
   10893163.3518510     
   10896082.0077539     
   10898312.6150477     
   10899464.2581959     
   10000000.0000000     
   10000000.0000000     
   10000000.0000000     
   10000000.0000000     
   10000000.0000000     
   10000000.0000000     
   10000000.0000000     
   10000000.0000000     
   10000000.0000000     
   10000000.0000000     
   10000000.0000000     
   10000000.0000000     
   10000000.0000000     
  10000000.00000000     
   10000000.0000000     
   10000000.0000000     
VECTORS u double 
    0.00000E+00        -0.37772E-01         0.00000E+00
    0.00000E+00        -0.35182E-01         0.00000E+00
    0.00000E+00        -0.32604E-01         0.00000E+00
    0.00000E+00        -0.30036E-01         0.00000E+00
    0.00000E+00        -0.27478E-01         0.00000E+00
    0.00000E+00        -0.24928E-01         0.00000E+00
    0.00000E+00        -0.22385E-01         0.00000E+00
    0.00000E+00        -0.19851E-01         0.00000E+00
    0.00000E+00        -0.17325E-01         0.00000E+00
    0.00000E+00        -0.14808E-01         0.00000E+00
    0.00000E+00        -0.12301E-01         0.00000E+00
    0.00000E+00        -0.98068E-02         0.00000E+00
    0.00000E+00        -0.73268E-02         0.00000E+00
    0.00000E+00        -0.48637E-02         0.00000E+00
    0.00000E+00        -0.24203E-02         0.00000E+00
    0.00000E+00         0.00000E+00         0.00000E+00
    0.61095E-03        -0.37801E-01         0.00000E+00
    0.55521E-03        -0.35209E-01         0.00000E+00
    0.50394E-03        -0.32630E-01         0.00000E+00
    0.45661E-03        -0.30060E-01         0.00000E+00
    0.41266E-03        -0.27500E-01         0.00000E+00
    0.37155E-03        -0.24948E-01         0.00000E+00
    0.33273E-03        -0.22404E-01         0.00000E+00
    0.29565E-03        -0.19868E-01         0.00000E+00
    0.25978E-03        -0.17340E-01         0.00000E+00
    0.22459E-03        -0.14821E-01         0.00000E+00
    0.18956E-03        -0.12312E-01         0.00000E+00
    0.15421E-03        -0.98159E-02         0.00000E+00
    0.11804E-03        -0.73337E-02         0.00000E+00
    0.80581E-04        -0.48684E-02         0.00000E+00
    0.41385E-04        -0.24227E-02         0.00000E+00
    0.00000E+00         0.00000E+00         0.00000E+00
    0.12178E-02        -0.37888E-01         0.00000E+00
    0.11066E-02        -0.35292E-01         0.00000E+00
    0.10043E-02        -0.32707E-01         0.00000E+00
    0.90991E-03        -0.30133E-01         0.00000E+00
    0.82230E-03        -0.27568E-01         0.00000E+00
    0.74036E-03        -0.25011E-01         0.00000E+00
    0.66300E-03        -0.22461E-01         0.00000E+00
    0.58913E-03        -0.19919E-01         0.00000E+00
    0.51766E-03        -0.17386E-01         0.00000E+00
    0.44756E-03        -0.14861E-01         0.00000E+00
    0.37778E-03        -0.12346E-01         0.00000E+00
    0.30734E-03        -0.98432E-02         0.00000E+00
    0.23527E-03        -0.73545E-02         0.00000E+00
    0.16063E-03        -0.48825E-02         0.00000E+00
    0.82502E-04        -0.24299E-02         0.00000E+00
    0.00000E+00         0.00000E+00         0.00000E+00
    0.18166E-02        -0.38033E-01         0.00000E+00
    0.16503E-02        -0.35429E-01         0.00000E+00
    0.14976E-02        -0.32836E-01         0.00000E+00
    0.13566E-02        -0.30254E-01         0.00000E+00
    0.12259E-02        -0.27680E-01         0.00000E+00
    0.11037E-02        -0.25114E-01         0.00000E+00
    0.98836E-03        -0.22556E-01         0.00000E+00
    0.87826E-03        -0.20005E-01         0.00000E+00
    0.77176E-03        -0.17461E-01         0.00000E+00
    0.66730E-03        -0.14927E-01         0.00000E+00
    0.56333E-03        -0.12402E-01         0.00000E+00
    0.45835E-03        -0.98886E-02         0.00000E+00
    0.35091E-03        -0.73891E-02         0.00000E+00
    0.23961E-03        -0.49059E-02         0.00000E+00
    0.12309E-03        -0.24418E-02         0.00000E+00
    0.00000E+00         0.00000E+00         0.00000E+00
    0.24032E-02        -0.38235E-01         0.00000E+00
    0.21826E-02        -0.35620E-01         0.00000E+00
    0.19801E-02        -0.33016E-01         0.00000E+00
    0.17934E-02        -0.30422E-01         0.00000E+00
    0.16204E-02        -0.27837E-01         0.00000E+00
    0.14588E-02        -0.25259E-01         0.00000E+00
    0.13064E-02        -0.22688E-01         0.00000E+00
    0.11609E-02        -0.20124E-01         0.00000E+00
    0.10202E-02        -0.17567E-01         0.00000E+00
    0.88223E-03        -0.15019E-01         0.00000E+00
    0.74488E-03        -0.12480E-01         0.00000E+00
    0.60617E-03        -0.99519E-02         0.00000E+00
    0.46417E-03        -0.74374E-02         0.00000E+00
    0.31701E-03        -0.49386E-02         0.00000E+00
    0.16288E-03        -0.24584E-02         0.00000E+00
    0.00000E+00         0.00000E+00         0.00000E+00
    0.29735E-02        -0.38494E-01         0.00000E+00
    0.26996E-02        -0.35864E-01         0.00000E+00
    0.24484E-02        -0.33246E-01         0.00000E+00
    0.22171E-02        -0.30638E-01         0.00000E+00
    0.20029E-02        -0.28037E-01         0.00000E+00
    0.18030E-02        -0.25444E-01         0.00000E+00
    0.16146E-02        -0.22857E-01         0.00000E+00
    0.14349E-02        -0.20276E-01         0.00000E+00
    0.12611E-02        -0.17703E-01         0.00000E+00
    0.10908E-02        -0.15136E-01         0.00000E+00
    0.92113E-03        -0.12579E-01         0.00000E+00
    0.74978E-03        -0.10033E-01         0.00000E+00
    0.57429E-03        -0.74990E-02         0.00000E+00
    0.39232E-03        -0.49803E-02         0.00000E+00
    0.20162E-03        -0.24796E-02         0.00000E+00
    0.00000E+00         0.00000E+00         0.00000E+00
    0.35235E-02        -0.38807E-01         0.00000E+00
    0.31975E-02        -0.36161E-01         0.00000E+00
    0.28989E-02        -0.33526E-01         0.00000E+00
    0.26243E-02        -0.30899E-01         0.00000E+00
    0.23703E-02        -0.28281E-01         0.00000E+00
    0.21336E-02        -0.25668E-01         0.00000E+00
    0.19106E-02        -0.23062E-01         0.00000E+00
    0.16981E-02        -0.20461E-01         0.00000E+00
    0.14927E-02        -0.17867E-01         0.00000E+00
    0.12913E-02        -0.15279E-01         0.00000E+00
    0.10908E-02        -0.12700E-01         0.00000E+00
    0.88816E-03        -0.10131E-01         0.00000E+00
    0.68049E-03        -0.75739E-02         0.00000E+00
    0.46502E-03        -0.50310E-02         0.00000E+00
    0.23906E-03        -0.25054E-02         0.00000E+00
    0.00000E+00         0.00000E+00         0.00000E+00
    0.40490E-02        -0.39175E-01         0.00000E+00
    0.36724E-02        -0.36509E-01         0.00000E+00
    0.33280E-02        -0.33853E-01         0.00000E+00
    0.30118E-02        -0.31206E-01         0.00000E+00
    0.27197E-02        -0.28566E-01         0.00000E+00
    0.24478E-02        -0.25931E-01         0.00000E+00
    0.21920E-02        -0.23302E-01         0.00000E+00
    0.19484E-02        -0.20678E-01         0.00000E+00
    0.17131E-02        -0.18059E-01         0.00000E+00
    0.14824E-02        -0.15447E-01         0.00000E+00
    0.12527E-02        -0.12842E-01         0.00000E+00
    0.10203E-02        -0.10246E-01         0.00000E+00
    0.78207E-03        -0.76616E-02         0.00000E+00
    0.53465E-03        -0.50904E-02         0.00000E+00
    0.27496E-03        -0.25356E-02         0.00000E+00
    0.00000E+00         0.00000E+00         0.00000E+00
    0.45459E-02        -0.39595E-01         0.00000E+00
    0.41205E-02        -0.36906E-01         0.00000E+00
    0.37322E-02        -0.34227E-01         0.00000E+00
    0.33763E-02        -0.31556E-01         0.00000E+00
    0.30482E-02        -0.28892E-01         0.00000E+00
    0.27432E-02        -0.26232E-01         0.00000E+00
    0.24566E-02        -0.23577E-01         0.00000E+00
    0.21839E-02        -0.20926E-01         0.00000E+00
    0.19207E-02        -0.18279E-01         0.00000E+00
    0.16626E-02        -0.15638E-01         0.00000E+00
    0.14055E-02        -0.13004E-01         0.00000E+00
    0.11453E-02        -0.10378E-01         0.00000E+00
    0.87830E-03        -0.77617E-02         0.00000E+00
    0.60074E-03        -0.51583E-02         0.00000E+00
    0.30910E-03        -0.25700E-02         0.00000E+00
    0.00000E+00         0.00000E+00         0.00000E+00
    0.50102E-02        -0.40065E-01         0.00000E+00
    0.45381E-02        -0.37351E-01         0.00000E+00
    0.41080E-02        -0.34647E-01         0.00000E+00
    0.37147E-02        -0.31949E-01         0.00000E+00
    0.33528E-02        -0.29257E-01         0.00000E+00
    0.30170E-02        -0.26569E-01         0.00000E+00
    0.27019E-02        -0.23884E-01         0.00000E+00
    0.24025E-02        -0.21203E-01         0.00000E+00
    0.21136E-02        -0.18526E-01         0.00000E+00
    0.18303E-02        -0.15853E-01         0.00000E+00
    0.15480E-02        -0.13185E-01         0.00000E+00
    0.12622E-02        -0.10525E-01         0.00000E+00
    0.96852E-03        -0.78739E-02         0.00000E+00
    0.66285E-03        -0.52342E-02         0.00000E+00
    0.34126E-03        -0.26086E-02         0.00000E+00
    0.00000E+00         0.00000E+00         0.00000E+00
    0.54377E-02        -0.40584E-01         0.00000E+00
    0.49211E-02        -0.37842E-01         0.00000E+00
    0.44518E-02        -0.35109E-01         0.00000E+00
    0.40237E-02        -0.32382E-01         0.00000E+00
    0.36307E-02        -0.29659E-01         0.00000E+00
    0.32667E-02        -0.26940E-01         0.00000E+00
    0.29258E-02        -0.24223E-01         0.00000E+00
    0.26022E-02        -0.21509E-01         0.00000E+00
    0.22902E-02        -0.18797E-01         0.00000E+00
    0.19843E-02        -0.16089E-01         0.00000E+00
    0.16793E-02        -0.13385E-01         0.00000E+00
    0.13701E-02        -0.10687E-01         0.00000E+00
    0.10521E-02        -0.79975E-02         0.00000E+00
    0.72056E-03        -0.53179E-02         0.00000E+00
    0.37124E-03        -0.26511E-02         0.00000E+00
    0.00000E+00         0.00000E+00         0.00000E+00
    0.58241E-02        -0.41149E-01         0.00000E+00
    0.52659E-02        -0.38377E-01         0.00000E+00
    0.47602E-02        -0.35612E-01         0.00000E+00
    0.43002E-02        -0.32853E-01         0.00000E+00
    0.38790E-02        -0.30098E-01         0.00000E+00
    0.34899E-02        -0.27344E-01         0.00000E+00
    0.31261E-02        -0.24592E-01         0.00000E+00
    0.27812E-02        -0.21842E-01         0.00000E+00
    0.24488E-02        -0.19093E-01         0.00000E+00
    0.21231E-02        -0.16346E-01         0.00000E+00
    0.17981E-02        -0.13603E-01         0.00000E+00
    0.14682E-02        -0.10864E-01         0.00000E+00
    0.11284E-02        -0.81320E-02         0.00000E+00
    0.77348E-03        -0.54090E-02         0.00000E+00
    0.39884E-03        -0.26974E-02         0.00000E+00
    0.00000E+00         0.00000E+00         0.00000E+00
    0.61654E-02        -0.41757E-01         0.00000E+00
    0.55686E-02        -0.38952E-01         0.00000E+00
    0.50297E-02        -0.36154E-01         0.00000E+00
    0.45410E-02        -0.33360E-01         0.00000E+00
    0.40950E-02        -0.30569E-01         0.00000E+00
    0.36839E-02        -0.27779E-01         0.00000E+00
    0.33005E-02        -0.24990E-01         0.00000E+00
    0.29375E-02        -0.22200E-01         0.00000E+00
    0.25880E-02        -0.19411E-01         0.00000E+00
    0.22454E-02        -0.16623E-01         0.00000E+00
    0.19033E-02        -0.13836E-01         0.00000E+00
    0.15557E-02        -0.11054E-01         0.00000E+00
    0.11968E-02        -0.82766E-02         0.00000E+00
    0.82125E-03        -0.55068E-02         0.00000E+00
    0.42390E-03        -0.27471E-02         0.00000E+00
    0.00000E+00         0.00000E+00         0.00000E+00
    0.64573E-02        -0.42405E-01         0.00000E+00
    0.58253E-02        -0.39565E-01         0.00000E+00
    0.52568E-02        -0.36731E-01         0.00000E+00
    0.47432E-02        -0.33901E-01         0.00000E+00
    0.42759E-02        -0.31072E-01         0.00000E+00
    0.38466E-02        -0.28243E-01         0.00000E+00
    0.34471E-02        -0.25413E-01         0.00000E+00
    0.30695E-02        -0.22581E-01         0.00000E+00
    0.27063E-02        -0.19749E-01         0.00000E+00
    0.23501E-02        -0.16917E-01         0.00000E+00
    0.19941E-02        -0.14085E-01         0.00000E+00
    0.16318E-02        -0.11256E-01         0.00000E+00
    0.12569E-02        -0.84305E-02         0.00000E+00
    0.86351E-03        -0.56110E-02         0.00000E+00
    0.44625E-03        -0.28000E-02         0.00000E+00
    0.00000E+00         0.00000E+00         0.00000E+00
    0.66955E-02        -0.43089E-01         0.00000E+00
    0.60323E-02        -0.40213E-01         0.00000E+00
    0.54381E-02        -0.37341E-01         0.00000E+00
    0.49035E-02        -0.34472E-01         0.00000E+00
    0.44190E-02        -0.31603E-01         0.00000E+00
    0.39754E-02        -0.28732E-01         0.00000E+00
    0.35637E-02        -0.25859E-01         0.00000E+00
    0.31753E-02        -0.22984E-01         0.00000E+00
    0.28020E-02        -0.20106E-01         0.00000E+00
    0.24359E-02        -0.17228E-01         0.00000E+00
    0.20695E-02        -0.14348E-01         0.00000E+00
    0.16957E-02        -0.11469E-01         0.00000E+00
    0.13080E-02        -0.85927E-02         0.00000E+00
    0.89992E-03        -0.57208E-02         0.00000E+00
    0.46574E-03        -0.28557E-02         0.00000E+00
    0.00000E+00         0.00000E+00         0.00000E+00
    0.68760E-02        -0.43806E-01         0.00000E+00
    0.61857E-02        -0.40891E-01         0.00000E+00
    0.55704E-02        -0.37980E-01         0.00000E+00
    0.50192E-02        -0.35069E-01         0.00000E+00
    0.45219E-02        -0.32158E-01         0.00000E+00
    0.40683E-02        -0.29244E-01         0.00000E+00
    0.36486E-02        -0.26326E-01         0.00000E+00
    0.32534E-02        -0.23405E-01         0.00000E+00
    0.28739E-02        -0.20480E-01         0.00000E+00
    0.25016E-02        -0.17552E-01         0.00000E+00
    0.21284E-02        -0.14622E-01         0.00000E+00
    0.17468E-02        -0.11692E-01         0.00000E+00
    0.13496E-02        -0.87623E-02         0.00000E+00
    0.93018E-03        -0.58356E-02         0.00000E+00
    0.48222E-03        -0.29140E-02         0.00000E+00
    0.00000E+00         0.00000E+00         0.00000E+00
    0.69943E-02        -0.44550E-01         0.00000E+00
    0.62819E-02        -0.41595E-01         0.00000E+00
    0.56502E-02        -0.38643E-01         0.00000E+00
    0.50873E-02        -0.35690E-01         0.00000E+00
    0.45820E-02        -0.32734E-01         0.00000E+00
    0.41230E-02        -0.29774E-01         0.00000E+00
    0.36997E-02        -0.26810E-01         0.00000E+00
    0.33021E-02        -0.23841E-01         0.00000E+00
    0.29206E-02        -0.20867E-01         0.00000E+00
    0.25461E-02        -0.17888E-01         0.00000E+00
    0.21700E-02        -0.14907E-01         0.00000E+00
    0.17843E-02        -0.11923E-01         0.00000E+00
    0.13813E-02        -0.89380E-02         0.00000E+00
    0.95395E-03        -0.59546E-02         0.00000E+00
    0.49554E-03        -0.29745E-02         0.00000E+00
    0.00000E+00         0.00000E+00         0.00000E+00
    0.70464E-02        -0.45318E-01         0.00000E+00
    0.63171E-02        -0.42321E-01         0.00000E+00
    0.56744E-02        -0.39326E-01         0.00000E+00
    0.51052E-02        -0.36329E-01         0.00000E+00
    0.45969E-02        -0.33327E-01         0.00000E+00
    0.41375E-02        -0.30321E-01         0.00000E+00
    0.37154E-02        -0.27308E-01         0.00000E+00
    0.33199E-02        -0.24289E-01         0.00000E+00
    0.29407E-02        -0.21264E-01         0.00000E+00
    0.25682E-02        -0.18234E-01         0.00000E+00
    0.21933E-02        -0.15198E-01         0.00000E+00
    0.18074E-02        -0.12160E-01         0.00000E+00
    0.14025E-02        -0.91185E-02         0.00000E+00
    0.97088E-03        -0.60768E-02         0.00000E+00
    0.50554E-03        -0.30366E-02         0.00000E+00
    0.00000E+00         0.00000E+00         0.00000E+00
    0.70279E-02        -0.46102E-01         0.00000E+00
    0.62878E-02        -0.43064E-01         0.00000E+00
    0.56400E-02        -0.40024E-01         0.00000E+00
    0.50701E-02        -0.36981E-01         0.00000E+00
    0.45645E-02        -0.33932E-01         0.00000E+00
    0.41098E-02        -0.30877E-01         0.00000E+00
    0.36940E-02        -0.27815E-01         0.00000E+00
    0.33053E-02        -0.24745E-01         0.00000E+00
    0.29330E-02        -0.21669E-01         0.00000E+00
    0.25669E-02        -0.18585E-01         0.00000E+00
    0.21974E-02        -0.15495E-01         0.00000E+00
    0.18154E-02        -0.12401E-01         0.00000E+00
    0.14125E-02        -0.93023E-02         0.00000E+00
    0.98057E-03        -0.62014E-02         0.00000E+00
    0.51204E-03        -0.30999E-02         0.00000E+00
    0.00000E+00         0.00000E+00         0.00000E+00
    0.69348E-02        -0.46898E-01         0.00000E+00
    0.61904E-02        -0.43816E-01         0.00000E+00
    0.55440E-02        -0.40731E-01         0.00000E+00
    0.49798E-02        -0.37641E-01         0.00000E+00
    0.44826E-02        -0.34544E-01         0.00000E+00
    0.40383E-02        -0.31439E-01         0.00000E+00
    0.36338E-02        -0.28327E-01         0.00000E+00
    0.32569E-02        -0.25205E-01         0.00000E+00
    0.28960E-02        -0.22076E-01         0.00000E+00
    0.25407E-02        -0.18939E-01         0.00000E+00
    0.21810E-02        -0.15795E-01         0.00000E+00
    0.18073E-02        -0.12644E-01         0.00000E+00
    0.14107E-02        -0.94877E-02         0.00000E+00
    0.98254E-03        -0.63271E-02         0.00000E+00
    0.51480E-03        -0.31639E-02         0.00000E+00
    0.00000E+00         0.00000E+00         0.00000E+00
    0.67631E-02        -0.47698E-01         0.00000E+00
    0.60217E-02        -0.44571E-01         0.00000E+00
    0.53838E-02        -0.41440E-01         0.00000E+00
    0.48318E-02        -0.38302E-01         0.00000E+00
    0.43494E-02        -0.35156E-01         0.00000E+00
    0.39213E-02        -0.32001E-01         0.00000E+00
    0.35335E-02        -0.28837E-01         0.00000E+00
    0.31731E-02        -0.25664E-01         0.00000E+00
    0.28285E-02        -0.22482E-01         0.00000E+00
    0.24886E-02        -0.19292E-01         0.00000E+00
    0.21430E-02        -0.16093E-01         0.00000E+00
    0.17820E-02        -0.12887E-01         0.00000E+00
    0.13961E-02        -0.96728E-02         0.00000E+00
    0.97620E-03        -0.64528E-02         0.00000E+00
    0.51353E-03        -0.32280E-02         0.00000E+00
    0.00000E+00         0.00000E+00         0.00000E+00
    0.65087E-02        -0.48494E-01         0.00000E+00
    0.57786E-02        -0.45322E-01         0.00000E+00
    0.51569E-02        -0.42144E-01         0.00000E+00
    0.46245E-02        -0.38958E-01         0.00000E+00
    0.41633E-02        -0.35762E-01         0.00000E+00
    0.37572E-02        -0.32556E-01         0.00000E+00
    0.33915E-02        -0.29341E-01         0.00000E+00
    0.30527E-02        -0.26116E-01         0.00000E+00
    0.27289E-02        -0.22882E-01         0.00000E+00
    0.24088E-02        -0.19639E-01         0.00000E+00
    0.20819E-02        -0.16387E-01         0.00000E+00
    0.17382E-02        -0.13126E-01         0.00000E+00
    0.13677E-02        -0.98555E-02         0.00000E+00
    0.96074E-03        -0.65772E-02         0.00000E+00
    0.50783E-03        -0.32915E-02         0.00000E+00
    0.00000E+00         0.00000E+00         0.00000E+00
    0.61680E-02        -0.49278E-01         0.00000E+00
    0.54582E-02        -0.46060E-01         0.00000E+00
    0.48613E-02        -0.42835E-01         0.00000E+00
    0.43561E-02        -0.39600E-01         0.00000E+00
    0.39231E-02        -0.36353E-01         0.00000E+00
    0.35450E-02        -0.33097E-01         0.00000E+00
    0.32065E-02        -0.29831E-01         0.00000E+00
    0.28941E-02        -0.26555E-01         0.00000E+00
    0.25955E-02        -0.23270E-01         0.00000E+00
    0.22997E-02        -0.19976E-01         0.00000E+00
    0.19960E-02        -0.16672E-01         0.00000E+00
    0.16742E-02        -0.13358E-01         0.00000E+00
    0.13240E-02        -0.10034E-01         0.00000E+00
    0.93509E-03        -0.66987E-02         0.00000E+00
    0.49714E-03        -0.33538E-02         0.00000E+00
    0.00000E+00         0.00000E+00         0.00000E+00
    0.57375E-02        -0.50039E-01         0.00000E+00
    0.50581E-02        -0.46776E-01         0.00000E+00
    0.44952E-02        -0.43503E-01         0.00000E+00
    0.40255E-02        -0.40218E-01         0.00000E+00
    0.36277E-02        -0.36922E-01         0.00000E+00
    0.32836E-02        -0.33615E-01         0.00000E+00
    0.29775E-02        -0.30298E-01         0.00000E+00
    0.26958E-02        -0.26973E-01         0.00000E+00
    0.24266E-02        -0.23639E-01         0.00000E+00
    0.21591E-02        -0.20296E-01         0.00000E+00
    0.18828E-02        -0.16943E-01         0.00000E+00
    0.15876E-02        -0.13580E-01         0.00000E+00
    0.12630E-02        -0.10204E-01         0.00000E+00
    0.89781E-03        -0.68158E-02         0.00000E+00
    0.48069E-03        -0.34141E-02         0.00000E+00
    0.00000E+00         0.00000E+00         0.00000E+00
    0.52139E-02        -0.50767E-01         0.00000E+00
    0.45763E-02        -0.47459E-01         0.00000E+00
    0.40578E-02        -0.44137E-01         0.00000E+00
    0.36322E-02        -0.40803E-01         0.00000E+00
    0.32766E-02        -0.37457E-01         0.00000E+00
    0.29721E-02        -0.34100E-01         0.00000E+00
    0.27030E-02        -0.30735E-01         0.00000E+00
    0.24560E-02        -0.27363E-01         0.00000E+00
    0.22199E-02        -0.23983E-01         0.00000E+00
    0.19844E-02        -0.20594E-01         0.00000E+00
    0.17397E-02        -0.17197E-01         0.00000E+00
    0.14759E-02        -0.13788E-01         0.00000E+00
    0.11821E-02        -0.10365E-01         0.00000E+00
    0.84693E-03        -0.69267E-02         0.00000E+00
    0.45740E-03        -0.34717E-02         0.00000E+00
    0.00000E+00         0.00000E+00         0.00000E+00
    0.45944E-02        -0.51449E-01         0.00000E+00
    0.40115E-02        -0.48095E-01         0.00000E+00
    0.35487E-02        -0.44726E-01         0.00000E+00
    0.31762E-02        -0.41342E-01         0.00000E+00
    0.28698E-02        -0.37947E-01         0.00000E+00
    0.26100E-02        -0.34543E-01         0.00000E+00
    0.23817E-02        -0.31132E-01         0.00000E+00
    0.21727E-02        -0.27716E-01         0.00000E+00
    0.19728E-02        -0.24293E-01         0.00000E+00
    0.17725E-02        -0.20864E-01         0.00000E+00
    0.15631E-02        -0.17426E-01         0.00000E+00
    0.13351E-02        -0.13977E-01         0.00000E+00
    0.10781E-02        -0.10512E-01         0.00000E+00
    0.77974E-03        -0.70296E-02         0.00000E+00
    0.42578E-03        -0.35258E-02         0.00000E+00
    0.00000E+00         0.00000E+00         0.00000E+00
    0.38765E-02        -0.52071E-01         0.00000E+00
    0.33634E-02        -0.48672E-01         0.00000E+00
    0.29687E-02        -0.45255E-01         0.00000E+00
    0.26586E-02        -0.41822E-01         0.00000E+00
    0.24076E-02        -0.38380E-01         0.00000E+00
    0.21967E-02        -0.34931E-01         0.00000E+00
    0.20123E-02        -0.31478E-01         0.00000E+00
    0.18437E-02        -0.28022E-01         0.00000E+00
    0.16820E-02        -0.24563E-01         0.00000E+00
    0.15196E-02        -0.21099E-01         0.00000E+00
    0.13486E-02        -0.17627E-01         0.00000E+00
    0.11608E-02        -0.14143E-01         0.00000E+00
    0.94620E-03        -0.10643E-01         0.00000E+00
    0.69250E-03        -0.71223E-02         0.00000E+00
    0.38365E-03        -0.35754E-02         0.00000E+00
    0.00000E+00         0.00000E+00         0.00000E+00
    0.30582E-02        -0.52615E-01         0.00000E+00
    0.26329E-02        -0.49171E-01         0.00000E+00
    0.23200E-02        -0.45706E-01         0.00000E+00
    0.20811E-02        -0.42227E-01         0.00000E+00
    0.18904E-02        -0.38740E-01         0.00000E+00
    0.17313E-02        -0.35251E-01         0.00000E+00
    0.15926E-02        -0.31762E-01         0.00000E+00
    0.14658E-02        -0.28273E-01         0.00000E+00
    0.13440E-02        -0.24783E-01         0.00000E+00
    0.12211E-02        -0.21291E-01         0.00000E+00
    0.10911E-02        -0.17791E-01         0.00000E+00
    0.94706E-03        -0.14281E-01         0.00000E+00
    0.78060E-03        -0.10754E-01         0.00000E+00
    0.57994E-03        -0.72023E-02         0.00000E+00
    0.32781E-03        -0.36197E-02         0.00000E+00
    0.00000E+00         0.00000E+00         0.00000E+00
    0.21382E-02        -0.53059E-01         0.00000E+00
    0.18233E-02        -0.49571E-01         0.00000E+00
    0.16066E-02        -0.46060E-01         0.00000E+00
    0.14455E-02        -0.42538E-01         0.00000E+00
    0.13181E-02        -0.39014E-01         0.00000E+00
    0.12122E-02        -0.35492E-01         0.00000E+00
    0.11199E-02        -0.31975E-01         0.00000E+00
    0.10355E-02        -0.28460E-01         0.00000E+00
    0.95429E-03        -0.24947E-01         0.00000E+00
    0.87209E-03        -0.21433E-01         0.00000E+00
    0.78469E-03        -0.17914E-01         0.00000E+00
    0.68730E-03        -0.14385E-01         0.00000E+00
    0.57367E-03        -0.10839E-01         0.00000E+00
    0.43453E-03        -0.72666E-02         0.00000E+00
    0.25318E-03        -0.36573E-02         0.00000E+00
    0.00000E+00         0.00000E+00         0.00000E+00
    0.11163E-02        -0.53375E-01         0.00000E+00
    0.94210E-03        -0.49843E-01         0.00000E+00
    0.83303E-03        -0.46291E-01         0.00000E+00
    0.75256E-03        -0.42736E-01         0.00000E+00
    0.68914E-03        -0.39186E-01         0.00000E+00
    0.63648E-03        -0.35642E-01         0.00000E+00
    0.59058E-03        -0.32106E-01         0.00000E+00
    0.54855E-03        -0.28576E-01         0.00000E+00
    0.50804E-03        -0.25049E-01         0.00000E+00
    0.46695E-03        -0.21522E-01         0.00000E+00
    0.42314E-03        -0.17991E-01         0.00000E+00
    0.37411E-03        -0.14450E-01         0.00000E+00
    0.31658E-03        -0.10893E-01         0.00000E+00
    0.24534E-03        -0.73097E-02         0.00000E+00
    0.15062E-03        -0.36863E-02         0.00000E+00
    0.00000E+00         0.00000E+00         0.00000E+00
    0.00000E+00        -0.53509E-01         0.00000E+00
    0.00000E+00        -0.49943E-01         0.00000E+00
    0.00000E+00        -0.46371E-01         0.00000E+00
    0.00000E+00        -0.42804E-01         0.00000E+00
    0.00000E+00        -0.39244E-01         0.00000E+00
    0.00000E+00        -0.35694E-01         0.00000E+00
    0.00000E+00        -0.32151E-01         0.00000E+00
    0.00000E+00        -0.28615E-01         0.00000E+00
    0.00000E+00        -0.25083E-01         0.00000E+00
    0.00000E+00        -0.21552E-01         0.00000E+00
    0.00000E+00        -0.18017E-01         0.00000E+00
    0.00000E+00        -0.14472E-01         0.00000E+00
    0.00000E+00        -0.10912E-01         0.00000E+00
    0.00000E+00        -0.73252E-02         0.00000E+00
    0.00000E+00        -0.36984E-02         0.00000E+00
    0.00000E+00         0.00000E+00         0.00000E+00
CELL_DATA        450
VECTORS vDarcy double 
    0.19161E-09        -0.24196E-10         0.00000E+00
    0.19148E-09        -0.65807E-10         0.00000E+00
    0.19124E-09        -0.98659E-10         0.00000E+00
    0.19090E-09        -0.12349E-09         0.00000E+00
    0.19050E-09        -0.14096E-09         0.00000E+00
    0.19005E-09        -0.15171E-09         0.00000E+00
    0.18956E-09        -0.15627E-09         0.00000E+00
    0.18906E-09        -0.15516E-09         0.00000E+00
    0.18857E-09        -0.14879E-09         0.00000E+00
    0.18810E-09        -0.13756E-09         0.00000E+00
    0.18767E-09        -0.12177E-09         0.00000E+00
    0.18730E-09        -0.10169E-09         0.00000E+00
    0.18700E-09        -0.77548E-10         0.00000E+00
    0.18679E-09        -0.49497E-10         0.00000E+00
    0.18668E-09        -0.17664E-10         0.00000E+00
    0.57417E-09        -0.24064E-10         0.00000E+00
    0.57377E-09        -0.65436E-10         0.00000E+00
    0.57304E-09        -0.98087E-10         0.00000E+00
    0.57205E-09        -0.12275E-09         0.00000E+00
    0.57084E-09        -0.14010E-09         0.00000E+00
    0.56947E-09        -0.15077E-09         0.00000E+00
    0.56801E-09        -0.15529E-09         0.00000E+00
    0.56651E-09        -0.15416E-09         0.00000E+00
    0.56503E-09        -0.14783E-09         0.00000E+00
    0.56362E-09        -0.13666E-09         0.00000E+00
    0.56234E-09        -0.12097E-09         0.00000E+00
    0.56122E-09        -0.10102E-09         0.00000E+00
    0.56033E-09        -0.77036E-10         0.00000E+00
    0.55969E-09        -0.49171E-10         0.00000E+00
    0.55935E-09        -0.17549E-10         0.00000E+00
    0.95473E-09        -0.23800E-10         0.00000E+00
    0.95407E-09        -0.64694E-10         0.00000E+00
    0.95286E-09        -0.96940E-10         0.00000E+00
    0.95119E-09        -0.12128E-09         0.00000E+00
    0.94917E-09        -0.13838E-09         0.00000E+00
    0.94689E-09        -0.14888E-09         0.00000E+00
    0.94445E-09        -0.15331E-09         0.00000E+00
    0.94195E-09        -0.15217E-09         0.00000E+00
    0.93947E-09        -0.14590E-09         0.00000E+00
    0.93712E-09        -0.13486E-09         0.00000E+00
    0.93498E-09        -0.11937E-09         0.00000E+00
    0.93313E-09        -0.99683E-10         0.00000E+00
    0.93163E-09        -0.76013E-10         0.00000E+00
    0.93057E-09        -0.48519E-10         0.00000E+00
    0.93001E-09        -0.17317E-10         0.00000E+00
    0.13320E-08        -0.23401E-10         0.00000E+00
    0.13311E-08        -0.63575E-10         0.00000E+00
    0.13294E-08        -0.95214E-10         0.00000E+00
    0.13270E-08        -0.11906E-09         0.00000E+00
    0.13242E-08        -0.13579E-09         0.00000E+00
    0.13210E-08        -0.14603E-09         0.00000E+00
    0.13175E-08        -0.15033E-09         0.00000E+00
    0.13140E-08        -0.14918E-09         0.00000E+00
    0.13106E-08        -0.14300E-09         0.00000E+00
    0.13073E-08        -0.13216E-09         0.00000E+00
    0.13043E-08        -0.11696E-09         0.00000E+00
    0.13017E-08        -0.97670E-10         0.00000E+00
    0.12996E-08        -0.74477E-10         0.00000E+00
    0.12981E-08        -0.47540E-10         0.00000E+00
    0.12973E-08        -0.16970E-10         0.00000E+00
    0.17046E-08        -0.22866E-10         0.00000E+00
    0.17034E-08        -0.62075E-10         0.00000E+00
    0.17012E-08        -0.92899E-10         0.00000E+00
    0.16982E-08        -0.11609E-09         0.00000E+00
    0.16945E-08        -0.13233E-09         0.00000E+00
    0.16904E-08        -0.14223E-09         0.00000E+00
    0.16860E-08        -0.14635E-09         0.00000E+00
    0.16814E-08        -0.14518E-09         0.00000E+00
    0.16770E-08        -0.13912E-09         0.00000E+00
    0.16727E-08        -0.12855E-09         0.00000E+00
    0.16689E-08        -0.11375E-09         0.00000E+00
    0.16655E-08        -0.94982E-10         0.00000E+00
    0.16628E-08        -0.72428E-10         0.00000E+00
    0.16609E-08        -0.46236E-10         0.00000E+00
    0.16599E-08        -0.16507E-10         0.00000E+00
    0.20713E-08        -0.22192E-10         0.00000E+00
    0.20698E-08        -0.60185E-10         0.00000E+00
    0.20671E-08        -0.89987E-10         0.00000E+00
    0.20634E-08        -0.11235E-09         0.00000E+00
    0.20589E-08        -0.12797E-09         0.00000E+00
    0.20538E-08        -0.13746E-09         0.00000E+00
    0.20484E-08        -0.14136E-09         0.00000E+00
    0.20428E-08        -0.14016E-09         0.00000E+00
    0.20374E-08        -0.13426E-09         0.00000E+00
    0.20322E-08        -0.12402E-09         0.00000E+00
    0.20274E-08        -0.10973E-09         0.00000E+00
    0.20233E-08        -0.91619E-10         0.00000E+00
    0.20200E-08        -0.69865E-10         0.00000E+00
    0.20177E-08        -0.44604E-10         0.00000E+00
    0.20165E-08        -0.15928E-10         0.00000E+00
    0.24308E-08        -0.21375E-10         0.00000E+00
    0.24290E-08        -0.57898E-10         0.00000E+00
    0.24258E-08        -0.86465E-10         0.00000E+00
    0.24214E-08        -0.10784E-09         0.00000E+00
    0.24160E-08        -0.12271E-09         0.00000E+00
    0.24100E-08        -0.13170E-09         0.00000E+00
    0.24035E-08        -0.13534E-09         0.00000E+00
    0.23969E-08        -0.13411E-09         0.00000E+00
    0.23905E-08        -0.12842E-09         0.00000E+00
    0.23843E-08        -0.11859E-09         0.00000E+00
    0.23787E-08        -0.10490E-09         0.00000E+00
    0.23739E-08        -0.87579E-10         0.00000E+00
    0.23700E-08        -0.66788E-10         0.00000E+00
    0.23672E-08        -0.42647E-10         0.00000E+00
    0.23657E-08        -0.15234E-10         0.00000E+00
    0.27817E-08        -0.20412E-10         0.00000E+00
    0.27797E-08        -0.55204E-10         0.00000E+00
    0.27759E-08        -0.82321E-10         0.00000E+00
    0.27708E-08        -0.10254E-09         0.00000E+00
    0.27646E-08        -0.11654E-09         0.00000E+00
    0.27576E-08        -0.12495E-09         0.00000E+00
    0.27501E-08        -0.12829E-09         0.00000E+00
    0.27425E-08        -0.12704E-09         0.00000E+00
    0.27350E-08        -0.12158E-09         0.00000E+00
    0.27278E-08        -0.11223E-09         0.00000E+00
    0.27214E-08        -0.99257E-10         0.00000E+00
    0.27158E-08        -0.82863E-10         0.00000E+00
    0.27113E-08        -0.63198E-10         0.00000E+00
    0.27081E-08        -0.40365E-10         0.00000E+00
    0.27064E-08        -0.14426E-10         0.00000E+00
    0.31229E-08        -0.19298E-10         0.00000E+00
    0.31206E-08        -0.52093E-10         0.00000E+00
    0.31163E-08        -0.77543E-10         0.00000E+00
    0.31104E-08        -0.96427E-10         0.00000E+00
    0.31033E-08        -0.10944E-09         0.00000E+00
    0.30953E-08        -0.11719E-09         0.00000E+00
    0.30868E-08        -0.12020E-09         0.00000E+00
    0.30781E-08        -0.11893E-09         0.00000E+00
    0.30696E-08        -0.11374E-09         0.00000E+00
    0.30615E-08        -0.10495E-09         0.00000E+00
    0.30542E-08        -0.92803E-10         0.00000E+00
    0.30479E-08        -0.77474E-10         0.00000E+00
    0.30428E-08        -0.59099E-10         0.00000E+00
    0.30392E-08        -0.37761E-10         0.00000E+00
    0.30373E-08        -0.13504E-10         0.00000E+00
    0.34530E-08        -0.18029E-10         0.00000E+00
    0.34504E-08        -0.48555E-10         0.00000E+00
    0.34456E-08        -0.72117E-10         0.00000E+00
    0.34389E-08        -0.89501E-10         0.00000E+00
    0.34309E-08        -0.10140E-09         0.00000E+00
    0.34220E-08        -0.10842E-09         0.00000E+00
    0.34125E-08        -0.11107E-09         0.00000E+00
    0.34027E-08        -0.10978E-09         0.00000E+00
    0.33932E-08        -0.10492E-09         0.00000E+00
    0.33842E-08        -0.96766E-10         0.00000E+00
    0.33760E-08        -0.85545E-10         0.00000E+00
    0.33689E-08        -0.71418E-10         0.00000E+00
    0.33633E-08        -0.54495E-10         0.00000E+00
    0.33593E-08        -0.34839E-10         0.00000E+00
    0.33571E-08        -0.12471E-10         0.00000E+00
    0.37709E-08        -0.16601E-10         0.00000E+00
    0.37679E-08        -0.44580E-10         0.00000E+00
    0.37625E-08        -0.66033E-10         0.00000E+00
    0.37552E-08        -0.81750E-10         0.00000E+00
    0.37463E-08        -0.92419E-10         0.00000E+00
    0.37364E-08        -0.98632E-10         0.00000E+00
    0.37258E-08        -0.10089E-09         0.00000E+00
    0.37151E-08        -0.99603E-10         0.00000E+00
    0.37045E-08        -0.95110E-10         0.00000E+00
    0.36946E-08        -0.87675E-10         0.00000E+00
    0.36855E-08        -0.77494E-10         0.00000E+00
    0.36778E-08        -0.64706E-10         0.00000E+00
    0.36715E-08        -0.49397E-10         0.00000E+00
    0.36671E-08        -0.31605E-10         0.00000E+00
    0.36648E-08        -0.11328E-10         0.00000E+00
    0.40752E-08        -0.15011E-10         0.00000E+00
    0.40720E-08        -0.40162E-10         0.00000E+00
    0.40661E-08        -0.59285E-10         0.00000E+00
    0.40579E-08        -0.73170E-10         0.00000E+00
    0.40482E-08        -0.82496E-10         0.00000E+00
    0.40373E-08        -0.87840E-10         0.00000E+00
    0.40257E-08        -0.89682E-10         0.00000E+00
    0.40140E-08        -0.88412E-10         0.00000E+00
    0.40024E-08        -0.84340E-10         0.00000E+00
    0.39916E-08        -0.77703E-10         0.00000E+00
    0.39817E-08        -0.68672E-10         0.00000E+00
    0.39733E-08        -0.57358E-10         0.00000E+00
    0.39665E-08        -0.43819E-10         0.00000E+00
    0.39617E-08        -0.28069E-10         0.00000E+00
    0.39592E-08        -0.10080E-10         0.00000E+00
    0.43649E-08        -0.13255E-10         0.00000E+00
    0.43614E-08        -0.35297E-10         0.00000E+00
    0.43549E-08        -0.51872E-10         0.00000E+00
    0.43460E-08        -0.63765E-10         0.00000E+00
    0.43354E-08        -0.71643E-10         0.00000E+00
    0.43236E-08        -0.76061E-10         0.00000E+00
    0.43110E-08        -0.77472E-10         0.00000E+00
    0.42983E-08        -0.76239E-10         0.00000E+00
    0.42858E-08        -0.72640E-10         0.00000E+00
    0.42741E-08        -0.66883E-10         0.00000E+00
    0.42635E-08        -0.59109E-10         0.00000E+00
    0.42544E-08        -0.49399E-10         0.00000E+00
    0.42471E-08        -0.37783E-10         0.00000E+00
    0.42419E-08        -0.24245E-10         0.00000E+00
    0.42392E-08        -0.87303E-11         0.00000E+00
    0.46388E-08        -0.11332E-10         0.00000E+00
    0.46349E-08        -0.29984E-10         0.00000E+00
    0.46279E-08        -0.43800E-10         0.00000E+00
    0.46183E-08        -0.53553E-10         0.00000E+00
    0.46069E-08        -0.59888E-10         0.00000E+00
    0.45941E-08        -0.63331E-10         0.00000E+00
    0.45807E-08        -0.64304E-10         0.00000E+00
    0.45670E-08        -0.63133E-10         0.00000E+00
    0.45537E-08        -0.60064E-10         0.00000E+00
    0.45412E-08        -0.55268E-10         0.00000E+00
    0.45298E-08        -0.48852E-10         0.00000E+00
    0.45201E-08        -0.40869E-10         0.00000E+00
    0.45123E-08        -0.31317E-10         0.00000E+00
    0.45069E-08        -0.20151E-10         0.00000E+00
    0.45040E-08        -0.72866E-11         0.00000E+00
    0.48957E-08        -0.92423E-11         0.00000E+00
    0.48915E-08        -0.24231E-10         0.00000E+00
    0.48840E-08        -0.35087E-10         0.00000E+00
    0.48737E-08        -0.42564E-10         0.00000E+00
    0.48615E-08        -0.47276E-10         0.00000E+00
    0.48479E-08        -0.49710E-10         0.00000E+00
    0.48336E-08        -0.50247E-10         0.00000E+00
    0.48191E-08        -0.49171E-10         0.00000E+00
    0.48050E-08        -0.46687E-10         0.00000E+00
    0.47918E-08        -0.42928E-10         0.00000E+00
    0.47798E-08        -0.37967E-10         0.00000E+00
    0.47696E-08        -0.31822E-10         0.00000E+00
    0.47614E-08        -0.24462E-10         0.00000E+00
    0.47556E-08        -0.15811E-10         0.00000E+00
    0.47526E-08        -0.57569E-11         0.00000E+00
    0.51345E-08        -0.69903E-11         0.00000E+00
    0.51301E-08        -0.18054E-10         0.00000E+00
    0.51220E-08        -0.25767E-10         0.00000E+00
    0.51111E-08        -0.30852E-10         0.00000E+00
    0.50982E-08        -0.33878E-10         0.00000E+00
    0.50839E-08        -0.35285E-10         0.00000E+00
    0.50688E-08        -0.35400E-10         0.00000E+00
    0.50537E-08        -0.34457E-10         0.00000E+00
    0.50389E-08        -0.32615E-10         0.00000E+00
    0.50251E-08        -0.29965E-10         0.00000E+00
    0.50126E-08        -0.26542E-10         0.00000E+00
    0.50019E-08        -0.22331E-10         0.00000E+00
    0.49934E-08        -0.17272E-10         0.00000E+00
    0.49874E-08        -0.11260E-10         0.00000E+00
    0.49842E-08        -0.41521E-11         0.00000E+00
    0.53541E-08        -0.45827E-11         0.00000E+00
    0.53495E-08        -0.11479E-10         0.00000E+00
    0.53410E-08        -0.15893E-10         0.00000E+00
    0.53295E-08        -0.18497E-10         0.00000E+00
    0.53160E-08        -0.19802E-10         0.00000E+00
    0.53011E-08        -0.20183E-10         0.00000E+00
    0.52855E-08        -0.19904E-10         0.00000E+00
    0.52698E-08        -0.19140E-10         0.00000E+00
    0.52546E-08        -0.17995E-10         0.00000E+00
    0.52403E-08        -0.16514E-10         0.00000E+00
    0.52274E-08        -0.14696E-10         0.00000E+00
    0.52164E-08        -0.12493E-10         0.00000E+00
    0.52076E-08        -0.98171E-11         0.00000E+00
    0.52015E-08        -0.65384E-11         0.00000E+00
    0.51982E-08        -0.24861E-11         0.00000E+00
    0.55536E-08        -0.20316E-11         0.00000E+00
    0.55487E-08        -0.45494E-11         0.00000E+00
    0.55398E-08        -0.55416E-11         0.00000E+00
    0.55280E-08        -0.56124E-11         0.00000E+00
    0.55140E-08        -0.51934E-11         0.00000E+00
    0.54987E-08        -0.45779E-11         0.00000E+00
    0.54827E-08        -0.39509E-11         0.00000E+00
    0.54667E-08        -0.34165E-11         0.00000E+00
    0.54512E-08        -0.30183E-11         0.00000E+00
    0.54368E-08        -0.27541E-11         0.00000E+00
    0.54237E-08        -0.25837E-11         0.00000E+00
    0.54126E-08        -0.24321E-11         0.00000E+00
    0.54036E-08        -0.21881E-11         0.00000E+00
    0.53973E-08        -0.17007E-11         0.00000E+00
    0.53940E-08        -0.77619E-12         0.00000E+00
    0.57318E-08         0.64464E-12         0.00000E+00
    0.57267E-08         0.26726E-11         0.00000E+00
    0.57176E-08         0.51749E-11         0.00000E+00
    0.57055E-08         0.76416E-11         0.00000E+00
    0.56913E-08         0.97448E-11         0.00000E+00
    0.56758E-08         0.11295E-10         0.00000E+00
    0.56598E-08         0.12205E-10         0.00000E+00
    0.56438E-08         0.12452E-10         0.00000E+00
    0.56283E-08         0.12060E-10         0.00000E+00
    0.56139E-08         0.11083E-10         0.00000E+00
    0.56009E-08         0.95936E-11         0.00000E+00
    0.55898E-08         0.76909E-11         0.00000E+00
    0.55809E-08         0.55005E-11         0.00000E+00
    0.55746E-08         0.31856E-11         0.00000E+00
    0.55713E-08         0.95604E-12         0.00000E+00
    0.58878E-08         0.34194E-11         0.00000E+00
    0.58826E-08         0.10100E-10         0.00000E+00
    0.58734E-08         0.16104E-10         0.00000E+00
    0.58612E-08         0.21049E-10         0.00000E+00
    0.58471E-08         0.24743E-10         0.00000E+00
    0.58318E-08         0.27127E-10         0.00000E+00
    0.58160E-08         0.28229E-10         0.00000E+00
    0.58004E-08         0.28126E-10         0.00000E+00
    0.57853E-08         0.26915E-10         0.00000E+00
    0.57713E-08         0.24698E-10         0.00000E+00
    0.57587E-08         0.21581E-10         0.00000E+00
    0.57479E-08         0.17674E-10         0.00000E+00
    0.57392E-08         0.13104E-10         0.00000E+00
    0.57331E-08         0.80366E-11         0.00000E+00
    0.57298E-08         0.26844E-11         0.00000E+00
    0.60205E-08         0.62557E-11         0.00000E+00
    0.60154E-08         0.17613E-10         0.00000E+00
    0.60062E-08         0.27040E-10         0.00000E+00
    0.59943E-08         0.34323E-10         0.00000E+00
    0.59805E-08         0.39445E-10         0.00000E+00
    0.59658E-08         0.42512E-10         0.00000E+00
    0.59508E-08         0.43692E-10         0.00000E+00
    0.59361E-08         0.43173E-10         0.00000E+00
    0.59219E-08         0.41132E-10         0.00000E+00
    0.59088E-08         0.37718E-10         0.00000E+00
    0.58969E-08         0.33059E-10         0.00000E+00
    0.58867E-08         0.27263E-10         0.00000E+00
    0.58785E-08         0.20445E-10         0.00000E+00
    0.58727E-08         0.12749E-10         0.00000E+00
    0.58696E-08         0.43768E-11         0.00000E+00
    0.61290E-08         0.91032E-11         0.00000E+00
    0.61240E-08         0.25050E-10         0.00000E+00
    0.61152E-08         0.37706E-10         0.00000E+00
    0.61039E-08         0.47083E-10         0.00000E+00
    0.60910E-08         0.53389E-10         0.00000E+00
    0.60775E-08         0.56931E-10         0.00000E+00
    0.60639E-08         0.58048E-10         0.00000E+00
    0.60505E-08         0.57050E-10         0.00000E+00
    0.60379E-08         0.54194E-10         0.00000E+00
    0.60261E-08         0.49676E-10         0.00000E+00
    0.60155E-08         0.43630E-10         0.00000E+00
    0.60064E-08         0.36145E-10         0.00000E+00
    0.59989E-08         0.27300E-10         0.00000E+00
    0.59935E-08         0.17195E-10         0.00000E+00
    0.59906E-08         0.59951E-11         0.00000E+00
    0.62124E-08         0.11893E-10         0.00000E+00
    0.62076E-08         0.32195E-10         0.00000E+00
    0.61995E-08         0.47736E-10         0.00000E+00
    0.61892E-08         0.58831E-10         0.00000E+00
    0.61779E-08         0.65975E-10         0.00000E+00
    0.61663E-08         0.69726E-10         0.00000E+00
    0.61548E-08         0.70613E-10         0.00000E+00
    0.61437E-08         0.69081E-10         0.00000E+00
    0.61332E-08         0.65467E-10         0.00000E+00
    0.61235E-08         0.60000E-10         0.00000E+00
    0.61147E-08         0.52807E-10         0.00000E+00
    0.61071E-08         0.43937E-10         0.00000E+00
    0.61007E-08         0.33401E-10         0.00000E+00
    0.60961E-08         0.21221E-10         0.00000E+00
    0.60935E-08         0.74928E-11         0.00000E+00
    0.62694E-08         0.14533E-10         0.00000E+00
    0.62652E-08         0.38751E-10         0.00000E+00
    0.62582E-08         0.56638E-10         0.00000E+00
    0.62497E-08         0.68910E-10         0.00000E+00
    0.62408E-08         0.76436E-10         0.00000E+00
    0.62319E-08         0.80068E-10         0.00000E+00
    0.62234E-08         0.80545E-10         0.00000E+00
    0.62154E-08         0.78448E-10         0.00000E+00
    0.62080E-08         0.74184E-10         0.00000E+00
    0.62012E-08         0.68001E-10         0.00000E+00
    0.61949E-08         0.60000E-10         0.00000E+00
    0.61893E-08         0.50168E-10         0.00000E+00
    0.61846E-08         0.38414E-10         0.00000E+00
    0.61809E-08         0.24638E-10         0.00000E+00
    0.61788E-08         0.88142E-11         0.00000E+00
    0.62991E-08         0.16893E-10         0.00000E+00
    0.62958E-08         0.44310E-10         0.00000E+00
    0.62905E-08         0.63741E-10         0.00000E+00
    0.62847E-08         0.76455E-10         0.00000E+00
    0.62791E-08         0.83789E-10         0.00000E+00
    0.62741E-08         0.86930E-10         0.00000E+00
    0.62698E-08         0.86829E-10         0.00000E+00
    0.62660E-08         0.84181E-10         0.00000E+00
    0.62627E-08         0.79443E-10         0.00000E+00
    0.62596E-08         0.72864E-10         0.00000E+00
    0.62567E-08         0.64504E-10         0.00000E+00
    0.62539E-08         0.54267E-10         0.00000E+00
    0.62512E-08         0.41928E-10         0.00000E+00
    0.62490E-08         0.27208E-10         0.00000E+00
    0.62475E-08         0.98907E-11         0.00000E+00
    0.63003E-08         0.18786E-10         0.00000E+00
    0.62982E-08         0.48285E-10         0.00000E+00
    0.62956E-08         0.68111E-10         0.00000E+00
    0.62937E-08         0.80308E-10         0.00000E+00
    0.62928E-08         0.86784E-10         0.00000E+00
    0.62931E-08         0.89067E-10         0.00000E+00
    0.62942E-08         0.88273E-10         0.00000E+00
    0.62959E-08         0.85165E-10         0.00000E+00
    0.62977E-08         0.80215E-10         0.00000E+00
    0.62995E-08         0.73650E-10         0.00000E+00
    0.63009E-08         0.65485E-10         0.00000E+00
    0.63017E-08         0.55533E-10         0.00000E+00
    0.63018E-08         0.43420E-10         0.00000E+00
    0.63014E-08         0.28626E-10         0.00000E+00
    0.63008E-08         0.10634E-10         0.00000E+00
    0.62713E-08         0.19921E-10         0.00000E+00
    0.62713E-08         0.49770E-10         0.00000E+00
    0.62728E-08         0.68386E-10         0.00000E+00
    0.62764E-08         0.78907E-10         0.00000E+00
    0.62820E-08         0.83858E-10         0.00000E+00
    0.62892E-08         0.85008E-10         0.00000E+00
    0.62973E-08         0.83533E-10         0.00000E+00
    0.63057E-08         0.80178E-10         0.00000E+00
    0.63140E-08         0.75377E-10         0.00000E+00
    0.63217E-08         0.69318E-10         0.00000E+00
    0.63285E-08         0.61976E-10         0.00000E+00
    0.63339E-08         0.53103E-10         0.00000E+00
    0.63377E-08         0.42197E-10         0.00000E+00
    0.63397E-08         0.28461E-10         0.00000E+00
    0.63404E-08         0.10922E-10         0.00000E+00
    0.62103E-08         0.19779E-10         0.00000E+00
    0.62137E-08         0.47242E-10         0.00000E+00
    0.62214E-08         0.62501E-10         0.00000E+00
    0.62330E-08         0.70154E-10         0.00000E+00
    0.62474E-08         0.73111E-10         0.00000E+00
    0.62634E-08         0.73108E-10         0.00000E+00
    0.62800E-08         0.71186E-10         0.00000E+00
    0.62965E-08         0.67964E-10         0.00000E+00
    0.63124E-08         0.63782E-10         0.00000E+00
    0.63272E-08         0.58777E-10         0.00000E+00
    0.63404E-08         0.52902E-10         0.00000E+00
    0.63516E-08         0.45911E-10         0.00000E+00
    0.63602E-08         0.37279E-10         0.00000E+00
    0.63658E-08         0.26047E-10         0.00000E+00
    0.63682E-08         0.10546E-10         0.00000E+00
    0.61142E-08         0.17292E-10         0.00000E+00
    0.61237E-08         0.37726E-10         0.00000E+00
    0.61416E-08         0.47291E-10         0.00000E+00
    0.61647E-08         0.51367E-10         0.00000E+00
    0.61904E-08         0.52406E-10         0.00000E+00
    0.62171E-08         0.51670E-10         0.00000E+00
    0.62437E-08         0.49853E-10         0.00000E+00
    0.62696E-08         0.47349E-10         0.00000E+00
    0.62941E-08         0.44366E-10         0.00000E+00
    0.63169E-08         0.40979E-10         0.00000E+00
    0.63376E-08         0.37152E-10         0.00000E+00
    0.63558E-08         0.32710E-10         0.00000E+00
    0.63707E-08         0.27266E-10         0.00000E+00
    0.63815E-08         0.20028E-10         0.00000E+00
    0.63869E-08         0.91799E-11         0.00000E+00
    0.59776E-08         0.76395E-11         0.00000E+00
    0.60012E-08         0.15358E-10         0.00000E+00
    0.60355E-08         0.18439E-10         0.00000E+00
    0.60739E-08         0.19547E-10         0.00000E+00
    0.61134E-08         0.19643E-10         0.00000E+00
    0.61525E-08         0.19178E-10         0.00000E+00
    0.61904E-08         0.18388E-10         0.00000E+00
    0.62264E-08         0.17403E-10         0.00000E+00
    0.62603E-08         0.16289E-10         0.00000E+00
    0.62918E-08         0.15071E-10         0.00000E+00
    0.63208E-08         0.13735E-10         0.00000E+00
    0.63470E-08         0.12220E-10         0.00000E+00
    0.63698E-08         0.10391E-10         0.00000E+00
    0.63884E-08         0.79413E-11         0.00000E+00
    0.64007E-08         0.41002E-11         0.00000E+00
POINT_DATA        496
VECTORS vDarcyNodal double 
    0.19164E-09        -0.24229E-10         0.00000E+00
    0.19157E-09        -0.45064E-10         0.00000E+00
    0.19138E-09        -0.82350E-10         0.00000E+00
    0.19109E-09        -0.11124E-09         0.00000E+00
    0.19072E-09        -0.13242E-09         0.00000E+00
    0.19028E-09        -0.14656E-09         0.00000E+00
    0.18981E-09        -0.15423E-09         0.00000E+00
    0.18931E-09        -0.15596E-09         0.00000E+00
    0.18881E-09        -0.15222E-09         0.00000E+00
    0.18832E-09        -0.14341E-09         0.00000E+00
    0.18787E-09        -0.12988E-09         0.00000E+00
    0.18747E-09        -0.11192E-09         0.00000E+00
    0.18713E-09        -0.89769E-10         0.00000E+00
    0.18687E-09        -0.63627E-10         0.00000E+00
    0.18671E-09        -0.33636E-10         0.00000E+00
    0.18665E-09        -0.17693E-10         0.00000E+00
    0.38295E-09        -0.24163E-10         0.00000E+00
    0.38281E-09        -0.44939E-10         0.00000E+00
    0.38243E-09        -0.82115E-10         0.00000E+00
    0.38185E-09        -0.11091E-09         0.00000E+00
    0.38110E-09        -0.13203E-09         0.00000E+00
    0.38023E-09        -0.14611E-09         0.00000E+00
    0.37928E-09        -0.15375E-09         0.00000E+00
    0.37829E-09        -0.15547E-09         0.00000E+00
    0.37728E-09        -0.15173E-09         0.00000E+00
    0.37631E-09        -0.14294E-09         0.00000E+00
    0.37541E-09        -0.12945E-09         0.00000E+00
    0.37460E-09        -0.11155E-09         0.00000E+00
    0.37392E-09        -0.89474E-10         0.00000E+00
    0.37341E-09        -0.63417E-10         0.00000E+00
    0.37308E-09        -0.33525E-10         0.00000E+00
    0.37296E-09        -0.17635E-10         0.00000E+00
    0.76458E-09        -0.23965E-10         0.00000E+00
    0.76430E-09        -0.44562E-10         0.00000E+00
    0.76354E-09        -0.81408E-10         0.00000E+00
    0.76237E-09        -0.10993E-09         0.00000E+00
    0.76087E-09        -0.13083E-09         0.00000E+00
    0.75913E-09        -0.14476E-09         0.00000E+00
    0.75723E-09        -0.15230E-09         0.00000E+00
    0.75523E-09        -0.15398E-09         0.00000E+00
    0.75322E-09        -0.15026E-09         0.00000E+00
    0.75128E-09        -0.14155E-09         0.00000E+00
    0.74947E-09        -0.12818E-09         0.00000E+00
    0.74785E-09        -0.11045E-09         0.00000E+00
    0.74650E-09        -0.88587E-10         0.00000E+00
    0.74547E-09        -0.62789E-10         0.00000E+00
    0.74480E-09        -0.33194E-10         0.00000E+00
    0.74457E-09        -0.17462E-10         0.00000E+00
    0.11436E-08        -0.23634E-10         0.00000E+00
    0.11431E-08        -0.43932E-10         0.00000E+00
    0.11420E-08        -0.80226E-10         0.00000E+00
    0.11402E-08        -0.10829E-09         0.00000E+00
    0.11380E-08        -0.12883E-09         0.00000E+00
    0.11354E-08        -0.14250E-09         0.00000E+00
    0.11325E-08        -0.14988E-09         0.00000E+00
    0.11295E-08        -0.15150E-09         0.00000E+00
    0.11265E-08        -0.14781E-09         0.00000E+00
    0.11236E-08        -0.13921E-09         0.00000E+00
    0.11208E-08        -0.12605E-09         0.00000E+00
    0.11184E-08        -0.10861E-09         0.00000E+00
    0.11164E-08        -0.87109E-10         0.00000E+00
    0.11148E-08        -0.61742E-10         0.00000E+00
    0.11138E-08        -0.32642E-10         0.00000E+00
    0.11135E-08        -0.17172E-10         0.00000E+00
    0.15186E-08        -0.23168E-10         0.00000E+00
    0.15180E-08        -0.43045E-10         0.00000E+00
    0.15165E-08        -0.78563E-10         0.00000E+00
    0.15141E-08        -0.10598E-09         0.00000E+00
    0.15111E-08        -0.12602E-09         0.00000E+00
    0.15076E-08        -0.13933E-09         0.00000E+00
    0.15038E-08        -0.14648E-09         0.00000E+00
    0.14997E-08        -0.14801E-09         0.00000E+00
    0.14957E-08        -0.14437E-09         0.00000E+00
    0.14918E-08        -0.13594E-09         0.00000E+00
    0.14882E-08        -0.12307E-09         0.00000E+00
    0.14849E-08        -0.10603E-09         0.00000E+00
    0.14822E-08        -0.85038E-10         0.00000E+00
    0.14802E-08        -0.60275E-10         0.00000E+00
    0.14788E-08        -0.31868E-10         0.00000E+00
    0.14784E-08        -0.16767E-10         0.00000E+00
    0.18883E-08        -0.22564E-10         0.00000E+00
    0.18876E-08        -0.41896E-10         0.00000E+00
    0.18857E-08        -0.76411E-10         0.00000E+00
    0.18827E-08        -0.10300E-09         0.00000E+00
    0.18789E-08        -0.12239E-09         0.00000E+00
    0.18745E-08        -0.13523E-09         0.00000E+00
    0.18697E-08        -0.14210E-09         0.00000E+00
    0.18647E-08        -0.14352E-09         0.00000E+00
    0.18596E-08        -0.13993E-09         0.00000E+00
    0.18547E-08        -0.13173E-09         0.00000E+00
    0.18502E-08        -0.11923E-09         0.00000E+00
    0.18461E-08        -0.10271E-09         0.00000E+00
    0.18427E-08        -0.82372E-10         0.00000E+00
    0.18401E-08        -0.58388E-10         0.00000E+00
    0.18385E-08        -0.30874E-10         0.00000E+00
    0.18379E-08        -0.16246E-10         0.00000E+00
    0.22515E-08        -0.21820E-10         0.00000E+00
    0.22506E-08        -0.40481E-10         0.00000E+00
    0.22483E-08        -0.73761E-10         0.00000E+00
    0.22447E-08        -0.99336E-10         0.00000E+00
    0.22401E-08        -0.11793E-09         0.00000E+00
    0.22348E-08        -0.13020E-09         0.00000E+00
    0.22290E-08        -0.13672E-09         0.00000E+00
    0.22229E-08        -0.13800E-09         0.00000E+00
    0.22169E-08        -0.13449E-09         0.00000E+00
    0.22110E-08        -0.12656E-09         0.00000E+00
    0.22055E-08        -0.11453E-09         0.00000E+00
    0.22006E-08        -0.98644E-10         0.00000E+00
    0.21966E-08        -0.79111E-10         0.00000E+00
    0.21935E-08        -0.56081E-10         0.00000E+00
    0.21915E-08        -0.29659E-10         0.00000E+00
    0.21908E-08        -0.15610E-10         0.00000E+00
    0.26067E-08        -0.20931E-10         0.00000E+00
    0.26057E-08        -0.38792E-10         0.00000E+00
    0.26030E-08        -0.70602E-10         0.00000E+00
    0.25988E-08        -0.94969E-10         0.00000E+00
    0.25934E-08        -0.11262E-09         0.00000E+00
    0.25872E-08        -0.12422E-09         0.00000E+00
    0.25804E-08        -0.13033E-09         0.00000E+00
    0.25733E-08        -0.13146E-09         0.00000E+00
    0.25661E-08        -0.12804E-09         0.00000E+00
    0.25593E-08        -0.12044E-09         0.00000E+00
    0.25529E-08        -0.10896E-09         0.00000E+00
    0.25472E-08        -0.93836E-10         0.00000E+00
    0.25424E-08        -0.75255E-10         0.00000E+00
    0.25388E-08        -0.53354E-10         0.00000E+00
    0.25365E-08        -0.28223E-10         0.00000E+00
    0.25357E-08        -0.14859E-10         0.00000E+00
    0.29529E-08        -0.19893E-10         0.00000E+00
    0.29517E-08        -0.36824E-10         0.00000E+00
    0.29485E-08        -0.66923E-10         0.00000E+00
    0.29437E-08        -0.89888E-10         0.00000E+00
    0.29375E-08        -0.10645E-09         0.00000E+00
    0.29303E-08        -0.11727E-09         0.00000E+00
    0.29225E-08        -0.12291E-09         0.00000E+00
    0.29144E-08        -0.12388E-09         0.00000E+00
    0.29062E-08        -0.12058E-09         0.00000E+00
    0.28983E-08        -0.11337E-09         0.00000E+00
    0.28910E-08        -0.10253E-09         0.00000E+00
    0.28845E-08        -0.88284E-10         0.00000E+00
    0.28791E-08        -0.70806E-10         0.00000E+00
    0.28750E-08        -0.50209E-10         0.00000E+00
    0.28723E-08        -0.26568E-10         0.00000E+00
    0.28714E-08        -0.13993E-10         0.00000E+00
    0.32886E-08        -0.18703E-10         0.00000E+00
    0.32873E-08        -0.34567E-10         0.00000E+00
    0.32837E-08        -0.62712E-10         0.00000E+00
    0.32782E-08        -0.84081E-10         0.00000E+00
    0.32712E-08        -0.99413E-10         0.00000E+00
    0.32631E-08        -0.10936E-09         0.00000E+00
    0.32542E-08        -0.11448E-09         0.00000E+00
    0.32450E-08        -0.11525E-09         0.00000E+00
    0.32358E-08        -0.11210E-09         0.00000E+00
    0.32270E-08        -0.10533E-09         0.00000E+00
    0.32187E-08        -0.95231E-10         0.00000E+00
    0.32114E-08        -0.81993E-10         0.00000E+00
    0.32053E-08        -0.65767E-10         0.00000E+00
    0.32007E-08        -0.46650E-10         0.00000E+00
    0.31978E-08        -0.24697E-10         0.00000E+00
    0.31967E-08        -0.13015E-10         0.00000E+00
    0.36127E-08        -0.17356E-10         0.00000E+00
    0.36112E-08        -0.32017E-10         0.00000E+00
    0.36071E-08        -0.57959E-10         0.00000E+00
    0.36010E-08        -0.77537E-10         0.00000E+00
    0.35931E-08        -0.91490E-10         0.00000E+00
    0.35841E-08        -0.10046E-09         0.00000E+00
    0.35743E-08        -0.10501E-09         0.00000E+00
    0.35640E-08        -0.10559E-09         0.00000E+00
    0.35538E-08        -0.10260E-09         0.00000E+00
    0.35439E-08        -0.96351E-10         0.00000E+00
    0.35348E-08        -0.87080E-10         0.00000E+00
    0.35267E-08        -0.74970E-10         0.00000E+00
    0.35200E-08        -0.60146E-10         0.00000E+00
    0.35148E-08        -0.42684E-10         0.00000E+00
    0.35116E-08        -0.22613E-10         0.00000E+00
    0.35104E-08        -0.11926E-10         0.00000E+00
    0.39239E-08        -0.15847E-10         0.00000E+00
    0.39222E-08        -0.29165E-10         0.00000E+00
    0.39177E-08        -0.52654E-10         0.00000E+00
    0.39109E-08        -0.70247E-10         0.00000E+00
    0.39022E-08        -0.82680E-10         0.00000E+00
    0.38922E-08        -0.90589E-10         0.00000E+00
    0.38814E-08        -0.94513E-10         0.00000E+00
    0.38701E-08        -0.94899E-10         0.00000E+00
    0.38589E-08        -0.92110E-10         0.00000E+00
    0.38481E-08        -0.86434E-10         0.00000E+00
    0.38381E-08        -0.78089E-10         0.00000E+00
    0.38292E-08        -0.67231E-10         0.00000E+00
    0.38218E-08        -0.53957E-10         0.00000E+00
    0.38162E-08        -0.38319E-10         0.00000E+00
    0.38126E-08        -0.20321E-10         0.00000E+00
    0.38114E-08        -0.10730E-10         0.00000E+00
    0.42210E-08        -0.14174E-10         0.00000E+00
    0.42192E-08        -0.26008E-10         0.00000E+00
    0.42142E-08        -0.46793E-10         0.00000E+00
    0.42067E-08        -0.62209E-10         0.00000E+00
    0.41972E-08        -0.72986E-10         0.00000E+00
    0.41863E-08        -0.79747E-10         0.00000E+00
    0.41745E-08        -0.83009E-10         0.00000E+00
    0.41622E-08        -0.83195E-10         0.00000E+00
    0.41500E-08        -0.80641E-10         0.00000E+00
    0.41383E-08        -0.75608E-10         0.00000E+00
    0.41274E-08        -0.68285E-10         0.00000E+00
    0.41178E-08        -0.58799E-10         0.00000E+00
    0.41098E-08        -0.47220E-10         0.00000E+00
    0.41037E-08        -0.33570E-10         0.00000E+00
    0.40999E-08        -0.17828E-10         0.00000E+00
    0.40985E-08        -0.94295E-11         0.00000E+00
    0.45028E-08        -0.12335E-10         0.00000E+00
    0.45009E-08        -0.22543E-10         0.00000E+00
    0.44955E-08        -0.40375E-10         0.00000E+00
    0.44873E-08        -0.53429E-10         0.00000E+00
    0.44770E-08        -0.62423E-10         0.00000E+00
    0.44652E-08        -0.67958E-10         0.00000E+00
    0.44524E-08        -0.70525E-10         0.00000E+00
    0.44392E-08        -0.70516E-10         0.00000E+00
    0.44261E-08        -0.68238E-10         0.00000E+00
    0.44135E-08        -0.63915E-10         0.00000E+00
    0.44018E-08        -0.57707E-10         0.00000E+00
    0.43915E-08        -0.49709E-10         0.00000E+00
    0.43830E-08        -0.39962E-10         0.00000E+00
    0.43765E-08        -0.28458E-10         0.00000E+00
    0.43723E-08        -0.15147E-10         0.00000E+00
    0.43709E-08        -0.80312E-11         0.00000E+00
    0.47683E-08        -0.10328E-10         0.00000E+00
    0.47662E-08        -0.18772E-10         0.00000E+00
    0.47603E-08        -0.33409E-10         0.00000E+00
    0.47515E-08        -0.43924E-10         0.00000E+00
    0.47405E-08        -0.51018E-10         0.00000E+00
    0.47278E-08        -0.55262E-10         0.00000E+00
    0.47142E-08        -0.57111E-10         0.00000E+00
    0.47001E-08        -0.56922E-10         0.00000E+00
    0.46861E-08        -0.54960E-10         0.00000E+00
    0.46727E-08        -0.51417E-10         0.00000E+00
    0.46603E-08        -0.46413E-10         0.00000E+00
    0.46494E-08        -0.40012E-10         0.00000E+00
    0.46403E-08        -0.32224E-10         0.00000E+00
    0.46334E-08        -0.23010E-10         0.00000E+00
    0.46291E-08        -0.12290E-10         0.00000E+00
    0.46275E-08        -0.65420E-11         0.00000E+00
    0.50162E-08        -0.81564E-11         0.00000E+00
    0.50139E-08        -0.14701E-10         0.00000E+00
    0.50077E-08        -0.25910E-10         0.00000E+00
    0.49983E-08        -0.33728E-10         0.00000E+00
    0.49865E-08        -0.38822E-10         0.00000E+00
    0.49731E-08        -0.41724E-10         0.00000E+00
    0.49586E-08        -0.42846E-10         0.00000E+00
    0.49438E-08        -0.42496E-10         0.00000E+00
    0.49290E-08        -0.40898E-10         0.00000E+00
    0.49149E-08        -0.38199E-10         0.00000E+00
    0.49019E-08        -0.34483E-10         0.00000E+00
    0.48905E-08        -0.29777E-10         0.00000E+00
    0.48810E-08        -0.24060E-10         0.00000E+00
    0.48738E-08        -0.17264E-10         0.00000E+00
    0.48692E-08        -0.92779E-11         0.00000E+00
    0.48676E-08        -0.49717E-11         0.00000E+00
    0.52455E-08        -0.58243E-11         0.00000E+00
    0.52431E-08        -0.10343E-10         0.00000E+00
    0.52365E-08        -0.17911E-10         0.00000E+00
    0.52265E-08        -0.22892E-10         0.00000E+00
    0.52141E-08        -0.25909E-10         0.00000E+00
    0.52000E-08        -0.27440E-10         0.00000E+00
    0.51849E-08        -0.27839E-10         0.00000E+00
    0.51694E-08        -0.27361E-10         0.00000E+00
    0.51541E-08        -0.26175E-10         0.00000E+00
    0.51394E-08        -0.24382E-10         0.00000E+00
    0.51260E-08        -0.22025E-10         0.00000E+00
    0.51141E-08        -0.19097E-10         0.00000E+00
    0.51042E-08        -0.15543E-10         0.00000E+00
    0.50968E-08        -0.11268E-10         0.00000E+00
    0.50920E-08        -0.61341E-11         0.00000E+00
    0.50904E-08        -0.33324E-11         0.00000E+00
    0.54551E-08        -0.33412E-11         0.00000E+00
    0.54526E-08        -0.57189E-11         0.00000E+00
    0.54456E-08        -0.94607E-11         0.00000E+00
    0.54352E-08        -0.11498E-10         0.00000E+00
    0.54223E-08        -0.12390E-10         0.00000E+00
    0.54077E-08        -0.12545E-10         0.00000E+00
    0.53921E-08        -0.12248E-10         0.00000E+00
    0.53761E-08        -0.11683E-10         0.00000E+00
    0.53604E-08        -0.10960E-10         0.00000E+00
    0.53454E-08        -0.10127E-10         0.00000E+00
    0.53316E-08        -0.91853E-11         0.00000E+00
    0.53195E-08        -0.80925E-11         0.00000E+00
    0.53095E-08        -0.67671E-11         0.00000E+00
    0.53018E-08        -0.50874E-11         0.00000E+00
    0.52970E-08        -0.28904E-11         0.00000E+00
    0.52953E-08        -0.16397E-11         0.00000E+00
    0.56440E-08        -0.72206E-12         0.00000E+00
    0.56413E-08        -0.86229E-12         0.00000E+00
    0.56341E-08        -0.63068E-12         0.00000E+00
    0.56234E-08         0.34307E-12         0.00000E+00
    0.56101E-08         0.15835E-11         0.00000E+00
    0.55952E-08         0.27734E-11         0.00000E+00
    0.55793E-08         0.37186E-11         0.00000E+00
    0.55632E-08         0.43152E-11         0.00000E+00
    0.55473E-08         0.45246E-11         0.00000E+00
    0.55322E-08         0.43543E-11         0.00000E+00
    0.55184E-08         0.38471E-11         0.00000E+00
    0.55062E-08         0.30764E-11         0.00000E+00
    0.54961E-08         0.21467E-11         0.00000E+00
    0.54884E-08         0.11984E-11         0.00000E+00
    0.54835E-08         0.41346E-12         0.00000E+00
    0.54818E-08         0.87272E-13         0.00000E+00
    0.58112E-08         0.20112E-11         0.00000E+00
    0.58084E-08         0.41793E-11         0.00000E+00
    0.58010E-08         0.84778E-11         0.00000E+00
    0.57901E-08         0.12473E-10         0.00000E+00
    0.57767E-08         0.15802E-10         0.00000E+00
    0.57617E-08         0.18266E-10         0.00000E+00
    0.57459E-08         0.19781E-10         0.00000E+00
    0.57299E-08         0.20341E-10         0.00000E+00
    0.57142E-08         0.19987E-10         0.00000E+00
    0.56994E-08         0.18788E-10         0.00000E+00
    0.56858E-08         0.16829E-10         0.00000E+00
    0.56738E-08         0.14208E-10         0.00000E+00
    0.56639E-08         0.11044E-10         0.00000E+00
    0.56563E-08         0.74875E-11         0.00000E+00
    0.56514E-08         0.37281E-11         0.00000E+00
    0.56497E-08         0.18248E-11         0.00000E+00
    0.59556E-08         0.48275E-11         0.00000E+00
    0.59527E-08         0.93397E-11         0.00000E+00
    0.59453E-08         0.17726E-10         0.00000E+00
    0.59344E-08         0.24680E-10         0.00000E+00
    0.59211E-08         0.29989E-10         0.00000E+00
    0.59065E-08         0.33603E-10         0.00000E+00
    0.58911E-08         0.35574E-10         0.00000E+00
    0.58757E-08         0.36014E-10         0.00000E+00
    0.58607E-08         0.35053E-10         0.00000E+00
    0.58465E-08         0.32825E-10         0.00000E+00
    0.58336E-08         0.29450E-10         0.00000E+00
    0.58221E-08         0.25047E-10         0.00000E+00
    0.58126E-08         0.19733E-10         0.00000E+00
    0.58052E-08         0.13653E-10         0.00000E+00
    0.58005E-08         0.69927E-11         0.00000E+00
    0.57988E-08         0.35439E-11         0.00000E+00
    0.60762E-08         0.76839E-11         0.00000E+00
    0.60734E-08         0.14529E-10         0.00000E+00
    0.60660E-08         0.26926E-10         0.00000E+00
    0.60554E-08         0.36682E-10         0.00000E+00
    0.60427E-08         0.43778E-10         0.00000E+00
    0.60288E-08         0.48354E-10         0.00000E+00
    0.60145E-08         0.50629E-10         0.00000E+00
    0.60002E-08         0.50851E-10         0.00000E+00
    0.59864E-08         0.49251E-10         0.00000E+00
    0.59734E-08         0.46025E-10         0.00000E+00
    0.59615E-08         0.41326E-10         0.00000E+00
    0.59510E-08         0.35275E-10         0.00000E+00
    0.59421E-08         0.27974E-10         0.00000E+00
    0.59353E-08         0.19540E-10         0.00000E+00
    0.59309E-08         0.10133E-10         0.00000E+00
    0.59293E-08         0.52097E-11         0.00000E+00
    0.61721E-08         0.10522E-10         0.00000E+00
    0.61693E-08         0.19624E-10         0.00000E+00
    0.61623E-08         0.35830E-10         0.00000E+00
    0.61524E-08         0.48107E-10         0.00000E+00
    0.61407E-08         0.56693E-10         0.00000E+00
    0.61282E-08         0.61966E-10         0.00000E+00
    0.61155E-08         0.64350E-10         0.00000E+00
    0.61031E-08         0.64246E-10         0.00000E+00
    0.60911E-08         0.61992E-10         0.00000E+00
    0.60799E-08         0.57845E-10         0.00000E+00
    0.60697E-08         0.51979E-10         0.00000E+00
    0.60606E-08         0.44500E-10         0.00000E+00
    0.60528E-08         0.35472E-10         0.00000E+00
    0.60468E-08         0.24956E-10         0.00000E+00
    0.60428E-08         0.13057E-10         0.00000E+00
    0.60413E-08         0.67803E-11         0.00000E+00
    0.62422E-08         0.13264E-10         0.00000E+00
    0.62396E-08         0.24463E-10         0.00000E+00
    0.62332E-08         0.44101E-10         0.00000E+00
    0.62245E-08         0.58460E-10         0.00000E+00
    0.62145E-08         0.68112E-10         0.00000E+00
    0.62042E-08         0.73735E-10         0.00000E+00
    0.61940E-08         0.75989E-10         0.00000E+00
    0.61842E-08         0.75447E-10         0.00000E+00
    0.61749E-08         0.72555E-10         0.00000E+00
    0.61663E-08         0.67622E-10         0.00000E+00
    0.61584E-08         0.60827E-10         0.00000E+00
    0.61513E-08         0.52243E-10         0.00000E+00
    0.61451E-08         0.41866E-10         0.00000E+00
    0.61402E-08         0.29667E-10         0.00000E+00
    0.61368E-08         0.15657E-10         0.00000E+00
    0.61355E-08         0.82052E-11         0.00000E+00
    0.62855E-08         0.15802E-10         0.00000E+00
    0.62832E-08         0.28820E-10         0.00000E+00
    0.62778E-08         0.51287E-10         0.00000E+00
    0.62709E-08         0.67088E-10         0.00000E+00
    0.62635E-08         0.77233E-10         0.00000E+00
    0.62563E-08         0.82768E-10         0.00000E+00
    0.62496E-08         0.84624E-10         0.00000E+00
    0.62435E-08         0.83546E-10         0.00000E+00
    0.62379E-08         0.80077E-10         0.00000E+00
    0.62328E-08         0.74563E-10         0.00000E+00
    0.62280E-08         0.67174E-10         0.00000E+00
    0.62236E-08         0.57925E-10         0.00000E+00
    0.62196E-08         0.46716E-10         0.00000E+00
    0.62162E-08         0.33385E-10         0.00000E+00
    0.62137E-08         0.17795E-10         0.00000E+00
    0.62126E-08         0.94232E-11         0.00000E+00
    0.63007E-08         0.17984E-10         0.00000E+00
    0.62989E-08         0.32383E-10         0.00000E+00
    0.62951E-08         0.56764E-10         0.00000E+00
    0.62910E-08         0.73109E-10         0.00000E+00
    0.62874E-08         0.83010E-10         0.00000E+00
    0.62846E-08         0.87950E-10         0.00000E+00
    0.62826E-08         0.89135E-10         0.00000E+00
    0.62813E-08         0.87464E-10         0.00000E+00
    0.62805E-08         0.83547E-10         0.00000E+00
    0.62799E-08         0.77744E-10         0.00000E+00
    0.62792E-08         0.70194E-10         0.00000E+00
    0.62784E-08         0.60846E-10         0.00000E+00
    0.62772E-08         0.49479E-10         0.00000E+00
    0.62758E-08         0.35751E-10         0.00000E+00
    0.62745E-08         0.19304E-10         0.00000E+00
    0.62738E-08         0.10358E-10         0.00000E+00
    0.62864E-08         0.19588E-10         0.00000E+00
    0.62854E-08         0.34688E-10         0.00000E+00
    0.62842E-08         0.59631E-10         0.00000E+00
    0.62842E-08         0.75310E-10         0.00000E+00
    0.62858E-08         0.84082E-10         0.00000E+00
    0.62890E-08         0.87901E-10         0.00000E+00
    0.62933E-08         0.88204E-10         0.00000E+00
    0.62982E-08         0.85974E-10         0.00000E+00
    0.63034E-08         0.81833E-10         0.00000E+00
    0.63084E-08         0.76121E-10         0.00000E+00
    0.63129E-08         0.68940E-10         0.00000E+00
    0.63165E-08         0.60172E-10         0.00000E+00
    0.63191E-08         0.49474E-10         0.00000E+00
    0.63204E-08         0.36294E-10         0.00000E+00
    0.63207E-08         0.19956E-10         0.00000E+00
    0.63205E-08         0.10910E-10         0.00000E+00
    0.62407E-08         0.20253E-10         0.00000E+00
    0.62411E-08         0.35002E-10         0.00000E+00
    0.62439E-08         0.58524E-10         0.00000E+00
    0.62502E-08         0.71983E-10         0.00000E+00
    0.62592E-08         0.78683E-10         0.00000E+00
    0.62702E-08         0.80965E-10         0.00000E+00
    0.62824E-08         0.80338E-10         0.00000E+00
    0.62949E-08         0.77738E-10         0.00000E+00
    0.63073E-08         0.73723E-10         0.00000E+00
    0.63191E-08         0.68574E-10         0.00000E+00
    0.63298E-08         0.62354E-10         0.00000E+00
    0.63390E-08         0.54907E-10         0.00000E+00
    0.63464E-08         0.45826E-10         0.00000E+00
    0.63515E-08         0.34364E-10         0.00000E+00
    0.63540E-08         0.19427E-10         0.00000E+00
    0.63545E-08         0.10934E-10         0.00000E+00
    0.61610E-08         0.19304E-10         0.00000E+00
    0.61637E-08         0.32019E-10         0.00000E+00
    0.61737E-08         0.51219E-10         0.00000E+00
    0.61893E-08         0.60672E-10         0.00000E+00
    0.62084E-08         0.64583E-10         0.00000E+00
    0.62294E-08         0.65255E-10         0.00000E+00
    0.62511E-08         0.63957E-10         0.00000E+00
    0.62726E-08         0.61412E-10         0.00000E+00
    0.62935E-08         0.58023E-10         0.00000E+00
    0.63131E-08         0.53985E-10         0.00000E+00
    0.63310E-08         0.49325E-10         0.00000E+00
    0.63470E-08         0.43907E-10         0.00000E+00
    0.63604E-08         0.37365E-10         0.00000E+00
    0.63705E-08         0.28962E-10         0.00000E+00
    0.63767E-08         0.17166E-10         0.00000E+00
    0.63782E-08         0.10159E-10         0.00000E+00
    0.60411E-08         0.15280E-10         0.00000E+00
    0.60510E-08         0.22999E-10         0.00000E+00
    0.60739E-08         0.33799E-10         0.00000E+00
    0.61032E-08         0.37988E-10         0.00000E+00
    0.61354E-08         0.39192E-10         0.00000E+00
    0.61684E-08         0.38822E-10         0.00000E+00
    0.62012E-08         0.37567E-10         0.00000E+00
    0.62329E-08         0.35791E-10         0.00000E+00
    0.62630E-08         0.33693E-10         0.00000E+00
    0.62913E-08         0.31361E-10         0.00000E+00
    0.63174E-08         0.28807E-10         0.00000E+00
    0.63410E-08         0.25956E-10         0.00000E+00
    0.63617E-08         0.22611E-10         0.00000E+00
    0.63788E-08         0.18332E-10         0.00000E+00
    0.63911E-08         0.12042E-10         0.00000E+00
    0.63963E-08         0.82006E-11         0.00000E+00
    0.59700E-08         0.00000E+00         0.00000E+00
    0.59856E-08         0.00000E+00         0.00000E+00
    0.60168E-08        -0.16571E-22         0.00000E+00
    0.60542E-08         0.10704E-26         0.00000E+00
    0.60936E-08         0.20715E-22         0.00000E+00
    0.61332E-08         0.00000E+00         0.00000E+00
    0.61718E-08         0.00000E+00         0.00000E+00
    0.62089E-08        -0.16575E-22         0.00000E+00
    0.62439E-08        -0.16575E-22         0.00000E+00
    0.62767E-08         0.16576E-22         0.00000E+00
    0.63070E-08         0.20720E-22         0.00000E+00
    0.63347E-08        -0.20722E-22         0.00000E+00
    0.63593E-08        -0.41439E-23         0.00000E+00
    0.63803E-08         0.20722E-22         0.00000E+00
    0.63964E-08         0.82892E-23         0.00000E+00
    0.64048E-08         0.00000E+00         0.00000E+00
CELL_DATA        450
TENSORS stressef double 
   -0.84128E+06        -0.21097E+04         0.00000E+00
   -0.21097E+04        -0.31790E+08         0.00000E+00
    0.00000E+00         0.00000E+00        -0.65263E+07
 
   -0.14968E+07        -0.52497E+04         0.00000E+00
   -0.52497E+04        -0.31804E+08         0.00000E+00
    0.00000E+00         0.00000E+00        -0.66602E+07
 
   -0.21036E+07        -0.68890E+04         0.00000E+00
   -0.68890E+04        -0.31828E+08         0.00000E+00
    0.00000E+00         0.00000E+00        -0.67863E+07
 
   -0.26673E+07        -0.69809E+04         0.00000E+00
   -0.69809E+04        -0.31857E+08         0.00000E+00
    0.00000E+00         0.00000E+00        -0.69049E+07
 
   -0.31934E+07        -0.54955E+04         0.00000E+00
   -0.54955E+04        -0.31889E+08         0.00000E+00
    0.00000E+00         0.00000E+00        -0.70164E+07
 
   -0.36876E+07        -0.24178E+04         0.00000E+00
   -0.24178E+04        -0.31917E+08         0.00000E+00
    0.00000E+00         0.00000E+00        -0.71210E+07
 
   -0.41556E+07         0.22542E+04         0.00000E+00
    0.22542E+04        -0.31939E+08         0.00000E+00
    0.00000E+00         0.00000E+00        -0.72190E+07
 
   -0.46029E+07         0.85124E+04         0.00000E+00
    0.85124E+04        -0.31950E+08         0.00000E+00
    0.00000E+00         0.00000E+00        -0.73107E+07
 
   -0.50352E+07         0.16340E+05         0.00000E+00
    0.16340E+05        -0.31947E+08         0.00000E+00
    0.00000E+00         0.00000E+00        -0.73965E+07
 
   -0.54576E+07         0.25716E+05         0.00000E+00
    0.25716E+05        -0.31925E+08         0.00000E+00
    0.00000E+00         0.00000E+00        -0.74766E+07
 
   -0.58755E+07         0.36616E+05         0.00000E+00
    0.36616E+05        -0.31881E+08         0.00000E+00
    0.00000E+00         0.00000E+00        -0.75514E+07
 
   -0.62939E+07         0.49015E+05         0.00000E+00
    0.49015E+05        -0.31812E+08         0.00000E+00
    0.00000E+00         0.00000E+00        -0.76211E+07
 
   -0.67178E+07         0.62894E+05         0.00000E+00
    0.62894E+05        -0.31713E+08         0.00000E+00
    0.00000E+00         0.00000E+00        -0.76861E+07
 
   -0.71519E+07         0.78239E+05         0.00000E+00
    0.78239E+05        -0.31581E+08         0.00000E+00
    0.00000E+00         0.00000E+00        -0.77465E+07
 
   -0.76009E+07         0.95045E+05         0.00000E+00
    0.95045E+05        -0.31412E+08         0.00000E+00
    0.00000E+00         0.00000E+00        -0.78026E+07
 
   -0.90274E+06        -0.63693E+04         0.00000E+00
   -0.63693E+04        -0.31844E+08         0.00000E+00
    0.00000E+00         0.00000E+00        -0.65494E+07
 
   -0.15553E+07        -0.15863E+05         0.00000E+00
   -0.15863E+05        -0.31858E+08         0.00000E+00
    0.00000E+00         0.00000E+00        -0.66826E+07
 
   -0.21590E+07        -0.20844E+05         0.00000E+00
   -0.20844E+05        -0.31882E+08         0.00000E+00
    0.00000E+00         0.00000E+00        -0.68082E+07
 
   -0.27194E+07        -0.21174E+05         0.00000E+00
   -0.21174E+05        -0.31912E+08         0.00000E+00
    0.00000E+00         0.00000E+00        -0.69263E+07
 
   -0.32422E+07        -0.16764E+05         0.00000E+00
   -0.16764E+05        -0.31943E+08         0.00000E+00
    0.00000E+00         0.00000E+00        -0.70371E+07
 
   -0.37331E+07        -0.75703E+04         0.00000E+00
   -0.75703E+04        -0.31973E+08         0.00000E+00
    0.00000E+00         0.00000E+00        -0.71411E+07
 
   -0.41978E+07         0.64115E+04         0.00000E+00
    0.64115E+04        -0.31995E+08         0.00000E+00
    0.00000E+00         0.00000E+00        -0.72386E+07
 
   -0.46419E+07         0.25155E+05         0.00000E+00
    0.25155E+05        -0.32007E+08         0.00000E+00
    0.00000E+00         0.00000E+00        -0.73297E+07
 
   -0.50708E+07         0.48610E+05         0.00000E+00
    0.48610E+05        -0.32004E+08         0.00000E+00
    0.00000E+00         0.00000E+00        -0.74150E+07
 
   -0.54901E+07         0.76710E+05         0.00000E+00
    0.76710E+05        -0.31983E+08         0.00000E+00
    0.00000E+00         0.00000E+00        -0.74946E+07
 
   -0.59048E+07         0.10938E+06         0.00000E+00
    0.10938E+06        -0.31940E+08         0.00000E+00
    0.00000E+00         0.00000E+00        -0.75690E+07
 
   -0.63202E+07         0.14655E+06         0.00000E+00
    0.14655E+06        -0.31871E+08         0.00000E+00
    0.00000E+00         0.00000E+00        -0.76382E+07
 
   -0.67410E+07         0.18815E+06         0.00000E+00
    0.18815E+06        -0.31773E+08         0.00000E+00
    0.00000E+00         0.00000E+00        -0.77028E+07
 
   -0.71721E+07         0.23414E+06         0.00000E+00
    0.23414E+06        -0.31642E+08         0.00000E+00
    0.00000E+00         0.00000E+00        -0.77628E+07
 
   -0.76181E+07         0.28451E+06         0.00000E+00
    0.28451E+06        -0.31475E+08         0.00000E+00
    0.00000E+00         0.00000E+00        -0.78186E+07
 
   -0.10256E+07        -0.10750E+05         0.00000E+00
   -0.10750E+05        -0.31951E+08         0.00000E+00
    0.00000E+00         0.00000E+00        -0.65954E+07
 
   -0.16722E+07        -0.26816E+05         0.00000E+00
   -0.26816E+05        -0.31965E+08         0.00000E+00
    0.00000E+00         0.00000E+00        -0.67275E+07
 
   -0.22697E+07        -0.35328E+05         0.00000E+00
   -0.35328E+05        -0.31990E+08         0.00000E+00
    0.00000E+00         0.00000E+00        -0.68519E+07
 
   -0.28236E+07        -0.36058E+05         0.00000E+00
   -0.36058E+05        -0.32020E+08         0.00000E+00
    0.00000E+00         0.00000E+00        -0.69688E+07
 
   -0.33398E+07        -0.28862E+05         0.00000E+00
   -0.28862E+05        -0.32053E+08         0.00000E+00
    0.00000E+00         0.00000E+00        -0.70785E+07
 
   -0.38241E+07        -0.13671E+05         0.00000E+00
   -0.13671E+05        -0.32083E+08         0.00000E+00
    0.00000E+00         0.00000E+00        -0.71814E+07
 
   -0.42821E+07         0.95178E+04         0.00000E+00
    0.95178E+04        -0.32106E+08         0.00000E+00
    0.00000E+00         0.00000E+00        -0.72777E+07
 
   -0.47195E+07         0.40656E+05         0.00000E+00
    0.40656E+05        -0.32119E+08         0.00000E+00
    0.00000E+00         0.00000E+00        -0.73678E+07
 
   -0.51420E+07         0.79653E+05         0.00000E+00
    0.79653E+05        -0.32118E+08         0.00000E+00
    0.00000E+00         0.00000E+00        -0.74520E+07
 
   -0.55548E+07         0.12639E+06         0.00000E+00
    0.12639E+06        -0.32098E+08         0.00000E+00
    0.00000E+00         0.00000E+00        -0.75306E+07
 
   -0.59633E+07         0.18075E+06         0.00000E+00
    0.18075E+06        -0.32057E+08         0.00000E+00
    0.00000E+00         0.00000E+00        -0.76040E+07
 
   -0.63725E+07         0.24259E+06         0.00000E+00
    0.24259E+06        -0.31990E+08         0.00000E+00
    0.00000E+00         0.00000E+00        -0.76724E+07
 
   -0.67873E+07         0.31180E+06         0.00000E+00
    0.31180E+06        -0.31893E+08         0.00000E+00
    0.00000E+00         0.00000E+00        -0.77361E+07
 
   -0.72125E+07         0.38831E+06         0.00000E+00
    0.38831E+06        -0.31764E+08         0.00000E+00
    0.00000E+00         0.00000E+00        -0.77954E+07
 
   -0.76526E+07         0.47209E+06         0.00000E+00
    0.47209E+06        -0.31600E+08         0.00000E+00
    0.00000E+00         0.00000E+00        -0.78504E+07
 
   -0.12099E+07        -0.15332E+05         0.00000E+00
   -0.15332E+05        -0.32112E+08         0.00000E+00
    0.00000E+00         0.00000E+00        -0.66643E+07
 
   -0.18475E+07        -0.38335E+05         0.00000E+00
   -0.38335E+05        -0.32126E+08         0.00000E+00
    0.00000E+00         0.00000E+00        -0.67947E+07
 
   -0.24355E+07        -0.50693E+05         0.00000E+00
   -0.50693E+05        -0.32151E+08         0.00000E+00
    0.00000E+00         0.00000E+00        -0.69174E+07
 
   -0.29797E+07        -0.52092E+05         0.00000E+00
   -0.52092E+05        -0.32183E+08         0.00000E+00
    0.00000E+00         0.00000E+00        -0.70325E+07
 
   -0.34859E+07        -0.42338E+05         0.00000E+00
   -0.42338E+05        -0.32216E+08         0.00000E+00
    0.00000E+00         0.00000E+00        -0.71405E+07
 
   -0.39602E+07        -0.21346E+05         0.00000E+00
   -0.21346E+05        -0.32248E+08         0.00000E+00
    0.00000E+00         0.00000E+00        -0.72416E+07
 
   -0.44082E+07         0.10881E+05         0.00000E+00
    0.10881E+05        -0.32273E+08         0.00000E+00
    0.00000E+00         0.00000E+00        -0.73362E+07
 
   -0.48358E+07         0.54261E+05         0.00000E+00
    0.54261E+05        -0.32288E+08         0.00000E+00
    0.00000E+00         0.00000E+00        -0.74247E+07
 
   -0.52484E+07         0.10866E+06         0.00000E+00
    0.10866E+06        -0.32288E+08         0.00000E+00
    0.00000E+00         0.00000E+00        -0.75073E+07
 
   -0.56517E+07         0.17390E+06         0.00000E+00
    0.17390E+06        -0.32271E+08         0.00000E+00
    0.00000E+00         0.00000E+00        -0.75845E+07
 
   -0.60507E+07         0.24980E+06         0.00000E+00
    0.24980E+06        -0.32231E+08         0.00000E+00
    0.00000E+00         0.00000E+00        -0.76564E+07
 
   -0.64507E+07         0.33615E+06         0.00000E+00
    0.33615E+06        -0.32167E+08         0.00000E+00
    0.00000E+00         0.00000E+00        -0.77235E+07
 
   -0.68565E+07         0.43280E+06         0.00000E+00
    0.43280E+06        -0.32073E+08         0.00000E+00
    0.00000E+00         0.00000E+00        -0.77860E+07
 
   -0.72728E+07         0.53962E+06         0.00000E+00
    0.53962E+06        -0.31948E+08         0.00000E+00
    0.00000E+00         0.00000E+00        -0.78441E+07
 
   -0.77041E+07         0.65656E+06         0.00000E+00
    0.65656E+06        -0.31786E+08         0.00000E+00
    0.00000E+00         0.00000E+00        -0.78981E+07
 
   -0.14555E+07        -0.20197E+05         0.00000E+00
   -0.20197E+05        -0.32325E+08         0.00000E+00
    0.00000E+00         0.00000E+00        -0.67561E+07
 
   -0.20809E+07        -0.50646E+05         0.00000E+00
   -0.50646E+05        -0.32340E+08         0.00000E+00
    0.00000E+00         0.00000E+00        -0.68841E+07
 
   -0.26562E+07        -0.67287E+05         0.00000E+00
   -0.67287E+05        -0.32366E+08         0.00000E+00
    0.00000E+00         0.00000E+00        -0.70044E+07
 
   -0.31873E+07        -0.69728E+05         0.00000E+00
   -0.69728E+05        -0.32399E+08         0.00000E+00
    0.00000E+00         0.00000E+00        -0.71172E+07
 
   -0.36803E+07        -0.57733E+05         0.00000E+00
   -0.57733E+05        -0.32434E+08         0.00000E+00
    0.00000E+00         0.00000E+00        -0.72228E+07
 
   -0.41412E+07        -0.31208E+05         0.00000E+00
   -0.31208E+05        -0.32467E+08         0.00000E+00
    0.00000E+00         0.00000E+00        -0.73216E+07
 
   -0.45758E+07         0.98213E+04         0.00000E+00
    0.98213E+04        -0.32494E+08         0.00000E+00
    0.00000E+00         0.00000E+00        -0.74140E+07
 
   -0.49901E+07         0.65234E+05         0.00000E+00
    0.65234E+05        -0.32511E+08         0.00000E+00
    0.00000E+00         0.00000E+00        -0.75002E+07
 
   -0.53897E+07         0.13484E+06         0.00000E+00
    0.13484E+06        -0.32514E+08         0.00000E+00
    0.00000E+00         0.00000E+00        -0.75808E+07
 
   -0.57802E+07         0.21839E+06         0.00000E+00
    0.21839E+06        -0.32500E+08         0.00000E+00
    0.00000E+00         0.00000E+00        -0.76559E+07
 
   -0.61667E+07         0.31563E+06         0.00000E+00
    0.31563E+06        -0.32463E+08         0.00000E+00
    0.00000E+00         0.00000E+00        -0.77260E+07
 
   -0.65544E+07         0.42628E+06         0.00000E+00
    0.42628E+06        -0.32402E+08         0.00000E+00
    0.00000E+00         0.00000E+00        -0.77913E+07
 
   -0.69482E+07         0.55012E+06         0.00000E+00
    0.55012E+06        -0.32312E+08         0.00000E+00
    0.00000E+00         0.00000E+00        -0.78521E+07
 
   -0.73527E+07         0.68696E+06         0.00000E+00
    0.68696E+06        -0.32191E+08         0.00000E+00
    0.00000E+00         0.00000E+00        -0.79087E+07
 
   -0.77724E+07         0.83670E+06         0.00000E+00
    0.83670E+06        -0.32034E+08         0.00000E+00
    0.00000E+00         0.00000E+00        -0.79613E+07
 
   -0.17622E+07        -0.25425E+05         0.00000E+00
   -0.25425E+05        -0.32590E+08         0.00000E+00
    0.00000E+00         0.00000E+00        -0.68704E+07
 
   -0.23723E+07        -0.63970E+05         0.00000E+00
   -0.63970E+05        -0.32605E+08         0.00000E+00
    0.00000E+00         0.00000E+00        -0.69955E+07
 
   -0.29316E+07        -0.85452E+05         0.00000E+00
   -0.85452E+05        -0.32632E+08         0.00000E+00
    0.00000E+00         0.00000E+00        -0.71128E+07
 
   -0.34463E+07        -0.89406E+05         0.00000E+00
   -0.89406E+05        -0.32667E+08         0.00000E+00
    0.00000E+00         0.00000E+00        -0.72226E+07
 
   -0.39225E+07        -0.75570E+05         0.00000E+00
   -0.75570E+05        -0.32704E+08         0.00000E+00
    0.00000E+00         0.00000E+00        -0.73252E+07
 
   -0.43665E+07        -0.43855E+05         0.00000E+00
   -0.43855E+05        -0.32739E+08         0.00000E+00
    0.00000E+00         0.00000E+00        -0.74211E+07
 
   -0.47844E+07         0.56808E+04         0.00000E+00
    0.56808E+04        -0.32769E+08         0.00000E+00
    0.00000E+00         0.00000E+00        -0.75107E+07
 
   -0.51821E+07         0.72861E+05         0.00000E+00
    0.72861E+05        -0.32789E+08         0.00000E+00
    0.00000E+00         0.00000E+00        -0.75942E+07
 
   -0.55654E+07         0.15742E+06         0.00000E+00
    0.15742E+06        -0.32795E+08         0.00000E+00
    0.00000E+00         0.00000E+00        -0.76721E+07
 
   -0.59398E+07         0.25904E+06         0.00000E+00
    0.25904E+06        -0.32784E+08         0.00000E+00
    0.00000E+00         0.00000E+00        -0.77447E+07
 
   -0.63107E+07         0.37736E+06         0.00000E+00
    0.37736E+06        -0.32751E+08         0.00000E+00
    0.00000E+00         0.00000E+00        -0.78124E+07
 
   -0.66831E+07         0.51204E+06         0.00000E+00
    0.51204E+06        -0.32694E+08         0.00000E+00
    0.00000E+00         0.00000E+00        -0.78755E+07
 
   -0.70620E+07         0.66275E+06         0.00000E+00
    0.66275E+06        -0.32609E+08         0.00000E+00
    0.00000E+00         0.00000E+00        -0.79342E+07
 
   -0.74519E+07         0.82924E+06         0.00000E+00
    0.82924E+06        -0.32493E+08         0.00000E+00
    0.00000E+00         0.00000E+00        -0.79889E+07
 
   -0.78572E+07         0.10113E+07         0.00000E+00
    0.10113E+07        -0.32342E+08         0.00000E+00
    0.00000E+00         0.00000E+00        -0.80398E+07
 
   -0.21300E+07        -0.31095E+05         0.00000E+00
   -0.31095E+05        -0.32906E+08         0.00000E+00
    0.00000E+00         0.00000E+00        -0.70071E+07
 
   -0.27215E+07        -0.78528E+05         0.00000E+00
   -0.78528E+05        -0.32922E+08         0.00000E+00
    0.00000E+00         0.00000E+00        -0.71287E+07
 
   -0.32613E+07        -0.10552E+06         0.00000E+00
   -0.10552E+06        -0.32950E+08         0.00000E+00
    0.00000E+00         0.00000E+00        -0.72423E+07
 
   -0.37560E+07        -0.11156E+06         0.00000E+00
   -0.11156E+06        -0.32986E+08         0.00000E+00
    0.00000E+00         0.00000E+00        -0.73485E+07
 
   -0.42120E+07        -0.96358E+05         0.00000E+00
   -0.96358E+05        -0.33026E+08         0.00000E+00
    0.00000E+00         0.00000E+00        -0.74475E+07
 
   -0.46357E+07        -0.59860E+05         0.00000E+00
   -0.59860E+05        -0.33064E+08         0.00000E+00
    0.00000E+00         0.00000E+00        -0.75399E+07
 
   -0.50333E+07        -0.21713E+04         0.00000E+00
   -0.21713E+04        -0.33097E+08         0.00000E+00
    0.00000E+00         0.00000E+00        -0.76260E+07
 
   -0.54110E+07         0.76458E+05         0.00000E+00
    0.76458E+05        -0.33120E+08         0.00000E+00
    0.00000E+00         0.00000E+00        -0.77062E+07
 
   -0.57747E+07         0.17568E+06         0.00000E+00
    0.17568E+06        -0.33130E+08         0.00000E+00
    0.00000E+00         0.00000E+00        -0.77809E+07
 
   -0.61299E+07         0.29506E+06         0.00000E+00
    0.29506E+06        -0.33123E+08         0.00000E+00
    0.00000E+00         0.00000E+00        -0.78505E+07
 
   -0.64820E+07         0.43417E+06         0.00000E+00
    0.43417E+06        -0.33095E+08         0.00000E+00
    0.00000E+00         0.00000E+00        -0.79153E+07
 
   -0.68363E+07         0.59253E+06         0.00000E+00
    0.59253E+06        -0.33042E+08         0.00000E+00
    0.00000E+00         0.00000E+00        -0.79757E+07
 
   -0.71974E+07         0.76973E+06         0.00000E+00
    0.76973E+06        -0.32963E+08         0.00000E+00
    0.00000E+00         0.00000E+00        -0.80320E+07
 
   -0.75699E+07         0.96541E+06         0.00000E+00
    0.96541E+06        -0.32852E+08         0.00000E+00
    0.00000E+00         0.00000E+00        -0.80844E+07
 
   -0.79581E+07         0.11794E+07         0.00000E+00
    0.11794E+07        -0.32708E+08         0.00000E+00
    0.00000E+00         0.00000E+00        -0.81332E+07
 
   -0.25587E+07        -0.37286E+05         0.00000E+00
   -0.37286E+05        -0.33271E+08         0.00000E+00
    0.00000E+00         0.00000E+00        -0.71660E+07
 
   -0.31281E+07        -0.94532E+05         0.00000E+00
   -0.94532E+05        -0.33288E+08         0.00000E+00
    0.00000E+00         0.00000E+00        -0.72833E+07
 
   -0.36449E+07        -0.12782E+06         0.00000E+00
   -0.12782E+06        -0.33318E+08         0.00000E+00
    0.00000E+00         0.00000E+00        -0.73927E+07
 
   -0.41161E+07        -0.13659E+06         0.00000E+00
   -0.13659E+06        -0.33357E+08         0.00000E+00
    0.00000E+00         0.00000E+00        -0.74945E+07
 
   -0.45482E+07        -0.12057E+06         0.00000E+00
   -0.12057E+06        -0.33398E+08         0.00000E+00
    0.00000E+00         0.00000E+00        -0.75893E+07
 
   -0.49480E+07        -0.79760E+05         0.00000E+00
   -0.79760E+05        -0.33439E+08         0.00000E+00
    0.00000E+00         0.00000E+00        -0.76775E+07
 
   -0.53219E+07        -0.14327E+05         0.00000E+00
   -0.14327E+05        -0.33476E+08         0.00000E+00
    0.00000E+00         0.00000E+00        -0.77595E+07
 
   -0.56762E+07         0.75383E+05         0.00000E+00
    0.75383E+05        -0.33503E+08         0.00000E+00
    0.00000E+00         0.00000E+00        -0.78358E+07
 
   -0.60168E+07         0.18891E+06         0.00000E+00
    0.18891E+06        -0.33517E+08         0.00000E+00
    0.00000E+00         0.00000E+00        -0.79067E+07
 
   -0.63497E+07         0.32572E+06         0.00000E+00
    0.32572E+06        -0.33514E+08         0.00000E+00
    0.00000E+00         0.00000E+00        -0.79728E+07
 
   -0.66800E+07         0.48524E+06         0.00000E+00
    0.48524E+06        -0.33491E+08         0.00000E+00
    0.00000E+00         0.00000E+00        -0.80343E+07
 
   -0.70131E+07         0.66689E+06         0.00000E+00
    0.66689E+06        -0.33445E+08         0.00000E+00
    0.00000E+00         0.00000E+00        -0.80916E+07
 
   -0.73536E+07         0.87013E+06         0.00000E+00
    0.87013E+06        -0.33371E+08         0.00000E+00
    0.00000E+00         0.00000E+00        -0.81450E+07
 
   -0.77061E+07         0.10945E+07         0.00000E+00
    0.10945E+07        -0.33268E+08         0.00000E+00
    0.00000E+00         0.00000E+00        -0.81947E+07
 
   -0.80747E+07         0.13396E+07         0.00000E+00
    0.13396E+07        -0.33131E+08         0.00000E+00
    0.00000E+00         0.00000E+00        -0.82411E+07
 
   -0.30480E+07        -0.44073E+05         0.00000E+00
   -0.44073E+05        -0.33686E+08         0.00000E+00
    0.00000E+00         0.00000E+00        -0.73467E+07
 
   -0.35917E+07        -0.11218E+06         0.00000E+00
   -0.11218E+06        -0.33704E+08         0.00000E+00
    0.00000E+00         0.00000E+00        -0.74591E+07
 
   -0.40819E+07        -0.15264E+06         0.00000E+00
   -0.15264E+06        -0.33735E+08         0.00000E+00
    0.00000E+00         0.00000E+00        -0.75634E+07
 
   -0.45257E+07        -0.16487E+06         0.00000E+00
   -0.16487E+06        -0.33776E+08         0.00000E+00
    0.00000E+00         0.00000E+00        -0.76603E+07
 
   -0.49303E+07        -0.14866E+06         0.00000E+00
   -0.14866E+06        -0.33820E+08         0.00000E+00
    0.00000E+00         0.00000E+00        -0.77501E+07
 
   -0.53025E+07        -0.10405E+06         0.00000E+00
   -0.10405E+06        -0.33865E+08         0.00000E+00
    0.00000E+00         0.00000E+00        -0.78335E+07
 
   -0.56491E+07        -0.31327E+05         0.00000E+00
   -0.31327E+05        -0.33905E+08         0.00000E+00
    0.00000E+00         0.00000E+00        -0.79108E+07
 
   -0.59766E+07         0.69048E+05         0.00000E+00
    0.69048E+05        -0.33936E+08         0.00000E+00
    0.00000E+00         0.00000E+00        -0.79825E+07
 
   -0.62910E+07         0.19649E+06         0.00000E+00
    0.19649E+06        -0.33955E+08         0.00000E+00
    0.00000E+00         0.00000E+00        -0.80491E+07
 
   -0.65982E+07         0.35032E+06         0.00000E+00
    0.35032E+06        -0.33957E+08         0.00000E+00
    0.00000E+00         0.00000E+00        -0.81111E+07
 
   -0.69038E+07         0.52983E+06         0.00000E+00
    0.52983E+06        -0.33940E+08         0.00000E+00
    0.00000E+00         0.00000E+00        -0.81687E+07
 
   -0.72128E+07         0.73431E+06         0.00000E+00
    0.73431E+06        -0.33900E+08         0.00000E+00
    0.00000E+00         0.00000E+00        -0.82225E+07
 
   -0.75300E+07         0.96308E+06         0.00000E+00
    0.96308E+06        -0.33833E+08         0.00000E+00
    0.00000E+00         0.00000E+00        -0.82726E+07
 
   -0.78598E+07         0.12155E+07         0.00000E+00
    0.12155E+07        -0.33737E+08         0.00000E+00
    0.00000E+00         0.00000E+00        -0.83194E+07
 
   -0.82062E+07         0.14912E+07         0.00000E+00
    0.14912E+07        -0.33609E+08         0.00000E+00
    0.00000E+00         0.00000E+00        -0.83630E+07
 
   -0.35977E+07        -0.51529E+05         0.00000E+00
   -0.51529E+05        -0.34147E+08         0.00000E+00
    0.00000E+00         0.00000E+00        -0.75490E+07
 
   -0.41119E+07        -0.13167E+06         0.00000E+00
   -0.13167E+06        -0.34166E+08         0.00000E+00
    0.00000E+00         0.00000E+00        -0.76556E+07
 
   -0.45716E+07        -0.18026E+06         0.00000E+00
   -0.18026E+06        -0.34200E+08         0.00000E+00
    0.00000E+00         0.00000E+00        -0.77542E+07
 
   -0.49843E+07        -0.19676E+06         0.00000E+00
   -0.19676E+06        -0.34242E+08         0.00000E+00
    0.00000E+00         0.00000E+00        -0.78453E+07
 
   -0.53574E+07        -0.18100E+06         0.00000E+00
   -0.18100E+06        -0.34290E+08         0.00000E+00
    0.00000E+00         0.00000E+00        -0.79295E+07
 
   -0.56984E+07        -0.13316E+06         0.00000E+00
   -0.13316E+06        -0.34338E+08         0.00000E+00
    0.00000E+00         0.00000E+00        -0.80073E+07
 
   -0.60141E+07        -0.53644E+05         0.00000E+00
   -0.53644E+05        -0.34382E+08         0.00000E+00
    0.00000E+00         0.00000E+00        -0.80792E+07
 
   -0.63112E+07         0.56936E+05         0.00000E+00
    0.56936E+05        -0.34418E+08         0.00000E+00
    0.00000E+00         0.00000E+00        -0.81458E+07
 
   -0.65961E+07         0.19784E+06         0.00000E+00
    0.19784E+06        -0.34441E+08         0.00000E+00
    0.00000E+00         0.00000E+00        -0.82075E+07
 
   -0.68746E+07         0.36824E+06         0.00000E+00
    0.36824E+06        -0.34449E+08         0.00000E+00
    0.00000E+00         0.00000E+00        -0.82648E+07
 
   -0.71523E+07         0.56727E+06         0.00000E+00
    0.56727E+06        -0.34438E+08         0.00000E+00
    0.00000E+00         0.00000E+00        -0.83181E+07
 
   -0.74343E+07         0.79407E+06         0.00000E+00
    0.79407E+06        -0.34405E+08         0.00000E+00
    0.00000E+00         0.00000E+00        -0.83678E+07
 
   -0.77255E+07         0.10478E+07         0.00000E+00
    0.10478E+07        -0.34346E+08         0.00000E+00
    0.00000E+00         0.00000E+00        -0.84143E+07
 
   -0.80302E+07         0.13277E+07         0.00000E+00
    0.13277E+07        -0.34258E+08         0.00000E+00
    0.00000E+00         0.00000E+00        -0.84577E+07
 
   -0.83522E+07         0.16331E+07         0.00000E+00
    0.16331E+07        -0.34140E+08         0.00000E+00
    0.00000E+00         0.00000E+00        -0.84984E+07
 
   -0.42076E+07        -0.59719E+05         0.00000E+00
   -0.59719E+05        -0.34654E+08         0.00000E+00
    0.00000E+00         0.00000E+00        -0.77724E+07
 
   -0.46882E+07        -0.15316E+06         0.00000E+00
   -0.15316E+06        -0.34674E+08         0.00000E+00
    0.00000E+00         0.00000E+00        -0.78725E+07
 
   -0.51133E+07        -0.21092E+06         0.00000E+00
   -0.21092E+06        -0.34710E+08         0.00000E+00
    0.00000E+00         0.00000E+00        -0.79646E+07
 
   -0.54908E+07        -0.23252E+06         0.00000E+00
   -0.23252E+06        -0.34755E+08         0.00000E+00
    0.00000E+00         0.00000E+00        -0.80492E+07
 
   -0.58286E+07        -0.21792E+06         0.00000E+00
   -0.21792E+06        -0.34806E+08         0.00000E+00
    0.00000E+00         0.00000E+00        -0.81269E+07
 
   -0.61345E+07        -0.16744E+06         0.00000E+00
   -0.16744E+06        -0.34858E+08         0.00000E+00
    0.00000E+00         0.00000E+00        -0.81984E+07
 
   -0.64157E+07        -0.81664E+05         0.00000E+00
   -0.81664E+05        -0.34906E+08         0.00000E+00
    0.00000E+00         0.00000E+00        -0.82643E+07
 
   -0.66790E+07         0.38619E+05         0.00000E+00
    0.38619E+05        -0.34946E+08         0.00000E+00
    0.00000E+00         0.00000E+00        -0.83250E+07
 
   -0.69309E+07         0.19249E+06         0.00000E+00
    0.19249E+06        -0.34975E+08         0.00000E+00
    0.00000E+00         0.00000E+00        -0.83812E+07
 
   -0.71775E+07         0.37895E+06         0.00000E+00
    0.37895E+06        -0.34989E+08         0.00000E+00
    0.00000E+00         0.00000E+00        -0.84333E+07
 
   -0.74244E+07         0.59695E+06         0.00000E+00
    0.59695E+06        -0.34984E+08         0.00000E+00
    0.00000E+00         0.00000E+00        -0.84817E+07
 
   -0.76768E+07         0.84547E+06         0.00000E+00
    0.84547E+06        -0.34958E+08         0.00000E+00
    0.00000E+00         0.00000E+00        -0.85270E+07
 
   -0.79394E+07         0.11235E+07         0.00000E+00
    0.11235E+07        -0.34907E+08         0.00000E+00
    0.00000E+00         0.00000E+00        -0.85693E+07
 
   -0.82165E+07         0.14301E+07         0.00000E+00
    0.14301E+07        -0.34829E+08         0.00000E+00
    0.00000E+00         0.00000E+00        -0.86091E+07
 
   -0.85119E+07         0.17644E+07         0.00000E+00
    0.17644E+07        -0.34720E+08         0.00000E+00
    0.00000E+00         0.00000E+00        -0.86465E+07
 
   -0.48772E+07        -0.68698E+05         0.00000E+00
   -0.68698E+05        -0.35205E+08         0.00000E+00
    0.00000E+00         0.00000E+00        -0.80164E+07
 
   -0.53200E+07        -0.17678E+06         0.00000E+00
   -0.17678E+06        -0.35226E+08         0.00000E+00
    0.00000E+00         0.00000E+00        -0.81092E+07
 
   -0.57061E+07        -0.24479E+06         0.00000E+00
   -0.24479E+06        -0.35263E+08         0.00000E+00
    0.00000E+00         0.00000E+00        -0.81939E+07
 
   -0.60442E+07        -0.27237E+06         0.00000E+00
   -0.27237E+06        -0.35311E+08         0.00000E+00
    0.00000E+00         0.00000E+00        -0.82711E+07
 
   -0.63427E+07        -0.25964E+06         0.00000E+00
   -0.25964E+06        -0.35366E+08         0.00000E+00
    0.00000E+00         0.00000E+00        -0.83416E+07
 
   -0.66096E+07        -0.20714E+06         0.00000E+00
   -0.20714E+06        -0.35421E+08         0.00000E+00
    0.00000E+00         0.00000E+00        -0.84061E+07
 
   -0.68526E+07        -0.11566E+06         0.00000E+00
   -0.11566E+06        -0.35473E+08         0.00000E+00
    0.00000E+00         0.00000E+00        -0.84652E+07
 
   -0.70785E+07         0.13785E+05         0.00000E+00
    0.13785E+05        -0.35518E+08         0.00000E+00
    0.00000E+00         0.00000E+00        -0.85194E+07
 
   -0.72943E+07         0.18007E+06         0.00000E+00
    0.18007E+06        -0.35553E+08         0.00000E+00
    0.00000E+00         0.00000E+00        -0.85694E+07
 
   -0.75059E+07         0.38200E+06         0.00000E+00
    0.38200E+06        -0.35573E+08         0.00000E+00
    0.00000E+00         0.00000E+00        -0.86157E+07
 
   -0.77190E+07         0.61836E+06         0.00000E+00
    0.61836E+06        -0.35575E+08         0.00000E+00
    0.00000E+00         0.00000E+00        -0.86588E+07
 
   -0.79389E+07         0.88793E+06         0.00000E+00
    0.88793E+06        -0.35556E+08         0.00000E+00
    0.00000E+00         0.00000E+00        -0.86991E+07
 
   -0.81704E+07         0.11895E+07         0.00000E+00
    0.11895E+07        -0.35514E+08         0.00000E+00
    0.00000E+00         0.00000E+00        -0.87369E+07
 
   -0.84176E+07         0.15220E+07         0.00000E+00
    0.15220E+07        -0.35446E+08         0.00000E+00
    0.00000E+00         0.00000E+00        -0.87726E+07
 
   -0.86843E+07         0.18843E+07         0.00000E+00
    0.18843E+07        -0.35348E+08         0.00000E+00
    0.00000E+00         0.00000E+00        -0.88065E+07
 
   -0.56062E+07        -0.78513E+05         0.00000E+00
   -0.78513E+05        -0.35797E+08         0.00000E+00
    0.00000E+00         0.00000E+00        -0.82807E+07
 
   -0.60065E+07        -0.20265E+06         0.00000E+00
   -0.20265E+06        -0.35820E+08         0.00000E+00
    0.00000E+00         0.00000E+00        -0.83652E+07
 
   -0.63491E+07        -0.28201E+06         0.00000E+00
   -0.28201E+06        -0.35859E+08         0.00000E+00
    0.00000E+00         0.00000E+00        -0.84416E+07
 
   -0.66434E+07        -0.31643E+06         0.00000E+00
   -0.31643E+06        -0.35909E+08         0.00000E+00
    0.00000E+00         0.00000E+00        -0.85106E+07
 
   -0.68984E+07        -0.30628E+06         0.00000E+00
   -0.30628E+06        -0.35967E+08         0.00000E+00
    0.00000E+00         0.00000E+00        -0.85730E+07
 
   -0.71224E+07        -0.25237E+06         0.00000E+00
   -0.25237E+06        -0.36026E+08         0.00000E+00
    0.00000E+00         0.00000E+00        -0.86296E+07
 
   -0.73233E+07        -0.15577E+06         0.00000E+00
   -0.15577E+06        -0.36082E+08         0.00000E+00
    0.00000E+00         0.00000E+00        -0.86811E+07
 
   -0.75085E+07        -0.17738E+05         0.00000E+00
   -0.17738E+05        -0.36132E+08         0.00000E+00
    0.00000E+00         0.00000E+00        -0.87281E+07
 
   -0.76848E+07         0.16035E+06         0.00000E+00
    0.16035E+06        -0.36172E+08         0.00000E+00
    0.00000E+00         0.00000E+00        -0.87713E+07
 
   -0.78583E+07         0.37709E+06         0.00000E+00
    0.37709E+06        -0.36198E+08         0.00000E+00
    0.00000E+00         0.00000E+00        -0.88112E+07
 
   -0.80348E+07         0.63109E+06         0.00000E+00
    0.63109E+06        -0.36207E+08         0.00000E+00
    0.00000E+00         0.00000E+00        -0.88484E+07
 
   -0.82196E+07         0.92094E+06         0.00000E+00
    0.92094E+06        -0.36197E+08         0.00000E+00
    0.00000E+00         0.00000E+00        -0.88833E+07
 
   -0.84175E+07         0.12453E+07         0.00000E+00
    0.12453E+07        -0.36164E+08         0.00000E+00
    0.00000E+00         0.00000E+00        -0.89162E+07
 
   -0.86326E+07         0.16027E+07         0.00000E+00
    0.16027E+07        -0.36105E+08         0.00000E+00
    0.00000E+00         0.00000E+00        -0.89476E+07
 
   -0.88687E+07         0.19921E+07         0.00000E+00
    0.19921E+07        -0.36019E+08         0.00000E+00
    0.00000E+00         0.00000E+00        -0.89776E+07
 
   -0.63941E+07        -0.89191E+05         0.00000E+00
   -0.89191E+05        -0.36429E+08         0.00000E+00
    0.00000E+00         0.00000E+00        -0.85647E+07
 
   -0.67469E+07        -0.23080E+06         0.00000E+00
   -0.23080E+06        -0.36453E+08         0.00000E+00
    0.00000E+00         0.00000E+00        -0.86399E+07
 
   -0.70412E+07        -0.32259E+06         0.00000E+00
   -0.32259E+06        -0.36494E+08         0.00000E+00
    0.00000E+00         0.00000E+00        -0.87070E+07
 
   -0.72871E+07        -0.36468E+06         0.00000E+00
   -0.36468E+06        -0.36547E+08         0.00000E+00
    0.00000E+00         0.00000E+00        -0.87668E+07
 
   -0.74941E+07        -0.35779E+06         0.00000E+00
   -0.35779E+06        -0.36607E+08         0.00000E+00
    0.00000E+00         0.00000E+00        -0.88202E+07
 
   -0.76712E+07        -0.30307E+06         0.00000E+00
   -0.30307E+06        -0.36669E+08         0.00000E+00
    0.00000E+00         0.00000E+00        -0.88681E+07
 
   -0.78265E+07        -0.20193E+06         0.00000E+00
   -0.20193E+06        -0.36730E+08         0.00000E+00
    0.00000E+00         0.00000E+00        -0.89112E+07
 
   -0.79675E+07        -0.55941E+05         0.00000E+00
   -0.55941E+05        -0.36784E+08         0.00000E+00
    0.00000E+00         0.00000E+00        -0.89503E+07
 
   -0.81010E+07         0.13326E+06         0.00000E+00
    0.13326E+06        -0.36829E+08         0.00000E+00
    0.00000E+00         0.00000E+00        -0.89860E+07
 
   -0.82335E+07         0.36405E+06         0.00000E+00
    0.36405E+06        -0.36861E+08         0.00000E+00
    0.00000E+00         0.00000E+00        -0.90189E+07
 
   -0.83706E+07         0.63484E+06         0.00000E+00
    0.63484E+06        -0.36877E+08         0.00000E+00
    0.00000E+00         0.00000E+00        -0.90496E+07
 
   -0.85176E+07         0.94408E+06         0.00000E+00
    0.94408E+06        -0.36875E+08         0.00000E+00
    0.00000E+00         0.00000E+00        -0.90785E+07
 
   -0.86795E+07         0.12902E+07         0.00000E+00
    0.12902E+07        -0.36852E+08         0.00000E+00
    0.00000E+00         0.00000E+00        -0.91062E+07
 
   -0.88603E+07         0.16717E+07         0.00000E+00
    0.16717E+07        -0.36804E+08         0.00000E+00
    0.00000E+00         0.00000E+00        -0.91329E+07
 
   -0.90639E+07         0.20870E+07         0.00000E+00
    0.20870E+07        -0.36730E+08         0.00000E+00
    0.00000E+00         0.00000E+00        -0.91589E+07
 
   -0.72401E+07        -0.10074E+06         0.00000E+00
   -0.10074E+06        -0.37099E+08         0.00000E+00
    0.00000E+00         0.00000E+00        -0.88677E+07
 
   -0.75399E+07        -0.26121E+06         0.00000E+00
   -0.26121E+06        -0.37123E+08         0.00000E+00
    0.00000E+00         0.00000E+00        -0.89326E+07
 
   -0.77808E+07        -0.36644E+06         0.00000E+00
   -0.36644E+06        -0.37166E+08         0.00000E+00
    0.00000E+00         0.00000E+00        -0.89893E+07
 
   -0.79735E+07        -0.41697E+06         0.00000E+00
   -0.41697E+06        -0.37221E+08         0.00000E+00
    0.00000E+00         0.00000E+00        -0.90389E+07
 
   -0.81283E+07        -0.41395E+06         0.00000E+00
   -0.41395E+06        -0.37284E+08         0.00000E+00
    0.00000E+00         0.00000E+00        -0.90824E+07
 
   -0.82545E+07        -0.35896E+06         0.00000E+00
   -0.35896E+06        -0.37349E+08         0.00000E+00
    0.00000E+00         0.00000E+00        -0.91207E+07
 
   -0.83604E+07        -0.25387E+06         0.00000E+00
   -0.25387E+06        -0.37413E+08         0.00000E+00
    0.00000E+00         0.00000E+00        -0.91546E+07
 
   -0.84538E+07        -0.10059E+06         0.00000E+00
   -0.10059E+06        -0.37471E+08         0.00000E+00
    0.00000E+00         0.00000E+00        -0.91849E+07
 
   -0.85415E+07         0.98938E+05         0.00000E+00
    0.98938E+05        -0.37520E+08         0.00000E+00
    0.00000E+00         0.00000E+00        -0.92124E+07
 
   -0.86300E+07         0.34288E+06         0.00000E+00
    0.34288E+06        -0.37558E+08         0.00000E+00
    0.00000E+00         0.00000E+00        -0.92376E+07
 
   -0.87250E+07         0.62947E+06         0.00000E+00
    0.62947E+06        -0.37582E+08         0.00000E+00
    0.00000E+00         0.00000E+00        -0.92613E+07
 
   -0.88318E+07         0.95703E+06         0.00000E+00
    0.95703E+06        -0.37588E+08         0.00000E+00
    0.00000E+00         0.00000E+00        -0.92839E+07
 
   -0.89552E+07         0.13239E+07         0.00000E+00
    0.13239E+07        -0.37574E+08         0.00000E+00
    0.00000E+00         0.00000E+00        -0.93058E+07
 
   -0.90996E+07         0.17283E+07         0.00000E+00
    0.17283E+07        -0.37538E+08         0.00000E+00
    0.00000E+00         0.00000E+00        -0.93274E+07
 
   -0.92688E+07         0.21686E+07         0.00000E+00
    0.21686E+07        -0.37477E+08         0.00000E+00
    0.00000E+00         0.00000E+00        -0.93491E+07
 
   -0.81434E+07        -0.11314E+06         0.00000E+00
   -0.11314E+06        -0.37803E+08         0.00000E+00
    0.00000E+00         0.00000E+00        -0.91892E+07
 
   -0.83845E+07        -0.29378E+06         0.00000E+00
   -0.29378E+06        -0.37828E+08         0.00000E+00
    0.00000E+00         0.00000E+00        -0.92425E+07
 
   -0.85664E+07        -0.41336E+06         0.00000E+00
   -0.41336E+06        -0.37872E+08         0.00000E+00
    0.00000E+00         0.00000E+00        -0.92877E+07
 
   -0.87010E+07        -0.47294E+06         0.00000E+00
   -0.47294E+06        -0.37929E+08         0.00000E+00
    0.00000E+00         0.00000E+00        -0.93260E+07
 
   -0.87990E+07        -0.47427E+06         0.00000E+00
   -0.47427E+06        -0.37994E+08         0.00000E+00
    0.00000E+00         0.00000E+00        -0.93585E+07
 
   -0.88702E+07        -0.41950E+06         0.00000E+00
   -0.41950E+06        -0.38061E+08         0.00000E+00
    0.00000E+00         0.00000E+00        -0.93862E+07
 
   -0.89232E+07        -0.31102E+06         0.00000E+00
   -0.31102E+06        -0.38127E+08         0.00000E+00
    0.00000E+00         0.00000E+00        -0.94100E+07
 
   -0.89658E+07        -0.15118E+06         0.00000E+00
   -0.15118E+06        -0.38188E+08         0.00000E+00
    0.00000E+00         0.00000E+00        -0.94308E+07
 
   -0.90049E+07         0.57777E+05         0.00000E+00
    0.57777E+05        -0.38242E+08         0.00000E+00
    0.00000E+00         0.00000E+00        -0.94494E+07
 
   -0.90466E+07         0.31379E+06         0.00000E+00
    0.31379E+06        -0.38285E+08         0.00000E+00
    0.00000E+00         0.00000E+00        -0.94663E+07
 
   -0.90968E+07         0.61498E+06         0.00000E+00
    0.61498E+06        -0.38315E+08         0.00000E+00
    0.00000E+00         0.00000E+00        -0.94824E+07
 
   -0.91608E+07         0.95959E+06         0.00000E+00
    0.95959E+06        -0.38329E+08         0.00000E+00
    0.00000E+00         0.00000E+00        -0.94980E+07
 
   -0.92434E+07         0.13459E+07         0.00000E+00
    0.13459E+07        -0.38325E+08         0.00000E+00
    0.00000E+00         0.00000E+00        -0.95138E+07
 
   -0.93493E+07         0.17720E+07         0.00000E+00
    0.17720E+07        -0.38301E+08         0.00000E+00
    0.00000E+00         0.00000E+00        -0.95301E+07
 
   -0.94822E+07         0.22360E+07         0.00000E+00
    0.22360E+07        -0.38254E+08         0.00000E+00
    0.00000E+00         0.00000E+00        -0.95472E+07
 
   -0.91030E+07        -0.12633E+06         0.00000E+00
   -0.12633E+06        -0.38539E+08         0.00000E+00
    0.00000E+00         0.00000E+00        -0.95284E+07
 
   -0.92789E+07        -0.32830E+06         0.00000E+00
   -0.32830E+06        -0.38565E+08         0.00000E+00
    0.00000E+00         0.00000E+00        -0.95687E+07
 
   -0.93960E+07        -0.46292E+06         0.00000E+00
   -0.46292E+06        -0.38610E+08         0.00000E+00
    0.00000E+00         0.00000E+00        -0.96012E+07
 
   -0.94673E+07        -0.53198E+06         0.00000E+00
   -0.53198E+06        -0.38668E+08         0.00000E+00
    0.00000E+00         0.00000E+00        -0.96270E+07
 
   -0.95040E+07        -0.53797E+06         0.00000E+00
   -0.53797E+06        -0.38733E+08         0.00000E+00
    0.00000E+00         0.00000E+00        -0.96475E+07
 
   -0.95164E+07        -0.48380E+06         0.00000E+00
   -0.48380E+06        -0.38802E+08         0.00000E+00
    0.00000E+00         0.00000E+00        -0.96636E+07
 
   -0.95131E+07        -0.37247E+06         0.00000E+00
   -0.37247E+06        -0.38869E+08         0.00000E+00
    0.00000E+00         0.00000E+00        -0.96764E+07
 
   -0.95020E+07        -0.20685E+06         0.00000E+00
   -0.20685E+06        -0.38932E+08         0.00000E+00
    0.00000E+00         0.00000E+00        -0.96868E+07
 
   -0.94896E+07         0.10471E+05         0.00000E+00
    0.10471E+05        -0.38989E+08         0.00000E+00
    0.00000E+00         0.00000E+00        -0.96957E+07
 
   -0.94821E+07         0.27725E+06         0.00000E+00
    0.27725E+06        -0.39036E+08         0.00000E+00
    0.00000E+00         0.00000E+00        -0.97037E+07
 
   -0.94851E+07         0.59155E+06         0.00000E+00
    0.59155E+06        -0.39072E+08         0.00000E+00
    0.00000E+00         0.00000E+00        -0.97115E+07
 
   -0.95038E+07         0.95164E+06         0.00000E+00
    0.95164E+06        -0.39095E+08         0.00000E+00
    0.00000E+00         0.00000E+00        -0.97197E+07
 
   -0.95432E+07         0.13558E+07         0.00000E+00
    0.13558E+07        -0.39101E+08         0.00000E+00
    0.00000E+00         0.00000E+00        -0.97289E+07
 
   -0.96081E+07         0.18023E+07         0.00000E+00
    0.18023E+07        -0.39089E+08         0.00000E+00
    0.00000E+00         0.00000E+00        -0.97394E+07
 
   -0.97029E+07         0.22887E+07         0.00000E+00
    0.22887E+07        -0.39055E+08         0.00000E+00
    0.00000E+00         0.00000E+00        -0.97517E+07
 
   -0.10117E+08        -0.14024E+06         0.00000E+00
   -0.14024E+06        -0.39305E+08         0.00000E+00
    0.00000E+00         0.00000E+00        -0.98844E+07
 
   -0.10221E+08        -0.36445E+06         0.00000E+00
   -0.36445E+06        -0.39331E+08         0.00000E+00
    0.00000E+00         0.00000E+00        -0.99104E+07
 
   -0.10267E+08        -0.51453E+06         0.00000E+00
   -0.51453E+06        -0.39376E+08         0.00000E+00
    0.00000E+00         0.00000E+00        -0.99287E+07
 
   -0.10270E+08        -0.59319E+06         0.00000E+00
   -0.59319E+06        -0.39434E+08         0.00000E+00
    0.00000E+00         0.00000E+00        -0.99408E+07
 
   -0.10241E+08        -0.60391E+06         0.00000E+00
   -0.60391E+06        -0.39499E+08         0.00000E+00
    0.00000E+00         0.00000E+00        -0.99480E+07
 
   -0.10191E+08        -0.55053E+06         0.00000E+00
   -0.55053E+06        -0.39567E+08         0.00000E+00
    0.00000E+00         0.00000E+00        -0.99515E+07
 
   -0.10128E+08        -0.43685E+06         0.00000E+00
   -0.43685E+06        -0.39634E+08         0.00000E+00
    0.00000E+00         0.00000E+00        -0.99524E+07
 
   -0.10061E+08        -0.26633E+06         0.00000E+00
   -0.26633E+06        -0.39697E+08         0.00000E+00
    0.00000E+00         0.00000E+00        -0.99516E+07
 
   -0.99945E+07        -0.41919E+05         0.00000E+00
   -0.41919E+05        -0.39756E+08         0.00000E+00
    0.00000E+00         0.00000E+00        -0.99500E+07
 
   -0.99355E+07         0.23400E+06         0.00000E+00
    0.23400E+06        -0.39806E+08         0.00000E+00
    0.00000E+00         0.00000E+00        -0.99484E+07
 
   -0.98889E+07         0.55956E+06         0.00000E+00
    0.55956E+06        -0.39848E+08         0.00000E+00
    0.00000E+00         0.00000E+00        -0.99474E+07
 
   -0.98598E+07         0.93318E+06         0.00000E+00
    0.93318E+06        -0.39878E+08         0.00000E+00
    0.00000E+00         0.00000E+00        -0.99476E+07
 
   -0.98536E+07         0.13534E+07         0.00000E+00
    0.13534E+07        -0.39895E+08         0.00000E+00
    0.00000E+00         0.00000E+00        -0.99497E+07
 
   -0.98752E+07         0.18184E+07         0.00000E+00
    0.18184E+07        -0.39895E+08         0.00000E+00
    0.00000E+00         0.00000E+00        -0.99541E+07
 
   -0.99295E+07         0.23260E+07         0.00000E+00
    0.23260E+07        -0.39876E+08         0.00000E+00
    0.00000E+00         0.00000E+00        -0.99612E+07
 
   -0.11185E+08        -0.15472E+06         0.00000E+00
   -0.15472E+06        -0.40097E+08         0.00000E+00
    0.00000E+00         0.00000E+00        -0.10256E+08
 
   -0.11209E+08        -0.40175E+06         0.00000E+00
   -0.40175E+06        -0.40123E+08         0.00000E+00
    0.00000E+00         0.00000E+00        -0.10266E+08
 
   -0.11177E+08        -0.56729E+06         0.00000E+00
   -0.56729E+06        -0.40168E+08         0.00000E+00
    0.00000E+00         0.00000E+00        -0.10269E+08
 
   -0.11106E+08        -0.65527E+06         0.00000E+00
   -0.65527E+06        -0.40225E+08         0.00000E+00
    0.00000E+00         0.00000E+00        -0.10266E+08
 
   -0.11007E+08        -0.67046E+06         0.00000E+00
   -0.67046E+06        -0.40288E+08         0.00000E+00
    0.00000E+00         0.00000E+00        -0.10259E+08
 
   -0.10891E+08        -0.61787E+06         0.00000E+00
   -0.61787E+06        -0.40353E+08         0.00000E+00
    0.00000E+00         0.00000E+00        -0.10249E+08
 
   -0.10766E+08        -0.50228E+06         0.00000E+00
   -0.50228E+06        -0.40417E+08         0.00000E+00
    0.00000E+00         0.00000E+00        -0.10237E+08
 
   -0.10640E+08        -0.32785E+06         0.00000E+00
   -0.32785E+06        -0.40479E+08         0.00000E+00
    0.00000E+00         0.00000E+00        -0.10224E+08
 
   -0.10518E+08        -0.97890E+05         0.00000E+00
   -0.97890E+05        -0.40536E+08         0.00000E+00
    0.00000E+00         0.00000E+00        -0.10211E+08
 
   -0.10406E+08         0.18515E+06         0.00000E+00
    0.18515E+06        -0.40589E+08         0.00000E+00
    0.00000E+00         0.00000E+00        -0.10199E+08
 
   -0.10308E+08         0.51960E+06         0.00000E+00
    0.51960E+06        -0.40635E+08         0.00000E+00
    0.00000E+00         0.00000E+00        -0.10188E+08
 
   -0.10229E+08         0.90428E+06         0.00000E+00
    0.90428E+06        -0.40672E+08         0.00000E+00
    0.00000E+00         0.00000E+00        -0.10180E+08
 
   -0.10174E+08         0.13381E+07         0.00000E+00
    0.13381E+07        -0.40700E+08         0.00000E+00
    0.00000E+00         0.00000E+00        -0.10175E+08
 
   -0.10149E+08         0.18197E+07         0.00000E+00
    0.18197E+07        -0.40713E+08         0.00000E+00
    0.00000E+00         0.00000E+00        -0.10173E+08
 
   -0.10161E+08         0.23469E+07         0.00000E+00
    0.23469E+07        -0.40710E+08         0.00000E+00
    0.00000E+00         0.00000E+00        -0.10174E+08
 
   -0.12303E+08        -0.16959E+06         0.00000E+00
   -0.16959E+06        -0.40912E+08         0.00000E+00
    0.00000E+00         0.00000E+00        -0.10643E+08
 
   -0.12239E+08        -0.43955E+06         0.00000E+00
   -0.43955E+06        -0.40938E+08         0.00000E+00
    0.00000E+00         0.00000E+00        -0.10635E+08
 
   -0.12123E+08        -0.62001E+06         0.00000E+00
   -0.62001E+06        -0.40981E+08         0.00000E+00
    0.00000E+00         0.00000E+00        -0.10621E+08
 
   -0.11972E+08        -0.71649E+06         0.00000E+00
   -0.71649E+06        -0.41035E+08         0.00000E+00
    0.00000E+00         0.00000E+00        -0.10601E+08
 
   -0.11798E+08        -0.73542E+06         0.00000E+00
   -0.73542E+06        -0.41093E+08         0.00000E+00
    0.00000E+00         0.00000E+00        -0.10578E+08
 
   -0.11613E+08        -0.68332E+06         0.00000E+00
   -0.68332E+06        -0.41153E+08         0.00000E+00
    0.00000E+00         0.00000E+00        -0.10553E+08
 
   -0.11425E+08        -0.56620E+06         0.00000E+00
   -0.56620E+06        -0.41212E+08         0.00000E+00
    0.00000E+00         0.00000E+00        -0.10527E+08
 
   -0.11239E+08        -0.38901E+06         0.00000E+00
   -0.38901E+06        -0.41269E+08         0.00000E+00
    0.00000E+00         0.00000E+00        -0.10502E+08
 
   -0.11061E+08        -0.15542E+06         0.00000E+00
   -0.15542E+06        -0.41324E+08         0.00000E+00
    0.00000E+00         0.00000E+00        -0.10477E+08
 
   -0.10893E+08         0.13217E+06         0.00000E+00
    0.13217E+06        -0.41376E+08         0.00000E+00
    0.00000E+00         0.00000E+00        -0.10454E+08
 
   -0.10742E+08         0.47252E+06         0.00000E+00
    0.47252E+06        -0.41425E+08         0.00000E+00
    0.00000E+00         0.00000E+00        -0.10433E+08
 
   -0.10610E+08         0.86509E+06         0.00000E+00
    0.86509E+06        -0.41470E+08         0.00000E+00
    0.00000E+00         0.00000E+00        -0.10416E+08
 
   -0.10504E+08         0.13096E+07         0.00000E+00
    0.13096E+07        -0.41508E+08         0.00000E+00
    0.00000E+00         0.00000E+00        -0.10402E+08
 
   -0.10430E+08         0.18053E+07         0.00000E+00
    0.18053E+07        -0.41535E+08         0.00000E+00
    0.00000E+00         0.00000E+00        -0.10393E+08
 
   -0.10395E+08         0.23504E+07         0.00000E+00
    0.23504E+07        -0.41549E+08         0.00000E+00
    0.00000E+00         0.00000E+00        -0.10389E+08
 
   -0.13469E+08        -0.18462E+06         0.00000E+00
   -0.18462E+06        -0.41748E+08         0.00000E+00
    0.00000E+00         0.00000E+00        -0.11043E+08
 
   -0.13307E+08        -0.47699E+06         0.00000E+00
   -0.47699E+06        -0.41773E+08         0.00000E+00
    0.00000E+00         0.00000E+00        -0.11016E+08
 
   -0.13100E+08        -0.67108E+06         0.00000E+00
   -0.67108E+06        -0.41813E+08         0.00000E+00
    0.00000E+00         0.00000E+00        -0.10983E+08
 
   -0.12863E+08        -0.77451E+06         0.00000E+00
   -0.77451E+06        -0.41861E+08         0.00000E+00
    0.00000E+00         0.00000E+00        -0.10945E+08
 
   -0.12611E+08        -0.79587E+06         0.00000E+00
   -0.79587E+06        -0.41912E+08         0.00000E+00
    0.00000E+00         0.00000E+00        -0.10905E+08
 
   -0.12356E+08        -0.74364E+06         0.00000E+00
   -0.74364E+06        -0.41963E+08         0.00000E+00
    0.00000E+00         0.00000E+00        -0.10864E+08
 
   -0.12102E+08        -0.62530E+06         0.00000E+00
   -0.62530E+06        -0.42013E+08         0.00000E+00
    0.00000E+00         0.00000E+00        -0.10823E+08
 
   -0.11856E+08        -0.44672E+06         0.00000E+00
   -0.44672E+06        -0.42062E+08         0.00000E+00
    0.00000E+00         0.00000E+00        -0.10784E+08
 
   -0.11621E+08        -0.21191E+06         0.00000E+00
   -0.21191E+06        -0.42110E+08         0.00000E+00
    0.00000E+00         0.00000E+00        -0.10746E+08
 
   -0.11398E+08         0.76985E+05         0.00000E+00
    0.76985E+05        -0.42160E+08         0.00000E+00
    0.00000E+00         0.00000E+00        -0.10712E+08
 
   -0.11192E+08         0.41938E+06         0.00000E+00
    0.41938E+06        -0.42211E+08         0.00000E+00
    0.00000E+00         0.00000E+00        -0.10680E+08
 
   -0.11006E+08         0.81580E+06         0.00000E+00
    0.81580E+06        -0.42261E+08         0.00000E+00
    0.00000E+00         0.00000E+00        -0.10653E+08
 
   -0.10845E+08         0.12671E+07         0.00000E+00
    0.12671E+07        -0.42310E+08         0.00000E+00
    0.00000E+00         0.00000E+00        -0.10631E+08
 
   -0.10717E+08         0.17738E+07         0.00000E+00
    0.17738E+07        -0.42353E+08         0.00000E+00
    0.00000E+00         0.00000E+00        -0.10614E+08
 
   -0.10631E+08         0.23347E+07         0.00000E+00
    0.23347E+07        -0.42386E+08         0.00000E+00
    0.00000E+00         0.00000E+00        -0.10603E+08
 
   -0.14679E+08        -0.19951E+06         0.00000E+00
   -0.19951E+06        -0.42601E+08         0.00000E+00
    0.00000E+00         0.00000E+00        -0.11456E+08
 
   -0.14410E+08        -0.51295E+06         0.00000E+00
   -0.51295E+06        -0.42624E+08         0.00000E+00
    0.00000E+00         0.00000E+00        -0.11407E+08
 
   -0.14102E+08        -0.71839E+06         0.00000E+00
   -0.71839E+06        -0.42659E+08         0.00000E+00
    0.00000E+00         0.00000E+00        -0.11352E+08
 
   -0.13775E+08        -0.82625E+06         0.00000E+00
   -0.82625E+06        -0.42699E+08         0.00000E+00
    0.00000E+00         0.00000E+00        -0.11295E+08
 
   -0.13442E+08        -0.84800E+06         0.00000E+00
   -0.84800E+06        -0.42739E+08         0.00000E+00
    0.00000E+00         0.00000E+00        -0.11236E+08
 
   -0.13114E+08        -0.79462E+06         0.00000E+00
   -0.79462E+06        -0.42776E+08         0.00000E+00
    0.00000E+00         0.00000E+00        -0.11178E+08
 
   -0.12796E+08        -0.67536E+06         0.00000E+00
   -0.67536E+06        -0.42812E+08         0.00000E+00
    0.00000E+00         0.00000E+00        -0.11122E+08
 
   -0.12491E+08        -0.49710E+06         0.00000E+00
   -0.49710E+06        -0.42849E+08         0.00000E+00
    0.00000E+00         0.00000E+00        -0.11068E+08
 
   -0.12199E+08        -0.26408E+06         0.00000E+00
   -0.26408E+06        -0.42888E+08         0.00000E+00
    0.00000E+00         0.00000E+00        -0.11017E+08
 
   -0.11922E+08         0.21983E+05         0.00000E+00
    0.21983E+05        -0.42931E+08         0.00000E+00
    0.00000E+00         0.00000E+00        -0.10971E+08
 
   -0.11660E+08         0.36154E+06         0.00000E+00
    0.36154E+06        -0.42982E+08         0.00000E+00
    0.00000E+00         0.00000E+00        -0.10928E+08
 
   -0.11416E+08         0.75659E+06         0.00000E+00
    0.75659E+06        -0.43038E+08         0.00000E+00
    0.00000E+00         0.00000E+00        -0.10891E+08
 
   -0.11197E+08         0.12098E+07         0.00000E+00
    0.12098E+07        -0.43098E+08         0.00000E+00
    0.00000E+00         0.00000E+00        -0.10859E+08
 
   -0.11011E+08         0.17234E+07         0.00000E+00
    0.17234E+07        -0.43158E+08         0.00000E+00
    0.00000E+00         0.00000E+00        -0.10834E+08
 
   -0.10868E+08         0.22978E+07         0.00000E+00
    0.22978E+07        -0.43211E+08         0.00000E+00
    0.00000E+00         0.00000E+00        -0.10816E+08
 
   -0.15929E+08        -0.21389E+06         0.00000E+00
   -0.21389E+06        -0.43467E+08         0.00000E+00
    0.00000E+00         0.00000E+00        -0.11879E+08
 
   -0.15541E+08        -0.54599E+06         0.00000E+00
   -0.54599E+06        -0.43487E+08         0.00000E+00
    0.00000E+00         0.00000E+00        -0.11805E+08
 
   -0.15124E+08        -0.75914E+06         0.00000E+00
   -0.75914E+06        -0.43515E+08         0.00000E+00
    0.00000E+00         0.00000E+00        -0.11728E+08
 
   -0.14700E+08        -0.86765E+06         0.00000E+00
   -0.86765E+06        -0.43543E+08         0.00000E+00
    0.00000E+00         0.00000E+00        -0.11649E+08
 
   -0.14285E+08        -0.88690E+06         0.00000E+00
   -0.88690E+06        -0.43566E+08         0.00000E+00
    0.00000E+00         0.00000E+00        -0.11570E+08
 
   -0.13886E+08        -0.83098E+06         0.00000E+00
   -0.83098E+06        -0.43585E+08         0.00000E+00
    0.00000E+00         0.00000E+00        -0.11494E+08
 
   -0.13505E+08        -0.71121E+06         0.00000E+00
   -0.71121E+06        -0.43602E+08         0.00000E+00
    0.00000E+00         0.00000E+00        -0.11421E+08
 
   -0.13143E+08        -0.53545E+06         0.00000E+00
   -0.53545E+06        -0.43620E+08         0.00000E+00
    0.00000E+00         0.00000E+00        -0.11353E+08
 
   -0.12797E+08        -0.30802E+06         0.00000E+00
   -0.30802E+06        -0.43645E+08         0.00000E+00
    0.00000E+00         0.00000E+00        -0.11289E+08
 
   -0.12466E+08        -0.29940E+05         0.00000E+00
   -0.29940E+05        -0.43680E+08         0.00000E+00
    0.00000E+00         0.00000E+00        -0.11229E+08
 
   -0.12148E+08         0.30061E+06         0.00000E+00
    0.30061E+06        -0.43727E+08         0.00000E+00
    0.00000E+00         0.00000E+00        -0.11175E+08
 
   -0.11846E+08         0.68767E+06         0.00000E+00
    0.68767E+06        -0.43788E+08         0.00000E+00
    0.00000E+00         0.00000E+00        -0.11127E+08
 
   -0.11564E+08         0.11364E+07         0.00000E+00
    0.11364E+07        -0.43861E+08         0.00000E+00
    0.00000E+00         0.00000E+00        -0.11085E+08
 
   -0.11312E+08         0.16518E+07         0.00000E+00
    0.16518E+07        -0.43940E+08         0.00000E+00
    0.00000E+00         0.00000E+00        -0.11051E+08
 
   -0.11105E+08         0.22364E+07         0.00000E+00
    0.22364E+07        -0.44018E+08         0.00000E+00
    0.00000E+00         0.00000E+00        -0.11025E+08
 
   -0.17212E+08        -0.22734E+06         0.00000E+00
   -0.22734E+06        -0.44343E+08         0.00000E+00
    0.00000E+00         0.00000E+00        -0.12311E+08
 
   -0.16691E+08        -0.57417E+06         0.00000E+00
   -0.57417E+06        -0.44359E+08         0.00000E+00
    0.00000E+00         0.00000E+00        -0.12210E+08
 
   -0.16157E+08        -0.78952E+06         0.00000E+00
   -0.78952E+06        -0.44376E+08         0.00000E+00
    0.00000E+00         0.00000E+00        -0.12107E+08
 
   -0.15633E+08        -0.89334E+06         0.00000E+00
   -0.89334E+06        -0.44387E+08         0.00000E+00
    0.00000E+00         0.00000E+00        -0.12004E+08
 
   -0.15134E+08        -0.90627E+06         0.00000E+00
   -0.90627E+06        -0.44388E+08         0.00000E+00
    0.00000E+00         0.00000E+00        -0.11904E+08
 
   -0.14666E+08        -0.84625E+06         0.00000E+00
   -0.84625E+06        -0.44381E+08         0.00000E+00
    0.00000E+00         0.00000E+00        -0.11809E+08
 
   -0.14227E+08        -0.72673E+06         0.00000E+00
   -0.72673E+06        -0.44372E+08         0.00000E+00
    0.00000E+00         0.00000E+00        -0.11720E+08
 
   -0.13813E+08        -0.55635E+06         0.00000E+00
   -0.55635E+06        -0.44367E+08         0.00000E+00
    0.00000E+00         0.00000E+00        -0.11636E+08
 
   -0.13417E+08        -0.33921E+06         0.00000E+00
   -0.33921E+06        -0.44373E+08         0.00000E+00
    0.00000E+00         0.00000E+00        -0.11558E+08
 
   -0.13035E+08        -0.75415E+05         0.00000E+00
   -0.75415E+05        -0.44394E+08         0.00000E+00
    0.00000E+00         0.00000E+00        -0.11486E+08
 
   -0.12663E+08         0.23854E+06         0.00000E+00
    0.23854E+06        -0.44437E+08         0.00000E+00
    0.00000E+00         0.00000E+00        -0.11420E+08
 
   -0.12299E+08         0.60921E+06         0.00000E+00
    0.60921E+06        -0.44501E+08         0.00000E+00
    0.00000E+00         0.00000E+00        -0.11360E+08
 
   -0.11949E+08         0.10452E+07         0.00000E+00
    0.10452E+07        -0.44587E+08         0.00000E+00
    0.00000E+00         0.00000E+00        -0.11307E+08
 
   -0.11624E+08         0.15554E+07         0.00000E+00
    0.15554E+07        -0.44689E+08         0.00000E+00
    0.00000E+00         0.00000E+00        -0.11263E+08
 
   -0.11341E+08         0.21462E+07         0.00000E+00
    0.21462E+07        -0.44796E+08         0.00000E+00
    0.00000E+00         0.00000E+00        -0.11227E+08
 
   -0.18523E+08        -0.23932E+06         0.00000E+00
   -0.23932E+06        -0.45225E+08         0.00000E+00
    0.00000E+00         0.00000E+00        -0.12750E+08
 
   -0.17853E+08        -0.59476E+06         0.00000E+00
   -0.59476E+06        -0.45234E+08         0.00000E+00
    0.00000E+00         0.00000E+00        -0.12617E+08
 
   -0.17190E+08        -0.80417E+06         0.00000E+00
   -0.80417E+06        -0.45237E+08         0.00000E+00
    0.00000E+00         0.00000E+00        -0.12485E+08
 
   -0.16563E+08        -0.89603E+06         0.00000E+00
   -0.89603E+06        -0.45223E+08         0.00000E+00
    0.00000E+00         0.00000E+00        -0.12357E+08
 
   -0.15984E+08        -0.89817E+06         0.00000E+00
   -0.89817E+06        -0.45193E+08         0.00000E+00
    0.00000E+00         0.00000E+00        -0.12235E+08
 
   -0.15452E+08        -0.83281E+06         0.00000E+00
   -0.83281E+06        -0.45152E+08         0.00000E+00
    0.00000E+00         0.00000E+00        -0.12121E+08
 
   -0.14961E+08        -0.71514E+06         0.00000E+00
   -0.71514E+06        -0.45111E+08         0.00000E+00
    0.00000E+00         0.00000E+00        -0.12014E+08
 
   -0.14501E+08        -0.55398E+06         0.00000E+00
   -0.55398E+06        -0.45076E+08         0.00000E+00
    0.00000E+00         0.00000E+00        -0.11915E+08
 
   -0.14062E+08        -0.35282E+06         0.00000E+00
   -0.35282E+06        -0.45058E+08         0.00000E+00
    0.00000E+00         0.00000E+00        -0.11824E+08
 
   -0.13633E+08        -0.11068E+06         0.00000E+00
   -0.11068E+06        -0.45063E+08         0.00000E+00
    0.00000E+00         0.00000E+00        -0.11739E+08
 
   -0.13208E+08         0.17766E+06         0.00000E+00
    0.17766E+06        -0.45097E+08         0.00000E+00
    0.00000E+00         0.00000E+00        -0.11661E+08
 
   -0.12783E+08         0.52158E+06         0.00000E+00
    0.52158E+06        -0.45165E+08         0.00000E+00
    0.00000E+00         0.00000E+00        -0.11590E+08
 
   -0.12360E+08         0.93406E+06         0.00000E+00
    0.93406E+06        -0.45265E+08         0.00000E+00
    0.00000E+00         0.00000E+00        -0.11525E+08
 
   -0.11950E+08         0.14298E+07         0.00000E+00
    0.14298E+07        -0.45393E+08         0.00000E+00
    0.00000E+00         0.00000E+00        -0.11469E+08
 
   -0.11576E+08         0.20210E+07         0.00000E+00
    0.20210E+07        -0.45535E+08         0.00000E+00
    0.00000E+00         0.00000E+00        -0.11422E+08
 
   -0.19851E+08        -0.24907E+06         0.00000E+00
   -0.24907E+06        -0.46109E+08         0.00000E+00
    0.00000E+00         0.00000E+00        -0.13192E+08
 
   -0.19011E+08        -0.60352E+06         0.00000E+00
   -0.60352E+06        -0.46109E+08         0.00000E+00
    0.00000E+00         0.00000E+00        -0.13024E+08
 
   -0.18211E+08        -0.79504E+06         0.00000E+00
   -0.79504E+06        -0.46089E+08         0.00000E+00
    0.00000E+00         0.00000E+00        -0.12860E+08
 
   -0.17481E+08        -0.86578E+06         0.00000E+00
   -0.86578E+06        -0.46040E+08         0.00000E+00
    0.00000E+00         0.00000E+00        -0.12704E+08
 
   -0.16827E+08        -0.85288E+06         0.00000E+00
   -0.85288E+06        -0.45968E+08         0.00000E+00
    0.00000E+00         0.00000E+00        -0.12559E+08
 
   -0.16241E+08        -0.78233E+06         0.00000E+00
   -0.78233E+06        -0.45885E+08         0.00000E+00
    0.00000E+00         0.00000E+00        -0.12425E+08
 
   -0.15708E+08        -0.66968E+06         0.00000E+00
   -0.66968E+06        -0.45804E+08         0.00000E+00
    0.00000E+00         0.00000E+00        -0.12302E+08
 
   -0.15211E+08        -0.52282E+06         0.00000E+00
   -0.52282E+06        -0.45736E+08         0.00000E+00
    0.00000E+00         0.00000E+00        -0.12189E+08
 
   -0.14735E+08        -0.34421E+06         0.00000E+00
   -0.34421E+06        -0.45690E+08         0.00000E+00
    0.00000E+00         0.00000E+00        -0.12085E+08
 
   -0.14267E+08        -0.13181E+06         0.00000E+00
   -0.13181E+06        -0.45674E+08         0.00000E+00
    0.00000E+00         0.00000E+00        -0.11988E+08
 
   -0.13794E+08         0.12088E+06         0.00000E+00
    0.12088E+06        -0.45697E+08         0.00000E+00
    0.00000E+00         0.00000E+00        -0.11898E+08
 
   -0.13307E+08         0.42572E+06         0.00000E+00
    0.42572E+06        -0.45765E+08         0.00000E+00
    0.00000E+00         0.00000E+00        -0.11815E+08
 
   -0.12805E+08         0.80065E+06         0.00000E+00
    0.80065E+06        -0.45881E+08         0.00000E+00
    0.00000E+00         0.00000E+00        -0.11737E+08
 
   -0.12298E+08         0.12686E+07         0.00000E+00
    0.12686E+07        -0.46040E+08         0.00000E+00
    0.00000E+00         0.00000E+00        -0.11668E+08
 
   -0.11813E+08         0.18519E+07         0.00000E+00
    0.18519E+07        -0.46226E+08         0.00000E+00
    0.00000E+00         0.00000E+00        -0.11608E+08
 
   -0.21185E+08        -0.25539E+06         0.00000E+00
   -0.25539E+06        -0.46990E+08         0.00000E+00
    0.00000E+00         0.00000E+00        -0.13635E+08
 
   -0.20148E+08        -0.59290E+06         0.00000E+00
   -0.59290E+06        -0.46975E+08         0.00000E+00
    0.00000E+00         0.00000E+00        -0.13425E+08
 
   -0.19202E+08        -0.74929E+06         0.00000E+00
   -0.74929E+06        -0.46919E+08         0.00000E+00
    0.00000E+00         0.00000E+00        -0.13224E+08
 
   -0.18376E+08        -0.78910E+06         0.00000E+00
   -0.78910E+06        -0.46819E+08         0.00000E+00
    0.00000E+00         0.00000E+00        -0.13039E+08
 
   -0.17661E+08        -0.75952E+06         0.00000E+00
   -0.75952E+06        -0.46694E+08         0.00000E+00
    0.00000E+00         0.00000E+00        -0.12871E+08
 
   -0.17034E+08        -0.68708E+06         0.00000E+00
   -0.68708E+06        -0.46561E+08         0.00000E+00
    0.00000E+00         0.00000E+00        -0.12719E+08
 
   -0.16469E+08        -0.58495E+06         0.00000E+00
   -0.58495E+06        -0.46436E+08         0.00000E+00
    0.00000E+00         0.00000E+00        -0.12581E+08
 
   -0.15945E+08        -0.45883E+06         0.00000E+00
   -0.45883E+06        -0.46331E+08         0.00000E+00
    0.00000E+00         0.00000E+00        -0.12455E+08
 
   -0.15443E+08        -0.30980E+06         0.00000E+00
   -0.30980E+06        -0.46256E+08         0.00000E+00
    0.00000E+00         0.00000E+00        -0.12340E+08
 
   -0.14942E+08        -0.13518E+06         0.00000E+00
   -0.13518E+06        -0.46218E+08         0.00000E+00
    0.00000E+00         0.00000E+00        -0.12232E+08
 
   -0.14428E+08         0.71842E+05         0.00000E+00
    0.71842E+05        -0.46227E+08         0.00000E+00
    0.00000E+00         0.00000E+00        -0.12131E+08
 
   -0.13884E+08         0.32399E+06         0.00000E+00
    0.32399E+06        -0.46292E+08         0.00000E+00
    0.00000E+00         0.00000E+00        -0.12035E+08
 
   -0.13300E+08         0.64350E+06         0.00000E+00
    0.64350E+06        -0.46421E+08         0.00000E+00
    0.00000E+00         0.00000E+00        -0.11944E+08
 
   -0.12680E+08         0.10643E+07         0.00000E+00
    0.10643E+07        -0.46615E+08         0.00000E+00
    0.00000E+00         0.00000E+00        -0.11859E+08
 
   -0.12055E+08         0.16263E+07         0.00000E+00
    0.16263E+07        -0.46859E+08         0.00000E+00
    0.00000E+00         0.00000E+00        -0.11783E+08
 
   -0.22505E+08        -0.25548E+06         0.00000E+00
   -0.25548E+06        -0.47863E+08         0.00000E+00
    0.00000E+00         0.00000E+00        -0.14074E+08
 
   -0.21236E+08        -0.54738E+06         0.00000E+00
   -0.54738E+06        -0.47820E+08         0.00000E+00
    0.00000E+00         0.00000E+00        -0.13811E+08
 
   -0.20146E+08        -0.64582E+06         0.00000E+00
   -0.64582E+06        -0.47703E+08         0.00000E+00
    0.00000E+00         0.00000E+00        -0.13570E+08
 
   -0.19244E+08        -0.64967E+06         0.00000E+00
   -0.64967E+06        -0.47532E+08         0.00000E+00
    0.00000E+00         0.00000E+00        -0.13355E+08
 
   -0.18487E+08        -0.60870E+06         0.00000E+00
   -0.60870E+06        -0.47343E+08         0.00000E+00
    0.00000E+00         0.00000E+00        -0.13166E+08
 
   -0.17833E+08        -0.54242E+06         0.00000E+00
   -0.54242E+06        -0.47157E+08         0.00000E+00
    0.00000E+00         0.00000E+00        -0.12998E+08
 
   -0.17250E+08        -0.45886E+06         0.00000E+00
   -0.45886E+06        -0.46989E+08         0.00000E+00
    0.00000E+00         0.00000E+00        -0.12848E+08
 
   -0.16709E+08        -0.36088E+06         0.00000E+00
   -0.36088E+06        -0.46849E+08         0.00000E+00
    0.00000E+00         0.00000E+00        -0.12712E+08
 
   -0.16188E+08        -0.24831E+06         0.00000E+00
   -0.24831E+06        -0.46745E+08         0.00000E+00
    0.00000E+00         0.00000E+00        -0.12587E+08
 
   -0.15665E+08        -0.11846E+06         0.00000E+00
   -0.11846E+06        -0.46685E+08         0.00000E+00
    0.00000E+00         0.00000E+00        -0.12470E+08
 
   -0.15120E+08         0.34485E+05         0.00000E+00
    0.34485E+05        -0.46679E+08         0.00000E+00
    0.00000E+00         0.00000E+00        -0.12360E+08
 
   -0.14528E+08         0.22161E+06         0.00000E+00
    0.22161E+06        -0.46737E+08         0.00000E+00
    0.00000E+00         0.00000E+00        -0.12253E+08
 
   -0.13865E+08         0.46443E+06         0.00000E+00
    0.46443E+06        -0.46873E+08         0.00000E+00
    0.00000E+00         0.00000E+00        -0.12148E+08
 
   -0.13117E+08         0.80841E+06         0.00000E+00
    0.80841E+06        -0.47105E+08         0.00000E+00
    0.00000E+00         0.00000E+00        -0.12044E+08
 
   -0.12310E+08         0.13245E+07         0.00000E+00
    0.13245E+07        -0.47421E+08         0.00000E+00
    0.00000E+00         0.00000E+00        -0.11946E+08
 
   -0.23776E+08        -0.23968E+06         0.00000E+00
   -0.23968E+06        -0.48717E+08         0.00000E+00
    0.00000E+00         0.00000E+00        -0.14499E+08
 
   -0.22235E+08        -0.42985E+06         0.00000E+00
   -0.42985E+06        -0.48605E+08         0.00000E+00
    0.00000E+00         0.00000E+00        -0.14168E+08
 
   -0.21032E+08        -0.45504E+06         0.00000E+00
   -0.45504E+06        -0.48384E+08         0.00000E+00
    0.00000E+00         0.00000E+00        -0.13883E+08
 
   -0.20087E+08        -0.43574E+06         0.00000E+00
   -0.43574E+06        -0.48130E+08         0.00000E+00
    0.00000E+00         0.00000E+00        -0.13644E+08
 
   -0.19310E+08        -0.39818E+06         0.00000E+00
   -0.39818E+06        -0.47879E+08         0.00000E+00
    0.00000E+00         0.00000E+00        -0.13438E+08
 
   -0.18646E+08        -0.35024E+06         0.00000E+00
   -0.35024E+06        -0.47646E+08         0.00000E+00
    0.00000E+00         0.00000E+00        -0.13258E+08
 
   -0.18054E+08        -0.29469E+06         0.00000E+00
   -0.29469E+06        -0.47443E+08         0.00000E+00
    0.00000E+00         0.00000E+00        -0.13099E+08
 
   -0.17506E+08        -0.23214E+06         0.00000E+00
   -0.23214E+06        -0.47275E+08         0.00000E+00
    0.00000E+00         0.00000E+00        -0.12956E+08
 
   -0.16975E+08        -0.16189E+06         0.00000E+00
   -0.16189E+06        -0.47149E+08         0.00000E+00
    0.00000E+00         0.00000E+00        -0.12825E+08
 
   -0.16440E+08        -0.81954E+05         0.00000E+00
   -0.81954E+05        -0.47072E+08         0.00000E+00
    0.00000E+00         0.00000E+00        -0.12702E+08
 
   -0.15875E+08         0.11463E+05         0.00000E+00
    0.11463E+05        -0.47052E+08         0.00000E+00
    0.00000E+00         0.00000E+00        -0.12585E+08
 
   -0.15250E+08         0.12555E+06         0.00000E+00
    0.12555E+06        -0.47100E+08         0.00000E+00
    0.00000E+00         0.00000E+00        -0.12470E+08
 
   -0.14528E+08         0.27504E+06         0.00000E+00
    0.27504E+06        -0.47234E+08         0.00000E+00
    0.00000E+00         0.00000E+00        -0.12352E+08
 
   -0.13649E+08         0.49703E+06         0.00000E+00
    0.49703E+06        -0.47487E+08         0.00000E+00
    0.00000E+00         0.00000E+00        -0.12227E+08
 
   -0.12600E+08         0.91357E+06         0.00000E+00
    0.91357E+06        -0.47900E+08         0.00000E+00
    0.00000E+00         0.00000E+00        -0.12100E+08
 
   -0.24912E+08        -0.14586E+06         0.00000E+00
   -0.14586E+06        -0.49473E+08         0.00000E+00
    0.00000E+00         0.00000E+00        -0.14877E+08
 
   -0.23116E+08        -0.17509E+06         0.00000E+00
   -0.17509E+06        -0.49195E+08         0.00000E+00
    0.00000E+00         0.00000E+00        -0.14462E+08
 
   -0.21880E+08        -0.16721E+06         0.00000E+00
   -0.16721E+06        -0.48871E+08         0.00000E+00
    0.00000E+00         0.00000E+00        -0.14150E+08
 
   -0.20924E+08        -0.15496E+06         0.00000E+00
   -0.15496E+06        -0.48556E+08         0.00000E+00
    0.00000E+00         0.00000E+00        -0.13896E+08
 
   -0.20144E+08        -0.13946E+06         0.00000E+00
   -0.13946E+06        -0.48265E+08         0.00000E+00
    0.00000E+00         0.00000E+00        -0.13682E+08
 
   -0.19479E+08        -0.12179E+06         0.00000E+00
   -0.12179E+06        -0.48006E+08         0.00000E+00
    0.00000E+00         0.00000E+00        -0.13497E+08
 
   -0.18887E+08        -0.10219E+06         0.00000E+00
   -0.10219E+06        -0.47783E+08         0.00000E+00
    0.00000E+00         0.00000E+00        -0.13334E+08
 
   -0.18339E+08        -0.80622E+05         0.00000E+00
   -0.80622E+05        -0.47600E+08         0.00000E+00
    0.00000E+00         0.00000E+00        -0.13188E+08
 
   -0.17807E+08        -0.56700E+05         0.00000E+00
   -0.56700E+05        -0.47463E+08         0.00000E+00
    0.00000E+00         0.00000E+00        -0.13054E+08
 
   -0.17268E+08        -0.29702E+05         0.00000E+00
   -0.29702E+05        -0.47376E+08         0.00000E+00
    0.00000E+00         0.00000E+00        -0.12929E+08
 
   -0.16695E+08         0.16735E+04         0.00000E+00
    0.16735E+04        -0.47348E+08         0.00000E+00
    0.00000E+00         0.00000E+00        -0.12809E+08
 
   -0.16056E+08         0.39817E+05         0.00000E+00
    0.39817E+05        -0.47389E+08         0.00000E+00
    0.00000E+00         0.00000E+00        -0.12689E+08
 
   -0.15304E+08         0.89911E+05         0.00000E+00
    0.89911E+05        -0.47517E+08         0.00000E+00
    0.00000E+00         0.00000E+00        -0.12564E+08
 
   -0.14355E+08         0.16367E+06         0.00000E+00
    0.16367E+06        -0.47770E+08         0.00000E+00
    0.00000E+00         0.00000E+00        -0.12425E+08
 
   -0.12979E+08         0.33767E+06         0.00000E+00
    0.33767E+06        -0.48245E+08         0.00000E+00
    0.00000E+00         0.00000E+00        -0.12245E+08
 
TENSORS stresstot double 
   -0.29053E+08        -0.21097E+04         0.00000E+00
   -0.21097E+04        -0.60002E+08         0.00000E+00
    0.00000E+00         0.00000E+00        -0.34738E+08
 
   -0.29703E+08        -0.52497E+04         0.00000E+00
   -0.52497E+04        -0.60010E+08         0.00000E+00
    0.00000E+00         0.00000E+00        -0.34866E+08
 
   -0.30298E+08        -0.68890E+04         0.00000E+00
   -0.68890E+04        -0.60022E+08         0.00000E+00
    0.00000E+00         0.00000E+00        -0.34980E+08
 
   -0.30846E+08        -0.69809E+04         0.00000E+00
   -0.69809E+04        -0.60036E+08         0.00000E+00
    0.00000E+00         0.00000E+00        -0.35084E+08
 
   -0.31353E+08        -0.54955E+04         0.00000E+00
   -0.54955E+04        -0.60049E+08         0.00000E+00
    0.00000E+00         0.00000E+00        -0.35176E+08
 
   -0.31827E+08        -0.24178E+04         0.00000E+00
   -0.24178E+04        -0.60057E+08         0.00000E+00
    0.00000E+00         0.00000E+00        -0.35261E+08
 
   -0.32274E+08         0.22542E+04         0.00000E+00
    0.22542E+04        -0.60057E+08         0.00000E+00
    0.00000E+00         0.00000E+00        -0.35337E+08
 
   -0.32699E+08         0.85124E+04         0.00000E+00
    0.85124E+04        -0.60047E+08         0.00000E+00
    0.00000E+00         0.00000E+00        -0.35407E+08
 
   -0.33110E+08         0.16340E+05         0.00000E+00
    0.16340E+05        -0.60022E+08         0.00000E+00
    0.00000E+00         0.00000E+00        -0.35471E+08
 
   -0.33512E+08         0.25716E+05         0.00000E+00
    0.25716E+05        -0.59980E+08         0.00000E+00
    0.00000E+00         0.00000E+00        -0.35531E+08
 
   -0.33912E+08         0.36616E+05         0.00000E+00
    0.36616E+05        -0.59918E+08         0.00000E+00
    0.00000E+00         0.00000E+00        -0.35588E+08
 
   -0.34315E+08         0.49015E+05         0.00000E+00
    0.49015E+05        -0.59832E+08         0.00000E+00
    0.00000E+00         0.00000E+00        -0.35642E+08
 
   -0.34726E+08         0.62894E+05         0.00000E+00
    0.62894E+05        -0.59721E+08         0.00000E+00
    0.00000E+00         0.00000E+00        -0.35694E+08
 
   -0.35151E+08         0.78239E+05         0.00000E+00
    0.78239E+05        -0.59580E+08         0.00000E+00
    0.00000E+00         0.00000E+00        -0.35746E+08
 
   -0.35596E+08         0.95045E+05         0.00000E+00
    0.95045E+05        -0.59407E+08         0.00000E+00
    0.00000E+00         0.00000E+00        -0.35797E+08
 
   -0.29061E+08        -0.63693E+04         0.00000E+00
   -0.63693E+04        -0.60002E+08         0.00000E+00
    0.00000E+00         0.00000E+00        -0.34708E+08
 
   -0.29707E+08        -0.15863E+05         0.00000E+00
   -0.15863E+05        -0.60010E+08         0.00000E+00
    0.00000E+00         0.00000E+00        -0.34835E+08
 
   -0.30300E+08        -0.20844E+05         0.00000E+00
   -0.20844E+05        -0.60023E+08         0.00000E+00
    0.00000E+00         0.00000E+00        -0.34949E+08
 
   -0.30845E+08        -0.21174E+05         0.00000E+00
   -0.21174E+05        -0.60037E+08         0.00000E+00
    0.00000E+00         0.00000E+00        -0.35051E+08
 
   -0.31349E+08        -0.16764E+05         0.00000E+00
   -0.16764E+05        -0.60050E+08         0.00000E+00
    0.00000E+00         0.00000E+00        -0.35144E+08
 
   -0.31819E+08        -0.75703E+04         0.00000E+00
   -0.75703E+04        -0.60059E+08         0.00000E+00
    0.00000E+00         0.00000E+00        -0.35227E+08
 
   -0.32263E+08         0.64115E+04         0.00000E+00
    0.64115E+04        -0.60060E+08         0.00000E+00
    0.00000E+00         0.00000E+00        -0.35303E+08
 
   -0.32685E+08         0.25155E+05         0.00000E+00
    0.25155E+05        -0.60050E+08         0.00000E+00
    0.00000E+00         0.00000E+00        -0.35373E+08
 
   -0.33093E+08         0.48610E+05         0.00000E+00
    0.48610E+05        -0.60026E+08         0.00000E+00
    0.00000E+00         0.00000E+00        -0.35437E+08
 
   -0.33492E+08         0.76710E+05         0.00000E+00
    0.76710E+05        -0.59985E+08         0.00000E+00
    0.00000E+00         0.00000E+00        -0.35497E+08
 
   -0.33889E+08         0.10938E+06         0.00000E+00
    0.10938E+06        -0.59924E+08         0.00000E+00
    0.00000E+00         0.00000E+00        -0.35553E+08
 
   -0.34289E+08         0.14655E+06         0.00000E+00
    0.14655E+06        -0.59839E+08         0.00000E+00
    0.00000E+00         0.00000E+00        -0.35607E+08
 
   -0.34697E+08         0.18815E+06         0.00000E+00
    0.18815E+06        -0.59729E+08         0.00000E+00
    0.00000E+00         0.00000E+00        -0.35659E+08
 
   -0.35119E+08         0.23414E+06         0.00000E+00
    0.23414E+06        -0.59589E+08         0.00000E+00
    0.00000E+00         0.00000E+00        -0.35710E+08
 
   -0.35560E+08         0.28451E+06         0.00000E+00
    0.28451E+06        -0.59417E+08         0.00000E+00
    0.00000E+00         0.00000E+00        -0.35761E+08
 
   -0.29077E+08        -0.10750E+05         0.00000E+00
   -0.10750E+05        -0.60002E+08         0.00000E+00
    0.00000E+00         0.00000E+00        -0.34647E+08
 
   -0.29717E+08        -0.26816E+05         0.00000E+00
   -0.26816E+05        -0.60010E+08         0.00000E+00
    0.00000E+00         0.00000E+00        -0.34772E+08
 
   -0.30303E+08        -0.35328E+05         0.00000E+00
   -0.35328E+05        -0.60023E+08         0.00000E+00
    0.00000E+00         0.00000E+00        -0.34886E+08
 
   -0.30842E+08        -0.36058E+05         0.00000E+00
   -0.36058E+05        -0.60039E+08         0.00000E+00
    0.00000E+00         0.00000E+00        -0.34987E+08
 
   -0.31340E+08        -0.28862E+05         0.00000E+00
   -0.28862E+05        -0.60053E+08         0.00000E+00
    0.00000E+00         0.00000E+00        -0.35079E+08
 
   -0.31804E+08        -0.13671E+05         0.00000E+00
   -0.13671E+05        -0.60063E+08         0.00000E+00
    0.00000E+00         0.00000E+00        -0.35161E+08
 
   -0.32241E+08         0.95178E+04         0.00000E+00
    0.95178E+04        -0.60065E+08         0.00000E+00
    0.00000E+00         0.00000E+00        -0.35236E+08
 
   -0.32657E+08         0.40656E+05         0.00000E+00
    0.40656E+05        -0.60057E+08         0.00000E+00
    0.00000E+00         0.00000E+00        -0.35305E+08
 
   -0.33058E+08         0.79653E+05         0.00000E+00
    0.79653E+05        -0.60034E+08         0.00000E+00
    0.00000E+00         0.00000E+00        -0.35368E+08
 
   -0.33452E+08         0.12639E+06         0.00000E+00
    0.12639E+06        -0.59995E+08         0.00000E+00
    0.00000E+00         0.00000E+00        -0.35427E+08
 
   -0.33842E+08         0.18075E+06         0.00000E+00
    0.18075E+06        -0.59936E+08         0.00000E+00
    0.00000E+00         0.00000E+00        -0.35483E+08
 
   -0.34236E+08         0.24259E+06         0.00000E+00
    0.24259E+06        -0.59853E+08         0.00000E+00
    0.00000E+00         0.00000E+00        -0.35536E+08
 
   -0.34639E+08         0.31180E+06         0.00000E+00
    0.31180E+06        -0.59745E+08         0.00000E+00
    0.00000E+00         0.00000E+00        -0.35587E+08
 
   -0.35055E+08         0.38831E+06         0.00000E+00
    0.38831E+06        -0.59607E+08         0.00000E+00
    0.00000E+00         0.00000E+00        -0.35638E+08
 
   -0.35490E+08         0.47209E+06         0.00000E+00
    0.47209E+06        -0.59437E+08         0.00000E+00
    0.00000E+00         0.00000E+00        -0.35688E+08
 
   -0.29101E+08        -0.15332E+05         0.00000E+00
   -0.15332E+05        -0.60003E+08         0.00000E+00
    0.00000E+00         0.00000E+00        -0.34555E+08
 
   -0.29732E+08        -0.38335E+05         0.00000E+00
   -0.38335E+05        -0.60011E+08         0.00000E+00
    0.00000E+00         0.00000E+00        -0.34679E+08
 
   -0.30309E+08        -0.50693E+05         0.00000E+00
   -0.50693E+05        -0.60025E+08         0.00000E+00
    0.00000E+00         0.00000E+00        -0.34791E+08
 
   -0.30838E+08        -0.52092E+05         0.00000E+00
   -0.52092E+05        -0.60041E+08         0.00000E+00
    0.00000E+00         0.00000E+00        -0.34891E+08
 
   -0.31327E+08        -0.42338E+05         0.00000E+00
   -0.42338E+05        -0.60057E+08         0.00000E+00
    0.00000E+00         0.00000E+00        -0.34981E+08
 
   -0.31781E+08        -0.21346E+05         0.00000E+00
   -0.21346E+05        -0.60069E+08         0.00000E+00
    0.00000E+00         0.00000E+00        -0.35062E+08
 
   -0.32208E+08         0.10881E+05         0.00000E+00
    0.10881E+05        -0.60073E+08         0.00000E+00
    0.00000E+00         0.00000E+00        -0.35136E+08
 
   -0.32615E+08         0.54261E+05         0.00000E+00
    0.54261E+05        -0.60067E+08         0.00000E+00
    0.00000E+00         0.00000E+00        -0.35204E+08
 
   -0.33007E+08         0.10866E+06         0.00000E+00
    0.10866E+06        -0.60047E+08         0.00000E+00
    0.00000E+00         0.00000E+00        -0.35266E+08
 
   -0.33391E+08         0.17390E+06         0.00000E+00
    0.17390E+06        -0.60010E+08         0.00000E+00
    0.00000E+00         0.00000E+00        -0.35324E+08
 
   -0.33773E+08         0.24980E+06         0.00000E+00
    0.24980E+06        -0.59953E+08         0.00000E+00
    0.00000E+00         0.00000E+00        -0.35378E+08
 
   -0.34158E+08         0.33615E+06         0.00000E+00
    0.33615E+06        -0.59874E+08         0.00000E+00
    0.00000E+00         0.00000E+00        -0.35430E+08
 
   -0.34551E+08         0.43280E+06         0.00000E+00
    0.43280E+06        -0.59768E+08         0.00000E+00
    0.00000E+00         0.00000E+00        -0.35481E+08
 
   -0.34959E+08         0.53962E+06         0.00000E+00
    0.53962E+06        -0.59634E+08         0.00000E+00
    0.00000E+00         0.00000E+00        -0.35530E+08
 
   -0.35386E+08         0.65656E+06         0.00000E+00
    0.65656E+06        -0.59468E+08         0.00000E+00
    0.00000E+00         0.00000E+00        -0.35580E+08
 
   -0.29133E+08        -0.20197E+05         0.00000E+00
   -0.20197E+05        -0.60003E+08         0.00000E+00
    0.00000E+00         0.00000E+00        -0.34434E+08
 
   -0.29753E+08        -0.50646E+05         0.00000E+00
   -0.50646E+05        -0.60012E+08         0.00000E+00
    0.00000E+00         0.00000E+00        -0.34556E+08
 
   -0.30317E+08        -0.67287E+05         0.00000E+00
   -0.67287E+05        -0.60027E+08         0.00000E+00
    0.00000E+00         0.00000E+00        -0.34665E+08
 
   -0.30834E+08        -0.69728E+05         0.00000E+00
   -0.69728E+05        -0.60045E+08         0.00000E+00
    0.00000E+00         0.00000E+00        -0.34764E+08
 
   -0.31309E+08        -0.57733E+05         0.00000E+00
   -0.57733E+05        -0.60063E+08         0.00000E+00
    0.00000E+00         0.00000E+00        -0.34852E+08
 
   -0.31751E+08        -0.31208E+05         0.00000E+00
   -0.31208E+05        -0.60077E+08         0.00000E+00
    0.00000E+00         0.00000E+00        -0.34931E+08
 
   -0.32165E+08         0.98213E+04         0.00000E+00
    0.98213E+04        -0.60083E+08         0.00000E+00
    0.00000E+00         0.00000E+00        -0.35003E+08
 
   -0.32559E+08         0.65234E+05         0.00000E+00
    0.65234E+05        -0.60080E+08         0.00000E+00
    0.00000E+00         0.00000E+00        -0.35069E+08
 
   -0.32939E+08         0.13484E+06         0.00000E+00
    0.13484E+06        -0.60063E+08         0.00000E+00
    0.00000E+00         0.00000E+00        -0.35130E+08
 
   -0.33310E+08         0.21839E+06         0.00000E+00
    0.21839E+06        -0.60030E+08         0.00000E+00
    0.00000E+00         0.00000E+00        -0.35186E+08
 
   -0.33680E+08         0.31563E+06         0.00000E+00
    0.31563E+06        -0.59977E+08         0.00000E+00
    0.00000E+00         0.00000E+00        -0.35239E+08
 
   -0.34053E+08         0.42628E+06         0.00000E+00
    0.42628E+06        -0.59901E+08         0.00000E+00
    0.00000E+00         0.00000E+00        -0.35290E+08
 
   -0.34435E+08         0.55012E+06         0.00000E+00
    0.55012E+06        -0.59799E+08         0.00000E+00
    0.00000E+00         0.00000E+00        -0.35339E+08
 
   -0.34831E+08         0.68696E+06         0.00000E+00
    0.68696E+06        -0.59669E+08         0.00000E+00
    0.00000E+00         0.00000E+00        -0.35387E+08
 
   -0.35247E+08         0.83670E+06         0.00000E+00
    0.83670E+06        -0.59508E+08         0.00000E+00
    0.00000E+00         0.00000E+00        -0.35435E+08
 
   -0.29175E+08        -0.25425E+05         0.00000E+00
   -0.25425E+05        -0.60003E+08         0.00000E+00
    0.00000E+00         0.00000E+00        -0.34283E+08
 
   -0.29780E+08        -0.63970E+05         0.00000E+00
   -0.63970E+05        -0.60013E+08         0.00000E+00
    0.00000E+00         0.00000E+00        -0.34403E+08
 
   -0.30328E+08        -0.85452E+05         0.00000E+00
   -0.85452E+05        -0.60029E+08         0.00000E+00
    0.00000E+00         0.00000E+00        -0.34510E+08
 
   -0.30829E+08        -0.89406E+05         0.00000E+00
   -0.89406E+05        -0.60049E+08         0.00000E+00
    0.00000E+00         0.00000E+00        -0.34605E+08
 
   -0.31288E+08        -0.75570E+05         0.00000E+00
   -0.75570E+05        -0.60069E+08         0.00000E+00
    0.00000E+00         0.00000E+00        -0.34691E+08
 
   -0.31714E+08        -0.43855E+05         0.00000E+00
   -0.43855E+05        -0.60086E+08         0.00000E+00
    0.00000E+00         0.00000E+00        -0.34768E+08
 
   -0.32112E+08         0.56808E+04         0.00000E+00
    0.56808E+04        -0.60096E+08         0.00000E+00
    0.00000E+00         0.00000E+00        -0.34838E+08
 
   -0.32490E+08         0.72861E+05         0.00000E+00
    0.72861E+05        -0.60097E+08         0.00000E+00
    0.00000E+00         0.00000E+00        -0.34902E+08
 
   -0.32854E+08         0.15742E+06         0.00000E+00
    0.15742E+06        -0.60084E+08         0.00000E+00
    0.00000E+00         0.00000E+00        -0.34961E+08
 
   -0.33210E+08         0.25904E+06         0.00000E+00
    0.25904E+06        -0.60054E+08         0.00000E+00
    0.00000E+00         0.00000E+00        -0.35015E+08
 
   -0.33565E+08         0.37736E+06         0.00000E+00
    0.37736E+06        -0.60005E+08         0.00000E+00
    0.00000E+00         0.00000E+00        -0.35066E+08
 
   -0.33923E+08         0.51204E+06         0.00000E+00
    0.51204E+06        -0.59934E+08         0.00000E+00
    0.00000E+00         0.00000E+00        -0.35115E+08
 
   -0.34291E+08         0.66275E+06         0.00000E+00
    0.66275E+06        -0.59838E+08         0.00000E+00
    0.00000E+00         0.00000E+00        -0.35163E+08
 
   -0.34673E+08         0.82924E+06         0.00000E+00
    0.82924E+06        -0.59713E+08         0.00000E+00
    0.00000E+00         0.00000E+00        -0.35210E+08
 
   -0.35074E+08         0.10113E+07         0.00000E+00
    0.10113E+07        -0.59558E+08         0.00000E+00
    0.00000E+00         0.00000E+00        -0.35256E+08
 
   -0.29227E+08        -0.31095E+05         0.00000E+00
   -0.31095E+05        -0.60003E+08         0.00000E+00
    0.00000E+00         0.00000E+00        -0.34105E+08
 
   -0.29813E+08        -0.78528E+05         0.00000E+00
   -0.78528E+05        -0.60014E+08         0.00000E+00
    0.00000E+00         0.00000E+00        -0.34221E+08
 
   -0.30343E+08        -0.10552E+06         0.00000E+00
   -0.10552E+06        -0.60032E+08         0.00000E+00
    0.00000E+00         0.00000E+00        -0.34324E+08
 
   -0.30824E+08        -0.11156E+06         0.00000E+00
   -0.11156E+06        -0.60054E+08         0.00000E+00
    0.00000E+00         0.00000E+00        -0.34417E+08
 
   -0.31264E+08        -0.96358E+05         0.00000E+00
   -0.96358E+05        -0.60078E+08         0.00000E+00
    0.00000E+00         0.00000E+00        -0.34499E+08
 
   -0.31670E+08        -0.59860E+05         0.00000E+00
   -0.59860E+05        -0.60098E+08         0.00000E+00
    0.00000E+00         0.00000E+00        -0.34574E+08
 
   -0.32049E+08        -0.21713E+04         0.00000E+00
   -0.21713E+04        -0.60112E+08         0.00000E+00
    0.00000E+00         0.00000E+00        -0.34641E+08
 
   -0.32407E+08         0.76458E+05         0.00000E+00
    0.76458E+05        -0.60116E+08         0.00000E+00
    0.00000E+00         0.00000E+00        -0.34703E+08
 
   -0.32753E+08         0.17568E+06         0.00000E+00
    0.17568E+06        -0.60108E+08         0.00000E+00
    0.00000E+00         0.00000E+00        -0.34759E+08
 
   -0.33091E+08         0.29506E+06         0.00000E+00
    0.29506E+06        -0.60083E+08         0.00000E+00
    0.00000E+00         0.00000E+00        -0.34811E+08
 
   -0.33427E+08         0.43417E+06         0.00000E+00
    0.43417E+06        -0.60040E+08         0.00000E+00
    0.00000E+00         0.00000E+00        -0.34860E+08
 
   -0.33768E+08         0.59253E+06         0.00000E+00
    0.59253E+06        -0.59974E+08         0.00000E+00
    0.00000E+00         0.00000E+00        -0.34907E+08
 
   -0.34118E+08         0.76973E+06         0.00000E+00
    0.76973E+06        -0.59883E+08         0.00000E+00
    0.00000E+00         0.00000E+00        -0.34953E+08
 
   -0.34483E+08         0.96541E+06         0.00000E+00
    0.96541E+06        -0.59765E+08         0.00000E+00
    0.00000E+00         0.00000E+00        -0.34997E+08
 
   -0.34867E+08         0.11794E+07         0.00000E+00
    0.11794E+07        -0.59617E+08         0.00000E+00
    0.00000E+00         0.00000E+00        -0.35042E+08
 
   -0.29290E+08        -0.37286E+05         0.00000E+00
   -0.37286E+05        -0.60003E+08         0.00000E+00
    0.00000E+00         0.00000E+00        -0.33898E+08
 
   -0.29855E+08        -0.94532E+05         0.00000E+00
   -0.94532E+05        -0.60015E+08         0.00000E+00
    0.00000E+00         0.00000E+00        -0.34010E+08
 
   -0.30362E+08        -0.12782E+06         0.00000E+00
   -0.12782E+06        -0.60035E+08         0.00000E+00
    0.00000E+00         0.00000E+00        -0.34110E+08
 
   -0.30820E+08        -0.13659E+06         0.00000E+00
   -0.13659E+06        -0.60060E+08         0.00000E+00
    0.00000E+00         0.00000E+00        -0.34198E+08
 
   -0.31237E+08        -0.12057E+06         0.00000E+00
   -0.12057E+06        -0.60087E+08         0.00000E+00
    0.00000E+00         0.00000E+00        -0.34278E+08
 
   -0.31620E+08        -0.79760E+05         0.00000E+00
   -0.79760E+05        -0.60111E+08         0.00000E+00
    0.00000E+00         0.00000E+00        -0.34349E+08
 
   -0.31976E+08        -0.14327E+05         0.00000E+00
   -0.14327E+05        -0.60129E+08         0.00000E+00
    0.00000E+00         0.00000E+00        -0.34413E+08
 
   -0.32312E+08         0.75383E+05         0.00000E+00
    0.75383E+05        -0.60139E+08         0.00000E+00
    0.00000E+00         0.00000E+00        -0.34472E+08
 
   -0.32635E+08         0.18891E+06         0.00000E+00
    0.18891E+06        -0.60135E+08         0.00000E+00
    0.00000E+00         0.00000E+00        -0.34525E+08
 
   -0.32952E+08         0.32572E+06         0.00000E+00
    0.32572E+06        -0.60116E+08         0.00000E+00
    0.00000E+00         0.00000E+00        -0.34575E+08
 
   -0.33267E+08         0.48524E+06         0.00000E+00
    0.48524E+06        -0.60079E+08         0.00000E+00
    0.00000E+00         0.00000E+00        -0.34622E+08
 
   -0.33588E+08         0.66689E+06         0.00000E+00
    0.66689E+06        -0.60019E+08         0.00000E+00
    0.00000E+00         0.00000E+00        -0.34666E+08
 
   -0.33918E+08         0.87013E+06         0.00000E+00
    0.87013E+06        -0.59935E+08         0.00000E+00
    0.00000E+00         0.00000E+00        -0.34709E+08
 
   -0.34263E+08         0.10945E+07         0.00000E+00
    0.10945E+07        -0.59825E+08         0.00000E+00
    0.00000E+00         0.00000E+00        -0.34752E+08
 
   -0.34628E+08         0.13396E+07         0.00000E+00
    0.13396E+07        -0.59684E+08         0.00000E+00
    0.00000E+00         0.00000E+00        -0.34794E+08
 
   -0.29366E+08        -0.44073E+05         0.00000E+00
   -0.44073E+05        -0.60004E+08         0.00000E+00
    0.00000E+00         0.00000E+00        -0.33665E+08
 
   -0.29904E+08        -0.11218E+06         0.00000E+00
   -0.11218E+06        -0.60016E+08         0.00000E+00
    0.00000E+00         0.00000E+00        -0.33772E+08
 
   -0.30386E+08        -0.15264E+06         0.00000E+00
   -0.15264E+06        -0.60039E+08         0.00000E+00
    0.00000E+00         0.00000E+00        -0.33867E+08
 
   -0.30817E+08        -0.16487E+06         0.00000E+00
   -0.16487E+06        -0.60067E+08         0.00000E+00
    0.00000E+00         0.00000E+00        -0.33952E+08
 
   -0.31207E+08        -0.14866E+06         0.00000E+00
   -0.14866E+06        -0.60097E+08         0.00000E+00
    0.00000E+00         0.00000E+00        -0.34027E+08
 
   -0.31564E+08        -0.10405E+06         0.00000E+00
   -0.10405E+06        -0.60126E+08         0.00000E+00
    0.00000E+00         0.00000E+00        -0.34095E+08
 
   -0.31894E+08        -0.31327E+05         0.00000E+00
   -0.31327E+05        -0.60149E+08         0.00000E+00
    0.00000E+00         0.00000E+00        -0.34155E+08
 
   -0.32204E+08         0.69048E+05         0.00000E+00
    0.69048E+05        -0.60164E+08         0.00000E+00
    0.00000E+00         0.00000E+00        -0.34210E+08
 
   -0.32502E+08         0.19649E+06         0.00000E+00
    0.19649E+06        -0.60166E+08         0.00000E+00
    0.00000E+00         0.00000E+00        -0.34261E+08
 
   -0.32794E+08         0.35032E+06         0.00000E+00
    0.35032E+06        -0.60153E+08         0.00000E+00
    0.00000E+00         0.00000E+00        -0.34307E+08
 
   -0.33086E+08         0.52983E+06         0.00000E+00
    0.52983E+06        -0.60122E+08         0.00000E+00
    0.00000E+00         0.00000E+00        -0.34351E+08
 
   -0.33383E+08         0.73431E+06         0.00000E+00
    0.73431E+06        -0.60070E+08         0.00000E+00
    0.00000E+00         0.00000E+00        -0.34393E+08
 
   -0.33691E+08         0.96308E+06         0.00000E+00
    0.96308E+06        -0.59994E+08         0.00000E+00
    0.00000E+00         0.00000E+00        -0.34433E+08
 
   -0.34014E+08         0.12155E+07         0.00000E+00
    0.12155E+07        -0.59891E+08         0.00000E+00
    0.00000E+00         0.00000E+00        -0.34473E+08
 
   -0.34357E+08         0.14912E+07         0.00000E+00
    0.14912E+07        -0.59759E+08         0.00000E+00
    0.00000E+00         0.00000E+00        -0.34513E+08
 
   -0.29454E+08        -0.51529E+05         0.00000E+00
   -0.51529E+05        -0.60004E+08         0.00000E+00
    0.00000E+00         0.00000E+00        -0.33406E+08
 
   -0.29964E+08        -0.13167E+06         0.00000E+00
   -0.13167E+06        -0.60018E+08         0.00000E+00
    0.00000E+00         0.00000E+00        -0.33508E+08
 
   -0.30415E+08        -0.18026E+06         0.00000E+00
   -0.18026E+06        -0.60043E+08         0.00000E+00
    0.00000E+00         0.00000E+00        -0.33598E+08
 
   -0.30816E+08        -0.19676E+06         0.00000E+00
   -0.19676E+06        -0.60075E+08         0.00000E+00
    0.00000E+00         0.00000E+00        -0.33677E+08
 
   -0.31176E+08        -0.18100E+06         0.00000E+00
   -0.18100E+06        -0.60109E+08         0.00000E+00
    0.00000E+00         0.00000E+00        -0.33748E+08
 
   -0.31502E+08        -0.13316E+06         0.00000E+00
   -0.13316E+06        -0.60142E+08         0.00000E+00
    0.00000E+00         0.00000E+00        -0.33811E+08
 
   -0.31803E+08        -0.53644E+05         0.00000E+00
   -0.53644E+05        -0.60171E+08         0.00000E+00
    0.00000E+00         0.00000E+00        -0.33868E+08
 
   -0.32084E+08         0.56936E+05         0.00000E+00
    0.56936E+05        -0.60191E+08         0.00000E+00
    0.00000E+00         0.00000E+00        -0.33919E+08
 
   -0.32354E+08         0.19784E+06         0.00000E+00
    0.19784E+06        -0.60200E+08         0.00000E+00
    0.00000E+00         0.00000E+00        -0.33966E+08
 
   -0.32618E+08         0.36824E+06         0.00000E+00
    0.36824E+06        -0.60193E+08         0.00000E+00
    0.00000E+00         0.00000E+00        -0.34009E+08
 
   -0.32883E+08         0.56727E+06         0.00000E+00
    0.56727E+06        -0.60169E+08         0.00000E+00
    0.00000E+00         0.00000E+00        -0.34049E+08
 
   -0.33154E+08         0.79407E+06         0.00000E+00
    0.79407E+06        -0.60125E+08         0.00000E+00
    0.00000E+00         0.00000E+00        -0.34088E+08
 
   -0.33437E+08         0.10478E+07         0.00000E+00
    0.10478E+07        -0.60057E+08         0.00000E+00
    0.00000E+00         0.00000E+00        -0.34126E+08
 
   -0.33735E+08         0.13277E+07         0.00000E+00
    0.13277E+07        -0.59963E+08         0.00000E+00
    0.00000E+00         0.00000E+00        -0.34163E+08
 
   -0.34054E+08         0.16331E+07         0.00000E+00
    0.16331E+07        -0.59841E+08         0.00000E+00
    0.00000E+00         0.00000E+00        -0.34200E+08
 
   -0.29557E+08        -0.59719E+05         0.00000E+00
   -0.59719E+05        -0.60004E+08         0.00000E+00
    0.00000E+00         0.00000E+00        -0.33122E+08
 
   -0.30034E+08        -0.15316E+06         0.00000E+00
   -0.15316E+06        -0.60020E+08         0.00000E+00
    0.00000E+00         0.00000E+00        -0.33218E+08
 
   -0.30451E+08        -0.21092E+06         0.00000E+00
   -0.21092E+06        -0.60047E+08         0.00000E+00
    0.00000E+00         0.00000E+00        -0.33302E+08
 
   -0.30818E+08        -0.23252E+06         0.00000E+00
   -0.23252E+06        -0.60083E+08         0.00000E+00
    0.00000E+00         0.00000E+00        -0.33377E+08
 
   -0.31144E+08        -0.21792E+06         0.00000E+00
   -0.21792E+06        -0.60121E+08         0.00000E+00
    0.00000E+00         0.00000E+00        -0.33442E+08
 
   -0.31436E+08        -0.16744E+06         0.00000E+00
   -0.16744E+06        -0.60159E+08         0.00000E+00
    0.00000E+00         0.00000E+00        -0.33500E+08
 
   -0.31704E+08        -0.81664E+05         0.00000E+00
   -0.81664E+05        -0.60194E+08         0.00000E+00
    0.00000E+00         0.00000E+00        -0.33552E+08
 
   -0.31953E+08         0.38619E+05         0.00000E+00
    0.38619E+05        -0.60220E+08         0.00000E+00
    0.00000E+00         0.00000E+00        -0.33599E+08
 
   -0.32191E+08         0.19249E+06         0.00000E+00
    0.19249E+06        -0.60235E+08         0.00000E+00
    0.00000E+00         0.00000E+00        -0.33641E+08
 
   -0.32425E+08         0.37895E+06         0.00000E+00
    0.37895E+06        -0.60236E+08         0.00000E+00
    0.00000E+00         0.00000E+00        -0.33681E+08
 
   -0.32660E+08         0.59695E+06         0.00000E+00
    0.59695E+06        -0.60220E+08         0.00000E+00
    0.00000E+00         0.00000E+00        -0.33717E+08
 
   -0.32903E+08         0.84547E+06         0.00000E+00
    0.84547E+06        -0.60184E+08         0.00000E+00
    0.00000E+00         0.00000E+00        -0.33753E+08
 
   -0.33157E+08         0.11235E+07         0.00000E+00
    0.11235E+07        -0.60125E+08         0.00000E+00
    0.00000E+00         0.00000E+00        -0.33787E+08
 
   -0.33429E+08         0.14301E+07         0.00000E+00
    0.14301E+07        -0.60041E+08         0.00000E+00
    0.00000E+00         0.00000E+00        -0.33821E+08
 
   -0.33721E+08         0.17644E+07         0.00000E+00
    0.17644E+07        -0.59929E+08         0.00000E+00
    0.00000E+00         0.00000E+00        -0.33856E+08
 
   -0.29677E+08        -0.68698E+05         0.00000E+00
   -0.68698E+05        -0.60005E+08         0.00000E+00
    0.00000E+00         0.00000E+00        -0.32816E+08
 
   -0.30116E+08        -0.17678E+06         0.00000E+00
   -0.17678E+06        -0.60022E+08         0.00000E+00
    0.00000E+00         0.00000E+00        -0.32905E+08
 
   -0.30495E+08        -0.24479E+06         0.00000E+00
   -0.24479E+06        -0.60052E+08         0.00000E+00
    0.00000E+00         0.00000E+00        -0.32983E+08
 
   -0.30824E+08        -0.27237E+06         0.00000E+00
   -0.27237E+06        -0.60091E+08         0.00000E+00
    0.00000E+00         0.00000E+00        -0.33051E+08
 
   -0.31111E+08        -0.25964E+06         0.00000E+00
   -0.25964E+06        -0.60134E+08         0.00000E+00
    0.00000E+00         0.00000E+00        -0.33110E+08
 
   -0.31366E+08        -0.20714E+06         0.00000E+00
   -0.20714E+06        -0.60177E+08         0.00000E+00
    0.00000E+00         0.00000E+00        -0.33163E+08
 
   -0.31597E+08        -0.11566E+06         0.00000E+00
   -0.11566E+06        -0.60217E+08         0.00000E+00
    0.00000E+00         0.00000E+00        -0.33209E+08
 
   -0.31810E+08         0.13785E+05         0.00000E+00
    0.13785E+05        -0.60250E+08         0.00000E+00
    0.00000E+00         0.00000E+00        -0.33251E+08
 
   -0.32014E+08         0.18007E+06         0.00000E+00
    0.18007E+06        -0.60272E+08         0.00000E+00
    0.00000E+00         0.00000E+00        -0.33289E+08
 
   -0.32214E+08         0.38200E+06         0.00000E+00
    0.38200E+06        -0.60281E+08         0.00000E+00
    0.00000E+00         0.00000E+00        -0.33324E+08
 
   -0.32417E+08         0.61836E+06         0.00000E+00
    0.61836E+06        -0.60273E+08         0.00000E+00
    0.00000E+00         0.00000E+00        -0.33357E+08
 
   -0.32628E+08         0.88793E+06         0.00000E+00
    0.88793E+06        -0.60245E+08         0.00000E+00
    0.00000E+00         0.00000E+00        -0.33388E+08
 
   -0.32852E+08         0.11895E+07         0.00000E+00
    0.11895E+07        -0.60196E+08         0.00000E+00
    0.00000E+00         0.00000E+00        -0.33419E+08
 
   -0.33095E+08         0.15220E+07         0.00000E+00
    0.15220E+07        -0.60122E+08         0.00000E+00
    0.00000E+00         0.00000E+00        -0.33450E+08
 
   -0.33359E+08         0.18843E+07         0.00000E+00
    0.18843E+07        -0.60022E+08         0.00000E+00
    0.00000E+00         0.00000E+00        -0.33481E+08
 
   -0.29814E+08        -0.78513E+05         0.00000E+00
   -0.78513E+05        -0.60005E+08         0.00000E+00
    0.00000E+00         0.00000E+00        -0.32488E+08
 
   -0.30211E+08        -0.20265E+06         0.00000E+00
   -0.20265E+06        -0.60024E+08         0.00000E+00
    0.00000E+00         0.00000E+00        -0.32569E+08
 
   -0.30547E+08        -0.28201E+06         0.00000E+00
   -0.28201E+06        -0.60057E+08         0.00000E+00
    0.00000E+00         0.00000E+00        -0.32640E+08
 
   -0.30833E+08        -0.31643E+06         0.00000E+00
   -0.31643E+06        -0.60099E+08         0.00000E+00
    0.00000E+00         0.00000E+00        -0.32700E+08
 
   -0.31079E+08        -0.30628E+06         0.00000E+00
   -0.30628E+06        -0.60147E+08         0.00000E+00
    0.00000E+00         0.00000E+00        -0.32753E+08
 
   -0.31292E+08        -0.25237E+06         0.00000E+00
   -0.25237E+06        -0.60196E+08         0.00000E+00
    0.00000E+00         0.00000E+00        -0.32800E+08
 
   -0.31483E+08        -0.15577E+06         0.00000E+00
   -0.15577E+06        -0.60241E+08         0.00000E+00
    0.00000E+00         0.00000E+00        -0.32840E+08
 
   -0.31657E+08        -0.17738E+05         0.00000E+00
   -0.17738E+05        -0.60281E+08         0.00000E+00
    0.00000E+00         0.00000E+00        -0.32877E+08
 
   -0.31823E+08         0.16035E+06         0.00000E+00
    0.16035E+06        -0.60310E+08         0.00000E+00
    0.00000E+00         0.00000E+00        -0.32909E+08
 
   -0.31987E+08         0.37709E+06         0.00000E+00
    0.37709E+06        -0.60326E+08         0.00000E+00
    0.00000E+00         0.00000E+00        -0.32939E+08
 
   -0.32154E+08         0.63109E+06         0.00000E+00
    0.63109E+06        -0.60327E+08         0.00000E+00
    0.00000E+00         0.00000E+00        -0.32968E+08
 
   -0.32331E+08         0.92094E+06         0.00000E+00
    0.92094E+06        -0.60308E+08         0.00000E+00
    0.00000E+00         0.00000E+00        -0.32995E+08
 
   -0.32523E+08         0.12453E+07         0.00000E+00
    0.12453E+07        -0.60269E+08         0.00000E+00
    0.00000E+00         0.00000E+00        -0.33022E+08
 
   -0.32734E+08         0.16027E+07         0.00000E+00
    0.16027E+07        -0.60207E+08         0.00000E+00
    0.00000E+00         0.00000E+00        -0.33049E+08
 
   -0.32968E+08         0.19921E+07         0.00000E+00
    0.19921E+07        -0.60118E+08         0.00000E+00
    0.00000E+00         0.00000E+00        -0.33077E+08
 
   -0.29970E+08        -0.89191E+05         0.00000E+00
   -0.89191E+05        -0.60005E+08         0.00000E+00
    0.00000E+00         0.00000E+00        -0.32141E+08
 
   -0.30320E+08        -0.23080E+06         0.00000E+00
   -0.23080E+06        -0.60026E+08         0.00000E+00
    0.00000E+00         0.00000E+00        -0.32213E+08
 
   -0.30609E+08        -0.32259E+06         0.00000E+00
   -0.32259E+06        -0.60062E+08         0.00000E+00
    0.00000E+00         0.00000E+00        -0.32275E+08
 
   -0.30848E+08        -0.36468E+06         0.00000E+00
   -0.36468E+06        -0.60108E+08         0.00000E+00
    0.00000E+00         0.00000E+00        -0.32328E+08
 
   -0.31047E+08        -0.35779E+06         0.00000E+00
   -0.35779E+06        -0.60160E+08         0.00000E+00
    0.00000E+00         0.00000E+00        -0.32373E+08
 
   -0.31216E+08        -0.30307E+06         0.00000E+00
   -0.30307E+06        -0.60214E+08         0.00000E+00
    0.00000E+00         0.00000E+00        -0.32413E+08
 
   -0.31362E+08        -0.20193E+06         0.00000E+00
   -0.20193E+06        -0.60265E+08         0.00000E+00
    0.00000E+00         0.00000E+00        -0.32447E+08
 
   -0.31494E+08        -0.55941E+05         0.00000E+00
   -0.55941E+05        -0.60311E+08         0.00000E+00
    0.00000E+00         0.00000E+00        -0.32477E+08
 
   -0.31619E+08         0.13326E+06         0.00000E+00
    0.13326E+06        -0.60347E+08         0.00000E+00
    0.00000E+00         0.00000E+00        -0.32504E+08
 
   -0.31743E+08         0.36405E+06         0.00000E+00
    0.36405E+06        -0.60371E+08         0.00000E+00
    0.00000E+00         0.00000E+00        -0.32529E+08
 
   -0.31873E+08         0.63484E+06         0.00000E+00
    0.63484E+06        -0.60380E+08         0.00000E+00
    0.00000E+00         0.00000E+00        -0.32552E+08
 
   -0.32014E+08         0.94408E+06         0.00000E+00
    0.94408E+06        -0.60371E+08         0.00000E+00
    0.00000E+00         0.00000E+00        -0.32575E+08
 
   -0.32171E+08         0.12902E+07         0.00000E+00
    0.12902E+07        -0.60343E+08         0.00000E+00
    0.00000E+00         0.00000E+00        -0.32597E+08
 
   -0.32348E+08         0.16717E+07         0.00000E+00
    0.16717E+07        -0.60292E+08         0.00000E+00
    0.00000E+00         0.00000E+00        -0.32620E+08
 
   -0.32549E+08         0.20870E+07         0.00000E+00
    0.20870E+07        -0.60216E+08         0.00000E+00
    0.00000E+00         0.00000E+00        -0.32644E+08
 
   -0.30147E+08        -0.10074E+06         0.00000E+00
   -0.10074E+06        -0.60006E+08         0.00000E+00
    0.00000E+00         0.00000E+00        -0.31775E+08
 
   -0.30445E+08        -0.26121E+06         0.00000E+00
   -0.26121E+06        -0.60028E+08         0.00000E+00
    0.00000E+00         0.00000E+00        -0.31837E+08
 
   -0.30681E+08        -0.36644E+06         0.00000E+00
   -0.36644E+06        -0.60066E+08         0.00000E+00
    0.00000E+00         0.00000E+00        -0.31890E+08
 
   -0.30869E+08        -0.41697E+06         0.00000E+00
   -0.41697E+06        -0.60116E+08         0.00000E+00
    0.00000E+00         0.00000E+00        -0.31934E+08
 
   -0.31017E+08        -0.41395E+06         0.00000E+00
   -0.41395E+06        -0.60172E+08         0.00000E+00
    0.00000E+00         0.00000E+00        -0.31971E+08
 
   -0.31136E+08        -0.35896E+06         0.00000E+00
   -0.35896E+06        -0.60231E+08         0.00000E+00
    0.00000E+00         0.00000E+00        -0.32003E+08
 
   -0.31235E+08        -0.25387E+06         0.00000E+00
   -0.25387E+06        -0.60287E+08         0.00000E+00
    0.00000E+00         0.00000E+00        -0.32030E+08
 
   -0.31322E+08        -0.10059E+06         0.00000E+00
   -0.10059E+06        -0.60339E+08         0.00000E+00
    0.00000E+00         0.00000E+00        -0.32053E+08
 
   -0.31403E+08         0.98938E+05         0.00000E+00
    0.98938E+05        -0.60382E+08         0.00000E+00
    0.00000E+00         0.00000E+00        -0.32074E+08
 
   -0.31485E+08         0.34288E+06         0.00000E+00
    0.34288E+06        -0.60413E+08         0.00000E+00
    0.00000E+00         0.00000E+00        -0.32093E+08
 
   -0.31574E+08         0.62947E+06         0.00000E+00
    0.62947E+06        -0.60431E+08         0.00000E+00
    0.00000E+00         0.00000E+00        -0.32111E+08
 
   -0.31676E+08         0.95703E+06         0.00000E+00
    0.95703E+06        -0.60432E+08         0.00000E+00
    0.00000E+00         0.00000E+00        -0.32128E+08
 
   -0.31796E+08         0.13239E+07         0.00000E+00
    0.13239E+07        -0.60414E+08         0.00000E+00
    0.00000E+00         0.00000E+00        -0.32146E+08
 
   -0.31937E+08         0.17283E+07         0.00000E+00
    0.17283E+07        -0.60375E+08         0.00000E+00
    0.00000E+00         0.00000E+00        -0.32165E+08
 
   -0.32105E+08         0.21686E+07         0.00000E+00
    0.21686E+07        -0.60313E+08         0.00000E+00
    0.00000E+00         0.00000E+00        -0.32185E+08
 
   -0.30347E+08        -0.11314E+06         0.00000E+00
   -0.11314E+06        -0.60006E+08         0.00000E+00
    0.00000E+00         0.00000E+00        -0.31393E+08
 
   -0.30586E+08        -0.29378E+06         0.00000E+00
   -0.29378E+06        -0.60029E+08         0.00000E+00
    0.00000E+00         0.00000E+00        -0.31444E+08
 
   -0.30765E+08        -0.41336E+06         0.00000E+00
   -0.41336E+06        -0.60070E+08         0.00000E+00
    0.00000E+00         0.00000E+00        -0.31486E+08
 
   -0.30895E+08        -0.47294E+06         0.00000E+00
   -0.47294E+06        -0.60124E+08         0.00000E+00
    0.00000E+00         0.00000E+00        -0.31521E+08
 
   -0.30989E+08        -0.47427E+06         0.00000E+00
   -0.47427E+06        -0.60184E+08         0.00000E+00
    0.00000E+00         0.00000E+00        -0.31548E+08
 
   -0.31055E+08        -0.41950E+06         0.00000E+00
   -0.41950E+06        -0.60246E+08         0.00000E+00
    0.00000E+00         0.00000E+00        -0.31571E+08
 
   -0.31103E+08        -0.31102E+06         0.00000E+00
   -0.31102E+06        -0.60307E+08         0.00000E+00
    0.00000E+00         0.00000E+00        -0.31590E+08
 
   -0.31141E+08        -0.15118E+06         0.00000E+00
   -0.15118E+06        -0.60364E+08         0.00000E+00
    0.00000E+00         0.00000E+00        -0.31606E+08
 
   -0.31175E+08         0.57777E+05         0.00000E+00
    0.57777E+05        -0.60412E+08         0.00000E+00
    0.00000E+00         0.00000E+00        -0.31620E+08
 
   -0.31213E+08         0.31379E+06         0.00000E+00
    0.31379E+06        -0.60451E+08         0.00000E+00
    0.00000E+00         0.00000E+00        -0.31632E+08
 
   -0.31259E+08         0.61498E+06         0.00000E+00
    0.61498E+06        -0.60477E+08         0.00000E+00
    0.00000E+00         0.00000E+00        -0.31645E+08
 
   -0.31320E+08         0.95959E+06         0.00000E+00
    0.95959E+06        -0.60488E+08         0.00000E+00
    0.00000E+00         0.00000E+00        -0.31657E+08
 
   -0.31399E+08         0.13459E+07         0.00000E+00
    0.13459E+07        -0.60481E+08         0.00000E+00
    0.00000E+00         0.00000E+00        -0.31670E+08
 
   -0.31503E+08         0.17720E+07         0.00000E+00
    0.17720E+07        -0.60455E+08         0.00000E+00
    0.00000E+00         0.00000E+00        -0.31684E+08
 
   -0.31635E+08         0.22360E+07         0.00000E+00
    0.22360E+07        -0.60406E+08         0.00000E+00
    0.00000E+00         0.00000E+00        -0.31700E+08
 
   -0.30570E+08        -0.12633E+06         0.00000E+00
   -0.12633E+06        -0.60006E+08         0.00000E+00
    0.00000E+00         0.00000E+00        -0.30996E+08
 
   -0.30745E+08        -0.32830E+06         0.00000E+00
   -0.32830E+06        -0.60031E+08         0.00000E+00
    0.00000E+00         0.00000E+00        -0.31035E+08
 
   -0.30860E+08        -0.46292E+06         0.00000E+00
   -0.46292E+06        -0.60074E+08         0.00000E+00
    0.00000E+00         0.00000E+00        -0.31065E+08
 
   -0.30929E+08        -0.53198E+06         0.00000E+00
   -0.53198E+06        -0.60130E+08         0.00000E+00
    0.00000E+00         0.00000E+00        -0.31089E+08
 
   -0.30963E+08        -0.53797E+06         0.00000E+00
   -0.53797E+06        -0.60193E+08         0.00000E+00
    0.00000E+00         0.00000E+00        -0.31107E+08
 
   -0.30973E+08        -0.48380E+06         0.00000E+00
   -0.48380E+06        -0.60258E+08         0.00000E+00
    0.00000E+00         0.00000E+00        -0.31120E+08
 
   -0.30967E+08        -0.37247E+06         0.00000E+00
   -0.37247E+06        -0.60323E+08         0.00000E+00
    0.00000E+00         0.00000E+00        -0.31130E+08
 
   -0.30953E+08        -0.20685E+06         0.00000E+00
   -0.20685E+06        -0.60383E+08         0.00000E+00
    0.00000E+00         0.00000E+00        -0.31138E+08
 
   -0.30938E+08         0.10471E+05         0.00000E+00
    0.10471E+05        -0.60437E+08         0.00000E+00
    0.00000E+00         0.00000E+00        -0.31144E+08
 
   -0.30928E+08         0.27725E+06         0.00000E+00
    0.27725E+06        -0.60482E+08         0.00000E+00
    0.00000E+00         0.00000E+00        -0.31150E+08
 
   -0.30929E+08         0.59155E+06         0.00000E+00
    0.59155E+06        -0.60516E+08         0.00000E+00
    0.00000E+00         0.00000E+00        -0.31155E+08
 
   -0.30945E+08         0.95164E+06         0.00000E+00
    0.95164E+06        -0.60537E+08         0.00000E+00
    0.00000E+00         0.00000E+00        -0.31161E+08
 
   -0.30983E+08         0.13558E+07         0.00000E+00
    0.13558E+07        -0.60541E+08         0.00000E+00
    0.00000E+00         0.00000E+00        -0.31169E+08
 
   -0.31047E+08         0.18023E+07         0.00000E+00
    0.18023E+07        -0.60528E+08         0.00000E+00
    0.00000E+00         0.00000E+00        -0.31178E+08
 
   -0.31141E+08         0.22887E+07         0.00000E+00
    0.22887E+07        -0.60494E+08         0.00000E+00
    0.00000E+00         0.00000E+00        -0.31190E+08
 
   -0.30819E+08        -0.14024E+06         0.00000E+00
   -0.14024E+06        -0.60007E+08         0.00000E+00
    0.00000E+00         0.00000E+00        -0.30586E+08
 
   -0.30923E+08        -0.36445E+06         0.00000E+00
   -0.36445E+06        -0.60032E+08         0.00000E+00
    0.00000E+00         0.00000E+00        -0.30612E+08
 
   -0.30968E+08        -0.51453E+06         0.00000E+00
   -0.51453E+06        -0.60077E+08         0.00000E+00
    0.00000E+00         0.00000E+00        -0.30629E+08
 
   -0.30970E+08        -0.59319E+06         0.00000E+00
   -0.59319E+06        -0.60134E+08         0.00000E+00
    0.00000E+00         0.00000E+00        -0.30641E+08
 
   -0.30940E+08        -0.60391E+06         0.00000E+00
   -0.60391E+06        -0.60199E+08         0.00000E+00
    0.00000E+00         0.00000E+00        -0.30647E+08
 
   -0.30889E+08        -0.55053E+06         0.00000E+00
   -0.55053E+06        -0.60266E+08         0.00000E+00
    0.00000E+00         0.00000E+00        -0.30650E+08
 
   -0.30826E+08        -0.43685E+06         0.00000E+00
   -0.43685E+06        -0.60332E+08         0.00000E+00
    0.00000E+00         0.00000E+00        -0.30650E+08
 
   -0.30758E+08        -0.26633E+06         0.00000E+00
   -0.26633E+06        -0.60395E+08         0.00000E+00
    0.00000E+00         0.00000E+00        -0.30649E+08
 
   -0.30691E+08        -0.41919E+05         0.00000E+00
   -0.41919E+05        -0.60453E+08         0.00000E+00
    0.00000E+00         0.00000E+00        -0.30647E+08
 
   -0.30632E+08         0.23400E+06         0.00000E+00
    0.23400E+06        -0.60503E+08         0.00000E+00
    0.00000E+00         0.00000E+00        -0.30645E+08
 
   -0.30585E+08         0.55956E+06         0.00000E+00
    0.55956E+06        -0.60544E+08         0.00000E+00
    0.00000E+00         0.00000E+00        -0.30644E+08
 
   -0.30556E+08         0.93318E+06         0.00000E+00
    0.93318E+06        -0.60574E+08         0.00000E+00
    0.00000E+00         0.00000E+00        -0.30643E+08
 
   -0.30549E+08         0.13534E+07         0.00000E+00
    0.13534E+07        -0.60590E+08         0.00000E+00
    0.00000E+00         0.00000E+00        -0.30645E+08
 
   -0.30570E+08         0.18184E+07         0.00000E+00
    0.18184E+07        -0.60590E+08         0.00000E+00
    0.00000E+00         0.00000E+00        -0.30649E+08
 
   -0.30625E+08         0.23260E+07         0.00000E+00
    0.23260E+07        -0.60572E+08         0.00000E+00
    0.00000E+00         0.00000E+00        -0.30656E+08
 
   -0.31095E+08        -0.15472E+06         0.00000E+00
   -0.15472E+06        -0.60007E+08         0.00000E+00
    0.00000E+00         0.00000E+00        -0.30166E+08
 
   -0.31119E+08        -0.40175E+06         0.00000E+00
   -0.40175E+06        -0.60033E+08         0.00000E+00
    0.00000E+00         0.00000E+00        -0.30177E+08
 
   -0.31088E+08        -0.56729E+06         0.00000E+00
   -0.56729E+06        -0.60079E+08         0.00000E+00
    0.00000E+00         0.00000E+00        -0.30180E+08
 
   -0.31017E+08        -0.65527E+06         0.00000E+00
   -0.65527E+06        -0.60136E+08         0.00000E+00
    0.00000E+00         0.00000E+00        -0.30178E+08
 
   -0.30919E+08        -0.67046E+06         0.00000E+00
   -0.67046E+06        -0.60200E+08         0.00000E+00
    0.00000E+00         0.00000E+00        -0.30172E+08
 
   -0.30805E+08        -0.61787E+06         0.00000E+00
   -0.61787E+06        -0.60267E+08         0.00000E+00
    0.00000E+00         0.00000E+00        -0.30163E+08
 
   -0.30682E+08        -0.50228E+06         0.00000E+00
   -0.50228E+06        -0.60333E+08         0.00000E+00
    0.00000E+00         0.00000E+00        -0.30153E+08
 
   -0.30558E+08        -0.32785E+06         0.00000E+00
   -0.32785E+06        -0.60396E+08         0.00000E+00
    0.00000E+00         0.00000E+00        -0.30141E+08
 
   -0.30438E+08        -0.97890E+05         0.00000E+00
   -0.97890E+05        -0.60456E+08         0.00000E+00
    0.00000E+00         0.00000E+00        -0.30130E+08
 
   -0.30327E+08         0.18515E+06         0.00000E+00
    0.18515E+06        -0.60510E+08         0.00000E+00
    0.00000E+00         0.00000E+00        -0.30120E+08
 
   -0.30230E+08         0.51960E+06         0.00000E+00
    0.51960E+06        -0.60557E+08         0.00000E+00
    0.00000E+00         0.00000E+00        -0.30111E+08
 
   -0.30152E+08         0.90428E+06         0.00000E+00
    0.90428E+06        -0.60596E+08         0.00000E+00
    0.00000E+00         0.00000E+00        -0.30104E+08
 
   -0.30099E+08         0.13381E+07         0.00000E+00
    0.13381E+07        -0.60624E+08         0.00000E+00
    0.00000E+00         0.00000E+00        -0.30099E+08
 
   -0.30075E+08         0.18197E+07         0.00000E+00
    0.18197E+07        -0.60638E+08         0.00000E+00
    0.00000E+00         0.00000E+00        -0.30098E+08
 
   -0.30086E+08         0.23469E+07         0.00000E+00
    0.23469E+07        -0.60636E+08         0.00000E+00
    0.00000E+00         0.00000E+00        -0.30100E+08
 
   -0.31397E+08        -0.16959E+06         0.00000E+00
   -0.16959E+06        -0.60007E+08         0.00000E+00
    0.00000E+00         0.00000E+00        -0.29737E+08
 
   -0.31334E+08        -0.43955E+06         0.00000E+00
   -0.43955E+06        -0.60033E+08         0.00000E+00
    0.00000E+00         0.00000E+00        -0.29731E+08
 
   -0.31220E+08        -0.62001E+06         0.00000E+00
   -0.62001E+06        -0.60079E+08         0.00000E+00
    0.00000E+00         0.00000E+00        -0.29718E+08
 
   -0.31071E+08        -0.71649E+06         0.00000E+00
   -0.71649E+06        -0.60135E+08         0.00000E+00
    0.00000E+00         0.00000E+00        -0.29701E+08
 
   -0.30901E+08        -0.73542E+06         0.00000E+00
   -0.73542E+06        -0.60197E+08         0.00000E+00
    0.00000E+00         0.00000E+00        -0.29681E+08
 
   -0.30720E+08        -0.68332E+06         0.00000E+00
   -0.68332E+06        -0.60260E+08         0.00000E+00
    0.00000E+00         0.00000E+00        -0.29660E+08
 
   -0.30535E+08        -0.56620E+06         0.00000E+00
   -0.56620E+06        -0.60323E+08         0.00000E+00
    0.00000E+00         0.00000E+00        -0.29638E+08
 
   -0.30354E+08        -0.38901E+06         0.00000E+00
   -0.38901E+06        -0.60383E+08         0.00000E+00
    0.00000E+00         0.00000E+00        -0.29616E+08
 
   -0.30179E+08        -0.15542E+06         0.00000E+00
   -0.15542E+06        -0.60442E+08         0.00000E+00
    0.00000E+00         0.00000E+00        -0.29595E+08
 
   -0.30015E+08         0.13217E+06         0.00000E+00
    0.13217E+06        -0.60498E+08         0.00000E+00
    0.00000E+00         0.00000E+00        -0.29576E+08
 
   -0.29867E+08         0.47252E+06         0.00000E+00
    0.47252E+06        -0.60550E+08         0.00000E+00
    0.00000E+00         0.00000E+00        -0.29559E+08
 
   -0.29738E+08         0.86509E+06         0.00000E+00
    0.86509E+06        -0.60598E+08         0.00000E+00
    0.00000E+00         0.00000E+00        -0.29544E+08
 
   -0.29634E+08         0.13096E+07         0.00000E+00
    0.13096E+07        -0.60638E+08         0.00000E+00
    0.00000E+00         0.00000E+00        -0.29532E+08
 
   -0.29562E+08         0.18053E+07         0.00000E+00
    0.18053E+07        -0.60667E+08         0.00000E+00
    0.00000E+00         0.00000E+00        -0.29525E+08
 
   -0.29527E+08         0.23504E+07         0.00000E+00
    0.23504E+07        -0.60681E+08         0.00000E+00
    0.00000E+00         0.00000E+00        -0.29521E+08
 
   -0.31727E+08        -0.18462E+06         0.00000E+00
   -0.18462E+06        -0.60007E+08         0.00000E+00
    0.00000E+00         0.00000E+00        -0.29302E+08
 
   -0.31568E+08        -0.47699E+06         0.00000E+00
   -0.47699E+06        -0.60033E+08         0.00000E+00
    0.00000E+00         0.00000E+00        -0.29276E+08
 
   -0.31363E+08        -0.67108E+06         0.00000E+00
   -0.67108E+06        -0.60076E+08         0.00000E+00
    0.00000E+00         0.00000E+00        -0.29246E+08
 
   -0.31131E+08        -0.77451E+06         0.00000E+00
   -0.77451E+06        -0.60129E+08         0.00000E+00
    0.00000E+00         0.00000E+00        -0.29213E+08
 
   -0.30884E+08        -0.79587E+06         0.00000E+00
   -0.79587E+06        -0.60185E+08         0.00000E+00
    0.00000E+00         0.00000E+00        -0.29178E+08
 
   -0.30634E+08        -0.74364E+06         0.00000E+00
   -0.74364E+06        -0.60242E+08         0.00000E+00
    0.00000E+00         0.00000E+00        -0.29142E+08
 
   -0.30387E+08        -0.62530E+06         0.00000E+00
   -0.62530E+06        -0.60298E+08         0.00000E+00
    0.00000E+00         0.00000E+00        -0.29108E+08
 
   -0.30147E+08        -0.44672E+06         0.00000E+00
   -0.44672E+06        -0.60352E+08         0.00000E+00
    0.00000E+00         0.00000E+00        -0.29074E+08
 
   -0.29917E+08        -0.21191E+06         0.00000E+00
   -0.21191E+06        -0.60407E+08         0.00000E+00
    0.00000E+00         0.00000E+00        -0.29043E+08
 
   -0.29700E+08         0.76985E+05         0.00000E+00
    0.76985E+05        -0.60462E+08         0.00000E+00
    0.00000E+00         0.00000E+00        -0.29014E+08
 
   -0.29499E+08         0.41938E+06         0.00000E+00
    0.41938E+06        -0.60518E+08         0.00000E+00
    0.00000E+00         0.00000E+00        -0.28988E+08
 
   -0.29317E+08         0.81580E+06         0.00000E+00
    0.81580E+06        -0.60573E+08         0.00000E+00
    0.00000E+00         0.00000E+00        -0.28965E+08
 
   -0.29160E+08         0.12671E+07         0.00000E+00
    0.12671E+07        -0.60625E+08         0.00000E+00
    0.00000E+00         0.00000E+00        -0.28946E+08
 
   -0.29034E+08         0.17738E+07         0.00000E+00
    0.17738E+07        -0.60670E+08         0.00000E+00
    0.00000E+00         0.00000E+00        -0.28931E+08
 
   -0.28949E+08         0.23347E+07         0.00000E+00
    0.23347E+07        -0.60704E+08         0.00000E+00
    0.00000E+00         0.00000E+00        -0.28922E+08
 
   -0.32084E+08        -0.19951E+06         0.00000E+00
   -0.19951E+06        -0.60007E+08         0.00000E+00
    0.00000E+00         0.00000E+00        -0.28862E+08
 
   -0.31818E+08        -0.51295E+06         0.00000E+00
   -0.51295E+06        -0.60032E+08         0.00000E+00
    0.00000E+00         0.00000E+00        -0.28815E+08
 
   -0.31514E+08        -0.71839E+06         0.00000E+00
   -0.71839E+06        -0.60072E+08         0.00000E+00
    0.00000E+00         0.00000E+00        -0.28765E+08
 
   -0.31193E+08        -0.82625E+06         0.00000E+00
   -0.82625E+06        -0.60118E+08         0.00000E+00
    0.00000E+00         0.00000E+00        -0.28713E+08
 
   -0.30868E+08        -0.84800E+06         0.00000E+00
   -0.84800E+06        -0.60164E+08         0.00000E+00
    0.00000E+00         0.00000E+00        -0.28662E+08
 
   -0.30547E+08        -0.79462E+06         0.00000E+00
   -0.79462E+06        -0.60210E+08         0.00000E+00
    0.00000E+00         0.00000E+00        -0.28611E+08
 
   -0.30238E+08        -0.67536E+06         0.00000E+00
   -0.67536E+06        -0.60254E+08         0.00000E+00
    0.00000E+00         0.00000E+00        -0.28563E+08
 
   -0.29940E+08        -0.49710E+06         0.00000E+00
   -0.49710E+06        -0.60298E+08         0.00000E+00
    0.00000E+00         0.00000E+00        -0.28517E+08
 
   -0.29656E+08        -0.26408E+06         0.00000E+00
   -0.26408E+06        -0.60345E+08         0.00000E+00
    0.00000E+00         0.00000E+00        -0.28474E+08
 
   -0.29386E+08         0.21983E+05         0.00000E+00
    0.21983E+05        -0.60396E+08         0.00000E+00
    0.00000E+00         0.00000E+00        -0.28435E+08
 
   -0.29131E+08         0.36154E+06         0.00000E+00
    0.36154E+06        -0.60453E+08         0.00000E+00
    0.00000E+00         0.00000E+00        -0.28399E+08
 
   -0.28893E+08         0.75659E+06         0.00000E+00
    0.75659E+06        -0.60515E+08         0.00000E+00
    0.00000E+00         0.00000E+00        -0.28367E+08
 
   -0.28678E+08         0.12098E+07         0.00000E+00
    0.12098E+07        -0.60579E+08         0.00000E+00
    0.00000E+00         0.00000E+00        -0.28340E+08
 
   -0.28495E+08         0.17234E+07         0.00000E+00
    0.17234E+07        -0.60642E+08         0.00000E+00
    0.00000E+00         0.00000E+00        -0.28318E+08
 
   -0.28354E+08         0.22978E+07         0.00000E+00
    0.22978E+07        -0.60697E+08         0.00000E+00
    0.00000E+00         0.00000E+00        -0.28302E+08
 
   -0.32468E+08        -0.21389E+06         0.00000E+00
   -0.21389E+06        -0.60006E+08         0.00000E+00
    0.00000E+00         0.00000E+00        -0.28418E+08
 
   -0.32083E+08        -0.54599E+06         0.00000E+00
   -0.54599E+06        -0.60029E+08         0.00000E+00
    0.00000E+00         0.00000E+00        -0.28348E+08
 
   -0.31672E+08        -0.75914E+06         0.00000E+00
   -0.75914E+06        -0.60063E+08         0.00000E+00
    0.00000E+00         0.00000E+00        -0.28276E+08
 
   -0.31256E+08        -0.86765E+06         0.00000E+00
   -0.86765E+06        -0.60098E+08         0.00000E+00
    0.00000E+00         0.00000E+00        -0.28204E+08
 
   -0.30849E+08        -0.88690E+06         0.00000E+00
   -0.88690E+06        -0.60131E+08         0.00000E+00
    0.00000E+00         0.00000E+00        -0.28134E+08
 
   -0.30459E+08        -0.83098E+06         0.00000E+00
   -0.83098E+06        -0.60159E+08         0.00000E+00
    0.00000E+00         0.00000E+00        -0.28068E+08
 
   -0.30089E+08        -0.71121E+06         0.00000E+00
   -0.71121E+06        -0.60185E+08         0.00000E+00
    0.00000E+00         0.00000E+00        -0.28005E+08
 
   -0.29736E+08        -0.53545E+06         0.00000E+00
   -0.53545E+06        -0.60214E+08         0.00000E+00
    0.00000E+00         0.00000E+00        -0.27946E+08
 
   -0.29400E+08        -0.30802E+06         0.00000E+00
   -0.30802E+06        -0.60248E+08         0.00000E+00
    0.00000E+00         0.00000E+00        -0.27891E+08
 
   -0.29078E+08        -0.29940E+05         0.00000E+00
   -0.29940E+05        -0.60291E+08         0.00000E+00
    0.00000E+00         0.00000E+00        -0.27841E+08
 
   -0.28768E+08         0.30061E+06         0.00000E+00
    0.30061E+06        -0.60347E+08         0.00000E+00
    0.00000E+00         0.00000E+00        -0.27795E+08
 
   -0.28472E+08         0.68767E+06         0.00000E+00
    0.68767E+06        -0.60415E+08         0.00000E+00
    0.00000E+00         0.00000E+00        -0.27753E+08
 
   -0.28196E+08         0.11364E+07         0.00000E+00
    0.11364E+07        -0.60493E+08         0.00000E+00
    0.00000E+00         0.00000E+00        -0.27717E+08
 
   -0.27948E+08         0.16518E+07         0.00000E+00
    0.16518E+07        -0.60576E+08         0.00000E+00
    0.00000E+00         0.00000E+00        -0.27686E+08
 
   -0.27742E+08         0.22364E+07         0.00000E+00
    0.22364E+07        -0.60655E+08         0.00000E+00
    0.00000E+00         0.00000E+00        -0.27662E+08
 
   -0.32875E+08        -0.22734E+06         0.00000E+00
   -0.22734E+06        -0.60006E+08         0.00000E+00
    0.00000E+00         0.00000E+00        -0.27974E+08
 
   -0.32358E+08        -0.57417E+06         0.00000E+00
   -0.57417E+06        -0.60025E+08         0.00000E+00
    0.00000E+00         0.00000E+00        -0.27876E+08
 
   -0.31830E+08        -0.78952E+06         0.00000E+00
   -0.78952E+06        -0.60050E+08         0.00000E+00
    0.00000E+00         0.00000E+00        -0.27780E+08
 
   -0.31315E+08        -0.89334E+06         0.00000E+00
   -0.89334E+06        -0.60069E+08         0.00000E+00
    0.00000E+00         0.00000E+00        -0.27686E+08
 
   -0.30826E+08        -0.90627E+06         0.00000E+00
   -0.90627E+06        -0.60080E+08         0.00000E+00
    0.00000E+00         0.00000E+00        -0.27597E+08
 
   -0.30369E+08        -0.84625E+06         0.00000E+00
   -0.84625E+06        -0.60084E+08         0.00000E+00
    0.00000E+00         0.00000E+00        -0.27513E+08
 
   -0.29941E+08        -0.72673E+06         0.00000E+00
   -0.72673E+06        -0.60086E+08         0.00000E+00
    0.00000E+00         0.00000E+00        -0.27434E+08
 
   -0.29538E+08        -0.55635E+06         0.00000E+00
   -0.55635E+06        -0.60093E+08         0.00000E+00
    0.00000E+00         0.00000E+00        -0.27362E+08
 
   -0.29153E+08        -0.33921E+06         0.00000E+00
   -0.33921E+06        -0.60109E+08         0.00000E+00
    0.00000E+00         0.00000E+00        -0.27294E+08
 
   -0.28781E+08        -0.75415E+05         0.00000E+00
   -0.75415E+05        -0.60141E+08         0.00000E+00
    0.00000E+00         0.00000E+00        -0.27232E+08
 
   -0.28418E+08         0.23854E+06         0.00000E+00
    0.23854E+06        -0.60192E+08         0.00000E+00
    0.00000E+00         0.00000E+00        -0.27175E+08
 
   -0.28062E+08         0.60921E+06         0.00000E+00
    0.60921E+06        -0.60265E+08         0.00000E+00
    0.00000E+00         0.00000E+00        -0.27123E+08
 
   -0.27719E+08         0.10452E+07         0.00000E+00
    0.10452E+07        -0.60357E+08         0.00000E+00
    0.00000E+00         0.00000E+00        -0.27077E+08
 
   -0.27398E+08         0.15554E+07         0.00000E+00
    0.15554E+07        -0.60463E+08         0.00000E+00
    0.00000E+00         0.00000E+00        -0.27036E+08
 
   -0.27117E+08         0.21462E+07         0.00000E+00
    0.21462E+07        -0.60572E+08         0.00000E+00
    0.00000E+00         0.00000E+00        -0.27003E+08
 
   -0.33303E+08        -0.23932E+06         0.00000E+00
   -0.23932E+06        -0.60005E+08         0.00000E+00
    0.00000E+00         0.00000E+00        -0.27530E+08
 
   -0.32637E+08        -0.59476E+06         0.00000E+00
   -0.59476E+06        -0.60019E+08         0.00000E+00
    0.00000E+00         0.00000E+00        -0.27402E+08
 
   -0.31982E+08        -0.80417E+06         0.00000E+00
   -0.80417E+06        -0.60029E+08         0.00000E+00
    0.00000E+00         0.00000E+00        -0.27277E+08
 
   -0.31365E+08        -0.89603E+06         0.00000E+00
   -0.89603E+06        -0.60025E+08         0.00000E+00
    0.00000E+00         0.00000E+00        -0.27159E+08
 
   -0.30797E+08        -0.89817E+06         0.00000E+00
   -0.89817E+06        -0.60006E+08         0.00000E+00
    0.00000E+00         0.00000E+00        -0.27048E+08
 
   -0.30277E+08        -0.83281E+06         0.00000E+00
   -0.83281E+06        -0.59977E+08         0.00000E+00
    0.00000E+00         0.00000E+00        -0.26946E+08
 
   -0.29798E+08        -0.71514E+06         0.00000E+00
   -0.71514E+06        -0.59948E+08         0.00000E+00
    0.00000E+00         0.00000E+00        -0.26852E+08
 
   -0.29350E+08        -0.55398E+06         0.00000E+00
   -0.55398E+06        -0.59926E+08         0.00000E+00
    0.00000E+00         0.00000E+00        -0.26765E+08
 
   -0.28923E+08        -0.35282E+06         0.00000E+00
   -0.35282E+06        -0.59919E+08         0.00000E+00
    0.00000E+00         0.00000E+00        -0.26685E+08
 
   -0.28505E+08        -0.11068E+06         0.00000E+00
   -0.11068E+06        -0.59935E+08         0.00000E+00
    0.00000E+00         0.00000E+00        -0.26611E+08
 
   -0.28089E+08         0.17766E+06         0.00000E+00
    0.17766E+06        -0.59978E+08         0.00000E+00
    0.00000E+00         0.00000E+00        -0.26542E+08
 
   -0.27673E+08         0.52158E+06         0.00000E+00
    0.52158E+06        -0.60054E+08         0.00000E+00
    0.00000E+00         0.00000E+00        -0.26479E+08
 
   -0.27256E+08         0.93406E+06         0.00000E+00
    0.93406E+06        -0.60161E+08         0.00000E+00
    0.00000E+00         0.00000E+00        -0.26421E+08
 
   -0.26851E+08         0.14298E+07         0.00000E+00
    0.14298E+07        -0.60294E+08         0.00000E+00
    0.00000E+00         0.00000E+00        -0.26370E+08
 
   -0.26480E+08         0.20210E+07         0.00000E+00
    0.20210E+07        -0.60439E+08         0.00000E+00
    0.00000E+00         0.00000E+00        -0.26326E+08
 
   -0.33747E+08        -0.24907E+06         0.00000E+00
   -0.24907E+06        -0.60004E+08         0.00000E+00
    0.00000E+00         0.00000E+00        -0.27087E+08
 
   -0.32911E+08        -0.60352E+06         0.00000E+00
   -0.60352E+06        -0.60009E+08         0.00000E+00
    0.00000E+00         0.00000E+00        -0.26924E+08
 
   -0.32119E+08        -0.79504E+06         0.00000E+00
   -0.79504E+06        -0.59997E+08         0.00000E+00
    0.00000E+00         0.00000E+00        -0.26768E+08
 
   -0.31399E+08        -0.86578E+06         0.00000E+00
   -0.86578E+06        -0.59958E+08         0.00000E+00
    0.00000E+00         0.00000E+00        -0.26623E+08
 
   -0.30757E+08        -0.85288E+06         0.00000E+00
   -0.85288E+06        -0.59898E+08         0.00000E+00
    0.00000E+00         0.00000E+00        -0.26489E+08
 
   -0.30184E+08        -0.78233E+06         0.00000E+00
   -0.78233E+06        -0.59828E+08         0.00000E+00
    0.00000E+00         0.00000E+00        -0.26368E+08
 
   -0.29663E+08        -0.66968E+06         0.00000E+00
   -0.66968E+06        -0.59759E+08         0.00000E+00
    0.00000E+00         0.00000E+00        -0.26257E+08
 
   -0.29178E+08        -0.52282E+06         0.00000E+00
   -0.52282E+06        -0.59703E+08         0.00000E+00
    0.00000E+00         0.00000E+00        -0.26157E+08
 
   -0.28714E+08        -0.34421E+06         0.00000E+00
   -0.34421E+06        -0.59669E+08         0.00000E+00
    0.00000E+00         0.00000E+00        -0.26064E+08
 
   -0.28257E+08        -0.13181E+06         0.00000E+00
   -0.13181E+06        -0.59664E+08         0.00000E+00
    0.00000E+00         0.00000E+00        -0.25978E+08
 
   -0.27793E+08         0.12088E+06         0.00000E+00
    0.12088E+06        -0.59697E+08         0.00000E+00
    0.00000E+00         0.00000E+00        -0.25898E+08
 
   -0.27315E+08         0.42572E+06         0.00000E+00
    0.42572E+06        -0.59773E+08         0.00000E+00
    0.00000E+00         0.00000E+00        -0.25822E+08
 
   -0.26820E+08         0.80065E+06         0.00000E+00
    0.80065E+06        -0.59896E+08         0.00000E+00
    0.00000E+00         0.00000E+00        -0.25752E+08
 
   -0.26318E+08         0.12686E+07         0.00000E+00
    0.12686E+07        -0.60060E+08         0.00000E+00
    0.00000E+00         0.00000E+00        -0.25688E+08
 
   -0.25836E+08         0.18519E+07         0.00000E+00
    0.18519E+07        -0.60249E+08         0.00000E+00
    0.00000E+00         0.00000E+00        -0.25631E+08
 
   -0.34198E+08        -0.25539E+06         0.00000E+00
   -0.25539E+06        -0.60002E+08         0.00000E+00
    0.00000E+00         0.00000E+00        -0.26647E+08
 
   -0.33165E+08        -0.59290E+06         0.00000E+00
   -0.59290E+06        -0.59992E+08         0.00000E+00
    0.00000E+00         0.00000E+00        -0.26442E+08
 
   -0.32228E+08        -0.74929E+06         0.00000E+00
   -0.74929E+06        -0.59944E+08         0.00000E+00
    0.00000E+00         0.00000E+00        -0.26250E+08
 
   -0.31412E+08        -0.78910E+06         0.00000E+00
   -0.78910E+06        -0.59855E+08         0.00000E+00
    0.00000E+00         0.00000E+00        -0.26075E+08
 
   -0.30708E+08        -0.75952E+06         0.00000E+00
   -0.75952E+06        -0.59741E+08         0.00000E+00
    0.00000E+00         0.00000E+00        -0.25918E+08
 
   -0.30093E+08        -0.68708E+06         0.00000E+00
   -0.68708E+06        -0.59620E+08         0.00000E+00
    0.00000E+00         0.00000E+00        -0.25778E+08
 
   -0.29540E+08        -0.58495E+06         0.00000E+00
   -0.58495E+06        -0.59507E+08         0.00000E+00
    0.00000E+00         0.00000E+00        -0.25652E+08
 
   -0.29028E+08        -0.45883E+06         0.00000E+00
   -0.45883E+06        -0.59414E+08         0.00000E+00
    0.00000E+00         0.00000E+00        -0.25538E+08
 
   -0.28536E+08        -0.30980E+06         0.00000E+00
   -0.30980E+06        -0.59349E+08         0.00000E+00
    0.00000E+00         0.00000E+00        -0.25433E+08
 
   -0.28046E+08        -0.13518E+06         0.00000E+00
   -0.13518E+06        -0.59321E+08         0.00000E+00
    0.00000E+00         0.00000E+00        -0.25336E+08
 
   -0.27541E+08         0.71842E+05         0.00000E+00
    0.71842E+05        -0.59340E+08         0.00000E+00
    0.00000E+00         0.00000E+00        -0.25244E+08
 
   -0.27005E+08         0.32399E+06         0.00000E+00
    0.32399E+06        -0.59413E+08         0.00000E+00
    0.00000E+00         0.00000E+00        -0.25156E+08
 
   -0.26428E+08         0.64350E+06         0.00000E+00
    0.64350E+06        -0.59549E+08         0.00000E+00
    0.00000E+00         0.00000E+00        -0.25072E+08
 
   -0.25812E+08         0.10643E+07         0.00000E+00
    0.10643E+07        -0.59748E+08         0.00000E+00
    0.00000E+00         0.00000E+00        -0.24992E+08
 
   -0.25190E+08         0.16263E+07         0.00000E+00
    0.16263E+07        -0.59994E+08         0.00000E+00
    0.00000E+00         0.00000E+00        -0.24918E+08
 
   -0.34641E+08        -0.25548E+06         0.00000E+00
   -0.25548E+06        -0.59998E+08         0.00000E+00
    0.00000E+00         0.00000E+00        -0.26209E+08
 
   -0.33376E+08        -0.54738E+06         0.00000E+00
   -0.54738E+06        -0.59960E+08         0.00000E+00
    0.00000E+00         0.00000E+00        -0.25951E+08
 
   -0.32294E+08        -0.64582E+06         0.00000E+00
   -0.64582E+06        -0.59850E+08         0.00000E+00
    0.00000E+00         0.00000E+00        -0.25718E+08
 
   -0.31401E+08        -0.64967E+06         0.00000E+00
   -0.64967E+06        -0.59689E+08         0.00000E+00
    0.00000E+00         0.00000E+00        -0.25512E+08
 
   -0.30654E+08        -0.60870E+06         0.00000E+00
   -0.60870E+06        -0.59510E+08         0.00000E+00
    0.00000E+00         0.00000E+00        -0.25333E+08
 
   -0.30011E+08        -0.54242E+06         0.00000E+00
   -0.54242E+06        -0.59334E+08         0.00000E+00
    0.00000E+00         0.00000E+00        -0.25175E+08
 
   -0.29437E+08        -0.45886E+06         0.00000E+00
   -0.45886E+06        -0.59176E+08         0.00000E+00
    0.00000E+00         0.00000E+00        -0.25035E+08
 
   -0.28906E+08        -0.36088E+06         0.00000E+00
   -0.36088E+06        -0.59046E+08         0.00000E+00
    0.00000E+00         0.00000E+00        -0.24909E+08
 
   -0.28395E+08        -0.24831E+06         0.00000E+00
   -0.24831E+06        -0.58952E+08         0.00000E+00
    0.00000E+00         0.00000E+00        -0.24793E+08
 
   -0.27881E+08        -0.11846E+06         0.00000E+00
   -0.11846E+06        -0.58901E+08         0.00000E+00
    0.00000E+00         0.00000E+00        -0.24685E+08
 
   -0.27343E+08         0.34485E+05         0.00000E+00
    0.34485E+05        -0.58902E+08         0.00000E+00
    0.00000E+00         0.00000E+00        -0.24583E+08
 
   -0.26758E+08         0.22161E+06         0.00000E+00
    0.22161E+06        -0.58967E+08         0.00000E+00
    0.00000E+00         0.00000E+00        -0.24483E+08
 
   -0.26101E+08         0.46443E+06         0.00000E+00
    0.46443E+06        -0.59109E+08         0.00000E+00
    0.00000E+00         0.00000E+00        -0.24384E+08
 
   -0.25358E+08         0.80841E+06         0.00000E+00
    0.80841E+06        -0.59346E+08         0.00000E+00
    0.00000E+00         0.00000E+00        -0.24285E+08
 
   -0.24553E+08         0.13245E+07         0.00000E+00
    0.13245E+07        -0.59664E+08         0.00000E+00
    0.00000E+00         0.00000E+00        -0.24189E+08
 
   -0.35046E+08        -0.23968E+06         0.00000E+00
   -0.23968E+06        -0.59987E+08         0.00000E+00
    0.00000E+00         0.00000E+00        -0.25768E+08
 
   -0.33508E+08        -0.42985E+06         0.00000E+00
   -0.42985E+06        -0.59878E+08         0.00000E+00
    0.00000E+00         0.00000E+00        -0.25441E+08
 
   -0.32311E+08        -0.45504E+06         0.00000E+00
   -0.45504E+06        -0.59663E+08         0.00000E+00
    0.00000E+00         0.00000E+00        -0.25163E+08
 
   -0.31374E+08        -0.43574E+06         0.00000E+00
   -0.43574E+06        -0.59416E+08         0.00000E+00
    0.00000E+00         0.00000E+00        -0.24930E+08
 
   -0.30604E+08        -0.39818E+06         0.00000E+00
   -0.39818E+06        -0.59172E+08         0.00000E+00
    0.00000E+00         0.00000E+00        -0.24731E+08
 
   -0.29947E+08        -0.35024E+06         0.00000E+00
   -0.35024E+06        -0.58947E+08         0.00000E+00
    0.00000E+00         0.00000E+00        -0.24559E+08
 
   -0.29362E+08        -0.29469E+06         0.00000E+00
   -0.29469E+06        -0.58751E+08         0.00000E+00
    0.00000E+00         0.00000E+00        -0.24407E+08
 
   -0.28821E+08        -0.23214E+06         0.00000E+00
   -0.23214E+06        -0.58590E+08         0.00000E+00
    0.00000E+00         0.00000E+00        -0.24271E+08
 
   -0.28297E+08        -0.16189E+06         0.00000E+00
   -0.16189E+06        -0.58471E+08         0.00000E+00
    0.00000E+00         0.00000E+00        -0.24146E+08
 
   -0.27767E+08        -0.81954E+05         0.00000E+00
   -0.81954E+05        -0.58400E+08         0.00000E+00
    0.00000E+00         0.00000E+00        -0.24030E+08
 
   -0.27207E+08         0.11463E+05         0.00000E+00
    0.11463E+05        -0.58385E+08         0.00000E+00
    0.00000E+00         0.00000E+00        -0.23918E+08
 
   -0.26588E+08         0.12555E+06         0.00000E+00
    0.12555E+06        -0.58438E+08         0.00000E+00
    0.00000E+00         0.00000E+00        -0.23808E+08
 
   -0.25870E+08         0.27504E+06         0.00000E+00
    0.27504E+06        -0.58576E+08         0.00000E+00
    0.00000E+00         0.00000E+00        -0.23694E+08
 
   -0.24995E+08         0.49703E+06         0.00000E+00
    0.49703E+06        -0.58832E+08         0.00000E+00
    0.00000E+00         0.00000E+00        -0.23573E+08
 
   -0.23947E+08         0.91357E+06         0.00000E+00
    0.91357E+06        -0.59247E+08         0.00000E+00
    0.00000E+00         0.00000E+00        -0.23447E+08
 
   -0.35332E+08        -0.14586E+06         0.00000E+00
   -0.14586E+06        -0.59893E+08         0.00000E+00
    0.00000E+00         0.00000E+00        -0.25297E+08
 
   -0.33538E+08        -0.17509E+06         0.00000E+00
   -0.17509E+06        -0.59616E+08         0.00000E+00
    0.00000E+00         0.00000E+00        -0.24884E+08
 
   -0.32304E+08        -0.16721E+06         0.00000E+00
   -0.16721E+06        -0.59295E+08         0.00000E+00
    0.00000E+00         0.00000E+00        -0.24574E+08
 
   -0.31351E+08        -0.15496E+06         0.00000E+00
   -0.15496E+06        -0.58983E+08         0.00000E+00
    0.00000E+00         0.00000E+00        -0.24323E+08
 
   -0.30574E+08        -0.13946E+06         0.00000E+00
   -0.13946E+06        -0.58695E+08         0.00000E+00
    0.00000E+00         0.00000E+00        -0.24111E+08
 
   -0.29911E+08        -0.12179E+06         0.00000E+00
   -0.12179E+06        -0.58438E+08         0.00000E+00
    0.00000E+00         0.00000E+00        -0.23929E+08
 
   -0.29322E+08        -0.10219E+06         0.00000E+00
   -0.10219E+06        -0.58218E+08         0.00000E+00
    0.00000E+00         0.00000E+00        -0.23769E+08
 
   -0.28776E+08        -0.80622E+05         0.00000E+00
   -0.80622E+05        -0.58038E+08         0.00000E+00
    0.00000E+00         0.00000E+00        -0.23625E+08
 
   -0.28247E+08        -0.56700E+05         0.00000E+00
   -0.56700E+05        -0.57902E+08         0.00000E+00
    0.00000E+00         0.00000E+00        -0.23494E+08
 
   -0.27710E+08        -0.29702E+05         0.00000E+00
   -0.29702E+05        -0.57818E+08         0.00000E+00
    0.00000E+00         0.00000E+00        -0.23371E+08
 
   -0.27139E+08         0.16735E+04         0.00000E+00
    0.16735E+04        -0.57791E+08         0.00000E+00
    0.00000E+00         0.00000E+00        -0.23252E+08
 
   -0.26502E+08         0.39817E+05         0.00000E+00
    0.39817E+05        -0.57834E+08         0.00000E+00
    0.00000E+00         0.00000E+00        -0.23135E+08
 
   -0.25751E+08         0.89911E+05         0.00000E+00
    0.89911E+05        -0.57965E+08         0.00000E+00
    0.00000E+00         0.00000E+00        -0.23012E+08
 
   -0.24804E+08         0.16367E+06         0.00000E+00
    0.16367E+06        -0.58219E+08         0.00000E+00
    0.00000E+00         0.00000E+00        -0.22874E+08
 
   -0.23429E+08         0.33767E+06         0.00000E+00
    0.33767E+06        -0.58694E+08         0.00000E+00
    0.00000E+00         0.00000E+00        -0.22694E+08
 
SCALARS stressS double 
LOOKUP_TABLE default
  -41264655.8075819     
  -41526079.8687725     
  -41766791.5179602     
  -41988502.0504415     
  -42192864.6085128     
  -42381470.7826698     
  -42555847.8811796     
  -42717456.9360295     
  -42867691.4964204     
  -43007877.2504396     
  -43139272.5107553     
  -43263069.6002686     
  -43380397.1774867     
  -43492323.5475217     
  -43599861.0113654     
  -41257038.4349674     
  -41517352.8221739     
  -41756971.2748321     
  -41977610.3700563     
  -42180928.0603663     
  -42368520.1546094     
  -42541917.4918346     
  -42702583.8699922     
  -42851914.7746906     
  -42991236.9431976     
  -43121808.7948700     
  -43244821.7603974     
  -43361402.5474917     
  -43472616.3884741     
  -43579471.3238528     
  -41241903.2138654     
  -41499990.1642416     
  -41737414.3908553     
  -41955903.2139633     
  -42157124.3541720     
  -42342682.1784166     
  -42514114.6882287     
  -42672891.2996139     
  -42820411.4476017     
  -42958004.0394317     
  -43086927.7779055     
  -43208372.3798595     
  -43323460.7228276     
  -43433251.9642332     
  -43538745.6899710     
  -41219449.0866304     
  -41474174.4103968     
  -41708287.5050259     
  -41923532.2494995     
  -42121591.3803382     
  -42304082.3994947     
  -42472554.2989749     
  -42628485.1319915     
  -42773280.4447115     
  -42908272.5749057     
  -43034720.8236752     
  -43153812.5131921     
  -43266664.9559148     
  -43374328.3773661     
  -43477789.8531922     
  -41189974.1552927     
  -41440178.4029587     
  -41669839.1235601     
  -41880723.0895459     
  -42074533.7225441     
  -42252906.5780062     
  -42417405.7466481     
  -42569521.1752634     
  -42710666.8942631     
  -42842180.1331443     
  -42965321.3078716     
  -43081274.8753671     
  -43191151.0688637     
  -43295988.5520195     
  -43396758.0570180     
  -41153875.1755055     
  -41398364.0727255     
  -41622397.7691058     
  -41827772.9338207     
  -42016219.8784952     
  -42189397.5585788     
  -42348889.6179840     
  -42496201.4437596     
  -42632758.1826201     
  -42759903.6665373     
  -42878900.2007004     
  -42990929.1838396     
  -43097092.5572631     
  -43198415.1131091     
  -43295847.7314400     
  -41111646.6575074     
  -41349180.5826216     
  -41566369.3311073     
  -41765047.2679867     
  -41946978.4258971     
  -42113850.9961647     
  -42267273.0171991     
  -42408769.1817860     
  -42539778.6693590     
  -42661653.9056422     
  -42775660.1614425     
  -42882975.9253955     
  -42984694.0215225     
  -43081823.4895484     
  -43175292.3007054     
  -41063879.3745479     
  -41293161.6724248     
  -41502233.4578022     
  -41692975.4847490     
  -41867193.0231093     
  -42026609.8534897     
  -42172863.6432679     
  -42307502.5700296     
  -42431983.0409630     
  -42547668.3523531     
  -42655828.1452307     
  -42757638.5431288     
  -42854182.9056986     
  -42946453.1955293     
  -43035352.0307816     
  -41011258.0213636     
  -41230921.9724970     
  -41430538.7860552     
  -41612045.2541652     
  -41777296.1051303     
  -41928057.5657367     
  -42066002.5217563     
  -42192707.0778091     
  -42309648.2938341     
  -42418202.8670305     
  -42519646.5406011     
  -42615154.0574059     
  -42705799.5384234     
  -42792557.2504124     
  -42876302.8291571     
  -40954557.7040521     
  -41163152.0003991     
  -41351896.7580059     
  -41522795.4307025     
  -41677761.1048947     
  -41818609.7481332     
  -41947055.3138731     
  -42064706.4289608     
  -42173064.3536652     
  -42273521.8856630     
  -42367362.8885849     
  -42455762.1686097     
  -42539785.5009314     
  -42620389.7189684     
  -42698422.9160822     
  -40894638.8796043     
  -41090611.4975445     
  -41266973.7224039     
  -41425807.2404132     
  -41569092.9953541     
  -41698704.3004327     
  -41816402.1192068     
  -41923832.1598144     
  -42022523.3653206     
  -42113887.3442922     
  -42199218.2850666     
  -42279692.9443944     
  -42356370.3992046     
  -42430191.3953903     
  -42501977.3102644     
  -40832440.3014968     
  -41014120.7041671     
  -41176480.9617676     
  -41321693.4397513     
  -41451816.9058590     
  -41568789.7358894     
  -41674425.6826098     
  -41770411.7648927     
  -41858307.7278314     
  -41939546.4488601     
  -42015434.6440447     
  -42087153.2774510     
  -42155757.1987965     
  -42222173.7244671     
  -42287200.1205615     
  -40768969.4721188     
  -40934549.1102600     
  -41081162.2207159     
  -41211085.0722241     
  -41326464.5105583     
  -41429311.5258868     
  -41521497.9068403     
  -41604755.4496191     
  -41680677.0060029     
  -41750718.5152417     
  -41816201.1084616     
  -41878312.4210526     
  -41938106.4023295     
  -41996501.1619589     
  -42054274.7180632     
  -40705290.0606819     
  -40852801.1571710     
  -40981778.2291257     
  -41094615.3598802     
  -41193557.8059349     
  -41280696.1959285     
  -41357964.5556394     
  -41427141.5387761     
  -41489853.9273939     
  -41547581.2244576     
  -41601660.0483809     
  -41653287.0817609     
  -41703519.5246645     
  -41753272.3371407     
  -41803311.9929974     
  -40642505.7260971     
  -40769798.2955883     
  -40879087.6028573     
  -40972900.1353766     
  -41053589.7709528     
  -41123332.8198078     
  -41184127.9986908     
  -41237800.6235696     
  -41286009.7766035     
  -41330256.8029621     
  -41371893.2984495     
  -41412126.7888229     
  -41452022.5671903     
  -41492500.6111674     
  -41534327.0946733     
  -40581739.7986930     
  -40686456.7201289     
  -40773823.3394638     
  -40846514.0156666     
  -40907001.2069350     
  -40957551.4141870     
  -41000227.7884561     
  -41036898.5677907     
  -41069249.6363249     
  -41098798.8633776     
  -41126909.5786301     
  -41154800.5911908     
  -41183550.5339195     
  -41214094.9472971     
  -41247215.3303338     
  -40524110.3312319     
  -40603659.9733664     
  -40666663.8599353     
  -40715961.1869972     
  -40754152.7381857     
  -40783597.5027259     
  -40806418.7535034     
  -40824518.5351712     
  -40839598.1101843     
  -40853180.9504523     
  -40866634.4435383     
  -40881186.5875017     
  -40897934.4986611     
  -40917842.4499493     
  -40941728.2831636     
  -40470700.1279238     
  -40522225.3883904     
  -40558197.0951962     
  -40581639.1238246     
  -40595290.4458906     
  -40601601.7516746     
  -40602746.1259885     
  -40600642.2511773     
  -40596986.4185564     
  -40593288.2647555     
  -40590904.6581200     
  -40591066.4160450     
  -40594893.3654843     
  -40603394.5217329     
  -40617451.7236253     
  -40422521.4754749     
  -40442862.9072102     
  -40448875.3242747     
  -40443792.6537017     
  -40430502.7986022     
  -40411543.0201674     
  -40389116.9797315     
  -40365130.7909683     
  -40341242.1217994     
  -40318914.6316198     
  -40299469.6595792     
  -40284127.6840119     
  -40274033.3222566     
  -40270259.3722994     
  -40273787.5501663     
  -40380475.3543566     
  -40366123.9497655     
  -40338957.0612880     
  -40302454.2627041     
  -40259665.2789829     
  -40213202.3612676     
  -40165266.9508848     
  -40117705.3347177     
  -40072083.2499322     
  -40029767.6087793     
  -39992003.8161592     
  -39959978.4921823     
  -39934859.1599876     
  -39917804.6507194     
  -39909942.8135531     
  -40345304.7124746     
  -40292336.2700628     
  -40228429.7482598     
  -40157364.0107236     
  -40082367.1915022     
  -40006104.4395128     
  -39930720.9273299     
  -39857928.6435105     
  -39789119.3728883     
  -39725485.7443133     
  -39668134.6298965     
  -39618179.8551328     
  -39576803.2818198     
  -39545275.3731327     
  -39524929.8527286     
  -40317540.5141608     
  -40221517.2191968     
  -40116902.3650665     
  -40007858.2389014     
  -39897812.3740285     
  -39789441.6499758     
  -39684746.3824671     
  -39585188.6618733     
  -39491863.1715909     
  -39405673.4153993     
  -39327493.9281696     
  -39258304.1699160     
  -39199280.6649812     
  -39151834.3347644     
  -39117582.7027386     
  -40297436.8377743     
  -40153250.5872793     
  -40003448.4064449     
  -39852709.3405226     
  -39704681.9383682     
  -39561975.5728853     
  -39426298.9655514     
  -39298686.9239642     
  -39179757.2863485     
  -39069960.1217455     
  -38969801.4747302     
  -38880031.2780100     
  -38801782.0132928     
  -38736635.3931811     
  -38686596.3618895     
  -40284885.0560797     
  -40086496.8943178     
  -39886362.9343411     
  -39689887.7076337     
  -39500943.6143381     
  -39321912.2147617     
  -39153963.3375192     
  -38997436.7605140     
  -38852221.8908972     
  -38718091.8533283     
  -38594992.6160938     
  -38483299.0712286     
  -38384024.0726729     
  -38298946.2371121     
  -38230597.5088231     
  -40279282.4109175     
  -40019271.9302966     
  -39762764.3425715     
  -39516199.8608727     
  -39283592.7297865     
  -39066756.9286261     
  -38865900.9245652     
  -38680279.6150001     
  -38508727.2792430     
  -38350058.5576468     
  -38203403.4731044     
  -38068532.0895739     
  -37946191.1459686     
  -37838348.9342097     
  -37748260.5286639     
  -40279286.1602273     
  -39948046.1814186     
  -39627901.0070596     
  -39326737.1674135     
  -39048329.1670824     
  -38793181.9883048     
  -38559834.7681216     
  -38345931.3763760     
  -38148886.3403129     
  -37966253.0250165     
  -37796015.0997713     
  -37636990.3414662     
  -37489322.0021235     
  -37355085.4978141     
  -37238489.4697578     
  -40282278.3030061     
  -39866468.9694374     
  -39473889.2351621     
  -39114080.5862943     
  -38789250.0555974     
  -38497010.1058905     
  -38233119.9927923     
  -37993071.3480707     
  -37772551.1067670     
  -37567606.1189577     
  -37374757.3084478     
  -37191244.2202167     
  -37016012.8697998     
  -36850650.0311700     
  -36700755.0670750     
  -40282707.1267126     
  -39762407.4343170     
  -39287350.4025203     
  -38867406.1322471     
  -38498946.2148079     
  -38173448.4640587     
  -37882960.5163511     
  -37620481.1826150     
  -37379877.3980895     
  -37155632.5875199     
  -36942611.3470081     
  -36735991.6246137     
  -36531423.4989225     
  -36329302.6505452     
  -36135578.0122250     
  -40266940.4554708     
  -39609253.2879429     
  -39045768.9460041     
  -38573379.5113854     
  -38169292.5538554     
  -37817725.3589176     
  -37506793.8854997     
  -37227226.6422105     
  -36971331.9250986     
  -36732266.8046118     
  -36503413.3530376     
  -36277691.7794356     
  -36046958.1036134     
  -35799797.0725887     
  -35547210.6088862     
  -40173962.3476887     
  -39345869.9664525     
  -38724265.9006910     
  -38218837.0042748     
  -37793275.7464952     
  -37426058.1459171     
  -37102800.7001893     
  -36812855.4516056     
  -36547629.0729817     
  -36299514.7881255     
  -36060994.8146439     
  -35823562.5132392     
  -35575722.4950489     
  -35298834.1077769     
  -34939082.6979536     
SCALARS 2waySource double 
LOOKUP_TABLE default
 -7.292148481388087E-005
 -7.597434724342874E-005
 -7.879307073149597E-005
 -8.139438350039403E-005
 -8.379488678993183E-005
 -8.601092335669640E-005
 -8.805846540238901E-005
 -8.995302101438095E-005
 -9.170955816389625E-005
 -9.334244530362708E-005
 -9.486540764214822E-005
 -9.629149824830274E-005
 -9.763308325252089E-005
 -9.890184055635665E-005
 -1.001087716252097E-004
 -7.277376762665114E-005
 -7.581676461500280E-005
 -7.862555408644055E-005
 -8.121697337523053E-005
 -8.360771960494913E-005
 -8.581421903464204E-005
 -8.785251569294454E-005
 -8.973817841667064E-005
 -9.148622536987269E-005
 -9.311106511094571E-005
 -9.462645330391643E-005
 -9.604546423650818E-005
 -9.738047641074171E-005
 -9.864317160474160E-005
 -9.984454695768406E-005
 -7.254143152936169E-005
 -7.556369420964991E-005
 -7.835139341320777E-005
 -8.092162756234125E-005
 -8.329132412240318E-005
 -8.547711016510535E-005
 -8.749520214990412E-005
 -8.936131405333440E-005
 -9.109058292497801E-005
 -9.269751093125389E-005
 -9.419592296832438E-005
 -9.559893898592274E-005
 -9.691896026255595E-005
 -9.816766900583768E-005
 -9.935604081060724E-005
 -7.222694995768877E-005
 -7.521731067538145E-005
 -7.797249047123618E-005
 -8.051000101786225E-005
 -8.284713475318684E-005
 -8.500083700783317E-005
 -8.698759736790215E-005
 -8.882335939197806E-005
 -9.052344773263625E-005
 -9.210251168188222E-005
 -9.357448417080316E-005
 -9.495255530873321E-005
 -9.624915964820189E-005
 -9.747597650579052E-005
 -9.864394284921679E-005
 -7.183398779147724E-005
 -7.478082205638990E-005
 -7.749163619517283E-005
 -7.998450782424908E-005
 -8.227722936376934E-005
 -8.438718206865904E-005
 -8.633122942508284E-005
 -8.812562898863150E-005
 -8.978596164905655E-005
 -9.132707725849484E-005
 -9.276305555780623E-005
 -9.410718138604546E-005
 -9.537193326455954E-005
 -9.656898461212247E-005
 -9.770921706480712E-005
 -7.136739939081515E-005
 -7.425846228591977E-005
 -7.691249816464945E-005
 -7.934830417475389E-005
 -8.158430829354198E-005
 -8.363844562122048E-005
 -8.552805431556235E-005
 -8.726979016120449E-005
 -8.887955864997611E-005
 -9.037246337696372E-005
 -9.176276953594044E-005
 -9.306388133947693E-005
 -9.428833230333657E-005
 -9.544778752878877E-005
 -9.655305738838610E-005
 -7.083322261967525E-005
 -7.365547786928869E-005
 -7.623960076640551E-005
 -7.860526282820572E-005
 -8.077166386202150E-005
 -8.275741093795227E-005
 -8.458041746083885E-005
 -8.625782120683844E-005
 -8.780592004355406E-005
 -8.924012394691678E-005
 -9.057492187621819E-005
 -9.182386209185082E-005
 -9.299954461995904E-005
 -9.411362479876811E-005
 -9.517682718647341E-005
 -7.023866641338661E-005
 -7.297810638030943E-005
 -7.547829579838936E-005
 -7.775993695223302E-005
 -7.984313848478323E-005
 -8.174729757182112E-005
 -8.349100287451392E-005
 -8.509195696440667E-005
 -8.656691673209700E-005
 -8.793165013192056E-005
 -8.920090750879909E-005
 -9.038840573886812E-005
 -9.150682353056946E-005
 -9.256780650615293E-005
 -9.358198112322750E-005
 -6.959208874773925E-005
 -7.223354375374036E-005
 -7.463472068328542E-005
 -7.681751075654385E-005
 -7.880306907537976E-005
 -8.061170067594979E-005
 -8.226276829793223E-005
 -8.377462036986312E-005
 -8.516453747112865E-005
 -8.644869528256057E-005
 -8.764214183360885E-005
 -8.875878676559209E-005
 -8.981140042311331E-005
 -9.081162090416562E-005
 -9.176996776101589E-005
 -6.890296113105940E-005
 -7.142989669028601E-005
 -7.371574085827510E-005
 -7.578373378475681E-005
 -7.765621495967035E-005
 -7.935451400029354E-005
 -8.089886440029975E-005
 -8.230833856562593E-005
 -8.360080212641615E-005
 -8.479288510493933E-005
 -8.589996714133510E-005
 -8.693617375682671E-005
 -8.791438067150408E-005
 -8.884622356035784E-005
 -8.974211134997015E-005
 -6.818181498595912E-005
 -7.057611581104307E-005
 -7.272887228072863E-005
 -7.466483516482261E-005
 -7.640766604436269E-005
 -7.797983384195487E-005
 -7.940253593466761E-005
 -8.069564211150954E-005
 -8.187765911332366E-005
 -8.296571279212247E-005
 -8.397554424682466E-005
 -8.492151584022371E-005
 -8.581662293720653E-005
 -8.667250762452591E-005
 -8.749947159979234E-005
 -6.744016456001217E-005
 -6.968190451630059E-005
 -7.168217932259217E-005
 -7.346741347655727E-005
 -7.506272741608096E-005
 -7.649184080543362E-005
 -7.777700253526975E-005
 -7.893894590332083E-005
 -7.999686654460916E-005
 -8.096841945502611E-005
 -8.186973026054864E-005
 -8.271541505840871E-005
 -8.351860293190771E-005
 -8.429095573144653E-005
 -8.504268093147600E-005
 -6.669040037462209E-005
 -6.875759784036473E-005
 -7.058414258277245E-005
 -7.219829710927111E-005
 -7.362677581388505E-005
 -7.489465567325161E-005
 -7.602531658249961E-005
 -7.704041052667096E-005
 -7.795985714762840E-005
 -7.880186111384959E-005
 -7.958294466568129E-005
 -8.031798731453205E-005
 -8.102026423227576E-005
 -8.170147548523370E-005
 -8.237175990235233E-005
 -6.594564679830458E-005
 -6.781400495545355E-005
 -6.944349025062595E-005
 -7.086436891352987E-005
 -7.210508236154109E-005
 -7.319216486273401E-005
 -7.415019516672672E-005
 -7.500178294072874E-005
 -7.576758778722202E-005
 -7.646636485393843E-005
 -7.711502766971282E-005
 -7.772871663833672E-005
 -7.832086095690903E-005
 -7.890322260981970E-005
 -7.948591335316490E-005
 -6.521957726238567E-005
 -6.686220834809271E-005
 -6.826898543837213E-005
 -6.947234735147300E-005
 -7.050259430046502E-005
 -7.138780963264788E-005
 -7.215382252444876E-005
 -7.282421557919392E-005
 -7.342037552170761E-005
 -7.396157866082975E-005
 -7.446509735608667E-005
 -7.494631049658352E-005
 -7.541880026290495E-005
 -7.589441891242712E-005
 -7.638331255175625E-005
 -6.452618111124868E-005
 -6.591331196778891E-005
 -6.706916004324147E-005
 -6.802851377001086E-005
 -6.882366578135046E-005
 -6.948433106104335E-005
 -7.003761822064387E-005
 -7.050806316695334E-005
 -7.091772366626203E-005
 -7.128632216061202E-005
 -7.163141575413088E-005
 -7.196856801551442E-005
 -7.231149698142741E-005
 -7.267217646586053E-005
 -7.306087245896846E-005
 -6.387947729488535E-005
 -6.497812956579056E-005
 -6.585198257416623E-005
 -6.653837107445004E-005
 -6.707172331787151E-005
 -6.748345932419082E-005
 -6.780196458453421E-005
 -6.805265683600128E-005
 -6.825814359605459E-005
 -6.843844937233391E-005
 -6.861127897584833E-005
 -6.879227868390344E-005
 -6.899525864572307E-005
 -6.923234519136858E-005
 -6.951403850295079E-005
 -6.329317222374033E-005
 -6.406680237167009E-005
 -6.462444180582766E-005
 -6.500621159713141E-005
 -6.524884409173281E-005
 -6.538553022180583E-005
 -6.544588424790661E-005
 -6.545605569379499E-005
 -6.543898147342558E-005
 -6.541474021421771E-005
 -6.540095361189021E-005
 -6.541317687550985E-005
 -6.546522711030006E-005
 -6.556940868274034E-005
 -6.573660420903996E-005
 -6.278026208907632E-005
 -6.318833087408580E-005
 -6.339201791218555E-005
 -6.343455896856984E-005
 -6.335521305683917E-005
 -6.318900323717531E-005
 -6.296665501200939E-005
 -6.271477742256271E-005
 -6.245626460393911E-005
 -6.221084580234147E-005
 -6.199569143710501E-005
 -6.182598802976523E-005
 -6.171541345486217E-005
 -6.167646307225649E-005
 -6.172058995922223E-005
 -6.235258334161265E-005
 -6.234999605296269E-005
 -6.215799377465645E-005
 -6.182342621103396E-005
 -6.138840487502251E-005
 -6.088984263181012E-005
 -6.035934514254446E-005
 -5.982351307598975E-005
 -5.930459120937663E-005
 -5.882132486249082E-005
 -5.838986819227656E-005
 -5.802461640240737E-005
 -5.773887660828994E-005
 -5.754532655192095E-005
 -5.745622428685429E-005
 -6.202031743794209E-005
 -6.155662538837403E-005
 -6.092252362809012E-005
 -6.016929295138211E-005
 -5.934240508594825E-005
 -5.848070568754959E-005
 -5.761624951435736E-005
 -5.677483966381201E-005
 -5.597710237959349E-005
 -5.523982647406009E-005
 -5.457731101420243E-005
 -5.400254296635928E-005
 -5.352811421414679E-005
 -5.316684376031891E-005
 -5.293208284041774E-005
 -6.179145409609218E-005
 -6.080961675456581E-005
 -5.968130849830236E-005
 -5.846363613151470E-005
 -5.720623670444280E-005
 -5.594986257453539E-005
 -5.472621133719221E-005
 -5.355896238062987E-005
 -5.246559860217003E-005
 -5.145949932834713E-005
 -5.055190381850178E-005
 -4.975352690573495E-005
 -4.907575853598571E-005
 -4.853147198987885E-005
 -4.813545753463355E-005
 -6.167120442787729E-005
 -6.010554270347954E-005
 -5.842359568762144E-005
 -5.669072889561439E-005
 -5.496199126175183E-005
 -5.327976192301115E-005
 -5.167383925920683E-005
 -5.016355402684033E-005
 -4.876089726713439E-005
 -4.747373784591474E-005
 -4.630859136800793E-005
 -4.527273657381183E-005
 -4.437570628438014E-005
 -4.363026980092359E-005
 -4.305305380749173E-005
 -6.166131321008853E-005
 -5.943395806400508E-005
 -5.712894869310819E-005
 -5.482421612734699E-005
 -5.258199031310178E-005
 -5.044519268110819E-005
 -4.843870530051570E-005
 -4.657382111806619E-005
 -4.485356249301149E-005
 -4.327740439780619E-005
 -4.184493345269008E-005
 -4.055848691683731E-005
 -3.942486411572862E-005
 -3.845647298855175E-005
 -3.767215607372500E-005
 -6.175912047392276E-005
 -5.877354373759405E-005
 -5.576166064090153E-005
 -5.282163351446654E-005
 -5.002480263314577E-005
 -4.741118280471203E-005
 -4.499478765902535E-005
 -4.277300703615827E-005
 -4.073514751049815E-005
 -3.886864647211707E-005
 -3.716340741820820E-005
 -3.561481162246683E-005
 -3.422582412806130E-005
 -3.300794165932816E-005
 -3.198251378286474E-005
 -6.195584676253063E-005
 -5.808448797496987E-005
 -5.426034693054518E-005
 -5.061561150471712E-005
 -4.723023133101282E-005
 -4.413133438477451E-005
 -4.131077579104788E-005
 -3.874358269525455E-005
 -3.639994731370400E-005
 -3.425135621016539E-005
 -3.227455586772559E-005
 -3.045537149242657E-005
 -2.879085211489265E-005
 -2.729118326120246E-005
 -2.597936889433110E-005
 -6.223286104464030E-005
 -5.729073258521325E-005
 -5.251749925453471E-005
 -4.810068060154447E-005
 -4.411505023473734E-005
 -4.054871015127457E-005
 -3.735209369043809E-005
 -3.446927616871250E-005
 -3.184695423396529E-005
 -2.943762913316780E-005
 -2.720136931909153E-005
 -2.510874341703505E-005
 -2.314904453248920E-005
 -2.132737698888222E-005
 -1.966933437931425E-005
 -6.254609576697074E-005
 -5.623406342996921E-005
 -5.033787196412511E-005
 -4.511946195957445E-005
 -4.057775275651680E-005
 -3.660162597361956E-005
 -3.308539754353815E-005
 -2.993774376398245E-005
 -2.708120971976574E-005
 -2.444892403102981E-005
 -2.198203963529465E-005
 -1.962973629265723E-005
 -1.735430678960779E-005
 -1.516844283252218E-005
 -1.307949700133149E-005
 -6.277089022986023E-005
 -5.451573055409200E-005
 -4.737641733040036E-005
 -4.148929157228777E-005
 -3.651683959272813E-005
 -3.223586053177403E-005
 -2.848502586154749E-005
 -2.514323442573760E-005
 -2.211367204400767E-005
 -1.931373160495376E-005
 -1.666761460815485E-005
 -1.410021628152894E-005
 -1.153394728330512E-005
 -8.892839974415097E-006
 -6.305910220370299E-006
 -6.200734870704041E-005
 -5.113785228353013E-005
 -4.330857092772895E-005
 -3.706141861662177E-005
 -3.186316920298918E-005
 -2.741903536933900E-005
 -2.353943958715337E-005
 -2.008833925361438E-005
 -1.695928448751148E-005
 -1.406143938652153E-005
 -1.130923349344646E-005
 -8.611736976189022E-006
 -5.857553034552704E-006
 -2.882810177477534E-006
  5.500578485128771E-007
SCALARS poroP double 
LOOKUP_TABLE default
  3.812625265577417E-007
  4.642132227784086E-007
  3.576802389862683E-007
  5.837215377217937E-007
  7.262479816294548E-007
  8.097873883753918E-007
  6.659619603521209E-007
  1.002700890643659E-006
  1.188157076802168E-006
  1.279994538377089E-006
  1.092716044732936E-006
  1.566417829650816E-006
  1.801983779610235E-006
  1.917420291060468E-006
  1.678244688886395E-006
  2.319105322579079E-006
  2.611916111049269E-006
  2.780931635672432E-006
  2.480629759745150E-006
  3.320261968845371E-006
  3.670657991078640E-006
  3.957421680936599E-006
  3.590043429830391E-006
  4.627404648421079E-006
  4.975133849478253E-006
  5.510929637655389E-006
  5.126381387417802E-006
  0.000000000000000E+000
  0.000000000000000E+000
  0.000000000000000E+000
  0.000000000000000E+000
  0.000000000000000E+000
  0.000000000000000E+000
  0.000000000000000E+000
  0.000000000000000E+000
  0.000000000000000E+000
  0.000000000000000E+000
  0.000000000000000E+000
  0.000000000000000E+000
  0.000000000000000E+000
  0.000000000000000E+000
  0.000000000000000E+000
  0.000000000000000E+000
  0.000000000000000E+000
  0.000000000000000E+000
  0.000000000000000E+000
  0.000000000000000E+000
  0.000000000000000E+000
  0.000000000000000E+000
  0.000000000000000E+000
  0.000000000000000E+000
  0.000000000000000E+000
  0.000000000000000E+000
  5.043953088544103E-008
  0.000000000000000E+000
  7.803873639574575E-008
  1.578793373738755E-007
  2.359231502621378E-007
  1.555085853654121E-007
  3.122982960402620E-007
  4.221263074553911E-007
  4.900857948792546E-007
  3.804919485569650E-007
  6.273017813865523E-007
  7.721250641063891E-007
  8.319501209151955E-007
  6.881363031537837E-007
  1.057909369125047E-006
  1.245510016143218E-006
  1.302917960454953E-006
  1.116543455355035E-006
  1.652137756189509E-006
  1.894579696440173E-006
  1.962089065462990E-006
  1.720170952217103E-006
  2.484589844376709E-006
  2.799980426835245E-006
  2.904972025170194E-006
  2.587403747668005E-006
  3.682208122941052E-006
  4.088173174679842E-006
  4.303244279162079E-006
  3.884352794114156E-006
  5.444580000019730E-006
  5.869499549403989E-006
  6.381395038372541E-006
  5.917055535058653E-006
  0.000000000000000E+000
  0.000000000000000E+000
  0.000000000000000E+000
  0.000000000000000E+000
  0.000000000000000E+000
  0.000000000000000E+000
  0.000000000000000E+000
  0.000000000000000E+000
  0.000000000000000E+000
  0.000000000000000E+000
  0.000000000000000E+000
  0.000000000000000E+000
  0.000000000000000E+000
  0.000000000000000E+000
  0.000000000000000E+000
  0.000000000000000E+000
  0.000000000000000E+000
  0.000000000000000E+000
  0.000000000000000E+000
  0.000000000000000E+000
  0.000000000000000E+000
  0.000000000000000E+000
  0.000000000000000E+000
  0.000000000000000E+000
  0.000000000000000E+000
  0.000000000000000E+000
  5.757290731843795E-008
  0.000000000000000E+000
  8.634271314781867E-008
  1.686186950150240E-007
  2.397730384293252E-007
  1.579440275336172E-007
  3.179531237091717E-007
  4.261102450159866E-007
  4.819052507827354E-007
  3.752756986910300E-007
  6.239584323058663E-007
  7.632192707506688E-007
  8.039819089905196E-007
  6.674117155258321E-007
  1.044159430913683E-006
  1.223561825943274E-006
  1.250984846196653E-006
  1.075331678470492E-006
  1.637705695721062E-006
  1.872684325574938E-006
  1.894590349505460E-006
  1.663855289313616E-006
  2.506568883671776E-006
  2.826614572330829E-006
  2.863214033312541E-006
  2.546563033399051E-006
  3.858126603241165E-006
  4.312418613917358E-006
  4.422842961969049E-006
  3.969510207493202E-006
  6.144492627119382E-006
  6.690554333273513E-006
  7.095845302053521E-006
  6.539675916732030E-006
  0.000000000000000E+000
  0.000000000000000E+000
  0.000000000000000E+000
  0.000000000000000E+000
  0.000000000000000E+000
  0.000000000000000E+000
  0.000000000000000E+000
  0.000000000000000E+000
  0.000000000000000E+000
  0.000000000000000E+000
  0.000000000000000E+000
  0.000000000000000E+000
  0.000000000000000E+000
  0.000000000000000E+000
  0.000000000000000E+000
  0.000000000000000E+000
  0.000000000000000E+000
  0.000000000000000E+000
  0.000000000000000E+000
  0.000000000000000E+000
  0.000000000000000E+000
  0.000000000000000E+000
  0.000000000000000E+000
  0.000000000000000E+000
  0.000000000000000E+000
  0.000000000000000E+000
  5.003803352449974E-008
  0.000000000000000E+000
  7.057306707123438E-008
  1.513736259912149E-007
  2.172224477187042E-007
  1.375392343921142E-007
  2.891876714035136E-007
  3.912977484789181E-007
  4.389944145906700E-007
  3.390661277629029E-007
  5.734920942377639E-007
  7.013174461013148E-007
  7.286414739285821E-007
  6.044213703910116E-007
  9.634073905583818E-007
  1.126468981308128E-006
  1.130916904836808E-006
  9.732117313993626E-007
  1.525455076788219E-006
  1.741622028766103E-006
  1.724093396750978E-006
  1.515180019557889E-006
  2.380448716102848E-006
  2.685709771882657E-006
  2.655937850084368E-006
  2.359710231003009E-006
  3.802772701146506E-006
  4.279661177938414E-006
  4.276399687547837E-006
  3.806441661618758E-006
  6.583378344706018E-006
  7.313966673944459E-006
  7.595603686744130E-006
  6.868766572117749E-006
  0.000000000000000E+000
  0.000000000000000E+000
  0.000000000000000E+000
  0.000000000000000E+000
  0.000000000000000E+000
  0.000000000000000E+000
  0.000000000000000E+000
  0.000000000000000E+000
  0.000000000000000E+000
  0.000000000000000E+000
  0.000000000000000E+000
  0.000000000000000E+000
  0.000000000000000E+000
  0.000000000000000E+000
  0.000000000000000E+000
  0.000000000000000E+000
  0.000000000000000E+000
  0.000000000000000E+000
  0.000000000000000E+000
  0.000000000000000E+000
  0.000000000000000E+000
  0.000000000000000E+000
  0.000000000000000E+000
  0.000000000000000E+000
  0.000000000000000E+000
  0.000000000000000E+000
  2.070229225325561E-008
  0.000000000000000E+000
  2.421729357356888E-008
  1.003343027081885E-007
  1.624542747788237E-007
  8.800534040315286E-008
  2.211248531459289E-007
  3.141362869343474E-007
  3.555987943088894E-007
  2.650265605515104E-007
  4.740803113781707E-007
  5.869869669254326E-007
  6.065051166364908E-007
  4.973022702641418E-007
  8.185213788879955E-007
  9.607280676203989E-007
  9.518729106647167E-007
  8.154501910627468E-007
  1.322505960377240E-006
  1.512240410032365E-006
  1.465987177312828E-006
  1.285611120482793E-006
  2.116004211318403E-006
  2.392445071666982E-006
  2.303847762286837E-006
  2.042128087842031E-006
  3.505071490397151E-006
  3.971067504604111E-006
  3.847519833978330E-006
  3.403061308233355E-006
  6.667247123417464E-006
  7.605540312825424E-006
  7.594284032070061E-006
  6.688518902558704E-006
  0.000000000000000E+000
  0.000000000000000E+000
  0.000000000000000E+000
  0.000000000000000E+000
  0.000000000000000E+000
  0.000000000000000E+000
  0.000000000000000E+000
  0.000000000000000E+000
  0.000000000000000E+000
  0.000000000000000E+000
  0.000000000000000E+000
  0.000000000000000E+000
  0.000000000000000E+000
  0.000000000000000E+000
  0.000000000000000E+000
  0.000000000000000E+000
  0.000000000000000E+000
  0.000000000000000E+000
  0.000000000000000E+000
  0.000000000000000E+000
  0.000000000000000E+000
  0.000000000000000E+000
  0.000000000000000E+000
  0.000000000000000E+000
  0.000000000000000E+000
  0.000000000000000E+000
  0.000000000000000E+000
  0.000000000000000E+000
  0.000000000000000E+000
  1.305548248607059E-008
  7.344631609003669E-008
  1.041634803463392E-008
  1.071402803549938E-007
  1.891784253665382E-007
  2.247788400074390E-007
  1.453267151635542E-007
  3.234451544166746E-007
  4.210272757893417E-007
  4.351777706633465E-007
  3.412101397098913E-007
  6.157518771188166E-007
  7.360190295798499E-007
  7.228956714532951E-007
  6.080518701140875E-007
  1.042219418960874E-006
  1.202153223958059E-006
  1.145708541558595E-006
  9.948606827033131E-007
  1.731557725037782E-006
  1.970619718439001E-006
  1.844854691518958E-006
  1.623608967962094E-006
  2.994140655776806E-006
  3.418989963339758E-006
  3.196486810488576E-006
  2.805430706444425E-006
  6.158963660590496E-006
  7.325905962744102E-006
  6.947034294732422E-006
  5.863292495709136E-006
  0.000000000000000E+000
  0.000000000000000E+000
  0.000000000000000E+000
  0.000000000000000E+000
  0.000000000000000E+000
  0.000000000000000E+000
  0.000000000000000E+000
  0.000000000000000E+000
  0.000000000000000E+000
  0.000000000000000E+000
  0.000000000000000E+000
  0.000000000000000E+000
  0.000000000000000E+000
  0.000000000000000E+000
  0.000000000000000E+000
  0.000000000000000E+000
  0.000000000000000E+000
  0.000000000000000E+000
  0.000000000000000E+000
  0.000000000000000E+000
  0.000000000000000E+000
  0.000000000000000E+000
  0.000000000000000E+000
  0.000000000000000E+000
  0.000000000000000E+000
  0.000000000000000E+000
  0.000000000000000E+000
  0.000000000000000E+000
  0.000000000000000E+000
  0.000000000000000E+000
  0.000000000000000E+000
  0.000000000000000E+000
  0.000000000000000E+000
  2.094395022111207E-008
  6.196659457359456E-008
  3.637995680574254E-009
  1.228251961957312E-007
  2.054303109226064E-007
  2.171956593762992E-007
  1.376374610254868E-007
  3.629975436030545E-007
  4.622627345162816E-007
  4.476636532983506E-007
  3.527948914585775E-007
  7.092710822652077E-007
  8.422251777432000E-007
  7.945352190174656E-007
  6.692724753114798E-007
  1.269830569360965E-006
  1.469655186082466E-006
  1.350127758953847E-006
  1.166597268545354E-006
  2.323220245409191E-006
  2.691725912009687E-006
  2.401069701641621E-006
  2.077586222464963E-006
  5.111775603059904E-006
  6.372995184631093E-006
  5.607015101297222E-006
  4.544722972590350E-006
  0.000000000000000E+000
  0.000000000000000E+000
  0.000000000000000E+000
  7.676421297992088E-010
  0.000000000000000E+000
  0.000000000000000E+000
  0.000000000000000E+000
  0.000000000000000E+000
  0.000000000000000E+000
  0.000000000000000E+000
  0.000000000000000E+000
  0.000000000000000E+000
  0.000000000000000E+000
  0.000000000000000E+000
  0.000000000000000E+000
  0.000000000000000E+000
  0.000000000000000E+000
  0.000000000000000E+000
  0.000000000000000E+000
  0.000000000000000E+000
  0.000000000000000E+000
  0.000000000000000E+000
  0.000000000000000E+000
  0.000000000000000E+000
  0.000000000000000E+000
  0.000000000000000E+000
  0.000000000000000E+000
  0.000000000000000E+000
  0.000000000000000E+000
  0.000000000000000E+000
  0.000000000000000E+000
  0.000000000000000E+000
  0.000000000000000E+000
  0.000000000000000E+000
  0.000000000000000E+000
  0.000000000000000E+000
  0.000000000000000E+000
  0.000000000000000E+000
  0.000000000000000E+000
  0.000000000000000E+000
  7.421314578685733E-008
  1.544802092455804E-007
  1.473755710319001E-007
  7.035614305375564E-008
  3.583183496143955E-007
  4.702673855203649E-007
  4.436513868841139E-007
  3.374966697243672E-007
  8.019573882455721E-007
  9.678717879137981E-007
  8.891059627888356E-007
  7.356746620907552E-007
  1.586766321111882E-006
  1.882207304279747E-006
  1.639366951472170E-006
  1.383419798128818E-006
  3.640720955470144E-006
  4.727007277453536E-006
  3.566938150639974E-006
  2.811855642902026E-006
  0.000000000000000E+000
   1.00000000000000     
  0.500000000000000     
SCALARS elementIsPlast double 
LOOKUP_TABLE default
  0.000000000000000E+000
  0.000000000000000E+000
  0.000000000000000E+000
  0.000000000000000E+000
  0.000000000000000E+000
  0.000000000000000E+000
  0.000000000000000E+000
  0.000000000000000E+000
  0.000000000000000E+000
  0.000000000000000E+000
  0.000000000000000E+000
  0.000000000000000E+000
  0.000000000000000E+000
  0.000000000000000E+000
  0.000000000000000E+000
  0.000000000000000E+000
  0.000000000000000E+000
  0.000000000000000E+000
  0.000000000000000E+000
  0.000000000000000E+000
  0.000000000000000E+000
  0.000000000000000E+000
  0.000000000000000E+000
  0.000000000000000E+000
  0.000000000000000E+000
  0.000000000000000E+000
  0.000000000000000E+000
  0.000000000000000E+000
  0.000000000000000E+000
  0.000000000000000E+000
  0.000000000000000E+000
  0.000000000000000E+000
  0.000000000000000E+000
  0.000000000000000E+000
  0.000000000000000E+000
  0.000000000000000E+000
  0.000000000000000E+000
  0.000000000000000E+000
  0.000000000000000E+000
  0.000000000000000E+000
  0.000000000000000E+000
  0.000000000000000E+000
  0.000000000000000E+000
  0.000000000000000E+000
  0.000000000000000E+000
  0.000000000000000E+000
  0.000000000000000E+000
  0.000000000000000E+000
  0.000000000000000E+000
  0.000000000000000E+000
  0.000000000000000E+000
  0.000000000000000E+000
  0.000000000000000E+000
  0.000000000000000E+000
  0.000000000000000E+000
  0.000000000000000E+000
  0.000000000000000E+000
  0.000000000000000E+000
  0.000000000000000E+000
  0.000000000000000E+000
  0.000000000000000E+000
  0.000000000000000E+000
  0.000000000000000E+000
  0.000000000000000E+000
  0.000000000000000E+000
  0.000000000000000E+000
  0.000000000000000E+000
  0.000000000000000E+000
  0.000000000000000E+000
  0.000000000000000E+000
  0.000000000000000E+000
  0.000000000000000E+000
  0.000000000000000E+000
  0.000000000000000E+000
  0.000000000000000E+000
  0.000000000000000E+000
  0.000000000000000E+000
  0.000000000000000E+000
  0.000000000000000E+000
  0.000000000000000E+000
  0.000000000000000E+000
  0.000000000000000E+000
  0.000000000000000E+000
  0.000000000000000E+000
  0.000000000000000E+000
  0.000000000000000E+000
  0.000000000000000E+000
  0.000000000000000E+000
  0.000000000000000E+000
  0.000000000000000E+000
  0.000000000000000E+000
  0.000000000000000E+000
  0.000000000000000E+000
  0.000000000000000E+000
  0.000000000000000E+000
  0.000000000000000E+000
  0.000000000000000E+000
  0.000000000000000E+000
  0.000000000000000E+000
  0.000000000000000E+000
  0.000000000000000E+000
  0.000000000000000E+000
  0.000000000000000E+000
  0.000000000000000E+000
  0.000000000000000E+000
  0.000000000000000E+000
  0.000000000000000E+000
  0.000000000000000E+000
  0.000000000000000E+000
  0.000000000000000E+000
  0.000000000000000E+000
  0.000000000000000E+000
  0.000000000000000E+000
  0.000000000000000E+000
  0.000000000000000E+000
  0.000000000000000E+000
  0.000000000000000E+000
  0.000000000000000E+000
  0.000000000000000E+000
  0.000000000000000E+000
  0.000000000000000E+000
  0.000000000000000E+000
  0.000000000000000E+000
  0.000000000000000E+000
  0.000000000000000E+000
  0.000000000000000E+000
  0.000000000000000E+000
  0.000000000000000E+000
  0.000000000000000E+000
  0.000000000000000E+000
  0.000000000000000E+000
  0.000000000000000E+000
  0.000000000000000E+000
  0.000000000000000E+000
  0.000000000000000E+000
  0.000000000000000E+000
  0.000000000000000E+000
  0.000000000000000E+000
  0.000000000000000E+000
  0.000000000000000E+000
  0.000000000000000E+000
  0.000000000000000E+000
  0.000000000000000E+000
  0.000000000000000E+000
  0.000000000000000E+000
  0.000000000000000E+000
  0.000000000000000E+000
  0.000000000000000E+000
  0.000000000000000E+000
  0.000000000000000E+000
  0.000000000000000E+000
  0.000000000000000E+000
  0.000000000000000E+000
  0.000000000000000E+000
  0.000000000000000E+000
  0.000000000000000E+000
  0.000000000000000E+000
  0.000000000000000E+000
  0.000000000000000E+000
  0.000000000000000E+000
  0.000000000000000E+000
  0.000000000000000E+000
  0.000000000000000E+000
  0.000000000000000E+000
  0.000000000000000E+000
  0.000000000000000E+000
  0.000000000000000E+000
  0.000000000000000E+000
  0.000000000000000E+000
  0.000000000000000E+000
  0.000000000000000E+000
  0.000000000000000E+000
  0.000000000000000E+000
  0.000000000000000E+000
  0.000000000000000E+000
  0.000000000000000E+000
  0.000000000000000E+000
  0.000000000000000E+000
  0.000000000000000E+000
  0.000000000000000E+000
  0.000000000000000E+000
  0.000000000000000E+000
  0.000000000000000E+000
  0.000000000000000E+000
  0.000000000000000E+000
  0.000000000000000E+000
  0.000000000000000E+000
  0.000000000000000E+000
  0.000000000000000E+000
  0.000000000000000E+000
  0.000000000000000E+000
  0.000000000000000E+000
  0.000000000000000E+000
  0.000000000000000E+000
  0.000000000000000E+000
  0.000000000000000E+000
  0.000000000000000E+000
  0.000000000000000E+000
  0.000000000000000E+000
  0.000000000000000E+000
  0.000000000000000E+000
  0.000000000000000E+000
  0.000000000000000E+000
  0.000000000000000E+000
  0.000000000000000E+000
  0.000000000000000E+000
  0.000000000000000E+000
  0.000000000000000E+000
  0.000000000000000E+000
  0.000000000000000E+000
  0.000000000000000E+000
  0.000000000000000E+000
  0.000000000000000E+000
  0.000000000000000E+000
  0.000000000000000E+000
  0.000000000000000E+000
  0.000000000000000E+000
  0.000000000000000E+000
  0.000000000000000E+000
  0.000000000000000E+000
  0.000000000000000E+000
  0.000000000000000E+000
  0.000000000000000E+000
  0.000000000000000E+000
  0.000000000000000E+000
  0.000000000000000E+000
  0.000000000000000E+000
  0.000000000000000E+000
  0.000000000000000E+000
  0.000000000000000E+000
  0.000000000000000E+000
  0.000000000000000E+000
  0.000000000000000E+000
  0.000000000000000E+000
  0.000000000000000E+000
  0.000000000000000E+000
  0.000000000000000E+000
  0.000000000000000E+000
  0.000000000000000E+000
  0.000000000000000E+000
  0.000000000000000E+000
  0.000000000000000E+000
  0.000000000000000E+000
  0.000000000000000E+000
  0.000000000000000E+000
  0.000000000000000E+000
  0.000000000000000E+000
  0.000000000000000E+000
  0.000000000000000E+000
  0.000000000000000E+000
  0.000000000000000E+000
  0.000000000000000E+000
  0.000000000000000E+000
  0.000000000000000E+000
  0.000000000000000E+000
  0.000000000000000E+000
  0.000000000000000E+000
  0.000000000000000E+000
  0.000000000000000E+000
  0.000000000000000E+000
  0.000000000000000E+000
  0.000000000000000E+000
  0.000000000000000E+000
  0.000000000000000E+000
  0.000000000000000E+000
  0.000000000000000E+000
  0.000000000000000E+000
  0.000000000000000E+000
  0.000000000000000E+000
  0.000000000000000E+000
  0.000000000000000E+000
  0.000000000000000E+000
  0.000000000000000E+000
  0.000000000000000E+000
  0.000000000000000E+000
  0.000000000000000E+000
  0.000000000000000E+000
  0.000000000000000E+000
  0.000000000000000E+000
  0.000000000000000E+000
  0.000000000000000E+000
  0.000000000000000E+000
  0.000000000000000E+000
  0.000000000000000E+000
  0.000000000000000E+000
  0.000000000000000E+000
  0.000000000000000E+000
  0.000000000000000E+000
  0.000000000000000E+000
  0.000000000000000E+000
  0.000000000000000E+000
  0.000000000000000E+000
  0.000000000000000E+000
  0.000000000000000E+000
  0.000000000000000E+000
  0.000000000000000E+000
  0.000000000000000E+000
  0.000000000000000E+000
  0.000000000000000E+000
  0.000000000000000E+000
  0.000000000000000E+000
  0.000000000000000E+000
  0.000000000000000E+000
  0.000000000000000E+000
  0.000000000000000E+000
  0.000000000000000E+000
  0.000000000000000E+000
  0.000000000000000E+000
  0.000000000000000E+000
  0.000000000000000E+000
  0.000000000000000E+000
  0.000000000000000E+000
  0.000000000000000E+000
  0.000000000000000E+000
  0.000000000000000E+000
  0.000000000000000E+000
  0.000000000000000E+000
  0.000000000000000E+000
  0.000000000000000E+000
  0.000000000000000E+000
  0.000000000000000E+000
  0.000000000000000E+000
  0.000000000000000E+000
  0.000000000000000E+000
  0.000000000000000E+000
  0.000000000000000E+000
  0.000000000000000E+000
  0.000000000000000E+000
  0.000000000000000E+000
  0.000000000000000E+000
  0.000000000000000E+000
  0.000000000000000E+000
  0.000000000000000E+000
  0.000000000000000E+000
  0.000000000000000E+000
  0.000000000000000E+000
  0.000000000000000E+000
  0.000000000000000E+000
  0.000000000000000E+000
  0.000000000000000E+000
  0.000000000000000E+000
  0.000000000000000E+000
  0.000000000000000E+000
  0.000000000000000E+000
  0.000000000000000E+000
  0.000000000000000E+000
  0.000000000000000E+000
  0.000000000000000E+000
  0.000000000000000E+000
  0.000000000000000E+000
  0.000000000000000E+000
  0.000000000000000E+000
  0.000000000000000E+000
  0.000000000000000E+000
  0.000000000000000E+000
  0.000000000000000E+000
  0.000000000000000E+000
  0.000000000000000E+000
  0.000000000000000E+000
  0.000000000000000E+000
  0.000000000000000E+000
  0.000000000000000E+000
  0.000000000000000E+000
  0.000000000000000E+000
  0.000000000000000E+000
  0.000000000000000E+000
  0.000000000000000E+000
  0.000000000000000E+000
  0.000000000000000E+000
  0.000000000000000E+000
  0.000000000000000E+000
  0.000000000000000E+000
  0.000000000000000E+000
  0.000000000000000E+000
  0.000000000000000E+000
  0.000000000000000E+000
  0.000000000000000E+000
  0.000000000000000E+000
  0.000000000000000E+000
  0.000000000000000E+000
  0.000000000000000E+000
  0.000000000000000E+000
  0.000000000000000E+000
  0.000000000000000E+000
  0.000000000000000E+000
  0.000000000000000E+000
  0.000000000000000E+000
  0.000000000000000E+000
  0.000000000000000E+000
  0.000000000000000E+000
  0.000000000000000E+000
  0.000000000000000E+000
  0.000000000000000E+000
  0.000000000000000E+000
  0.000000000000000E+000
  0.000000000000000E+000
  0.000000000000000E+000
  0.000000000000000E+000
  0.000000000000000E+000
  0.000000000000000E+000
  0.000000000000000E+000
  0.000000000000000E+000
  0.000000000000000E+000
  0.000000000000000E+000
  0.000000000000000E+000
  0.000000000000000E+000
  0.000000000000000E+000
  0.000000000000000E+000
  0.000000000000000E+000
  0.000000000000000E+000
  0.000000000000000E+000
  0.000000000000000E+000
  0.000000000000000E+000
  0.000000000000000E+000
  0.000000000000000E+000
  0.000000000000000E+000
  0.000000000000000E+000
  0.000000000000000E+000
  0.000000000000000E+000
  0.000000000000000E+000
  0.000000000000000E+000
  0.000000000000000E+000
  0.000000000000000E+000
  0.000000000000000E+000
  0.000000000000000E+000
  0.000000000000000E+000
  0.000000000000000E+000
  0.000000000000000E+000
  0.000000000000000E+000
  0.000000000000000E+000
  0.000000000000000E+000
  0.000000000000000E+000
  0.000000000000000E+000
  0.000000000000000E+000
  0.000000000000000E+000
  0.000000000000000E+000
  0.000000000000000E+000
  0.000000000000000E+000
  0.000000000000000E+000
  0.000000000000000E+000
  0.000000000000000E+000
  0.000000000000000E+000
  0.000000000000000E+000
  0.000000000000000E+000
  0.000000000000000E+000
  0.000000000000000E+000
  0.000000000000000E+000
  0.000000000000000E+000
  0.000000000000000E+000
  0.000000000000000E+000
SCALARS poroL double 
LOOKUP_TABLE default
  0.155899595134972     
  0.155897535636003     
  0.155895595297794     
  0.155893770007035     
  0.155892055339019     
  0.155890446646396     
  0.155888939144763     
  0.155887527993393     
  0.155886208369663     
  0.155884975535941     
  0.155883824897894     
  0.155882752053282     
  0.155881752830450     
  0.155880823315796     
  0.155879959869610     
  0.155899240704241     
  0.155897190011801     
  0.155895258590563     
  0.155893442246046     
  0.155891736474579     
  0.155890136553788     
  0.155888637629634     
  0.155887234798355     
  0.155885923181895     
  0.155884697995660     
  0.155883554607565     
  0.155882488587488     
  0.155881495746367     
  0.155880572164206     
  0.155879714206395     
  0.155898532499789     
  0.155896499484104     
  0.155894585959603     
  0.155892787567660     
  0.155891099645188     
  0.155889517318547     
  0.155888035593438     
  0.155886649439209     
  0.155885353866264     
  0.155884143995489     
  0.155883015118750     
  0.155881962749655     
  0.155880982663834     
  0.155880070928046     
  0.155879223917475     
  0.155897471834141     
  0.155895465494710     
  0.155893578973842     
  0.155891807662223     
  0.155890146653961     
  0.155888590845529     
  0.155887135029815     
  0.155885773983850     
  0.155884502549069     
  0.155883315703124     
  0.155882208622484     
  0.155881176735082     
  0.155880215762357     
  0.155879321750030     
  0.155878491086921     
  0.155896060672707     
  0.155894090207598     
  0.155892239991753     
  0.155890505073369     
  0.155888880216081     
  0.155887360004405     
  0.155885938943098     
  0.155884611549223     
  0.155883372435947     
  0.155882216387352     
  0.155881138423633     
  0.155880133856153     
  0.155879198331786     
  0.155878327865937     
  0.155877518863533     
  0.155894301630705     
  0.155892376511355     
  0.155890572168222     
  0.155888883208401     
  0.155887303971899     
  0.155885828644851     
  0.155884451365150     
  0.155883166319501     
  0.155881967831264     
  0.155880850438615     
  0.155879808962707     
  0.155878838565510     
  0.155877934796934     
  0.155877093630712     
  0.155876311488293     
  0.155892197970723     
  0.155890328023912     
  0.155888579465014     
  0.155886946353207     
  0.155885422505223     
  0.155884001617379     
  0.155882677378108     
  0.155881443570394     
  0.155880294163816     
  0.155879223396158     
  0.155878225844618     
  0.155877296486642     
  0.155876430750225     
  0.155875624553272     
  0.155874874331272     
  0.155889753602426     
  0.155887949100949     
  0.155886266665990     
  0.155884699692642     
  0.155883241367510     
  0.155881884800246     
  0.155880623143281     
  0.155879449699589     
  0.155878358018705     
  0.155877341981460     
  0.155876395873995     
  0.155875514451532     
  0.155874692992090     
  0.155873927339957     
  0.155873213938174     
  0.155886973086345     
  0.155885244849699     
  0.155883639398579     
  0.155882149337625     
  0.155880767108870     
  0.155879485133068     
  0.155878295936452     
  0.155877192263278     
  0.155876167175025     
  0.155875214137402     
  0.155874327096428     
  0.155873500544708     
  0.155872729578589     
  0.155872009946335     
  0.155871338086629     
  0.155883861644211     
  0.155882221150328     
  0.155880704163364     
  0.155879302360447     
  0.155878007317022     
  0.155876810657813     
  0.155875704189858     
  0.155874680018624     
  0.155873730648879     
  0.155872849072388     
  0.155872028844654     
  0.155871264152714     
  0.155870549875425     
  0.155869881636840     
  0.155869255852145     
  0.155880425178757     
  0.155878884687521     
  0.155877468374074     
  0.155876166840173     
  0.155874970665596     
  0.155873870568063     
  0.155872857541137     
  0.155871922971867     
  0.155871058740877     
  0.155870257308173     
  0.155869511788207     
  0.155868816017446     
  0.155868164616942     
  0.155867553051238     
  0.155866977683348     
  0.155876670306513     
  0.155875242995423     
  0.155873940410720     
  0.155872751920418     
  0.155871666973486     
  0.155870675267561     
  0.155869766889526     
  0.155868932431604     
  0.155868163086943     
  0.155867450729618     
  0.155866787984361     
  0.155866168291052     
  0.155865585967978     
  0.155865036276244     
  0.155864515485610     
  0.155872604407525     
  0.155871304519573     
  0.155870129689199     
  0.155869067882337     
  0.155868107277436     
  0.155867236439365     
  0.155866444459630     
  0.155865721066501     
  0.155865056710706     
  0.155864442633825     
  0.155863870927225     
  0.155863334589038     
  0.155862827585368     
  0.155862344919674     
  0.155861882711384     
  0.155868235696428     
  0.155867078700074     
  0.155866046751347     
  0.155865126236374     
  0.155864303920649     
  0.155863567127353     
  0.155862903873196     
  0.155862302966455     
  0.155861754075072     
  0.155861247775059     
  0.155860775590578     
  0.155860330036742     
  0.155859904674398     
  0.155859494183089     
  0.155859094454448     
  0.155863573319484     
  0.155862576080858     
  0.155861703380421     
  0.155860939837423     
  0.155860270661231     
  0.155859681832499     
  0.155859160229547     
  0.155858693705871     
  0.155858271129740     
  0.155857882400534     
  0.155857518458275     
  0.155857171302420     
  0.155856834033499     
  0.155856500927020     
  0.155856167543616     
  0.155858627482304     
  0.155857808450701     
  0.155857112748319     
  0.155856523029695     
  0.155856022805823     
  0.155855596627485     
  0.155855230195776     
  0.155854910407404     
  0.155854625350239     
  0.155854364270264     
  0.155854117533698     
  0.155853876607463     
  0.155853634077712     
  0.155853383720242     
  0.155853120629206     
  0.155853409612665     
  0.155852789022803     
  0.155852289603093     
  0.155851891830249     
  0.155851577376261     
  0.155851329294983     
  0.155851132108587     
  0.155850971804105     
  0.155850835762587     
  0.155850712651756     
  0.155850592316538     
  0.155850465700707     
  0.155850324827777     
  0.155850162861060     
  0.155849974252524     
  0.155847932562359     
  0.155847532661687     
  0.155847250508918     
  0.155847064164442     
  0.155846953321055     
  0.155846899497770     
  0.155846886090871     
  0.155846898297462     
  0.155846922945625     
  0.155846948276914     
  0.155846963730901     
  0.155846959778937     
  0.155846927846752     
  0.155846860353984     
  0.155846750884579     
  0.155842210851437     
  0.155842056169770     
  0.155842014157011     
  0.155842060173677     
  0.155842171789688     
  0.155842328993028     
  0.155842514187867     
  0.155842712008087     
  0.155842909000160     
  0.155843093243940     
  0.155843253982823     
  0.155843381329142     
  0.155843466099485     
  0.155843499819097     
  0.155843474915174     
  0.155836260958223     
  0.155836378652977     
  0.155836601777035     
  0.155836902627512     
  0.155837256497335     
  0.155837641909177     
  0.155838040529828     
  0.155838436814498     
  0.155838817470026     
  0.155839170840676     
  0.155839486317325     
  0.155839753859127     
  0.155839963701341     
  0.155840106303550     
  0.155840172567281     
  0.155830101660654     
  0.155830521998637     
  0.155831037698308     
  0.155831617491553     
  0.155832234221963     
  0.155832865111330     
  0.155833491529932     
  0.155834098372784     
  0.155834673194252     
  0.155835205257414     
  0.155835684634341     
  0.155836101470760     
  0.155836445510163     
  0.155836705954058     
  0.155836871704326     
  0.155823754442150     
  0.155824511526635     
  0.155825350146036     
  0.155826234734328     
  0.155827135496192     
  0.155828028689607     
  0.155828896125420     
  0.155829724104534     
  0.155830502061772     
  0.155831221146701     
  0.155831872908917     
  0.155832448212673     
  0.155832936497172     
  0.155833325494114     
  0.155833601489560     
  0.155817243995588     
  0.155818376931590     
  0.155819572424426     
  0.155820789508432     
  0.155821995582211     
  0.155823166607679     
  0.155824286061449     
  0.155825343130106     
  0.155826330631017     
  0.155827242977557     
  0.155828074343968     
  0.155828817124316     
  0.155829460802842     
  0.155829991425566     
  0.155830391846057     
  0.155810598909631     
  0.155812153753004     
  0.155813744766749     
  0.155815323924612     
  0.155816855841906     
  0.155818317531765     
  0.155819696189005     
  0.155820986105776     
  0.155822185572362     
  0.155823294127609     
  0.155824310169420     
  0.155825228843876     
  0.155826040333419     
  0.155826728826984     
  0.155827272650677     
  0.155803852739882     
  0.155805885882368     
  0.155807917384913     
  0.155809889763635     
  0.155811765604310     
  0.155813525782147     
  0.155815164678221     
  0.155816684897175     
  0.155818092901903     
  0.155819395687680     
  0.155820597991290     
  0.155821699606508     
  0.155822692640384     
  0.155823559532075     
  0.155824272554410     
  0.155797046016350     
  0.155799630251453     
  0.155802155787251     
  0.155804552609854     
  0.155806784472039     
  0.155808842132631     
  0.155810732902098     
  0.155812471993481     
  0.155814077050288     
  0.155815565025819     
  0.155816949694571     
  0.155818238322199     
  0.155819427674688     
  0.155820499172447     
  0.155821417267466     
  0.155790230575573     
  0.155793466763129     
  0.155796550444912     
  0.155799397780391     
  0.155801984408385     
  0.155804323631981     
  0.155806444601228     
  0.155808379562424     
  0.155810159896653     
  0.155811814552860     
  0.155813368921230     
  0.155814842716299     
  0.155816242121635     
  0.155817552305644     
  0.155818726613943     
  0.155783482720044     
  0.155787521241245     
  0.155791234824182     
  0.155794536838728     
  0.155797448548868     
  0.155800031373320     
  0.155802343848423     
  0.155804438090718     
  0.155806360057347     
  0.155808151220932     
  0.155809850170657     
  0.155811492926873     
  0.155813111461700     
  0.155814700441044     
  0.155816210394705     
  0.155776943610732     
  0.155782032475215     
  0.155786412911897     
  0.155790099986743     
  0.155793264418526     
  0.155796025012795     
  0.155798471642974     
  0.155800674673762     
  0.155802692641789     
  0.155804577708603     
  0.155806380325929     
  0.155808154383513     
  0.155809961654628     
  0.155811888439078     
  0.155813847187941     
  0.155771123504851     
  0.155777505875750     
  0.155782305710459     
  0.155786214152276     
  0.155789508876971     
  0.155792354603687     
  0.155794861496175     
  0.155797111181028     
  0.155799169586132     
  0.155801095099629     
  0.155802945430378     
  0.155804785853793     
  0.155806704529576     
  0.155808844342676     
  0.155811618165541     
