# vtk DataFile Version 3.0
vtk output
ASCII
DATASET UNSTRUCTURED_GRID
POINTS       496 double 
  0.00000000E+00  3.00000000E+02  0.00000000E+00
  0.00000000E+00  2.80000000E+02  0.00000000E+00
  0.00000000E+00  2.60000000E+02  0.00000000E+00
  0.00000000E+00  2.40000000E+02  0.00000000E+00
  0.00000000E+00  2.20000000E+02  0.00000000E+00
  0.00000000E+00  2.00000000E+02  0.00000000E+00
  0.00000000E+00  1.80000000E+02  0.00000000E+00
  0.00000000E+00  1.60000000E+02  0.00000000E+00
  0.00000000E+00  1.40000000E+02  0.00000000E+00
  0.00000000E+00  1.20000000E+02  0.00000000E+00
  0.00000000E+00  1.00000000E+02  0.00000000E+00
  0.00000000E+00  8.00000000E+01  0.00000000E+00
  0.00000000E+00  6.00000000E+01  0.00000000E+00
  0.00000000E+00  4.00000000E+01  0.00000000E+00
  0.00000000E+00  2.00000000E+01  0.00000000E+00
  0.00000000E+00  4.99600361E-14  0.00000000E+00
  2.00000000E+01  3.00000000E+02  0.00000000E+00
  2.00000000E+01  2.80000000E+02  0.00000000E+00
  2.00000000E+01  2.60000000E+02  0.00000000E+00
  2.00000000E+01  2.40000000E+02  0.00000000E+00
  2.00000000E+01  2.20000000E+02  0.00000000E+00
  2.00000000E+01  2.00000000E+02  0.00000000E+00
  2.00000000E+01  1.80000000E+02  0.00000000E+00
  2.00000000E+01  1.60000000E+02  0.00000000E+00
  2.00000000E+01  1.40000000E+02  0.00000000E+00
  2.00000000E+01  1.20000000E+02  0.00000000E+00
  2.00000000E+01  1.00000000E+02  0.00000000E+00
  2.00000000E+01  8.00000000E+01  0.00000000E+00
  2.00000000E+01  6.00000000E+01  0.00000000E+00
  2.00000000E+01  4.00000000E+01  0.00000000E+00
  2.00000000E+01  2.00000000E+01  0.00000000E+00
  2.00000000E+01  4.99600361E-14  0.00000000E+00
  4.00000000E+01  3.00000000E+02  0.00000000E+00
  4.00000000E+01  2.80000000E+02  0.00000000E+00
  4.00000000E+01  2.60000000E+02  0.00000000E+00
  4.00000000E+01  2.40000000E+02  0.00000000E+00
  4.00000000E+01  2.20000000E+02  0.00000000E+00
  4.00000000E+01  2.00000000E+02  0.00000000E+00
  4.00000000E+01  1.80000000E+02  0.00000000E+00
  4.00000000E+01  1.60000000E+02  0.00000000E+00
  4.00000000E+01  1.40000000E+02  0.00000000E+00
  4.00000000E+01  1.20000000E+02  0.00000000E+00
  4.00000000E+01  1.00000000E+02  0.00000000E+00
  4.00000000E+01  8.00000000E+01  0.00000000E+00
  4.00000000E+01  6.00000000E+01  0.00000000E+00
  4.00000000E+01  4.00000000E+01  0.00000000E+00
  4.00000000E+01  2.00000000E+01  0.00000000E+00
  4.00000000E+01  4.99600361E-14  0.00000000E+00
  6.00000000E+01  3.00000000E+02  0.00000000E+00
  6.00000000E+01  2.80000000E+02  0.00000000E+00
  6.00000000E+01  2.60000000E+02  0.00000000E+00
  6.00000000E+01  2.40000000E+02  0.00000000E+00
  6.00000000E+01  2.20000000E+02  0.00000000E+00
  6.00000000E+01  2.00000000E+02  0.00000000E+00
  6.00000000E+01  1.80000000E+02  0.00000000E+00
  6.00000000E+01  1.60000000E+02  0.00000000E+00
  6.00000000E+01  1.40000000E+02  0.00000000E+00
  6.00000000E+01  1.20000000E+02  0.00000000E+00
  6.00000000E+01  1.00000000E+02  0.00000000E+00
  6.00000000E+01  8.00000000E+01  0.00000000E+00
  6.00000000E+01  6.00000000E+01  0.00000000E+00
  6.00000000E+01  4.00000000E+01  0.00000000E+00
  6.00000000E+01  2.00000000E+01  0.00000000E+00
  6.00000000E+01  4.99600361E-14  0.00000000E+00
  8.00000000E+01  3.00000000E+02  0.00000000E+00
  8.00000000E+01  2.80000000E+02  0.00000000E+00
  8.00000000E+01  2.60000000E+02  0.00000000E+00
  8.00000000E+01  2.40000000E+02  0.00000000E+00
  8.00000000E+01  2.20000000E+02  0.00000000E+00
  8.00000000E+01  2.00000000E+02  0.00000000E+00
  8.00000000E+01  1.80000000E+02  0.00000000E+00
  8.00000000E+01  1.60000000E+02  0.00000000E+00
  8.00000000E+01  1.40000000E+02  0.00000000E+00
  8.00000000E+01  1.20000000E+02  0.00000000E+00
  8.00000000E+01  1.00000000E+02  0.00000000E+00
  8.00000000E+01  8.00000000E+01  0.00000000E+00
  8.00000000E+01  6.00000000E+01  0.00000000E+00
  8.00000000E+01  4.00000000E+01  0.00000000E+00
  8.00000000E+01  2.00000000E+01  0.00000000E+00
  8.00000000E+01  4.99600361E-14  0.00000000E+00
  1.00000000E+02  3.00000000E+02  0.00000000E+00
  1.00000000E+02  2.80000000E+02  0.00000000E+00
  1.00000000E+02  2.60000000E+02  0.00000000E+00
  1.00000000E+02  2.40000000E+02  0.00000000E+00
  1.00000000E+02  2.20000000E+02  0.00000000E+00
  1.00000000E+02  2.00000000E+02  0.00000000E+00
  1.00000000E+02  1.80000000E+02  0.00000000E+00
  1.00000000E+02  1.60000000E+02  0.00000000E+00
  1.00000000E+02  1.40000000E+02  0.00000000E+00
  1.00000000E+02  1.20000000E+02  0.00000000E+00
  1.00000000E+02  1.00000000E+02  0.00000000E+00
  1.00000000E+02  8.00000000E+01  0.00000000E+00
  1.00000000E+02  6.00000000E+01  0.00000000E+00
  1.00000000E+02  4.00000000E+01  0.00000000E+00
  1.00000000E+02  2.00000000E+01  0.00000000E+00
  1.00000000E+02  4.99600361E-14  0.00000000E+00
  1.20000000E+02  3.00000000E+02  0.00000000E+00
  1.20000000E+02  2.80000000E+02  0.00000000E+00
  1.20000000E+02  2.60000000E+02  0.00000000E+00
  1.20000000E+02  2.40000000E+02  0.00000000E+00
  1.20000000E+02  2.20000000E+02  0.00000000E+00
  1.20000000E+02  2.00000000E+02  0.00000000E+00
  1.20000000E+02  1.80000000E+02  0.00000000E+00
  1.20000000E+02  1.60000000E+02  0.00000000E+00
  1.20000000E+02  1.40000000E+02  0.00000000E+00
  1.20000000E+02  1.20000000E+02  0.00000000E+00
  1.20000000E+02  1.00000000E+02  0.00000000E+00
  1.20000000E+02  8.00000000E+01  0.00000000E+00
  1.20000000E+02  6.00000000E+01  0.00000000E+00
  1.20000000E+02  4.00000000E+01  0.00000000E+00
  1.20000000E+02  2.00000000E+01  0.00000000E+00
  1.20000000E+02  4.99600361E-14  0.00000000E+00
  1.40000000E+02  3.00000000E+02  0.00000000E+00
  1.40000000E+02  2.80000000E+02  0.00000000E+00
  1.40000000E+02  2.60000000E+02  0.00000000E+00
  1.40000000E+02  2.40000000E+02  0.00000000E+00
  1.40000000E+02  2.20000000E+02  0.00000000E+00
  1.40000000E+02  2.00000000E+02  0.00000000E+00
  1.40000000E+02  1.80000000E+02  0.00000000E+00
  1.40000000E+02  1.60000000E+02  0.00000000E+00
  1.40000000E+02  1.40000000E+02  0.00000000E+00
  1.40000000E+02  1.20000000E+02  0.00000000E+00
  1.40000000E+02  1.00000000E+02  0.00000000E+00
  1.40000000E+02  8.00000000E+01  0.00000000E+00
  1.40000000E+02  6.00000000E+01  0.00000000E+00
  1.40000000E+02  4.00000000E+01  0.00000000E+00
  1.40000000E+02  2.00000000E+01  0.00000000E+00
  1.40000000E+02  4.99600361E-14  0.00000000E+00
  1.60000000E+02  3.00000000E+02  0.00000000E+00
  1.60000000E+02  2.80000000E+02  0.00000000E+00
  1.60000000E+02  2.60000000E+02  0.00000000E+00
  1.60000000E+02  2.40000000E+02  0.00000000E+00
  1.60000000E+02  2.20000000E+02  0.00000000E+00
  1.60000000E+02  2.00000000E+02  0.00000000E+00
  1.60000000E+02  1.80000000E+02  0.00000000E+00
  1.60000000E+02  1.60000000E+02  0.00000000E+00
  1.60000000E+02  1.40000000E+02  0.00000000E+00
  1.60000000E+02  1.20000000E+02  0.00000000E+00
  1.60000000E+02  1.00000000E+02  0.00000000E+00
  1.60000000E+02  8.00000000E+01  0.00000000E+00
  1.60000000E+02  6.00000000E+01  0.00000000E+00
  1.60000000E+02  4.00000000E+01  0.00000000E+00
  1.60000000E+02  2.00000000E+01  0.00000000E+00
  1.60000000E+02  4.99600361E-14  0.00000000E+00
  1.80000000E+02  3.00000000E+02  0.00000000E+00
  1.80000000E+02  2.80000000E+02  0.00000000E+00
  1.80000000E+02  2.60000000E+02  0.00000000E+00
  1.80000000E+02  2.40000000E+02  0.00000000E+00
  1.80000000E+02  2.20000000E+02  0.00000000E+00
  1.80000000E+02  2.00000000E+02  0.00000000E+00
  1.80000000E+02  1.80000000E+02  0.00000000E+00
  1.80000000E+02  1.60000000E+02  0.00000000E+00
  1.80000000E+02  1.40000000E+02  0.00000000E+00
  1.80000000E+02  1.20000000E+02  0.00000000E+00
  1.80000000E+02  1.00000000E+02  0.00000000E+00
  1.80000000E+02  8.00000000E+01  0.00000000E+00
  1.80000000E+02  6.00000000E+01  0.00000000E+00
  1.80000000E+02  4.00000000E+01  0.00000000E+00
  1.80000000E+02  2.00000000E+01  0.00000000E+00
  1.80000000E+02  4.99600361E-14  0.00000000E+00
  2.00000000E+02  3.00000000E+02  0.00000000E+00
  2.00000000E+02  2.80000000E+02  0.00000000E+00
  2.00000000E+02  2.60000000E+02  0.00000000E+00
  2.00000000E+02  2.40000000E+02  0.00000000E+00
  2.00000000E+02  2.20000000E+02  0.00000000E+00
  2.00000000E+02  2.00000000E+02  0.00000000E+00
  2.00000000E+02  1.80000000E+02  0.00000000E+00
  2.00000000E+02  1.60000000E+02  0.00000000E+00
  2.00000000E+02  1.40000000E+02  0.00000000E+00
  2.00000000E+02  1.20000000E+02  0.00000000E+00
  2.00000000E+02  1.00000000E+02  0.00000000E+00
  2.00000000E+02  8.00000000E+01  0.00000000E+00
  2.00000000E+02  6.00000000E+01  0.00000000E+00
  2.00000000E+02  4.00000000E+01  0.00000000E+00
  2.00000000E+02  2.00000000E+01  0.00000000E+00
  2.00000000E+02  4.99600361E-14  0.00000000E+00
  2.20000000E+02  3.00000000E+02  0.00000000E+00
  2.20000000E+02  2.80000000E+02  0.00000000E+00
  2.20000000E+02  2.60000000E+02  0.00000000E+00
  2.20000000E+02  2.40000000E+02  0.00000000E+00
  2.20000000E+02  2.20000000E+02  0.00000000E+00
  2.20000000E+02  2.00000000E+02  0.00000000E+00
  2.20000000E+02  1.80000000E+02  0.00000000E+00
  2.20000000E+02  1.60000000E+02  0.00000000E+00
  2.20000000E+02  1.40000000E+02  0.00000000E+00
  2.20000000E+02  1.20000000E+02  0.00000000E+00
  2.20000000E+02  1.00000000E+02  0.00000000E+00
  2.20000000E+02  8.00000000E+01  0.00000000E+00
  2.20000000E+02  6.00000000E+01  0.00000000E+00
  2.20000000E+02  4.00000000E+01  0.00000000E+00
  2.20000000E+02  2.00000000E+01  0.00000000E+00
  2.20000000E+02  4.99600361E-14  0.00000000E+00
  2.40000000E+02  3.00000000E+02  0.00000000E+00
  2.40000000E+02  2.80000000E+02  0.00000000E+00
  2.40000000E+02  2.60000000E+02  0.00000000E+00
  2.40000000E+02  2.40000000E+02  0.00000000E+00
  2.40000000E+02  2.20000000E+02  0.00000000E+00
  2.40000000E+02  2.00000000E+02  0.00000000E+00
  2.40000000E+02  1.80000000E+02  0.00000000E+00
  2.40000000E+02  1.60000000E+02  0.00000000E+00
  2.40000000E+02  1.40000000E+02  0.00000000E+00
  2.40000000E+02  1.20000000E+02  0.00000000E+00
  2.40000000E+02  1.00000000E+02  0.00000000E+00
  2.40000000E+02  8.00000000E+01  0.00000000E+00
  2.40000000E+02  6.00000000E+01  0.00000000E+00
  2.40000000E+02  4.00000000E+01  0.00000000E+00
  2.40000000E+02  2.00000000E+01  0.00000000E+00
  2.40000000E+02  4.99600361E-14  0.00000000E+00
  2.60000000E+02  3.00000000E+02  0.00000000E+00
  2.60000000E+02  2.80000000E+02  0.00000000E+00
  2.60000000E+02  2.60000000E+02  0.00000000E+00
  2.60000000E+02  2.40000000E+02  0.00000000E+00
  2.60000000E+02  2.20000000E+02  0.00000000E+00
  2.60000000E+02  2.00000000E+02  0.00000000E+00
  2.60000000E+02  1.80000000E+02  0.00000000E+00
  2.60000000E+02  1.60000000E+02  0.00000000E+00
  2.60000000E+02  1.40000000E+02  0.00000000E+00
  2.60000000E+02  1.20000000E+02  0.00000000E+00
  2.60000000E+02  1.00000000E+02  0.00000000E+00
  2.60000000E+02  8.00000000E+01  0.00000000E+00
  2.60000000E+02  6.00000000E+01  0.00000000E+00
  2.60000000E+02  4.00000000E+01  0.00000000E+00
  2.60000000E+02  2.00000000E+01  0.00000000E+00
  2.60000000E+02  4.99600361E-14  0.00000000E+00
  2.80000000E+02  3.00000000E+02  0.00000000E+00
  2.80000000E+02  2.80000000E+02  0.00000000E+00
  2.80000000E+02  2.60000000E+02  0.00000000E+00
  2.80000000E+02  2.40000000E+02  0.00000000E+00
  2.80000000E+02  2.20000000E+02  0.00000000E+00
  2.80000000E+02  2.00000000E+02  0.00000000E+00
  2.80000000E+02  1.80000000E+02  0.00000000E+00
  2.80000000E+02  1.60000000E+02  0.00000000E+00
  2.80000000E+02  1.40000000E+02  0.00000000E+00
  2.80000000E+02  1.20000000E+02  0.00000000E+00
  2.80000000E+02  1.00000000E+02  0.00000000E+00
  2.80000000E+02  8.00000000E+01  0.00000000E+00
  2.80000000E+02  6.00000000E+01  0.00000000E+00
  2.80000000E+02  4.00000000E+01  0.00000000E+00
  2.80000000E+02  2.00000000E+01  0.00000000E+00
  2.80000000E+02  4.99600361E-14  0.00000000E+00
  3.00000000E+02  3.00000000E+02  0.00000000E+00
  3.00000000E+02  2.80000000E+02  0.00000000E+00
  3.00000000E+02  2.60000000E+02  0.00000000E+00
  3.00000000E+02  2.40000000E+02  0.00000000E+00
  3.00000000E+02  2.20000000E+02  0.00000000E+00
  3.00000000E+02  2.00000000E+02  0.00000000E+00
  3.00000000E+02  1.80000000E+02  0.00000000E+00
  3.00000000E+02  1.60000000E+02  0.00000000E+00
  3.00000000E+02  1.40000000E+02  0.00000000E+00
  3.00000000E+02  1.20000000E+02  0.00000000E+00
  3.00000000E+02  1.00000000E+02  0.00000000E+00
  3.00000000E+02  8.00000000E+01  0.00000000E+00
  3.00000000E+02  6.00000000E+01  0.00000000E+00
  3.00000000E+02  4.00000000E+01  0.00000000E+00
  3.00000000E+02  2.00000000E+01  0.00000000E+00
  3.00000000E+02  4.99600361E-14  0.00000000E+00
  3.20000000E+02  3.00000000E+02  0.00000000E+00
  3.20000000E+02  2.80000000E+02  0.00000000E+00
  3.20000000E+02  2.60000000E+02  0.00000000E+00
  3.20000000E+02  2.40000000E+02  0.00000000E+00
  3.20000000E+02  2.20000000E+02  0.00000000E+00
  3.20000000E+02  2.00000000E+02  0.00000000E+00
  3.20000000E+02  1.80000000E+02  0.00000000E+00
  3.20000000E+02  1.60000000E+02  0.00000000E+00
  3.20000000E+02  1.40000000E+02  0.00000000E+00
  3.20000000E+02  1.20000000E+02  0.00000000E+00
  3.20000000E+02  1.00000000E+02  0.00000000E+00
  3.20000000E+02  8.00000000E+01  0.00000000E+00
  3.20000000E+02  6.00000000E+01  0.00000000E+00
  3.20000000E+02  4.00000000E+01  0.00000000E+00
  3.20000000E+02  2.00000000E+01  0.00000000E+00
  3.20000000E+02  4.99600361E-14  0.00000000E+00
  3.40000000E+02  3.00000000E+02  0.00000000E+00
  3.40000000E+02  2.80000000E+02  0.00000000E+00
  3.40000000E+02  2.60000000E+02  0.00000000E+00
  3.40000000E+02  2.40000000E+02  0.00000000E+00
  3.40000000E+02  2.20000000E+02  0.00000000E+00
  3.40000000E+02  2.00000000E+02  0.00000000E+00
  3.40000000E+02  1.80000000E+02  0.00000000E+00
  3.40000000E+02  1.60000000E+02  0.00000000E+00
  3.40000000E+02  1.40000000E+02  0.00000000E+00
  3.40000000E+02  1.20000000E+02  0.00000000E+00
  3.40000000E+02  1.00000000E+02  0.00000000E+00
  3.40000000E+02  8.00000000E+01  0.00000000E+00
  3.40000000E+02  6.00000000E+01  0.00000000E+00
  3.40000000E+02  4.00000000E+01  0.00000000E+00
  3.40000000E+02  2.00000000E+01  0.00000000E+00
  3.40000000E+02  4.99600361E-14  0.00000000E+00
  3.60000000E+02  3.00000000E+02  0.00000000E+00
  3.60000000E+02  2.80000000E+02  0.00000000E+00
  3.60000000E+02  2.60000000E+02  0.00000000E+00
  3.60000000E+02  2.40000000E+02  0.00000000E+00
  3.60000000E+02  2.20000000E+02  0.00000000E+00
  3.60000000E+02  2.00000000E+02  0.00000000E+00
  3.60000000E+02  1.80000000E+02  0.00000000E+00
  3.60000000E+02  1.60000000E+02  0.00000000E+00
  3.60000000E+02  1.40000000E+02  0.00000000E+00
  3.60000000E+02  1.20000000E+02  0.00000000E+00
  3.60000000E+02  1.00000000E+02  0.00000000E+00
  3.60000000E+02  8.00000000E+01  0.00000000E+00
  3.60000000E+02  6.00000000E+01  0.00000000E+00
  3.60000000E+02  4.00000000E+01  0.00000000E+00
  3.60000000E+02  2.00000000E+01  0.00000000E+00
  3.60000000E+02  4.99600361E-14  0.00000000E+00
  3.80000000E+02  3.00000000E+02  0.00000000E+00
  3.80000000E+02  2.80000000E+02  0.00000000E+00
  3.80000000E+02  2.60000000E+02  0.00000000E+00
  3.80000000E+02  2.40000000E+02  0.00000000E+00
  3.80000000E+02  2.20000000E+02  0.00000000E+00
  3.80000000E+02  2.00000000E+02  0.00000000E+00
  3.80000000E+02  1.80000000E+02  0.00000000E+00
  3.80000000E+02  1.60000000E+02  0.00000000E+00
  3.80000000E+02  1.40000000E+02  0.00000000E+00
  3.80000000E+02  1.20000000E+02  0.00000000E+00
  3.80000000E+02  1.00000000E+02  0.00000000E+00
  3.80000000E+02  8.00000000E+01  0.00000000E+00
  3.80000000E+02  6.00000000E+01  0.00000000E+00
  3.80000000E+02  4.00000000E+01  0.00000000E+00
  3.80000000E+02  2.00000000E+01  0.00000000E+00
  3.80000000E+02  4.99600361E-14  0.00000000E+00
  4.00000000E+02  3.00000000E+02  0.00000000E+00
  4.00000000E+02  2.80000000E+02  0.00000000E+00
  4.00000000E+02  2.60000000E+02  0.00000000E+00
  4.00000000E+02  2.40000000E+02  0.00000000E+00
  4.00000000E+02  2.20000000E+02  0.00000000E+00
  4.00000000E+02  2.00000000E+02  0.00000000E+00
  4.00000000E+02  1.80000000E+02  0.00000000E+00
  4.00000000E+02  1.60000000E+02  0.00000000E+00
  4.00000000E+02  1.40000000E+02  0.00000000E+00
  4.00000000E+02  1.20000000E+02  0.00000000E+00
  4.00000000E+02  1.00000000E+02  0.00000000E+00
  4.00000000E+02  8.00000000E+01  0.00000000E+00
  4.00000000E+02  6.00000000E+01  0.00000000E+00
  4.00000000E+02  4.00000000E+01  0.00000000E+00
  4.00000000E+02  2.00000000E+01  0.00000000E+00
  4.00000000E+02  4.99600361E-14  0.00000000E+00
  4.20000000E+02  3.00000000E+02  0.00000000E+00
  4.20000000E+02  2.80000000E+02  0.00000000E+00
  4.20000000E+02  2.60000000E+02  0.00000000E+00
  4.20000000E+02  2.40000000E+02  0.00000000E+00
  4.20000000E+02  2.20000000E+02  0.00000000E+00
  4.20000000E+02  2.00000000E+02  0.00000000E+00
  4.20000000E+02  1.80000000E+02  0.00000000E+00
  4.20000000E+02  1.60000000E+02  0.00000000E+00
  4.20000000E+02  1.40000000E+02  0.00000000E+00
  4.20000000E+02  1.20000000E+02  0.00000000E+00
  4.20000000E+02  1.00000000E+02  0.00000000E+00
  4.20000000E+02  8.00000000E+01  0.00000000E+00
  4.20000000E+02  6.00000000E+01  0.00000000E+00
  4.20000000E+02  4.00000000E+01  0.00000000E+00
  4.20000000E+02  2.00000000E+01  0.00000000E+00
  4.20000000E+02  4.99600361E-14  0.00000000E+00
  4.40000000E+02  3.00000000E+02  0.00000000E+00
  4.40000000E+02  2.80000000E+02  0.00000000E+00
  4.40000000E+02  2.60000000E+02  0.00000000E+00
  4.40000000E+02  2.40000000E+02  0.00000000E+00
  4.40000000E+02  2.20000000E+02  0.00000000E+00
  4.40000000E+02  2.00000000E+02  0.00000000E+00
  4.40000000E+02  1.80000000E+02  0.00000000E+00
  4.40000000E+02  1.60000000E+02  0.00000000E+00
  4.40000000E+02  1.40000000E+02  0.00000000E+00
  4.40000000E+02  1.20000000E+02  0.00000000E+00
  4.40000000E+02  1.00000000E+02  0.00000000E+00
  4.40000000E+02  8.00000000E+01  0.00000000E+00
  4.40000000E+02  6.00000000E+01  0.00000000E+00
  4.40000000E+02  4.00000000E+01  0.00000000E+00
  4.40000000E+02  2.00000000E+01  0.00000000E+00
  4.40000000E+02  4.99600361E-14  0.00000000E+00
  4.60000000E+02  3.00000000E+02  0.00000000E+00
  4.60000000E+02  2.80000000E+02  0.00000000E+00
  4.60000000E+02  2.60000000E+02  0.00000000E+00
  4.60000000E+02  2.40000000E+02  0.00000000E+00
  4.60000000E+02  2.20000000E+02  0.00000000E+00
  4.60000000E+02  2.00000000E+02  0.00000000E+00
  4.60000000E+02  1.80000000E+02  0.00000000E+00
  4.60000000E+02  1.60000000E+02  0.00000000E+00
  4.60000000E+02  1.40000000E+02  0.00000000E+00
  4.60000000E+02  1.20000000E+02  0.00000000E+00
  4.60000000E+02  1.00000000E+02  0.00000000E+00
  4.60000000E+02  8.00000000E+01  0.00000000E+00
  4.60000000E+02  6.00000000E+01  0.00000000E+00
  4.60000000E+02  4.00000000E+01  0.00000000E+00
  4.60000000E+02  2.00000000E+01  0.00000000E+00
  4.60000000E+02  4.99600361E-14  0.00000000E+00
  4.80000000E+02  3.00000000E+02  0.00000000E+00
  4.80000000E+02  2.80000000E+02  0.00000000E+00
  4.80000000E+02  2.60000000E+02  0.00000000E+00
  4.80000000E+02  2.40000000E+02  0.00000000E+00
  4.80000000E+02  2.20000000E+02  0.00000000E+00
  4.80000000E+02  2.00000000E+02  0.00000000E+00
  4.80000000E+02  1.80000000E+02  0.00000000E+00
  4.80000000E+02  1.60000000E+02  0.00000000E+00
  4.80000000E+02  1.40000000E+02  0.00000000E+00
  4.80000000E+02  1.20000000E+02  0.00000000E+00
  4.80000000E+02  1.00000000E+02  0.00000000E+00
  4.80000000E+02  8.00000000E+01  0.00000000E+00
  4.80000000E+02  6.00000000E+01  0.00000000E+00
  4.80000000E+02  4.00000000E+01  0.00000000E+00
  4.80000000E+02  2.00000000E+01  0.00000000E+00
  4.80000000E+02  4.99600361E-14  0.00000000E+00
  5.00000000E+02  3.00000000E+02  0.00000000E+00
  5.00000000E+02  2.80000000E+02  0.00000000E+00
  5.00000000E+02  2.60000000E+02  0.00000000E+00
  5.00000000E+02  2.40000000E+02  0.00000000E+00
  5.00000000E+02  2.20000000E+02  0.00000000E+00
  5.00000000E+02  2.00000000E+02  0.00000000E+00
  5.00000000E+02  1.80000000E+02  0.00000000E+00
  5.00000000E+02  1.60000000E+02  0.00000000E+00
  5.00000000E+02  1.40000000E+02  0.00000000E+00
  5.00000000E+02  1.20000000E+02  0.00000000E+00
  5.00000000E+02  1.00000000E+02  0.00000000E+00
  5.00000000E+02  8.00000000E+01  0.00000000E+00
  5.00000000E+02  6.00000000E+01  0.00000000E+00
  5.00000000E+02  4.00000000E+01  0.00000000E+00
  5.00000000E+02  2.00000000E+01  0.00000000E+00
  5.00000000E+02  4.99600361E-14  0.00000000E+00
  5.20000000E+02  3.00000000E+02  0.00000000E+00
  5.20000000E+02  2.80000000E+02  0.00000000E+00
  5.20000000E+02  2.60000000E+02  0.00000000E+00
  5.20000000E+02  2.40000000E+02  0.00000000E+00
  5.20000000E+02  2.20000000E+02  0.00000000E+00
  5.20000000E+02  2.00000000E+02  0.00000000E+00
  5.20000000E+02  1.80000000E+02  0.00000000E+00
  5.20000000E+02  1.60000000E+02  0.00000000E+00
  5.20000000E+02  1.40000000E+02  0.00000000E+00
  5.20000000E+02  1.20000000E+02  0.00000000E+00
  5.20000000E+02  1.00000000E+02  0.00000000E+00
  5.20000000E+02  8.00000000E+01  0.00000000E+00
  5.20000000E+02  6.00000000E+01  0.00000000E+00
  5.20000000E+02  4.00000000E+01  0.00000000E+00
  5.20000000E+02  2.00000000E+01  0.00000000E+00
  5.20000000E+02  4.99600361E-14  0.00000000E+00
  5.40000000E+02  3.00000000E+02  0.00000000E+00
  5.40000000E+02  2.80000000E+02  0.00000000E+00
  5.40000000E+02  2.60000000E+02  0.00000000E+00
  5.40000000E+02  2.40000000E+02  0.00000000E+00
  5.40000000E+02  2.20000000E+02  0.00000000E+00
  5.40000000E+02  2.00000000E+02  0.00000000E+00
  5.40000000E+02  1.80000000E+02  0.00000000E+00
  5.40000000E+02  1.60000000E+02  0.00000000E+00
  5.40000000E+02  1.40000000E+02  0.00000000E+00
  5.40000000E+02  1.20000000E+02  0.00000000E+00
  5.40000000E+02  1.00000000E+02  0.00000000E+00
  5.40000000E+02  8.00000000E+01  0.00000000E+00
  5.40000000E+02  6.00000000E+01  0.00000000E+00
  5.40000000E+02  4.00000000E+01  0.00000000E+00
  5.40000000E+02  2.00000000E+01  0.00000000E+00
  5.40000000E+02  4.99600361E-14  0.00000000E+00
  5.60000000E+02  3.00000000E+02  0.00000000E+00
  5.60000000E+02  2.80000000E+02  0.00000000E+00
  5.60000000E+02  2.60000000E+02  0.00000000E+00
  5.60000000E+02  2.40000000E+02  0.00000000E+00
  5.60000000E+02  2.20000000E+02  0.00000000E+00
  5.60000000E+02  2.00000000E+02  0.00000000E+00
  5.60000000E+02  1.80000000E+02  0.00000000E+00
  5.60000000E+02  1.60000000E+02  0.00000000E+00
  5.60000000E+02  1.40000000E+02  0.00000000E+00
  5.60000000E+02  1.20000000E+02  0.00000000E+00
  5.60000000E+02  1.00000000E+02  0.00000000E+00
  5.60000000E+02  8.00000000E+01  0.00000000E+00
  5.60000000E+02  6.00000000E+01  0.00000000E+00
  5.60000000E+02  4.00000000E+01  0.00000000E+00
  5.60000000E+02  2.00000000E+01  0.00000000E+00
  5.60000000E+02  4.99600361E-14  0.00000000E+00
  5.80000000E+02  3.00000000E+02  0.00000000E+00
  5.80000000E+02  2.80000000E+02  0.00000000E+00
  5.80000000E+02  2.60000000E+02  0.00000000E+00
  5.80000000E+02  2.40000000E+02  0.00000000E+00
  5.80000000E+02  2.20000000E+02  0.00000000E+00
  5.80000000E+02  2.00000000E+02  0.00000000E+00
  5.80000000E+02  1.80000000E+02  0.00000000E+00
  5.80000000E+02  1.60000000E+02  0.00000000E+00
  5.80000000E+02  1.40000000E+02  0.00000000E+00
  5.80000000E+02  1.20000000E+02  0.00000000E+00
  5.80000000E+02  1.00000000E+02  0.00000000E+00
  5.80000000E+02  8.00000000E+01  0.00000000E+00
  5.80000000E+02  6.00000000E+01  0.00000000E+00
  5.80000000E+02  4.00000000E+01  0.00000000E+00
  5.80000000E+02  2.00000000E+01  0.00000000E+00
  5.80000000E+02  4.99600361E-14  0.00000000E+00
  6.00000000E+02  3.00000000E+02  0.00000000E+00
  6.00000000E+02  2.80000000E+02  0.00000000E+00
  6.00000000E+02  2.60000000E+02  0.00000000E+00
  6.00000000E+02  2.40000000E+02  0.00000000E+00
  6.00000000E+02  2.20000000E+02  0.00000000E+00
  6.00000000E+02  2.00000000E+02  0.00000000E+00
  6.00000000E+02  1.80000000E+02  0.00000000E+00
  6.00000000E+02  1.60000000E+02  0.00000000E+00
  6.00000000E+02  1.40000000E+02  0.00000000E+00
  6.00000000E+02  1.20000000E+02  0.00000000E+00
  6.00000000E+02  1.00000000E+02  0.00000000E+00
  6.00000000E+02  8.00000000E+01  0.00000000E+00
  6.00000000E+02  6.00000000E+01  0.00000000E+00
  6.00000000E+02  4.00000000E+01  0.00000000E+00
  6.00000000E+02  2.00000000E+01  0.00000000E+00
  6.00000000E+02  4.99600361E-14  0.00000000E+00
CELLS       450      2250
         4           0           1          17          16
         4           1           2          18          17
         4           2           3          19          18
         4           3           4          20          19
         4           4           5          21          20
         4           5           6          22          21
         4           6           7          23          22
         4           7           8          24          23
         4           8           9          25          24
         4           9          10          26          25
         4          10          11          27          26
         4          11          12          28          27
         4          12          13          29          28
         4          13          14          30          29
         4          14          15          31          30
         4          16          17          33          32
         4          17          18          34          33
         4          18          19          35          34
         4          19          20          36          35
         4          20          21          37          36
         4          21          22          38          37
         4          22          23          39          38
         4          23          24          40          39
         4          24          25          41          40
         4          25          26          42          41
         4          26          27          43          42
         4          27          28          44          43
         4          28          29          45          44
         4          29          30          46          45
         4          30          31          47          46
         4          32          33          49          48
         4          33          34          50          49
         4          34          35          51          50
         4          35          36          52          51
         4          36          37          53          52
         4          37          38          54          53
         4          38          39          55          54
         4          39          40          56          55
         4          40          41          57          56
         4          41          42          58          57
         4          42          43          59          58
         4          43          44          60          59
         4          44          45          61          60
         4          45          46          62          61
         4          46          47          63          62
         4          48          49          65          64
         4          49          50          66          65
         4          50          51          67          66
         4          51          52          68          67
         4          52          53          69          68
         4          53          54          70          69
         4          54          55          71          70
         4          55          56          72          71
         4          56          57          73          72
         4          57          58          74          73
         4          58          59          75          74
         4          59          60          76          75
         4          60          61          77          76
         4          61          62          78          77
         4          62          63          79          78
         4          64          65          81          80
         4          65          66          82          81
         4          66          67          83          82
         4          67          68          84          83
         4          68          69          85          84
         4          69          70          86          85
         4          70          71          87          86
         4          71          72          88          87
         4          72          73          89          88
         4          73          74          90          89
         4          74          75          91          90
         4          75          76          92          91
         4          76          77          93          92
         4          77          78          94          93
         4          78          79          95          94
         4          80          81          97          96
         4          81          82          98          97
         4          82          83          99          98
         4          83          84         100          99
         4          84          85         101         100
         4          85          86         102         101
         4          86          87         103         102
         4          87          88         104         103
         4          88          89         105         104
         4          89          90         106         105
         4          90          91         107         106
         4          91          92         108         107
         4          92          93         109         108
         4          93          94         110         109
         4          94          95         111         110
         4          96          97         113         112
         4          97          98         114         113
         4          98          99         115         114
         4          99         100         116         115
         4         100         101         117         116
         4         101         102         118         117
         4         102         103         119         118
         4         103         104         120         119
         4         104         105         121         120
         4         105         106         122         121
         4         106         107         123         122
         4         107         108         124         123
         4         108         109         125         124
         4         109         110         126         125
         4         110         111         127         126
         4         112         113         129         128
         4         113         114         130         129
         4         114         115         131         130
         4         115         116         132         131
         4         116         117         133         132
         4         117         118         134         133
         4         118         119         135         134
         4         119         120         136         135
         4         120         121         137         136
         4         121         122         138         137
         4         122         123         139         138
         4         123         124         140         139
         4         124         125         141         140
         4         125         126         142         141
         4         126         127         143         142
         4         128         129         145         144
         4         129         130         146         145
         4         130         131         147         146
         4         131         132         148         147
         4         132         133         149         148
         4         133         134         150         149
         4         134         135         151         150
         4         135         136         152         151
         4         136         137         153         152
         4         137         138         154         153
         4         138         139         155         154
         4         139         140         156         155
         4         140         141         157         156
         4         141         142         158         157
         4         142         143         159         158
         4         144         145         161         160
         4         145         146         162         161
         4         146         147         163         162
         4         147         148         164         163
         4         148         149         165         164
         4         149         150         166         165
         4         150         151         167         166
         4         151         152         168         167
         4         152         153         169         168
         4         153         154         170         169
         4         154         155         171         170
         4         155         156         172         171
         4         156         157         173         172
         4         157         158         174         173
         4         158         159         175         174
         4         160         161         177         176
         4         161         162         178         177
         4         162         163         179         178
         4         163         164         180         179
         4         164         165         181         180
         4         165         166         182         181
         4         166         167         183         182
         4         167         168         184         183
         4         168         169         185         184
         4         169         170         186         185
         4         170         171         187         186
         4         171         172         188         187
         4         172         173         189         188
         4         173         174         190         189
         4         174         175         191         190
         4         176         177         193         192
         4         177         178         194         193
         4         178         179         195         194
         4         179         180         196         195
         4         180         181         197         196
         4         181         182         198         197
         4         182         183         199         198
         4         183         184         200         199
         4         184         185         201         200
         4         185         186         202         201
         4         186         187         203         202
         4         187         188         204         203
         4         188         189         205         204
         4         189         190         206         205
         4         190         191         207         206
         4         192         193         209         208
         4         193         194         210         209
         4         194         195         211         210
         4         195         196         212         211
         4         196         197         213         212
         4         197         198         214         213
         4         198         199         215         214
         4         199         200         216         215
         4         200         201         217         216
         4         201         202         218         217
         4         202         203         219         218
         4         203         204         220         219
         4         204         205         221         220
         4         205         206         222         221
         4         206         207         223         222
         4         208         209         225         224
         4         209         210         226         225
         4         210         211         227         226
         4         211         212         228         227
         4         212         213         229         228
         4         213         214         230         229
         4         214         215         231         230
         4         215         216         232         231
         4         216         217         233         232
         4         217         218         234         233
         4         218         219         235         234
         4         219         220         236         235
         4         220         221         237         236
         4         221         222         238         237
         4         222         223         239         238
         4         224         225         241         240
         4         225         226         242         241
         4         226         227         243         242
         4         227         228         244         243
         4         228         229         245         244
         4         229         230         246         245
         4         230         231         247         246
         4         231         232         248         247
         4         232         233         249         248
         4         233         234         250         249
         4         234         235         251         250
         4         235         236         252         251
         4         236         237         253         252
         4         237         238         254         253
         4         238         239         255         254
         4         240         241         257         256
         4         241         242         258         257
         4         242         243         259         258
         4         243         244         260         259
         4         244         245         261         260
         4         245         246         262         261
         4         246         247         263         262
         4         247         248         264         263
         4         248         249         265         264
         4         249         250         266         265
         4         250         251         267         266
         4         251         252         268         267
         4         252         253         269         268
         4         253         254         270         269
         4         254         255         271         270
         4         256         257         273         272
         4         257         258         274         273
         4         258         259         275         274
         4         259         260         276         275
         4         260         261         277         276
         4         261         262         278         277
         4         262         263         279         278
         4         263         264         280         279
         4         264         265         281         280
         4         265         266         282         281
         4         266         267         283         282
         4         267         268         284         283
         4         268         269         285         284
         4         269         270         286         285
         4         270         271         287         286
         4         272         273         289         288
         4         273         274         290         289
         4         274         275         291         290
         4         275         276         292         291
         4         276         277         293         292
         4         277         278         294         293
         4         278         279         295         294
         4         279         280         296         295
         4         280         281         297         296
         4         281         282         298         297
         4         282         283         299         298
         4         283         284         300         299
         4         284         285         301         300
         4         285         286         302         301
         4         286         287         303         302
         4         288         289         305         304
         4         289         290         306         305
         4         290         291         307         306
         4         291         292         308         307
         4         292         293         309         308
         4         293         294         310         309
         4         294         295         311         310
         4         295         296         312         311
         4         296         297         313         312
         4         297         298         314         313
         4         298         299         315         314
         4         299         300         316         315
         4         300         301         317         316
         4         301         302         318         317
         4         302         303         319         318
         4         304         305         321         320
         4         305         306         322         321
         4         306         307         323         322
         4         307         308         324         323
         4         308         309         325         324
         4         309         310         326         325
         4         310         311         327         326
         4         311         312         328         327
         4         312         313         329         328
         4         313         314         330         329
         4         314         315         331         330
         4         315         316         332         331
         4         316         317         333         332
         4         317         318         334         333
         4         318         319         335         334
         4         320         321         337         336
         4         321         322         338         337
         4         322         323         339         338
         4         323         324         340         339
         4         324         325         341         340
         4         325         326         342         341
         4         326         327         343         342
         4         327         328         344         343
         4         328         329         345         344
         4         329         330         346         345
         4         330         331         347         346
         4         331         332         348         347
         4         332         333         349         348
         4         333         334         350         349
         4         334         335         351         350
         4         336         337         353         352
         4         337         338         354         353
         4         338         339         355         354
         4         339         340         356         355
         4         340         341         357         356
         4         341         342         358         357
         4         342         343         359         358
         4         343         344         360         359
         4         344         345         361         360
         4         345         346         362         361
         4         346         347         363         362
         4         347         348         364         363
         4         348         349         365         364
         4         349         350         366         365
         4         350         351         367         366
         4         352         353         369         368
         4         353         354         370         369
         4         354         355         371         370
         4         355         356         372         371
         4         356         357         373         372
         4         357         358         374         373
         4         358         359         375         374
         4         359         360         376         375
         4         360         361         377         376
         4         361         362         378         377
         4         362         363         379         378
         4         363         364         380         379
         4         364         365         381         380
         4         365         366         382         381
         4         366         367         383         382
         4         368         369         385         384
         4         369         370         386         385
         4         370         371         387         386
         4         371         372         388         387
         4         372         373         389         388
         4         373         374         390         389
         4         374         375         391         390
         4         375         376         392         391
         4         376         377         393         392
         4         377         378         394         393
         4         378         379         395         394
         4         379         380         396         395
         4         380         381         397         396
         4         381         382         398         397
         4         382         383         399         398
         4         384         385         401         400
         4         385         386         402         401
         4         386         387         403         402
         4         387         388         404         403
         4         388         389         405         404
         4         389         390         406         405
         4         390         391         407         406
         4         391         392         408         407
         4         392         393         409         408
         4         393         394         410         409
         4         394         395         411         410
         4         395         396         412         411
         4         396         397         413         412
         4         397         398         414         413
         4         398         399         415         414
         4         400         401         417         416
         4         401         402         418         417
         4         402         403         419         418
         4         403         404         420         419
         4         404         405         421         420
         4         405         406         422         421
         4         406         407         423         422
         4         407         408         424         423
         4         408         409         425         424
         4         409         410         426         425
         4         410         411         427         426
         4         411         412         428         427
         4         412         413         429         428
         4         413         414         430         429
         4         414         415         431         430
         4         416         417         433         432
         4         417         418         434         433
         4         418         419         435         434
         4         419         420         436         435
         4         420         421         437         436
         4         421         422         438         437
         4         422         423         439         438
         4         423         424         440         439
         4         424         425         441         440
         4         425         426         442         441
         4         426         427         443         442
         4         427         428         444         443
         4         428         429         445         444
         4         429         430         446         445
         4         430         431         447         446
         4         432         433         449         448
         4         433         434         450         449
         4         434         435         451         450
         4         435         436         452         451
         4         436         437         453         452
         4         437         438         454         453
         4         438         439         455         454
         4         439         440         456         455
         4         440         441         457         456
         4         441         442         458         457
         4         442         443         459         458
         4         443         444         460         459
         4         444         445         461         460
         4         445         446         462         461
         4         446         447         463         462
         4         448         449         465         464
         4         449         450         466         465
         4         450         451         467         466
         4         451         452         468         467
         4         452         453         469         468
         4         453         454         470         469
         4         454         455         471         470
         4         455         456         472         471
         4         456         457         473         472
         4         457         458         474         473
         4         458         459         475         474
         4         459         460         476         475
         4         460         461         477         476
         4         461         462         478         477
         4         462         463         479         478
         4         464         465         481         480
         4         465         466         482         481
         4         466         467         483         482
         4         467         468         484         483
         4         468         469         485         484
         4         469         470         486         485
         4         470         471         487         486
         4         471         472         488         487
         4         472         473         489         488
         4         473         474         490         489
         4         474         475         491         490
         4         475         476         492         491
         4         476         477         493         492
         4         477         478         494         493
         4         478         479         495         494
CELL_TYPES        450
9
9
9
9
9
9
9
9
9
9
9
9
9
9
9
9
9
9
9
9
9
9
9
9
9
9
9
9
9
9
9
9
9
9
9
9
9
9
9
9
9
9
9
9
9
9
9
9
9
9
9
9
9
9
9
9
9
9
9
9
9
9
9
9
9
9
9
9
9
9
9
9
9
9
9
9
9
9
9
9
9
9
9
9
9
9
9
9
9
9
9
9
9
9
9
9
9
9
9
9
9
9
9
9
9
9
9
9
9
9
9
9
9
9
9
9
9
9
9
9
9
9
9
9
9
9
9
9
9
9
9
9
9
9
9
9
9
9
9
9
9
9
9
9
9
9
9
9
9
9
9
9
9
9
9
9
9
9
9
9
9
9
9
9
9
9
9
9
9
9
9
9
9
9
9
9
9
9
9
9
9
9
9
9
9
9
9
9
9
9
9
9
9
9
9
9
9
9
9
9
9
9
9
9
9
9
9
9
9
9
9
9
9
9
9
9
9
9
9
9
9
9
9
9
9
9
9
9
9
9
9
9
9
9
9
9
9
9
9
9
9
9
9
9
9
9
9
9
9
9
9
9
9
9
9
9
9
9
9
9
9
9
9
9
9
9
9
9
9
9
9
9
9
9
9
9
9
9
9
9
9
9
9
9
9
9
9
9
9
9
9
9
9
9
9
9
9
9
9
9
9
9
9
9
9
9
9
9
9
9
9
9
9
9
9
9
9
9
9
9
9
9
9
9
9
9
9
9
9
9
9
9
9
9
9
9
9
9
9
9
9
9
9
9
9
9
9
9
9
9
9
9
9
9
9
9
9
9
9
9
9
9
9
9
9
9
9
9
9
9
9
9
9
9
9
9
9
9
9
9
9
9
9
9
9
9
9
9
9
9
9
9
9
9
9
9
9
9
9
9
9
9
9
9
9
9
9
9
9
9
9
9
9
9
9
9
9
9
9
9
9
9
9
9
9
9
9
9
9
9
9
9
9
9
9
9
9
9
9
9
9
9
9
9
9
9
9
9
9
9
POINT_DATA       496
SCALARS p double 
LOOKUP_TABLE default
   47956311.5986566     
   47947137.5936754     
   47919300.1412187     
   47878950.2523273     
   47845656.4462569     
   47825345.5447386     
   47814346.5546767     
   47809878.3747623     
   47809823.2942729     
   47812553.3825937     
   47816807.0658802     
   47821602.0956887     
   47826173.8703465     
   47829931.4273904     
   47832425.9539113     
   47833328.5980903     
   47918929.9226079     
   47909742.9411202     
   47881875.2879905     
   47841677.4056287     
   47808589.4503953     
   47788253.2533912     
   47777075.5960717     
   47772342.7517231     
   47771984.0052029     
   47774403.3517976     
   47778361.3747026     
   47782891.7857272     
   47787242.1141729     
   47790831.2366158     
   47793218.8403167     
   47794083.7036118     
   47806547.6335801     
   47797334.2927988     
   47769370.2389266     
   47729622.5089703     
   47697143.0252973     
   47676712.2235826     
   47664994.2215701     
   47659473.4905097     
   47658214.5248299     
   47659713.9461848     
   47662797.0330853     
   47666544.3487203     
   47670239.1528098     
   47673329.4219336     
   47675400.1193690     
   47676152.8750238     
   47618454.2936590     
   47609210.7142453     
   47581080.6161156     
   47542078.3772453     
   47510564.8038137     
   47489923.7515466     
   47477301.9596141     
   47470492.1872173     
   47467769.7927349     
   47467777.0125918     
   47469441.8516864     
   47471919.6898583     
   47474551.1895577     
   47476831.4489884     
   47478386.8054493     
   47478956.8286933     
   47353427.0272609     
   47344131.7033873     
   47315828.3985550     
   47277907.7551731     
   47247557.9645600     
   47226563.0075799     
   47212690.0843598     
   47204133.2636631     
   47199440.7869404     
   47197444.7041744     
   47197207.2563982     
   47197982.0964744     
   47199185.8669682     
   47200376.7739800     
   47201237.4791522     
   47201560.3045998     
   47009693.7928938     
   47000324.5253244     
   46971953.9466730     
   46935510.7586059     
   46906363.0348651     
   46884840.1249247     
   46869395.7283771     
   46858693.9999099     
   46851603.2561415     
   46847177.0672036     
   46844634.7999017     
   46843345.8263298     
   46842817.1766247     
   46842683.3425927     
   46842696.6110981     
   46842716.3732311     
   46585165.3157999     
   46575657.6828651     
   46547549.7867512     
   46513132.6442184     
   46484909.1190470     
   46462586.9536377     
   46445270.6882674     
   46432101.3415232     
   46422283.3113300     
   46415106.3345187     
   46409959.0701321     
   46406336.8120958     
   46403846.2856914     
   46402207.8925689     
   46401254.6423206     
   46400926.4918895     
   46077419.0092995     
   46067715.0029124     
   46040434.0904979     
   46008405.8704693     
   45980720.1939159     
   45957291.1750333     
   45937851.3504274     
   45921990.5408454     
   45909237.3617306     
   45899115.7846044     
   45891184.9355726     
   45885068.4705705     
   45880476.3301826     
   45877220.1652346     
   45875221.9571474     
   45874514.4498891     
   45483933.1861786     
   45473912.0017947     
   45448041.3567764     
   45418446.9241193     
   45390921.7919388     
   45366153.9109765     
   45344444.3989431     
   45325797.8695307     
   45310045.2316651     
   45296930.9989836     
   45286176.6785461     
   45277529.1456129     
   45270798.7772127     
   45265888.7152582     
   45262814.4929687     
   45261711.9578380     
   44801961.6560351     
   44791875.8424929     
   44767789.7114567     
   44740162.9503216     
   44712466.2631026     
   44686230.0330243     
   44662242.3958832     
   44640870.2032083     
   44622215.0217125     
   44606220.8877453     
   44592756.0629628     
   44581678.2426633     
   44572888.5449248     
   44566375.6560749     
   44562248.4234297     
   44560753.3414068     
   44028479.7483814     
   44018895.2139078     
   43996863.6580452     
   43970359.6744033     
   43942276.9545586     
   43914581.0469647     
   43888459.2613150     
   43864586.1288150     
   43843295.8609253     
   43824704.7546201     
   43808805.7284103     
   43795547.6110227     
   43784904.6702568     
   43776937.3773789     
   43771841.1229814     
   43769976.5929644     
   43161075.0908611     
   43152463.5572951     
   43132067.7497519     
   43106053.1258215     
   43077441.3607874     
   43048424.4006277     
   43020465.2309438     
   42994479.6988996     
   42970992.7193422     
   42950260.8381267     
   42932373.7384433     
   42917344.2406829     
   42905192.8970455     
   42896027.9783265     
   42890115.4439379     
   42887927.8936376     
   42197573.4024716     
   42189565.3942738     
   42170275.0514864     
   42144448.9613892     
   42115331.0085216     
   42085269.4811811     
   42055914.0549509     
   42028359.7487883     
   42003278.2468648     
   41981031.8873483     
   41961774.9087783     
   41945549.8662027     
   41932386.0084504     
   41922401.7551920     
   41915904.1338812     
   41913466.5805032     
   41134816.9507229     
   41127465.8584818     
   41108828.2267211     
   41083143.0500076     
   41053725.4904458     
   41023037.8287142     
   40992862.1143042     
   40964422.9231847     
   40938498.9359308     
   40915524.4967275     
   40895684.7581844     
   40879012.5134482     
   40865496.7640298     
   40855210.2655204     
   40848450.8009029     
   40845867.2535683     
   39971119.5004173     
   39964018.1901432     
   39945771.5971301     
   39920330.2750220     
   39890958.2495183     
   39860185.6634350     
   39829882.4528179     
   39801361.9069682     
   39775475.6814281     
   39752700.8215308     
   39733222.7428335     
   39717024.3402153     
   39703996.3881515     
   39694087.5398291     
   39687502.7362021     
   39684914.9347137     
   38704843.2661910     
   38697845.2995782     
   38679924.6223564     
   38654919.3579515     
   38626039.8720367     
   38595822.0930136     
   38566177.8013157     
   38538471.9635298     
   38513601.3847199     
   38492064.1592861     
   38474023.7903339     
   38459380.1551502     
   38447867.9733487     
   38439212.0533256     
   38433387.9111411     
   38430987.1169302     
   37335181.6039718     
   37328306.0766937     
   37310835.8901715     
   37286602.4419320     
   37258763.2117475     
   37229824.1540531     
   37201695.0701318     
   37175759.9827159     
   37152940.5385091     
   37133744.3436677     
   37118303.1472695     
   37106416.0343164     
   37097619.5336717     
   37091321.4148684     
   37087058.9684406     
   37085110.3229388     
   35862339.9609279     
   35855683.6604225     
   35838949.5093908     
   35815965.0845124     
   35789821.5567333     
   35762958.0950540     
   35737245.3101286     
   35714059.6896580     
   35694336.2824702     
   35678593.5002463     
   35666932.7871771     
   35659045.3995119     
   35654257.1704211     
   35651612.8213368     
   35650064.0486402     
   35648954.9024294     
   34287657.9419924     
   34281374.1805953     
   34265780.8586363     
   34244646.1008467     
   34220946.8738160     
   34197010.0764043     
   34174629.3893813     
   34155152.5434929     
   34139528.2821719     
   34128299.5096543     
   34121557.7253227     
   34118863.8520380     
   34119278.4997118     
   34121541.6349899     
   34124063.1185801     
   34124784.7952329     
   32613760.6043743     
   32608044.1566350     
   32594085.8825881     
   32575493.7510352     
   32555052.6128520     
   32534916.7960060     
   32516761.4489634     
   32501888.1681056     
   32491270.6809065     
   32485522.4914852     
   32484745.1048040     
   32488397.0550751     
   32495046.0868500     
   32502657.3060356     
   32510101.2097296     
   32513992.5626702     
   30844698.0882319     
   30839774.2753282     
   30828005.8985923     
   30812704.0970237     
   30796359.1621929     
   30780879.4838988     
   30767775.1466183     
   30758286.0229718     
   30753440.3872164     
   30753991.1938083     
   30760214.0034389     
   30771299.8154345     
   30785455.0452865     
   30799260.9870161     
   30807370.5663281     
   30809638.9636942     
   28986068.7943175     
   28982181.7192926     
   28973185.5378595     
   28961928.4594348     
   28950486.7693898     
   28940442.3882184     
   28933092.1712799     
   28929599.0592490     
   28931081.9923776     
   28938600.9390795     
   28952719.7523767     
   28973210.7555804     
   28995191.9334860     
   29010123.0779584     
   29016672.2300723     
   29018075.1141679     
   27045118.3571988     
   27042515.6561956     
   27036858.0244363     
   27030342.1343323     
   27024503.1894487     
   27020518.6273030     
   27019429.8069633     
   27022309.4292028     
   27030398.9786818     
   27045202.8883504     
   27068525.2257047     
   27098654.5645726     
   27124378.0102316     
   27139306.9238116     
   27145414.4661757     
   27146567.9185775     
   25030808.6770914     
   25029720.7098530     
   25027893.3089426     
   25026668.9340892     
   25026918.6605495     
   25029352.5711512     
   25034730.7117024     
   25044026.7657957     
   25058610.9918068     
   25080544.3829401     
   25112968.1210903     
   25149993.7112758     
   25177871.3838638     
   25193634.3657355     
   25200066.1587057     
   25201311.3862979     
   22953853.3821339     
   22954465.3611864     
   22956806.4512294     
   22961159.2594879     
   22967627.1282012     
   22976420.4403683     
   22988019.7635365     
   23003296.9935304     
   23023698.1941189     
   23051680.2608700     
   23090701.8138871     
   23132334.8789135     
   23162450.0067551     
   23179695.5944586     
   23186916.2923007     
   23188394.5091843     
   20826720.2496116     
   20829135.6725378     
   20835725.2051852     
   20845519.9680708     
   20857795.8127901     
   20872282.1611185     
   20889219.9751575     
   20909387.4998274     
   20934199.9908688     
   20966016.3571562     
   21008005.6214689     
   21052299.7730411     
   21085003.3845064     
   21104021.4070496     
   21112193.4587923     
   21113976.2667530     
   18663609.1271850     
   18667800.2363414     
   18678314.4679735     
   18692787.2347121     
   18709697.7549918     
   18728394.8574767     
   18748965.6592443     
   18772117.5107890     
   18799136.8385324     
   18831929.0336955     
   18872784.8713985     
   18917294.3412299     
   18952282.6401246     
   18972926.6950259     
   18982009.8695593     
   18984095.9385836     
   16480430.7719236     
   16486161.9072796     
   16499645.4686891     
   16517111.4186069     
   16536458.7521987     
   16556876.7473306     
   16578422.6759781     
   16601758.1472908     
   16627995.1721865     
   16658507.3938243     
   16694600.4982928     
   16735213.9726204     
   16770544.5711965     
   16792342.1625766     
   16802045.8292336     
   16804351.8599326     
   14294859.0624274     
   14301524.8990959     
   14315961.8054201     
   14333369.5947026     
   14351657.6794881     
   14370183.5803599     
   14389085.6931446     
   14408967.7278517     
   14430717.2870297     
   14455314.8626227     
   14483363.5694150     
   14514893.8949485     
   14545948.0976998     
   14567490.3275659     
   14576946.8168215     
   14579313.2798483     
   12126635.4616865     
   12132856.3911374     
   12144103.7665208     
   12156443.1901586     
   12168705.0835888     
   12180662.0163373     
   12192513.1683602     
   12204689.5280097     
   12217749.9138247     
   12232258.0986771     
   12248611.2975921     
   12266664.1068786     
   12285868.6698564     
   12302209.5617347     
   12309598.6862446     
   12311385.4746175     
   10000000.0000000     
   10000000.0000000     
   10000000.0000000     
   10000000.0000000     
   10000000.0000000     
   10000000.0000000     
   10000000.0000000     
   10000000.0000000     
   10000000.0000000     
   10000000.0000000     
   10000000.0000000     
   10000000.0000000     
   10000000.0000000     
  10000000.00000000     
   10000000.0000000     
   10000000.0000000     
VECTORS u double 
    0.00000E+00        -0.15665E-01         0.00000E+00
    0.00000E+00        -0.14356E-01         0.00000E+00
    0.00000E+00        -0.13107E-01         0.00000E+00
    0.00000E+00        -0.11924E-01         0.00000E+00
    0.00000E+00        -0.10788E-01         0.00000E+00
    0.00000E+00        -0.96778E-02         0.00000E+00
    0.00000E+00        -0.85910E-02         0.00000E+00
    0.00000E+00        -0.75273E-02         0.00000E+00
    0.00000E+00        -0.64868E-02         0.00000E+00
    0.00000E+00        -0.54704E-02         0.00000E+00
    0.00000E+00        -0.44795E-02         0.00000E+00
    0.00000E+00        -0.35163E-02         0.00000E+00
    0.00000E+00        -0.25834E-02         0.00000E+00
    0.00000E+00        -0.16840E-02         0.00000E+00
    0.00000E+00        -0.82156E-03         0.00000E+00
    0.00000E+00         0.00000E+00         0.00000E+00
    0.11846E-02        -0.15712E-01         0.00000E+00
    0.10902E-02        -0.14401E-01         0.00000E+00
    0.99347E-03        -0.13151E-01         0.00000E+00
    0.89552E-03        -0.11966E-01         0.00000E+00
    0.80112E-03        -0.10828E-01         0.00000E+00
    0.71381E-03        -0.97150E-02         0.00000E+00
    0.63255E-03        -0.86253E-02         0.00000E+00
    0.55610E-03        -0.75585E-02         0.00000E+00
    0.48329E-03        -0.65146E-02         0.00000E+00
    0.41305E-03        -0.54946E-02         0.00000E+00
    0.34444E-03        -0.45000E-02         0.00000E+00
    0.27662E-03        -0.35329E-02         0.00000E+00
    0.20884E-03        -0.25960E-02         0.00000E+00
    0.14047E-03        -0.16925E-02         0.00000E+00
    0.70988E-04        -0.82584E-03         0.00000E+00
    0.00000E+00         0.00000E+00         0.00000E+00
    0.23633E-02        -0.15852E-01         0.00000E+00
    0.21742E-02        -0.14536E-01         0.00000E+00
    0.19810E-02        -0.13282E-01         0.00000E+00
    0.17852E-02        -0.12092E-01         0.00000E+00
    0.15968E-02        -0.10948E-01         0.00000E+00
    0.14231E-02        -0.98266E-02         0.00000E+00
    0.12614E-02        -0.87282E-02         0.00000E+00
    0.11092E-02        -0.76519E-02         0.00000E+00
    0.96414E-03        -0.65979E-02         0.00000E+00
    0.82419E-03        -0.55672E-02         0.00000E+00
    0.68743E-03        -0.45614E-02         0.00000E+00
    0.55219E-03        -0.35827E-02         0.00000E+00
    0.41699E-03        -0.26338E-02         0.00000E+00
    0.28055E-03        -0.17179E-02         0.00000E+00
    0.14182E-03        -0.83865E-03         0.00000E+00
    0.00000E+00         0.00000E+00         0.00000E+00
    0.35303E-02        -0.16085E-01         0.00000E+00
    0.32459E-02        -0.14761E-01         0.00000E+00
    0.29557E-02        -0.13500E-01         0.00000E+00
    0.26626E-02        -0.12304E-01         0.00000E+00
    0.23817E-02        -0.11147E-01         0.00000E+00
    0.21233E-02        -0.10013E-01         0.00000E+00
    0.18827E-02        -0.88998E-02         0.00000E+00
    0.16561E-02        -0.78075E-02         0.00000E+00
    0.14401E-02        -0.67366E-02         0.00000E+00
    0.12315E-02        -0.56881E-02         0.00000E+00
    0.10275E-02        -0.46637E-02         0.00000E+00
    0.82567E-03        -0.36656E-02         0.00000E+00
    0.62375E-03        -0.26967E-02         0.00000E+00
    0.41984E-03        -0.17602E-02         0.00000E+00
    0.21233E-03        -0.85999E-03         0.00000E+00
    0.00000E+00         0.00000E+00         0.00000E+00
    0.46800E-02        -0.16413E-01         0.00000E+00
    0.42991E-02        -0.15078E-01         0.00000E+00
    0.39104E-02        -0.13807E-01         0.00000E+00
    0.35204E-02        -0.12601E-01         0.00000E+00
    0.31507E-02        -0.11427E-01         0.00000E+00
    0.28103E-02        -0.10274E-01         0.00000E+00
    0.24931E-02        -0.91398E-02         0.00000E+00
    0.21940E-02        -0.80252E-02         0.00000E+00
    0.19087E-02        -0.69306E-02         0.00000E+00
    0.16329E-02        -0.58571E-02         0.00000E+00
    0.13631E-02        -0.48066E-02         0.00000E+00
    0.10959E-02        -0.37815E-02         0.00000E+00
    0.82839E-03        -0.27846E-02         0.00000E+00
    0.55790E-03        -0.18195E-02         0.00000E+00
    0.28234E-03        -0.88984E-03         0.00000E+00
    0.00000E+00         0.00000E+00         0.00000E+00
    0.58050E-02        -0.16837E-01         0.00000E+00
    0.53268E-02        -0.15489E-01         0.00000E+00
    0.48384E-02        -0.14205E-01         0.00000E+00
    0.43522E-02        -0.12983E-01         0.00000E+00
    0.38989E-02        -0.11787E-01         0.00000E+00
    0.34797E-02        -0.10609E-01         0.00000E+00
    0.30887E-02        -0.94481E-02         0.00000E+00
    0.27198E-02        -0.83047E-02         0.00000E+00
    0.23674E-02        -0.71795E-02         0.00000E+00
    0.20266E-02        -0.60740E-02         0.00000E+00
    0.16928E-02        -0.49901E-02         0.00000E+00
    0.13618E-02        -0.39302E-02         0.00000E+00
    0.10301E-02        -0.28975E-02         0.00000E+00
    0.69427E-03        -0.18955E-02         0.00000E+00
    0.35163E-03        -0.92816E-03         0.00000E+00
    0.00000E+00         0.00000E+00         0.00000E+00
    0.68970E-02        -0.17357E-01         0.00000E+00
    0.63204E-02        -0.15994E-01         0.00000E+00
    0.57332E-02        -0.14696E-01         0.00000E+00
    0.51552E-02        -0.13452E-01         0.00000E+00
    0.46213E-02        -0.12228E-01         0.00000E+00
    0.41275E-02        -0.11019E-01         0.00000E+00
    0.36662E-02        -0.98243E-02         0.00000E+00
    0.32303E-02        -0.86455E-02         0.00000E+00
    0.28137E-02        -0.74830E-02         0.00000E+00
    0.24103E-02        -0.63384E-02         0.00000E+00
    0.20147E-02        -0.52137E-02         0.00000E+00
    0.16221E-02        -0.41115E-02         0.00000E+00
    0.12280E-02        -0.30351E-02         0.00000E+00
    0.82840E-03        -0.19882E-02         0.00000E+00
    0.41998E-03        -0.97492E-03         0.00000E+00
    0.00000E+00         0.00000E+00         0.00000E+00
    0.79474E-02        -0.17975E-01         0.00000E+00
    0.72715E-02        -0.16595E-01         0.00000E+00
    0.65845E-02        -0.15280E-01         0.00000E+00
    0.59229E-02        -0.14007E-01         0.00000E+00
    0.53138E-02        -0.12748E-01         0.00000E+00
    0.47496E-02        -0.11502E-01         0.00000E+00
    0.42217E-02        -0.10268E-01         0.00000E+00
    0.37225E-02        -0.90469E-02         0.00000E+00
    0.32448E-02        -0.78404E-02         0.00000E+00
    0.27818E-02        -0.66497E-02         0.00000E+00
    0.23272E-02        -0.54770E-02         0.00000E+00
    0.18754E-02        -0.43251E-02         0.00000E+00
    0.14212E-02        -0.31972E-02         0.00000E+00
    0.95971E-03        -0.20974E-02         0.00000E+00
    0.48710E-03        -0.10301E-02         0.00000E+00
    0.00000E+00         0.00000E+00         0.00000E+00
    0.89471E-02        -0.18692E-01         0.00000E+00
    0.81703E-02        -0.17294E-01         0.00000E+00
    0.73897E-02        -0.15957E-01         0.00000E+00
    0.66509E-02        -0.14647E-01         0.00000E+00
    0.59722E-02        -0.13347E-01         0.00000E+00
    0.53420E-02        -0.12057E-01         0.00000E+00
    0.47517E-02        -0.10777E-01         0.00000E+00
    0.41930E-02        -0.95082E-02         0.00000E+00
    0.36579E-02        -0.82511E-02         0.00000E+00
    0.31387E-02        -0.70074E-02         0.00000E+00
    0.26284E-02        -0.57796E-02         0.00000E+00
    0.21203E-02        -0.45705E-02         0.00000E+00
    0.16085E-02        -0.33836E-02         0.00000E+00
    0.10875E-02        -0.22231E-02         0.00000E+00
    0.55268E-03        -0.10935E-02         0.00000E+00
    0.00000E+00         0.00000E+00         0.00000E+00
    0.98872E-02        -0.19512E-01         0.00000E+00
    0.90086E-02        -0.18092E-01         0.00000E+00
    0.81410E-02        -0.16724E-01         0.00000E+00
    0.73356E-02        -0.15370E-01         0.00000E+00
    0.65917E-02        -0.14023E-01         0.00000E+00
    0.59003E-02        -0.12684E-01         0.00000E+00
    0.52522E-02        -0.11352E-01         0.00000E+00
    0.46384E-02        -0.10028E-01         0.00000E+00
    0.40500E-02        -0.87142E-02         0.00000E+00
    0.34786E-02        -0.74108E-02         0.00000E+00
    0.29161E-02        -0.61209E-02         0.00000E+00
    0.23552E-02        -0.48473E-02         0.00000E+00
    0.17889E-02        -0.35939E-02         0.00000E+00
    0.12111E-02        -0.23649E-02         0.00000E+00
    0.61635E-03        -0.11651E-02         0.00000E+00
    0.00000E+00         0.00000E+00         0.00000E+00
    0.10758E-01        -0.20436E-01         0.00000E+00
    0.97805E-02        -0.18989E-01         0.00000E+00
    0.88400E-02        -0.17578E-01         0.00000E+00
    0.79714E-02        -0.16173E-01         0.00000E+00
    0.71675E-02        -0.14774E-01         0.00000E+00
    0.64198E-02        -0.13380E-01         0.00000E+00
    0.57189E-02        -0.11991E-01         0.00000E+00
    0.50549E-02        -0.10607E-01         0.00000E+00
    0.44180E-02        -0.92288E-02         0.00000E+00
    0.37988E-02        -0.78591E-02         0.00000E+00
    0.31883E-02        -0.65001E-02         0.00000E+00
    0.25783E-02        -0.51550E-02         0.00000E+00
    0.19610E-02        -0.38277E-02         0.00000E+00
    0.13296E-02        -0.25227E-02         0.00000E+00
    0.67770E-03        -0.12449E-02         0.00000E+00
    0.00000E+00         0.00000E+00         0.00000E+00
    0.11554E-01        -0.21463E-01         0.00000E+00
    0.10487E-01        -0.19979E-01         0.00000E+00
    0.94818E-02        -0.18514E-01         0.00000E+00
    0.85533E-02        -0.17054E-01         0.00000E+00
    0.76942E-02        -0.15598E-01         0.00000E+00
    0.68956E-02        -0.14144E-01         0.00000E+00
    0.61473E-02        -0.12692E-01         0.00000E+00
    0.54385E-02        -0.11241E-01         0.00000E+00
    0.47584E-02        -0.97939E-02         0.00000E+00
    0.40964E-02        -0.83514E-02         0.00000E+00
    0.34427E-02        -0.69165E-02         0.00000E+00
    0.27879E-02        -0.54929E-02         0.00000E+00
    0.21236E-02        -0.40845E-02         0.00000E+00
    0.14420E-02        -0.26960E-02         0.00000E+00
    0.73626E-03        -0.13325E-02         0.00000E+00
    0.00000E+00         0.00000E+00         0.00000E+00
    0.12272E-01        -0.22591E-01         0.00000E+00
    0.11126E-01        -0.21056E-01         0.00000E+00
    0.10060E-01        -0.19533E-01         0.00000E+00
    0.90752E-02        -0.18013E-01         0.00000E+00
    0.81660E-02        -0.16495E-01         0.00000E+00
    0.73223E-02        -0.14976E-01         0.00000E+00
    0.65328E-02        -0.13455E-01         0.00000E+00
    0.57853E-02        -0.11932E-01         0.00000E+00
    0.50679E-02        -0.10408E-01         0.00000E+00
    0.43687E-02        -0.88864E-02         0.00000E+00
    0.36768E-02        -0.73692E-02         0.00000E+00
    0.29820E-02        -0.58602E-02         0.00000E+00
    0.22751E-02        -0.43637E-02         0.00000E+00
    0.15475E-02        -0.28845E-02         0.00000E+00
    0.79149E-03        -0.14279E-02         0.00000E+00
    0.00000E+00         0.00000E+00         0.00000E+00
    0.12916E-01        -0.23813E-01         0.00000E+00
    0.11694E-01        -0.22218E-01         0.00000E+00
    0.10566E-01        -0.20632E-01         0.00000E+00
    0.95301E-02        -0.19048E-01         0.00000E+00
    0.85766E-02        -0.17463E-01         0.00000E+00
    0.76944E-02        -0.15873E-01         0.00000E+00
    0.68704E-02        -0.14277E-01         0.00000E+00
    0.60910E-02        -0.12676E-01         0.00000E+00
    0.53428E-02        -0.11070E-01         0.00000E+00
    0.46126E-02        -0.94631E-02         0.00000E+00
    0.38883E-02        -0.78569E-02         0.00000E+00
    0.31588E-02        -0.62558E-02         0.00000E+00
    0.24140E-02        -0.46644E-02         0.00000E+00
    0.16448E-02        -0.30876E-02         0.00000E+00
    0.84277E-03        -0.15309E-02         0.00000E+00
    0.00000E+00         0.00000E+00         0.00000E+00
    0.13481E-01        -0.25128E-01         0.00000E+00
    0.12181E-01        -0.23465E-01         0.00000E+00
    0.10994E-01        -0.21811E-01         0.00000E+00
    0.99109E-02        -0.20158E-01         0.00000E+00
    0.89196E-02        -0.18499E-01         0.00000E+00
    0.80061E-02        -0.16833E-01         0.00000E+00
    0.71552E-02        -0.15157E-01         0.00000E+00
    0.63514E-02        -0.13472E-01         0.00000E+00
    0.55796E-02        -0.11779E-01         0.00000E+00
    0.48252E-02        -0.10080E-01         0.00000E+00
    0.40748E-02        -0.83783E-02         0.00000E+00
    0.33161E-02        -0.66788E-02         0.00000E+00
    0.25385E-02        -0.49859E-02         0.00000E+00
    0.17326E-02        -0.33049E-02         0.00000E+00
    0.88935E-03        -0.16410E-02         0.00000E+00
    0.00000E+00         0.00000E+00         0.00000E+00
    0.13949E-01        -0.26531E-01         0.00000E+00
    0.12575E-01        -0.24796E-01         0.00000E+00
    0.11334E-01        -0.23068E-01         0.00000E+00
    0.10210E-01        -0.21339E-01         0.00000E+00
    0.91884E-02        -0.19603E-01         0.00000E+00
    0.82516E-02        -0.17854E-01         0.00000E+00
    0.73820E-02        -0.16093E-01         0.00000E+00
    0.65621E-02        -0.14318E-01         0.00000E+00
    0.57747E-02        -0.12531E-01         0.00000E+00
    0.50035E-02        -0.10734E-01         0.00000E+00
    0.42337E-02        -0.89318E-02         0.00000E+00
    0.34520E-02        -0.71278E-02         0.00000E+00
    0.26471E-02        -0.53273E-02         0.00000E+00
    0.18094E-02        -0.35357E-02         0.00000E+00
    0.93023E-03        -0.17582E-02         0.00000E+00
    0.00000E+00         0.00000E+00         0.00000E+00
    0.14308E-01        -0.28018E-01         0.00000E+00
    0.12865E-01        -0.26206E-01         0.00000E+00
    0.11576E-01        -0.24399E-01         0.00000E+00
    0.10419E-01        -0.22589E-01         0.00000E+00
    0.93759E-02        -0.20768E-01         0.00000E+00
    0.84248E-02        -0.18932E-01         0.00000E+00
    0.75457E-02        -0.17079E-01         0.00000E+00
    0.67186E-02        -0.15209E-01         0.00000E+00
    0.59242E-02        -0.13324E-01         0.00000E+00
    0.51444E-02        -0.11425E-01         0.00000E+00
    0.43627E-02        -0.95158E-02         0.00000E+00
    0.35645E-02        -0.76016E-02         0.00000E+00
    0.27379E-02        -0.56876E-02         0.00000E+00
    0.18736E-02        -0.37795E-02         0.00000E+00
    0.96401E-03        -0.18822E-02         0.00000E+00
    0.00000E+00         0.00000E+00         0.00000E+00
    0.14541E-01        -0.29580E-01         0.00000E+00
    0.13039E-01        -0.27687E-01         0.00000E+00
    0.11710E-01        -0.25796E-01         0.00000E+00
    0.10531E-01        -0.23899E-01         0.00000E+00
    0.94751E-02        -0.21989E-01         0.00000E+00
    0.85195E-02        -0.20060E-01         0.00000E+00
    0.76407E-02        -0.18111E-01         0.00000E+00
    0.68160E-02        -0.16142E-01         0.00000E+00
    0.60241E-02        -0.14154E-01         0.00000E+00
    0.52446E-02        -0.12148E-01         0.00000E+00
    0.44591E-02        -0.10128E-01         0.00000E+00
    0.36516E-02        -0.80997E-02         0.00000E+00
    0.28092E-02        -0.60672E-02         0.00000E+00
    0.19231E-02        -0.40367E-02         0.00000E+00
    0.98852E-03        -0.20134E-02         0.00000E+00
    0.00000E+00         0.00000E+00         0.00000E+00
    0.14633E-01        -0.31209E-01         0.00000E+00
    0.13083E-01        -0.29229E-01         0.00000E+00
    0.11727E-01        -0.27250E-01         0.00000E+00
    0.10535E-01        -0.25261E-01         0.00000E+00
    0.94784E-02        -0.23256E-01         0.00000E+00
    0.85292E-02        -0.21230E-01         0.00000E+00
    0.76611E-02        -0.19181E-01         0.00000E+00
    0.68493E-02        -0.17110E-01         0.00000E+00
    0.60698E-02        -0.15015E-01         0.00000E+00
    0.53003E-02        -0.12900E-01         0.00000E+00
    0.45200E-02        -0.10768E-01         0.00000E+00
    0.37109E-02        -0.86218E-02         0.00000E+00
    0.28590E-02        -0.64679E-02         0.00000E+00
    0.19562E-02        -0.43109E-02         0.00000E+00
    0.10001E-02        -0.21554E-02         0.00000E+00
    0.00000E+00         0.00000E+00         0.00000E+00
    0.14570E-01        -0.32891E-01         0.00000E+00
    0.12986E-01        -0.30822E-01         0.00000E+00
    0.11616E-01        -0.28749E-01         0.00000E+00
    0.10424E-01        -0.26664E-01         0.00000E+00
    0.93784E-02        -0.24559E-01         0.00000E+00
    0.84471E-02        -0.22432E-01         0.00000E+00
    0.76010E-02        -0.20280E-01         0.00000E+00
    0.68128E-02        -0.18103E-01         0.00000E+00
    0.60563E-02        -0.15901E-01         0.00000E+00
    0.53069E-02        -0.13676E-01         0.00000E+00
    0.45413E-02        -0.11431E-01         0.00000E+00
    0.37390E-02        -0.91684E-02         0.00000E+00
    0.28840E-02        -0.68938E-02         0.00000E+00
    0.19684E-02        -0.46122E-02         0.00000E+00
    0.99915E-03        -0.23202E-02         0.00000E+00
    0.00000E+00         0.00000E+00         0.00000E+00
    0.14337E-01        -0.34611E-01         0.00000E+00
    0.12735E-01        -0.32448E-01         0.00000E+00
    0.11366E-01        -0.30278E-01         0.00000E+00
    0.10189E-01        -0.28091E-01         0.00000E+00
    0.91679E-02        -0.25884E-01         0.00000E+00
    0.82668E-02        -0.23652E-01         0.00000E+00
    0.74541E-02        -0.21394E-01         0.00000E+00
    0.67003E-02        -0.19110E-01         0.00000E+00
    0.59775E-02        -0.16802E-01         0.00000E+00
    0.52589E-02        -0.14468E-01         0.00000E+00
    0.45183E-02        -0.12113E-01         0.00000E+00
    0.37307E-02        -0.97379E-02         0.00000E+00
    0.28801E-02        -0.73492E-02         0.00000E+00
    0.19689E-02        -0.49334E-02         0.00000E+00
    0.10087E-02        -0.24802E-02         0.00000E+00
    0.00000E+00         0.00000E+00         0.00000E+00
    0.13919E-01        -0.36351E-01         0.00000E+00
    0.12318E-01        -0.34091E-01         0.00000E+00
    0.10968E-01        -0.31819E-01         0.00000E+00
    0.98228E-02        -0.29528E-01         0.00000E+00
    0.88401E-02        -0.27213E-01         0.00000E+00
    0.79819E-02        -0.24873E-01         0.00000E+00
    0.72140E-02        -0.22508E-01         0.00000E+00
    0.65054E-02        -0.20117E-01         0.00000E+00
    0.58269E-02        -0.17703E-01         0.00000E+00
    0.51499E-02        -0.15264E-01         0.00000E+00
    0.44443E-02        -0.12803E-01         0.00000E+00
    0.36831E-02        -0.10324E-01         0.00000E+00
    0.28615E-02        -0.78064E-02         0.00000E+00
    0.19817E-02        -0.52397E-02         0.00000E+00
    0.10314E-02        -0.26306E-02         0.00000E+00
    0.00000E+00         0.00000E+00         0.00000E+00
    0.13303E-01        -0.38091E-01         0.00000E+00
    0.11725E-01        -0.35729E-01         0.00000E+00
    0.10414E-01        -0.33352E-01         0.00000E+00
    0.93177E-02        -0.30952E-01         0.00000E+00
    0.83891E-02        -0.28527E-01         0.00000E+00
    0.75869E-02        -0.26076E-01         0.00000E+00
    0.68750E-02        -0.23602E-01         0.00000E+00
    0.62216E-02        -0.21106E-01         0.00000E+00
    0.55973E-02        -0.18587E-01         0.00000E+00
    0.49729E-02        -0.16048E-01         0.00000E+00
    0.43150E-02        -0.13487E-01         0.00000E+00
    0.36046E-02        -0.10893E-01         0.00000E+00
    0.28387E-02        -0.82419E-02         0.00000E+00
    0.19978E-02        -0.55324E-02         0.00000E+00
    0.10578E-02        -0.27774E-02         0.00000E+00
    0.00000E+00         0.00000E+00         0.00000E+00
    0.12476E-01        -0.39804E-01         0.00000E+00
    0.10946E-01        -0.37339E-01         0.00000E+00
    0.96969E-02        -0.34853E-01         0.00000E+00
    0.86687E-02        -0.32340E-01         0.00000E+00
    0.78101E-02        -0.29802E-01         0.00000E+00
    0.70769E-02        -0.27239E-01         0.00000E+00
    0.64318E-02        -0.24656E-01         0.00000E+00
    0.58428E-02        -0.22053E-01         0.00000E+00
    0.52815E-02        -0.19433E-01         0.00000E+00
    0.47204E-02        -0.16795E-01         0.00000E+00
    0.41291E-02        -0.14136E-01         0.00000E+00
    0.34933E-02        -0.11428E-01         0.00000E+00
    0.27950E-02        -0.86532E-02         0.00000E+00
    0.20029E-02        -0.58141E-02         0.00000E+00
    0.10820E-02        -0.29212E-02         0.00000E+00
    0.00000E+00         0.00000E+00         0.00000E+00
    0.11426E-01        -0.41464E-01         0.00000E+00
    0.99735E-02        -0.38893E-01         0.00000E+00
    0.88110E-02        -0.36294E-01         0.00000E+00
    0.78720E-02        -0.33666E-01         0.00000E+00
    0.71000E-02        -0.31012E-01         0.00000E+00
    0.64486E-02        -0.28337E-01         0.00000E+00
    0.58800E-02        -0.25643E-01         0.00000E+00
    0.53635E-02        -0.22936E-01         0.00000E+00
    0.48729E-02        -0.20216E-01         0.00000E+00
    0.43849E-02        -0.17483E-01         0.00000E+00
    0.38774E-02        -0.14728E-01         0.00000E+00
    0.33294E-02        -0.11917E-01         0.00000E+00
    0.27104E-02        -0.90361E-02         0.00000E+00
    0.19818E-02        -0.60820E-02         0.00000E+00
    0.10970E-02        -0.30615E-02         0.00000E+00
    0.00000E+00         0.00000E+00         0.00000E+00
    0.10143E-01        -0.43039E-01         0.00000E+00
    0.88004E-02        -0.40359E-01         0.00000E+00
    0.77532E-02        -0.37645E-01         0.00000E+00
    0.69257E-02        -0.34900E-01         0.00000E+00
    0.62570E-02        -0.32129E-01         0.00000E+00
    0.56992E-02        -0.29341E-01         0.00000E+00
    0.52159E-02        -0.26540E-01         0.00000E+00
    0.47785E-02        -0.23731E-01         0.00000E+00
    0.43646E-02        -0.20915E-01         0.00000E+00
    0.39565E-02        -0.18089E-01         0.00000E+00
    0.35409E-02        -0.15246E-01         0.00000E+00
    0.30900E-02        -0.12351E-01         0.00000E+00
    0.25631E-02        -0.93823E-02         0.00000E+00
    0.19166E-02        -0.63307E-02         0.00000E+00
    0.10925E-02        -0.31954E-02         0.00000E+00
    0.00000E+00         0.00000E+00         0.00000E+00
    0.86173E-02        -0.44489E-01         0.00000E+00
    0.74238E-02        -0.41700E-01         0.00000E+00
    0.65234E-02        -0.38869E-01         0.00000E+00
    0.58306E-02        -0.36006E-01         0.00000E+00
    0.52804E-02        -0.33120E-01         0.00000E+00
    0.48264E-02        -0.30224E-01         0.00000E+00
    0.44351E-02        -0.27322E-01         0.00000E+00
    0.40821E-02        -0.24418E-01         0.00000E+00
    0.37490E-02        -0.21511E-01         0.00000E+00
    0.34231E-02        -0.18599E-01         0.00000E+00
    0.30988E-02        -0.15676E-01         0.00000E+00
    0.27503E-02        -0.12716E-01         0.00000E+00
    0.23291E-02        -0.96815E-02         0.00000E+00
    0.17853E-02        -0.65538E-02         0.00000E+00
    0.10518E-02        -0.33218E-02         0.00000E+00
    0.00000E+00         0.00000E+00         0.00000E+00
    0.68424E-02        -0.45772E-01         0.00000E+00
    0.58438E-02        -0.42872E-01         0.00000E+00
    0.51253E-02        -0.39924E-01         0.00000E+00
    0.45891E-02        -0.36944E-01         0.00000E+00
    0.41701E-02        -0.33951E-01         0.00000E+00
    0.38271E-02        -0.30955E-01         0.00000E+00
    0.35324E-02        -0.27963E-01         0.00000E+00
    0.32670E-02        -0.24975E-01         0.00000E+00
    0.30170E-02        -0.21990E-01         0.00000E+00
    0.27736E-02        -0.19004E-01         0.00000E+00
    0.25329E-02        -0.16011E-01         0.00000E+00
    0.22856E-02        -0.12998E-01         0.00000E+00
    0.19814E-02        -0.99215E-02         0.00000E+00
    0.15620E-02        -0.67445E-02         0.00000E+00
    0.95442E-03        -0.34396E-02         0.00000E+00
    0.00000E+00         0.00000E+00         0.00000E+00
    0.48125E-02        -0.46832E-01         0.00000E+00
    0.40668E-02        -0.43821E-01         0.00000E+00
    0.35669E-02        -0.40757E-01         0.00000E+00
    0.32047E-02        -0.37670E-01         0.00000E+00
    0.29245E-02        -0.34583E-01         0.00000E+00
    0.26959E-02        -0.31505E-01         0.00000E+00
    0.24999E-02        -0.28441E-01         0.00000E+00
    0.23233E-02        -0.25388E-01         0.00000E+00
    0.21572E-02        -0.22342E-01         0.00000E+00
    0.19958E-02        -0.19298E-01         0.00000E+00
    0.18354E-02        -0.16248E-01         0.00000E+00
    0.16753E-02        -0.13187E-01         0.00000E+00
    0.14906E-02        -0.10088E-01         0.00000E+00
    0.12159E-02        -0.68928E-02         0.00000E+00
    0.77452E-03        -0.35459E-02         0.00000E+00
    0.00000E+00         0.00000E+00         0.00000E+00
    0.25258E-02        -0.47592E-01         0.00000E+00
    0.21102E-02        -0.44471E-01         0.00000E+00
    0.18584E-02        -0.41302E-01         0.00000E+00
    0.16774E-02        -0.38133E-01         0.00000E+00
    0.15380E-02        -0.34980E-01         0.00000E+00
    0.14243E-02        -0.31848E-01         0.00000E+00
    0.13268E-02        -0.28737E-01         0.00000E+00
    0.12390E-02        -0.25642E-01         0.00000E+00
    0.11564E-02        -0.22557E-01         0.00000E+00
    0.10761E-02        -0.19477E-01         0.00000E+00
    0.99637E-03        -0.16392E-01         0.00000E+00
    0.91509E-03        -0.13293E-01         0.00000E+00
    0.83137E-03        -0.10171E-01         0.00000E+00
    0.70705E-03        -0.69827E-02         0.00000E+00
    0.47748E-03        -0.36371E-02         0.00000E+00
    0.00000E+00         0.00000E+00         0.00000E+00
    0.00000E+00        -0.47919E-01         0.00000E+00
    0.00000E+00        -0.44712E-01         0.00000E+00
    0.00000E+00        -0.41494E-01         0.00000E+00
    0.00000E+00        -0.38293E-01         0.00000E+00
    0.00000E+00        -0.35116E-01         0.00000E+00
    0.00000E+00        -0.31965E-01         0.00000E+00
    0.00000E+00        -0.28837E-01         0.00000E+00
    0.00000E+00        -0.25728E-01         0.00000E+00
    0.00000E+00        -0.22630E-01         0.00000E+00
    0.00000E+00        -0.19537E-01         0.00000E+00
    0.00000E+00        -0.16440E-01         0.00000E+00
    0.00000E+00        -0.13329E-01         0.00000E+00
    0.00000E+00        -0.10192E-01         0.00000E+00
    0.00000E+00        -0.70110E-02         0.00000E+00
    0.00000E+00        -0.36801E-02         0.00000E+00
    0.00000E+00         0.00000E+00         0.00000E+00
CELL_DATA        450
VECTORS vDarcy double 
    0.26702E-09        -0.65566E-10         0.00000E+00
    0.26717E-09        -0.19891E-09         0.00000E+00
    0.26672E-09        -0.28761E-09         0.00000E+00
    0.26544E-09        -0.23702E-09         0.00000E+00
    0.26478E-09        -0.14513E-09         0.00000E+00
    0.26549E-09        -0.79175E-10         0.00000E+00
    0.26706E-09        -0.32848E-10         0.00000E+00
    0.26908E-09        -0.14773E-11         0.00000E+00
    0.27126E-09         0.18382E-10         0.00000E+00
    0.27342E-09         0.29313E-10         0.00000E+00
    0.27541E-09         0.33287E-10         0.00000E+00
    0.27713E-09         0.31846E-10         0.00000E+00
    0.27852E-09         0.26222E-10         0.00000E+00
    0.27949E-09         0.17425E-10         0.00000E+00
    0.28000E-09         0.63084E-11         0.00000E+00
    0.80270E-09        -0.65706E-10         0.00000E+00
    0.80312E-09        -0.19936E-09         0.00000E+00
    0.80184E-09        -0.28546E-09         0.00000E+00
    0.79802E-09        -0.23411E-09         0.00000E+00
    0.79614E-09        -0.14555E-09         0.00000E+00
    0.79837E-09        -0.81742E-10         0.00000E+00
    0.80308E-09        -0.36605E-10         0.00000E+00
    0.80907E-09        -0.57750E-11         0.00000E+00
    0.81553E-09         0.13989E-10         0.00000E+00
    0.82191E-09         0.25134E-10         0.00000E+00
    0.82780E-09         0.29547E-10         0.00000E+00
    0.83291E-09         0.28716E-10         0.00000E+00
    0.83701E-09         0.23840E-10         0.00000E+00
    0.83990E-09         0.15912E-10         0.00000E+00
    0.84141E-09         0.57734E-11         0.00000E+00
    0.13434E-08        -0.65907E-10         0.00000E+00
    0.13441E-08        -0.20030E-09         0.00000E+00
    0.13420E-08        -0.28119E-09         0.00000E+00
    0.13358E-08        -0.22849E-09         0.00000E+00
    0.13330E-08        -0.14664E-09         0.00000E+00
    0.13369E-08        -0.86896E-10         0.00000E+00
    0.13447E-08        -0.44019E-10         0.00000E+00
    0.13545E-08        -0.14213E-10         0.00000E+00
    0.13650E-08         0.53782E-11         0.00000E+00
    0.13753E-08         0.16948E-10         0.00000E+00
    0.13849E-08         0.22220E-10         0.00000E+00
    0.13931E-08         0.22581E-10         0.00000E+00
    0.13998E-08         0.19169E-10         0.00000E+00
    0.14045E-08         0.12942E-10         0.00000E+00
    0.14069E-08         0.47210E-11         0.00000E+00
    0.18929E-08        -0.66198E-10         0.00000E+00
    0.18936E-08        -0.20150E-09         0.00000E+00
    0.18903E-08        -0.27466E-09         0.00000E+00
    0.18822E-08        -0.22088E-09         0.00000E+00
    0.18792E-08        -0.14865E-09         0.00000E+00
    0.18849E-08        -0.94587E-10         0.00000E+00
    0.18955E-08        -0.54857E-10         0.00000E+00
    0.19087E-08        -0.26469E-10         0.00000E+00
    0.19228E-08        -0.70994E-11         0.00000E+00
    0.19367E-08         0.50950E-11         0.00000E+00
    0.19495E-08         0.11610E-10         0.00000E+00
    0.19606E-08         0.13689E-10         0.00000E+00
    0.19695E-08         0.12389E-10         0.00000E+00
    0.19758E-08         0.86230E-11         0.00000E+00
    0.19791E-08         0.31865E-11         0.00000E+00
    0.24550E-08        -0.66645E-10         0.00000E+00
    0.24554E-08        -0.20236E-09         0.00000E+00
    0.24503E-08        -0.26551E-09         0.00000E+00
    0.24406E-08        -0.21242E-09         0.00000E+00
    0.24381E-08        -0.15179E-09         0.00000E+00
    0.24455E-08        -0.10466E-09         0.00000E+00
    0.24586E-08        -0.68748E-10         0.00000E+00
    0.24747E-08        -0.42061E-10         0.00000E+00
    0.24919E-08        -0.22924E-10         0.00000E+00
    0.25087E-08        -0.99218E-11         0.00000E+00
    0.25242E-08        -0.18351E-11         0.00000E+00
    0.25377E-08         0.24096E-11         0.00000E+00
    0.25485E-08         0.37727E-11         0.00000E+00
    0.25562E-08         0.31192E-11         0.00000E+00
    0.25602E-08         0.12226E-11         0.00000E+00
    0.30321E-08        -0.67400E-10         0.00000E+00
    0.30315E-08        -0.20165E-09         0.00000E+00
    0.30233E-08        -0.25299E-09         0.00000E+00
    0.30126E-08        -0.20482E-09         0.00000E+00
    0.30120E-08        -0.15652E-09         0.00000E+00
    0.30214E-08        -0.11695E-09         0.00000E+00
    0.30367E-08        -0.85210E-10         0.00000E+00
    0.30552E-08        -0.60355E-10         0.00000E+00
    0.30746E-08        -0.41416E-10         0.00000E+00
    0.30936E-08        -0.27446E-10         0.00000E+00
    0.31111E-08        -0.17529E-10         0.00000E+00
    0.31264E-08        -0.10775E-10         0.00000E+00
    0.31387E-08        -0.63249E-11         0.00000E+00
    0.31474E-08        -0.33546E-11         0.00000E+00
    0.31520E-08        -0.11006E-11         0.00000E+00
    0.36264E-08        -0.68592E-10         0.00000E+00
    0.36240E-08        -0.19775E-09         0.00000E+00
    0.36124E-08        -0.23722E-09         0.00000E+00
    0.36017E-08        -0.19959E-09         0.00000E+00
    0.36036E-08        -0.16332E-09         0.00000E+00
    0.36150E-08        -0.13120E-09         0.00000E+00
    0.36320E-08        -0.10362E-09         0.00000E+00
    0.36520E-08        -0.80563E-10         0.00000E+00
    0.36728E-08        -0.61741E-10         0.00000E+00
    0.36931E-08        -0.46676E-10         0.00000E+00
    0.37119E-08        -0.34757E-10         0.00000E+00
    0.37281E-08        -0.25277E-10         0.00000E+00
    0.37413E-08        -0.17467E-10         0.00000E+00
    0.37507E-08        -0.10533E-10         0.00000E+00
    0.37557E-08        -0.36958E-11         0.00000E+00
    0.42388E-08        -0.70422E-10         0.00000E+00
    0.42348E-08        -0.18975E-09         0.00000E+00
    0.42209E-08        -0.21999E-09         0.00000E+00
    0.42114E-08        -0.19709E-09         0.00000E+00
    0.42154E-08        -0.17204E-09         0.00000E+00
    0.42281E-08        -0.14688E-09         0.00000E+00
    0.42460E-08        -0.12316E-09         0.00000E+00
    0.42664E-08        -0.10174E-09         0.00000E+00
    0.42877E-08        -0.82928E-10         0.00000E+00
    0.43083E-08        -0.66685E-10         0.00000E+00
    0.43273E-08        -0.52689E-10         0.00000E+00
    0.43438E-08        -0.40406E-10         0.00000E+00
    0.43572E-08        -0.29142E-10         0.00000E+00
    0.43669E-08        -0.18101E-10         0.00000E+00
    0.43720E-08        -0.64590E-11         0.00000E+00
    0.48694E-08        -0.71780E-10         0.00000E+00
    0.48631E-08        -0.17834E-09         0.00000E+00
    0.48495E-08        -0.20426E-09         0.00000E+00
    0.48428E-08        -0.19711E-09         0.00000E+00
    0.48485E-08        -0.18205E-09         0.00000E+00
    0.48616E-08        -0.16310E-09         0.00000E+00
    0.48793E-08        -0.14283E-09         0.00000E+00
    0.48992E-08        -0.12280E-09         0.00000E+00
    0.49197E-08        -0.10388E-09         0.00000E+00
    0.49395E-08        -0.86430E-10         0.00000E+00
    0.49577E-08        -0.70391E-10         0.00000E+00
    0.49736E-08        -0.55383E-10         0.00000E+00
    0.49865E-08        -0.40761E-10         0.00000E+00
    0.49959E-08        -0.25697E-10         0.00000E+00
    0.50009E-08        -0.92688E-11         0.00000E+00
    0.55203E-08        -0.70216E-10         0.00000E+00
    0.55110E-08        -0.16462E-09         0.00000E+00
    0.54994E-08        -0.19321E-09         0.00000E+00
    0.54965E-08        -0.19909E-09         0.00000E+00
    0.55028E-08        -0.19248E-09         0.00000E+00
    0.55155E-08        -0.17883E-09         0.00000E+00
    0.55318E-08        -0.16147E-09         0.00000E+00
    0.55499E-08        -0.14255E-09         0.00000E+00
    0.55684E-08        -0.12342E-09         0.00000E+00
    0.55862E-08        -0.10478E-09         0.00000E+00
    0.56025E-08        -0.86838E-10         0.00000E+00
    0.56168E-08        -0.69340E-10         0.00000E+00
    0.56284E-08        -0.51667E-10         0.00000E+00
    0.56370E-08        -0.32910E-10         0.00000E+00
    0.56416E-08        -0.11987E-10         0.00000E+00
    0.61886E-08        -0.64948E-10         0.00000E+00
    0.61791E-08        -0.15143E-09         0.00000E+00
    0.61712E-08        -0.18744E-09         0.00000E+00
    0.61711E-08        -0.20233E-09         0.00000E+00
    0.61774E-08        -0.20239E-09         0.00000E+00
    0.61884E-08        -0.19299E-09         0.00000E+00
    0.62023E-08        -0.17792E-09         0.00000E+00
    0.62175E-08        -0.15978E-09         0.00000E+00
    0.62328E-08        -0.14031E-09         0.00000E+00
    0.62473E-08        -0.12055E-09         0.00000E+00
    0.62606E-08        -0.10093E-09         0.00000E+00
    0.62721E-08        -0.81329E-10         0.00000E+00
    0.62817E-08        -0.61125E-10         0.00000E+00
    0.62887E-08        -0.39277E-10         0.00000E+00
    0.62927E-08        -0.14457E-10         0.00000E+00
    0.68753E-08        -0.59315E-10         0.00000E+00
    0.68689E-08        -0.14163E-09         0.00000E+00
    0.68640E-08        -0.18500E-09         0.00000E+00
    0.68648E-08        -0.20601E-09         0.00000E+00
    0.68701E-08        -0.21081E-09         0.00000E+00
    0.68785E-08        -0.20451E-09         0.00000E+00
    0.68889E-08        -0.19104E-09         0.00000E+00
    0.69000E-08        -0.17329E-09         0.00000E+00
    0.69109E-08        -0.15334E-09         0.00000E+00
    0.69210E-08        -0.13252E-09         0.00000E+00
    0.69300E-08        -0.11151E-09         0.00000E+00
    0.69377E-08        -0.90316E-10         0.00000E+00
    0.69441E-08        -0.68316E-10         0.00000E+00
    0.69489E-08        -0.44273E-10         0.00000E+00
    0.69518E-08        -0.16500E-10         0.00000E+00
    0.75828E-08        -0.54811E-10         0.00000E+00
    0.75777E-08        -0.13534E-09         0.00000E+00
    0.75746E-08        -0.18381E-09         0.00000E+00
    0.75748E-08        -0.20886E-09         0.00000E+00
    0.75779E-08        -0.21675E-09         0.00000E+00
    0.75828E-08        -0.21240E-09         0.00000E+00
    0.75886E-08        -0.19977E-09         0.00000E+00
    0.75946E-08        -0.18197E-09         0.00000E+00
    0.76000E-08        -0.16133E-09         0.00000E+00
    0.76045E-08        -0.13948E-09         0.00000E+00
    0.76080E-08        -0.11736E-09         0.00000E+00
    0.76107E-08        -0.95175E-10         0.00000E+00
    0.76129E-08        -0.72311E-10         0.00000E+00
    0.76147E-08        -0.47291E-10         0.00000E+00
    0.76160E-08        -0.17911E-10         0.00000E+00
    0.83037E-08        -0.51569E-10         0.00000E+00
    0.83010E-08        -0.13160E-09         0.00000E+00
    0.82984E-08        -0.18241E-09         0.00000E+00
    0.82970E-08        -0.20974E-09         0.00000E+00
    0.82969E-08        -0.21927E-09         0.00000E+00
    0.82974E-08        -0.21576E-09         0.00000E+00
    0.82979E-08        -0.20320E-09         0.00000E+00
    0.82978E-08        -0.18482E-09         0.00000E+00
    0.82968E-08        -0.16320E-09         0.00000E+00
    0.82946E-08        -0.14025E-09         0.00000E+00
    0.82915E-08        -0.11725E-09         0.00000E+00
    0.82879E-08        -0.94682E-10         0.00000E+00
    0.82847E-08        -0.72036E-10         0.00000E+00
    0.82826E-08        -0.47597E-10         0.00000E+00
    0.82818E-08        -0.18445E-10         0.00000E+00
    0.90350E-08        -0.50302E-10         0.00000E+00
    0.90331E-08        -0.12903E-09         0.00000E+00
    0.90300E-08        -0.17996E-09         0.00000E+00
    0.90264E-08        -0.20780E-09         0.00000E+00
    0.90223E-08        -0.21756E-09         0.00000E+00
    0.90178E-08        -0.21384E-09         0.00000E+00
    0.90123E-08        -0.20056E-09         0.00000E+00
    0.90056E-08        -0.18104E-09         0.00000E+00
    0.89974E-08        -0.15805E-09         0.00000E+00
    0.89877E-08        -0.13382E-09         0.00000E+00
    0.89768E-08        -0.11000E-09         0.00000E+00
    0.89657E-08        -0.87526E-10         0.00000E+00
    0.89557E-08        -0.66213E-10         0.00000E+00
    0.89484E-08        -0.44257E-10         0.00000E+00
    0.89449E-08        -0.17792E-10         0.00000E+00
    0.97712E-08        -0.49489E-10         0.00000E+00
    0.97687E-08        -0.12624E-09         0.00000E+00
    0.97640E-08        -0.17563E-09         0.00000E+00
    0.97572E-08        -0.20230E-09         0.00000E+00
    0.97487E-08        -0.21099E-09         0.00000E+00
    0.97385E-08        -0.20605E-09         0.00000E+00
    0.97266E-08        -0.19131E-09         0.00000E+00
    0.97128E-08        -0.17009E-09         0.00000E+00
    0.96970E-08        -0.14527E-09         0.00000E+00
    0.96792E-08        -0.11941E-09         0.00000E+00
    0.96600E-08        -0.94617E-10         0.00000E+00
    0.96404E-08        -0.72426E-10         0.00000E+00
    0.96221E-08        -0.53329E-10         0.00000E+00
    0.96080E-08        -0.35970E-10         0.00000E+00
    0.96007E-08        -0.15511E-10         0.00000E+00
    0.10505E-07        -0.48262E-10         0.00000E+00
    0.10501E-07        -0.12199E-09         0.00000E+00
    0.10494E-07        -0.16839E-09         0.00000E+00
    0.10483E-07        -0.19252E-09         0.00000E+00
    0.10470E-07        -0.19900E-09         0.00000E+00
    0.10453E-07        -0.19201E-09         0.00000E+00
    0.10435E-07        -0.17517E-09         0.00000E+00
    0.10414E-07        -0.15171E-09         0.00000E+00
    0.10390E-07        -0.12459E-09         0.00000E+00
    0.10364E-07        -0.96644E-10         0.00000E+00
    0.10337E-07        -0.70514E-10         0.00000E+00
    0.10308E-07        -0.48441E-10         0.00000E+00
    0.10280E-07        -0.31887E-10         0.00000E+00
    0.10258E-07        -0.20721E-10         0.00000E+00
    0.10245E-07        -0.10903E-10         0.00000E+00
    0.11229E-07        -0.46143E-10         0.00000E+00
    0.11223E-07        -0.11527E-09         0.00000E+00
    0.11212E-07        -0.15732E-09         0.00000E+00
    0.11197E-07        -0.17772E-09         0.00000E+00
    0.11178E-07        -0.18113E-09         0.00000E+00
    0.11155E-07        -0.17148E-09         0.00000E+00
    0.11130E-07        -0.15212E-09         0.00000E+00
    0.11102E-07        -0.12603E-09         0.00000E+00
    0.11071E-07        -0.96167E-10         0.00000E+00
    0.11038E-07        -0.65614E-10         0.00000E+00
    0.11001E-07        -0.37727E-10         0.00000E+00
    0.10964E-07        -0.15594E-10         0.00000E+00
    0.10928E-07        -0.13592E-11         0.00000E+00
    0.10896E-07         0.34680E-11         0.00000E+00
    0.10875E-07        -0.13814E-11         0.00000E+00
    0.11934E-07        -0.42784E-10         0.00000E+00
    0.11926E-07        -0.10536E-09         0.00000E+00
    0.11910E-07        -0.14163E-09         0.00000E+00
    0.11890E-07        -0.15736E-09         0.00000E+00
    0.11864E-07        -0.15712E-09         0.00000E+00
    0.11836E-07        -0.14451E-09         0.00000E+00
    0.11804E-07        -0.12246E-09         0.00000E+00
    0.11770E-07        -0.93553E-10         0.00000E+00
    0.11733E-07        -0.60523E-10         0.00000E+00
    0.11692E-07        -0.26806E-10         0.00000E+00
    0.11648E-07         0.34156E-11         0.00000E+00
    0.11603E-07         0.25182E-10         0.00000E+00
    0.11562E-07         0.35202E-10         0.00000E+00
    0.11525E-07         0.35526E-10         0.00000E+00
    0.11496E-07         0.16445E-10         0.00000E+00
    0.12609E-07        -0.37927E-10         0.00000E+00
    0.12598E-07        -0.91701E-10         0.00000E+00
    0.12578E-07        -0.12081E-09         0.00000E+00
    0.12552E-07        -0.13112E-09         0.00000E+00
    0.12521E-07        -0.12695E-09         0.00000E+00
    0.12486E-07        -0.11142E-09         0.00000E+00
    0.12449E-07        -0.86839E-10         0.00000E+00
    0.12410E-07        -0.55118E-10         0.00000E+00
    0.12367E-07        -0.18526E-10         0.00000E+00
    0.12319E-07         0.19410E-10         0.00000E+00
    0.12268E-07         0.52534E-10         0.00000E+00
    0.12215E-07         0.74158E-10         0.00000E+00
    0.12166E-07         0.76342E-10         0.00000E+00
    0.12141E-07         0.55440E-10         0.00000E+00
    0.12144E-07         0.21956E-10         0.00000E+00
    0.13243E-07        -0.31399E-10         0.00000E+00
    0.13230E-07        -0.73998E-10         0.00000E+00
    0.13206E-07        -0.94648E-10         0.00000E+00
    0.13174E-07        -0.99025E-10         0.00000E+00
    0.13137E-07        -0.90963E-10         0.00000E+00
    0.13098E-07        -0.72897E-10         0.00000E+00
    0.13056E-07        -0.46267E-10         0.00000E+00
    0.13012E-07        -0.11985E-10         0.00000E+00
    0.12965E-07         0.28761E-10         0.00000E+00
    0.12912E-07         0.72499E-10         0.00000E+00
    0.12851E-07         0.11254E-09         0.00000E+00
    0.12789E-07         0.12879E-09         0.00000E+00
    0.12757E-07         0.10242E-09         0.00000E+00
    0.12759E-07         0.52244E-10         0.00000E+00
    0.12767E-07         0.13084E-10         0.00000E+00
    0.13826E-07        -0.23122E-10         0.00000E+00
    0.13810E-07        -0.52210E-10         0.00000E+00
    0.13781E-07        -0.63324E-10         0.00000E+00
    0.13745E-07        -0.61572E-10         0.00000E+00
    0.13703E-07        -0.49987E-10         0.00000E+00
    0.13660E-07        -0.30070E-10         0.00000E+00
    0.13615E-07        -0.21861E-11         0.00000E+00
    0.13569E-07         0.34111E-10         0.00000E+00
    0.13520E-07         0.79548E-10         0.00000E+00
    0.13462E-07         0.13342E-09         0.00000E+00
    0.13395E-07         0.18039E-09         0.00000E+00
    0.13347E-07         0.17000E-09         0.00000E+00
    0.13334E-07         0.10641E-09         0.00000E+00
    0.13335E-07         0.45103E-10         0.00000E+00
    0.13337E-07         0.91095E-11         0.00000E+00
    0.14344E-07        -0.13146E-10         0.00000E+00
    0.14326E-07        -0.26662E-10         0.00000E+00
    0.14294E-07        -0.27572E-10         0.00000E+00
    0.14254E-07        -0.19911E-10         0.00000E+00
    0.14210E-07        -0.55241E-11         0.00000E+00
    0.14164E-07         0.15281E-10         0.00000E+00
    0.14119E-07         0.43378E-10         0.00000E+00
    0.14073E-07         0.80783E-10         0.00000E+00
    0.14025E-07         0.13089E-09         0.00000E+00
    0.13968E-07         0.19863E-09         0.00000E+00
    0.13911E-07         0.23929E-09         0.00000E+00
    0.13879E-07         0.19099E-09         0.00000E+00
    0.13869E-07         0.10936E-09         0.00000E+00
    0.13864E-07         0.44680E-10         0.00000E+00
    0.13863E-07         0.85467E-11         0.00000E+00
    0.14786E-07        -0.16950E-11         0.00000E+00
    0.14766E-07         0.18294E-11         0.00000E+00
    0.14732E-07         0.11142E-10         0.00000E+00
    0.14691E-07         0.23925E-10         0.00000E+00
    0.14647E-07         0.39989E-10         0.00000E+00
    0.14603E-07         0.60472E-10         0.00000E+00
    0.14560E-07         0.87532E-10         0.00000E+00
    0.14518E-07         0.12463E-09         0.00000E+00
    0.14477E-07         0.17782E-09         0.00000E+00
    0.14433E-07         0.25453E-09         0.00000E+00
    0.14393E-07         0.28024E-09         0.00000E+00
    0.14369E-07         0.20661E-09         0.00000E+00
    0.14356E-07         0.11760E-09         0.00000E+00
    0.14347E-07         0.48640E-10         0.00000E+00
    0.14343E-07         0.97027E-11         0.00000E+00
    0.15139E-07         0.10778E-10         0.00000E+00
    0.15119E-07         0.31796E-10         0.00000E+00
    0.15085E-07         0.50373E-10         0.00000E+00
    0.15046E-07         0.66743E-10         0.00000E+00
    0.15006E-07         0.82900E-10         0.00000E+00
    0.14968E-07         0.10163E-09         0.00000E+00
    0.14932E-07         0.12624E-09         0.00000E+00
    0.14900E-07         0.16104E-09         0.00000E+00
    0.14871E-07         0.21299E-09         0.00000E+00
    0.14848E-07         0.28857E-09         0.00000E+00
    0.14828E-07         0.30609E-09         0.00000E+00
    0.14810E-07         0.22378E-09         0.00000E+00
    0.14795E-07         0.12918E-09         0.00000E+00
    0.14785E-07         0.54833E-10         0.00000E+00
    0.14780E-07         0.11616E-10         0.00000E+00
    0.15391E-07         0.23513E-10         0.00000E+00
    0.15372E-07         0.60880E-10         0.00000E+00
    0.15343E-07         0.86386E-10         0.00000E+00
    0.15311E-07         0.10391E-09         0.00000E+00
    0.15281E-07         0.11814E-09         0.00000E+00
    0.15254E-07         0.13355E-09         0.00000E+00
    0.15232E-07         0.15425E-09         0.00000E+00
    0.15214E-07         0.18458E-09         0.00000E+00
    0.15204E-07         0.23009E-09         0.00000E+00
    0.15205E-07         0.29505E-09         0.00000E+00
    0.15209E-07         0.31629E-09         0.00000E+00
    0.15201E-07         0.24110E-09         0.00000E+00
    0.15187E-07         0.14127E-09         0.00000E+00
    0.15178E-07         0.61460E-10         0.00000E+00
    0.15173E-07         0.13780E-10         0.00000E+00
    0.15531E-07         0.35305E-10         0.00000E+00
    0.15516E-07         0.85397E-10         0.00000E+00
    0.15497E-07         0.11367E-09         0.00000E+00
    0.15479E-07         0.12905E-09         0.00000E+00
    0.15466E-07         0.13924E-09         0.00000E+00
    0.15458E-07         0.14993E-09         0.00000E+00
    0.15455E-07         0.16551E-09         0.00000E+00
    0.15458E-07         0.18962E-09         0.00000E+00
    0.15470E-07         0.22541E-09         0.00000E+00
    0.15496E-07         0.27401E-09         0.00000E+00
    0.15527E-07         0.30313E-09         0.00000E+00
    0.15541E-07         0.25042E-09         0.00000E+00
    0.15536E-07         0.15115E-09         0.00000E+00
    0.15529E-07         0.66906E-10         0.00000E+00
    0.15526E-07         0.15642E-10         0.00000E+00
    0.15545E-07         0.44098E-10         0.00000E+00
    0.15541E-07         0.99332E-10         0.00000E+00
    0.15540E-07         0.12409E-09         0.00000E+00
    0.15546E-07         0.13393E-09         0.00000E+00
    0.15558E-07         0.13860E-09         0.00000E+00
    0.15576E-07         0.14397E-09         0.00000E+00
    0.15599E-07         0.15384E-09         0.00000E+00
    0.15628E-07         0.17083E-09         0.00000E+00
    0.15666E-07         0.19620E-09         0.00000E+00
    0.15717E-07         0.22837E-09         0.00000E+00
    0.15779E-07         0.25687E-09         0.00000E+00
    0.15827E-07         0.23638E-09         0.00000E+00
    0.15844E-07         0.15433E-09         0.00000E+00
    0.15846E-07         0.68227E-10         0.00000E+00
    0.15846E-07         0.16638E-10         0.00000E+00
    0.15423E-07         0.45827E-10         0.00000E+00
    0.15439E-07         0.91355E-10         0.00000E+00
    0.15471E-07         0.10582E-09         0.00000E+00
    0.15512E-07         0.10870E-09         0.00000E+00
    0.15559E-07         0.10847E-09         0.00000E+00
    0.15609E-07         0.10944E-09         0.00000E+00
    0.15663E-07         0.11410E-09         0.00000E+00
    0.15722E-07         0.12390E-09         0.00000E+00
    0.15790E-07         0.13920E-09         0.00000E+00
    0.15869E-07         0.15806E-09         0.00000E+00
    0.15959E-07         0.17652E-09         0.00000E+00
    0.16050E-07         0.17893E-09         0.00000E+00
    0.16112E-07         0.13488E-09         0.00000E+00
    0.16138E-07         0.59977E-10         0.00000E+00
    0.16147E-07         0.14787E-10         0.00000E+00
    0.15144E-07         0.22117E-10         0.00000E+00
    0.15210E-07         0.39998E-10         0.00000E+00
    0.15296E-07         0.43889E-10         0.00000E+00
    0.15386E-07         0.43620E-10         0.00000E+00
    0.15474E-07         0.42541E-10         0.00000E+00
    0.15561E-07         0.42169E-10         0.00000E+00
    0.15648E-07         0.43330E-10         0.00000E+00
    0.15739E-07         0.46479E-10         0.00000E+00
    0.15838E-07         0.51635E-10         0.00000E+00
    0.15949E-07         0.58206E-10         0.00000E+00
    0.16072E-07         0.64259E-10         0.00000E+00
    0.16205E-07         0.68361E-10         0.00000E+00
    0.16333E-07         0.58170E-10         0.00000E+00
    0.16417E-07         0.26304E-10         0.00000E+00
    0.16450E-07         0.63609E-11         0.00000E+00
POINT_DATA        496
VECTORS vDarcyNodal double 
    0.26697E-09        -0.65519E-10         0.00000E+00
    0.26706E-09        -0.13216E-09         0.00000E+00
    0.26727E-09        -0.24348E-09         0.00000E+00
    0.26618E-09        -0.26296E-09         0.00000E+00
    0.26469E-09        -0.19140E-09         0.00000E+00
    0.26486E-09        -0.11179E-09         0.00000E+00
    0.26612E-09        -0.55220E-10         0.00000E+00
    0.26800E-09        -0.16148E-10         0.00000E+00
    0.27016E-09         0.95491E-11         0.00000E+00
    0.27237E-09         0.24930E-10         0.00000E+00
    0.27447E-09         0.32300E-10         0.00000E+00
    0.27635E-09         0.33434E-10         0.00000E+00
    0.27792E-09         0.29730E-10         0.00000E+00
    0.27912E-09         0.22315E-10         0.00000E+00
    0.27987E-09         0.12125E-10         0.00000E+00
    0.28014E-09         0.64433E-11         0.00000E+00
    0.53479E-09        -0.65612E-10         0.00000E+00
    0.53492E-09        -0.13232E-09         0.00000E+00
    0.53536E-09        -0.24304E-09         0.00000E+00
    0.53319E-09        -0.26168E-09         0.00000E+00
    0.53026E-09        -0.19075E-09         0.00000E+00
    0.53066E-09        -0.11251E-09         0.00000E+00
    0.53320E-09        -0.56803E-10         0.00000E+00
    0.53694E-09        -0.18177E-10         0.00000E+00
    0.54121E-09         0.73557E-11         0.00000E+00
    0.54559E-09         0.22765E-10         0.00000E+00
    0.54974E-09         0.30300E-10         0.00000E+00
    0.55347E-09         0.31699E-10         0.00000E+00
    0.55658E-09         0.28339E-10         0.00000E+00
    0.55895E-09         0.21332E-10         0.00000E+00
    0.56045E-09         0.11609E-10         0.00000E+00
    0.56097E-09         0.61736E-11         0.00000E+00
    0.10730E-08        -0.65799E-10         0.00000E+00
    0.10731E-08        -0.13275E-09         0.00000E+00
    0.10741E-08        -0.24178E-09         0.00000E+00
    0.10697E-08        -0.25789E-09         0.00000E+00
    0.10641E-08        -0.18891E-09         0.00000E+00
    0.10651E-08        -0.11478E-09         0.00000E+00
    0.10702E-08        -0.61544E-10         0.00000E+00
    0.10776E-08        -0.24203E-10         0.00000E+00
    0.10860E-08         0.85818E-12         0.00000E+00
    0.10945E-08         0.16358E-10         0.00000E+00
    0.11027E-08         0.24381E-10         0.00000E+00
    0.11100E-08         0.26564E-10         0.00000E+00
    0.11161E-08         0.24218E-10         0.00000E+00
    0.11207E-08         0.18421E-10         0.00000E+00
    0.11237E-08         0.10077E-10         0.00000E+00
    0.11247E-08         0.53733E-11         0.00000E+00
    0.16180E-08        -0.66014E-10         0.00000E+00
    0.16183E-08        -0.13345E-09         0.00000E+00
    0.16194E-08        -0.23971E-09         0.00000E+00
    0.16129E-08        -0.25178E-09         0.00000E+00
    0.16052E-08        -0.18621E-09         0.00000E+00
    0.16071E-08        -0.11875E-09         0.00000E+00
    0.16147E-08        -0.69371E-10         0.00000E+00
    0.16255E-08        -0.34029E-10         0.00000E+00
    0.16377E-08        -0.96925E-11         0.00000E+00
    0.16501E-08         0.59684E-11         0.00000E+00
    0.16619E-08         0.14787E-10         0.00000E+00
    0.16724E-08         0.18237E-10         0.00000E+00
    0.16813E-08         0.17531E-10         0.00000E+00
    0.16880E-08         0.13690E-10         0.00000E+00
    0.16923E-08         0.75856E-11         0.00000E+00
    0.16938E-08         0.40688E-11         0.00000E+00
    0.21737E-08        -0.66382E-10         0.00000E+00
    0.21741E-08        -0.13425E-09         0.00000E+00
    0.21749E-08        -0.23646E-09         0.00000E+00
    0.21657E-08        -0.24375E-09         0.00000E+00
    0.21571E-08        -0.18331E-09         0.00000E+00
    0.21602E-08        -0.12448E-09         0.00000E+00
    0.21702E-08        -0.80072E-10         0.00000E+00
    0.21840E-08        -0.47297E-10         0.00000E+00
    0.21995E-08        -0.23876E-10         0.00000E+00
    0.22152E-08        -0.79726E-11         0.00000E+00
    0.22301E-08         0.19181E-11         0.00000E+00
    0.22435E-08         0.70621E-11         0.00000E+00
    0.22547E-08         0.85469E-11         0.00000E+00
    0.22633E-08         0.73223E-11         0.00000E+00
    0.22687E-08         0.42240E-11         0.00000E+00
    0.22707E-08         0.23043E-11         0.00000E+00
    0.27431E-08        -0.66907E-10         0.00000E+00
    0.27439E-08        -0.13475E-09         0.00000E+00
    0.27431E-08        -0.23141E-09         0.00000E+00
    0.27305E-08        -0.23418E-09         0.00000E+00
    0.27227E-08        -0.18090E-09         0.00000E+00
    0.27273E-08        -0.13197E-09         0.00000E+00
    0.27395E-08        -0.93336E-10         0.00000E+00
    0.27558E-08        -0.63512E-10         0.00000E+00
    0.27740E-08        -0.41110E-10         0.00000E+00
    0.27924E-08        -0.24873E-10         0.00000E+00
    0.28099E-08        -0.13675E-10         0.00000E+00
    0.28255E-08        -0.64873E-11         0.00000E+00
    0.28386E-08        -0.23644E-11         0.00000E+00
    0.28486E-08        -0.43030E-12         0.00000E+00
    0.28550E-08         0.11788E-12         0.00000E+00
    0.28573E-08         0.14105E-12         0.00000E+00
    0.33286E-08        -0.67893E-10         0.00000E+00
    0.33298E-08        -0.13430E-09         0.00000E+00
    0.33258E-08        -0.22323E-09         0.00000E+00
    0.33099E-08        -0.22363E-09         0.00000E+00
    0.33045E-08        -0.18044E-09         0.00000E+00
    0.33111E-08        -0.14150E-09         0.00000E+00
    0.33252E-08        -0.10882E-09         0.00000E+00
    0.33435E-08        -0.82053E-10         0.00000E+00
    0.33636E-08        -0.60661E-10         0.00000E+00
    0.33838E-08        -0.43988E-10         0.00000E+00
    0.34029E-08        -0.31299E-10         0.00000E+00
    0.34201E-08        -0.21816E-10         0.00000E+00
    0.34345E-08        -0.14736E-10         0.00000E+00
    0.34455E-08        -0.92490E-11         0.00000E+00
    0.34526E-08        -0.45729E-11         0.00000E+00
    0.34552E-08        -0.23421E-11         0.00000E+00
    0.39316E-08        -0.69291E-10         0.00000E+00
    0.39334E-08        -0.13204E-09         0.00000E+00
    0.39253E-08        -0.21174E-09         0.00000E+00
    0.39079E-08        -0.21317E-09         0.00000E+00
    0.39052E-08        -0.18247E-09         0.00000E+00
    0.39138E-08        -0.15302E-09         0.00000E+00
    0.39293E-08        -0.12600E-09         0.00000E+00
    0.39487E-08        -0.10213E-09         0.00000E+00
    0.39697E-08        -0.81643E-10         0.00000E+00
    0.39908E-08        -0.64430E-10         0.00000E+00
    0.40107E-08        -0.50134E-10         0.00000E+00
    0.40285E-08        -0.38217E-10         0.00000E+00
    0.40435E-08        -0.28008E-10         0.00000E+00
    0.40551E-08        -0.18751E-10         0.00000E+00
    0.40625E-08        -0.96555E-11         0.00000E+00
    0.40653E-08        -0.50495E-11         0.00000E+00
    0.45534E-08        -0.71552E-10         0.00000E+00
    0.45547E-08        -0.12813E-09         0.00000E+00
    0.45431E-08        -0.19800E-09         0.00000E+00
    0.45272E-08        -0.20390E-09         0.00000E+00
    0.45270E-08        -0.18666E-09         0.00000E+00
    0.45368E-08        -0.16589E-09         0.00000E+00
    0.45529E-08        -0.14404E-09         0.00000E+00
    0.45724E-08        -0.12277E-09         0.00000E+00
    0.45933E-08        -0.10302E-09         0.00000E+00
    0.46141E-08        -0.85182E-10         0.00000E+00
    0.46337E-08        -0.69240E-10         0.00000E+00
    0.46513E-08        -0.54878E-10         0.00000E+00
    0.46661E-08        -0.41539E-10         0.00000E+00
    0.46776E-08        -0.28491E-10         0.00000E+00
    0.46851E-08        -0.14904E-10         0.00000E+00
    0.46879E-08        -0.78683E-11         0.00000E+00
    0.51956E-08        -0.72008E-10         0.00000E+00
    0.51940E-08        -0.12198E-09         0.00000E+00
    0.51801E-08        -0.18459E-09         0.00000E+00
    0.51688E-08        -0.19747E-09         0.00000E+00
    0.51705E-08        -0.19250E-09         0.00000E+00
    0.51808E-08        -0.17925E-09         0.00000E+00
    0.51963E-08        -0.16189E-09         0.00000E+00
    0.52148E-08        -0.14285E-09         0.00000E+00
    0.52344E-08        -0.12365E-09         0.00000E+00
    0.52537E-08        -0.10513E-09         0.00000E+00
    0.52719E-08        -0.87580E-10         0.00000E+00
    0.52883E-08        -0.70895E-10         0.00000E+00
    0.53021E-08        -0.54604E-10         0.00000E+00
    0.53129E-08        -0.37966E-10         0.00000E+00
    0.53200E-08        -0.20061E-10         0.00000E+00
    0.53226E-08        -0.10669E-10         0.00000E+00
    0.58571E-08        -0.68424E-10         0.00000E+00
    0.58517E-08        -0.11285E-09         0.00000E+00
    0.58383E-08        -0.17324E-09         0.00000E+00
    0.58323E-08        -0.19482E-09         0.00000E+00
    0.58353E-08        -0.19907E-09         0.00000E+00
    0.58450E-08        -0.19206E-09         0.00000E+00
    0.58589E-08        -0.17842E-09         0.00000E+00
    0.58752E-08        -0.16117E-09         0.00000E+00
    0.58922E-08        -0.14231E-09         0.00000E+00
    0.59090E-08        -0.12307E-09         0.00000E+00
    0.59246E-08        -0.10404E-09         0.00000E+00
    0.59385E-08        -0.85282E-10         0.00000E+00
    0.59504E-08        -0.66402E-10         0.00000E+00
    0.59597E-08        -0.46610E-10         0.00000E+00
    0.59660E-08        -0.24835E-10         0.00000E+00
    0.59684E-08        -0.13305E-10         0.00000E+00
    0.65348E-08        -0.61472E-10         0.00000E+00
    0.65290E-08        -0.10353E-09         0.00000E+00
    0.65189E-08        -0.16563E-09         0.00000E+00
    0.65162E-08        -0.19495E-09         0.00000E+00
    0.65196E-08        -0.20565E-09         0.00000E+00
    0.65278E-08        -0.20332E-09         0.00000E+00
    0.65391E-08        -0.19249E-09         0.00000E+00
    0.65521E-08        -0.17653E-09         0.00000E+00
    0.65654E-08        -0.15778E-09         0.00000E+00
    0.65783E-08        -0.13779E-09         0.00000E+00
    0.65901E-08        -0.11744E-09         0.00000E+00
    0.66005E-08        -0.96977E-10         0.00000E+00
    0.66093E-08        -0.76052E-10         0.00000E+00
    0.66164E-08        -0.53792E-10         0.00000E+00
    0.66213E-08        -0.28898E-10         0.00000E+00
    0.66232E-08        -0.15609E-10         0.00000E+00
    0.72313E-08        -0.57158E-10         0.00000E+00
    0.72266E-08        -0.97419E-10         0.00000E+00
    0.72200E-08        -0.16100E-09         0.00000E+00
    0.72185E-08        -0.19606E-09         0.00000E+00
    0.72211E-08        -0.21117E-09         0.00000E+00
    0.72268E-08        -0.21201E-09         0.00000E+00
    0.72345E-08        -0.20305E-09         0.00000E+00
    0.72430E-08        -0.18780E-09         0.00000E+00
    0.72515E-08        -0.16886E-09         0.00000E+00
    0.72593E-08        -0.14807E-09         0.00000E+00
    0.72661E-08        -0.12659E-09         0.00000E+00
    0.72718E-08        -0.10485E-09         0.00000E+00
    0.72765E-08        -0.82580E-10         0.00000E+00
    0.72804E-08        -0.58797E-10         0.00000E+00
    0.72833E-08        -0.31875E-10         0.00000E+00
    0.72846E-08        -0.17391E-10         0.00000E+00
    0.79448E-08        -0.52463E-10         0.00000E+00
    0.79414E-08        -0.92735E-10         0.00000E+00
    0.79373E-08        -0.15815E-09         0.00000E+00
    0.79356E-08        -0.19661E-09         0.00000E+00
    0.79362E-08        -0.21445E-09         0.00000E+00
    0.79385E-08        -0.21714E-09         0.00000E+00
    0.79416E-08        -0.20912E-09         0.00000E+00
    0.79449E-08        -0.19394E-09         0.00000E+00
    0.79475E-08        -0.17444E-09         0.00000E+00
    0.79492E-08        -0.15273E-09         0.00000E+00
    0.79499E-08        -0.13025E-09         0.00000E+00
    0.79496E-08        -0.10769E-09         0.00000E+00
    0.79490E-08        -0.84906E-10         0.00000E+00
    0.79486E-08        -0.60804E-10         0.00000E+00
    0.79487E-08        -0.33327E-10         0.00000E+00
    0.79492E-08        -0.18431E-10         0.00000E+00
    0.86700E-08        -0.50674E-10         0.00000E+00
    0.86685E-08        -0.90437E-10         0.00000E+00
    0.86656E-08        -0.15586E-09         0.00000E+00
    0.86628E-08        -0.19555E-09         0.00000E+00
    0.86606E-08        -0.21456E-09         0.00000E+00
    0.86586E-08        -0.21788E-09         0.00000E+00
    0.86565E-08        -0.20984E-09         0.00000E+00
    0.86537E-08        -0.19408E-09         0.00000E+00
    0.86497E-08        -0.17358E-09         0.00000E+00
    0.86444E-08        -0.15072E-09         0.00000E+00
    0.86379E-08        -0.12726E-09         0.00000E+00
    0.86305E-08        -0.10425E-09         0.00000E+00
    0.86232E-08        -0.81811E-10         0.00000E+00
    0.86172E-08        -0.58829E-10         0.00000E+00
    0.86137E-08        -0.32716E-10         0.00000E+00
    0.86130E-08        -0.18460E-10         0.00000E+00
    0.94035E-08        -0.49929E-10         0.00000E+00
    0.94025E-08        -0.88893E-10         0.00000E+00
    0.93993E-08        -0.15313E-09         0.00000E+00
    0.93947E-08        -0.19221E-09         0.00000E+00
    0.93889E-08        -0.21080E-09         0.00000E+00
    0.93821E-08        -0.21352E-09         0.00000E+00
    0.93742E-08        -0.20456E-09         0.00000E+00
    0.93648E-08        -0.18753E-09         0.00000E+00
    0.93537E-08        -0.16552E-09         0.00000E+00
    0.93407E-08        -0.14116E-09         0.00000E+00
    0.93262E-08        -0.11657E-09         0.00000E+00
    0.93107E-08        -0.93284E-10         0.00000E+00
    0.92954E-08        -0.71928E-10         0.00000E+00
    0.92824E-08        -0.51641E-10         0.00000E+00
    0.92740E-08        -0.29333E-10         0.00000E+00
    0.92717E-08        -0.17124E-10         0.00000E+00
    0.10139E-07        -0.49048E-10         0.00000E+00
    0.10137E-07        -0.86835E-10         0.00000E+00
    0.10133E-07        -0.14874E-09         0.00000E+00
    0.10125E-07        -0.18572E-09         0.00000E+00
    0.10115E-07        -0.20250E-09         0.00000E+00
    0.10103E-07        -0.20353E-09         0.00000E+00
    0.10089E-07        -0.19281E-09         0.00000E+00
    0.10073E-07        -0.17387E-09         0.00000E+00
    0.10054E-07        -0.14984E-09         0.00000E+00
    0.10033E-07        -0.12352E-09         0.00000E+00
    0.10010E-07        -0.97456E-10         0.00000E+00
    0.99862E-08        -0.73759E-10         0.00000E+00
    0.99621E-08        -0.53828E-10         0.00000E+00
    0.99405E-08        -0.37659E-10         0.00000E+00
    0.99252E-08        -0.22148E-10         0.00000E+00
    0.99205E-08        -0.13897E-10         0.00000E+00
    0.10868E-07        -0.47476E-10         0.00000E+00
    0.10866E-07        -0.83414E-10         0.00000E+00
    0.10859E-07        -0.14164E-09         0.00000E+00
    0.10848E-07        -0.17519E-09         0.00000E+00
    0.10833E-07        -0.18902E-09         0.00000E+00
    0.10815E-07        -0.18748E-09         0.00000E+00
    0.10794E-07        -0.17436E-09         0.00000E+00
    0.10771E-07        -0.15300E-09         0.00000E+00
    0.10745E-07        -0.12646E-09         0.00000E+00
    0.10717E-07        -0.97713E-10         0.00000E+00
    0.10685E-07        -0.69703E-10         0.00000E+00
    0.10653E-07        -0.45197E-10         0.00000E+00
    0.10620E-07        -0.26502E-10         0.00000E+00
    0.10589E-07        -0.14951E-10         0.00000E+00
    0.10565E-07        -0.94769E-11         0.00000E+00
    0.10555E-07        -0.79094E-11         0.00000E+00
    0.11583E-07        -0.44810E-10         0.00000E+00
    0.11580E-07        -0.78003E-10         0.00000E+00
    0.11569E-07        -0.13095E-09         0.00000E+00
    0.11554E-07        -0.15985E-09         0.00000E+00
    0.11533E-07        -0.16984E-09         0.00000E+00
    0.11509E-07        -0.16514E-09         0.00000E+00
    0.11482E-07        -0.14923E-09         0.00000E+00
    0.11452E-07        -0.12515E-09         0.00000E+00
    0.11420E-07        -0.95738E-10         0.00000E+00
    0.11384E-07        -0.64070E-10         0.00000E+00
    0.11345E-07        -0.33640E-10         0.00000E+00
    0.11304E-07        -0.81260E-11         0.00000E+00
    0.11263E-07         0.95468E-11         0.00000E+00
    0.11226E-07         0.17058E-10         0.00000E+00
    0.11194E-07         0.11562E-10         0.00000E+00
    0.11176E-07         0.51457E-11         0.00000E+00
    0.12274E-07        -0.40757E-10         0.00000E+00
    0.12269E-07        -0.70137E-10         0.00000E+00
    0.12255E-07        -0.11603E-09         0.00000E+00
    0.12234E-07        -0.13914E-09         0.00000E+00
    0.12208E-07        -0.14465E-09         0.00000E+00
    0.12178E-07        -0.13650E-09         0.00000E+00
    0.12145E-07        -0.11774E-09         0.00000E+00
    0.12109E-07        -0.90868E-10         0.00000E+00
    0.12071E-07        -0.58340E-10         0.00000E+00
    0.12029E-07        -0.23262E-10         0.00000E+00
    0.11982E-07         0.10247E-10         0.00000E+00
    0.11933E-07         0.36721E-10         0.00000E+00
    0.11884E-07         0.50834E-10         0.00000E+00
    0.11843E-07         0.53667E-10         0.00000E+00
    0.11823E-07         0.40406E-10         0.00000E+00
    0.11817E-07         0.27742E-10         0.00000E+00
    0.12929E-07        -0.35098E-10         0.00000E+00
    0.12923E-07        -0.59492E-10         0.00000E+00
    0.12905E-07        -0.96480E-10         0.00000E+00
    0.12879E-07        -0.11279E-09         0.00000E+00
    0.12847E-07        -0.11343E-09         0.00000E+00
    0.12811E-07        -0.10188E-09         0.00000E+00
    0.12773E-07        -0.80527E-10         0.00000E+00
    0.12732E-07        -0.51092E-10         0.00000E+00
    0.12689E-07        -0.15308E-10         0.00000E+00
    0.12642E-07         0.24143E-10         0.00000E+00
    0.12589E-07         0.61693E-10         0.00000E+00
    0.12529E-07         0.89967E-10         0.00000E+00
    0.12475E-07         0.99662E-10         0.00000E+00
    0.12448E-07         0.78113E-10         0.00000E+00
    0.12451E-07         0.36989E-10         0.00000E+00
    0.12460E-07         0.16170E-10         0.00000E+00
    0.13539E-07        -0.27701E-10         0.00000E+00
    0.13531E-07        -0.45907E-10         0.00000E+00
    0.13509E-07        -0.72169E-10         0.00000E+00
    0.13478E-07        -0.80884E-10         0.00000E+00
    0.13441E-07        -0.76564E-10         0.00000E+00
    0.13400E-07        -0.61986E-10         0.00000E+00
    0.13357E-07        -0.38641E-10         0.00000E+00
    0.13314E-07        -0.71634E-11         0.00000E+00
    0.13268E-07         0.32080E-10         0.00000E+00
    0.13217E-07         0.77113E-10         0.00000E+00
    0.13157E-07         0.12334E-09         0.00000E+00
    0.13089E-07         0.15137E-09         0.00000E+00
    0.13048E-07         0.13155E-09         0.00000E+00
    0.13043E-07         0.76553E-10         0.00000E+00
    0.13050E-07         0.28339E-10         0.00000E+00
    0.13054E-07         0.99990E-11         0.00000E+00
    0.14090E-07        -0.18544E-10         0.00000E+00
    0.14080E-07        -0.29427E-10         0.00000E+00
    0.14055E-07        -0.43369E-10         0.00000E+00
    0.14020E-07        -0.44016E-10         0.00000E+00
    0.13979E-07        -0.34998E-10         0.00000E+00
    0.13935E-07        -0.18076E-10         0.00000E+00
    0.13890E-07         0.63808E-11         0.00000E+00
    0.13845E-07         0.39084E-10         0.00000E+00
    0.13798E-07         0.81574E-10         0.00000E+00
    0.13747E-07         0.13586E-09         0.00000E+00
    0.13682E-07         0.19047E-09         0.00000E+00
    0.13624E-07         0.19903E-09         0.00000E+00
    0.13603E-07         0.14486E-09         0.00000E+00
    0.13600E-07         0.74962E-10         0.00000E+00
    0.13600E-07         0.25874E-10         0.00000E+00
    0.13600E-07         0.82202E-11         0.00000E+00
    0.14571E-07        -0.77496E-11         0.00000E+00
    0.14560E-07        -0.10383E-10         0.00000E+00
    0.14532E-07        -0.10869E-10         0.00000E+00
    0.14494E-07        -0.34714E-11         0.00000E+00
    0.14451E-07         0.95593E-11         0.00000E+00
    0.14406E-07         0.27828E-10         0.00000E+00
    0.14361E-07         0.52275E-10         0.00000E+00
    0.14318E-07         0.85073E-10         0.00000E+00
    0.14274E-07         0.13010E-09         0.00000E+00
    0.14228E-07         0.19366E-09         0.00000E+00
    0.14173E-07         0.24744E-09         0.00000E+00
    0.14132E-07         0.23125E-09         0.00000E+00
    0.14116E-07         0.15549E-09         0.00000E+00
    0.14108E-07         0.79079E-10         0.00000E+00
    0.14104E-07         0.27353E-10         0.00000E+00
    0.14102E-07         0.88731E-11         0.00000E+00
    0.14969E-07         0.43580E-11         0.00000E+00
    0.14957E-07         0.10515E-10         0.00000E+00
    0.14928E-07         0.23836E-10         0.00000E+00
    0.14889E-07         0.38534E-10         0.00000E+00
    0.14847E-07         0.54350E-10         0.00000E+00
    0.14805E-07         0.72628E-10         0.00000E+00
    0.14765E-07         0.95726E-10         0.00000E+00
    0.14727E-07         0.12708E-09         0.00000E+00
    0.14691E-07         0.17234E-09         0.00000E+00
    0.14657E-07         0.23868E-09         0.00000E+00
    0.14623E-07         0.28732E-09         0.00000E+00
    0.14598E-07         0.25560E-09         0.00000E+00
    0.14581E-07         0.16872E-09         0.00000E+00
    0.14569E-07         0.87161E-10         0.00000E+00
    0.14563E-07         0.30990E-10         0.00000E+00
    0.14561E-07         0.10532E-10         0.00000E+00
    0.15272E-07         0.17196E-10         0.00000E+00
    0.15259E-07         0.32056E-10         0.00000E+00
    0.15231E-07         0.58329E-10         0.00000E+00
    0.15197E-07         0.78578E-10         0.00000E+00
    0.15161E-07         0.95289E-10         0.00000E+00
    0.15126E-07         0.11190E-09         0.00000E+00
    0.15095E-07         0.13213E-09         0.00000E+00
    0.15068E-07         0.16019E-09         0.00000E+00
    0.15046E-07         0.20168E-09         0.00000E+00
    0.15029E-07         0.26287E-09         0.00000E+00
    0.15024E-07         0.30733E-09         0.00000E+00
    0.15014E-07         0.27426E-09         0.00000E+00
    0.14997E-07         0.18423E-09         0.00000E+00
    0.14985E-07         0.96852E-10         0.00000E+00
    0.14978E-07         0.35459E-10         0.00000E+00
    0.14976E-07         0.12701E-10         0.00000E+00
    0.15467E-07         0.29829E-10         0.00000E+00
    0.15456E-07         0.52335E-10         0.00000E+00
    0.15433E-07         0.88934E-10         0.00000E+00
    0.15407E-07         0.11171E-09         0.00000E+00
    0.15383E-07         0.12676E-09         0.00000E+00
    0.15363E-07         0.13980E-09         0.00000E+00
    0.15348E-07         0.15567E-09         0.00000E+00
    0.15338E-07         0.17864E-09         0.00000E+00
    0.15334E-07         0.21298E-09         0.00000E+00
    0.15340E-07         0.26227E-09         0.00000E+00
    0.15361E-07         0.30401E-09         0.00000E+00
    0.15375E-07         0.28313E-09         0.00000E+00
    0.15366E-07         0.19814E-09         0.00000E+00
    0.15356E-07         0.10588E-09         0.00000E+00
    0.15351E-07         0.39780E-10         0.00000E+00
    0.15349E-07         0.14859E-10         0.00000E+00
    0.15542E-07         0.40778E-10         0.00000E+00
    0.15535E-07         0.68365E-10         0.00000E+00
    0.15523E-07         0.11013E-09         0.00000E+00
    0.15514E-07         0.13101E-09         0.00000E+00
    0.15511E-07         0.14153E-09         0.00000E+00
    0.15513E-07         0.14937E-09         0.00000E+00
    0.15520E-07         0.15977E-09         0.00000E+00
    0.15533E-07         0.17648E-09         0.00000E+00
    0.15553E-07         0.20205E-09         0.00000E+00
    0.15583E-07         0.23715E-09         0.00000E+00
    0.15630E-07         0.27313E-09         0.00000E+00
    0.15677E-07         0.27043E-09         0.00000E+00
    0.15691E-07         0.20343E-09         0.00000E+00
    0.15688E-07         0.11218E-09         0.00000E+00
    0.15687E-07         0.42768E-10         0.00000E+00
    0.15686E-07         0.16424E-10         0.00000E+00
    0.15485E-07         0.47416E-10         0.00000E+00
    0.15485E-07         0.75064E-10         0.00000E+00
    0.15495E-07         0.11329E-09         0.00000E+00
    0.15515E-07         0.12701E-09         0.00000E+00
    0.15543E-07         0.13100E-09         0.00000E+00
    0.15574E-07         0.13320E-09         0.00000E+00
    0.15610E-07         0.13804E-09         0.00000E+00
    0.15651E-07         0.14819E-09         0.00000E+00
    0.15699E-07         0.16498E-09         0.00000E+00
    0.15757E-07         0.18742E-09         0.00000E+00
    0.15829E-07         0.21211E-09         0.00000E+00
    0.15910E-07         0.22282E-09         0.00000E+00
    0.15968E-07         0.18727E-09         0.00000E+00
    0.15988E-07         0.11037E-09         0.00000E+00
    0.15996E-07         0.42097E-10         0.00000E+00
    0.15998E-07         0.16852E-10         0.00000E+00
    0.15271E-07         0.44240E-10         0.00000E+00
    0.15297E-07         0.62122E-10         0.00000E+00
    0.15351E-07         0.83895E-10         0.00000E+00
    0.15416E-07         0.87517E-10         0.00000E+00
    0.15483E-07         0.86168E-10         0.00000E+00
    0.15550E-07         0.84716E-10         0.00000E+00
    0.15619E-07         0.85505E-10         0.00000E+00
    0.15691E-07         0.89816E-10         0.00000E+00
    0.15770E-07         0.98122E-10         0.00000E+00
    0.15858E-07         0.10985E-09         0.00000E+00
    0.15959E-07         0.12247E-09         0.00000E+00
    0.16072E-07         0.13263E-09         0.00000E+00
    0.16183E-07         0.12654E-09         0.00000E+00
    0.16261E-07         0.84481E-10         0.00000E+00
    0.16295E-07         0.32668E-10         0.00000E+00
    0.16303E-07         0.12723E-10         0.00000E+00
    0.15122E-07         0.00000E+00         0.00000E+00
    0.15168E-07         0.00000E+00         0.00000E+00
    0.15251E-07        -0.41407E-22         0.00000E+00
    0.15341E-07         0.61687E-26         0.00000E+00
    0.15431E-07         0.45555E-22         0.00000E+00
    0.15518E-07         0.00000E+00         0.00000E+00
    0.15603E-07         0.00000E+00         0.00000E+00
    0.15691E-07        -0.45573E-22         0.00000E+00
    0.15786E-07        -0.45573E-22         0.00000E+00
    0.15890E-07         0.45579E-22         0.00000E+00
    0.16007E-07         0.49723E-22         0.00000E+00
    0.16137E-07        -0.49728E-22         0.00000E+00
    0.16274E-07        -0.41423E-23         0.00000E+00
    0.16391E-07         0.49730E-22         0.00000E+00
    0.16444E-07         0.82884E-23         0.00000E+00
    0.16457E-07         0.00000E+00         0.00000E+00
CELL_DATA        450
TENSORS stressef double 
    0.79356E+07         0.59634E+04         0.00000E+00
    0.59634E+04        -0.12058E+08         0.00000E+00
    0.00000E+00         0.00000E+00        -0.12350E+07
 
    0.79163E+07         0.17756E+05         0.00000E+00
    0.17756E+05        -0.12053E+08         0.00000E+00
    0.00000E+00         0.00000E+00        -0.11153E+07
 
    0.78895E+07         0.29045E+05         0.00000E+00
    0.29045E+05        -0.12041E+08         0.00000E+00
    0.00000E+00         0.00000E+00        -0.94454E+06
 
    0.73338E+07         0.30829E+05         0.00000E+00
    0.30829E+05        -0.12021E+08         0.00000E+00
    0.00000E+00         0.00000E+00        -0.93736E+06
 
    0.62336E+07         0.25388E+05         0.00000E+00
    0.25388E+05        -0.11992E+08         0.00000E+00
    0.00000E+00         0.00000E+00        -0.11517E+07
 
    0.52145E+07         0.23875E+05         0.00000E+00
    0.23875E+05        -0.11959E+08         0.00000E+00
    0.00000E+00         0.00000E+00        -0.13489E+07
 
    0.42641E+07         0.26827E+05         0.00000E+00
    0.26827E+05        -0.11917E+08         0.00000E+00
    0.00000E+00         0.00000E+00        -0.15306E+07
 
    0.33689E+07         0.33853E+05         0.00000E+00
    0.33853E+05        -0.11860E+08         0.00000E+00
    0.00000E+00         0.00000E+00        -0.16981E+07
 
    0.25170E+07         0.44475E+05         0.00000E+00
    0.44475E+05        -0.11781E+08         0.00000E+00
    0.00000E+00         0.00000E+00        -0.18527E+07
 
    0.16973E+07         0.58282E+05         0.00000E+00
    0.58282E+05        -0.11675E+08         0.00000E+00
    0.00000E+00         0.00000E+00        -0.19955E+07
 
    0.90016E+06         0.74915E+05         0.00000E+00
    0.74915E+05        -0.11538E+08         0.00000E+00
    0.00000E+00         0.00000E+00        -0.21275E+07
 
    0.11710E+06         0.94028E+05         0.00000E+00
    0.94028E+05        -0.11365E+08         0.00000E+00
    0.00000E+00         0.00000E+00        -0.22495E+07
 
   -0.65929E+06         0.11527E+06         0.00000E+00
    0.11527E+06        -0.11151E+08         0.00000E+00
    0.00000E+00         0.00000E+00        -0.23622E+07
 
   -0.14352E+07         0.13827E+06         0.00000E+00
    0.13827E+06        -0.10895E+08         0.00000E+00
    0.00000E+00         0.00000E+00        -0.24661E+07
 
   -0.22156E+07         0.16262E+06         0.00000E+00
    0.16262E+06        -0.10593E+08         0.00000E+00
    0.00000E+00         0.00000E+00        -0.25617E+07
 
    0.78844E+07         0.18288E+05         0.00000E+00
    0.18288E+05        -0.12133E+08         0.00000E+00
    0.00000E+00         0.00000E+00        -0.12589E+07
 
    0.78645E+07         0.53014E+05         0.00000E+00
    0.53014E+05        -0.12127E+08         0.00000E+00
    0.00000E+00         0.00000E+00        -0.11375E+07
 
    0.78359E+07         0.86236E+05         0.00000E+00
    0.86236E+05        -0.12116E+08         0.00000E+00
    0.00000E+00         0.00000E+00        -0.96470E+06
 
    0.72456E+07         0.90214E+05         0.00000E+00
    0.90214E+05        -0.12099E+08         0.00000E+00
    0.00000E+00         0.00000E+00        -0.97067E+06
 
    0.61520E+07         0.73299E+05         0.00000E+00
    0.73299E+05        -0.12075E+08         0.00000E+00
    0.00000E+00         0.00000E+00        -0.11847E+07
 
    0.51418E+07         0.69341E+05         0.00000E+00
    0.69341E+05        -0.12048E+08         0.00000E+00
    0.00000E+00         0.00000E+00        -0.13812E+07
 
    0.41994E+07         0.78769E+05         0.00000E+00
    0.78769E+05        -0.12010E+08         0.00000E+00
    0.00000E+00         0.00000E+00        -0.15622E+07
 
    0.33113E+07         0.10020E+06         0.00000E+00
    0.10020E+06        -0.11956E+08         0.00000E+00
    0.00000E+00         0.00000E+00        -0.17290E+07
 
    0.24654E+07         0.13228E+06         0.00000E+00
    0.13228E+06        -0.11880E+08         0.00000E+00
    0.00000E+00         0.00000E+00        -0.18830E+07
 
    0.16511E+07         0.17386E+06         0.00000E+00
    0.17386E+06        -0.11777E+08         0.00000E+00
    0.00000E+00         0.00000E+00        -0.20252E+07
 
    0.85877E+06         0.22387E+06         0.00000E+00
    0.22387E+06        -0.11643E+08         0.00000E+00
    0.00000E+00         0.00000E+00        -0.21568E+07
 
    0.79848E+05         0.28131E+06         0.00000E+00
    0.28131E+06        -0.11472E+08         0.00000E+00
    0.00000E+00         0.00000E+00        -0.22783E+07
 
   -0.69303E+06         0.34516E+06         0.00000E+00
    0.34516E+06        -0.11260E+08         0.00000E+00
    0.00000E+00         0.00000E+00        -0.23907E+07
 
   -0.14661E+07         0.41429E+06         0.00000E+00
    0.41429E+06        -0.11005E+08         0.00000E+00
    0.00000E+00         0.00000E+00        -0.24943E+07
 
   -0.22444E+07         0.48749E+06         0.00000E+00
    0.48749E+06        -0.10704E+08         0.00000E+00
    0.00000E+00         0.00000E+00        -0.25897E+07
 
    0.77814E+07         0.30904E+05         0.00000E+00
    0.30904E+05        -0.12284E+08         0.00000E+00
    0.00000E+00         0.00000E+00        -0.13074E+07
 
    0.77593E+07         0.88160E+05         0.00000E+00
    0.88160E+05        -0.12278E+08         0.00000E+00
    0.00000E+00         0.00000E+00        -0.11818E+07
 
    0.77272E+07         0.14039E+06         0.00000E+00
    0.14039E+06        -0.12267E+08         0.00000E+00
    0.00000E+00         0.00000E+00        -0.10037E+07
 
    0.70653E+07         0.14209E+06         0.00000E+00
    0.14209E+06        -0.12258E+08         0.00000E+00
    0.00000E+00         0.00000E+00        -0.10386E+07
 
    0.59891E+07         0.11308E+06         0.00000E+00
    0.11308E+06        -0.12245E+08         0.00000E+00
    0.00000E+00         0.00000E+00        -0.12512E+07
 
    0.49970E+07         0.10854E+06         0.00000E+00
    0.10854E+06        -0.12227E+08         0.00000E+00
    0.00000E+00         0.00000E+00        -0.14460E+07
 
    0.40704E+07         0.12585E+06         0.00000E+00
    0.12585E+06        -0.12197E+08         0.00000E+00
    0.00000E+00         0.00000E+00        -0.16253E+07
 
    0.31961E+07         0.16258E+06         0.00000E+00
    0.16258E+06        -0.12150E+08         0.00000E+00
    0.00000E+00         0.00000E+00        -0.17907E+07
 
    0.23623E+07         0.21673E+06         0.00000E+00
    0.21673E+06        -0.12080E+08         0.00000E+00
    0.00000E+00         0.00000E+00        -0.19435E+07
 
    0.15587E+07         0.28649E+06         0.00000E+00
    0.28649E+06        -0.11982E+08         0.00000E+00
    0.00000E+00         0.00000E+00        -0.20847E+07
 
    0.77577E+06         0.37022E+06         0.00000E+00
    0.37022E+06        -0.11852E+08         0.00000E+00
    0.00000E+00         0.00000E+00        -0.22153E+07
 
    0.51297E+04         0.46630E+06         0.00000E+00
    0.46630E+06        -0.11685E+08         0.00000E+00
    0.00000E+00         0.00000E+00        -0.23360E+07
 
   -0.76067E+06         0.57306E+06         0.00000E+00
    0.57306E+06        -0.11478E+08         0.00000E+00
    0.00000E+00         0.00000E+00        -0.24477E+07
 
   -0.15280E+07         0.68870E+06         0.00000E+00
    0.68870E+06        -0.11226E+08         0.00000E+00
    0.00000E+00         0.00000E+00        -0.25507E+07
 
   -0.23020E+07         0.81122E+06         0.00000E+00
    0.81122E+06        -0.10927E+08         0.00000E+00
    0.00000E+00         0.00000E+00        -0.26457E+07
 
    0.76254E+07         0.42713E+05         0.00000E+00
    0.42713E+05        -0.12510E+08         0.00000E+00
    0.00000E+00         0.00000E+00        -0.13808E+07
 
    0.75979E+07         0.12274E+06         0.00000E+00
    0.12274E+06        -0.12507E+08         0.00000E+00
    0.00000E+00         0.00000E+00        -0.12484E+07
 
    0.75572E+07         0.18922E+06         0.00000E+00
    0.18922E+06        -0.12502E+08         0.00000E+00
    0.00000E+00         0.00000E+00        -0.10619E+07
 
    0.67878E+07         0.17967E+06         0.00000E+00
    0.17967E+06        -0.12502E+08         0.00000E+00
    0.00000E+00         0.00000E+00        -0.11428E+07
 
    0.57462E+07         0.14126E+06         0.00000E+00
    0.14126E+06        -0.12504E+08         0.00000E+00
    0.00000E+00         0.00000E+00        -0.13515E+07
 
    0.47810E+07         0.13868E+06         0.00000E+00
    0.13868E+06        -0.12497E+08         0.00000E+00
    0.00000E+00         0.00000E+00        -0.15433E+07
 
    0.38773E+07         0.16548E+06         0.00000E+00
    0.16548E+06        -0.12478E+08         0.00000E+00
    0.00000E+00         0.00000E+00        -0.17202E+07
 
    0.30231E+07         0.21870E+06         0.00000E+00
    0.21870E+06        -0.12441E+08         0.00000E+00
    0.00000E+00         0.00000E+00        -0.18835E+07
 
    0.22071E+07         0.29574E+06         0.00000E+00
    0.29574E+06        -0.12379E+08         0.00000E+00
    0.00000E+00         0.00000E+00        -0.20344E+07
 
    0.14194E+07         0.39431E+06         0.00000E+00
    0.39431E+06        -0.12289E+08         0.00000E+00
    0.00000E+00         0.00000E+00        -0.21740E+07
 
    0.65070E+06         0.51226E+06         0.00000E+00
    0.51226E+06        -0.12166E+08         0.00000E+00
    0.00000E+00         0.00000E+00        -0.23031E+07
 
   -0.10748E+06         0.64744E+06         0.00000E+00
    0.64744E+06        -0.12006E+08         0.00000E+00
    0.00000E+00         0.00000E+00        -0.24226E+07
 
   -0.86257E+06         0.79763E+06         0.00000E+00
    0.79763E+06        -0.11804E+08         0.00000E+00
    0.00000E+00         0.00000E+00        -0.25332E+07
 
   -0.16211E+07         0.96038E+06         0.00000E+00
    0.96038E+06        -0.11556E+08         0.00000E+00
    0.00000E+00         0.00000E+00        -0.26354E+07
 
   -0.23884E+07         0.11330E+07         0.00000E+00
    0.11330E+07        -0.11260E+08         0.00000E+00
    0.00000E+00         0.00000E+00        -0.27297E+07
 
    0.74141E+07         0.53137E+05         0.00000E+00
    0.53137E+05        -0.12813E+08         0.00000E+00
    0.00000E+00         0.00000E+00        -0.14769E+07
 
    0.73805E+07         0.15453E+06         0.00000E+00
    0.15453E+06        -0.12813E+08         0.00000E+00
    0.00000E+00         0.00000E+00        -0.13360E+07
 
    0.73014E+07         0.23017E+06         0.00000E+00
    0.23017E+06        -0.12823E+08         0.00000E+00
    0.00000E+00         0.00000E+00        -0.11497E+07
 
    0.64196E+07         0.19596E+06         0.00000E+00
    0.19596E+06        -0.12832E+08         0.00000E+00
    0.00000E+00         0.00000E+00        -0.12826E+07
 
    0.54254E+07         0.15603E+06         0.00000E+00
    0.15603E+06        -0.12852E+08         0.00000E+00
    0.00000E+00         0.00000E+00        -0.14853E+07
 
    0.44940E+07         0.15738E+06         0.00000E+00
    0.15738E+06        -0.12861E+08         0.00000E+00
    0.00000E+00         0.00000E+00        -0.16733E+07
 
    0.36200E+07         0.19551E+06         0.00000E+00
    0.19551E+06        -0.12855E+08         0.00000E+00
    0.00000E+00         0.00000E+00        -0.18469E+07
 
    0.27919E+07         0.26652E+06         0.00000E+00
    0.26652E+06        -0.12829E+08         0.00000E+00
    0.00000E+00         0.00000E+00        -0.20074E+07
 
    0.19994E+07         0.36741E+06         0.00000E+00
    0.36741E+06        -0.12778E+08         0.00000E+00
    0.00000E+00         0.00000E+00        -0.21558E+07
 
    0.12327E+07         0.49552E+06         0.00000E+00
    0.49552E+06        -0.12699E+08         0.00000E+00
    0.00000E+00         0.00000E+00        -0.22932E+07
 
    0.48284E+06         0.64831E+06         0.00000E+00
    0.64831E+06        -0.12585E+08         0.00000E+00
    0.00000E+00         0.00000E+00        -0.24204E+07
 
   -0.25861E+06         0.82321E+06         0.00000E+00
    0.82321E+06        -0.12432E+08         0.00000E+00
    0.00000E+00         0.00000E+00        -0.25382E+07
 
   -0.99922E+06         0.10175E+07         0.00000E+00
    0.10175E+07        -0.12237E+08         0.00000E+00
    0.00000E+00         0.00000E+00        -0.26473E+07
 
   -0.17457E+07         0.12282E+07         0.00000E+00
    0.12282E+07        -0.11996E+08         0.00000E+00
    0.00000E+00         0.00000E+00        -0.27483E+07
 
   -0.25038E+07         0.14519E+07         0.00000E+00
    0.14519E+07        -0.11704E+08         0.00000E+00
    0.00000E+00         0.00000E+00        -0.28416E+07
 
    0.71433E+07         0.64274E+05         0.00000E+00
    0.64274E+05        -0.13198E+08         0.00000E+00
    0.00000E+00         0.00000E+00        -0.15940E+07
 
    0.71054E+07         0.18311E+06         0.00000E+00
    0.18311E+06        -0.13196E+08         0.00000E+00
    0.00000E+00         0.00000E+00        -0.14406E+07
 
    0.69207E+07         0.25324E+06         0.00000E+00
    0.25324E+06        -0.13210E+08         0.00000E+00
    0.00000E+00         0.00000E+00        -0.12858E+07
 
    0.59821E+07         0.18963E+06         0.00000E+00
    0.18963E+06        -0.13252E+08         0.00000E+00
    0.00000E+00         0.00000E+00        -0.14539E+07
 
    0.50267E+07         0.15345E+06         0.00000E+00
    0.15345E+06        -0.13292E+08         0.00000E+00
    0.00000E+00         0.00000E+00        -0.16530E+07
 
    0.41368E+07         0.16261E+06         0.00000E+00
    0.16261E+06        -0.13318E+08         0.00000E+00
    0.00000E+00         0.00000E+00        -0.18362E+07
 
    0.32982E+07         0.21415E+06         0.00000E+00
    0.21415E+06        -0.13327E+08         0.00000E+00
    0.00000E+00         0.00000E+00        -0.20057E+07
 
    0.25019E+07         0.30430E+06         0.00000E+00
    0.30430E+06        -0.13315E+08         0.00000E+00
    0.00000E+00         0.00000E+00        -0.21626E+07
 
    0.17381E+07         0.42999E+06         0.00000E+00
    0.42999E+06        -0.13277E+08         0.00000E+00
    0.00000E+00         0.00000E+00        -0.23079E+07
 
    0.99755E+06         0.58840E+06         0.00000E+00
    0.58840E+06        -0.13210E+08         0.00000E+00
    0.00000E+00         0.00000E+00        -0.24424E+07
 
    0.27129E+06         0.77671E+06         0.00000E+00
    0.77671E+06        -0.13107E+08         0.00000E+00
    0.00000E+00         0.00000E+00        -0.25671E+07
 
   -0.44907E+06         0.99202E+06         0.00000E+00
    0.99202E+06        -0.12965E+08         0.00000E+00
    0.00000E+00         0.00000E+00        -0.26828E+07
 
   -0.11713E+07         0.12312E+07         0.00000E+00
    0.12312E+07        -0.12779E+08         0.00000E+00
    0.00000E+00         0.00000E+00        -0.27900E+07
 
   -0.19023E+07         0.14908E+07         0.00000E+00
    0.14908E+07        -0.12545E+08         0.00000E+00
    0.00000E+00         0.00000E+00        -0.28894E+07
 
   -0.26483E+07         0.17668E+07         0.00000E+00
    0.17668E+07        -0.12259E+08         0.00000E+00
    0.00000E+00         0.00000E+00        -0.29815E+07
 
    0.68106E+07         0.73792E+05         0.00000E+00
    0.73792E+05        -0.13664E+08         0.00000E+00
    0.00000E+00         0.00000E+00        -0.17303E+07
 
    0.67563E+07         0.20777E+06         0.00000E+00
    0.20777E+06        -0.13672E+08         0.00000E+00
    0.00000E+00         0.00000E+00        -0.15604E+07
 
    0.64220E+07         0.24506E+06         0.00000E+00
    0.24506E+06        -0.13719E+08         0.00000E+00
    0.00000E+00         0.00000E+00        -0.14629E+07
 
    0.54563E+07         0.16452E+06         0.00000E+00
    0.16452E+06        -0.13769E+08         0.00000E+00
    0.00000E+00         0.00000E+00        -0.16625E+07
 
    0.45549E+07         0.13313E+06         0.00000E+00
    0.13313E+06        -0.13826E+08         0.00000E+00
    0.00000E+00         0.00000E+00        -0.18542E+07
 
    0.37093E+07         0.15334E+06         0.00000E+00
    0.15334E+06        -0.13869E+08         0.00000E+00
    0.00000E+00         0.00000E+00        -0.20320E+07
 
    0.29112E+07         0.22005E+06         0.00000E+00
    0.22005E+06        -0.13894E+08         0.00000E+00
    0.00000E+00         0.00000E+00        -0.21966E+07
 
    0.21518E+07         0.33046E+06         0.00000E+00
    0.33046E+06        -0.13898E+08         0.00000E+00
    0.00000E+00         0.00000E+00        -0.23492E+07
 
    0.14220E+07         0.48179E+06         0.00000E+00
    0.48179E+06        -0.13875E+08         0.00000E+00
    0.00000E+00         0.00000E+00        -0.24907E+07
 
    0.71271E+06         0.67123E+06         0.00000E+00
    0.67123E+06        -0.13822E+08         0.00000E+00
    0.00000E+00         0.00000E+00        -0.26218E+07
 
    0.14914E+05         0.89579E+06         0.00000E+00
    0.89579E+06        -0.13732E+08         0.00000E+00
    0.00000E+00         0.00000E+00        -0.27434E+07
 
   -0.67983E+06         0.11523E+07         0.00000E+00
    0.11523E+07        -0.13602E+08         0.00000E+00
    0.00000E+00         0.00000E+00        -0.28563E+07
 
   -0.13794E+07         0.14372E+07         0.00000E+00
    0.14372E+07        -0.13426E+08         0.00000E+00
    0.00000E+00         0.00000E+00        -0.29612E+07
 
   -0.20912E+07         0.17468E+07         0.00000E+00
    0.17468E+07        -0.13202E+08         0.00000E+00
    0.00000E+00         0.00000E+00        -0.30586E+07
 
   -0.28218E+07         0.20766E+07         0.00000E+00
    0.20766E+07        -0.12923E+08         0.00000E+00
    0.00000E+00         0.00000E+00        -0.31490E+07
 
    0.64086E+07         0.81930E+05         0.00000E+00
    0.81930E+05        -0.14217E+08         0.00000E+00
    0.00000E+00         0.00000E+00        -0.18828E+07
 
    0.63392E+07         0.21793E+06         0.00000E+00
    0.21793E+06        -0.14233E+08         0.00000E+00
    0.00000E+00         0.00000E+00        -0.16970E+07
 
    0.57694E+07         0.20318E+06         0.00000E+00
    0.20318E+06        -0.14295E+08         0.00000E+00
    0.00000E+00         0.00000E+00        -0.17052E+07
 
    0.48532E+07         0.11956E+06         0.00000E+00
    0.11956E+06        -0.14381E+08         0.00000E+00
    0.00000E+00         0.00000E+00        -0.19056E+07
 
    0.40076E+07         0.97632E+05         0.00000E+00
    0.97632E+05        -0.14455E+08         0.00000E+00
    0.00000E+00         0.00000E+00        -0.20895E+07
 
    0.32107E+07         0.12938E+06         0.00000E+00
    0.12938E+06        -0.14515E+08         0.00000E+00
    0.00000E+00         0.00000E+00        -0.22609E+07
 
    0.24576E+07         0.21211E+06         0.00000E+00
    0.21211E+06        -0.14557E+08         0.00000E+00
    0.00000E+00         0.00000E+00        -0.24200E+07
 
    0.17402E+07         0.34348E+06         0.00000E+00
    0.34348E+06        -0.14578E+08         0.00000E+00
    0.00000E+00         0.00000E+00        -0.25676E+07
 
    0.10497E+07         0.52112E+06         0.00000E+00
    0.52112E+06        -0.14572E+08         0.00000E+00
    0.00000E+00         0.00000E+00        -0.27044E+07
 
    0.37679E+06         0.74228E+06         0.00000E+00
    0.74228E+06        -0.14534E+08         0.00000E+00
    0.00000E+00         0.00000E+00        -0.28315E+07
 
   -0.28753E+06         0.10038E+07         0.00000E+00
    0.10038E+07        -0.14459E+08         0.00000E+00
    0.00000E+00         0.00000E+00        -0.29494E+07
 
   -0.95192E+06         0.13024E+07         0.00000E+00
    0.13024E+07        -0.14343E+08         0.00000E+00
    0.00000E+00         0.00000E+00        -0.30590E+07
 
   -0.16245E+07         0.16340E+07         0.00000E+00
    0.16340E+07        -0.14180E+08         0.00000E+00
    0.00000E+00         0.00000E+00        -0.31609E+07
 
   -0.23131E+07         0.19947E+07         0.00000E+00
    0.19947E+07        -0.13966E+08         0.00000E+00
    0.00000E+00         0.00000E+00        -0.32558E+07
 
   -0.30245E+07         0.23798E+07         0.00000E+00
    0.23798E+07        -0.13697E+08         0.00000E+00
    0.00000E+00         0.00000E+00        -0.33442E+07
 
    0.59323E+07         0.87131E+05         0.00000E+00
    0.87131E+05        -0.14858E+08         0.00000E+00
    0.00000E+00         0.00000E+00        -0.20496E+07
 
    0.57882E+07         0.20051E+06         0.00000E+00
    0.20051E+06        -0.14911E+08         0.00000E+00
    0.00000E+00         0.00000E+00        -0.18701E+07
 
    0.50042E+07         0.13107E+06         0.00000E+00
    0.13107E+06        -0.14986E+08         0.00000E+00
    0.00000E+00         0.00000E+00        -0.19963E+07
 
    0.41757E+07         0.58602E+05         0.00000E+00
    0.58602E+05        -0.15087E+08         0.00000E+00
    0.00000E+00         0.00000E+00        -0.21822E+07
 
    0.33831E+07         0.46712E+05         0.00000E+00
    0.46712E+05        -0.15176E+08         0.00000E+00
    0.00000E+00         0.00000E+00        -0.23586E+07
 
    0.26384E+07         0.90298E+05         0.00000E+00
    0.90298E+05        -0.15253E+08         0.00000E+00
    0.00000E+00         0.00000E+00        -0.25230E+07
 
    0.19350E+07         0.18904E+06         0.00000E+00
    0.18904E+06        -0.15314E+08         0.00000E+00
    0.00000E+00         0.00000E+00        -0.26758E+07
 
    0.12650E+07         0.34169E+06         0.00000E+00
    0.34169E+06        -0.15354E+08         0.00000E+00
    0.00000E+00         0.00000E+00        -0.28177E+07
 
    0.61929E+06         0.54619E+06         0.00000E+00
    0.54619E+06        -0.15366E+08         0.00000E+00
    0.00000E+00         0.00000E+00        -0.29493E+07
 
   -0.11716E+05         0.79977E+06         0.00000E+00
    0.79977E+06        -0.15346E+08         0.00000E+00
    0.00000E+00         0.00000E+00        -0.30715E+07
 
   -0.63732E+06         0.10991E+07         0.00000E+00
    0.10991E+07        -0.15288E+08         0.00000E+00
    0.00000E+00         0.00000E+00        -0.31850E+07
 
   -0.12664E+07         0.14405E+07         0.00000E+00
    0.14405E+07        -0.15187E+08         0.00000E+00
    0.00000E+00         0.00000E+00        -0.32907E+07
 
   -0.19074E+07         0.18199E+07         0.00000E+00
    0.18199E+07        -0.15038E+08         0.00000E+00
    0.00000E+00         0.00000E+00        -0.33891E+07
 
   -0.25682E+07         0.22330E+07         0.00000E+00
    0.22330E+07        -0.14837E+08         0.00000E+00
    0.00000E+00         0.00000E+00        -0.34810E+07
 
   -0.32564E+07         0.26749E+07         0.00000E+00
    0.26749E+07        -0.14578E+08         0.00000E+00
    0.00000E+00         0.00000E+00        -0.35668E+07
 
    0.53732E+07         0.84767E+05         0.00000E+00
    0.84767E+05        -0.15593E+08         0.00000E+00
    0.00000E+00         0.00000E+00        -0.22315E+07
 
    0.50288E+07         0.13989E+06         0.00000E+00
    0.13989E+06        -0.15667E+08         0.00000E+00
    0.00000E+00         0.00000E+00        -0.21330E+07
 
    0.41925E+07         0.43462E+05         0.00000E+00
    0.43462E+05        -0.15767E+08         0.00000E+00
    0.00000E+00         0.00000E+00        -0.23148E+07
 
    0.34134E+07        -0.14716E+05         0.00000E+00
   -0.14716E+05        -0.15881E+08         0.00000E+00
    0.00000E+00         0.00000E+00        -0.24935E+07
 
    0.26785E+07        -0.19759E+05         0.00000E+00
   -0.19759E+05        -0.15986E+08         0.00000E+00
    0.00000E+00         0.00000E+00        -0.26615E+07
 
    0.19893E+07         0.34546E+05         0.00000E+00
    0.34546E+05        -0.16082E+08         0.00000E+00
    0.00000E+00         0.00000E+00        -0.28186E+07
 
    0.13409E+07         0.14897E+06         0.00000E+00
    0.14897E+06        -0.16164E+08         0.00000E+00
    0.00000E+00         0.00000E+00        -0.29645E+07
 
    0.72413E+06         0.32310E+06         0.00000E+00
    0.32310E+06        -0.16224E+08         0.00000E+00
    0.00000E+00         0.00000E+00        -0.30999E+07
 
    0.12914E+06         0.55503E+06         0.00000E+00
    0.55503E+06        -0.16256E+08         0.00000E+00
    0.00000E+00         0.00000E+00        -0.32255E+07
 
   -0.45422E+06         0.84183E+06         0.00000E+00
    0.84183E+06        -0.16256E+08         0.00000E+00
    0.00000E+00         0.00000E+00        -0.33420E+07
 
   -0.10357E+07         0.11799E+07         0.00000E+00
    0.11799E+07        -0.16216E+08         0.00000E+00
    0.00000E+00         0.00000E+00        -0.34504E+07
 
   -0.16243E+07         0.15651E+07         0.00000E+00
    0.15651E+07        -0.16132E+08         0.00000E+00
    0.00000E+00         0.00000E+00        -0.35513E+07
 
   -0.22288E+07         0.19932E+07         0.00000E+00
    0.19932E+07        -0.15999E+08         0.00000E+00
    0.00000E+00         0.00000E+00        -0.36456E+07
 
   -0.28572E+07         0.24597E+07         0.00000E+00
    0.24597E+07        -0.15812E+08         0.00000E+00
    0.00000E+00         0.00000E+00        -0.37338E+07
 
   -0.35175E+07         0.29599E+07         0.00000E+00
    0.29599E+07        -0.15565E+08         0.00000E+00
    0.00000E+00         0.00000E+00        -0.38166E+07
 
    0.47153E+07         0.67392E+05         0.00000E+00
    0.67392E+05        -0.16438E+08         0.00000E+00
    0.00000E+00         0.00000E+00        -0.24372E+07
 
    0.40867E+07         0.45380E+05         0.00000E+00
    0.45380E+05        -0.16510E+08         0.00000E+00
    0.00000E+00         0.00000E+00        -0.24847E+07
 
    0.32987E+07        -0.51758E+05         0.00000E+00
   -0.51758E+05        -0.16631E+08         0.00000E+00
    0.00000E+00         0.00000E+00        -0.26665E+07
 
    0.25659E+07        -0.10490E+06         0.00000E+00
   -0.10490E+06        -0.16758E+08         0.00000E+00
    0.00000E+00         0.00000E+00        -0.28384E+07
 
    0.18882E+07        -0.10402E+06         0.00000E+00
   -0.10402E+06        -0.16883E+08         0.00000E+00
    0.00000E+00         0.00000E+00        -0.29989E+07
 
    0.12599E+07        -0.40319E+05         0.00000E+00
   -0.40319E+05        -0.17001E+08         0.00000E+00
    0.00000E+00         0.00000E+00        -0.31482E+07
 
    0.67255E+06         0.89516E+05         0.00000E+00
    0.89516E+05        -0.17105E+08         0.00000E+00
    0.00000E+00         0.00000E+00        -0.32864E+07
 
    0.11557E+06         0.28547E+06         0.00000E+00
    0.28547E+06        -0.17188E+08         0.00000E+00
    0.00000E+00         0.00000E+00        -0.34144E+07
 
   -0.42226E+06         0.54561E+06         0.00000E+00
    0.54561E+06        -0.17242E+08         0.00000E+00
    0.00000E+00         0.00000E+00        -0.35329E+07
 
   -0.95191E+06         0.86662E+06         0.00000E+00
    0.86662E+06        -0.17263E+08         0.00000E+00
    0.00000E+00         0.00000E+00        -0.36429E+07
 
   -0.14836E+07         0.12444E+07         0.00000E+00
    0.12444E+07        -0.17243E+08         0.00000E+00
    0.00000E+00         0.00000E+00        -0.37453E+07
 
   -0.20265E+07         0.16744E+07         0.00000E+00
    0.16744E+07        -0.17177E+08         0.00000E+00
    0.00000E+00         0.00000E+00        -0.38408E+07
 
   -0.25894E+07         0.21521E+07         0.00000E+00
    0.21521E+07        -0.17061E+08         0.00000E+00
    0.00000E+00         0.00000E+00        -0.39302E+07
 
   -0.31803E+07         0.26731E+07         0.00000E+00
    0.26731E+07        -0.16890E+08         0.00000E+00
    0.00000E+00         0.00000E+00        -0.40141E+07
 
   -0.38077E+07         0.32328E+07         0.00000E+00
    0.32328E+07        -0.16658E+08         0.00000E+00
    0.00000E+00         0.00000E+00        -0.40931E+07
 
    0.38553E+07         0.21279E+05         0.00000E+00
    0.21279E+05        -0.17372E+08         0.00000E+00
    0.00000E+00         0.00000E+00        -0.27287E+07
 
    0.30584E+07        -0.57128E+05         0.00000E+00
   -0.57128E+05        -0.17447E+08         0.00000E+00
    0.00000E+00         0.00000E+00        -0.28778E+07
 
    0.23075E+07        -0.15605E+06         0.00000E+00
   -0.15605E+06        -0.17578E+08         0.00000E+00
    0.00000E+00         0.00000E+00        -0.30540E+07
 
    0.16249E+07        -0.21265E+06         0.00000E+00
   -0.21265E+06        -0.17719E+08         0.00000E+00
    0.00000E+00         0.00000E+00        -0.32189E+07
 
    0.10085E+07        -0.20937E+06         0.00000E+00
   -0.20937E+06        -0.17866E+08         0.00000E+00
    0.00000E+00         0.00000E+00        -0.33715E+07
 
    0.44702E+06        -0.13709E+06         0.00000E+00
   -0.13709E+06        -0.18008E+08         0.00000E+00
    0.00000E+00         0.00000E+00        -0.35122E+07
 
   -0.72148E+05         0.81446E+04         0.00000E+00
    0.81446E+04        -0.18137E+08         0.00000E+00
    0.00000E+00         0.00000E+00        -0.36418E+07
 
   -0.56217E+06         0.22657E+06         0.00000E+00
    0.22657E+06        -0.18244E+08         0.00000E+00
    0.00000E+00         0.00000E+00        -0.37613E+07
 
   -0.10360E+07         0.51594E+06         0.00000E+00
    0.51594E+06        -0.18323E+08         0.00000E+00
    0.00000E+00         0.00000E+00        -0.38718E+07
 
   -0.15056E+07         0.87238E+06         0.00000E+00
    0.87238E+06        -0.18366E+08         0.00000E+00
    0.00000E+00         0.00000E+00        -0.39742E+07
 
   -0.19817E+07         0.12911E+07         0.00000E+00
    0.12911E+07        -0.18366E+08         0.00000E+00
    0.00000E+00         0.00000E+00        -0.40696E+07
 
   -0.24737E+07         0.17668E+07         0.00000E+00
    0.17668E+07        -0.18320E+08         0.00000E+00
    0.00000E+00         0.00000E+00        -0.41588E+07
 
   -0.29899E+07         0.22949E+07         0.00000E+00
    0.22949E+07        -0.18223E+08         0.00000E+00
    0.00000E+00         0.00000E+00        -0.42425E+07
 
   -0.35381E+07         0.28710E+07         0.00000E+00
    0.28710E+07        -0.18069E+08         0.00000E+00
    0.00000E+00         0.00000E+00        -0.43214E+07
 
   -0.41268E+07         0.34913E+07         0.00000E+00
    0.34913E+07        -0.17853E+08         0.00000E+00
    0.00000E+00         0.00000E+00        -0.43960E+07
 
    0.27914E+07        -0.40136E+05         0.00000E+00
   -0.40136E+05        -0.18376E+08         0.00000E+00
    0.00000E+00         0.00000E+00        -0.31169E+07
 
    0.19317E+07        -0.16160E+06         0.00000E+00
   -0.16160E+06        -0.18466E+08         0.00000E+00
    0.00000E+00         0.00000E+00        -0.33068E+07
 
    0.12088E+07        -0.27543E+06         0.00000E+00
   -0.27543E+06        -0.18606E+08         0.00000E+00
    0.00000E+00         0.00000E+00        -0.34795E+07
 
    0.58278E+06        -0.34079E+06         0.00000E+00
   -0.34079E+06        -0.18768E+08         0.00000E+00
    0.00000E+00         0.00000E+00        -0.36370E+07
 
    0.35018E+05        -0.33806E+06         0.00000E+00
   -0.33806E+06        -0.18938E+08         0.00000E+00
    0.00000E+00         0.00000E+00        -0.37806E+07
 
   -0.45186E+06        -0.25810E+06         0.00000E+00
   -0.25810E+06        -0.19106E+08         0.00000E+00
    0.00000E+00         0.00000E+00        -0.39115E+07
 
   -0.89486E+06        -0.97248E+05         0.00000E+00
   -0.97248E+05        -0.19261E+08         0.00000E+00
    0.00000E+00         0.00000E+00        -0.40311E+07
 
   -0.13101E+07         0.14445E+06         0.00000E+00
    0.14445E+06        -0.19394E+08         0.00000E+00
    0.00000E+00         0.00000E+00        -0.41407E+07
 
   -0.17125E+07         0.46427E+06         0.00000E+00
    0.46427E+06        -0.19497E+08         0.00000E+00
    0.00000E+00         0.00000E+00        -0.42418E+07
 
   -0.21154E+07         0.85756E+06         0.00000E+00
    0.85756E+06        -0.19562E+08         0.00000E+00
    0.00000E+00         0.00000E+00        -0.43356E+07
 
   -0.25303E+07         0.13185E+07         0.00000E+00
    0.13185E+07        -0.19585E+08         0.00000E+00
    0.00000E+00         0.00000E+00        -0.44230E+07
 
   -0.29663E+07         0.18412E+07         0.00000E+00
    0.18412E+07        -0.19559E+08         0.00000E+00
    0.00000E+00         0.00000E+00        -0.45050E+07
 
   -0.34309E+07         0.24201E+07         0.00000E+00
    0.24201E+07        -0.19480E+08         0.00000E+00
    0.00000E+00         0.00000E+00        -0.45822E+07
 
   -0.39310E+07         0.30515E+07         0.00000E+00
    0.30515E+07        -0.19345E+08         0.00000E+00
    0.00000E+00         0.00000E+00        -0.46553E+07
 
   -0.44747E+07         0.37327E+07         0.00000E+00
    0.37327E+07        -0.19149E+08         0.00000E+00
    0.00000E+00         0.00000E+00        -0.47247E+07
 
    0.15359E+07        -0.97282E+05         0.00000E+00
   -0.97282E+05        -0.19473E+08         0.00000E+00
    0.00000E+00         0.00000E+00        -0.35875E+07
 
    0.67630E+06        -0.27276E+06         0.00000E+00
   -0.27276E+06        -0.19573E+08         0.00000E+00
    0.00000E+00         0.00000E+00        -0.37793E+07
 
   -0.57962E+04        -0.41306E+06         0.00000E+00
   -0.41306E+06        -0.19726E+08         0.00000E+00
    0.00000E+00         0.00000E+00        -0.39464E+07
 
   -0.56607E+06        -0.49137E+06         0.00000E+00
   -0.49137E+06        -0.19908E+08         0.00000E+00
    0.00000E+00         0.00000E+00        -0.40948E+07
 
   -0.10356E+07        -0.49124E+06         0.00000E+00
   -0.49124E+06        -0.20102E+08         0.00000E+00
    0.00000E+00         0.00000E+00        -0.42275E+07
 
   -0.14388E+07        -0.40441E+06         0.00000E+00
   -0.40441E+06        -0.20295E+08         0.00000E+00
    0.00000E+00         0.00000E+00        -0.43467E+07
 
   -0.17967E+07        -0.22787E+06         0.00000E+00
   -0.22787E+06        -0.20475E+08         0.00000E+00
    0.00000E+00         0.00000E+00        -0.44544E+07
 
   -0.21286E+07         0.37770E+05         0.00000E+00
    0.37770E+05        -0.20634E+08         0.00000E+00
    0.00000E+00         0.00000E+00        -0.45525E+07
 
   -0.24518E+07         0.38915E+06         0.00000E+00
    0.38915E+06        -0.20762E+08         0.00000E+00
    0.00000E+00         0.00000E+00        -0.46427E+07
 
   -0.27811E+07         0.82077E+06         0.00000E+00
    0.82077E+06        -0.20851E+08         0.00000E+00
    0.00000E+00         0.00000E+00        -0.47264E+07
 
   -0.31290E+07         0.13256E+07         0.00000E+00
    0.13256E+07        -0.20895E+08         0.00000E+00
    0.00000E+00         0.00000E+00        -0.48048E+07
 
   -0.35044E+07         0.18962E+07         0.00000E+00
    0.18962E+07        -0.20889E+08         0.00000E+00
    0.00000E+00         0.00000E+00        -0.48788E+07
 
   -0.39132E+07         0.25262E+07         0.00000E+00
    0.25262E+07        -0.20831E+08         0.00000E+00
    0.00000E+00         0.00000E+00        -0.49488E+07
 
   -0.43601E+07         0.32121E+07         0.00000E+00
    0.32121E+07        -0.20716E+08         0.00000E+00
    0.00000E+00         0.00000E+00        -0.50152E+07
 
   -0.48516E+07         0.39535E+07         0.00000E+00
    0.39535E+07        -0.20542E+08         0.00000E+00
    0.00000E+00         0.00000E+00        -0.50786E+07
 
    0.88135E+05        -0.14598E+06         0.00000E+00
   -0.14598E+06        -0.20688E+08         0.00000E+00
    0.00000E+00         0.00000E+00        -0.41199E+07
 
   -0.72386E+06        -0.39076E+06         0.00000E+00
   -0.39076E+06        -0.20784E+08         0.00000E+00
    0.00000E+00         0.00000E+00        -0.43017E+07
 
   -0.13449E+07        -0.56696E+06         0.00000E+00
   -0.56696E+06        -0.20947E+08         0.00000E+00
    0.00000E+00         0.00000E+00        -0.44583E+07
 
   -0.18260E+07        -0.66309E+06         0.00000E+00
   -0.66309E+06        -0.21145E+08         0.00000E+00
    0.00000E+00         0.00000E+00        -0.45942E+07
 
   -0.22062E+07        -0.66795E+06         0.00000E+00
   -0.66795E+06        -0.21359E+08         0.00000E+00
    0.00000E+00         0.00000E+00        -0.47131E+07
 
   -0.25154E+07        -0.57544E+06         0.00000E+00
   -0.57544E+06        -0.21575E+08         0.00000E+00
    0.00000E+00         0.00000E+00        -0.48181E+07
 
   -0.27786E+07        -0.38368E+06         0.00000E+00
   -0.38368E+06        -0.21780E+08         0.00000E+00
    0.00000E+00         0.00000E+00        -0.49116E+07
 
   -0.30181E+07        -0.94017E+05         0.00000E+00
   -0.94017E+05        -0.21963E+08         0.00000E+00
    0.00000E+00         0.00000E+00        -0.49962E+07
 
   -0.32536E+07         0.28955E+06         0.00000E+00
    0.28955E+06        -0.22115E+08         0.00000E+00
    0.00000E+00         0.00000E+00        -0.50737E+07
 
   -0.35019E+07         0.76066E+06         0.00000E+00
    0.76066E+06        -0.22228E+08         0.00000E+00
    0.00000E+00         0.00000E+00        -0.51459E+07
 
   -0.37769E+07         0.13109E+07         0.00000E+00
    0.13109E+07        -0.22294E+08         0.00000E+00
    0.00000E+00         0.00000E+00        -0.52142E+07
 
   -0.40876E+07         0.19309E+07         0.00000E+00
    0.19309E+07        -0.22309E+08         0.00000E+00
    0.00000E+00         0.00000E+00        -0.52794E+07
 
   -0.44376E+07         0.26120E+07         0.00000E+00
    0.26120E+07        -0.22271E+08         0.00000E+00
    0.00000E+00         0.00000E+00        -0.53416E+07
 
   -0.48269E+07         0.33504E+07         0.00000E+00
    0.33504E+07        -0.22178E+08         0.00000E+00
    0.00000E+00         0.00000E+00        -0.54009E+07
 
   -0.52580E+07         0.41496E+07         0.00000E+00
    0.41496E+07        -0.22028E+08         0.00000E+00
    0.00000E+00         0.00000E+00        -0.54573E+07
 
   -0.15503E+07        -0.19361E+06         0.00000E+00
   -0.19361E+06        -0.22006E+08         0.00000E+00
    0.00000E+00         0.00000E+00        -0.47112E+07
 
   -0.22822E+07        -0.51128E+06         0.00000E+00
   -0.51128E+06        -0.22104E+08         0.00000E+00
    0.00000E+00         0.00000E+00        -0.48772E+07
 
   -0.28162E+07        -0.73243E+06         0.00000E+00
   -0.73243E+06        -0.22272E+08         0.00000E+00
    0.00000E+00         0.00000E+00        -0.50176E+07
 
   -0.32016E+07        -0.85195E+06         0.00000E+00
   -0.85195E+06        -0.22481E+08         0.00000E+00
    0.00000E+00         0.00000E+00        -0.51366E+07
 
   -0.34794E+07        -0.86498E+06         0.00000E+00
   -0.86498E+06        -0.22711E+08         0.00000E+00
    0.00000E+00         0.00000E+00        -0.52381E+07
 
   -0.36834E+07        -0.76875E+06         0.00000E+00
   -0.76875E+06        -0.22945E+08         0.00000E+00
    0.00000E+00         0.00000E+00        -0.53257E+07
 
   -0.38417E+07        -0.56314E+06         0.00000E+00
   -0.56314E+06        -0.23170E+08         0.00000E+00
    0.00000E+00         0.00000E+00        -0.54023E+07
 
   -0.39791E+07        -0.25043E+06         0.00000E+00
   -0.25043E+06        -0.23375E+08         0.00000E+00
    0.00000E+00         0.00000E+00        -0.54707E+07
 
   -0.41177E+07         0.16483E+06         0.00000E+00
    0.16483E+06        -0.23550E+08         0.00000E+00
    0.00000E+00         0.00000E+00        -0.55335E+07
 
   -0.42769E+07         0.67566E+06         0.00000E+00
    0.67566E+06        -0.23686E+08         0.00000E+00
    0.00000E+00         0.00000E+00        -0.55926E+07
 
   -0.44725E+07         0.12724E+07         0.00000E+00
    0.12724E+07        -0.23776E+08         0.00000E+00
    0.00000E+00         0.00000E+00        -0.56497E+07
 
   -0.47147E+07         0.19433E+07         0.00000E+00
    0.19433E+07        -0.23814E+08         0.00000E+00
    0.00000E+00         0.00000E+00        -0.57057E+07
 
   -0.50049E+07         0.26759E+07         0.00000E+00
    0.26759E+07        -0.23797E+08         0.00000E+00
    0.00000E+00         0.00000E+00        -0.57603E+07
 
   -0.53348E+07         0.34637E+07         0.00000E+00
    0.34637E+07        -0.23727E+08         0.00000E+00
    0.00000E+00         0.00000E+00        -0.58123E+07
 
   -0.56960E+07         0.43149E+07         0.00000E+00
    0.43149E+07        -0.23608E+08         0.00000E+00
    0.00000E+00         0.00000E+00        -0.58607E+07
 
   -0.33808E+07        -0.24194E+06         0.00000E+00
   -0.24194E+06        -0.23427E+08         0.00000E+00
    0.00000E+00         0.00000E+00        -0.53616E+07
 
   -0.40039E+07        -0.63513E+06         0.00000E+00
   -0.63513E+06        -0.23527E+08         0.00000E+00
    0.00000E+00         0.00000E+00        -0.55062E+07
 
   -0.44261E+07        -0.90563E+06         0.00000E+00
   -0.90563E+06        -0.23699E+08         0.00000E+00
    0.00000E+00         0.00000E+00        -0.56250E+07
 
   -0.46966E+07        -0.10530E+07         0.00000E+00
   -0.10530E+07        -0.23915E+08         0.00000E+00
    0.00000E+00         0.00000E+00        -0.57223E+07
 
   -0.48575E+07        -0.10774E+07         0.00000E+00
   -0.10774E+07        -0.24155E+08         0.00000E+00
    0.00000E+00         0.00000E+00        -0.58024E+07
 
   -0.49444E+07        -0.98001E+06         0.00000E+00
   -0.98001E+06        -0.24400E+08         0.00000E+00
    0.00000E+00         0.00000E+00        -0.58689E+07
 
   -0.49873E+07        -0.76293E+06         0.00000E+00
   -0.76293E+06        -0.24639E+08         0.00000E+00
    0.00000E+00         0.00000E+00        -0.59253E+07
 
   -0.50127E+07        -0.42959E+06         0.00000E+00
   -0.42959E+06        -0.24861E+08         0.00000E+00
    0.00000E+00         0.00000E+00        -0.59748E+07
 
   -0.50448E+07         0.15108E+05         0.00000E+00
    0.15108E+05        -0.25056E+08         0.00000E+00
    0.00000E+00         0.00000E+00        -0.60202E+07
 
   -0.51056E+07         0.56402E+06         0.00000E+00
    0.56402E+06        -0.25216E+08         0.00000E+00
    0.00000E+00         0.00000E+00        -0.60643E+07
 
   -0.52144E+07         0.12067E+07         0.00000E+00
    0.12067E+07        -0.25331E+08         0.00000E+00
    0.00000E+00         0.00000E+00        -0.61090E+07
 
   -0.53836E+07         0.19290E+07         0.00000E+00
    0.19290E+07        -0.25395E+08         0.00000E+00
    0.00000E+00         0.00000E+00        -0.61557E+07
 
   -0.56148E+07         0.27145E+07         0.00000E+00
    0.27145E+07        -0.25405E+08         0.00000E+00
    0.00000E+00         0.00000E+00        -0.62039E+07
 
   -0.58895E+07         0.35485E+07         0.00000E+00
    0.35485E+07        -0.25363E+08         0.00000E+00
    0.00000E+00         0.00000E+00        -0.62505E+07
 
   -0.61711E+07         0.44394E+07         0.00000E+00
    0.44394E+07        -0.25282E+08         0.00000E+00
    0.00000E+00         0.00000E+00        -0.62906E+07
 
   -0.54042E+07        -0.29130E+06         0.00000E+00
   -0.29130E+06        -0.24951E+08         0.00000E+00
    0.00000E+00         0.00000E+00        -0.60711E+07
 
   -0.58906E+07        -0.76159E+06         0.00000E+00
   -0.76159E+06        -0.25052E+08         0.00000E+00
    0.00000E+00         0.00000E+00        -0.61885E+07
 
   -0.61768E+07        -0.10834E+07         0.00000E+00
   -0.10834E+07        -0.25224E+08         0.00000E+00
    0.00000E+00         0.00000E+00        -0.62802E+07
 
   -0.63130E+07        -0.12609E+07         0.00000E+00
   -0.12609E+07        -0.25442E+08         0.00000E+00
    0.00000E+00         0.00000E+00        -0.63510E+07
 
   -0.63419E+07        -0.12990E+07         0.00000E+00
   -0.12990E+07        -0.25684E+08         0.00000E+00
    0.00000E+00         0.00000E+00        -0.64052E+07
 
   -0.62998E+07        -0.12029E+07         0.00000E+00
   -0.12029E+07        -0.25933E+08         0.00000E+00
    0.00000E+00         0.00000E+00        -0.64466E+07
 
   -0.62171E+07        -0.97747E+06         0.00000E+00
   -0.97747E+06        -0.26179E+08         0.00000E+00
    0.00000E+00         0.00000E+00        -0.64791E+07
 
   -0.61209E+07        -0.62745E+06         0.00000E+00
   -0.62745E+06        -0.26410E+08         0.00000E+00
    0.00000E+00         0.00000E+00        -0.65062E+07
 
   -0.60367E+07        -0.15776E+06         0.00000E+00
   -0.15776E+06        -0.26620E+08         0.00000E+00
    0.00000E+00         0.00000E+00        -0.65313E+07
 
   -0.59896E+07         0.42479E+06         0.00000E+00
    0.42479E+06        -0.26799E+08         0.00000E+00
    0.00000E+00         0.00000E+00        -0.65577E+07
 
   -0.60029E+07         0.11096E+07         0.00000E+00
    0.11096E+07        -0.26940E+08         0.00000E+00
    0.00000E+00         0.00000E+00        -0.65885E+07
 
   -0.60941E+07         0.18802E+07         0.00000E+00
    0.18802E+07        -0.27035E+08         0.00000E+00
    0.00000E+00         0.00000E+00        -0.66258E+07
 
   -0.62659E+07         0.27151E+07         0.00000E+00
    0.27151E+07        -0.27084E+08         0.00000E+00
    0.00000E+00         0.00000E+00        -0.66699E+07
 
   -0.64998E+07         0.35943E+07         0.00000E+00
    0.35943E+07        -0.27089E+08         0.00000E+00
    0.00000E+00         0.00000E+00        -0.67178E+07
 
   -0.66987E+07         0.45014E+07         0.00000E+00
    0.45014E+07        -0.27078E+08         0.00000E+00
    0.00000E+00         0.00000E+00        -0.67554E+07
 
   -0.76200E+07        -0.34122E+06         0.00000E+00
   -0.34122E+06        -0.26575E+08         0.00000E+00
    0.00000E+00         0.00000E+00        -0.68390E+07
 
   -0.79411E+07        -0.88878E+06         0.00000E+00
   -0.88878E+06        -0.26675E+08         0.00000E+00
    0.00000E+00         0.00000E+00        -0.69232E+07
 
   -0.80672E+07        -0.12616E+07         0.00000E+00
   -0.12616E+07        -0.26844E+08         0.00000E+00
    0.00000E+00         0.00000E+00        -0.69823E+07
 
   -0.80497E+07        -0.14692E+07         0.00000E+00
   -0.14692E+07        -0.27057E+08         0.00000E+00
    0.00000E+00         0.00000E+00        -0.70214E+07
 
   -0.79321E+07        -0.15216E+07         0.00000E+00
   -0.15216E+07        -0.27292E+08         0.00000E+00
    0.00000E+00         0.00000E+00        -0.70449E+07
 
   -0.77498E+07        -0.14285E+07         0.00000E+00
   -0.14285E+07        -0.27535E+08         0.00000E+00
    0.00000E+00         0.00000E+00        -0.70570E+07
 
   -0.75326E+07        -0.11982E+07         0.00000E+00
   -0.11982E+07        -0.27775E+08         0.00000E+00
    0.00000E+00         0.00000E+00        -0.70615E+07
 
   -0.73065E+07        -0.83661E+06         0.00000E+00
   -0.83661E+06        -0.28005E+08         0.00000E+00
    0.00000E+00         0.00000E+00        -0.70624E+07
 
   -0.70971E+07        -0.34867E+06         0.00000E+00
   -0.34867E+06        -0.28220E+08         0.00000E+00
    0.00000E+00         0.00000E+00        -0.70634E+07
 
   -0.69326E+07         0.26041E+06         0.00000E+00
    0.26041E+06        -0.28412E+08         0.00000E+00
    0.00000E+00         0.00000E+00        -0.70689E+07
 
   -0.68416E+07         0.97938E+06         0.00000E+00
    0.97938E+06        -0.28573E+08         0.00000E+00
    0.00000E+00         0.00000E+00        -0.70829E+07
 
   -0.68512E+07         0.17901E+07         0.00000E+00
    0.17901E+07        -0.28699E+08         0.00000E+00
    0.00000E+00         0.00000E+00        -0.71101E+07
 
   -0.69711E+07         0.26594E+07         0.00000E+00
    0.26594E+07        -0.28790E+08         0.00000E+00
    0.00000E+00         0.00000E+00        -0.71522E+07
 
   -0.71543E+07         0.35569E+07         0.00000E+00
    0.35569E+07        -0.28891E+08         0.00000E+00
    0.00000E+00         0.00000E+00        -0.72090E+07
 
   -0.73861E+07         0.44292E+07         0.00000E+00
    0.44292E+07        -0.29003E+08         0.00000E+00
    0.00000E+00         0.00000E+00        -0.73812E+07
 
   -0.10025E+08        -0.39082E+06         0.00000E+00
   -0.39082E+06        -0.28296E+08         0.00000E+00
    0.00000E+00         0.00000E+00        -0.76641E+07
 
   -0.10151E+08        -0.10139E+07         0.00000E+00
   -0.10139E+07        -0.28392E+08         0.00000E+00
    0.00000E+00         0.00000E+00        -0.77085E+07
 
   -0.10092E+08        -0.14352E+07         0.00000E+00
   -0.14352E+07        -0.28553E+08         0.00000E+00
    0.00000E+00         0.00000E+00        -0.77292E+07
 
   -0.99024E+07        -0.16704E+07         0.00000E+00
   -0.16704E+07        -0.28753E+08         0.00000E+00
    0.00000E+00         0.00000E+00        -0.77311E+07
 
   -0.96245E+07        -0.17355E+07         0.00000E+00
   -0.17355E+07        -0.28971E+08         0.00000E+00
    0.00000E+00         0.00000E+00        -0.77192E+07
 
   -0.92929E+07        -0.16455E+07         0.00000E+00
   -0.16455E+07        -0.29195E+08         0.00000E+00
    0.00000E+00         0.00000E+00        -0.76975E+07
 
   -0.89347E+07        -0.14128E+07         0.00000E+00
   -0.14128E+07        -0.29415E+08         0.00000E+00
    0.00000E+00         0.00000E+00        -0.76700E+07
 
   -0.85726E+07        -0.10452E+07         0.00000E+00
   -0.10452E+07        -0.29629E+08         0.00000E+00
    0.00000E+00         0.00000E+00        -0.76404E+07
 
   -0.82311E+07        -0.54678E+06         0.00000E+00
   -0.54678E+06        -0.29834E+08         0.00000E+00
    0.00000E+00         0.00000E+00        -0.76130E+07
 
   -0.79387E+07         0.78911E+05         0.00000E+00
    0.78911E+05        -0.30023E+08         0.00000E+00
    0.00000E+00         0.00000E+00        -0.75924E+07
 
   -0.77388E+07         0.82515E+06         0.00000E+00
    0.82515E+06        -0.30191E+08         0.00000E+00
    0.00000E+00         0.00000E+00        -0.75860E+07
 
   -0.76571E+07         0.16592E+07         0.00000E+00
    0.16592E+07        -0.30332E+08         0.00000E+00
    0.00000E+00         0.00000E+00        -0.75978E+07
 
   -0.77169E+07         0.25466E+07         0.00000E+00
    0.25466E+07        -0.30485E+08         0.00000E+00
    0.00000E+00         0.00000E+00        -0.77005E+07
 
   -0.79245E+07         0.34473E+07         0.00000E+00
    0.34473E+07        -0.30588E+08         0.00000E+00
    0.00000E+00         0.00000E+00        -0.79727E+07
 
   -0.83223E+07         0.42749E+07         0.00000E+00
    0.42749E+07        -0.30698E+08         0.00000E+00
    0.00000E+00         0.00000E+00        -0.83680E+07
 
   -0.12611E+08        -0.43901E+06         0.00000E+00
   -0.43901E+06        -0.30108E+08         0.00000E+00
    0.00000E+00         0.00000E+00        -0.85439E+07
 
   -0.12511E+08        -0.11334E+07         0.00000E+00
   -0.11334E+07        -0.30198E+08         0.00000E+00
    0.00000E+00         0.00000E+00        -0.85419E+07
 
   -0.12243E+08        -0.15981E+07         0.00000E+00
   -0.15981E+07        -0.30346E+08         0.00000E+00
    0.00000E+00         0.00000E+00        -0.85178E+07
 
   -0.11862E+08        -0.18554E+07         0.00000E+00
   -0.18554E+07        -0.30524E+08         0.00000E+00
    0.00000E+00         0.00000E+00        -0.84773E+07
 
   -0.11412E+08        -0.19287E+07         0.00000E+00
   -0.19287E+07        -0.30713E+08         0.00000E+00
    0.00000E+00         0.00000E+00        -0.84251E+07
 
   -0.10924E+08        -0.18395E+07         0.00000E+00
   -0.18395E+07        -0.30902E+08         0.00000E+00
    0.00000E+00         0.00000E+00        -0.83654E+07
 
   -0.10422E+08        -0.16051E+07         0.00000E+00
   -0.16051E+07        -0.31086E+08         0.00000E+00
    0.00000E+00         0.00000E+00        -0.83016E+07
 
   -0.99217E+07        -0.12363E+07         0.00000E+00
   -0.12363E+07        -0.31264E+08         0.00000E+00
    0.00000E+00         0.00000E+00        -0.82372E+07
 
   -0.94416E+07        -0.73559E+06         0.00000E+00
   -0.73559E+06        -0.31439E+08         0.00000E+00
    0.00000E+00         0.00000E+00        -0.81760E+07
 
   -0.90160E+07        -0.99394E+05         0.00000E+00
   -0.99394E+05        -0.31605E+08         0.00000E+00
    0.00000E+00         0.00000E+00        -0.81241E+07
 
   -0.86787E+07         0.66349E+06         0.00000E+00
    0.66349E+06        -0.31752E+08         0.00000E+00
    0.00000E+00         0.00000E+00        -0.80860E+07
 
   -0.85149E+07         0.15196E+07         0.00000E+00
    0.15196E+07        -0.31896E+08         0.00000E+00
    0.00000E+00         0.00000E+00        -0.81947E+07
 
   -0.85816E+07         0.24131E+07         0.00000E+00
    0.24131E+07        -0.32005E+08         0.00000E+00
    0.00000E+00         0.00000E+00        -0.85555E+07
 
   -0.88222E+07         0.33006E+07         0.00000E+00
    0.33006E+07        -0.32138E+08         0.00000E+00
    0.00000E+00         0.00000E+00        -0.89898E+07
 
   -0.92557E+07         0.41638E+07         0.00000E+00
    0.41638E+07        -0.32266E+08         0.00000E+00
    0.00000E+00         0.00000E+00        -0.93610E+07
 
   -0.15369E+08        -0.48469E+06         0.00000E+00
   -0.48469E+06        -0.32006E+08         0.00000E+00
    0.00000E+00         0.00000E+00        -0.94750E+07
 
   -0.15010E+08        -0.12438E+07         0.00000E+00
   -0.12438E+07        -0.32087E+08         0.00000E+00
    0.00000E+00         0.00000E+00        -0.94193E+07
 
   -0.14507E+08        -0.17434E+07         0.00000E+00
   -0.17434E+07        -0.32215E+08         0.00000E+00
    0.00000E+00         0.00000E+00        -0.93443E+07
 
   -0.13917E+08        -0.20143E+07         0.00000E+00
   -0.20143E+07        -0.32362E+08         0.00000E+00
    0.00000E+00         0.00000E+00        -0.92558E+07
 
   -0.13283E+08        -0.20882E+07         0.00000E+00
   -0.20882E+07        -0.32510E+08         0.00000E+00
    0.00000E+00         0.00000E+00        -0.91587E+07
 
   -0.12636E+08        -0.19944E+07         0.00000E+00
   -0.19944E+07        -0.32649E+08         0.00000E+00
    0.00000E+00         0.00000E+00        -0.90569E+07
 
   -0.11990E+08        -0.17563E+07         0.00000E+00
   -0.17563E+07        -0.32777E+08         0.00000E+00
    0.00000E+00         0.00000E+00        -0.89535E+07
 
   -0.11354E+08        -0.13884E+07         0.00000E+00
   -0.13884E+07        -0.32899E+08         0.00000E+00
    0.00000E+00         0.00000E+00        -0.88505E+07
 
   -0.10733E+08        -0.89268E+06         0.00000E+00
   -0.89268E+06        -0.33019E+08         0.00000E+00
    0.00000E+00         0.00000E+00        -0.87503E+07
 
   -0.10151E+08        -0.25213E+06         0.00000E+00
   -0.25213E+06        -0.33136E+08         0.00000E+00
    0.00000E+00         0.00000E+00        -0.86574E+07
 
   -0.96723E+07         0.52838E+06         0.00000E+00
    0.52838E+06        -0.33244E+08         0.00000E+00
    0.00000E+00         0.00000E+00        -0.86656E+07
 
   -0.95038E+07         0.13687E+07         0.00000E+00
    0.13687E+07        -0.33359E+08         0.00000E+00
    0.00000E+00         0.00000E+00        -0.90291E+07
 
   -0.95255E+07         0.22427E+07         0.00000E+00
    0.22427E+07        -0.33510E+08         0.00000E+00
    0.00000E+00         0.00000E+00        -0.95018E+07
 
   -0.97578E+07         0.31494E+07         0.00000E+00
    0.31494E+07        -0.33671E+08         0.00000E+00
    0.00000E+00         0.00000E+00        -0.99521E+07
 
   -0.10200E+08         0.40727E+07         0.00000E+00
    0.40727E+07        -0.33795E+08         0.00000E+00
    0.00000E+00         0.00000E+00        -0.10316E+08
 
   -0.18282E+08        -0.52691E+06         0.00000E+00
   -0.52691E+06        -0.33981E+08         0.00000E+00
    0.00000E+00         0.00000E+00        -0.10453E+08
 
   -0.17629E+08        -0.13413E+07         0.00000E+00
   -0.13413E+07        -0.34050E+08         0.00000E+00
    0.00000E+00         0.00000E+00        -0.10336E+08
 
   -0.16864E+08        -0.18640E+07         0.00000E+00
   -0.18640E+07        -0.34152E+08         0.00000E+00
    0.00000E+00         0.00000E+00        -0.10203E+08
 
   -0.16047E+08        -0.21361E+07         0.00000E+00
   -0.21361E+07        -0.34258E+08         0.00000E+00
    0.00000E+00         0.00000E+00        -0.10061E+08
 
   -0.15223E+08        -0.22001E+07         0.00000E+00
   -0.22001E+07        -0.34351E+08         0.00000E+00
    0.00000E+00         0.00000E+00        -0.99148E+07
 
   -0.14414E+08        -0.20941E+07         0.00000E+00
   -0.20941E+07        -0.34425E+08         0.00000E+00
    0.00000E+00         0.00000E+00        -0.97679E+07
 
   -0.13630E+08        -0.18479E+07         0.00000E+00
   -0.18479E+07        -0.34482E+08         0.00000E+00
    0.00000E+00         0.00000E+00        -0.96223E+07
 
   -0.12865E+08        -0.14804E+07         0.00000E+00
   -0.14804E+07        -0.34529E+08         0.00000E+00
    0.00000E+00         0.00000E+00        -0.94786E+07
 
   -0.12107E+08        -0.99354E+06         0.00000E+00
   -0.99354E+06        -0.34576E+08         0.00000E+00
    0.00000E+00         0.00000E+00        -0.93364E+07
 
   -0.11341E+08        -0.35933E+06         0.00000E+00
   -0.35933E+06        -0.34629E+08         0.00000E+00
    0.00000E+00         0.00000E+00        -0.92050E+07
 
   -0.10803E+08         0.38939E+06         0.00000E+00
    0.38939E+06        -0.34709E+08         0.00000E+00
    0.00000E+00         0.00000E+00        -0.93829E+07
 
   -0.10573E+08         0.11896E+07         0.00000E+00
    0.11896E+07        -0.34840E+08         0.00000E+00
    0.00000E+00         0.00000E+00        -0.98662E+07
 
   -0.10537E+08         0.20584E+07         0.00000E+00
    0.20584E+07        -0.35007E+08         0.00000E+00
    0.00000E+00         0.00000E+00        -0.10376E+08
 
   -0.10724E+08         0.29926E+07         0.00000E+00
    0.29926E+07        -0.35176E+08         0.00000E+00
    0.00000E+00         0.00000E+00        -0.10854E+08
 
   -0.11153E+08         0.39748E+07         0.00000E+00
    0.39748E+07        -0.35313E+08         0.00000E+00
    0.00000E+00         0.00000E+00        -0.11251E+08
 
   -0.21333E+08        -0.56484E+06         0.00000E+00
   -0.56484E+06        -0.36024E+08         0.00000E+00
    0.00000E+00         0.00000E+00        -0.11471E+08
 
   -0.20347E+08        -0.14216E+07         0.00000E+00
   -0.14216E+07        -0.36078E+08         0.00000E+00
    0.00000E+00         0.00000E+00        -0.11285E+08
 
   -0.19291E+08        -0.19512E+07         0.00000E+00
   -0.19512E+07        -0.36147E+08         0.00000E+00
    0.00000E+00         0.00000E+00        -0.11087E+08
 
   -0.18232E+08        -0.22088E+07         0.00000E+00
   -0.22088E+07        -0.36199E+08         0.00000E+00
    0.00000E+00         0.00000E+00        -0.10886E+08
 
   -0.17212E+08        -0.22504E+07         0.00000E+00
   -0.22504E+07        -0.36223E+08         0.00000E+00
    0.00000E+00         0.00000E+00        -0.10687E+08
 
   -0.16246E+08        -0.21238E+07         0.00000E+00
   -0.21238E+07        -0.36218E+08         0.00000E+00
    0.00000E+00         0.00000E+00        -0.10493E+08
 
   -0.15331E+08        -0.18654E+07         0.00000E+00
   -0.18654E+07        -0.36190E+08         0.00000E+00
    0.00000E+00         0.00000E+00        -0.10304E+08
 
   -0.14449E+08        -0.14981E+07         0.00000E+00
   -0.14981E+07        -0.36153E+08         0.00000E+00
    0.00000E+00         0.00000E+00        -0.10120E+08
 
   -0.13565E+08        -0.10279E+07         0.00000E+00
   -0.10279E+07        -0.36121E+08         0.00000E+00
    0.00000E+00         0.00000E+00        -0.99370E+07
 
   -0.12642E+08        -0.43878E+06         0.00000E+00
   -0.43878E+06        -0.36117E+08         0.00000E+00
    0.00000E+00         0.00000E+00        -0.97862E+07
 
   -0.12056E+08         0.24298E+06         0.00000E+00
    0.24298E+06        -0.36179E+08         0.00000E+00
    0.00000E+00         0.00000E+00        -0.10095E+08
 
   -0.11731E+08         0.10053E+07         0.00000E+00
    0.10053E+07        -0.36306E+08         0.00000E+00
    0.00000E+00         0.00000E+00        -0.10615E+08
 
   -0.11608E+08         0.18648E+07         0.00000E+00
    0.18648E+07        -0.36476E+08         0.00000E+00
    0.00000E+00         0.00000E+00        -0.11162E+08
 
   -0.11721E+08         0.28189E+07         0.00000E+00
    0.28189E+07        -0.36660E+08         0.00000E+00
    0.00000E+00         0.00000E+00        -0.11698E+08
 
   -0.12110E+08         0.38533E+07         0.00000E+00
    0.38533E+07        -0.36825E+08         0.00000E+00
    0.00000E+00         0.00000E+00        -0.12163E+08
 
   -0.24499E+08        -0.59768E+06         0.00000E+00
   -0.59768E+06        -0.38123E+08         0.00000E+00
    0.00000E+00         0.00000E+00        -0.12524E+08
 
   -0.23134E+08        -0.14794E+07         0.00000E+00
   -0.14794E+07        -0.38158E+08         0.00000E+00
    0.00000E+00         0.00000E+00        -0.12258E+08
 
   -0.21758E+08        -0.19938E+07         0.00000E+00
   -0.19938E+07        -0.38183E+08         0.00000E+00
    0.00000E+00         0.00000E+00        -0.11988E+08
 
   -0.20445E+08        -0.22173E+07         0.00000E+00
   -0.22173E+07        -0.38166E+08         0.00000E+00
    0.00000E+00         0.00000E+00        -0.11722E+08
 
   -0.19230E+08        -0.22235E+07         0.00000E+00
   -0.22235E+07        -0.38104E+08         0.00000E+00
    0.00000E+00         0.00000E+00        -0.11467E+08
 
   -0.18115E+08        -0.20710E+07         0.00000E+00
   -0.20710E+07        -0.38006E+08         0.00000E+00
    0.00000E+00         0.00000E+00        -0.11224E+08
 
   -0.17084E+08        -0.18006E+07         0.00000E+00
   -0.18006E+07        -0.37886E+08         0.00000E+00
    0.00000E+00         0.00000E+00        -0.10994E+08
 
   -0.16103E+08        -0.14378E+07         0.00000E+00
   -0.14378E+07        -0.37763E+08         0.00000E+00
    0.00000E+00         0.00000E+00        -0.10773E+08
 
   -0.15122E+08        -0.99766E+06         0.00000E+00
   -0.99766E+06        -0.37656E+08         0.00000E+00
    0.00000E+00         0.00000E+00        -0.10556E+08
 
   -0.14099E+08        -0.49030E+06         0.00000E+00
   -0.49030E+06        -0.37602E+08         0.00000E+00
    0.00000E+00         0.00000E+00        -0.10379E+08
 
   -0.13420E+08         0.11090E+06         0.00000E+00
    0.11090E+06        -0.37624E+08         0.00000E+00
    0.00000E+00         0.00000E+00        -0.10706E+08
 
   -0.12983E+08         0.82453E+06         0.00000E+00
    0.82453E+06        -0.37735E+08         0.00000E+00
    0.00000E+00         0.00000E+00        -0.11250E+08
 
   -0.12747E+08         0.16580E+07         0.00000E+00
    0.16580E+07        -0.37910E+08         0.00000E+00
    0.00000E+00         0.00000E+00        -0.11852E+08
 
   -0.12751E+08         0.26153E+07         0.00000E+00
    0.26153E+07        -0.38118E+08         0.00000E+00
    0.00000E+00         0.00000E+00        -0.12472E+08
 
   -0.13068E+08         0.36857E+07         0.00000E+00
    0.36857E+07        -0.38328E+08         0.00000E+00
    0.00000E+00         0.00000E+00        -0.13038E+08
 
   -0.27751E+08        -0.62424E+06         0.00000E+00
   -0.62424E+06        -0.40264E+08         0.00000E+00
    0.00000E+00         0.00000E+00        -0.13603E+08
 
   -0.25952E+08        -0.15057E+07         0.00000E+00
   -0.15057E+07        -0.40274E+08         0.00000E+00
    0.00000E+00         0.00000E+00        -0.13245E+08
 
   -0.24227E+08        -0.19744E+07         0.00000E+00
   -0.19744E+07        -0.40237E+08         0.00000E+00
    0.00000E+00         0.00000E+00        -0.12893E+08
 
   -0.22657E+08        -0.21409E+07         0.00000E+00
   -0.21409E+07        -0.40128E+08         0.00000E+00
    0.00000E+00         0.00000E+00        -0.12557E+08
 
   -0.21259E+08        -0.21016E+07         0.00000E+00
   -0.21016E+07        -0.39959E+08         0.00000E+00
    0.00000E+00         0.00000E+00        -0.12244E+08
 
   -0.20014E+08        -0.19242E+07         0.00000E+00
   -0.19242E+07        -0.39752E+08         0.00000E+00
    0.00000E+00         0.00000E+00        -0.11953E+08
 
   -0.18885E+08        -0.16504E+07         0.00000E+00
   -0.16504E+07        -0.39536E+08         0.00000E+00
    0.00000E+00         0.00000E+00        -0.11684E+08
 
   -0.17827E+08        -0.13047E+07         0.00000E+00
   -0.13047E+07        -0.39331E+08         0.00000E+00
    0.00000E+00         0.00000E+00        -0.11432E+08
 
   -0.16791E+08        -0.90726E+06         0.00000E+00
   -0.90726E+06        -0.39160E+08         0.00000E+00
    0.00000E+00         0.00000E+00        -0.11190E+08
 
   -0.15724E+08        -0.48882E+06         0.00000E+00
   -0.48882E+06        -0.39051E+08         0.00000E+00
    0.00000E+00         0.00000E+00        -0.10975E+08
 
   -0.14904E+08         0.83264E+04         0.00000E+00
    0.83264E+04        -0.39016E+08         0.00000E+00
    0.00000E+00         0.00000E+00        -0.11191E+08
 
   -0.14345E+08         0.64420E+06         0.00000E+00
    0.64420E+06        -0.39107E+08         0.00000E+00
    0.00000E+00         0.00000E+00        -0.11750E+08
 
   -0.13967E+08         0.14272E+07         0.00000E+00
    0.14272E+07        -0.39292E+08         0.00000E+00
    0.00000E+00         0.00000E+00        -0.12418E+08
 
   -0.13831E+08         0.23660E+07         0.00000E+00
    0.23660E+07        -0.39543E+08         0.00000E+00
    0.00000E+00         0.00000E+00        -0.13155E+08
 
   -0.14027E+08         0.34585E+07         0.00000E+00
    0.34585E+07        -0.39813E+08         0.00000E+00
    0.00000E+00         0.00000E+00        -0.13866E+08
 
   -0.31052E+08        -0.64199E+06         0.00000E+00
   -0.64199E+06        -0.42432E+08         0.00000E+00
    0.00000E+00         0.00000E+00        -0.14697E+08
 
   -0.28749E+08        -0.14829E+07         0.00000E+00
   -0.14829E+07        -0.42402E+08         0.00000E+00
    0.00000E+00         0.00000E+00        -0.14230E+08
 
   -0.26653E+08        -0.18632E+07         0.00000E+00
   -0.18632E+07        -0.42272E+08         0.00000E+00
    0.00000E+00         0.00000E+00        -0.13785E+08
 
   -0.24840E+08        -0.19494E+07         0.00000E+00
   -0.19494E+07        -0.42034E+08         0.00000E+00
    0.00000E+00         0.00000E+00        -0.13375E+08
 
   -0.23288E+08        -0.18631E+07         0.00000E+00
   -0.18631E+07        -0.41730E+08         0.00000E+00
    0.00000E+00         0.00000E+00        -0.13004E+08
 
   -0.21941E+08        -0.16728E+07         0.00000E+00
   -0.16728E+07        -0.41403E+08         0.00000E+00
    0.00000E+00         0.00000E+00        -0.12669E+08
 
   -0.20740E+08        -0.14140E+07         0.00000E+00
   -0.14140E+07        -0.41087E+08         0.00000E+00
    0.00000E+00         0.00000E+00        -0.12365E+08
 
   -0.19630E+08        -0.11064E+07         0.00000E+00
   -0.11064E+07        -0.40808E+08         0.00000E+00
    0.00000E+00         0.00000E+00        -0.12087E+08
 
   -0.18564E+08        -0.76685E+06         0.00000E+00
   -0.76685E+06        -0.40583E+08         0.00000E+00
    0.00000E+00         0.00000E+00        -0.11830E+08
 
   -0.17514E+08        -0.42464E+06         0.00000E+00
   -0.42464E+06        -0.40428E+08         0.00000E+00
    0.00000E+00         0.00000E+00        -0.11588E+08
 
   -0.16536E+08        -0.49581E+05         0.00000E+00
   -0.49581E+05        -0.40364E+08         0.00000E+00
    0.00000E+00         0.00000E+00        -0.11566E+08
 
   -0.15841E+08         0.47080E+06         0.00000E+00
    0.47080E+06        -0.40397E+08         0.00000E+00
    0.00000E+00         0.00000E+00        -0.12091E+08
 
   -0.15292E+08         0.11597E+07         0.00000E+00
    0.11597E+07        -0.40594E+08         0.00000E+00
    0.00000E+00         0.00000E+00        -0.12823E+08
 
   -0.14970E+08         0.20478E+07         0.00000E+00
    0.20478E+07        -0.40906E+08         0.00000E+00
    0.00000E+00         0.00000E+00        -0.13705E+08
 
   -0.14982E+08         0.31471E+07         0.00000E+00
    0.31471E+07        -0.41272E+08         0.00000E+00
    0.00000E+00         0.00000E+00        -0.14634E+08
 
   -0.34349E+08        -0.64416E+06         0.00000E+00
   -0.64416E+06        -0.44606E+08         0.00000E+00
    0.00000E+00         0.00000E+00        -0.15791E+08
 
   -0.31450E+08        -0.13726E+07         0.00000E+00
   -0.13726E+07        -0.44503E+08         0.00000E+00
    0.00000E+00         0.00000E+00        -0.15191E+08
 
   -0.28987E+08        -0.16082E+07         0.00000E+00
   -0.16082E+07        -0.44216E+08         0.00000E+00
    0.00000E+00         0.00000E+00        -0.14641E+08
 
   -0.26977E+08        -0.16042E+07         0.00000E+00
   -0.16042E+07        -0.43800E+08         0.00000E+00
    0.00000E+00         0.00000E+00        -0.14155E+08
 
   -0.25318E+08        -0.14881E+07         0.00000E+00
   -0.14881E+07        -0.43338E+08         0.00000E+00
    0.00000E+00         0.00000E+00        -0.13731E+08
 
   -0.23906E+08        -0.13103E+07         0.00000E+00
   -0.13103E+07        -0.42885E+08         0.00000E+00
    0.00000E+00         0.00000E+00        -0.13358E+08
 
   -0.22661E+08        -0.10932E+07         0.00000E+00
   -0.10932E+07        -0.42474E+08         0.00000E+00
    0.00000E+00         0.00000E+00        -0.13027E+08
 
   -0.21522E+08        -0.84860E+06         0.00000E+00
   -0.84860E+06        -0.42128E+08         0.00000E+00
    0.00000E+00         0.00000E+00        -0.12730E+08
 
   -0.20444E+08        -0.58703E+06         0.00000E+00
   -0.58703E+06        -0.41860E+08         0.00000E+00
    0.00000E+00         0.00000E+00        -0.12461E+08
 
   -0.19409E+08        -0.31782E+06         0.00000E+00
   -0.31782E+06        -0.41674E+08         0.00000E+00
    0.00000E+00         0.00000E+00        -0.12216E+08
 
   -0.18376E+08        -0.47457E+05         0.00000E+00
   -0.47457E+05        -0.41602E+08         0.00000E+00
    0.00000E+00         0.00000E+00        -0.12004E+08
 
   -0.17502E+08         0.31421E+06         0.00000E+00
    0.31421E+06        -0.41595E+08         0.00000E+00
    0.00000E+00         0.00000E+00        -0.12277E+08
 
   -0.16767E+08         0.85101E+06         0.00000E+00
    0.85101E+06        -0.41781E+08         0.00000E+00
    0.00000E+00         0.00000E+00        -0.13024E+08
 
   -0.16203E+08         0.16244E+07         0.00000E+00
    0.16244E+07        -0.42174E+08         0.00000E+00
    0.00000E+00         0.00000E+00        -0.14066E+08
 
   -0.15944E+08         0.26863E+07         0.00000E+00
    0.26863E+07        -0.42704E+08         0.00000E+00
    0.00000E+00         0.00000E+00        -0.15320E+08
 
   -0.37546E+08        -0.60604E+06         0.00000E+00
   -0.60604E+06        -0.46753E+08         0.00000E+00
    0.00000E+00         0.00000E+00        -0.16860E+08
 
   -0.33952E+08        -0.10808E+07         0.00000E+00
   -0.10808E+07        -0.46472E+08         0.00000E+00
    0.00000E+00         0.00000E+00        -0.16085E+08
 
   -0.31198E+08        -0.11349E+07         0.00000E+00
   -0.11349E+07        -0.45922E+08         0.00000E+00
    0.00000E+00         0.00000E+00        -0.15424E+08
 
   -0.29079E+08        -0.10759E+07         0.00000E+00
   -0.10759E+07        -0.45296E+08         0.00000E+00
    0.00000E+00         0.00000E+00        -0.14875E+08
 
   -0.27368E+08        -0.97141E+06         0.00000E+00
   -0.97141E+06        -0.44680E+08         0.00000E+00
    0.00000E+00         0.00000E+00        -0.14410E+08
 
   -0.25927E+08        -0.84188E+06         0.00000E+00
   -0.84188E+06        -0.44118E+08         0.00000E+00
    0.00000E+00         0.00000E+00        -0.14009E+08
 
   -0.24664E+08        -0.69570E+06         0.00000E+00
   -0.69570E+06        -0.43630E+08         0.00000E+00
    0.00000E+00         0.00000E+00        -0.13659E+08
 
   -0.23514E+08        -0.53759E+06         0.00000E+00
   -0.53759E+06        -0.43231E+08         0.00000E+00
    0.00000E+00         0.00000E+00        -0.13349E+08
 
   -0.22436E+08        -0.37165E+06         0.00000E+00
   -0.37165E+06        -0.42931E+08         0.00000E+00
    0.00000E+00         0.00000E+00        -0.13073E+08
 
   -0.21400E+08        -0.20015E+06         0.00000E+00
   -0.20015E+06        -0.42733E+08         0.00000E+00
    0.00000E+00         0.00000E+00        -0.12827E+08
 
   -0.20404E+08        -0.19818E+05         0.00000E+00
   -0.19818E+05        -0.42636E+08         0.00000E+00
    0.00000E+00         0.00000E+00        -0.12608E+08
 
   -0.19362E+08         0.19290E+06         0.00000E+00
    0.19290E+06        -0.42712E+08         0.00000E+00
    0.00000E+00         0.00000E+00        -0.12459E+08
 
   -0.18470E+08         0.52779E+06         0.00000E+00
    0.52779E+06        -0.42851E+08         0.00000E+00
    0.00000E+00         0.00000E+00        -0.13021E+08
 
   -0.17601E+08         0.10488E+07         0.00000E+00
    0.10488E+07        -0.43291E+08         0.00000E+00
    0.00000E+00         0.00000E+00        -0.14162E+08
 
   -0.16949E+08         0.19717E+07         0.00000E+00
    0.19717E+07        -0.44107E+08         0.00000E+00
    0.00000E+00         0.00000E+00        -0.15897E+08
 
   -0.40416E+08        -0.36950E+06         0.00000E+00
   -0.36950E+06        -0.48665E+08         0.00000E+00
    0.00000E+00         0.00000E+00        -0.17818E+08
 
   -0.36174E+08        -0.44118E+06         0.00000E+00
   -0.44118E+06        -0.47962E+08         0.00000E+00
    0.00000E+00         0.00000E+00        -0.16827E+08
 
   -0.33334E+08        -0.41745E+06         0.00000E+00
   -0.41745E+06        -0.47150E+08         0.00000E+00
    0.00000E+00         0.00000E+00        -0.16097E+08
 
   -0.31186E+08        -0.38266E+06         0.00000E+00
   -0.38266E+06        -0.46369E+08         0.00000E+00
    0.00000E+00         0.00000E+00        -0.15511E+08
 
   -0.29465E+08        -0.33987E+06         0.00000E+00
   -0.33987E+06        -0.45656E+08         0.00000E+00
    0.00000E+00         0.00000E+00        -0.15024E+08
 
   -0.28022E+08        -0.29202E+06         0.00000E+00
   -0.29202E+06        -0.45029E+08         0.00000E+00
    0.00000E+00         0.00000E+00        -0.14610E+08
 
   -0.26760E+08        -0.24028E+06         0.00000E+00
   -0.24028E+06        -0.44498E+08         0.00000E+00
    0.00000E+00         0.00000E+00        -0.14252E+08
 
   -0.25615E+08        -0.18556E+06         0.00000E+00
   -0.18556E+06        -0.44072E+08         0.00000E+00
    0.00000E+00         0.00000E+00        -0.13937E+08
 
   -0.24543E+08        -0.12864E+06         0.00000E+00
   -0.12864E+06        -0.43756E+08         0.00000E+00
    0.00000E+00         0.00000E+00        -0.13660E+08
 
   -0.23518E+08        -0.69962E+05         0.00000E+00
   -0.69962E+05        -0.43553E+08         0.00000E+00
    0.00000E+00         0.00000E+00        -0.13414E+08
 
   -0.22515E+08        -0.51841E+04         0.00000E+00
   -0.51841E+04        -0.43469E+08         0.00000E+00
    0.00000E+00         0.00000E+00        -0.13197E+08
 
   -0.21523E+08         0.68525E+05         0.00000E+00
    0.68525E+05        -0.43521E+08         0.00000E+00
    0.00000E+00         0.00000E+00        -0.13009E+08
 
   -0.20410E+08         0.18333E+06         0.00000E+00
    0.18333E+06        -0.43833E+08         0.00000E+00
    0.00000E+00         0.00000E+00        -0.12949E+08
 
   -0.19411E+08         0.35756E+06         0.00000E+00
    0.35756E+06        -0.44384E+08         0.00000E+00
    0.00000E+00         0.00000E+00        -0.14059E+08
 
   -0.18062E+08         0.76956E+06         0.00000E+00
    0.76956E+06        -0.45400E+08         0.00000E+00
    0.00000E+00         0.00000E+00        -0.16280E+08
 
TENSORS stresstot double 
   -0.39997E+08         0.59634E+04         0.00000E+00
    0.59634E+04        -0.59991E+08         0.00000E+00
    0.00000E+00         0.00000E+00        -0.49168E+08
 
   -0.39998E+08         0.17756E+05         0.00000E+00
    0.17756E+05        -0.59968E+08         0.00000E+00
    0.00000E+00         0.00000E+00        -0.49030E+08
 
   -0.39991E+08         0.29045E+05         0.00000E+00
    0.29045E+05        -0.59921E+08         0.00000E+00
    0.00000E+00         0.00000E+00        -0.48825E+08
 
   -0.40510E+08         0.30829E+05         0.00000E+00
    0.30829E+05        -0.59864E+08         0.00000E+00
    0.00000E+00         0.00000E+00        -0.48781E+08
 
   -0.41583E+08         0.25388E+05         0.00000E+00
    0.25388E+05        -0.59809E+08         0.00000E+00
    0.00000E+00         0.00000E+00        -0.48969E+08
 
   -0.42587E+08         0.23875E+05         0.00000E+00
    0.23875E+05        -0.59761E+08         0.00000E+00
    0.00000E+00         0.00000E+00        -0.49150E+08
 
   -0.43529E+08         0.26827E+05         0.00000E+00
    0.26827E+05        -0.59711E+08         0.00000E+00
    0.00000E+00         0.00000E+00        -0.49324E+08
 
   -0.44422E+08         0.33853E+05         0.00000E+00
    0.33853E+05        -0.59651E+08         0.00000E+00
    0.00000E+00         0.00000E+00        -0.49489E+08
 
   -0.45275E+08         0.44475E+05         0.00000E+00
    0.44475E+05        -0.59573E+08         0.00000E+00
    0.00000E+00         0.00000E+00        -0.49645E+08
 
   -0.46098E+08         0.58282E+05         0.00000E+00
    0.58282E+05        -0.59470E+08         0.00000E+00
    0.00000E+00         0.00000E+00        -0.49791E+08
 
   -0.46900E+08         0.74915E+05         0.00000E+00
    0.74915E+05        -0.59338E+08         0.00000E+00
    0.00000E+00         0.00000E+00        -0.49927E+08
 
   -0.47687E+08         0.94028E+05         0.00000E+00
    0.94028E+05        -0.59169E+08         0.00000E+00
    0.00000E+00         0.00000E+00        -0.50054E+08
 
   -0.48468E+08         0.11527E+06         0.00000E+00
    0.11527E+06        -0.58960E+08         0.00000E+00
    0.00000E+00         0.00000E+00        -0.50171E+08
 
   -0.49247E+08         0.13827E+06         0.00000E+00
    0.13827E+06        -0.58707E+08         0.00000E+00
    0.00000E+00         0.00000E+00        -0.50278E+08
 
   -0.50029E+08         0.16262E+06         0.00000E+00
    0.16262E+06        -0.58406E+08         0.00000E+00
    0.00000E+00         0.00000E+00        -0.50375E+08
 
   -0.39974E+08         0.18288E+05         0.00000E+00
    0.18288E+05        -0.59991E+08         0.00000E+00
    0.00000E+00         0.00000E+00        -0.49117E+08
 
   -0.39975E+08         0.53014E+05         0.00000E+00
    0.53014E+05        -0.59967E+08         0.00000E+00
    0.00000E+00         0.00000E+00        -0.48977E+08
 
   -0.39970E+08         0.86236E+05         0.00000E+00
    0.86236E+05        -0.59921E+08         0.00000E+00
    0.00000E+00         0.00000E+00        -0.48770E+08
 
   -0.40524E+08         0.90214E+05         0.00000E+00
    0.90214E+05        -0.59868E+08         0.00000E+00
    0.00000E+00         0.00000E+00        -0.48740E+08
 
   -0.41591E+08         0.73299E+05         0.00000E+00
    0.73299E+05        -0.59818E+08         0.00000E+00
    0.00000E+00         0.00000E+00        -0.48927E+08
 
   -0.42585E+08         0.69341E+05         0.00000E+00
    0.69341E+05        -0.59775E+08         0.00000E+00
    0.00000E+00         0.00000E+00        -0.49108E+08
 
   -0.43519E+08         0.78769E+05         0.00000E+00
    0.78769E+05        -0.59729E+08         0.00000E+00
    0.00000E+00         0.00000E+00        -0.49281E+08
 
   -0.44404E+08         0.10020E+06         0.00000E+00
    0.10020E+06        -0.59672E+08         0.00000E+00
    0.00000E+00         0.00000E+00        -0.49444E+08
 
   -0.45251E+08         0.13228E+06         0.00000E+00
    0.13228E+06        -0.59596E+08         0.00000E+00
    0.00000E+00         0.00000E+00        -0.49599E+08
 
   -0.46068E+08         0.17386E+06         0.00000E+00
    0.17386E+06        -0.59496E+08         0.00000E+00
    0.00000E+00         0.00000E+00        -0.49744E+08
 
   -0.46864E+08         0.22387E+06         0.00000E+00
    0.22387E+06        -0.59365E+08         0.00000E+00
    0.00000E+00         0.00000E+00        -0.49879E+08
 
   -0.47647E+08         0.28131E+06         0.00000E+00
    0.28131E+06        -0.59198E+08         0.00000E+00
    0.00000E+00         0.00000E+00        -0.50005E+08
 
   -0.48423E+08         0.34516E+06         0.00000E+00
    0.34516E+06        -0.58991E+08         0.00000E+00
    0.00000E+00         0.00000E+00        -0.50121E+08
 
   -0.49199E+08         0.41429E+06         0.00000E+00
    0.41429E+06        -0.58739E+08         0.00000E+00
    0.00000E+00         0.00000E+00        -0.50227E+08
 
   -0.49979E+08         0.48749E+06         0.00000E+00
    0.48749E+06        -0.58439E+08         0.00000E+00
    0.00000E+00         0.00000E+00        -0.50324E+08
 
   -0.39927E+08         0.30904E+05         0.00000E+00
    0.30904E+05        -0.59992E+08         0.00000E+00
    0.00000E+00         0.00000E+00        -0.49015E+08
 
   -0.39930E+08         0.88160E+05         0.00000E+00
    0.88160E+05        -0.59967E+08         0.00000E+00
    0.00000E+00         0.00000E+00        -0.48871E+08
 
   -0.39928E+08         0.14039E+06         0.00000E+00
    0.14039E+06        -0.59923E+08         0.00000E+00
    0.00000E+00         0.00000E+00        -0.48659E+08
 
   -0.40555E+08         0.14209E+06         0.00000E+00
    0.14209E+06        -0.59878E+08         0.00000E+00
    0.00000E+00         0.00000E+00        -0.48658E+08
 
   -0.41605E+08         0.11308E+06         0.00000E+00
    0.11308E+06        -0.59839E+08         0.00000E+00
    0.00000E+00         0.00000E+00        -0.48845E+08
 
   -0.42580E+08         0.10854E+06         0.00000E+00
    0.10854E+06        -0.59804E+08         0.00000E+00
    0.00000E+00         0.00000E+00        -0.49023E+08
 
   -0.43498E+08         0.12585E+06         0.00000E+00
    0.12585E+06        -0.59765E+08         0.00000E+00
    0.00000E+00         0.00000E+00        -0.49193E+08
 
   -0.44368E+08         0.16258E+06         0.00000E+00
    0.16258E+06        -0.59714E+08         0.00000E+00
    0.00000E+00         0.00000E+00        -0.49355E+08
 
   -0.45201E+08         0.21673E+06         0.00000E+00
    0.21673E+06        -0.59643E+08         0.00000E+00
    0.00000E+00         0.00000E+00        -0.49507E+08
 
   -0.46006E+08         0.28649E+06         0.00000E+00
    0.28649E+06        -0.59547E+08         0.00000E+00
    0.00000E+00         0.00000E+00        -0.49650E+08
 
   -0.46792E+08         0.37022E+06         0.00000E+00
    0.37022E+06        -0.59420E+08         0.00000E+00
    0.00000E+00         0.00000E+00        -0.49783E+08
 
   -0.47566E+08         0.46630E+06         0.00000E+00
    0.46630E+06        -0.59256E+08         0.00000E+00
    0.00000E+00         0.00000E+00        -0.49907E+08
 
   -0.48334E+08         0.57306E+06         0.00000E+00
    0.57306E+06        -0.59051E+08         0.00000E+00
    0.00000E+00         0.00000E+00        -0.50021E+08
 
   -0.49104E+08         0.68870E+06         0.00000E+00
    0.68870E+06        -0.58802E+08         0.00000E+00
    0.00000E+00         0.00000E+00        -0.50127E+08
 
   -0.49879E+08         0.81122E+06         0.00000E+00
    0.81122E+06        -0.58504E+08         0.00000E+00
    0.00000E+00         0.00000E+00        -0.50223E+08
 
   -0.39856E+08         0.42713E+05         0.00000E+00
    0.42713E+05        -0.59991E+08         0.00000E+00
    0.00000E+00         0.00000E+00        -0.48862E+08
 
   -0.39865E+08         0.12274E+06         0.00000E+00
    0.12274E+06        -0.59969E+08         0.00000E+00
    0.00000E+00         0.00000E+00        -0.48711E+08
 
   -0.39872E+08         0.18922E+06         0.00000E+00
    0.18922E+06        -0.59931E+08         0.00000E+00
    0.00000E+00         0.00000E+00        -0.48491E+08
 
   -0.40607E+08         0.17967E+06         0.00000E+00
    0.17967E+06        -0.59896E+08         0.00000E+00
    0.00000E+00         0.00000E+00        -0.48537E+08
 
   -0.41622E+08         0.14126E+06         0.00000E+00
    0.14126E+06        -0.59872E+08         0.00000E+00
    0.00000E+00         0.00000E+00        -0.48720E+08
 
   -0.42571E+08         0.13868E+06         0.00000E+00
    0.13868E+06        -0.59849E+08         0.00000E+00
    0.00000E+00         0.00000E+00        -0.48895E+08
 
   -0.43464E+08         0.16548E+06         0.00000E+00
    0.16548E+06        -0.59819E+08         0.00000E+00
    0.00000E+00         0.00000E+00        -0.49061E+08
 
   -0.44312E+08         0.21870E+06         0.00000E+00
    0.21870E+06        -0.59776E+08         0.00000E+00
    0.00000E+00         0.00000E+00        -0.49219E+08
 
   -0.45126E+08         0.29574E+06         0.00000E+00
    0.29574E+06        -0.59712E+08         0.00000E+00
    0.00000E+00         0.00000E+00        -0.49368E+08
 
   -0.45914E+08         0.39431E+06         0.00000E+00
    0.39431E+06        -0.59622E+08         0.00000E+00
    0.00000E+00         0.00000E+00        -0.49507E+08
 
   -0.46683E+08         0.51226E+06         0.00000E+00
    0.51226E+06        -0.59500E+08         0.00000E+00
    0.00000E+00         0.00000E+00        -0.49637E+08
 
   -0.47443E+08         0.64744E+06         0.00000E+00
    0.64744E+06        -0.59342E+08         0.00000E+00
    0.00000E+00         0.00000E+00        -0.49759E+08
 
   -0.48200E+08         0.79763E+06         0.00000E+00
    0.79763E+06        -0.59141E+08         0.00000E+00
    0.00000E+00         0.00000E+00        -0.49871E+08
 
   -0.48960E+08         0.96038E+06         0.00000E+00
    0.96038E+06        -0.58895E+08         0.00000E+00
    0.00000E+00         0.00000E+00        -0.49975E+08
 
   -0.49728E+08         0.11330E+07         0.00000E+00
    0.11330E+07        -0.58600E+08         0.00000E+00
    0.00000E+00         0.00000E+00        -0.50070E+08
 
   -0.39763E+08         0.53137E+05         0.00000E+00
    0.53137E+05        -0.59990E+08         0.00000E+00
    0.00000E+00         0.00000E+00        -0.48654E+08
 
   -0.39778E+08         0.15453E+06         0.00000E+00
    0.15453E+06        -0.59971E+08         0.00000E+00
    0.00000E+00         0.00000E+00        -0.48494E+08
 
   -0.39824E+08         0.23017E+06         0.00000E+00
    0.23017E+06        -0.59948E+08         0.00000E+00
    0.00000E+00         0.00000E+00        -0.48275E+08
 
   -0.40672E+08         0.19596E+06         0.00000E+00
    0.19596E+06        -0.59924E+08         0.00000E+00
    0.00000E+00         0.00000E+00        -0.48374E+08
 
   -0.41641E+08         0.15603E+06         0.00000E+00
    0.15603E+06        -0.59918E+08         0.00000E+00
    0.00000E+00         0.00000E+00        -0.48552E+08
 
   -0.42554E+08         0.15738E+06         0.00000E+00
    0.15738E+06        -0.59909E+08         0.00000E+00
    0.00000E+00         0.00000E+00        -0.48722E+08
 
   -0.43416E+08         0.19551E+06         0.00000E+00
    0.19551E+06        -0.59891E+08         0.00000E+00
    0.00000E+00         0.00000E+00        -0.48883E+08
 
   -0.44237E+08         0.26652E+06         0.00000E+00
    0.26652E+06        -0.59857E+08         0.00000E+00
    0.00000E+00         0.00000E+00        -0.49036E+08
 
   -0.45025E+08         0.36741E+06         0.00000E+00
    0.36741E+06        -0.59802E+08         0.00000E+00
    0.00000E+00         0.00000E+00        -0.49180E+08
 
   -0.45789E+08         0.49552E+06         0.00000E+00
    0.49552E+06        -0.59720E+08         0.00000E+00
    0.00000E+00         0.00000E+00        -0.49315E+08
 
   -0.46538E+08         0.64831E+06         0.00000E+00
    0.64831E+06        -0.59606E+08         0.00000E+00
    0.00000E+00         0.00000E+00        -0.49441E+08
 
   -0.47279E+08         0.82321E+06         0.00000E+00
    0.82321E+06        -0.59453E+08         0.00000E+00
    0.00000E+00         0.00000E+00        -0.49559E+08
 
   -0.48020E+08         0.10175E+07         0.00000E+00
    0.10175E+07        -0.59259E+08         0.00000E+00
    0.00000E+00         0.00000E+00        -0.49669E+08
 
   -0.48767E+08         0.12282E+07         0.00000E+00
    0.12282E+07        -0.59018E+08         0.00000E+00
    0.00000E+00         0.00000E+00        -0.49770E+08
 
   -0.49526E+08         0.14519E+07         0.00000E+00
    0.14519E+07        -0.58726E+08         0.00000E+00
    0.00000E+00         0.00000E+00        -0.49864E+08
 
   -0.39649E+08         0.64274E+05         0.00000E+00
    0.64274E+05        -0.59991E+08         0.00000E+00
    0.00000E+00         0.00000E+00        -0.48387E+08
 
   -0.39668E+08         0.18311E+06         0.00000E+00
    0.18311E+06        -0.59970E+08         0.00000E+00
    0.00000E+00         0.00000E+00        -0.48215E+08
 
   -0.39821E+08         0.25324E+06         0.00000E+00
    0.25324E+06        -0.59952E+08         0.00000E+00
    0.00000E+00         0.00000E+00        -0.48028E+08
 
   -0.40728E+08         0.18963E+06         0.00000E+00
    0.18963E+06        -0.59962E+08         0.00000E+00
    0.00000E+00         0.00000E+00        -0.48164E+08
 
   -0.41658E+08         0.15345E+06         0.00000E+00
    0.15345E+06        -0.59976E+08         0.00000E+00
    0.00000E+00         0.00000E+00        -0.48338E+08
 
   -0.42529E+08         0.16261E+06         0.00000E+00
    0.16261E+06        -0.59983E+08         0.00000E+00
    0.00000E+00         0.00000E+00        -0.48502E+08
 
   -0.43353E+08         0.21415E+06         0.00000E+00
    0.21415E+06        -0.59978E+08         0.00000E+00
    0.00000E+00         0.00000E+00        -0.48657E+08
 
   -0.44139E+08         0.30430E+06         0.00000E+00
    0.30430E+06        -0.59956E+08         0.00000E+00
    0.00000E+00         0.00000E+00        -0.48804E+08
 
   -0.44896E+08         0.42999E+06         0.00000E+00
    0.42999E+06        -0.59911E+08         0.00000E+00
    0.00000E+00         0.00000E+00        -0.48942E+08
 
   -0.45632E+08         0.58840E+06         0.00000E+00
    0.58840E+06        -0.59839E+08         0.00000E+00
    0.00000E+00         0.00000E+00        -0.49072E+08
 
   -0.46355E+08         0.77671E+06         0.00000E+00
    0.77671E+06        -0.59733E+08         0.00000E+00
    0.00000E+00         0.00000E+00        -0.49193E+08
 
   -0.47073E+08         0.99202E+06         0.00000E+00
    0.99202E+06        -0.59589E+08         0.00000E+00
    0.00000E+00         0.00000E+00        -0.49307E+08
 
   -0.47794E+08         0.12312E+07         0.00000E+00
    0.12312E+07        -0.59401E+08         0.00000E+00
    0.00000E+00         0.00000E+00        -0.49413E+08
 
   -0.48524E+08         0.14908E+07         0.00000E+00
    0.14908E+07        -0.59167E+08         0.00000E+00
    0.00000E+00         0.00000E+00        -0.49512E+08
 
   -0.49270E+08         0.17668E+07         0.00000E+00
    0.17668E+07        -0.58881E+08         0.00000E+00
    0.00000E+00         0.00000E+00        -0.49603E+08
 
   -0.39516E+08         0.73792E+05         0.00000E+00
    0.73792E+05        -0.59990E+08         0.00000E+00
    0.00000E+00         0.00000E+00        -0.48057E+08
 
   -0.39551E+08         0.20777E+06         0.00000E+00
    0.20777E+06        -0.59980E+08         0.00000E+00
    0.00000E+00         0.00000E+00        -0.47868E+08
 
   -0.39855E+08         0.24506E+06         0.00000E+00
    0.24506E+06        -0.59996E+08         0.00000E+00
    0.00000E+00         0.00000E+00        -0.47740E+08
 
   -0.40791E+08         0.16452E+06         0.00000E+00
    0.16452E+06        -0.60016E+08         0.00000E+00
    0.00000E+00         0.00000E+00        -0.47909E+08
 
   -0.41667E+08         0.13313E+06         0.00000E+00
    0.13313E+06        -0.60047E+08         0.00000E+00
    0.00000E+00         0.00000E+00        -0.48076E+08
 
   -0.42491E+08         0.15334E+06         0.00000E+00
    0.15334E+06        -0.60070E+08         0.00000E+00
    0.00000E+00         0.00000E+00        -0.48233E+08
 
   -0.43273E+08         0.22005E+06         0.00000E+00
    0.22005E+06        -0.60079E+08         0.00000E+00
    0.00000E+00         0.00000E+00        -0.48381E+08
 
   -0.44020E+08         0.33046E+06         0.00000E+00
    0.33046E+06        -0.60069E+08         0.00000E+00
    0.00000E+00         0.00000E+00        -0.48521E+08
 
   -0.44739E+08         0.48179E+06         0.00000E+00
    0.48179E+06        -0.60037E+08         0.00000E+00
    0.00000E+00         0.00000E+00        -0.48652E+08
 
   -0.45441E+08         0.67123E+06         0.00000E+00
    0.67123E+06        -0.59976E+08         0.00000E+00
    0.00000E+00         0.00000E+00        -0.48776E+08
 
   -0.46133E+08         0.89579E+06         0.00000E+00
    0.89579E+06        -0.59880E+08         0.00000E+00
    0.00000E+00         0.00000E+00        -0.48892E+08
 
   -0.46824E+08         0.11523E+07         0.00000E+00
    0.11523E+07        -0.59746E+08         0.00000E+00
    0.00000E+00         0.00000E+00        -0.49000E+08
 
   -0.47520E+08         0.14372E+07         0.00000E+00
    0.14372E+07        -0.59567E+08         0.00000E+00
    0.00000E+00         0.00000E+00        -0.49102E+08
 
   -0.48230E+08         0.17468E+07         0.00000E+00
    0.17468E+07        -0.59341E+08         0.00000E+00
    0.00000E+00         0.00000E+00        -0.49198E+08
 
   -0.48960E+08         0.20766E+07         0.00000E+00
    0.20766E+07        -0.59061E+08         0.00000E+00
    0.00000E+00         0.00000E+00        -0.49287E+08
 
   -0.39367E+08         0.81930E+05         0.00000E+00
    0.81930E+05        -0.59992E+08         0.00000E+00
    0.00000E+00         0.00000E+00        -0.47659E+08
 
   -0.39418E+08         0.21793E+06         0.00000E+00
    0.21793E+06        -0.59991E+08         0.00000E+00
    0.00000E+00         0.00000E+00        -0.47455E+08
 
   -0.39959E+08         0.20318E+06         0.00000E+00
    0.20318E+06        -0.60024E+08         0.00000E+00
    0.00000E+00         0.00000E+00        -0.47434E+08
 
   -0.40846E+08         0.11956E+06         0.00000E+00
    0.11956E+06        -0.60081E+08         0.00000E+00
    0.00000E+00         0.00000E+00        -0.47605E+08
 
   -0.41666E+08         0.97632E+05         0.00000E+00
    0.97632E+05        -0.60129E+08         0.00000E+00
    0.00000E+00         0.00000E+00        -0.47763E+08
 
   -0.42441E+08         0.12938E+06         0.00000E+00
    0.12938E+06        -0.60166E+08         0.00000E+00
    0.00000E+00         0.00000E+00        -0.47912E+08
 
   -0.43175E+08         0.21211E+06         0.00000E+00
    0.21211E+06        -0.60190E+08         0.00000E+00
    0.00000E+00         0.00000E+00        -0.48052E+08
 
   -0.43877E+08         0.34348E+06         0.00000E+00
    0.34348E+06        -0.60195E+08         0.00000E+00
    0.00000E+00         0.00000E+00        -0.48184E+08
 
   -0.44554E+08         0.52112E+06         0.00000E+00
    0.52112E+06        -0.60176E+08         0.00000E+00
    0.00000E+00         0.00000E+00        -0.48308E+08
 
   -0.45217E+08         0.74228E+06         0.00000E+00
    0.74228E+06        -0.60127E+08         0.00000E+00
    0.00000E+00         0.00000E+00        -0.48425E+08
 
   -0.45873E+08         0.10038E+07         0.00000E+00
    0.10038E+07        -0.60044E+08         0.00000E+00
    0.00000E+00         0.00000E+00        -0.48534E+08
 
   -0.46530E+08         0.13024E+07         0.00000E+00
    0.13024E+07        -0.59921E+08         0.00000E+00
    0.00000E+00         0.00000E+00        -0.48637E+08
 
   -0.47198E+08         0.16340E+07         0.00000E+00
    0.16340E+07        -0.59754E+08         0.00000E+00
    0.00000E+00         0.00000E+00        -0.48735E+08
 
   -0.47883E+08         0.19947E+07         0.00000E+00
    0.19947E+07        -0.59536E+08         0.00000E+00
    0.00000E+00         0.00000E+00        -0.48826E+08
 
   -0.48593E+08         0.23798E+07         0.00000E+00
    0.23798E+07        -0.59265E+08         0.00000E+00
    0.00000E+00         0.00000E+00        -0.48913E+08
 
   -0.39206E+08         0.87131E+05         0.00000E+00
    0.87131E+05        -0.59995E+08         0.00000E+00
    0.00000E+00         0.00000E+00        -0.47188E+08
 
   -0.39332E+08         0.20051E+06         0.00000E+00
    0.20051E+06        -0.60031E+08         0.00000E+00
    0.00000E+00         0.00000E+00        -0.46991E+08
 
   -0.40089E+08         0.13107E+06         0.00000E+00
    0.13107E+06        -0.60080E+08         0.00000E+00
    0.00000E+00         0.00000E+00        -0.47090E+08
 
   -0.40890E+08         0.58602E+05         0.00000E+00
    0.58602E+05        -0.60152E+08         0.00000E+00
    0.00000E+00         0.00000E+00        -0.47248E+08
 
   -0.41656E+08         0.46712E+05         0.00000E+00
    0.46712E+05        -0.60215E+08         0.00000E+00
    0.00000E+00         0.00000E+00        -0.47398E+08
 
   -0.42376E+08         0.90298E+05         0.00000E+00
    0.90298E+05        -0.60268E+08         0.00000E+00
    0.00000E+00         0.00000E+00        -0.47538E+08
 
   -0.43058E+08         0.18904E+06         0.00000E+00
    0.18904E+06        -0.60307E+08         0.00000E+00
    0.00000E+00         0.00000E+00        -0.47669E+08
 
   -0.43710E+08         0.34169E+06         0.00000E+00
    0.34169E+06        -0.60328E+08         0.00000E+00
    0.00000E+00         0.00000E+00        -0.47792E+08
 
   -0.44340E+08         0.54619E+06         0.00000E+00
    0.54619E+06        -0.60325E+08         0.00000E+00
    0.00000E+00         0.00000E+00        -0.47908E+08
 
   -0.44957E+08         0.79977E+06         0.00000E+00
    0.79977E+06        -0.60291E+08         0.00000E+00
    0.00000E+00         0.00000E+00        -0.48017E+08
 
   -0.45572E+08         0.10991E+07         0.00000E+00
    0.10991E+07        -0.60222E+08         0.00000E+00
    0.00000E+00         0.00000E+00        -0.48120E+08
 
   -0.46192E+08         0.14405E+07         0.00000E+00
    0.14405E+07        -0.60113E+08         0.00000E+00
    0.00000E+00         0.00000E+00        -0.48216E+08
 
   -0.46826E+08         0.18199E+07         0.00000E+00
    0.18199E+07        -0.59957E+08         0.00000E+00
    0.00000E+00         0.00000E+00        -0.48308E+08
 
   -0.47483E+08         0.22330E+07         0.00000E+00
    0.22330E+07        -0.59751E+08         0.00000E+00
    0.00000E+00         0.00000E+00        -0.48395E+08
 
   -0.48168E+08         0.26749E+07         0.00000E+00
    0.26749E+07        -0.59490E+08         0.00000E+00
    0.00000E+00         0.00000E+00        -0.48479E+08
 
   -0.39037E+08         0.84767E+05         0.00000E+00
    0.84767E+05        -0.60003E+08         0.00000E+00
    0.00000E+00         0.00000E+00        -0.46642E+08
 
   -0.39365E+08         0.13989E+06         0.00000E+00
    0.13989E+06        -0.60061E+08         0.00000E+00
    0.00000E+00         0.00000E+00        -0.46527E+08
 
   -0.40176E+08         0.43462E+05         0.00000E+00
    0.43462E+05        -0.60135E+08         0.00000E+00
    0.00000E+00         0.00000E+00        -0.46684E+08
 
   -0.40928E+08        -0.14716E+05         0.00000E+00
   -0.14716E+05        -0.60222E+08         0.00000E+00
    0.00000E+00         0.00000E+00        -0.46835E+08
 
   -0.41635E+08        -0.19759E+05         0.00000E+00
   -0.19759E+05        -0.60300E+08         0.00000E+00
    0.00000E+00         0.00000E+00        -0.46975E+08
 
   -0.42299E+08         0.34546E+05         0.00000E+00
    0.34546E+05        -0.60370E+08         0.00000E+00
    0.00000E+00         0.00000E+00        -0.47106E+08
 
   -0.42923E+08         0.14897E+06         0.00000E+00
    0.14897E+06        -0.60428E+08         0.00000E+00
    0.00000E+00         0.00000E+00        -0.47229E+08
 
   -0.43519E+08         0.32310E+06         0.00000E+00
    0.32310E+06        -0.60466E+08         0.00000E+00
    0.00000E+00         0.00000E+00        -0.47343E+08
 
   -0.44095E+08         0.55503E+06         0.00000E+00
    0.55503E+06        -0.60481E+08         0.00000E+00
    0.00000E+00         0.00000E+00        -0.47450E+08
 
   -0.44662E+08         0.84183E+06         0.00000E+00
    0.84183E+06        -0.60464E+08         0.00000E+00
    0.00000E+00         0.00000E+00        -0.47550E+08
 
   -0.45230E+08         0.11799E+07         0.00000E+00
    0.11799E+07        -0.60411E+08         0.00000E+00
    0.00000E+00         0.00000E+00        -0.47645E+08
 
   -0.45808E+08         0.15651E+07         0.00000E+00
    0.15651E+07        -0.60316E+08         0.00000E+00
    0.00000E+00         0.00000E+00        -0.47735E+08
 
   -0.46404E+08         0.19932E+07         0.00000E+00
    0.19932E+07        -0.60174E+08         0.00000E+00
    0.00000E+00         0.00000E+00        -0.47821E+08
 
   -0.47027E+08         0.24597E+07         0.00000E+00
    0.24597E+07        -0.59981E+08         0.00000E+00
    0.00000E+00         0.00000E+00        -0.47903E+08
 
   -0.47684E+08         0.29599E+07         0.00000E+00
    0.29599E+07        -0.59732E+08         0.00000E+00
    0.00000E+00         0.00000E+00        -0.47983E+08
 
   -0.38875E+08         0.67392E+05         0.00000E+00
    0.67392E+05        -0.60028E+08         0.00000E+00
    0.00000E+00         0.00000E+00        -0.46027E+08
 
   -0.39488E+08         0.45380E+05         0.00000E+00
    0.45380E+05        -0.60085E+08         0.00000E+00
    0.00000E+00         0.00000E+00        -0.46060E+08
 
   -0.40253E+08        -0.51758E+05         0.00000E+00
   -0.51758E+05        -0.60183E+08         0.00000E+00
    0.00000E+00         0.00000E+00        -0.46218E+08
 
   -0.40958E+08        -0.10490E+06         0.00000E+00
   -0.10490E+06        -0.60282E+08         0.00000E+00
    0.00000E+00         0.00000E+00        -0.46362E+08
 
   -0.41607E+08        -0.10402E+06         0.00000E+00
   -0.10402E+06        -0.60379E+08         0.00000E+00
    0.00000E+00         0.00000E+00        -0.46495E+08
 
   -0.42208E+08        -0.40319E+05         0.00000E+00
   -0.40319E+05        -0.60469E+08         0.00000E+00
    0.00000E+00         0.00000E+00        -0.46616E+08
 
   -0.42769E+08         0.89516E+05         0.00000E+00
    0.89516E+05        -0.60547E+08         0.00000E+00
    0.00000E+00         0.00000E+00        -0.46728E+08
 
   -0.43303E+08         0.28547E+06         0.00000E+00
    0.28547E+06        -0.60606E+08         0.00000E+00
    0.00000E+00         0.00000E+00        -0.46833E+08
 
   -0.43820E+08         0.54561E+06         0.00000E+00
    0.54561E+06        -0.60640E+08         0.00000E+00
    0.00000E+00         0.00000E+00        -0.46930E+08
 
   -0.44331E+08         0.86662E+06         0.00000E+00
    0.86662E+06        -0.60642E+08         0.00000E+00
    0.00000E+00         0.00000E+00        -0.47022E+08
 
   -0.44847E+08         0.12444E+07         0.00000E+00
    0.12444E+07        -0.60606E+08         0.00000E+00
    0.00000E+00         0.00000E+00        -0.47109E+08
 
   -0.45377E+08         0.16744E+07         0.00000E+00
    0.16744E+07        -0.60528E+08         0.00000E+00
    0.00000E+00         0.00000E+00        -0.47192E+08
 
   -0.45930E+08         0.21521E+07         0.00000E+00
    0.21521E+07        -0.60402E+08         0.00000E+00
    0.00000E+00         0.00000E+00        -0.47271E+08
 
   -0.46514E+08         0.26731E+07         0.00000E+00
    0.26731E+07        -0.60224E+08         0.00000E+00
    0.00000E+00         0.00000E+00        -0.47348E+08
 
   -0.47138E+08         0.32328E+07         0.00000E+00
    0.32328E+07        -0.59988E+08         0.00000E+00
    0.00000E+00         0.00000E+00        -0.47423E+08
 
   -0.38820E+08         0.21279E+05         0.00000E+00
    0.21279E+05        -0.60047E+08         0.00000E+00
    0.00000E+00         0.00000E+00        -0.45404E+08
 
   -0.39603E+08        -0.57128E+05         0.00000E+00
   -0.57128E+05        -0.60109E+08         0.00000E+00
    0.00000E+00         0.00000E+00        -0.45539E+08
 
   -0.40331E+08        -0.15605E+06         0.00000E+00
   -0.15605E+06        -0.60216E+08         0.00000E+00
    0.00000E+00         0.00000E+00        -0.45692E+08
 
   -0.40986E+08        -0.21265E+06         0.00000E+00
   -0.21265E+06        -0.60330E+08         0.00000E+00
    0.00000E+00         0.00000E+00        -0.45830E+08
 
   -0.41573E+08        -0.20937E+06         0.00000E+00
   -0.20937E+06        -0.60448E+08         0.00000E+00
    0.00000E+00         0.00000E+00        -0.45953E+08
 
   -0.42105E+08        -0.13709E+06         0.00000E+00
   -0.13709E+06        -0.60561E+08         0.00000E+00
    0.00000E+00         0.00000E+00        -0.46065E+08
 
   -0.42597E+08         0.81446E+04         0.00000E+00
    0.81446E+04        -0.60662E+08         0.00000E+00
    0.00000E+00         0.00000E+00        -0.46167E+08
 
   -0.43061E+08         0.22657E+06         0.00000E+00
    0.22657E+06        -0.60744E+08         0.00000E+00
    0.00000E+00         0.00000E+00        -0.46261E+08
 
   -0.43512E+08         0.51594E+06         0.00000E+00
    0.51594E+06        -0.60799E+08         0.00000E+00
    0.00000E+00         0.00000E+00        -0.46348E+08
 
   -0.43962E+08         0.87238E+06         0.00000E+00
    0.87238E+06        -0.60822E+08         0.00000E+00
    0.00000E+00         0.00000E+00        -0.46431E+08
 
   -0.44421E+08         0.12911E+07         0.00000E+00
    0.12911E+07        -0.60806E+08         0.00000E+00
    0.00000E+00         0.00000E+00        -0.46509E+08
 
   -0.44899E+08         0.17668E+07         0.00000E+00
    0.17668E+07        -0.60745E+08         0.00000E+00
    0.00000E+00         0.00000E+00        -0.46584E+08
 
   -0.45404E+08         0.22949E+07         0.00000E+00
    0.22949E+07        -0.60637E+08         0.00000E+00
    0.00000E+00         0.00000E+00        -0.46656E+08
 
   -0.45944E+08         0.28710E+07         0.00000E+00
    0.28710E+07        -0.60475E+08         0.00000E+00
    0.00000E+00         0.00000E+00        -0.46727E+08
 
   -0.46529E+08         0.34913E+07         0.00000E+00
    0.34913E+07        -0.60255E+08         0.00000E+00
    0.00000E+00         0.00000E+00        -0.46798E+08
 
   -0.38871E+08        -0.40136E+05         0.00000E+00
   -0.40136E+05        -0.60038E+08         0.00000E+00
    0.00000E+00         0.00000E+00        -0.44779E+08
 
   -0.39717E+08        -0.16160E+06         0.00000E+00
   -0.16160E+06        -0.60115E+08         0.00000E+00
    0.00000E+00         0.00000E+00        -0.44956E+08
 
   -0.40418E+08        -0.27543E+06         0.00000E+00
   -0.27543E+06        -0.60233E+08         0.00000E+00
    0.00000E+00         0.00000E+00        -0.45106E+08
 
   -0.41016E+08        -0.34079E+06         0.00000E+00
   -0.34079E+06        -0.60367E+08         0.00000E+00
    0.00000E+00         0.00000E+00        -0.45236E+08
 
   -0.41534E+08        -0.33806E+06         0.00000E+00
   -0.33806E+06        -0.60507E+08         0.00000E+00
    0.00000E+00         0.00000E+00        -0.45350E+08
 
   -0.41991E+08        -0.25810E+06         0.00000E+00
   -0.25810E+06        -0.60645E+08         0.00000E+00
    0.00000E+00         0.00000E+00        -0.45451E+08
 
   -0.42405E+08        -0.97248E+05         0.00000E+00
   -0.97248E+05        -0.60771E+08         0.00000E+00
    0.00000E+00         0.00000E+00        -0.45541E+08
 
   -0.42794E+08         0.14445E+06         0.00000E+00
    0.14445E+06        -0.60877E+08         0.00000E+00
    0.00000E+00         0.00000E+00        -0.45624E+08
 
   -0.43172E+08         0.46427E+06         0.00000E+00
    0.46427E+06        -0.60956E+08         0.00000E+00
    0.00000E+00         0.00000E+00        -0.45701E+08
 
   -0.43554E+08         0.85756E+06         0.00000E+00
    0.85756E+06        -0.61001E+08         0.00000E+00
    0.00000E+00         0.00000E+00        -0.45774E+08
 
   -0.43951E+08         0.13185E+07         0.00000E+00
    0.13185E+07        -0.61005E+08         0.00000E+00
    0.00000E+00         0.00000E+00        -0.45843E+08
 
   -0.44372E+08         0.18412E+07         0.00000E+00
    0.18412E+07        -0.60964E+08         0.00000E+00
    0.00000E+00         0.00000E+00        -0.45911E+08
 
   -0.44825E+08         0.24201E+07         0.00000E+00
    0.24201E+07        -0.60874E+08         0.00000E+00
    0.00000E+00         0.00000E+00        -0.45976E+08
 
   -0.45317E+08         0.30515E+07         0.00000E+00
    0.30515E+07        -0.60731E+08         0.00000E+00
    0.00000E+00         0.00000E+00        -0.46041E+08
 
   -0.45856E+08         0.37327E+07         0.00000E+00
    0.37327E+07        -0.60530E+08         0.00000E+00
    0.00000E+00         0.00000E+00        -0.46106E+08
 
   -0.39014E+08        -0.97282E+05         0.00000E+00
   -0.97282E+05        -0.60023E+08         0.00000E+00
    0.00000E+00         0.00000E+00        -0.44137E+08
 
   -0.39860E+08        -0.27276E+06         0.00000E+00
   -0.27276E+06        -0.60110E+08         0.00000E+00
    0.00000E+00         0.00000E+00        -0.44316E+08
 
   -0.40520E+08        -0.41306E+06         0.00000E+00
   -0.41306E+06        -0.60241E+08         0.00000E+00
    0.00000E+00         0.00000E+00        -0.44461E+08
 
   -0.41053E+08        -0.49137E+06         0.00000E+00
   -0.49137E+06        -0.60395E+08         0.00000E+00
    0.00000E+00         0.00000E+00        -0.44582E+08
 
   -0.41493E+08        -0.49124E+06         0.00000E+00
   -0.49124E+06        -0.60559E+08         0.00000E+00
    0.00000E+00         0.00000E+00        -0.44684E+08
 
   -0.41865E+08        -0.40441E+06         0.00000E+00
   -0.40441E+06        -0.60721E+08         0.00000E+00
    0.00000E+00         0.00000E+00        -0.44773E+08
 
   -0.42194E+08        -0.22787E+06         0.00000E+00
   -0.22787E+06        -0.60872E+08         0.00000E+00
    0.00000E+00         0.00000E+00        -0.44852E+08
 
   -0.42499E+08         0.37770E+05         0.00000E+00
    0.37770E+05        -0.61004E+08         0.00000E+00
    0.00000E+00         0.00000E+00        -0.44922E+08
 
   -0.42797E+08         0.38915E+06         0.00000E+00
    0.38915E+06        -0.61107E+08         0.00000E+00
    0.00000E+00         0.00000E+00        -0.44988E+08
 
   -0.43105E+08         0.82077E+06         0.00000E+00
    0.82077E+06        -0.61175E+08         0.00000E+00
    0.00000E+00         0.00000E+00        -0.45051E+08
 
   -0.43435E+08         0.13256E+07         0.00000E+00
    0.13256E+07        -0.61201E+08         0.00000E+00
    0.00000E+00         0.00000E+00        -0.45111E+08
 
   -0.43796E+08         0.18962E+07         0.00000E+00
    0.18962E+07        -0.61181E+08         0.00000E+00
    0.00000E+00         0.00000E+00        -0.45170E+08
 
   -0.44193E+08         0.25262E+07         0.00000E+00
    0.25262E+07        -0.61110E+08         0.00000E+00
    0.00000E+00         0.00000E+00        -0.45228E+08
 
   -0.44631E+08         0.32121E+07         0.00000E+00
    0.32121E+07        -0.60987E+08         0.00000E+00
    0.00000E+00         0.00000E+00        -0.45287E+08
 
   -0.45118E+08         0.39535E+07         0.00000E+00
    0.39535E+07        -0.60808E+08         0.00000E+00
    0.00000E+00         0.00000E+00        -0.45345E+08
 
   -0.39246E+08        -0.14598E+06         0.00000E+00
   -0.14598E+06        -0.60022E+08         0.00000E+00
    0.00000E+00         0.00000E+00        -0.43454E+08
 
   -0.40046E+08        -0.39076E+06         0.00000E+00
   -0.39076E+06        -0.60106E+08         0.00000E+00
    0.00000E+00         0.00000E+00        -0.43624E+08
 
   -0.40645E+08        -0.56696E+06         0.00000E+00
   -0.56696E+06        -0.60247E+08         0.00000E+00
    0.00000E+00         0.00000E+00        -0.43759E+08
 
   -0.41099E+08        -0.66309E+06         0.00000E+00
   -0.66309E+06        -0.60418E+08         0.00000E+00
    0.00000E+00         0.00000E+00        -0.43867E+08
 
   -0.41449E+08        -0.66795E+06         0.00000E+00
   -0.66795E+06        -0.60603E+08         0.00000E+00
    0.00000E+00         0.00000E+00        -0.43956E+08
 
   -0.41728E+08        -0.57544E+06         0.00000E+00
   -0.57544E+06        -0.60788E+08         0.00000E+00
    0.00000E+00         0.00000E+00        -0.44031E+08
 
   -0.41963E+08        -0.38368E+06         0.00000E+00
   -0.38368E+06        -0.60964E+08         0.00000E+00
    0.00000E+00         0.00000E+00        -0.44096E+08
 
   -0.42175E+08        -0.94017E+05         0.00000E+00
   -0.94017E+05        -0.61120E+08         0.00000E+00
    0.00000E+00         0.00000E+00        -0.44153E+08
 
   -0.42387E+08         0.28955E+06         0.00000E+00
    0.28955E+06        -0.61248E+08         0.00000E+00
    0.00000E+00         0.00000E+00        -0.44207E+08
 
   -0.42615E+08         0.76066E+06         0.00000E+00
    0.76066E+06        -0.61341E+08         0.00000E+00
    0.00000E+00         0.00000E+00        -0.44259E+08
 
   -0.42873E+08         0.13109E+07         0.00000E+00
    0.13109E+07        -0.61390E+08         0.00000E+00
    0.00000E+00         0.00000E+00        -0.44310E+08
 
   -0.43170E+08         0.19309E+07         0.00000E+00
    0.19309E+07        -0.61391E+08         0.00000E+00
    0.00000E+00         0.00000E+00        -0.44361E+08
 
   -0.43509E+08         0.26120E+07         0.00000E+00
    0.26120E+07        -0.61342E+08         0.00000E+00
    0.00000E+00         0.00000E+00        -0.44413E+08
 
   -0.43890E+08         0.33504E+07         0.00000E+00
    0.33504E+07        -0.61241E+08         0.00000E+00
    0.00000E+00         0.00000E+00        -0.44464E+08
 
   -0.44317E+08         0.41496E+07         0.00000E+00
    0.41496E+07        -0.61088E+08         0.00000E+00
    0.00000E+00         0.00000E+00        -0.44516E+08
 
   -0.39567E+08        -0.19361E+06         0.00000E+00
   -0.19361E+06        -0.60022E+08         0.00000E+00
    0.00000E+00         0.00000E+00        -0.42728E+08
 
   -0.40286E+08        -0.51128E+06         0.00000E+00
   -0.51128E+06        -0.60108E+08         0.00000E+00
    0.00000E+00         0.00000E+00        -0.42881E+08
 
   -0.40799E+08        -0.73243E+06         0.00000E+00
   -0.73243E+06        -0.60255E+08         0.00000E+00
    0.00000E+00         0.00000E+00        -0.43001E+08
 
   -0.41158E+08        -0.85195E+06         0.00000E+00
   -0.85195E+06        -0.60438E+08         0.00000E+00
    0.00000E+00         0.00000E+00        -0.43093E+08
 
   -0.41407E+08        -0.86498E+06         0.00000E+00
   -0.86498E+06        -0.60639E+08         0.00000E+00
    0.00000E+00         0.00000E+00        -0.43166E+08
 
   -0.41582E+08        -0.76875E+06         0.00000E+00
   -0.76875E+06        -0.60843E+08         0.00000E+00
    0.00000E+00         0.00000E+00        -0.43224E+08
 
   -0.41712E+08        -0.56314E+06         0.00000E+00
   -0.56314E+06        -0.61040E+08         0.00000E+00
    0.00000E+00         0.00000E+00        -0.43273E+08
 
   -0.41824E+08        -0.25043E+06         0.00000E+00
   -0.25043E+06        -0.61220E+08         0.00000E+00
    0.00000E+00         0.00000E+00        -0.43316E+08
 
   -0.41941E+08         0.16483E+06         0.00000E+00
    0.16483E+06        -0.61373E+08         0.00000E+00
    0.00000E+00         0.00000E+00        -0.43357E+08
 
   -0.42081E+08         0.67566E+06         0.00000E+00
    0.67566E+06        -0.61491E+08         0.00000E+00
    0.00000E+00         0.00000E+00        -0.43397E+08
 
   -0.42262E+08         0.12724E+07         0.00000E+00
    0.12724E+07        -0.61566E+08         0.00000E+00
    0.00000E+00         0.00000E+00        -0.43439E+08
 
   -0.42492E+08         0.19433E+07         0.00000E+00
    0.19433E+07        -0.61592E+08         0.00000E+00
    0.00000E+00         0.00000E+00        -0.43484E+08
 
   -0.42774E+08         0.26759E+07         0.00000E+00
    0.26759E+07        -0.61566E+08         0.00000E+00
    0.00000E+00         0.00000E+00        -0.43529E+08
 
   -0.43098E+08         0.34637E+07         0.00000E+00
    0.34637E+07        -0.61489E+08         0.00000E+00
    0.00000E+00         0.00000E+00        -0.43575E+08
 
   -0.43455E+08         0.43149E+07         0.00000E+00
    0.43149E+07        -0.61367E+08         0.00000E+00
    0.00000E+00         0.00000E+00        -0.43620E+08
 
   -0.39976E+08        -0.24194E+06         0.00000E+00
   -0.24194E+06        -0.60023E+08         0.00000E+00
    0.00000E+00         0.00000E+00        -0.41957E+08
 
   -0.40587E+08        -0.63513E+06         0.00000E+00
   -0.63513E+06        -0.60110E+08         0.00000E+00
    0.00000E+00         0.00000E+00        -0.42090E+08
 
   -0.40989E+08        -0.90563E+06         0.00000E+00
   -0.90563E+06        -0.60262E+08         0.00000E+00
    0.00000E+00         0.00000E+00        -0.42188E+08
 
   -0.41234E+08        -0.10530E+07         0.00000E+00
   -0.10530E+07        -0.60453E+08         0.00000E+00
    0.00000E+00         0.00000E+00        -0.42260E+08
 
   -0.41368E+08        -0.10774E+07         0.00000E+00
   -0.10774E+07        -0.60665E+08         0.00000E+00
    0.00000E+00         0.00000E+00        -0.42313E+08
 
   -0.41427E+08        -0.98001E+06         0.00000E+00
   -0.98001E+06        -0.60883E+08         0.00000E+00
    0.00000E+00         0.00000E+00        -0.42352E+08
 
   -0.41444E+08        -0.76293E+06         0.00000E+00
   -0.76293E+06        -0.61097E+08         0.00000E+00
    0.00000E+00         0.00000E+00        -0.42383E+08
 
   -0.41447E+08        -0.42959E+06         0.00000E+00
   -0.42959E+06        -0.61295E+08         0.00000E+00
    0.00000E+00         0.00000E+00        -0.42409E+08
 
   -0.41460E+08         0.15108E+05         0.00000E+00
    0.15108E+05        -0.61471E+08         0.00000E+00
    0.00000E+00         0.00000E+00        -0.42435E+08
 
   -0.41505E+08         0.56402E+06         0.00000E+00
    0.56402E+06        -0.61615E+08         0.00000E+00
    0.00000E+00         0.00000E+00        -0.42464E+08
 
   -0.41602E+08         0.12067E+07         0.00000E+00
    0.12067E+07        -0.61718E+08         0.00000E+00
    0.00000E+00         0.00000E+00        -0.42497E+08
 
   -0.41763E+08         0.19290E+07         0.00000E+00
    0.19290E+07        -0.61774E+08         0.00000E+00
    0.00000E+00         0.00000E+00        -0.42535E+08
 
   -0.41989E+08         0.27145E+07         0.00000E+00
    0.27145E+07        -0.61779E+08         0.00000E+00
    0.00000E+00         0.00000E+00        -0.42578E+08
 
   -0.42260E+08         0.35485E+07         0.00000E+00
    0.35485E+07        -0.61733E+08         0.00000E+00
    0.00000E+00         0.00000E+00        -0.42621E+08
 
   -0.42539E+08         0.44394E+07         0.00000E+00
    0.44394E+07        -0.61650E+08         0.00000E+00
    0.00000E+00         0.00000E+00        -0.42658E+08
 
   -0.40476E+08        -0.29130E+06         0.00000E+00
   -0.29130E+06        -0.60023E+08         0.00000E+00
    0.00000E+00         0.00000E+00        -0.41143E+08
 
   -0.40951E+08        -0.76159E+06         0.00000E+00
   -0.76159E+06        -0.60112E+08         0.00000E+00
    0.00000E+00         0.00000E+00        -0.41249E+08
 
   -0.41218E+08        -0.10834E+07         0.00000E+00
   -0.10834E+07        -0.60266E+08         0.00000E+00
    0.00000E+00         0.00000E+00        -0.41322E+08
 
   -0.41331E+08        -0.12609E+07         0.00000E+00
   -0.12609E+07        -0.60460E+08         0.00000E+00
    0.00000E+00         0.00000E+00        -0.41369E+08
 
   -0.41335E+08        -0.12990E+07         0.00000E+00
   -0.12990E+07        -0.60677E+08         0.00000E+00
    0.00000E+00         0.00000E+00        -0.41398E+08
 
   -0.41268E+08        -0.12029E+07         0.00000E+00
   -0.12029E+07        -0.60901E+08         0.00000E+00
    0.00000E+00         0.00000E+00        -0.41415E+08
 
   -0.41162E+08        -0.97747E+06         0.00000E+00
   -0.97747E+06        -0.61124E+08         0.00000E+00
    0.00000E+00         0.00000E+00        -0.41424E+08
 
   -0.41047E+08        -0.62745E+06         0.00000E+00
   -0.62745E+06        -0.61336E+08         0.00000E+00
    0.00000E+00         0.00000E+00        -0.41432E+08
 
   -0.40947E+08        -0.15776E+06         0.00000E+00
   -0.15776E+06        -0.61530E+08         0.00000E+00
    0.00000E+00         0.00000E+00        -0.41441E+08
 
   -0.40888E+08         0.42479E+06         0.00000E+00
    0.42479E+06        -0.61698E+08         0.00000E+00
    0.00000E+00         0.00000E+00        -0.41457E+08
 
   -0.40895E+08         0.11096E+07         0.00000E+00
    0.11096E+07        -0.61831E+08         0.00000E+00
    0.00000E+00         0.00000E+00        -0.41480E+08
 
   -0.40982E+08         0.18802E+07         0.00000E+00
    0.18802E+07        -0.61923E+08         0.00000E+00
    0.00000E+00         0.00000E+00        -0.41514E+08
 
   -0.41153E+08         0.27151E+07         0.00000E+00
    0.27151E+07        -0.61970E+08         0.00000E+00
    0.00000E+00         0.00000E+00        -0.41557E+08
 
   -0.41387E+08         0.35943E+07         0.00000E+00
    0.35943E+07        -0.61976E+08         0.00000E+00
    0.00000E+00         0.00000E+00        -0.41605E+08
 
   -0.41586E+08         0.45014E+07         0.00000E+00
    0.45014E+07        -0.61965E+08         0.00000E+00
    0.00000E+00         0.00000E+00        -0.41642E+08
 
   -0.41068E+08        -0.34122E+06         0.00000E+00
   -0.34122E+06        -0.60023E+08         0.00000E+00
    0.00000E+00         0.00000E+00        -0.40287E+08
 
   -0.41378E+08        -0.88878E+06         0.00000E+00
   -0.88878E+06        -0.60112E+08         0.00000E+00
    0.00000E+00         0.00000E+00        -0.40360E+08
 
   -0.41487E+08        -0.12616E+07         0.00000E+00
   -0.12616E+07        -0.60264E+08         0.00000E+00
    0.00000E+00         0.00000E+00        -0.40402E+08
 
   -0.41449E+08        -0.14692E+07         0.00000E+00
   -0.14692E+07        -0.60456E+08         0.00000E+00
    0.00000E+00         0.00000E+00        -0.40420E+08
 
   -0.41309E+08        -0.15216E+07         0.00000E+00
   -0.15216E+07        -0.60669E+08         0.00000E+00
    0.00000E+00         0.00000E+00        -0.40422E+08
 
   -0.41106E+08        -0.14285E+07         0.00000E+00
   -0.14285E+07        -0.60891E+08         0.00000E+00
    0.00000E+00         0.00000E+00        -0.40413E+08
 
   -0.40870E+08        -0.11982E+07         0.00000E+00
   -0.11982E+07        -0.61112E+08         0.00000E+00
    0.00000E+00         0.00000E+00        -0.40399E+08
 
   -0.40628E+08        -0.83661E+06         0.00000E+00
   -0.83661E+06        -0.61327E+08         0.00000E+00
    0.00000E+00         0.00000E+00        -0.40384E+08
 
   -0.40408E+08        -0.34867E+06         0.00000E+00
   -0.34867E+06        -0.61531E+08         0.00000E+00
    0.00000E+00         0.00000E+00        -0.40375E+08
 
   -0.40238E+08         0.26041E+06         0.00000E+00
    0.26041E+06        -0.61717E+08         0.00000E+00
    0.00000E+00         0.00000E+00        -0.40374E+08
 
   -0.40145E+08         0.97938E+06         0.00000E+00
    0.97938E+06        -0.61876E+08         0.00000E+00
    0.00000E+00         0.00000E+00        -0.40386E+08
 
   -0.40157E+08         0.17901E+07         0.00000E+00
    0.17901E+07        -0.62005E+08         0.00000E+00
    0.00000E+00         0.00000E+00        -0.40416E+08
 
   -0.40281E+08         0.26594E+07         0.00000E+00
    0.26594E+07        -0.62100E+08         0.00000E+00
    0.00000E+00         0.00000E+00        -0.40462E+08
 
   -0.40469E+08         0.35569E+07         0.00000E+00
    0.35569E+07        -0.62205E+08         0.00000E+00
    0.00000E+00         0.00000E+00        -0.40524E+08
 
   -0.40704E+08         0.44292E+07         0.00000E+00
    0.44292E+07        -0.62322E+08         0.00000E+00
    0.00000E+00         0.00000E+00        -0.40699E+08
 
   -0.41751E+08        -0.39082E+06         0.00000E+00
   -0.39082E+06        -0.60023E+08         0.00000E+00
    0.00000E+00         0.00000E+00        -0.39391E+08
 
   -0.41868E+08        -0.10139E+07         0.00000E+00
   -0.10139E+07        -0.60109E+08         0.00000E+00
    0.00000E+00         0.00000E+00        -0.39426E+08
 
   -0.41795E+08        -0.14352E+07         0.00000E+00
   -0.14352E+07        -0.60256E+08         0.00000E+00
    0.00000E+00         0.00000E+00        -0.39432E+08
 
   -0.41587E+08        -0.16704E+07         0.00000E+00
   -0.16704E+07        -0.60438E+08         0.00000E+00
    0.00000E+00         0.00000E+00        -0.39416E+08
 
   -0.41291E+08        -0.17355E+07         0.00000E+00
   -0.17355E+07        -0.60638E+08         0.00000E+00
    0.00000E+00         0.00000E+00        -0.39386E+08
 
   -0.40943E+08        -0.16455E+07         0.00000E+00
   -0.16455E+07        -0.60845E+08         0.00000E+00
    0.00000E+00         0.00000E+00        -0.39348E+08
 
   -0.40571E+08        -0.14128E+07         0.00000E+00
   -0.14128E+07        -0.61051E+08         0.00000E+00
    0.00000E+00         0.00000E+00        -0.39306E+08
 
   -0.40199E+08        -0.10452E+07         0.00000E+00
   -0.10452E+07        -0.61256E+08         0.00000E+00
    0.00000E+00         0.00000E+00        -0.39267E+08
 
   -0.39852E+08        -0.54678E+06         0.00000E+00
   -0.54678E+06        -0.61455E+08         0.00000E+00
    0.00000E+00         0.00000E+00        -0.39234E+08
 
   -0.39560E+08         0.78911E+05         0.00000E+00
    0.78911E+05        -0.61644E+08         0.00000E+00
    0.00000E+00         0.00000E+00        -0.39213E+08
 
   -0.39365E+08         0.82515E+06         0.00000E+00
    0.82515E+06        -0.61817E+08         0.00000E+00
    0.00000E+00         0.00000E+00        -0.39212E+08
 
   -0.39292E+08         0.16592E+07         0.00000E+00
    0.16592E+07        -0.61967E+08         0.00000E+00
    0.00000E+00         0.00000E+00        -0.39233E+08
 
   -0.39362E+08         0.25466E+07         0.00000E+00
    0.25466E+07        -0.62130E+08         0.00000E+00
    0.00000E+00         0.00000E+00        -0.39346E+08
 
   -0.39579E+08         0.34473E+07         0.00000E+00
    0.34473E+07        -0.62242E+08         0.00000E+00
    0.00000E+00         0.00000E+00        -0.39628E+08
 
   -0.39983E+08         0.42749E+07         0.00000E+00
    0.42749E+07        -0.62358E+08         0.00000E+00
    0.00000E+00         0.00000E+00        -0.40028E+08
 
   -0.42524E+08        -0.43901E+06         0.00000E+00
   -0.43901E+06        -0.60022E+08         0.00000E+00
    0.00000E+00         0.00000E+00        -0.38457E+08
 
   -0.42417E+08        -0.11334E+07         0.00000E+00
   -0.11334E+07        -0.60104E+08         0.00000E+00
    0.00000E+00         0.00000E+00        -0.38448E+08
 
   -0.42137E+08        -0.15981E+07         0.00000E+00
   -0.15981E+07        -0.60240E+08         0.00000E+00
    0.00000E+00         0.00000E+00        -0.38412E+08
 
   -0.41743E+08        -0.18554E+07         0.00000E+00
   -0.18554E+07        -0.60405E+08         0.00000E+00
    0.00000E+00         0.00000E+00        -0.38358E+08
 
   -0.41279E+08        -0.19287E+07         0.00000E+00
   -0.19287E+07        -0.60581E+08         0.00000E+00
    0.00000E+00         0.00000E+00        -0.38292E+08
 
   -0.40780E+08        -0.18395E+07         0.00000E+00
   -0.18395E+07        -0.60758E+08         0.00000E+00
    0.00000E+00         0.00000E+00        -0.38221E+08
 
   -0.40269E+08        -0.16051E+07         0.00000E+00
   -0.16051E+07        -0.60933E+08         0.00000E+00
    0.00000E+00         0.00000E+00        -0.38149E+08
 
   -0.39765E+08        -0.12363E+07         0.00000E+00
   -0.12363E+07        -0.61108E+08         0.00000E+00
    0.00000E+00         0.00000E+00        -0.38080E+08
 
   -0.39286E+08        -0.73559E+06         0.00000E+00
   -0.73559E+06        -0.61283E+08         0.00000E+00
    0.00000E+00         0.00000E+00        -0.38020E+08
 
   -0.38867E+08        -0.99394E+05         0.00000E+00
   -0.99394E+05        -0.61456E+08         0.00000E+00
    0.00000E+00         0.00000E+00        -0.37975E+08
 
   -0.38543E+08         0.66349E+06         0.00000E+00
    0.66349E+06        -0.61616E+08         0.00000E+00
    0.00000E+00         0.00000E+00        -0.37950E+08
 
   -0.38396E+08         0.15196E+07         0.00000E+00
    0.15196E+07        -0.61778E+08         0.00000E+00
    0.00000E+00         0.00000E+00        -0.38076E+08
 
   -0.38479E+08         0.24131E+07         0.00000E+00
    0.24131E+07        -0.61903E+08         0.00000E+00
    0.00000E+00         0.00000E+00        -0.38453E+08
 
   -0.38731E+08         0.33006E+07         0.00000E+00
    0.33006E+07        -0.62047E+08         0.00000E+00
    0.00000E+00         0.00000E+00        -0.38898E+08
 
   -0.39169E+08         0.41638E+07         0.00000E+00
    0.41638E+07        -0.62179E+08         0.00000E+00
    0.00000E+00         0.00000E+00        -0.39274E+08
 
   -0.43382E+08        -0.48469E+06         0.00000E+00
   -0.48469E+06        -0.60020E+08         0.00000E+00
    0.00000E+00         0.00000E+00        -0.37489E+08
 
   -0.43019E+08        -0.12438E+07         0.00000E+00
   -0.12438E+07        -0.60096E+08         0.00000E+00
    0.00000E+00         0.00000E+00        -0.37428E+08
 
   -0.42507E+08        -0.17434E+07         0.00000E+00
   -0.17434E+07        -0.60216E+08         0.00000E+00
    0.00000E+00         0.00000E+00        -0.37345E+08
 
   -0.41908E+08        -0.20143E+07         0.00000E+00
   -0.20143E+07        -0.60354E+08         0.00000E+00
    0.00000E+00         0.00000E+00        -0.37248E+08
 
   -0.41267E+08        -0.20882E+07         0.00000E+00
   -0.20882E+07        -0.60494E+08         0.00000E+00
    0.00000E+00         0.00000E+00        -0.37143E+08
 
   -0.40614E+08        -0.19944E+07         0.00000E+00
   -0.19944E+07        -0.60627E+08         0.00000E+00
    0.00000E+00         0.00000E+00        -0.37035E+08
 
   -0.39966E+08        -0.17563E+07         0.00000E+00
   -0.17563E+07        -0.60754E+08         0.00000E+00
    0.00000E+00         0.00000E+00        -0.36930E+08
 
   -0.39332E+08        -0.13884E+07         0.00000E+00
   -0.13884E+07        -0.60877E+08         0.00000E+00
    0.00000E+00         0.00000E+00        -0.36829E+08
 
   -0.38719E+08        -0.89268E+06         0.00000E+00
   -0.89268E+06        -0.61005E+08         0.00000E+00
    0.00000E+00         0.00000E+00        -0.36737E+08
 
   -0.38152E+08        -0.25213E+06         0.00000E+00
   -0.25213E+06        -0.61137E+08         0.00000E+00
    0.00000E+00         0.00000E+00        -0.36659E+08
 
   -0.37696E+08         0.52838E+06         0.00000E+00
    0.52838E+06        -0.61267E+08         0.00000E+00
    0.00000E+00         0.00000E+00        -0.36689E+08
 
   -0.37552E+08         0.13687E+07         0.00000E+00
    0.13687E+07        -0.61407E+08         0.00000E+00
    0.00000E+00         0.00000E+00        -0.37077E+08
 
   -0.37593E+08         0.22427E+07         0.00000E+00
    0.22427E+07        -0.61577E+08         0.00000E+00
    0.00000E+00         0.00000E+00        -0.37569E+08
 
   -0.37836E+08         0.31494E+07         0.00000E+00
    0.31494E+07        -0.61749E+08         0.00000E+00
    0.00000E+00         0.00000E+00        -0.38030E+08
 
   -0.38282E+08         0.40727E+07         0.00000E+00
    0.40727E+07        -0.61877E+08         0.00000E+00
    0.00000E+00         0.00000E+00        -0.38398E+08
 
   -0.44319E+08        -0.52691E+06         0.00000E+00
   -0.52691E+06        -0.60019E+08         0.00000E+00
    0.00000E+00         0.00000E+00        -0.36490E+08
 
   -0.43664E+08        -0.13413E+07         0.00000E+00
   -0.13413E+07        -0.60085E+08         0.00000E+00
    0.00000E+00         0.00000E+00        -0.36370E+08
 
   -0.42894E+08        -0.18640E+07         0.00000E+00
   -0.18640E+07        -0.60183E+08         0.00000E+00
    0.00000E+00         0.00000E+00        -0.36234E+08
 
   -0.42075E+08        -0.21361E+07         0.00000E+00
   -0.21361E+07        -0.60285E+08         0.00000E+00
    0.00000E+00         0.00000E+00        -0.36088E+08
 
   -0.41248E+08        -0.22001E+07         0.00000E+00
   -0.22001E+07        -0.60376E+08         0.00000E+00
    0.00000E+00         0.00000E+00        -0.35940E+08
 
   -0.40440E+08        -0.20941E+07         0.00000E+00
   -0.20941E+07        -0.60451E+08         0.00000E+00
    0.00000E+00         0.00000E+00        -0.35794E+08
 
   -0.39660E+08        -0.18479E+07         0.00000E+00
   -0.18479E+07        -0.60512E+08         0.00000E+00
    0.00000E+00         0.00000E+00        -0.35652E+08
 
   -0.38903E+08        -0.14804E+07         0.00000E+00
   -0.14804E+07        -0.60568E+08         0.00000E+00
    0.00000E+00         0.00000E+00        -0.35517E+08
 
   -0.38160E+08        -0.99354E+06         0.00000E+00
   -0.99354E+06        -0.60629E+08         0.00000E+00
    0.00000E+00         0.00000E+00        -0.35390E+08
 
   -0.37418E+08        -0.35933E+06         0.00000E+00
   -0.35933E+06        -0.60706E+08         0.00000E+00
    0.00000E+00         0.00000E+00        -0.35282E+08
 
   -0.36910E+08         0.38939E+06         0.00000E+00
    0.38939E+06        -0.60817E+08         0.00000E+00
    0.00000E+00         0.00000E+00        -0.35490E+08
 
   -0.36711E+08         0.11896E+07         0.00000E+00
    0.11896E+07        -0.60977E+08         0.00000E+00
    0.00000E+00         0.00000E+00        -0.36004E+08
 
   -0.36695E+08         0.20584E+07         0.00000E+00
    0.20584E+07        -0.61166E+08         0.00000E+00
    0.00000E+00         0.00000E+00        -0.36535E+08
 
   -0.36894E+08         0.29926E+07         0.00000E+00
    0.29926E+07        -0.61346E+08         0.00000E+00
    0.00000E+00         0.00000E+00        -0.37023E+08
 
   -0.37326E+08         0.39748E+07         0.00000E+00
    0.39748E+07        -0.61486E+08         0.00000E+00
    0.00000E+00         0.00000E+00        -0.37424E+08
 
   -0.45325E+08        -0.56484E+06         0.00000E+00
   -0.56484E+06        -0.60016E+08         0.00000E+00
    0.00000E+00         0.00000E+00        -0.35464E+08
 
   -0.44339E+08        -0.14216E+07         0.00000E+00
   -0.14216E+07        -0.60071E+08         0.00000E+00
    0.00000E+00         0.00000E+00        -0.35277E+08
 
   -0.43284E+08        -0.19512E+07         0.00000E+00
   -0.19512E+07        -0.60140E+08         0.00000E+00
    0.00000E+00         0.00000E+00        -0.35081E+08
 
   -0.42228E+08        -0.22088E+07         0.00000E+00
   -0.22088E+07        -0.60195E+08         0.00000E+00
    0.00000E+00         0.00000E+00        -0.34882E+08
 
   -0.41212E+08        -0.22504E+07         0.00000E+00
   -0.22504E+07        -0.60223E+08         0.00000E+00
    0.00000E+00         0.00000E+00        -0.34687E+08
 
   -0.40253E+08        -0.21238E+07         0.00000E+00
   -0.21238E+07        -0.60225E+08         0.00000E+00
    0.00000E+00         0.00000E+00        -0.34500E+08
 
   -0.39348E+08        -0.18654E+07         0.00000E+00
   -0.18654E+07        -0.60208E+08         0.00000E+00
    0.00000E+00         0.00000E+00        -0.34322E+08
 
   -0.38481E+08        -0.14981E+07         0.00000E+00
   -0.14981E+07        -0.60185E+08         0.00000E+00
    0.00000E+00         0.00000E+00        -0.34153E+08
 
   -0.37618E+08        -0.10279E+07         0.00000E+00
   -0.10279E+07        -0.60174E+08         0.00000E+00
    0.00000E+00         0.00000E+00        -0.33991E+08
 
   -0.36726E+08        -0.43878E+06         0.00000E+00
   -0.43878E+06        -0.60200E+08         0.00000E+00
    0.00000E+00         0.00000E+00        -0.33870E+08
 
   -0.36178E+08         0.24298E+06         0.00000E+00
    0.24298E+06        -0.60300E+08         0.00000E+00
    0.00000E+00         0.00000E+00        -0.34217E+08
 
   -0.35886E+08         0.10053E+07         0.00000E+00
    0.10053E+07        -0.60462E+08         0.00000E+00
    0.00000E+00         0.00000E+00        -0.34770E+08
 
   -0.35786E+08         0.18648E+07         0.00000E+00
    0.18648E+07        -0.60654E+08         0.00000E+00
    0.00000E+00         0.00000E+00        -0.35341E+08
 
   -0.35911E+08         0.28189E+07         0.00000E+00
    0.28189E+07        -0.60850E+08         0.00000E+00
    0.00000E+00         0.00000E+00        -0.35888E+08
 
   -0.36304E+08         0.38533E+07         0.00000E+00
    0.38533E+07        -0.61019E+08         0.00000E+00
    0.00000E+00         0.00000E+00        -0.36357E+08
 
   -0.46390E+08        -0.59768E+06         0.00000E+00
   -0.59768E+06        -0.60014E+08         0.00000E+00
    0.00000E+00         0.00000E+00        -0.34415E+08
 
   -0.45028E+08        -0.14794E+07         0.00000E+00
   -0.14794E+07        -0.60052E+08         0.00000E+00
    0.00000E+00         0.00000E+00        -0.34152E+08
 
   -0.43657E+08        -0.19938E+07         0.00000E+00
   -0.19938E+07        -0.60082E+08         0.00000E+00
    0.00000E+00         0.00000E+00        -0.33888E+08
 
   -0.42353E+08        -0.22173E+07         0.00000E+00
   -0.22173E+07        -0.60074E+08         0.00000E+00
    0.00000E+00         0.00000E+00        -0.33630E+08
 
   -0.41148E+08        -0.22235E+07         0.00000E+00
   -0.22235E+07        -0.60023E+08         0.00000E+00
    0.00000E+00         0.00000E+00        -0.33385E+08
 
   -0.40047E+08        -0.20710E+07         0.00000E+00
   -0.20710E+07        -0.59937E+08         0.00000E+00
    0.00000E+00         0.00000E+00        -0.33156E+08
 
   -0.39031E+08        -0.18006E+07         0.00000E+00
   -0.18006E+07        -0.59834E+08         0.00000E+00
    0.00000E+00         0.00000E+00        -0.32941E+08
 
   -0.38071E+08        -0.14378E+07         0.00000E+00
   -0.14378E+07        -0.59731E+08         0.00000E+00
    0.00000E+00         0.00000E+00        -0.32741E+08
 
   -0.37116E+08        -0.99766E+06         0.00000E+00
   -0.99766E+06        -0.59650E+08         0.00000E+00
    0.00000E+00         0.00000E+00        -0.32550E+08
 
   -0.36128E+08        -0.49030E+06         0.00000E+00
   -0.49030E+06        -0.59631E+08         0.00000E+00
    0.00000E+00         0.00000E+00        -0.32408E+08
 
   -0.35491E+08         0.11090E+06         0.00000E+00
    0.11090E+06        -0.59695E+08         0.00000E+00
    0.00000E+00         0.00000E+00        -0.32777E+08
 
   -0.35091E+08         0.82453E+06         0.00000E+00
    0.82453E+06        -0.59843E+08         0.00000E+00
    0.00000E+00         0.00000E+00        -0.33358E+08
 
   -0.34880E+08         0.16580E+07         0.00000E+00
    0.16580E+07        -0.60042E+08         0.00000E+00
    0.00000E+00         0.00000E+00        -0.33984E+08
 
   -0.34897E+08         0.26153E+07         0.00000E+00
    0.26153E+07        -0.60263E+08         0.00000E+00
    0.00000E+00         0.00000E+00        -0.34618E+08
 
   -0.35219E+08         0.36857E+07         0.00000E+00
    0.36857E+07        -0.60478E+08         0.00000E+00
    0.00000E+00         0.00000E+00        -0.35189E+08
 
   -0.47497E+08        -0.62424E+06         0.00000E+00
   -0.62424E+06        -0.60011E+08         0.00000E+00
    0.00000E+00         0.00000E+00        -0.33350E+08
 
   -0.45704E+08        -0.15057E+07         0.00000E+00
   -0.15057E+07        -0.60027E+08         0.00000E+00
    0.00000E+00         0.00000E+00        -0.32998E+08
 
   -0.43990E+08        -0.19744E+07         0.00000E+00
   -0.19744E+07        -0.60000E+08         0.00000E+00
    0.00000E+00         0.00000E+00        -0.32656E+08
 
   -0.42433E+08        -0.21409E+07         0.00000E+00
   -0.21409E+07        -0.59905E+08         0.00000E+00
    0.00000E+00         0.00000E+00        -0.32333E+08
 
   -0.41051E+08        -0.21016E+07         0.00000E+00
   -0.21016E+07        -0.59751E+08         0.00000E+00
    0.00000E+00         0.00000E+00        -0.32036E+08
 
   -0.39824E+08        -0.19242E+07         0.00000E+00
   -0.19242E+07        -0.59562E+08         0.00000E+00
    0.00000E+00         0.00000E+00        -0.31763E+08
 
   -0.38715E+08        -0.16504E+07         0.00000E+00
   -0.16504E+07        -0.59366E+08         0.00000E+00
    0.00000E+00         0.00000E+00        -0.31514E+08
 
   -0.37681E+08        -0.13047E+07         0.00000E+00
   -0.13047E+07        -0.59185E+08         0.00000E+00
    0.00000E+00         0.00000E+00        -0.31285E+08
 
   -0.36674E+08        -0.90726E+06         0.00000E+00
   -0.90726E+06        -0.59043E+08         0.00000E+00
    0.00000E+00         0.00000E+00        -0.31073E+08
 
   -0.35644E+08        -0.48882E+06         0.00000E+00
   -0.48882E+06        -0.58971E+08         0.00000E+00
    0.00000E+00         0.00000E+00        -0.30894E+08
 
   -0.34867E+08         0.83264E+04         0.00000E+00
    0.83264E+04        -0.58978E+08         0.00000E+00
    0.00000E+00         0.00000E+00        -0.31154E+08
 
   -0.34347E+08         0.64420E+06         0.00000E+00
    0.64420E+06        -0.59109E+08         0.00000E+00
    0.00000E+00         0.00000E+00        -0.31752E+08
 
   -0.33995E+08         0.14272E+07         0.00000E+00
    0.14272E+07        -0.59321E+08         0.00000E+00
    0.00000E+00         0.00000E+00        -0.32447E+08
 
   -0.33873E+08         0.23660E+07         0.00000E+00
    0.23660E+07        -0.59586E+08         0.00000E+00
    0.00000E+00         0.00000E+00        -0.33198E+08
 
   -0.34075E+08         0.34585E+07         0.00000E+00
    0.34585E+07        -0.59861E+08         0.00000E+00
    0.00000E+00         0.00000E+00        -0.33914E+08
 
   -0.48626E+08        -0.64199E+06         0.00000E+00
   -0.64199E+06        -0.60006E+08         0.00000E+00
    0.00000E+00         0.00000E+00        -0.32271E+08
 
   -0.46332E+08        -0.14829E+07         0.00000E+00
   -0.14829E+07        -0.59985E+08         0.00000E+00
    0.00000E+00         0.00000E+00        -0.31813E+08
 
   -0.44250E+08        -0.18632E+07         0.00000E+00
   -0.18632E+07        -0.59869E+08         0.00000E+00
    0.00000E+00         0.00000E+00        -0.31382E+08
 
   -0.42454E+08        -0.19494E+07         0.00000E+00
   -0.19494E+07        -0.59648E+08         0.00000E+00
    0.00000E+00         0.00000E+00        -0.30989E+08
 
   -0.40921E+08        -0.18631E+07         0.00000E+00
   -0.18631E+07        -0.59363E+08         0.00000E+00
    0.00000E+00         0.00000E+00        -0.30636E+08
 
   -0.39594E+08        -0.16728E+07         0.00000E+00
   -0.16728E+07        -0.59056E+08         0.00000E+00
    0.00000E+00         0.00000E+00        -0.30322E+08
 
   -0.38415E+08        -0.14140E+07         0.00000E+00
   -0.14140E+07        -0.58762E+08         0.00000E+00
    0.00000E+00         0.00000E+00        -0.30041E+08
 
   -0.37330E+08        -0.11064E+07         0.00000E+00
   -0.11064E+07        -0.58508E+08         0.00000E+00
    0.00000E+00         0.00000E+00        -0.29788E+08
 
   -0.36294E+08        -0.76685E+06         0.00000E+00
   -0.76685E+06        -0.58313E+08         0.00000E+00
    0.00000E+00         0.00000E+00        -0.29559E+08
 
   -0.35278E+08        -0.42464E+06         0.00000E+00
   -0.42464E+06        -0.58193E+08         0.00000E+00
    0.00000E+00         0.00000E+00        -0.29353E+08
 
   -0.34341E+08        -0.49581E+05         0.00000E+00
   -0.49581E+05        -0.58169E+08         0.00000E+00
    0.00000E+00         0.00000E+00        -0.29371E+08
 
   -0.33685E+08         0.47080E+06         0.00000E+00
    0.47080E+06        -0.58241E+08         0.00000E+00
    0.00000E+00         0.00000E+00        -0.29935E+08
 
   -0.33164E+08         0.11597E+07         0.00000E+00
    0.11597E+07        -0.58466E+08         0.00000E+00
    0.00000E+00         0.00000E+00        -0.30695E+08
 
   -0.32857E+08         0.20478E+07         0.00000E+00
    0.20478E+07        -0.58794E+08         0.00000E+00
    0.00000E+00         0.00000E+00        -0.31592E+08
 
   -0.32875E+08         0.31471E+07         0.00000E+00
    0.31471E+07        -0.59165E+08         0.00000E+00
    0.00000E+00         0.00000E+00        -0.32527E+08
 
   -0.49740E+08        -0.64416E+06         0.00000E+00
   -0.64416E+06        -0.59996E+08         0.00000E+00
    0.00000E+00         0.00000E+00        -0.31182E+08
 
   -0.46851E+08        -0.13726E+07         0.00000E+00
   -0.13726E+07        -0.59904E+08         0.00000E+00
    0.00000E+00         0.00000E+00        -0.30591E+08
 
   -0.44403E+08        -0.16082E+07         0.00000E+00
   -0.16082E+07        -0.59633E+08         0.00000E+00
    0.00000E+00         0.00000E+00        -0.30057E+08
 
   -0.42412E+08        -0.16042E+07         0.00000E+00
   -0.16042E+07        -0.59234E+08         0.00000E+00
    0.00000E+00         0.00000E+00        -0.29590E+08
 
   -0.40772E+08        -0.14881E+07         0.00000E+00
   -0.14881E+07        -0.58792E+08         0.00000E+00
    0.00000E+00         0.00000E+00        -0.29185E+08
 
   -0.39380E+08        -0.13103E+07         0.00000E+00
   -0.13103E+07        -0.58358E+08         0.00000E+00
    0.00000E+00         0.00000E+00        -0.28832E+08
 
   -0.38156E+08        -0.10932E+07         0.00000E+00
   -0.10932E+07        -0.57969E+08         0.00000E+00
    0.00000E+00         0.00000E+00        -0.28522E+08
 
   -0.37039E+08        -0.84860E+06         0.00000E+00
   -0.84860E+06        -0.57645E+08         0.00000E+00
    0.00000E+00         0.00000E+00        -0.28247E+08
 
   -0.35987E+08        -0.58703E+06         0.00000E+00
   -0.58703E+06        -0.57403E+08         0.00000E+00
    0.00000E+00         0.00000E+00        -0.28004E+08
 
   -0.34982E+08        -0.31782E+06         0.00000E+00
   -0.31782E+06        -0.57247E+08         0.00000E+00
    0.00000E+00         0.00000E+00        -0.27789E+08
 
   -0.33983E+08        -0.47457E+05         0.00000E+00
   -0.47457E+05        -0.57209E+08         0.00000E+00
    0.00000E+00         0.00000E+00        -0.27611E+08
 
   -0.33144E+08         0.31421E+06         0.00000E+00
    0.31421E+06        -0.57237E+08         0.00000E+00
    0.00000E+00         0.00000E+00        -0.27919E+08
 
   -0.32436E+08         0.85101E+06         0.00000E+00
    0.85101E+06        -0.57450E+08         0.00000E+00
    0.00000E+00         0.00000E+00        -0.28693E+08
 
   -0.31887E+08         0.16244E+07         0.00000E+00
    0.16244E+07        -0.57858E+08         0.00000E+00
    0.00000E+00         0.00000E+00        -0.29751E+08
 
   -0.31635E+08         0.26863E+07         0.00000E+00
    0.26863E+07        -0.58394E+08         0.00000E+00
    0.00000E+00         0.00000E+00        -0.31010E+08
 
   -0.50760E+08        -0.60604E+06         0.00000E+00
   -0.60604E+06        -0.59967E+08         0.00000E+00
    0.00000E+00         0.00000E+00        -0.30074E+08
 
   -0.47176E+08        -0.10808E+07         0.00000E+00
   -0.10808E+07        -0.59696E+08         0.00000E+00
    0.00000E+00         0.00000E+00        -0.29308E+08
 
   -0.44435E+08        -0.11349E+07         0.00000E+00
   -0.11349E+07        -0.59160E+08         0.00000E+00
    0.00000E+00         0.00000E+00        -0.28662E+08
 
   -0.42332E+08        -0.10759E+07         0.00000E+00
   -0.10759E+07        -0.58548E+08         0.00000E+00
    0.00000E+00         0.00000E+00        -0.28128E+08
 
   -0.40636E+08        -0.97141E+06         0.00000E+00
   -0.97141E+06        -0.57948E+08         0.00000E+00
    0.00000E+00         0.00000E+00        -0.27677E+08
 
   -0.39210E+08        -0.84188E+06         0.00000E+00
   -0.84188E+06        -0.57401E+08         0.00000E+00
    0.00000E+00         0.00000E+00        -0.27292E+08
 
   -0.37962E+08        -0.69570E+06         0.00000E+00
   -0.69570E+06        -0.56929E+08         0.00000E+00
    0.00000E+00         0.00000E+00        -0.26958E+08
 
   -0.36830E+08        -0.53759E+06         0.00000E+00
   -0.53759E+06        -0.56547E+08         0.00000E+00
    0.00000E+00         0.00000E+00        -0.26665E+08
 
   -0.35770E+08        -0.37165E+06         0.00000E+00
   -0.37165E+06        -0.56265E+08         0.00000E+00
    0.00000E+00         0.00000E+00        -0.26407E+08
 
   -0.34755E+08        -0.20015E+06         0.00000E+00
   -0.20015E+06        -0.56088E+08         0.00000E+00
    0.00000E+00         0.00000E+00        -0.26181E+08
 
   -0.33782E+08        -0.19818E+05         0.00000E+00
   -0.19818E+05        -0.56014E+08         0.00000E+00
    0.00000E+00         0.00000E+00        -0.25986E+08
 
   -0.32766E+08         0.19290E+06         0.00000E+00
    0.19290E+06        -0.56115E+08         0.00000E+00
    0.00000E+00         0.00000E+00        -0.25862E+08
 
   -0.31895E+08         0.52779E+06         0.00000E+00
    0.52779E+06        -0.56276E+08         0.00000E+00
    0.00000E+00         0.00000E+00        -0.26446E+08
 
   -0.31040E+08         0.10488E+07         0.00000E+00
    0.10488E+07        -0.56730E+08         0.00000E+00
    0.00000E+00         0.00000E+00        -0.27601E+08
 
   -0.30393E+08         0.19717E+07         0.00000E+00
    0.19717E+07        -0.57552E+08         0.00000E+00
    0.00000E+00         0.00000E+00        -0.29342E+08
 
   -0.51481E+08        -0.36950E+06         0.00000E+00
   -0.36950E+06        -0.59730E+08         0.00000E+00
    0.00000E+00         0.00000E+00        -0.28883E+08
 
   -0.47244E+08        -0.44118E+06         0.00000E+00
   -0.44118E+06        -0.59031E+08         0.00000E+00
    0.00000E+00         0.00000E+00        -0.27896E+08
 
   -0.44409E+08        -0.41745E+06         0.00000E+00
   -0.41745E+06        -0.58225E+08         0.00000E+00
    0.00000E+00         0.00000E+00        -0.27172E+08
 
   -0.42267E+08        -0.38266E+06         0.00000E+00
   -0.38266E+06        -0.57450E+08         0.00000E+00
    0.00000E+00         0.00000E+00        -0.26592E+08
 
   -0.40553E+08        -0.33987E+06         0.00000E+00
   -0.33987E+06        -0.56743E+08         0.00000E+00
    0.00000E+00         0.00000E+00        -0.26112E+08
 
   -0.39115E+08        -0.29202E+06         0.00000E+00
   -0.29202E+06        -0.56122E+08         0.00000E+00
    0.00000E+00         0.00000E+00        -0.25703E+08
 
   -0.37859E+08        -0.24028E+06         0.00000E+00
   -0.24028E+06        -0.55598E+08         0.00000E+00
    0.00000E+00         0.00000E+00        -0.25351E+08
 
   -0.36721E+08        -0.18556E+06         0.00000E+00
   -0.18556E+06        -0.55178E+08         0.00000E+00
    0.00000E+00         0.00000E+00        -0.25043E+08
 
   -0.35656E+08        -0.12864E+06         0.00000E+00
   -0.12864E+06        -0.54868E+08         0.00000E+00
    0.00000E+00         0.00000E+00        -0.24772E+08
 
   -0.34638E+08        -0.69962E+05         0.00000E+00
   -0.69962E+05        -0.54673E+08         0.00000E+00
    0.00000E+00         0.00000E+00        -0.24534E+08
 
   -0.33644E+08        -0.51841E+04         0.00000E+00
   -0.51841E+04        -0.54598E+08         0.00000E+00
    0.00000E+00         0.00000E+00        -0.24326E+08
 
   -0.32661E+08         0.68525E+05         0.00000E+00
    0.68525E+05        -0.54659E+08         0.00000E+00
    0.00000E+00         0.00000E+00        -0.24147E+08
 
   -0.31557E+08         0.18333E+06         0.00000E+00
    0.18333E+06        -0.54980E+08         0.00000E+00
    0.00000E+00         0.00000E+00        -0.24096E+08
 
   -0.30564E+08         0.35756E+06         0.00000E+00
    0.35756E+06        -0.55537E+08         0.00000E+00
    0.00000E+00         0.00000E+00        -0.25212E+08
 
   -0.29217E+08         0.76956E+06         0.00000E+00
    0.76956E+06        -0.56555E+08         0.00000E+00
    0.00000E+00         0.00000E+00        -0.27435E+08
 
SCALARS stressS double 
LOOKUP_TABLE default
  -49718930.9076722     
  -49665286.6681667     
  -49579090.1960967     
  -49718437.8073186     
  -50120283.4240381     
  -50499149.1670005     
  -50854663.8248341     
  -51187251.5268546     
  -51497624.8563271     
  -51786583.3657533     
  -52054935.9420823     
  -52303456.9286586     
  -52532853.3113251     
  -52743737.3975325     
  -52936601.5658296     
  -49694013.4430900     
  -49639688.3577961     
  -49553836.3271012     
  -49710607.3400081     
  -50112032.9964616     
  -50489256.0598171     
  -50842805.6349207     
  -51173452.4607353     
  -51482003.7429154     
  -51769295.6727894     
  -52036161.8599607     
  -52283396.3882239     
  -52511725.6743255     
  -52721782.9951656     
  -52914084.3696982     
  -49644572.0039225     
  -49589424.6787529     
  -49503465.3695385     
  -49696985.3074987     
  -50095936.1842769     
  -50469204.3738354     
  -50818698.9083278     
  -51145454.7150479     
  -51450365.5741642     
  -51734332.7654377     
  -51998231.9672332     
  -52242894.9302947     
  -52469085.8473472     
  -52677479.3091308     
  -52868638.1013452     
  -49569665.5989308     
  -49514961.3665444     
  -49431457.8708407     
  -49680139.9538835     
  -50071584.3876807     
  -50438207.8531372     
  -50781551.9392317     
  -51102455.2445619     
  -51401928.6280643     
  -51680931.3315033     
  -51940395.3678057     
  -52181204.4744994     
  -52404177.5385439     
  -52610049.6902245     
  -52799452.6152173     
  -49468986.0857721     
  -49414243.7166866     
  -49349109.3408074     
  -49656950.4364546     
  -50036877.3578424     
  -50395060.7203762     
  -50730114.3509746     
  -51043269.7235861     
  -51335546.0459288     
  -51607977.2400431     
  -51861557.0259657     
  -52097234.2743105     
  -52315897.8963208     
  -52518361.4791889     
  -52705346.2848683     
  -49342243.9686894     
  -49284166.2979882     
  -49266927.8774573     
  -49617874.1967092     
  -49990661.7048457     
  -50337872.1638001     
  -50662784.4506268     
  -50966357.8852873     
  -51249746.7419667     
  -51514043.4115545     
  -51760315.0721324     
  -51989587.4703944     
  -52202834.1143584     
  -52400963.4371891     
  -52584805.0439638     
  -49187668.2572226     
  -49133297.4364537     
  -49197183.6578586     
  -49571889.2707801     
  -49929850.4494335     
  -50264716.9695361     
  -50577600.7968829     
  -50869900.7018097     
  -51142788.7818010     
  -51397441.4265308     
  -51635008.8003315     
  -51856607.7068175     
  -52063309.9663998     
  -52256133.3754170     
  -52436032.1624747     
  -49005979.5305400     
  -48954502.8117633     
  -49139159.6917685     
  -49510795.9088640     
  -49852798.6812191     
  -50173140.3067514     
  -50472426.1424117     
  -50751869.1405736     
  -51012732.2164926     
  -51256282.3410267     
  -51483774.9896292     
  -51696433.4536557     
  -51895440.3173226     
  -52081934.1337637     
  -52257006.7062805     
  -48796226.3203436     
  -48784667.3487917     
  -49086308.9385900     
  -49429857.6322321     
  -49756186.8885932     
  -50060724.9035179     
  -50344997.2413489     
  -50610136.2208405     
  -50857515.4783878     
  -51088543.0339726     
  -51304608.0464757     
  -51507057.0537961     
  -51697191.4476917     
  -51876276.0861906     
  -52045548.4451762     
  -48560638.9229989     
  -48650826.5921653     
  -48998384.3055037     
  -49328243.6677252     
  -49636972.2675629     
  -49925100.5127867     
  -50193127.9770261     
  -50442573.1721634     
  -50675033.1966500     
  -50892128.4399654     
  -51095418.5312656     
  -51286384.9658903     
  -51466445.4502683     
  -51636985.1968838     
  -51799387.6451503     
  -48310221.9476288     
  -48544429.6849649     
  -48884397.3275575     
  -49200781.0423247     
  -49493531.0665556     
  -49764284.1161330     
  -50014844.4719785     
  -50247140.5360822     
  -50463194.0410549     
  -50664920.0738936     
  -50854082.8061963     
  -51032295.7232434     
  -51201068.3017191     
  -51361877.9993035     
  -51516240.4983164     
  -48090258.0081685     
  -48416701.4068495     
  -48746222.0922749     
  -49048631.0319121     
  -49324657.7596741     
  -49576964.8145685     
  -49808459.0130150     
  -50021929.7646584     
  -50219944.6164904     
  -50404797.5156210     
  -50578475.3136341     
  -50742692.0923997     
  -50898983.9198515     
  -51048849.8379377     
  -51193896.3513938     
  -47896153.2957693     
  -48262564.5026151     
  -48585642.3821332     
  -48873204.9281139     
  -49130571.6122794     
  -49362293.1898046     
  -49572568.8338946     
  -49765136.6778724     
  -49943243.4230948     
  -50109618.6699598     
  -50266471.1602605     
  -50415542.5591992     
  -50558260.5492624     
  -50695992.7131467     
  -50830334.4517036     
  -47724309.7123182     
  -48095199.7189026     
  -48407325.4531872     
  -48676665.5457572     
  -48911920.0214085     
  -49119814.2299054     
  -49305917.1073115     
  -49474974.8330586     
  -49630975.1883229     
  -49777140.5560278     
  -49915896.7841208     
  -50048898.7060131     
  -50177220.7304730     
  -50301778.6540639     
  -50423914.3008665     
  -47574314.1096883     
  -47925219.9448726     
  -48216933.0968509     
  -48461498.7012392     
  -48669496.6811071     
  -48849140.0779976     
  -49007241.8737822     
  -49149537.7929735     
  -49280809.0283181     
  -49404856.0992969     
  -49524379.6365656     
  -49640846.4362749     
  -49754579.3915420     
  -49865390.9910907     
  -49973746.5772447     
  -47438881.6351803     
  -47758611.6747483     
  -48018196.8893565     
  -48229749.3701777     
  -48403876.8117390     
  -48549738.9884486     
  -48675112.6937342     
  -48786658.4189664     
  -48890019.2193463     
  -48989734.8490632     
  -49088999.4757419     
  -49189233.8629447     
  -49289580.1622173     
  -49387355.3024676     
  -49480562.7644185     
  -47318543.5039932     
  -47595789.3437554     
  -47813015.5929472     
  -47982483.6538095     
  -48115184.9019496     
  -48220800.0909111     
  -48307842.5310754     
  -48383820.0486223     
  -48455309.1067187     
  -48527900.4973902     
  -48605712.3947139     
  -48690738.2183920     
  -48781564.8295944     
  -48871019.2710595     
  -48948952.4222359     
  -47213900.5695370     
  -47437382.5573879     
  -47601832.3364660     
  -47719944.3193452     
  -47803046.5674800     
  -47861225.7277538     
  -47903523.3758447     
  -47938162.3261757     
  -47972789.1840501     
  -48014270.7386015     
  -48068671.5285534     
  -48139461.4785630     
  -48226533.3529730     
  -48322506.1838155     
  -48397768.4129715     
  -47125798.7429307     
  -47283658.6256698     
  -47384613.0887342     
  -47441766.3605684     
  -47466713.6033685     
  -47469750.1697000     
  -47460183.6041572     
  -47446767.5537598     
  -47437991.6728104     
  -47442850.4098245     
  -47469115.8892231     
  -47525652.9602272     
  -47614125.2587859     
  -47732506.1908572     
  -47908453.2067190     
  -47054797.6277580     
  -47134554.8354290     
  -47160872.9721307     
  -47147181.4786964     
  -47105188.6810782     
  -47045123.5633602     
  -46976146.4255273     
  -46906994.0397797     
  -46847008.3775963     
  -46805832.1901197     
  -46798205.4199455     
  -46830605.3780150     
  -46946274.7541235     
  -47149747.4379718     
  -47456267.8414418     
  -47000986.1544642     
  -46989523.4212679     
  -46929626.4839196     
  -46834984.6147175     
  -46717256.8109776     
  -46586264.0177344     
  -46450422.6720906     
  -46317549.3847752     
  -46196332.1611705     
  -46099595.1220645     
  -46036447.4919997     
  -46083300.9610977     
  -46278239.7585282     
  -46558471.0205938     
  -46873935.7039690     
  -46963895.5283153     
  -46847378.2438634     
  -46689186.7519708     
  -46503329.8527144     
  -46301314.1854318     
  -46092213.3622763     
  -45883013.4013947     
  -45679374.6347796     
  -45486995.7236030     
  -45316018.6986791     
  -45217126.2354400     
  -45345252.5098082     
  -45579518.2721903     
  -45871616.0713877     
  -46185467.6366098     
  -46942496.4251985     
  -46706072.7986107     
  -46436804.8682411     
  -46149301.5850224     
  -45854926.8680633     
  -45561733.0535975     
  -45274699.0820991     
  -44996115.0103079     
  -44726577.6753254     
  -44468416.2235301     
  -44405749.1154359     
  -44564043.2565701     
  -44798520.6472528     
  -45087587.5726463     
  -45412259.0859863     
  -46935199.8056898     
  -46562319.5557947     
  -46168059.2362750     
  -45768208.3425486     
  -45374086.2896890     
  -44992477.4424289     
  -44625976.2867835     
  -44273160.6979255     
  -43927731.9396179     
  -43598965.8706672     
  -43564929.5585955     
  -43706218.0528270     
  -43927081.9817369     
  -44216304.0484789     
  -44560243.8467363     
  -46939731.3699123     
  -46410859.2439223     
  -45875830.1250823     
  -45352528.0560608     
  -44852215.1050387     
  -44379901.9858335     
  -43935413.0779464     
  -43514094.5188123     
  -43105323.8978591     
  -42722363.5360132     
  -42654150.8794015     
  -42763851.1386258     
  -42968793.0436534     
  -43259551.9093707     
  -43628440.4575348     
  -46952632.6439024     
  -46242982.1841468     
  -45548520.9221575     
  -44890403.0518837     
  -44279086.1422600     
  -43716333.2238728     
  -43198223.1611767     
  -42717242.8486421     
  -42263265.1865547     
  -41836264.1613921     
  -41666284.7937390     
  -41735752.0000677     
  -41921042.7988352     
  -42218984.2722979     
  -42616628.4297370     
  -46967889.3740399     
  -46043283.8555481     
  -45166845.6432985     
  -44363602.1456527     
  -43639989.2129522     
  -42990801.4406818     
  -42406076.0981340     
  -41875159.7174905     
  -41388428.4333204     
  -40941353.7617545     
  -40627201.5562235     
  -40620265.9116319     
  -40775303.3438823     
  -41081041.7334341     
  -41522479.3918621     
  -46972573.3140954     
  -45782082.4554807     
  -44697847.4834271     
  -43745327.3870248     
  -42916168.8601539     
  -42190047.2877036     
  -41548667.1860890     
  -40977119.1389704     
  -40464688.6916361     
  -40005902.2289968     
  -39601027.6958172     
  -39433114.9528400     
  -39526605.6345512     
  -39832207.3330117     
  -40346541.7885301     
  -46933432.3061937     
  -45393332.8042935     
  -44085665.7517252     
  -43002617.5723026     
  -42087178.9339010     
  -41300907.2102485     
  -40616273.7795238     
  -40013883.1204705     
  -39480614.5913317     
  -39008051.0042538     
  -38594266.1925329     
  -38247721.0385484     
  -38205819.1429936     
  -38456887.9550664     
  -39095343.9834786     
  -46698145.9987376     
  -44723612.6392590     
  -43268675.6720444     
  -42103271.3107485     
  -41135880.7351893     
  -40313517.0570244     
  -39602524.7781758     
  -38980400.5377979     
  -38432125.6521195     
  -37948324.4792777     
  -37522735.3831974     
  -37155539.1424193     
  -36877960.8160928     
  -37104353.9471278     
  -37735810.6630427     
SCALARS 2waySource double 
LOOKUP_TABLE default
 -9.315058565632173E-005
 -9.303947076572935E-005
 -1.253539889624545E-004
 -1.824251922371504E-004
 -1.795972293272224E-004
 -1.779991613461109E-004
 -1.774149021279673E-004
 -1.775676977532312E-004
 -1.782115485763068E-004
 -1.791442277500544E-004
 -1.801977760642460E-004
 -1.812297632318639E-004
 -1.821170637440360E-004
 -1.827512692907448E-004
 -1.830354874987632E-004
 -9.421886208771089E-005
 -9.417206489012981E-005
 -1.281828444913004E-004
 -1.819833994256705E-004
 -1.791827424092368E-004
 -1.777753185311878E-004
 -1.773866545585302E-004
 -1.776946728895676E-004
 -1.784580106111971E-004
 -1.794827412893835E-004
 -1.806069868264136E-004
 -1.816932268378132E-004
 -1.826221379046310E-004
 -1.832882164239728E-004
 -1.835966846746438E-004
 -9.554969036781098E-005
 -9.556203518581074E-005
 -1.336414225052323E-004
 -1.805044474109712E-004
 -1.781019080989083E-004
 -1.772282717329239E-004
 -1.772482502096201E-004
 -1.778611444415998E-004
 -1.788568148870302E-004
 -1.800587266477695E-004
 -1.813191505082074E-004
 -1.825111397178779E-004
 -1.835234637477980E-004
 -1.842565946628116E-004
 -1.846198602201683E-004
 -9.730856114100539E-005
 -9.700696966304242E-005
 -1.414866623358991E-004
 -1.775883023398301E-004
 -1.765310472377092E-004
 -1.764880397754035E-004
 -1.770664461079870E-004
 -1.781075675951023E-004
 -1.794272495860425E-004
 -1.808767234358140E-004
 -1.823278757553242E-004
 -1.836693035567263E-004
 -1.848016314442666E-004
 -1.856341125835161E-004
 -1.860820650432142E-004
 -9.962380108991418E-005
 -9.894992311940720E-005
 -1.509399344479613E-004
 -1.741301987251836E-004
 -1.748988693508772E-004
 -1.756644824416589E-004
 -1.769281555418446E-004
 -1.784805386938882E-004
 -1.801904812030107E-004
 -1.819377704913435E-004
 -1.836193236807634E-004
 -1.851431037112298E-004
 -1.864248004880958E-004
 -1.873849217874185E-004
 -1.879465582117516E-004
 -1.021641328484165E-004
 -1.042957019685714E-004
 -1.613419927703687E-004
 -1.720786433264601E-004
 -1.731074117906308E-004
 -1.749169781109139E-004
 -1.769112238824917E-004
 -1.790271153518269E-004
 -1.811622579368080E-004
 -1.832342812145439E-004
 -1.851680605591545E-004
 -1.868940883693090E-004
 -1.883456672430078E-004
 -1.894567142862991E-004
 -1.901597987147963E-004
 -1.049217415688970E-004
 -1.115489221581775E-004
 -1.652280525851529E-004
 -1.690119856246085E-004
 -1.716014434942182E-004
 -1.743452100966562E-004
 -1.771017007327997E-004
 -1.797837619186499E-004
 -1.823466369205694E-004
 -1.847443742386625E-004
 -1.869325980505360E-004
 -1.888662083135071E-004
 -1.904980941360271E-004
 -1.917774551738915E-004
 -1.926480356642336E-004
 -1.080124432613069E-004
 -1.239817315104940E-004
 -1.637340782961097E-004
 -1.662853252907432E-004
 -1.704024626275107E-004
 -1.740987759881556E-004
 -1.775593504673334E-004
 -1.807699364184995E-004
 -1.837281597892147E-004
 -1.864264733495741E-004
 -1.888510194009908E-004
 -1.909821327448725E-004
 -1.927937310388128E-004
 -1.942520454431422E-004
 -1.953138005494910E-004
 -1.109684819711147E-004
 -1.371567188466295E-004
 -1.577038587835374E-004
 -1.645957402878941E-004
 -1.696673107548096E-004
 -1.742456376959893E-004
 -1.783152072362260E-004
 -1.819749837762358E-004
 -1.852656447600545E-004
 -1.882145120288878E-004
 -1.908373093855121E-004
 -1.931400350995650E-004
 -1.951189272522903E-004
 -1.967591477180071E-004
 -1.980325358675236E-004
 -1.171742286367125E-004
 -1.483527813132665E-004
 -1.561460161817685E-004
 -1.635180319301819E-004
 -1.696195427665818E-004
 -1.748092796077644E-004
 -1.793544496474904E-004
 -1.833532471979229E-004
 -1.868876794640165E-004
 -1.900150421359900E-004
 -1.927789261548263E-004
 -1.952112246988390E-004
 -1.973321294543966E-004
 -1.991482632766288E-004
 -2.006494279106343E-004
 -1.239401524096746E-004
 -1.478917129849987E-004
 -1.559759562851370E-004
 -1.635588060914318E-004
 -1.701414901309772E-004
 -1.757680057577096E-004
 -1.806145597965782E-004
 -1.848225171641081E-004
 -1.884921639267977E-004
 -1.917068259858833E-004
 -1.945361763239220E-004
 -1.970388823983091E-004
 -1.992617890115111E-004
 -2.012368765012693E-004
 -2.029761870986293E-004
 -1.295737670993710E-004
 -1.466866853203766E-004
 -1.564352040257690E-004
 -1.643694995762319E-004
 -1.711832424570779E-004
 -1.770095517661415E-004
 -1.819927564441011E-004
 -1.862671028481077E-004
 -1.899496443891011E-004
 -1.931435515422839E-004
 -1.959438290777117E-004
 -1.984380943546023E-004
 -2.007045393569775E-004
 -2.028070148518144E-004
 -2.047868850040881E-004
 -1.360234239026497E-004
 -1.479573004817371E-004
 -1.575720564722804E-004
 -1.656852957373582E-004
 -1.725497277396303E-004
 -1.783923059344598E-004
 -1.833480731588546E-004
 -1.875464238386229E-004
 -1.911105125893398E-004
 -1.941603156378747E-004
 -1.968157609322001E-004
 -1.991974640348279E-004
 -2.014231624161333E-004
 -2.035996659917556E-004
 -2.058106779165087E-004
 -1.404123847549570E-004
 -1.500058320746669E-004
 -1.593197072756321E-004
 -1.672548882288022E-004
 -1.740233143932747E-004
 -1.797340737371827E-004
 -1.845200022082669E-004
 -1.885055548669226E-004
 -1.918168598604093E-004
 -1.945853655938704E-004
 -1.969544805603167E-004
 -1.990836921850532E-004
 -2.011434026703069E-004
 -2.033041238145980E-004
 -2.057160396831451E-004
 -1.426777671714346E-004
 -1.523077090679175E-004
 -1.611103113388749E-004
 -1.688398037679992E-004
 -1.753825128896752E-004
 -1.808448461975909E-004
 -1.853400095976217E-004
 -1.889896954508085E-004
 -1.919183127379633E-004
 -1.942597871122642E-004
 -1.961713739962988E-004
 -1.978526721533155E-004
 -1.995512969364089E-004
 -2.015340344003908E-004
 -2.040741707674240E-004
 -1.440966029656785E-004
 -1.540236204410465E-004
 -1.627231601513240E-004
 -1.701781080998447E-004
 -1.764230628407060E-004
 -1.815397894727811E-004
 -1.856454678160921E-004
 -1.888571058418085E-004
 -1.912894767423635E-004
 -1.930653289202045E-004
 -1.943295195405363E-004
 -1.952903602080499E-004
 -1.962880918763433E-004
 -1.977883984011527E-004
 -2.002548114181519E-004
 -1.449566015231649E-004
 -1.552355006963697E-004
 -1.638842413988828E-004
 -1.710763788007287E-004
 -1.769515800777327E-004
 -1.816455011257408E-004
 -1.852857891152381E-004
 -1.879857891598868E-004
 -1.898460453248407E-004
 -1.909493554625559E-004
 -1.914044368651607E-004
 -1.913438513835744E-004
 -1.910573032043705E-004
 -1.912894192362698E-004
 -1.931678629872227E-004
 -1.454769976617170E-004
 -1.559772552553393E-004
 -1.645040889543424E-004
 -1.713627323583778E-004
 -1.767953840356649E-004
 -1.809963653767420E-004
 -1.841186569261984E-004
 -1.862763193132270E-004
 -1.875353658656264E-004
 -1.879563285753227E-004
 -1.875013747268808E-004
 -1.862700714211147E-004
 -1.841584240814249E-004
 -1.816460738116081E-004
 -1.793605355507823E-004
 -1.458131455464619E-004
 -1.562950506800014E-004
 -1.645194820585884E-004
 -1.709064536141667E-004
 -1.757897441371289E-004
 -1.794263779163840E-004
 -1.820006181124499E-004
 -1.836251835453226E-004
 -1.843591913425552E-004
 -1.841196041011816E-004
 -1.829835289935872E-004
 -1.804203947599576E-004
 -1.769970097808170E-004
 -1.692528368879989E-004
 -1.464015161782809E-004
 -1.461051542448593E-004
 -1.562269845329856E-004
 -1.638777694603686E-004
 -1.695842657639762E-004
 -1.737678644440120E-004
 -1.767516265367163E-004
 -1.787615791805101E-004
 -1.799186042110157E-004
 -1.802349715792326E-004
 -1.797279639368070E-004
 -1.777977730950306E-004
 -1.746758866884754E-004
 -1.564712213656954E-004
 -1.345277992715238E-004
 -1.380075563167340E-004
 -1.464878326116558E-004
 -1.558052626610928E-004
 -1.625228400612965E-004
 -1.672678630005548E-004
 -1.705456242913830E-004
 -1.727502283231818E-004
 -1.741666760583654E-004
 -1.749617749511969E-004
 -1.751262617081409E-004
 -1.744859460194682E-004
 -1.729249688650197E-004
 -1.482241411862098E-004
 -1.235341503035906E-004
 -1.292909075478105E-004
 -1.421037561616861E-004
 -1.470889338728413E-004
 -1.550527757031238E-004
 -1.603905923183415E-004
 -1.638189038831574E-004
 -1.659180478733237E-004
 -1.671519330950556E-004
 -1.678822924769048E-004
 -1.683633670388486E-004
 -1.687499477920599E-004
 -1.687795949938075E-004
 -1.538987581090178E-004
 -1.122672585795520E-004
 -1.133635983771671E-004
 -1.232846585140288E-004
 -1.346075860643874E-004
 -1.480174416326912E-004
 -1.539766943339638E-004
 -1.574059312864838E-004
 -1.590920208981548E-004
 -1.596713947109753E-004
 -1.596599748224930E-004
 -1.594875338653402E-004
 -1.595280258055591E-004
 -1.600674702925556E-004
 -1.602734074603773E-004
 -1.207349151573918E-004
 -9.402093057928798E-005
 -1.011854592727709E-004
 -1.108345199174213E-004
 -1.218402001897475E-004
 -1.493466556069899E-004
 -1.525574940537554E-004
 -1.534768606281853E-004
 -1.529391876161748E-004
 -1.516076085679322E-004
 -1.500085674751141E-004
 -1.485876629394463E-004
 -1.477905573677086E-004
 -1.481024483433070E-004
 -1.463492895748818E-004
 -9.132467865037393E-005
 -7.768896718122613E-005
 -8.436112648355418E-005
 -9.385478919785632E-005
 -1.051052220006571E-004
 -1.510968016944818E-004
 -1.507304339082675E-004
 -1.484769767025215E-004
 -1.452033982725274E-004
 -1.415638439720762E-004
 -1.380306625140401E-004
 -1.349712214082003E-004
 -1.327612546688286E-004
 -1.320276767377055E-004
 -1.288426559193234E-004
 -7.159475329914423E-005
 -5.841935387750961E-005
 -6.367071894662377E-005
 -7.292817526244807E-005
 -8.477332766361165E-005
 -1.532203320272090E-004
 -1.483506300415816E-004
 -1.422016037233297E-004
 -1.356864509012509E-004
 -1.294064593008074E-004
 -1.236900275659389E-004
 -1.187091170130975E-004
 -1.146155060328934E-004
 -1.117041961370276E-004
 -1.084153148314823E-004
 -6.250059239105369E-005
 -3.455945728651451E-005
 -3.928488506280549E-005
 -4.835411981522811E-005
 -6.078340974186189E-005
 -1.555879459238709E-004
 -1.451129888452011E-004
 -1.342718339244302E-004
 -1.240811230118489E-004
 -1.149966483059229E-004
 -1.070571411833075E-004
 -1.001219536526722E-004
 -9.401805552390147E-005
 -8.854973641284582E-005
 -8.350251914278097E-005
 -5.936156439411493E-005
 -1.142203033402338E-005
 -1.157056719472364E-005
 -1.956106292804500E-005
 -3.281309435258727E-005
 -1.579301009890819E-004
 -1.403438005294839E-004
 -1.239357865867363E-004
 -1.098881737958685E-004
 -9.817310285682410E-005
 -8.825992703330633E-005
 -7.963520065634724E-005
 -7.181527018855320E-005
 -6.428536185959685E-005
 -5.619292591624477E-005
 -4.656856136333124E-005
 -3.340225384128425E-006
  1.983322524450645E-005
  1.333767986836922E-005
  2.895127682998781E-007
 -1.596006637444468E-004
 -1.322726510662307E-004
 -1.097729169479444E-004
 -9.251550360748302E-005
 -7.879124196747387E-005
 -6.746056304716061E-005
 -5.766722723488510E-005
 -4.869718108305468E-005
 -3.984279243009951E-005
 -3.034618975768452E-005
 -1.910781945689159E-005
 -3.264756041468595E-006
  4.487715861485347E-005
  5.195759220020724E-005
  3.973502725837558E-005
 -1.563801755377040E-004
 -1.163777279787407E-004
 -9.047546462448608E-005
 -7.152544546921999E-005
 -5.683476621720488E-005
 -4.487256797012089E-005
 -3.459818649549779E-005
 -2.517978489994756E-005
 -1.583975262507270E-005
 -5.771390140521749E-006
  5.951764658513975E-006
  2.020988075898649E-005
  4.361026967549446E-005
  9.777734095220201E-005
  7.833031574606958E-005
SCALARS poroP double 
LOOKUP_TABLE default
  5.085893760317985E-006
  3.107993272166283E-006
  1.083272331013808E-006
  0.000000000000000E+000
  0.000000000000000E+000
  0.000000000000000E+000
  0.000000000000000E+000
  0.000000000000000E+000
  0.000000000000000E+000
  0.000000000000000E+000
  0.000000000000000E+000
  0.000000000000000E+000
  0.000000000000000E+000
  0.000000000000000E+000
  0.000000000000000E+000
  5.015610188421370E-006
  3.038782655844507E-006
  1.018380571192123E-006
  0.000000000000000E+000
  0.000000000000000E+000
  0.000000000000000E+000
  0.000000000000000E+000
  0.000000000000000E+000
  0.000000000000000E+000
  0.000000000000000E+000
  0.000000000000000E+000
  0.000000000000000E+000
  0.000000000000000E+000
  0.000000000000000E+000
  0.000000000000000E+000
  4.879402038687295E-006
  2.892335550414846E-006
  8.749164706294072E-007
  0.000000000000000E+000
  0.000000000000000E+000
  0.000000000000000E+000
  0.000000000000000E+000
  0.000000000000000E+000
  0.000000000000000E+000
  0.000000000000000E+000
  0.000000000000000E+000
  0.000000000000000E+000
  0.000000000000000E+000
  0.000000000000000E+000
  0.000000000000000E+000
  4.680787650462645E-006
  2.669429307136720E-006
  6.457139372012106E-007
  0.000000000000000E+000
  0.000000000000000E+000
  0.000000000000000E+000
  0.000000000000000E+000
  0.000000000000000E+000
  0.000000000000000E+000
  0.000000000000000E+000
  0.000000000000000E+000
  0.000000000000000E+000
  0.000000000000000E+000
  0.000000000000000E+000
  0.000000000000000E+000
  4.391204200801919E-006
  2.363695407220599E-006
  3.866407878260857E-007
  0.000000000000000E+000
  0.000000000000000E+000
  0.000000000000000E+000
  0.000000000000000E+000
  0.000000000000000E+000
  0.000000000000000E+000
  0.000000000000000E+000
  0.000000000000000E+000
  0.000000000000000E+000
  0.000000000000000E+000
  0.000000000000000E+000
  0.000000000000000E+000
  3.994505679084060E-006
  1.965360015516900E-006
  2.203628207510044E-007
  0.000000000000000E+000
  0.000000000000000E+000
  0.000000000000000E+000
  0.000000000000000E+000
  0.000000000000000E+000
  0.000000000000000E+000
  0.000000000000000E+000
  0.000000000000000E+000
  0.000000000000000E+000
  0.000000000000000E+000
  0.000000000000000E+000
  0.000000000000000E+000
  3.486869655676395E-006
  1.449523433120358E-006
  2.540463532138248E-008
  0.000000000000000E+000
  0.000000000000000E+000
  0.000000000000000E+000
  0.000000000000000E+000
  0.000000000000000E+000
  0.000000000000000E+000
  0.000000000000000E+000
  0.000000000000000E+000
  0.000000000000000E+000
  0.000000000000000E+000
  0.000000000000000E+000
  0.000000000000000E+000
  2.860125720953433E-006
  8.789640356020553E-007
  0.000000000000000E+000
  0.000000000000000E+000
  0.000000000000000E+000
  0.000000000000000E+000
  0.000000000000000E+000
  0.000000000000000E+000
  0.000000000000000E+000
  0.000000000000000E+000
  0.000000000000000E+000
  0.000000000000000E+000
  0.000000000000000E+000
  0.000000000000000E+000
  0.000000000000000E+000
  2.136411207400296E-006
  3.117129266209452E-007
  0.000000000000000E+000
  0.000000000000000E+000
  0.000000000000000E+000
  0.000000000000000E+000
  0.000000000000000E+000
  0.000000000000000E+000
  0.000000000000000E+000
  0.000000000000000E+000
  0.000000000000000E+000
  0.000000000000000E+000
  0.000000000000000E+000
  0.000000000000000E+000
  0.000000000000000E+000
  1.346604644482565E-006
  3.288665150931939E-008
  0.000000000000000E+000
  0.000000000000000E+000
  0.000000000000000E+000
  0.000000000000000E+000
  0.000000000000000E+000
  0.000000000000000E+000
  0.000000000000000E+000
  0.000000000000000E+000
  0.000000000000000E+000
  0.000000000000000E+000
  0.000000000000000E+000
  0.000000000000000E+000
  0.000000000000000E+000
  5.976950397974544E-007
  0.000000000000000E+000
  0.000000000000000E+000
  0.000000000000000E+000
  0.000000000000000E+000
  0.000000000000000E+000
  0.000000000000000E+000
  0.000000000000000E+000
  0.000000000000000E+000
  0.000000000000000E+000
  0.000000000000000E+000
  0.000000000000000E+000
  0.000000000000000E+000
  0.000000000000000E+000
  0.000000000000000E+000
  1.430970698838877E-007
  0.000000000000000E+000
  0.000000000000000E+000
  0.000000000000000E+000
  0.000000000000000E+000
  0.000000000000000E+000
  0.000000000000000E+000
  0.000000000000000E+000
  0.000000000000000E+000
  0.000000000000000E+000
  0.000000000000000E+000
  0.000000000000000E+000
  0.000000000000000E+000
  0.000000000000000E+000
  0.000000000000000E+000
  0.000000000000000E+000
  0.000000000000000E+000
  0.000000000000000E+000
  0.000000000000000E+000
  0.000000000000000E+000
  0.000000000000000E+000
  0.000000000000000E+000
  0.000000000000000E+000
  0.000000000000000E+000
  0.000000000000000E+000
  0.000000000000000E+000
  0.000000000000000E+000
  0.000000000000000E+000
  0.000000000000000E+000
  0.000000000000000E+000
  0.000000000000000E+000
  0.000000000000000E+000
  0.000000000000000E+000
  0.000000000000000E+000
  0.000000000000000E+000
  0.000000000000000E+000
  0.000000000000000E+000
  0.000000000000000E+000
  0.000000000000000E+000
  0.000000000000000E+000
  0.000000000000000E+000
  0.000000000000000E+000
  0.000000000000000E+000
  0.000000000000000E+000
  0.000000000000000E+000
  0.000000000000000E+000
  0.000000000000000E+000
  0.000000000000000E+000
  0.000000000000000E+000
  0.000000000000000E+000
  0.000000000000000E+000
  0.000000000000000E+000
  0.000000000000000E+000
  0.000000000000000E+000
  0.000000000000000E+000
  0.000000000000000E+000
  0.000000000000000E+000
  0.000000000000000E+000
  0.000000000000000E+000
  0.000000000000000E+000
  0.000000000000000E+000
  0.000000000000000E+000
  0.000000000000000E+000
  0.000000000000000E+000
  0.000000000000000E+000
  0.000000000000000E+000
  0.000000000000000E+000
  0.000000000000000E+000
  0.000000000000000E+000
  0.000000000000000E+000
  0.000000000000000E+000
  0.000000000000000E+000
  0.000000000000000E+000
  0.000000000000000E+000
  0.000000000000000E+000
  0.000000000000000E+000
  0.000000000000000E+000
  0.000000000000000E+000
  0.000000000000000E+000
  0.000000000000000E+000
  0.000000000000000E+000
  0.000000000000000E+000
  0.000000000000000E+000
  0.000000000000000E+000
  0.000000000000000E+000
  0.000000000000000E+000
  0.000000000000000E+000
  0.000000000000000E+000
  0.000000000000000E+000
  0.000000000000000E+000
  0.000000000000000E+000
  0.000000000000000E+000
  0.000000000000000E+000
  0.000000000000000E+000
  0.000000000000000E+000
  0.000000000000000E+000
  0.000000000000000E+000
  0.000000000000000E+000
  0.000000000000000E+000
  0.000000000000000E+000
  0.000000000000000E+000
  0.000000000000000E+000
  0.000000000000000E+000
  0.000000000000000E+000
  0.000000000000000E+000
  0.000000000000000E+000
  0.000000000000000E+000
  0.000000000000000E+000
  0.000000000000000E+000
  0.000000000000000E+000
  0.000000000000000E+000
  0.000000000000000E+000
  0.000000000000000E+000
  0.000000000000000E+000
  0.000000000000000E+000
  0.000000000000000E+000
  0.000000000000000E+000
  0.000000000000000E+000
  0.000000000000000E+000
  3.178383764753215E-007
  0.000000000000000E+000
  0.000000000000000E+000
  0.000000000000000E+000
  0.000000000000000E+000
  0.000000000000000E+000
  0.000000000000000E+000
  0.000000000000000E+000
  0.000000000000000E+000
  0.000000000000000E+000
  0.000000000000000E+000
  0.000000000000000E+000
  0.000000000000000E+000
  1.787459623594968E-007
  8.147770179985910E-007
  1.735132943069661E-006
  0.000000000000000E+000
  0.000000000000000E+000
  0.000000000000000E+000
  0.000000000000000E+000
  0.000000000000000E+000
  0.000000000000000E+000
  0.000000000000000E+000
  0.000000000000000E+000
  0.000000000000000E+000
  0.000000000000000E+000
  0.000000000000000E+000
  3.256885333803601E-007
  1.294917543283899E-006
  2.410086605360683E-006
  3.267550782746105E-006
  0.000000000000000E+000
  0.000000000000000E+000
  0.000000000000000E+000
  0.000000000000000E+000
  0.000000000000000E+000
  0.000000000000000E+000
  0.000000000000000E+000
  0.000000000000000E+000
  0.000000000000000E+000
  0.000000000000000E+000
  2.306390802882334E-007
  1.307910994964662E-006
  2.633588573414535E-006
  3.833556323282755E-006
  4.722736085645614E-006
  0.000000000000000E+000
  0.000000000000000E+000
  0.000000000000000E+000
  0.000000000000000E+000
  0.000000000000000E+000
  0.000000000000000E+000
  0.000000000000000E+000
  0.000000000000000E+000
  0.000000000000000E+000
  2.971899115458416E-008
  7.698569124041312E-007
  2.213677343698474E-006
  3.697998164675006E-006
  5.058327701158195E-006
  6.132510442912604E-006
  0.000000000000000E+000
  0.000000000000000E+000
  0.000000000000000E+000
  0.000000000000000E+000
  0.000000000000000E+000
  0.000000000000000E+000
  0.000000000000000E+000
  0.000000000000000E+000
  0.000000000000000E+000
  8.999015477055085E-008
  1.200126192069265E-006
  2.788048313266284E-006
  4.439622435458224E-006
  6.059661451295434E-006
  7.469878765936716E-006
  0.000000000000000E+000
  0.000000000000000E+000
  0.000000000000000E+000
  0.000000000000000E+000
  0.000000000000000E+000
  0.000000000000000E+000
  0.000000000000000E+000
  0.000000000000000E+000
  0.000000000000000E+000
  9.797631892100401E-008
  1.294419972368988E-006
  2.978266237994898E-006
  4.820956456181269E-006
  6.773657901638537E-006
  8.683478327410652E-006
  0.000000000000000E+000
  0.000000000000000E+000
  0.000000000000000E+000
  0.000000000000000E+000
  0.000000000000000E+000
  0.000000000000000E+000
  0.000000000000000E+000
  0.000000000000000E+000
  0.000000000000000E+000
  4.820678836453905E-008
  1.025626231993652E-006
  2.757728515159396E-006
  4.790360067027601E-006
  7.102920783259778E-006
  9.656899105570725E-006
  0.000000000000000E+000
  0.000000000000000E+000
  0.000000000000000E+000
  0.000000000000000E+000
  0.000000000000000E+000
  0.000000000000000E+000
  0.000000000000000E+000
  0.000000000000000E+000
  0.000000000000000E+000
  0.000000000000000E+000
  4.533806195368061E-007
  2.113186441988761E-006
  4.290940687714600E-006
  6.972364954715713E-006
  1.029335944820439E-005
  0.000000000000000E+000
  0.000000000000000E+000
  0.000000000000000E+000
  0.000000000000000E+000
  0.000000000000000E+000
  0.000000000000000E+000
  0.000000000000000E+000
  0.000000000000000E+000
  0.000000000000000E+000
  0.000000000000000E+000
  1.905371179453394E-008
  1.100964375255188E-006
  3.282416164170185E-006
  6.306161606068727E-006
  1.052501689223883E-005
  0.000000000000000E+000
  0.000000000000000E+000
  0.000000000000000E+000
  0.000000000000000E+000
  0.000000000000000E+000
  0.000000000000000E+000
  0.000000000000000E+000
  0.000000000000000E+000
  0.000000000000000E+000
  0.000000000000000E+000
  0.000000000000000E+000
  1.016926762181087E-007
  1.805795687852090E-006
  4.987433554593050E-006
  1.031285725838835E-005
  3.991557844373531E-009
  0.000000000000000E+000
  0.000000000000000E+000
  0.000000000000000E+000
  0.000000000000000E+000
  0.000000000000000E+000
  0.000000000000000E+000
  0.000000000000000E+000
  0.000000000000000E+000
  0.000000000000000E+000
  0.000000000000000E+000
  0.000000000000000E+000
  2.306043811109797E-007
  3.101005045701143E-006
  9.599003553901413E-006
SCALARS elementIsPlast double 
LOOKUP_TABLE default
   1.00000000000000     
   1.00000000000000     
   1.00000000000000     
  0.000000000000000E+000
  0.000000000000000E+000
  0.000000000000000E+000
  0.000000000000000E+000
  0.000000000000000E+000
  0.000000000000000E+000
  0.000000000000000E+000
  0.000000000000000E+000
  0.000000000000000E+000
  0.000000000000000E+000
  0.000000000000000E+000
  0.000000000000000E+000
   1.00000000000000     
   1.00000000000000     
   1.00000000000000     
  0.000000000000000E+000
  0.000000000000000E+000
  0.000000000000000E+000
  0.000000000000000E+000
  0.000000000000000E+000
  0.000000000000000E+000
  0.000000000000000E+000
  0.000000000000000E+000
  0.000000000000000E+000
  0.000000000000000E+000
  0.000000000000000E+000
  0.000000000000000E+000
   1.00000000000000     
   1.00000000000000     
   1.00000000000000     
  0.000000000000000E+000
  0.000000000000000E+000
  0.000000000000000E+000
  0.000000000000000E+000
  0.000000000000000E+000
  0.000000000000000E+000
  0.000000000000000E+000
  0.000000000000000E+000
  0.000000000000000E+000
  0.000000000000000E+000
  0.000000000000000E+000
  0.000000000000000E+000
   1.00000000000000     
   1.00000000000000     
   1.00000000000000     
  0.000000000000000E+000
  0.000000000000000E+000
  0.000000000000000E+000
  0.000000000000000E+000
  0.000000000000000E+000
  0.000000000000000E+000
  0.000000000000000E+000
  0.000000000000000E+000
  0.000000000000000E+000
  0.000000000000000E+000
  0.000000000000000E+000
  0.000000000000000E+000
   1.00000000000000     
   1.00000000000000     
   1.00000000000000     
  0.000000000000000E+000
  0.000000000000000E+000
  0.000000000000000E+000
  0.000000000000000E+000
  0.000000000000000E+000
  0.000000000000000E+000
  0.000000000000000E+000
  0.000000000000000E+000
  0.000000000000000E+000
  0.000000000000000E+000
  0.000000000000000E+000
  0.000000000000000E+000
   1.00000000000000     
   1.00000000000000     
   1.00000000000000     
  0.000000000000000E+000
  0.000000000000000E+000
  0.000000000000000E+000
  0.000000000000000E+000
  0.000000000000000E+000
  0.000000000000000E+000
  0.000000000000000E+000
  0.000000000000000E+000
  0.000000000000000E+000
  0.000000000000000E+000
  0.000000000000000E+000
  0.000000000000000E+000
   1.00000000000000     
   1.00000000000000     
   1.00000000000000     
  0.000000000000000E+000
  0.000000000000000E+000
  0.000000000000000E+000
  0.000000000000000E+000
  0.000000000000000E+000
  0.000000000000000E+000
  0.000000000000000E+000
  0.000000000000000E+000
  0.000000000000000E+000
  0.000000000000000E+000
  0.000000000000000E+000
  0.000000000000000E+000
   1.00000000000000     
   1.00000000000000     
  0.000000000000000E+000
  0.000000000000000E+000
  0.000000000000000E+000
  0.000000000000000E+000
  0.000000000000000E+000
  0.000000000000000E+000
  0.000000000000000E+000
  0.000000000000000E+000
  0.000000000000000E+000
  0.000000000000000E+000
  0.000000000000000E+000
  0.000000000000000E+000
  0.000000000000000E+000
   1.00000000000000     
   1.00000000000000     
  0.000000000000000E+000
  0.000000000000000E+000
  0.000000000000000E+000
  0.000000000000000E+000
  0.000000000000000E+000
  0.000000000000000E+000
  0.000000000000000E+000
  0.000000000000000E+000
  0.000000000000000E+000
  0.000000000000000E+000
  0.000000000000000E+000
  0.000000000000000E+000
  0.000000000000000E+000
   1.00000000000000     
   1.00000000000000     
  0.000000000000000E+000
  0.000000000000000E+000
  0.000000000000000E+000
  0.000000000000000E+000
  0.000000000000000E+000
  0.000000000000000E+000
  0.000000000000000E+000
  0.000000000000000E+000
  0.000000000000000E+000
  0.000000000000000E+000
  0.000000000000000E+000
  0.000000000000000E+000
  0.000000000000000E+000
   1.00000000000000     
  0.000000000000000E+000
  0.000000000000000E+000
  0.000000000000000E+000
  0.000000000000000E+000
  0.000000000000000E+000
  0.000000000000000E+000
  0.000000000000000E+000
  0.000000000000000E+000
  0.000000000000000E+000
  0.000000000000000E+000
  0.000000000000000E+000
  0.000000000000000E+000
  0.000000000000000E+000
  0.000000000000000E+000
   1.00000000000000     
  0.000000000000000E+000
  0.000000000000000E+000
  0.000000000000000E+000
  0.000000000000000E+000
  0.000000000000000E+000
  0.000000000000000E+000
  0.000000000000000E+000
  0.000000000000000E+000
  0.000000000000000E+000
  0.000000000000000E+000
  0.000000000000000E+000
  0.000000000000000E+000
  0.000000000000000E+000
  0.000000000000000E+000
  0.000000000000000E+000
  0.000000000000000E+000
  0.000000000000000E+000
  0.000000000000000E+000
  0.000000000000000E+000
  0.000000000000000E+000
  0.000000000000000E+000
  0.000000000000000E+000
  0.000000000000000E+000
  0.000000000000000E+000
  0.000000000000000E+000
  0.000000000000000E+000
  0.000000000000000E+000
  0.000000000000000E+000
  0.000000000000000E+000
  0.000000000000000E+000
  0.000000000000000E+000
  0.000000000000000E+000
  0.000000000000000E+000
  0.000000000000000E+000
  0.000000000000000E+000
  0.000000000000000E+000
  0.000000000000000E+000
  0.000000000000000E+000
  0.000000000000000E+000
  0.000000000000000E+000
  0.000000000000000E+000
  0.000000000000000E+000
  0.000000000000000E+000
  0.000000000000000E+000
  0.000000000000000E+000
  0.000000000000000E+000
  0.000000000000000E+000
  0.000000000000000E+000
  0.000000000000000E+000
  0.000000000000000E+000
  0.000000000000000E+000
  0.000000000000000E+000
  0.000000000000000E+000
  0.000000000000000E+000
  0.000000000000000E+000
  0.000000000000000E+000
  0.000000000000000E+000
  0.000000000000000E+000
  0.000000000000000E+000
  0.000000000000000E+000
  0.000000000000000E+000
  0.000000000000000E+000
  0.000000000000000E+000
  0.000000000000000E+000
  0.000000000000000E+000
  0.000000000000000E+000
  0.000000000000000E+000
  0.000000000000000E+000
  0.000000000000000E+000
  0.000000000000000E+000
  0.000000000000000E+000
  0.000000000000000E+000
  0.000000000000000E+000
  0.000000000000000E+000
  0.000000000000000E+000
  0.000000000000000E+000
  0.000000000000000E+000
  0.000000000000000E+000
  0.000000000000000E+000
  0.000000000000000E+000
  0.000000000000000E+000
  0.000000000000000E+000
  0.000000000000000E+000
  0.000000000000000E+000
  0.000000000000000E+000
  0.000000000000000E+000
  0.000000000000000E+000
  0.000000000000000E+000
  0.000000000000000E+000
  0.000000000000000E+000
  0.000000000000000E+000
  0.000000000000000E+000
  0.000000000000000E+000
  0.000000000000000E+000
  0.000000000000000E+000
  0.000000000000000E+000
  0.000000000000000E+000
  0.000000000000000E+000
  0.000000000000000E+000
  0.000000000000000E+000
  0.000000000000000E+000
  0.000000000000000E+000
  0.000000000000000E+000
  0.000000000000000E+000
  0.000000000000000E+000
  0.000000000000000E+000
  0.000000000000000E+000
  0.000000000000000E+000
  0.000000000000000E+000
  0.000000000000000E+000
  0.000000000000000E+000
  0.000000000000000E+000
  0.000000000000000E+000
  0.000000000000000E+000
  0.000000000000000E+000
  0.000000000000000E+000
  0.000000000000000E+000
  0.000000000000000E+000
   1.00000000000000     
  0.000000000000000E+000
  0.000000000000000E+000
  0.000000000000000E+000
  0.000000000000000E+000
  0.000000000000000E+000
  0.000000000000000E+000
  0.000000000000000E+000
  0.000000000000000E+000
  0.000000000000000E+000
  0.000000000000000E+000
  0.000000000000000E+000
  0.000000000000000E+000
   1.00000000000000     
   1.00000000000000     
   1.00000000000000     
  0.000000000000000E+000
  0.000000000000000E+000
  0.000000000000000E+000
  0.000000000000000E+000
  0.000000000000000E+000
  0.000000000000000E+000
  0.000000000000000E+000
  0.000000000000000E+000
  0.000000000000000E+000
  0.000000000000000E+000
  0.000000000000000E+000
   1.00000000000000     
   1.00000000000000     
   1.00000000000000     
   1.00000000000000     
  0.000000000000000E+000
  0.000000000000000E+000
  0.000000000000000E+000
  0.000000000000000E+000
  0.000000000000000E+000
  0.000000000000000E+000
  0.000000000000000E+000
  0.000000000000000E+000
  0.000000000000000E+000
  0.000000000000000E+000
   1.00000000000000     
   1.00000000000000     
   1.00000000000000     
   1.00000000000000     
   1.00000000000000     
  0.000000000000000E+000
  0.000000000000000E+000
  0.000000000000000E+000
  0.000000000000000E+000
  0.000000000000000E+000
  0.000000000000000E+000
  0.000000000000000E+000
  0.000000000000000E+000
  0.000000000000000E+000
   1.00000000000000     
   1.00000000000000     
   1.00000000000000     
   1.00000000000000     
   1.00000000000000     
   1.00000000000000     
  0.000000000000000E+000
  0.000000000000000E+000
  0.000000000000000E+000
  0.000000000000000E+000
  0.000000000000000E+000
  0.000000000000000E+000
  0.000000000000000E+000
  0.000000000000000E+000
  0.000000000000000E+000
   1.00000000000000     
   1.00000000000000     
   1.00000000000000     
   1.00000000000000     
   1.00000000000000     
   1.00000000000000     
  0.000000000000000E+000
  0.000000000000000E+000
  0.000000000000000E+000
  0.000000000000000E+000
  0.000000000000000E+000
  0.000000000000000E+000
  0.000000000000000E+000
  0.000000000000000E+000
  0.000000000000000E+000
   1.00000000000000     
   1.00000000000000     
   1.00000000000000     
   1.00000000000000     
   1.00000000000000     
   1.00000000000000     
  0.000000000000000E+000
  0.000000000000000E+000
  0.000000000000000E+000
  0.000000000000000E+000
  0.000000000000000E+000
  0.000000000000000E+000
  0.000000000000000E+000
  0.000000000000000E+000
  0.000000000000000E+000
   1.00000000000000     
   1.00000000000000     
   1.00000000000000     
   1.00000000000000     
   1.00000000000000     
   1.00000000000000     
  0.000000000000000E+000
  0.000000000000000E+000
  0.000000000000000E+000
  0.000000000000000E+000
  0.000000000000000E+000
  0.000000000000000E+000
  0.000000000000000E+000
  0.000000000000000E+000
  0.000000000000000E+000
  0.000000000000000E+000
   1.00000000000000     
   1.00000000000000     
   1.00000000000000     
   1.00000000000000     
   1.00000000000000     
  0.000000000000000E+000
  0.000000000000000E+000
  0.000000000000000E+000
  0.000000000000000E+000
  0.000000000000000E+000
  0.000000000000000E+000
  0.000000000000000E+000
  0.000000000000000E+000
  0.000000000000000E+000
  0.000000000000000E+000
   1.00000000000000     
   1.00000000000000     
   1.00000000000000     
   1.00000000000000     
   1.00000000000000     
  0.000000000000000E+000
  0.000000000000000E+000
  0.000000000000000E+000
  0.000000000000000E+000
  0.000000000000000E+000
  0.000000000000000E+000
  0.000000000000000E+000
  0.000000000000000E+000
  0.000000000000000E+000
  0.000000000000000E+000
  0.000000000000000E+000
   1.00000000000000     
   1.00000000000000     
   1.00000000000000     
   1.00000000000000     
  0.000000000000000E+000
  0.000000000000000E+000
  0.000000000000000E+000
  0.000000000000000E+000
  0.000000000000000E+000
  0.000000000000000E+000
  0.000000000000000E+000
  0.000000000000000E+000
  0.000000000000000E+000
  0.000000000000000E+000
  0.000000000000000E+000
  0.000000000000000E+000
   1.00000000000000     
   1.00000000000000     
   1.00000000000000     
SCALARS poroL double 
LOOKUP_TABLE default
  0.155991348198425     
  0.155989640511140     
  0.155988016815221     
  0.155985579081395     
  0.155982282136536     
  0.155979246969771     
  0.155976451899957     
  0.155973875042920     
  0.155971496662709     
  0.155969299599446     
  0.155967269074142     
  0.155965392465676     
  0.155963659164237     
  0.155962060495900     
  0.155960589713140     
  0.155990893496761     
  0.155989191800597     
  0.155987570688519     
  0.155985066544289     
  0.155981774165321     
  0.155978750021260     
  0.155975966660616     
  0.155973400394095     
  0.155971031347801     
  0.155968842486567     
  0.155966819129043     
  0.155964948715093     
  0.155963220652362     
  0.155961626245457     
  0.155960158688576     
  0.155989981823036     
  0.155988275599295     
  0.155986660090054     
  0.155984022052856     
  0.155980751152052     
  0.155977754066656     
  0.155974995127357     
  0.155972450252183     
  0.155970100024961     
  0.155967927689965     
  0.155965918798182     
  0.155964060912807     
  0.155962343476584     
  0.155960757751075     
  0.155959296815814     
  0.155988616482541     
  0.155986881748473     
  0.155985243913291     
  0.155982418363626     
  0.155979208215340     
  0.155976257014213     
  0.155973535403342     
  0.155971023105870     
  0.155968701380354     
  0.155966554125959     
  0.155964567248891     
  0.155962728501817     
  0.155961027375241     
  0.155959455064897     
  0.155958004482610     
  0.155986759728635     
  0.155985008433306     
  0.155983280416741     
  0.155980268341860     
  0.155977149643655     
  0.155974256242430     
  0.155971585491678     
  0.155969116908485     
  0.155966833618521     
  0.155964720297822     
  0.155962763349760     
  0.155960950757441     
  0.155959272060721     
  0.155957718362096     
  0.155956282356978     
  0.155984382708452     
  0.155982655399919     
  0.155980798123641     
  0.155977631574557     
  0.155974569331564     
  0.155971751163154     
  0.155969142930684     
  0.155966729327630     
  0.155964494582695     
  0.155962424430049     
  0.155960505800423     
  0.155958726915806     
  0.155957077342769     
  0.155955548055269     
  0.155954131488351     
  0.155981477800390     
  0.155979715228851     
  0.155977565381098     
  0.155974422328355     
  0.155971473280084     
  0.155968738715941     
  0.155966205405257     
  0.155963857711054     
  0.155961681899356     
  0.155959664616190     
  0.155957793296321     
  0.155956056340522     
  0.155954443290016     
  0.155952944944530     
  0.155951553440176     
  0.155978012166256     
  0.155976286831737     
  0.155973766710528     
  0.155970683290663     
  0.155967853639129     
  0.155965217653093     
  0.155962769960750     
  0.155960499220080     
  0.155958393077906     
  0.155956438998142     
  0.155954624729369     
  0.155952938728671     
  0.155951370428305     
  0.155949910401530     
  0.155948550453909     
  0.155973995598525     
  0.155972125077383     
  0.155969286933054     
  0.155966428014232     
  0.155963713508547     
  0.155961184944471     
  0.155958833395966     
  0.155956650737390     
  0.155954625673513     
  0.155952745985562     
  0.155950999438354     
  0.155949374358645     
  0.155947859972890     
  0.155946446582583     
  0.155945125643144     
  0.155969420944585     
  0.155967286959839     
  0.155964387766870     
  0.155961639021484     
  0.155959053202360     
  0.155956636751319     
  0.155954391627079     
  0.155952308989473     
  0.155950377507189     
  0.155948584564757     
  0.155946917526000     
  0.155945364383087     
  0.155943914085476     
  0.155942556657293     
  0.155941283209423     
  0.155964290052386     
  0.155961774175845     
  0.155958976451727     
  0.155956332705666     
  0.155953862691340     
  0.155951566910529     
  0.155949439639292     
  0.155947470754353     
  0.155945647073094     
  0.155943954739931     
  0.155942380269411     
  0.155940911166396     
  0.155939536134069     
  0.155938245019087     
  0.155937028652039     
  0.155958488569016     
  0.155955726088703     
  0.155953015300999     
  0.155950478366017     
  0.155948130452332     
  0.155945965795980     
  0.155943971889772     
  0.155942133444914     
  0.155940434202357     
  0.155938858175597     
  0.155937390656730     
  0.155936018662775     
  0.155934730909538     
  0.155933517403768     
  0.155932368901243     
  0.155952047708506     
  0.155949126685616     
  0.155946469472617     
  0.155944045824611     
  0.155941836687230     
  0.155939822905231     
  0.155937983237511     
  0.155936296179122     
  0.155934741076682     
  0.155933299118022     
  0.155931954110395     
  0.155930692836376     
  0.155929504716531     
  0.155928380761736     
  0.155927312213389     
  0.155944808041636     
  0.155941856317302     
  0.155939286098723     
  0.155937002874773     
  0.155934961975282     
  0.155933128290653     
  0.155931470886477     
  0.155929961269452     
  0.155928573652274     
  0.155927285712683     
  0.155926079533112     
  0.155924942183042     
  0.155923865207761     
  0.155922842570627     
  0.155921867458696     
  0.155936616480418     
  0.155933820538326     
  0.155931410025894     
  0.155929319717211     
  0.155927490421449     
  0.155925875976343     
  0.155924436397364     
  0.155923136076471     
  0.155921943472949     
  0.155920831898302     
  0.155919781024004     
  0.155918778621369     
  0.155917820858439     
  0.155916908896685     
  0.155916041935365     
  0.155927520480203     
  0.155924966279211     
  0.155922806720683     
  0.155920975629621     
  0.155919413350161     
  0.155918066467624     
  0.155916887796236     
  0.155915834884988     
  0.155914869756825     
  0.155913959992393     
  0.155913081010046     
  0.155912219900471     
  0.155911380192935     
  0.155910579921419     
  0.155909835179350     
  0.155917514110165     
  0.155915289649542     
  0.155913462097220     
  0.155911963880153     
  0.155910731975788     
  0.155909708696665     
  0.155908841134478     
  0.155908080415959     
  0.155907381496612     
  0.155906703791902     
  0.155906015091903     
  0.155905296894739     
  0.155904554906965     
  0.155903838423402     
  0.155903221881834     
  0.155906598948973     
  0.155904792803807     
  0.155903380792707     
  0.155902291542959     
  0.155901458750639     
  0.155900821038385     
  0.155900321141210     
  0.155899904668256     
  0.155899518463151     
  0.155899112116477     
  0.155898637910865     
  0.155898064613476     
  0.155897385685990     
  0.155896648570939     
  0.155896070756179     
  0.155894783926754     
  0.155893489712646     
  0.155892579911996     
  0.155891978988262     
  0.155891617446049     
  0.155891431378908     
  0.155891360956026     
  0.155891347633576     
  0.155891332027448     
  0.155891247544600     
  0.155891032884962     
  0.155890613410871     
  0.155889965427870     
  0.155889092958665     
  0.155888085393875     
  0.155882090551180     
  0.155881407097830     
  0.155881089995655     
  0.155881059391747     
  0.155881243179482     
  0.155881576612735     
  0.155882000240547     
  0.155882455594423     
  0.155882877290852     
  0.155883194507756     
  0.155883291989036     
  0.155883111108636     
  0.155882481285210     
  0.155881623239166     
  0.155880227502052     
  0.155868555342806     
  0.155868586641819     
  0.155868956380879     
  0.155869579884671     
  0.155870382962615     
  0.155871302179075     
  0.155872282810984     
  0.155873273480621     
  0.155874214972823     
  0.155875013741155     
  0.155875599335305     
  0.155875694830275     
  0.155875289286793     
  0.155874332284257     
  0.155872798347049     
  0.155854231350796     
  0.155855086976851     
  0.155856241475285     
  0.155857603732965     
  0.155859097488909     
  0.155860662749124     
  0.155862254570887     
  0.155863838251770     
  0.155865379426739     
  0.155866809565405     
  0.155867970264766     
  0.155868251036427     
  0.155867923832529     
  0.155866958657116     
  0.155865462849898     
  0.155839188803268     
  0.155840985954817     
  0.155843027967171     
  0.155845213897266     
  0.155847464587647     
  0.155849725191351     
  0.155851964808433     
  0.155854174781008     
  0.155856362397193     
  0.155858555826153     
  0.155860014366837     
  0.155860472763197     
  0.155860315513731     
  0.155859535388516     
  0.155858140825031     
  0.155823515478668     
  0.155826383860785     
  0.155829423636555     
  0.155832518347331     
  0.155835584564695     
  0.155838574257148     
  0.155841473402091     
  0.155844301904141     
  0.155847122319368     
  0.155849974665340     
  0.155851635280597     
  0.155852399159408     
  0.155852526782866     
  0.155852011769561     
  0.155850807788304     
  0.155807317786896     
  0.155811409030220     
  0.155815569019969     
  0.155819657672970     
  0.155823587048312     
  0.155827319873840     
  0.155830862061385     
  0.155834258085775     
  0.155837604421561     
  0.155840919033837     
  0.155842961224914     
  0.155844087272947     
  0.155844544029953     
  0.155844359463892     
  0.155843467552745     
  0.155790724489827     
  0.155796228936241     
  0.155801650506129     
  0.155806815747237     
  0.155811638126956     
  0.155816102941841     
  0.155820243842308     
  0.155824126673934     
  0.155827842733604     
  0.155831459128400     
  0.155834074175140     
  0.155835572867243     
  0.155836386634935     
  0.155836516794516     
  0.155836052594903     
  0.155773897008743     
  0.155781074589727     
  0.155787923992340     
  0.155794233935727     
  0.155799945137039     
  0.155805095104187     
  0.155809763383848     
  0.155814039170767     
  0.155818007412894     
  0.155821716166827     
  0.155824897779578     
  0.155826909863132     
  0.155828111868944     
  0.155828559206537     
  0.155828529101621     
  0.155757062852662     
  0.155766298008190     
  0.155774759035296     
  0.155782225553648     
  0.155788750964075     
  0.155794489191435     
  0.155799583779808     
  0.155804155695728     
  0.155808295730671     
  0.155812054187323     
  0.155815449748235     
  0.155818089696539     
  0.155819762998127     
  0.155820556153537     
  0.155820864421953     
  0.155740619512672     
  0.155752540607010     
  0.155762706183365     
  0.155771153279344     
  0.155778312485816     
  0.155784478491572     
  0.155789865694229     
  0.155794628061490     
  0.155798872272686     
  0.155802667968868     
  0.155806031669421     
  0.155808991097705     
  0.155811187026620     
  0.155812542613501     
  0.155812997219419     
  0.155725901891285     
  0.155741120210770     
  0.155752357392824     
  0.155761369351982     
  0.155768857392614     
  0.155775229051840     
  0.155780744429969     
  0.155785578533251     
  0.155789849048854     
  0.155793629945152     
  0.155796969872830     
  0.155799866108090     
  0.155802300287010     
  0.155803474836699     
  0.155805133121840     
